*Heading
 /Users/juliagao/geometry-optimization-net/scripts/../runs/constraint_sweep/shape_1.inp
*NODE
1, 0, -0.3, 0
2, 0.425, -0.3, 0
3, 0.575, -0.3, 0
4, 1, -0.3, 0
5, 1, 0.3, 0
6, 0.575, 0.3, 0
7, 0.425, 0.3, 0
8, 0, 0.3, 0
9, 0.754, 0.03, 0
10, 0.024385318341126, -0.3, 0
11, 0.074064132579406, -0.3, 0
12, 0.12572286274064, -0.3, 0
13, 0.17806001455698, -0.3, 0
14, 0.22805229860976, -0.3, 0
15, 0.27377230202394, -0.3, 0
16, 0.31455639732332, -0.3, 0
17, 0.35007542630613, -0.3, 0
18, 0.38145234813566, -0.3, 0
19, 0.41069734968405, -0.3, 0
20, 0.048770636682252, -0.3, 0
21, 0.09935762847656, -0.3, 0
22, 0.15208809700471, -0.3, 0
23, 0.20403193210926, -0.3, 0
24, 0.25207266511026, -0.3, 0
25, 0.29547193893761, -0.3, 0
26, 0.33364085570903, -0.3, 0
27, 0.36650999690323, -0.3, 0
28, 0.39639469936809, -0.3, 0
29, 0.43803310468931, -0.3, 0
30, 0.46330613596872, -0.3, 0
31, 0.48756293396358, -0.3, 0
32, 0.51175826175681, -0.3, 0
33, 0.53637768765894, -0.3, 0
34, 0.56190932858631, -0.3, 0
35, 0.45106620937862, -0.3, 0
36, 0.47554606255881, -0.3, 0
37, 0.49957980536835, -0.3, 0
38, 0.52393671814526, -0.3, 0
39, 0.54881865717262, -0.3, 0
40, 0.58953599301, -0.3, 0
41, 0.61963939555186, -0.3, 0
42, 0.65266503955464, -0.3, 0
43, 0.68997708437212, -0.3, 0
44, 0.7320074588203, -0.3, 0
45, 0.77833354105887, -0.3, 0
46, 0.82751687261695, -0.3, 0
47, 0.87750435521033, -0.3, 0
48, 0.92701385451172, -0.3, 0
49, 0.97578484232042, -0.3, 0
50, 0.60407198602, -0.3, 0
51, 0.63520680508372, -0.3, 0
52, 0.67012327402556, -0.3, 0
53, 0.70983089471869, -0.3, 0
54, 0.75418402292191, -0.3, 0
55, 0.80248305919584, -0.3, 0
56, 0.85255068603807, -0.3, 0
57, 0.90245802438259, -0.3, 0
58, 0.95156968464084, -0.3, 0
59, 1, -0.27364345063254, 0
60, 1, -0.21947360334561, 0
61, 1, -0.16322482270162, 0
62, 1, -0.10633363839387, 0
63, 1, -0.049589224947296, 0
64, 1, 0.0063901751111912, 0
65, 1, 0.061333027874009, 0
66, 1, 0.11556828034823, 0
67, 1, 0.16915095408625, 0
68, 1, 0.2218876691157, 0
69, 1, 0.27401239915685, 0
70, 1, -0.24728690126508, 0
71, 1, -0.19166030542614, 0
72, 1, -0.13478933997711, 0
73, 1, -0.077877936810636, 0
74, 1, -0.021300513083955, 0
75, 1, 0.034080863306338, 0
76, 1, 0.08858519244168, 0
77, 1, 0.14255136825478, 0
78, 1, 0.19575053991771, 0
79, 1, 0.24802479831369, 0
80, 0.97404071243805, 0.3, 0
81, 0.92172396635058, 0.3, 0
82, 0.86985547208919, 0.3, 0
83, 0.82106668729136, 0.3, 0
84, 0.77754868541283, 0.3, 0
85, 0.74054525993031, 0.3, 0
86, 0.70963295787465, 0.3, 0
87, 0.68346436519567, 0.3, 0
88, 0.66089283687641, 0.3, 0
89, 0.64100642833735, 0.3, 0
90, 0.62344392322878, 0.3, 0
91, 0.60778664411816, 0.3, 0
92, 0.59370422135092, 0.3, 0
93, 0.5810254580474, 0.3, 0
94, 0.9480814248761, 0.3, 0
95, 0.89536650782505, 0.3, 0
96, 0.84434443635333, 0.3, 0
97, 0.79778893822939, 0.3, 0
98, 0.75730843259628, 0.3, 0
99, 0.72378208726434, 0.3, 0
100, 0.69548382848495, 0.3, 0
101, 0.67144490190639, 0.3, 0
102, 0.65034077184642, 0.3, 0
103, 0.63167208482828, 0.3, 0
104, 0.61521576162928, 0.3, 0
105, 0.60035752660705, 0.3, 0
106, 0.58705091609479, 0.3, 0
107, 0.56944672857515, 0.3, 0
108, 0.44098826306591, 0.3, 0
109, 0.45080145107421, 0.3, 0
110, 0.46024701055275, 0.3, 0
111, 0.4692648052141, 0.3, 0
112, 0.47784124635754, 0.3, 0
113, 0.48630197967095, 0.3, 0
114, 0.49485219397863, 0.3, 0
115, 0.50346526124904, 0.3, 0
116, 0.51217317304642, 0.3, 0
117, 0.52106104933705, 0.3, 0
118, 0.53015104303418, 0.3, 0
119, 0.53940875269644, 0.3, 0
120, 0.54888891526349, 0.3, 0
121, 0.55879884631066, 0.3, 0
122, 0.43048642832162, 0.3, 0
123, 0.5638934571503, 0.3, 0
124, 0.55370423547102, 0.3, 0
125, 0.54407359505595, 0.3, 0
126, 0.53474391033693, 0.3, 0
127, 0.52555817573144, 0.3, 0
128, 0.51656392294267, 0.3, 0
129, 0.50778242315017, 0.3, 0
130, 0.49914809934792, 0.3, 0
131, 0.49055628860935, 0.3, 0
132, 0.48204767073255, 0.3, 0
133, 0.47363482198254, 0.3, 0
134, 0.46489478844566, 0.3, 0
135, 0.45559923265983, 0.3, 0
136, 0.4460036694886, 0.3, 0
137, 0.43597285664323, 0.3, 0
138, 0.41896792474993, 0.3, 0
139, 0.40623770072466, 0.3, 0
140, 0.39230314237541, 0.3, 0
141, 0.37705418861968, 0.3, 0
142, 0.3600720398945, 0.3, 0
143, 0.34082684317525, 0.3, 0
144, 0.31878114271466, 0.3, 0
145, 0.29316281241575, 0.3, 0
146, 0.26265804023202, 0.3, 0
147, 0.2253455694848, 0.3, 0
148, 0.18059847944432, 0.3, 0
149, 0.13025388292224, 0.3, 0
150, 0.077684327608146, 0.3, 0
151, 0.025684099676632, 0.3, 0
152, 0.41293584949985, 0.3, 0
153, 0.39953955194946, 0.3, 0
154, 0.38506673280136, 0.3, 0
155, 0.36904164443799, 0.3, 0
156, 0.35110243535102, 0.3, 0
157, 0.33055125099948, 0.3, 0
158, 0.30701103442985, 0.3, 0
159, 0.27931459040165, 0.3, 0
160, 0.2460014900624, 0.3, 0
161, 0.2046896489072, 0.3, 0
162, 0.15650730998144, 0.3, 0
163, 0.10400045586303, 0.3, 0
164, 0.051368199353264, 0.3, 0
165, 0, 0.27333097003532, 0
166, 0, 0.21959972677056, 0
167, 0, 0.16559474198879, 0
168, 0, 0.11196692551615, 0
169, 0, 0.0584476495561, 0
170, 0, 0.0042257844806012, 0
171, 0, -0.050999773906805, 0
172, 0, -0.10677844293158, 0
173, 0, -0.16315902369126, 0
174, 0, -0.21941814615138, 0
175, 0, -0.2736187162978, 0
176, 0, 0.24666194007064, 0
177, 0, 0.19253751347048, 0
178, 0, 0.13865197050711, 0
179, 0, 0.085281880525187, 0
180, 0, 0.031613418587012, 0
181, 0, -0.02316184962581, 0
182, 0, -0.078837698187801, 0
183, 0, -0.13471918767535, 0
184, 0, -0.19159885970716, 0
185, 0, -0.2472374325956, 0
186, 0.75398092143743, 0.033115068230905, 0
187, 0.75382871776205, 0.020673664729766, 0
188, 0.75353795215074, 0.014686309408369, 0
189, 0.75311600529727, 0.0088272065144342, 0
190, 0.75256168157594, 0.0030074835013023, 0
191, 0.75187250880365, -0.0028060817384466, 0
192, 0.75104470985002, -0.0086335809357199, 0
193, 0.75008243160043, -0.014438457820959, 0
194, 0.74899209269024, -0.020189019980606, 0
195, 0.74776720686938, -0.025923255932778, 0
196, 0.74640974541457, -0.031629838121893, 0
197, 0.74492795929559, -0.037277741611637, 0
198, 0.74332081037895, -0.042876487976861, 0
199, 0.74157699574803, -0.048463718437458, 0
200, 0.73968123634162, -0.054076775507455, 0
201, 0.73766743605097, -0.059611324908699, 0
202, 0.73556580945093, -0.064998678966955, 0
203, 0.73334866190628, -0.070321490045643, 0
204, 0.73098380939571, -0.075652637221011, 0
205, 0.72846647966617, -0.080991291823783, 0
206, 0.7257714089067, -0.086375559077488, 0
207, 0.72284166857969, -0.091891715356527, 0
208, 0.71974662809943, -0.097386885972456, 0
209, 0.71657866125032, -0.10270148251266, 0
210, 0.71329937321176, -0.10791075610473, 0
211, 0.70994507554945, -0.11296525756211, 0
212, 0.70656989428791, -0.11780013025104, 0
213, 0.70310006744984, -0.1225331500346, 0
214, 0.69948518893096, -0.12723122899698, 0
215, 0.695778353066, -0.13182347085993, 0
216, 0.69201277147839, -0.13627415720031, 0
217, 0.68811047193514, -0.14067644814941, 0
218, 0.68405916093341, -0.14503778048185, 0
219, 0.67993787058242, -0.14927175652935, 0
220, 0.67569281622141, -0.15343400322677, 0
221, 0.67126925914586, -0.15757089504668, 0
222, 0.66673594861472, -0.1616119073908, 0
223, 0.66209536882215, -0.16555329377234, 0
224, 0.65733307828246, -0.16940487068165, 0
225, 0.65243813932632, -0.17317138812343, 0
226, 0.64748981263999, -0.17679157333371, 0
227, 0.64250674366615, -0.18025657602087, 0
228, 0.63733709910623, -0.18366918448831, 0
229, 0.6320766008253, -0.1869602991887, 0
230, 0.62690171364957, -0.19002716752897, 0
231, 0.62170395124076, -0.19294427045688, 0
232, 0.6163693383534, -0.1957746153201, 0
233, 0.61099932772941, -0.19846257556878, 0
234, 0.60571055476971, -0.20095730898633, 0
235, 0.60040457408532, -0.2033129247705, 0
236, 0.59492339111549, -0.20559615741121, 0
237, 0.58933851965286, -0.20777011730972, 0
238, 0.58375111206701, -0.20979522603569, 0
239, 0.57812346912493, -0.21168724323201, 0
240, 0.57239158641352, -0.2134655161442, 0
241, 0.566516815896, -0.21513570276976, 0
242, 0.56061325632459, -0.2166617785394, 0
243, 0.55489392165544, -0.2179972914707, 0
244, 0.54930466535525, -0.21916871785153, 0
245, 0.5434979829714, -0.22024772676656, 0
246, 0.53731054615805, -0.22124474662108, 0
247, 0.53095503548802, -0.22210669501339, 0
248, 0.52459858606981, -0.22280606953067, 0
249, 0.51833261768342, -0.22333755132036, 0
250, 0.51217483318861, -0.2237080468913, 0
251, 0.50605828935155, -0.22392773854008, 0
252, 0.49998882274719, -0.22399999975404, 0
253, 0.4939700206424, -0.22392841238276, 0
254, 0.48799647309936, -0.22371620958182, 0
255, 0.48191287036845, -0.22335519624098, 0
256, 0.47569157939932, -0.22283413521991, 0
257, 0.46953170787625, -0.22216598333303, 0
258, 0.46349446836706, -0.2213629756772, 0
259, 0.45754948629693, -0.22042754114613, 0
260, 0.45162940288292, -0.21935172984946, 0
261, 0.44573440874863, -0.21813553716528, 0
262, 0.439966943347, -0.2168036305546, 0
263, 0.43434317916552, -0.21536744130922, 0
264, 0.42875248031609, -0.21380276973664, 0
265, 0.42309084984546, -0.21207639779154, 0
266, 0.41741544862629, -0.21019948185612, 0
267, 0.41181631022219, -0.208200832989, 0
268, 0.40625852659828, -0.20606892101441, 0
269, 0.40075864687094, -0.20381007991154, 0
270, 0.39538946200198, -0.20145763123235, 0
271, 0.39008942281503, -0.19898834967645, 0
272, 0.38480596286264, -0.19637653097933, 0
273, 0.37960824620241, -0.19365559424282, 0
274, 0.37451804677717, -0.19083994018264, 0
275, 0.36949617949567, -0.18790996383285, 0
276, 0.36449750761714, -0.18483731962955, 0
277, 0.35951282155305, -0.18161132441209, 0
278, 0.35460910275424, -0.17827262473829, 0
279, 0.34985293732233, -0.17487034795, 0
280, 0.34524729955509, -0.17141400420024, 0
281, 0.34070001765993, -0.16783709239552, 0
282, 0.33616270310503, -0.16409621315016, 0
283, 0.33167379122579, -0.16021642065278, 0
284, 0.32724866555371, -0.15620681092249, 0
285, 0.32297000319698, -0.15214384298897, 0
286, 0.31887850988381, -0.1480758418152, 0
287, 0.31483036399894, -0.14386260548324, 0
288, 0.31076340965972, -0.13942701130362, 0
289, 0.30679415365768, -0.13488632738975, 0
290, 0.30296719186212, -0.13029370474116, 0
291, 0.2992759997874, -0.12564663626227, 0
292, 0.29575236641953, -0.12099305888631, 0
293, 0.29233741163125, -0.11626089261151, 0
294, 0.28900722211192, -0.1114144534987, 0
295, 0.28579580983778, -0.10650115057546, 0
296, 0.28264497733598, -0.10142600155436, 0
297, 0.27955292965531, -0.096170871228346, 0
298, 0.27664872010884, -0.090955384646104, 0
299, 0.27394308000439, -0.085819984705455, 0
300, 0.27132370639684, -0.08055836442006, 0
301, 0.26877994808493, -0.075134615810345, 0
302, 0.26636122351278, -0.069643974507175, 0
303, 0.26409348204663, -0.064149424685005, 0
304, 0.26198166111111, -0.058675082587523, 0
305, 0.26000565529828, -0.053178805548542, 0
306, 0.25815795810606, -0.047642943508215, 0
307, 0.25644725288856, -0.042097564215844, 0
308, 0.25483756763364, -0.036418230187249, 0
309, 0.25328593348513, -0.030400076685758, 0
310, 0.25186603076554, -0.024272760294353, 0
311, 0.25063867238505, -0.018321093985148, 0
312, 0.24955657978812, -0.012356732320618, 0
313, 0.24860894982638, -0.0063116956057617, 0
314, 0.24781979921314, -0.00035039243354698, 0
315, 0.24718121041858, 0.0055324936125545, 0
316, 0.246683770474, 0.011375078371471, 0
317, 0.24632413266835, 0.017172147503682, 0
318, 0.2460958220141, 0.023023766556492, 0
319, 0.24600198444319, 0.02899601381365, 0
320, 0.24604854050349, 0.034965422240672, 0
321, 0.24623414472509, 0.040903696753418, 0
322, 0.24656166512854, 0.046882234725983, 0
323, 0.24702828426871, 0.052832225322184, 0
324, 0.24763321495327, 0.058757706834231, 0
325, 0.24838168771181, 0.064701932647358, 0
326, 0.24927497653731, 0.070656641629173, 0
327, 0.25030597508782, 0.076571378950594, 0
328, 0.25145681281658, 0.082366817353577, 0
329, 0.25272900976231, 0.088078027142459, 0
330, 0.25413800255903, 0.093779914110257, 0
331, 0.25569072756209, 0.099490858303503, 0
332, 0.25737502153368, 0.10516062241318, 0
333, 0.25921381329896, 0.11085797317098, 0
334, 0.26123018567264, 0.11663126210107, 0
335, 0.26335158916728, 0.12226878594312, 0
336, 0.26555437473737, 0.12773049050704, 0
337, 0.26789769772596, 0.13317228621052, 0
338, 0.27038983709641, 0.13860558293056, 0
339, 0.27300976493191, 0.14397996732529, 0
340, 0.27571615071402, 0.14921725609413, 0
341, 0.27851894492333, 0.15434686254487, 0
342, 0.28153830939512, 0.159578119395, 0
343, 0.28479414512261, 0.16491641680658, 0
344, 0.28815735319805, 0.17013812060381, 0
345, 0.29152566811199, 0.17510152362875, 0
346, 0.29493199325518, 0.17987699145533, 0
347, 0.29845546309164, 0.18458266068585, 0
348, 0.30213312787348, 0.18926299139148, 0
349, 0.30598865405512, 0.19393778541803, 0
350, 0.30993075903216, 0.19849238223775, 0
351, 0.31387169335705, 0.20283591478533, 0
352, 0.31789397073754, 0.20706889456358, 0
353, 0.32207890458284, 0.21127350433197, 0
354, 0.32642845171848, 0.21544249083505, 0
355, 0.3309309823215, 0.21955649949912, 0
356, 0.33554942485968, 0.22357687957399, 0
357, 0.34019492050942, 0.22742931882582, 0
358, 0.34487271269827, 0.23112564286736, 0
359, 0.34963580009075, 0.23471103348224, 0
360, 0.35446215545707, 0.23816996668605, 0
361, 0.35932969347871, 0.24148963289292, 0
362, 0.36433403163392, 0.24473412476688, 0
363, 0.36953282389888, 0.24793190554411, 0
364, 0.37484419458148, 0.25102494026206, 0
365, 0.3801631990162, 0.25395343335643, 0
366, 0.38541988530718, 0.25668788502557, 0
367, 0.39067477779385, 0.25926839111104, 0
368, 0.39594951026661, 0.26170993753552, 0
369, 0.40120924569691, 0.26400082611477, 0
370, 0.40653053129068, 0.26617675093718, 0
371, 0.41200900284897, 0.26827208063164, 0
372, 0.41756447497752, 0.27025066792543, 0
373, 0.4230625786921, 0.27206741407016, 0
374, 0.42853561843978, 0.27373929044275, 0
375, 0.43416643467951, 0.27532007885415, 0
376, 0.44005638335719, 0.27682536900199, 0
377, 0.44603104249017, 0.27820022327866, 0
378, 0.45188855730167, 0.27940186219887, 0
379, 0.45763819946762, 0.28044256298551, 0
380, 0.46334204058383, 0.28134079140294, 0
381, 0.46908783200321, 0.28211195483532, 0
382, 0.47506624833512, 0.28277323286029, 0
383, 0.48122390336417, 0.28330506918348, 0
384, 0.48740326035731, 0.28368744878164, 0
385, 0.4936002016233, 0.28391936102167, 0
386, 0.49982074645165, 0.2839999367405, 0
387, 0.50607995776887, 0.28392722064864, 0
388, 0.51233477787463, 0.28370032092276, 0
389, 0.51858357067653, 0.2833192664184, 0
390, 0.5248610886116, 0.28278038985594, 0
391, 0.5310075509091, 0.28210024131003, 0
392, 0.53688521780949, 0.28130754100793, 0
393, 0.54266090025201, 0.28039178704567, 0
394, 0.54852898311605, 0.27932095313922, 0
395, 0.55446113967544, 0.27809269127058, 0
396, 0.5603662566119, 0.27672234383901, 0
397, 0.56620522936453, 0.2752200381264, 0
398, 0.57196564716824, 0.27359175898834, 0
399, 0.57764354302732, 0.27184184941883, 0
400, 0.5832721651619, 0.26996196717542, 0
401, 0.58893153620576, 0.26792263813959, 0
402, 0.59455613181093, 0.26574379612451, 0
403, 0.59990524632374, 0.26352717449327, 0
404, 0.60506804199614, 0.26125031110119, 0
405, 0.61035865923461, 0.25877273776542, 0
406, 0.61575382909357, 0.25609080254149, 0
407, 0.62104496205197, 0.25330274625114, 0
408, 0.6262040381474, 0.25042808422701, 0
409, 0.63137537354538, 0.24738562734022, 0
410, 0.63658479843946, 0.24415086276033, 0
411, 0.64168289082729, 0.24081261440178, 0
412, 0.64656834376063, 0.23744570370903, 0
413, 0.65134484251809, 0.23398710299701, 0
414, 0.65617389840859, 0.23031403658607, 0
415, 0.66099399108436, 0.22646102420156, 0
416, 0.66560655808489, 0.22258885706739, 0
417, 0.67003021003647, 0.21869479877742, 0
418, 0.67446930568729, 0.21459810630421, 0
419, 0.67889751936639, 0.2103099482719, 0
420, 0.6831160568209, 0.2060241714347, 0
421, 0.68715611551946, 0.20172241655291, 0
422, 0.69116393777059, 0.19724935979891, 0
423, 0.69510643447689, 0.19263295685941, 0
424, 0.69887210326933, 0.18800596956915, 0
425, 0.70251442866079, 0.18330983457516, 0
426, 0.70606352914994, 0.17850529240779, 0
427, 0.7094479932504, 0.17369251038506, 0
428, 0.71271573196946, 0.16880928226012, 0
429, 0.71594708137287, 0.16372680312867, 0
430, 0.71910877861521, 0.15848090253768, 0
431, 0.72213593320823, 0.15317315880724, 0
432, 0.72498658138141, 0.14788569730962, 0
433, 0.72767981752802, 0.14259618153799, 0
434, 0.73023724783975, 0.13726979821584, 0
435, 0.73266975617853, 0.13188613145967, 0
436, 0.73500005908237, 0.12638968908807, 0
437, 0.73719306939377, 0.12085949170077, 0
438, 0.73921755096345, 0.11538713485548, 0
439, 0.7411225655243, 0.10984928418359, 0
440, 0.74295648433626, 0.10408202165221, 0
441, 0.74467191664156, 0.098203029023709, 0
442, 0.74623503690999, 0.092324200981277, 0
443, 0.74766176374339, 0.086388387156548, 0
444, 0.74894861061009, 0.080404257530223, 0
445, 0.75008197210597, 0.07444104501771, 0
446, 0.75106213160162, 0.068520200743212, 0
447, 0.75188971634956, 0.062673690374609, 0
448, 0.75257417283437, 0.056875402098654, 0
449, 0.7531297315193, 0.051008079608086, 0
450, 0.75355014688725, 0.045110229220377, 0
451, 0.75383326621237, 0.039201884033067, 0
452, 0.75398054032883, 0.026858053050523, 0
453, 0.75392361113305, 0.036229667611721, 0
454, 0.75370813672534, 0.042172839293733, 0
455, 0.75335815559533, 0.048045592872207, 0
456, 0.75286666444313, 0.053967691217365, 0
457, 0.75224824699429, 0.05977955537934, 0
458, 0.75149798248298, 0.065563518421236, 0
459, 0.75059152084108, 0.071471549911253, 0
460, 0.74953723804263, 0.077404287480892, 0
461, 0.74832391673391, 0.083396925247056, 0
462, 0.74696357591535, 0.089371644560662, 0
463, 0.74547120103318, 0.095267823445796, 0
464, 0.74383753421161, 0.10112845092979, 0
465, 0.74203966151391, 0.10702468453056, 0
466, 0.74017250661731, 0.11266296793881, 0
467, 0.73823169784274, 0.1181002731402, 0
468, 0.73612248553668, 0.12360646936578, 0
469, 0.73384482596409, 0.12915945255379, 0
470, 0.73146289570323, 0.13459888921735, 0
471, 0.72898077945912, 0.13992634761806, 0
472, 0.72634772834535, 0.14525062188417, 0
473, 0.72359475953711, 0.15050470007225, 0
474, 0.72064526058762, 0.15582395896378, 0
475, 0.717540305742, 0.16111908730251, 0
476, 0.71432259786751, 0.16631516148956, 0
477, 0.71107984324834, 0.17128446398387, 0
478, 0.70778867373626, 0.17608171121482, 0
479, 0.7043101167594, 0.18090850165339, 0
480, 0.70069051981141, 0.18568980349466, 0
481, 0.69702695606123, 0.19030089783409, 0
482, 0.6931583123445, 0.19494200918671, 0
483, 0.6891420033363, 0.19953259826446, 0
484, 0.6851448750817, 0.20388897292271, 0
485, 0.6810626170792, 0.20813570202827, 0
486, 0.67670631344777, 0.21245788016158, 0
487, 0.67220637840815, 0.21671090819765, 0
488, 0.66783118874391, 0.22065332780148, 0
489, 0.66335960632985, 0.22449842847498, 0
490, 0.65860480061905, 0.22839485108107, 0
491, 0.65371977468804, 0.23220343735379, 0
492, 0.64894921592873, 0.23574287611113, 0
493, 0.64416800693108, 0.23912098195027, 0
494, 0.63917792663343, 0.24247471452726, 0
495, 0.63397148758809, 0.24579536667737, 0
496, 0.62876038483082, 0.24894465622439, 0
497, 0.62363060344713, 0.25188166631772, 0
498, 0.61844298890594, 0.25469369748034, 0
499, 0.6130481914288, 0.25745572301806, 0
500, 0.60765378729372, 0.2600579533358, 0
501, 0.60246909221035, 0.2624136063138, 0
502, 0.5973293014565, 0.26461246150121, 0
503, 0.59176981520273, 0.26684235319209, 0
504, 0.58608054347565, 0.26896890948996, 0
505, 0.58045233469087, 0.27092202364945, 0
506, 0.57482423799629, 0.27272892841984, 0
507, 0.56909711103762, 0.27442092641093, 0
508, 0.56330411061242, 0.27598493621719, 0
509, 0.55741981759103, 0.27742466376502, 0
510, 0.55149469596348, 0.27872534240642, 0
511, 0.54555638717356, 0.27988120143199, 0
512, 0.53975969727683, 0.28086882322263, 0
513, 0.53400590447859, 0.28171332446098, 0
514, 0.52800480437003, 0.28245144218095, 0
515, 0.5217135229817, 0.2830701931496, 0
516, 0.51545077854489, 0.28352962877101, 0
517, 0.50921691526876, 0.28383271736946, 0
518, 0.50294207211247, 0.28398295938419, 0
519, 0.49669944786595, 0.28397855367613, 0
520, 0.4905019085014, 0.2838223517122, 0
521, 0.48430649048184, 0.28351471949576, 0
522, 0.47814409460871, 0.28305793626349, 0
523, 0.47199209431685, 0.28245109813001, 0
524, 0.46618766642156, 0.28173939971931, 0
525, 0.46050110593435, 0.28091001844073, 0
526, 0.45478081815239, 0.27994244297893, 0
527, 0.44900275272402, 0.27882781307285, 0
528, 0.44306704871307, 0.27753714595042, 0
529, 0.437054610928, 0.2760769743538, 0
530, 0.43128735466578, 0.27452928738497, 0
531, 0.42579296101118, 0.27291832904353, 0
532, 0.42034195040233, 0.27118581004658, 0
533, 0.41479797347472, 0.26928354335079, 0
534, 0.40923203690789, 0.2672281102586, 0
535, 0.40384119990729, 0.26509462998799, 0
536, 0.39858973113114, 0.26287755710257, 0
537, 0.39332273042987, 0.2605123861188, 0
538, 0.38804132862442, 0.25799398058658, 0
539, 0.38281367700473, 0.25535164814387, 0
540, 0.37752940033758, 0.25252404793519, 0
541, 0.3721773366829, 0.24949343033447, 0
542, 0.36690738435044, 0.24633852085595, 0
543, 0.36178001633104, 0.24309912115345, 0
544, 0.35689811120058, 0.23985196925343, 0
545, 0.3520459666576, 0.23645969047643, 0
546, 0.34724629951749, 0.23293424111372, 0
547, 0.34252053733343, 0.22928928421466, 0
548, 0.33789126883116, 0.22554221687492, 0
549, 0.3332314070473, 0.22158349617976, 0
550, 0.32865519151845, 0.21750188379461, 0
551, 0.32422646257523, 0.21335665449132, 0
552, 0.3199560329074, 0.2091652026894, 0
553, 0.31585631399797, 0.20494885608814, 0
554, 0.31191131744525, 0.20070046018452, 0
555, 0.30797611952684, 0.19626132772103, 0
556, 0.30402930338973, 0.19159048638602, 0
557, 0.30026459359661, 0.18691324795, 0
558, 0.29667352436084, 0.18223121761595, 0
559, 0.29321772082308, 0.17750284287687, 0
560, 0.28986149854401, 0.17268079725836, 0
561, 0.28648397393434, 0.16757509159254, 0
562, 0.28313741975025, 0.16223698885834, 0
563, 0.27997179551057, 0.15689991571154, 0
564, 0.27709571874802, 0.15177717723886, 0
565, 0.27436597908347, 0.14664170939384, 0
566, 0.27168495024861, 0.14130245847101, 0
567, 0.26912657813492, 0.13589364034241, 0
568, 0.26670089204209, 0.1304366744879, 0
569, 0.26443924878021, 0.12501122078893, 0
570, 0.26229585448677, 0.11951390362125, 0
571, 0.26019947449931, 0.11373593715012, 0
572, 0.25826269040486, 0.10796841092752, 0
573, 0.25651996285866, 0.10234273188977, 0
574, 0.25489489688866, 0.096629483161849, 0
575, 0.25341423413679, 0.09092175174898, 0
576, 0.25207658053535, 0.085226599756595, 0
577, 0.25087003076254, 0.079500085019498, 0
578, 0.24977634646905, 0.073636251775921, 0
579, 0.24880908762143, 0.067671277999443, 0
580, 0.24798938554446, 0.061727746789987, 0
581, 0.24731204774957, 0.055783678185143, 0
582, 0.2467789925737, 0.049877661157338, 0
583, 0.24637976938716, 0.043884448104912, 0
584, 0.2461235528023, 0.037921440118857, 0
585, 0.24600794369384, 0.032008731448486, 0
586, 0.24603176087624, 0.02598343744547, 0
587, 0.24619437233986, 0.020065043272718, 0
588, 0.24648686476054, 0.014280919061509, 0
589, 0.24691398397505, 0.0084716866019013, 0
590, 0.24748256801619, 0.0025966038000099, 0
591, 0.24819142408557, -0.0032932493116781, 0
592, 0.2490626553198, -0.0093249159979331, 0
593, 0.25008713280223, -0.015382353751557, 0
594, 0.25122476893284, -0.021253137804985, 0
595, 0.25254394132953, -0.02728436683902, 0
596, 0.25406715540754, -0.03350618235818, 0
597, 0.25564245930305, -0.039320937028162, 0
598, 0.25728359513214, -0.044864852216495, 0
599, 0.25906411912669, -0.050410826107002, 0
600, 0.26097898838956, -0.0559357646059, 0
601, 0.26301572848735, -0.061402704301304, 0
602, 0.26520306872187, -0.06688344060326, 0
603, 0.26755183255553, -0.072390667066756, 0
604, 0.27004045459821, -0.077863836550025, 0
605, 0.27263852808422, -0.083237629159725, 0
606, 0.27527696265085, -0.088387312680758, 0
607, 0.27804982241675, -0.093507564986304, 0
608, 0.28108799390424, -0.098815887146273, 0
609, 0.28423308093305, -0.10401729884605, 0
610, 0.28738712939865, -0.10896678296685, 0
611, 0.29065549359894, -0.11384323766269, 0
612, 0.29404724789898, -0.11865888420426, 0
613, 0.29748393835993, -0.12330767746947, 0
614, 0.30109507388271, -0.12796464874708, 0
615, 0.30486657893485, -0.13260057627633, 0
616, 0.30874850327359, -0.13714922819414, 0
617, 0.31280544123511, -0.1416805087417, 0
618, 0.31688072184987, -0.14602082025918, 0
619, 0.32089935874324, -0.15010819034689, 0
620, 0.3250637823892, -0.15415569258688, 0
621, 0.32945759760473, -0.15823200723206, 0
622, 0.33391307234617, -0.16217474413583, 0
623, 0.33843456239331, -0.16599134824982, 0
624, 0.34298655697433, -0.16965665196317, 0
625, 0.34752770886172, -0.17314575974533, 0
626, 0.35219767144459, -0.17656832139175, 0
627, 0.35704018331972, -0.17994878050038, 0
628, 0.36200479314322, -0.18324474708991, 0
629, 0.36700859891548, -0.1864007559937, 0
630, 0.3720008845732, -0.18939057785391, 0
631, 0.37705161876278, -0.19226042241184, 0
632, 0.38218070250029, -0.19502136028644, 0
633, 0.38744680899851, -0.19770107288291, 0
634, 0.39274675606901, -0.20024495992717, 0
635, 0.3980458767991, -0.20263997074379, 0
636, 0.40348484325482, -0.20494855707525, 0
637, 0.40904521158806, -0.20715654291084, 0
638, 0.41459939623436, -0.20921274290351, 0
639, 0.42024289789083, -0.21115307270329, 0
640, 0.42594948723171, -0.21296608975671, 0
641, 0.43156492301457, -0.2146071140235, 0
642, 0.43712987853355, -0.21609621523085, 0
643, 0.44281196391895, -0.21747833877218, 0
644, 0.44866440019622, -0.21875822780345, 0
645, 0.45460126112851, -0.2199098912278, 0
646, 0.46050360693205, -0.2209104121411, 0
647, 0.46649050708033, -0.22177989038243, 0
648, 0.47257734721012, -0.22251534150944, 0
649, 0.47880950389763, -0.22311452494009, 0
650, 0.48501895314058, -0.22355781873287, 0
651, 0.49097564725716, -0.22383963630563, 0
652, 0.49696523274962, -0.22398186867089, 0
653, 0.50301241432898, -0.22398213478612, 0
654, 0.50910329296586, -0.22383681760754, 0
655, 0.51524458989283, -0.22354211029047, 0
656, 0.52141792383575, -0.22309538192, 0
657, 0.52777535933231, -0.22247678919937, 0
658, 0.53412979471733, -0.22169655609711, 0
659, 0.54048532866607, -0.22075274293756, 0
660, 0.54650434629563, -0.21970651808769, 0
661, 0.55209877010289, -0.2185995126132, 0
662, 0.5576821173526, -0.21736364545931, 0
663, 0.56353586030245, -0.21592517906938, 0
664, 0.56948796727424, -0.21431009473897, 0
665, 0.57528494534079, -0.21258643071135, 0
666, 0.58095125657973, -0.21075484120974, 0
667, 0.58653959631952, -0.20880305285738, 0
668, 0.59212511702802, -0.20670437686955, 0
669, 0.59770833737121, -0.20445485874798, 0
670, 0.60308746822403, -0.20213998630584, 0
671, 0.60832007475826, -0.1997449913172, 0
672, 0.61366340161616, -0.19714891771223, 0
673, 0.61905866060745, -0.19436807827833, 0
674, 0.62433221761779, -0.19148927659352, 0
675, 0.62945401860274, -0.18853525192556, 0
676, 0.6346800235816, -0.18535387345615, 0
677, 0.63997310504254, -0.18195171542677, 0
678, 0.6450198552174, -0.17853115069609, 0
679, 0.64993890516607, -0.17502274182061, 0
680, 0.65491451751631, -0.17128957173111, 0
681, 0.65972871044054, -0.16749110978226, 0
682, 0.66443852085385, -0.16358711947517, 0
683, 0.66900965236305, -0.15960943184624, 0
684, 0.67350427901466, -0.15550543109354, 0
685, 0.6778566262413, -0.15133675867722, 0
686, 0.68199513939849, -0.14718286762148, 0
687, 0.68609790202093, -0.1428686519616, 0
688, 0.6900972196611, -0.1384608153642, 0
689, 0.69390317135153, -0.13406571859832, 0
690, 0.69762760868284, -0.12955979353513, 0
691, 0.70131533248095, -0.12488103926609, 0
692, 0.70485742230639, -0.12016469765422, 0
693, 0.70825507406369, -0.11541603537757, 0
694, 0.71160623722205, -0.11049484082194, 0
695, 0.71496095597853, -0.10530627036116, 0
696, 0.71816480266915, -0.10007735494711, 0
697, 0.72129527694074, -0.094677184551504, 0
698, 0.72435300117589, -0.089087069308048, 0
699, 0.72715704573369, -0.083647156823055, 0
700, 0.72974486483389, -0.07832034302643, 0
701, 0.73219177716875, -0.072970762557221, 0
702, 0.73447532102953, -0.067659222894817, 0
703, 0.73662611038651, -0.062325961085353, 0
704, 0.7386776192257, -0.05688494659435, 0
705, 0.74065181663956, -0.051257015582097, 0
706, 0.74246975159951, -0.045659890284969, 0
707, 0.74413992007751, -0.040083516660922, 0
708, 0.74568375353648, -0.034463109406086, 0
709, 0.7471030647007, -0.02878839503993, 0
710, 0.74839813032823, -0.02305061908034, 0
711, 0.74955308802878, -0.017320775751262, 0
712, 0.75057848763382, -0.011550224852047, 0
713, 0.7514769831224, -0.0057117125843668, 0
714, 0.75223446340338, 0.00010392171235845, 0
715, 0.75285547785421, 0.0059146172258318, 0
716, 0.75334298548786, 0.011742602018679, 0
717, 0.75369871358674, 0.017632082821636, 0
718, 0.75392224875522, 0.023716586573233, 0
719, 0.4238913345158, -0.27832599305663, 0
720, 0.42327226712752, 0.27332838115974, 0
721, 0.15191020088309, -0.2446344890141, 0
722, 0.050555516176222, -0.24512705980394, 0
723, 0.10099631947383, -0.2443255174275, 0
724, 0.20284142610183, -0.24671514340545, 0
725, 0.25613759762159, -0.20990821285906, 0
726, 0.39932399931848, -0.26543808926279, 0
727, 0.3317405039579, -0.2594322328207, 0
728, 0.36830631451178, -0.25892906569714, 0
729, 0.76485006258648, 0.02838261305289, 0
730, 0.5746374105609, -0.27143395716149, 0
731, 0.052837889463687, 0.19217779140474, 0
732, 0.10405147399701, 0.24652590901171, 0
733, 0.15515314577139, 0.24975127277543, 0
734, 0.052004514648343, 0.24617891869478, 0
735, 0.20277831834382, 0.25525198752598, 0
736, 0.24989896014283, 0.25824418516497, 0
737, 0.28162374079696, 0.27199265514313, 0
738, 0.38340241652972, 0.26370197255307, 0
739, 0.31779818362494, 0.28795053793425, 0
740, 0.33623098927157, 0.24528200599419, 0
741, 0.38566498059032, 0.26844449449655, 0
742, 0.35228842707331, 0.25741778407343, 0
743, 0.50812890851558, 0.29573089292702, 0
744, 0.49957081304509, 0.29512065279945, 0
745, 0.47714685050602, 0.29545625510348, 0
746, 0.50076900918584, 0.29094421256622, 0
747, 0.46509194007522, 0.29016843446087, 0
748, 0.46044373992176, 0.29491400852999, 0
749, 0.42544387574906, 0.27644596313037, 0
750, 0.41156785063509, 0.27350537331816, 0
751, 0.38973003396799, 0.27940575185908, 0
752, 0.053564587908215, 0.13854339755808, 0
753, 0.055108105887447, 0.085262547136353, 0
754, 0.14099659658006, 0.040531373519892, 0
755, 0.05253056638366, -0.18996503802453, 0
756, 0.096699055390606, 0.041885254487423, 0
757, 0.054834799159507, -0.13438515901113, 0
758, 0.057804922898156, -0.078870471342522, 0
759, 0.50063396981874, -0.23679192930648, 0
760, 0.48672229462947, -0.25527992271891, 0
761, 0.49150937057133, -0.26339393600865, 0
762, 0.74491038594678, 0.13436811858604, 0
763, 0.94604235576827, 0.19509633807696, 0
764, 0.84519526238523, 0.25080336698912, 0
765, 0.89503575280421, 0.24816456695943, 0
766, 0.94716109013587, 0.24778973898144, 0
767, 0.79868505640963, 0.25892466766846, 0
768, 0.73595215742845, 0.17084109378364, 0
769, 0.75076726139542, 0.22890388732399, 0
770, 0.62643988161831, 0.26922014760974, 0
771, 0.73537278818379, 0.26351815008488, 0
772, 0.65215722724587, 0.26362870014539, 0
773, 0.61074325444408, 0.26726382001954, 0
774, 0.50886537461884, 0.28765456541512, 0
775, 0.51641742483996, 0.29132639454586, 0
776, 0.55310307640622, 0.29406667241356, 0
777, 0.53757771783656, 0.29440041205386, 0
778, 0.55676156265409, 0.28822250037364, 0
779, 0.53866551266366, 0.28823443551593, 0
780, 0.60297055839095, 0.27395432034584, 0
781, 0.58604467155408, 0.28821946602905, 0
782, 0.58084230947375, 0.28837112014958, 0
783, 0.67127963158873, 0.22640508388286, 0
784, 0.73228015723556, 0.17491746210321, 0
785, 0.72830202190792, 0.1794855700781, 0
786, 0.72068326806804, 0.18643056113265, 0
787, 0.69624787840557, 0.19752181299426, 0
788, 0.68910392111374, 0.2043696645412, 0
789, 0.71622763938173, 0.1744845316194, 0
790, 0.71964272760403, 0.16959424793707, 0
791, 0.72327094419628, 0.16401583329664, 0
792, 0.74593513583909, 0.11470936582206, 0
793, 0.7438234549598, 0.12027454192501, 0
794, 0.74176201986552, 0.12579188720064, 0
795, 0.73097180961214, 0.15444484141197, 0
796, 0.75018500885055, 0.1689892278149, 0
797, 0.72199159332194, 0.15970967344332, 0
798, 0.74805958817742, 0.10874275380081, 0
799, 0.78771728086312, 0.092229756093626, 0
800, 0.77030562473809, 0.098871485510303, 0
801, 0.79205979006486, 0.04681904794925, 0
802, 0.75894472497344, 0.030561092837198, 0
803, 0.79697049129693, 0.03990462654916, 0
804, 0.94513706782911, 0.14242746211014, 0
805, 0.94464456414503, 0.091309411032614, 0
806, 0.93152421904452, 0.034071232940378, 0
807, 0.94467909710743, -0.13496347455294, 0
808, 0.9425063098617, -0.0797470706064, 0
809, 0.94090453973422, -0.024528990386957, 0
810, 0.51960885333883, -0.23995471557595, 0
811, 0.54840250307174, -0.26775311163171, 0
812, 0.95038628445738, -0.27321336772921, 0
813, 0.6805523775296, -0.28273055658003, 0
814, 0.92355176700773, -0.2194942452873, 0
815, 0.94817256056314, -0.19112590750489, 0
816, 0.72932225352384, -0.21773670553209, 0
817, 0.64020463078888, -0.26847867973169, 0
818, 0.72420385998196, -0.22541045064413, 0
819, 0.65398803209902, -0.26722361384827, 0
820, 0.68948865177867, -0.23712922011462, 0
821, 0.2263998666042, 0.22344846615925, 0
822, 0.26345137749308, 0.20171444882516, 0
823, 0.25652987364604, 0.18801568152298, 0
824, 0.24037769459008, 0.19827040675553, 0
825, 0.2467988710283, 0.16732849554442, 0
826, 0.27866324841361, 0.17320723416665, 0
827, 0.25372669331626, 0.16727269364976, 0
828, 0.27095977050221, 0.16906418075519, 0
829, 0.26180038032431, 0.17226829582161, 0
830, 0.26824513121656, 0.1621020841679, 0
831, 0.2377294216579, 0.096582716458768, 0
832, 0.26760086779833, 0.15675298431191, 0
833, 0.27190293628722, 0.15457773727495, 0
834, 0.2493240802497, 0.17475332564154, 0
835, 0.26632063567194, 0.14014260621893, 0
836, 0.19230913658371, 0.15082376226633, 0
837, 0.21697213007762, 0.17718584228262, 0
838, 0.27145125055303, 0.14825135607884, 0
839, 0.1550650834427, 0.15300134269489, 0
840, 0.10503550941102, 0.1941365709979, 0
841, 0.21262516647906, 0.20715712929645, 0
842, 0.24258797805431, 0.22446115318668, 0
843, 0.31342927506341, 0.21539255504218, 0
844, 0.30166023167421, 0.19369445200926, 0
845, 0.32878780881809, 0.22658887324399, 0
846, 0.31984000045879, 0.21634989848814, 0
847, 0.30269754356433, 0.21401067244408, 0
848, 0.30382887603844, 0.19625149714964, 0
849, 0.31596910956263, 0.23899813939343, 0
850, 0.32324330673408, 0.23222886764724, 0
851, 0.32419022631925, 0.24476658938717, 0
852, 0.32117279068963, 0.25682928611812, 0
853, 0.30451419744658, 0.2514646677708, 0
854, 0.28699797672655, 0.25442123165943, 0
855, 0.31501622337932, 0.21256085846264, 0
856, 0.33369957127359, 0.23066645891618, 0
857, 0.32918688826814, 0.23698631503172, 0
858, 0.33507314284072, 0.24068249343849, 0
859, 0.33875386728226, 0.2345760620462, 0
860, 0.34367771236014, 0.23822085209538, 0
861, 0.38944937717306, 0.26252902244679, 0
862, 0.34485968894522, 0.24771745023005, 0
863, 0.3486421424308, 0.24196543036849, 0
864, 0.34021549385504, 0.24398117448642, 0
865, 0.33025031798936, 0.24261228276346, 0
866, 0.33469598974873, 0.25162787209434, 0
867, 0.35397835314966, 0.25399817608749, 0
868, 0.39217536408857, 0.27255548664866, 0
869, 0.37479195690932, 0.25646065352647, 0
870, 0.34226008342305, 0.25582365109727, 0
871, 0.3451386168992, 0.25282672589353, 0
872, 0.36639004860996, 0.24939541602858, 0
873, 0.32947732891604, 0.26333918355702, 0
874, 0.39505237882769, 0.26352406935589, 0
875, 0.39071115271357, 0.26538693764642, 0
876, 0.38538473956892, 0.26385895623779, 0
877, 0.3782260904962, 0.26297042020693, 0
878, 0.38146510045822, 0.27266275326291, 0
879, 0.36447390477081, 0.28107032862012, 0
880, 0.33498656038609, 0.2482830145227, 0
881, 0.3734837573208, 0.27266769337409, 0
882, 0.38343162060827, 0.27655579690913, 0
883, 0.45888207872223, 0.28522570311291, 0
884, 0.44340598442536, 0.29445077454218, 0
885, 0.3827419456234, 0.2574002722838, 0
886, 0.41098389881144, 0.27979405295055, 0
887, 0.43104591456446, 0.2833665986457, 0
888, 0.40941496233408, 0.2881587681603, 0
889, 0.42066206656108, 0.27293704621154, 0
890, 0.45166295409268, 0.2942189844439, 0
891, 0.42769264845553, 0.29192169858211, 0
892, 0.35037070167678, 0.26103278906387, 0
893, 0.30592510611279, 0.27495719469728, 0
894, 0.40573546969661, 0.26866124539266, 0
895, 0.43382823502485, 0.28618121395276, 0
896, 0.43069878417701, 0.27694332015622, 0
897, 0.37216218054545, 0.26491796266137, 0
898, 0.3940808542462, 0.26532011601608, 0
899, 0.31292909953828, 0.21042124658498, 0
900, 0.286243359472, 0.17980272749663, 0
901, 0.28551674892467, 0.17617436256641, 0
902, 0.28393305497273, 0.1781689057308, 0
903, 0.31441984093683, 0.21857865523405, 0
904, 0.29005553482294, 0.18791446995239, 0
905, 0.30220542877444, 0.20420790847816, 0
906, 0.31073617696813, 0.20948664676805, 0
907, 0.31656585181192, 0.20858130038084, 0
908, 0.31442698722946, 0.21098303296769, 0
909, 0.30021834012234, 0.20770155306839, 0
910, 0.28467213287455, 0.22403748923358, 0
911, 0.32121439014522, 0.22384409469521, 0
912, 0.31156560262676, 0.20710669579092, 0
913, 0.28972817905615, 0.20396237285207, 0
914, 0.27643264935513, 0.24097086588836, 0
915, 0.31906142731933, 0.22063823394717, 0
916, 0.28786221688647, 0.18081625003601, 0
917, 0.27926168440503, 0.17868578526614, 0
918, 0.28821308330481, 0.18249448325132, 0
919, 0.28747964488131, 0.17825541836487, 0
920, 0.27596957872455, 0.17564375500258, 0
921, 0.27746236954196, 0.16552080238304, 0
922, 0.27452248706069, 0.15988543178487, 0
923, 0.26012104452218, 0.15288286390193, 0
924, 0.24383194638289, 0.096654664707899, 0
925, 0.23910061677435, 0.075460164474194, 0
926, 0.20330362136405, 0.1227109731784, 0
927, 0.21825203755489, 0.11675505453754, 0
928, 0.25963701473809, 0.12694732110595, 0
929, 0.23889360798545, 0.11805320037946, 0
930, 0.25444574853496, 0.1101452440955, 0
931, 0.2611755506004, 0.15783432039229, 0
932, 0.24778413079537, 0.11378433467636, 0
933, 0.25761976328636, 0.1178616335042, 0
934, 0.23046653116763, 0.11455280655365, 0
935, 0.18817317592196, 0.12062971399517, 0
936, 0.25651536859355, 0.11045585629891, 0
937, 0.19587040271186, 0.088503044295672, 0
938, 0.25076260884691, 0.10605648988734, 0
939, 0.20867673200892, 0.10120088709565, 0
940, 0.24260880722424, 0.093076872521572, 0
941, 0.22296232281877, 0.078773039828648, 0
942, 0.22158201153046, 0.090794428672635, 0
943, 0.24852904133629, 0.093492474688459, 0
944, 0.24758484137221, 0.090210029821904, 0
945, 0.24024377282979, 0.1139789477926, 0
946, 0.24435818058542, 0.10397484031901, 0
947, 0.25381572696873, 0.13969810587616, 0
948, 0.24715971166419, 0.086956272434806, 0
949, 0.20532775151164, 0.010424266482427, 0
950, 0.24147014510026, 0.021824942358777, 0
951, 0.24282471090591, -0.058775824946174, 0
952, 0.23317154454106, 0.0094608731261231, 0
953, 0.2438831156081, 0.013444515700235, 0
954, 0.18853274541139, 0.03156134373975, 0
955, 0.24287749521442, 0.019824705521177, 0
956, 0.23338638579781, 0.024785374724461, 0
957, 0.21735697815344, 0.021778604326527, 0
958, 0.2153092338991, 0.005681485536587, 0
959, 0.23535473893863, 0.073363342669704, 0
960, 0.2298033571652, 0.072229112439673, 0
961, 0.24261458306793, 0.068349039154011, 0
962, 0.23649363521199, 0.069540804621295, 0
963, 0.23837790169254, 0.056611938159235, 0
964, 0.24165090821226, 0.06255675782965, 0
965, 0.23332694510363, 0.054903806859143, 0
966, 0.22583604501136, 0.062977718723363, 0
967, 0.24125593335976, 0.056463066510572, 0
968, 0.23839671996778, 0.053978706474224, 0
969, 0.2350738206215, 0.059317641282493, 0
970, 0.24073081091784, 0.050773577989507, 0
971, 0.23828502521219, 0.05961351947424, 0
972, 0.24004833024243, 0.044715013217707, 0
973, 0.24829709608289, -0.05887565521571, 0
974, 0.23014155491179, 0.022783800130892, 0
975, 0.20267108617675, -0.010315235654542, 0
976, 0.24442164398356, 0.023059913710974, 0
977, 0.15436281814141, 0.055818303439765, 0
978, 0.20852492380974, 0.053342184580272, 0
979, 0.18570050210688, 0.056111926482135, 0
980, 0.21283256333608, 0.068761481839747, 0
981, 0.11084456924157, 0.13806328253161, 0
982, 0.15370300412518, 0.11829560299758, 0
983, 0.15139653654239, 0.086477454597231, 0
984, 0.1074278800023, 0.086266128458288, 0
985, 0.15778736096123, 0.029827354848023, 0
986, 0.13831361403834, -0.010652552151901, 0
987, 0.32159208596981, -0.15346939173081, 0
988, 0.24234529146447, -0.18696623406449, 0
989, 0.25317227258193, -0.22802373583262, 0
990, 0.25639429373034, -0.13353021352001, 0
991, 0.27244908117975, -0.10024490325877, 0
992, 0.15337343064365, -0.19158574464761, 0
993, 0.10326114285506, -0.18983755243346, 0
994, 0.061757067471887, -0.026118858245398, 0
995, 0.13993865543472, 0.0048285453846129, 0
996, 0.15839423249175, -0.027108710426349, 0
997, 0.11536230486545, -0.030492649025902, 0
998, 0.2245224303711, -0.048524020992368, 0
999, 0.10843037421568, -0.13589654963843, 0
1000, 0.11159761926976, -0.10822606656425, 0
1001, 0.22267551517755, 0.024976486530542, 0
1002, 0.22358926841233, 0.0028351664007622, 0
1003, 0.24832660335877, -0.054750097608732, 0
1004, 0.22446699288709, -0.023118653422046, 0
1005, 0.24432782981661, -0.017018978984764, 0
1006, 0.23490055674399, 0.012899042374423, 0
1007, 0.22976316899942, 0.033244671276749, 0
1008, 0.23999181896353, 0.020274765450231, 0
1009, 0.24321084319728, 0.034810990202853, 0
1010, 0.24014312949143, 0.024385880138447, 0
1011, 0.24465092270113, 0.020661484682879, 0
1012, 0.22549403775622, 0.0082005767736754, 0
1013, 0.24074650813507, 0.031295220325747, 0
1014, 0.21948983705729, 0.030787641409273, 0
1015, 0.15742756531832, 0.0038602166451924, 0
1016, 0.1923864356563, 0.017959664945154, 0
1017, 0.22512290191946, 0.032279486639172, 0
1018, 0.2659467491522, -0.077295780035599, 0
1019, 0.13803164669272, -0.11166553463571, 0
1020, 0.23567402697675, -0.10313230144694, 0
1021, 0.25768279178299, -0.058782088346956, 0
1022, 0.25295220412572, -0.048540981283633, 0
1023, 0.24231078802725, -0.04358052437264, 0
1024, 0.26563157488793, -0.097471956806773, 0
1025, 0.25333540855872, -0.038600791511857, 0
1026, 0.24367986955766, -0.013339726569742, 0
1027, 0.23177289339673, -0.020802425682124, 0
1028, 0.21947722255235, -0.032519694503211, 0
1029, 0.25194608364956, -0.036074741931626, 0
1030, 0.24885574845268, -0.063115417950544, 0
1031, 0.24411812314179, -0.080083614772642, 0
1032, 0.23807321658188, -0.084039088185865, 0
1033, 0.25195292513401, -0.041105101293436, 0
1034, 0.26942872339757, -0.10747630119195, 0
1035, 0.22621058983091, -0.097525330199528, 0
1036, 0.17897046514965, -0.036977002714023, 0
1037, 0.25323599634217, -0.1026876869217, 0
1038, 0.27496421461015, -0.098088282233658, 0
1039, 0.26026192573965, -0.099755483503506, 0
1040, 0.26494542151004, -0.10173855786979, 0
1041, 0.27342879096518, -0.092108681222472, 0
1042, 0.25943825121251, -0.11160434870985, 0
1043, 0.27830165248803, -0.11142057286793, 0
1044, 0.26057514886754, -0.11916452140195, 0
1045, 0.22986816088976, -0.072622293835173, 0
1046, 0.24765904285084, -0.027215235863489, 0
1047, 0.24325113511419, -0.11548818014119, 0
1048, 0.22001381284552, -0.14891453767638, 0
1049, 0.28620627159968, -0.11270062055883, 0
1050, 0.27672291141068, -0.13388170800209, 0
1051, 0.20390026480327, -0.11507874121422, 0
1052, 0.28328365104886, -0.1139894431766, 0
1053, 0.23584993204755, -0.14650069307288, 0
1054, 0.26940584555823, -0.12464012655841, 0
1055, 0.44269484970089, -0.24945528379838, 0
1056, 0.43317047034695, -0.23927089493113, 0
1057, 0.37981643277, -0.23080563067962, 0
1058, 0.39719839109534, -0.20634337810533, 0
1059, 0.41998340763459, -0.21415081036839, 0
1060, 0.41710125135244, -0.2142871548635, 0
1061, 0.42962689462712, -0.22257598207832, 0
1062, 0.4267782891851, -0.21713175551921, 0
1063, 0.42320710288539, -0.22245809845468, 0
1064, 0.42612008620396, -0.25402951047156, 0
1065, 0.42960358795479, -0.24568736062084, 0
1066, 0.42630026151019, -0.22508297149345, 0
1067, 0.39886188648074, -0.21684733523655, 0
1068, 0.41281447764327, -0.21121494854478, 0
1069, 0.41393200851591, -0.21432731571256, 0
1070, 0.43944704330241, -0.22291003103048, 0
1071, 0.46646548852125, -0.23199238784943, 0
1072, 0.47550501402648, -0.23681586331137, 0
1073, 0.45334853628766, -0.23152657958336, 0
1074, 0.4684319971157, -0.22640118202035, 0
1075, 0.46338448016868, -0.22453353324299, 0
1076, 0.50536088061508, -0.25602192363873, 0
1077, 0.48751883276301, -0.23886543998864, 0
1078, 0.46677033522431, -0.24169491697916, 0
1079, 0.48407340527661, -0.26488561902296, 0
1080, 0.44946429235502, -0.23311490142101, 0
1081, 0.47448792781798, -0.24551356188947, 0
1082, 0.45349225884309, -0.22701803310861, 0
1083, 0.46145224423756, -0.23656836615835, 0
1084, 0.49813164736278, -0.23085773572609, 0
1085, 0.47923582603277, -0.23791111009444, 0
1086, 0.44914796628215, -0.24080665182672, 0
1087, 0.48413398748095, -0.24691878503644, 0
1088, 0.48135088262462, -0.27559789687402, 0
1089, 0.454521824429, -0.22493820684624, 0
1090, 0.30731800185948, -0.22267700332515, 0
1091, 0.31472907007816, -0.21448522974909, 0
1092, 0.31272704335507, -0.23370136734129, 0
1093, 0.41576698667338, -0.21171271790082, 0
1094, 0.35862264422027, -0.23320829683999, 0
1095, 0.35790022574128, -0.21544810679521, 0
1096, 0.33899422459227, -0.23046189138675, 0
1097, 0.37100323939216, -0.21444463939636, 0
1098, 0.39131153376155, -0.21266335585114, 0
1099, 0.35430204564357, -0.19046305618112, 0
1100, 0.35780485524865, -0.18449381862113, 0
1101, 0.38028564955363, -0.20911848423134, 0
1102, 0.37707221163324, -0.20502271561802, 0
1103, 0.38454319162695, -0.20312245104893, 0
1104, 0.37928941552044, -0.2003090140654, 0
1105, 0.37365546497503, -0.19778684044259, 0
1106, 0.37035344950449, -0.20461186499372, 0
1107, 0.3620817117702, -0.20237894209451, 0
1108, 0.30267424625442, -0.1576475434727, 0
1109, 0.31159168362477, -0.16783148196484, 0
1110, 0.34574430331946, -0.19023696797499, 0
1111, 0.33166633732267, -0.17129679684722, 0
1112, 0.33794577560958, -0.20008516504459, 0
1113, 0.31577572586188, -0.17711408594544, 0
1114, 0.34248947418447, -0.18407280355196, 0
1115, 0.3279953665913, -0.17419281077801, 0
1116, 0.34409638345192, -0.18013050890551, 0
1117, 0.35088202069551, -0.19634119248826, 0
1118, 0.34279111423995, -0.21102585493151, 0
1119, 0.29980033880881, -0.24954000832576, 0
1120, 0.32869167502623, -0.2035812239022, 0
1121, 0.31720947077639, -0.19403851434468, 0
1122, 0.29915531316659, -0.18825838311144, 0
1123, 0.29799195146562, -0.13009151510002, 0
1124, 0.29097669031912, -0.13406077248807, 0
1125, 0.28249912893006, -0.1544282413144, 0
1126, 0.29765169831901, -0.1780782524534, 0
1127, 0.31277061141887, -0.17257229297235, 0
1128, 0.3051654798187, -0.15300459517031, 0
1129, 0.33042123497892, -0.16406715271979, 0
1130, 0.32790728613245, -0.18060529604933, 0
1131, 0.31873378453108, -0.15618856608303, 0
1132, 0.28480660713886, -0.14010916357966, 0
1133, 0.30947932175201, -0.18106314455109, 0
1134, 0.27835771803305, -0.14901846186919, 0
1135, 0.29203100575845, -0.1416731957939, 0
1136, 0.34083164030549, -0.17824740302645, 0
1137, 0.32632472621463, -0.19236714811498, 0
1138, 0.28900628535615, -0.14946978899291, 0
1139, 0.26472748813943, -0.14750305184213, 0
1140, 0.28793266041617, -0.15859852991925, 0
1141, 0.33766192889182, -0.17076232623464, 0
1142, 0.32328736921776, -0.16070353176706, 0
1143, 0.32913251811857, -0.16875450927592, 0
1144, 0.39000118529725, -0.20641615165898, 0
1145, 0.38569511305727, -0.21442162279833, 0
1146, 0.42445149430298, -0.21549908410571, 0
1147, 0.27917161767385, -0.098826313575864, 0
1148, 0.27862779411378, -0.12054783280004, 0
1149, 0.28511455907726, -0.11698744343646, 0
1150, 0.2651173859023, -0.082623848794087, 0
1151, 0.27580807377738, -0.14202071017329, 0
1152, 0.28411426568754, -0.12695156200776, 0
1153, 0.32052974186951, -0.15448282230133, 0
1154, 0.28605040407163, -0.14506765255892, 0
1155, 0.30770769786153, -0.14891930296345, 0
1156, 0.28861470425393, -0.12973828627584, 0
1157, 0.29268528227974, -0.12685828709912, 0
1158, 0.28903777654658, -0.12228327985898, 0
1159, 0.27463985904183, -0.11204079723243, 0
1160, 0.24550860964108, -0.033498776298344, 0
1161, 0.81058755321542, 0.21202515315903, 0
1162, 0.68424519747757, 0.28885380853485, 0
1163, 0.71902307114907, 0.20577109248823, 0
1164, 0.69141787135336, 0.23332644296646, 0
1165, 0.77259327529901, 0.16748473388779, 0
1166, 0.71215184281302, 0.18578090897397, 0
1167, 0.69159254915063, 0.20950352827608, 0
1168, 0.71801727294301, 0.19526147638547, 0
1169, 0.74549290619342, 0.2188123421023, 0
1170, 0.72949560938773, 0.16714187962155, 0
1171, 0.7414457089634, 0.14363750244417, 0
1172, 0.74360665230271, 0.12966906772721, 0
1173, 0.80526227299362, 0.1543172764453, 0
1174, 0.70163234871987, 0.19273896763513, 0
1175, 0.89244328359412, 0.19579712173626, 0
1176, 0.71793497962878, 0.18354290833091, 0
1177, 0.68338964081061, 0.23218619013128, 0
1178, 0.71648161742993, 0.17942890165754, 0
1179, 0.75251304758741, 0.20243019369742, 0
1180, 0.66836860859652, 0.22449819706397, 0
1181, 0.67331487820491, 0.23486500401811, 0
1182, 0.70690705715958, 0.20285719797572, 0
1183, 0.683960247944, 0.24293041563606, 0
1184, 0.6834816061989, 0.20768933746886, 0
1185, 0.69518505124886, 0.27988004253439, 0
1186, 0.70865761732477, 0.28941940721948, 0
1187, 0.66784013481873, 0.22927933045953, 0
1188, 0.65147078415904, 0.24205729250485, 0
1189, 0.65167034456522, 0.25215659554588, 0
1190, 0.64375689025247, 0.24146114073138, 0
1191, 0.67554821507222, 0.26836189571531, 0
1192, 0.64919986919777, 0.2478439704035, 0
1193, 0.65770635287016, 0.24821859564038, 0
1194, 0.67712832293306, 0.26024127948173, 0
1195, 0.66666535800439, 0.25800663936297, 0
1196, 0.63651770179608, 0.2803207059734, 0
1197, 0.64568743054735, 0.2397758024044, 0
1198, 0.60310841228463, 0.26312653238442, 0
1199, 0.65832091008999, 0.23779315175172, 0
1200, 0.63220586642049, 0.25585465639658, 0
1201, 0.64742995271184, 0.25119318654708, 0
1202, 0.60517398234067, 0.27029923511272, 0
1203, 0.60551955595696, 0.28312583864707, 0
1204, 0.57591362268953, 0.28782853717002, 0
1205, 0.56504098010953, 0.2858389560151, 0
1206, 0.55906355568865, 0.28215522272565, 0
1207, 0.59449544403158, 0.28045609688605, 0
1208, 0.60504167283521, 0.26275498955619, 0
1209, 0.61522345146736, 0.27661421955354, 0
1210, 0.59143495614115, 0.27605880876877, 0
1211, 0.61088247011492, 0.2640576617046, 0
1212, 0.70874380912012, 0.20599776711713, 0
1213, 0.72702315920877, 0.22656681744621, 0
1214, 0.69022145887879, 0.2004431994431, 0
1215, 0.69626754885304, 0.20787532094642, 0
1216, 0.6781030011642, 0.21436995963132, 0
1217, 0.67111842267074, 0.22189047278197, 0
1218, 0.68191721972057, 0.21404651978482, 0
1219, 0.69461625728634, 0.20116056191775, 0
1220, 0.68493528396124, 0.2091280865788, 0
1221, 0.72643406865258, 0.18611733163717, 0
1222, 0.7204395809839, 0.17688029970943, 0
1223, 0.72480874708153, 0.17371353866011, 0
1224, 0.77286431744669, 0.12813415644624, 0
1225, 0.75795485336965, 0.12500058848626, 0
1226, 0.76374821868389, 0.11257236318574, 0
1227, 0.75151997268092, 0.11794255750227, 0
1228, 0.74824083971364, 0.12201860646488, 0
1229, 0.74796513495685, 0.12727328113453, 0
1230, 0.73774042612231, 0.12755021174268, 0
1231, 0.75566198972973, 0.16073578465918, 0
1232, 0.73874646332034, 0.15377675412872, 0
1233, 0.76224610309301, 0.13377439001627, 0
1234, 0.73210544536715, 0.13839266745146, 0
1235, 0.78298010164123, 0.14893509538244, 0
1236, 0.77721442822751, 0.13781289216336, 0
1237, 0.7874297274858, 0.11159475073818, 0
1238, 0.84267757093783, 0.12073946026976, 0
1239, 0.86093404001053, 0.15079549709127, 0
1240, 0.85339698574848, 0.13392322936998, 0
1241, 0.8066872780655, 0.12240090258065, 0
1242, 0.76697188888691, 0.037563004460318, 0
1243, 0.82334381020948, 0.053769219151879, 0
1244, 0.75266780919279, 0.10215194085149, 0
1245, 0.76136691584059, 0.090160936544347, 0
1246, 0.76565064181567, 0.06555708090096, 0
1247, 0.75972747138395, 0.076103235149389, 0
1248, 0.76635313376976, 0.046819412344484, 0
1249, 0.75582799700829, 0.097654248788642, 0
1250, 0.78933516212945, 0.079641324082427, 0
1251, 0.75925787713864, 0.096583673966573, 0
1252, 0.75089868300548, 0.090657985142343, 0
1253, 0.75468478854136, 0.11071516076687, 0
1254, 0.75938829072344, 0.011426080815807, 0
1255, 0.75895645211088, 0.0055900053245819, 0
1256, 0.76425216244886, 0.011363352784601, 0
1257, 0.77392939653937, 0.038245916864615, 0
1258, 0.77482228411511, 0.062801278363456, 0
1259, 0.76404958901142, 0.040853078301444, 0
1260, 0.81136379461143, 0.012824193550683, 0
1261, 0.76884421961969, 0.032250729678324, 0
1262, 0.76400536436124, 0.021553676908206, 0
1263, 0.77067792117662, 0.10584519854051, 0
1264, 0.75852649304695, 0.038810200714024, 0
1265, 0.76295166191871, 0.033824000093939, 0
1266, 0.77890453045837, 0.036046593108785, 0
1267, 0.77715316028605, 0.030877787981002, 0
1268, 0.88194076617319, -0.013090545690138, 0
1269, 0.85375047987413, -0.002835263295819, 0
1270, 0.83381013331392, 0.030299171733914, 0
1271, 0.7773622433944, 0.041078900651721, 0
1272, 0.81546584368168, -0.057806279834873, 0
1273, 0.76008686477119, 0.05393932038342, 0
1274, 0.88688667429304, 0.14517691057049, 0
1275, 0.82043138324538, 0.13592800808939, 0
1276, 0.86273305016603, 0.09052546786594, 0
1277, 0.83998285485232, 0.087843102477571, 0
1278, 0.88287724391798, 0.056829409789727, 0
1279, 0.80115257210054, -0.043334914912626, 0
1280, 0.83761364909818, -0.096253686312994, 0
1281, 0.89259387947899, -0.14270570895623, 0
1282, 0.84836424744467, 0.011153410330511, 0
1283, 0.75304237430557, -0.057304023252933, 0
1284, 0.70841369890615, -0.15222879304949, 0
1285, 0.74145944664991, -0.06388653159919, 0
1286, 0.88734657455784, -0.11555148881881, 0
1287, 0.7979559599756, -0.10130507364087, 0
1288, 0.84924877358409, -0.079806117603861, 0
1289, 0.77395099525916, -0.0091375208983032, 0
1290, 0.77682613243852, -0.09662123909923, 0
1291, 0.72909776472456, -0.081839610549344, 0
1292, 0.74934089944872, -0.050695186155349, 0
1293, 0.73534898869839, -0.11016304865548, 0
1294, 0.74452286335395, -0.053238503219059, 0
1295, 0.6986830582976, -0.13751898581839, 0
1296, 0.73453442116293, -0.10267354627706, 0
1297, 0.75250657974607, -0.062973384095265, 0
1298, 0.69400536373619, -0.14188832026998, 0
1299, 0.72612014794123, -0.093247879808159, 0
1300, 0.76460707783628, -0.098367495697378, 0
1301, 0.81026159457809, -0.012492866463209, 0
1302, 0.75874815851183, -0.023082069134903, 0
1303, 0.75474612219864, -0.0035192285858858, 0
1304, 0.75722297347223, -0.089982213143536, 0
1305, 0.75317529204975, -0.093625059312935, 0
1306, 0.75056250067482, -0.023065783268422, 0
1307, 0.74543973276616, -0.068394115177532, 0
1308, 0.80063712599189, -0.072468855638325, 0
1309, 0.7578250371636, -0.032151204404614, 0
1310, 0.75844510297869, -0.046556174030794, 0
1311, 0.75694774635498, -0.015671455678439, 0
1312, 0.82924341646021, 0.0041910655367666, 0
1313, 0.77552167166168, -0.0028791869786626, 0
1314, 0.72003367764061, -0.12176816619456, 0
1315, 0.84554460093401, 0.037451998391777, 0
1316, 0.83539737129501, -0.023996577832178, 0
1317, 0.69757523632134, -0.14056571150333, 0
1318, 0.79504530057455, -0.0075223835944671, 0
1319, 0.75063552240946, -0.038670962580796, 0
1320, 0.75343718817436, -0.0097629134032604, 0
1321, 0.75396053333046, -0.030560786811515, 0
1322, 0.74833347023248, -0.033348927174504, 0
1323, 0.7559055385643, -0.010994263059529, 0
1324, 0.76278742444351, -0.034252227582563, 0
1325, 0.76805161598167, -0.03131389454593, 0
1326, 0.75265525258232, -0.012750552524846, 0
1327, 0.75100867196697, -0.018293975750557, 0
1328, 0.76036913366717, -0.026125215114609, 0
1329, 0.76538062071258, 0.006662921163809, 0
1330, 0.75805788087573, -0.041028393144244, 0
1331, 0.72972002765662, -0.090234294201105, 0
1332, 0.72803788933296, -0.11036899570925, 0
1333, 0.72689862445379, -0.13864671572513, 0
1334, 0.7119495733533, -0.11941891406956, 0
1335, 0.70153003191803, -0.12810950369995, 0
1336, 0.69978586660203, -0.12964790534546, 0
1337, 0.7218357763656, -0.14041023527062, 0
1338, 0.71692027188341, -0.12423925496204, 0
1339, 0.73447451167494, -0.081225261707073, 0
1340, 0.75876926933046, -0.052568710382513, 0
1341, 0.74352399091255, -0.1160129049748, 0
1342, 0.70898456801368, -0.13440443144596, 0
1343, 0.78016159054122, -0.13072936539307, 0
1344, 0.71298325868984, -0.14077241805177, 0
1345, 0.57562100882292, -0.21638229806746, 0
1346, 0.60325402619298, -0.20591008967484, 0
1347, 0.57893242054892, -0.21279065904326, 0
1348, 0.57796768746796, -0.21498768301987, 0
1349, 0.54700069408198, -0.24530834049349, 0
1350, 0.53903103134623, -0.24900744618726, 0
1351, 0.51994537582515, -0.24386823390604, 0
1352, 0.51764822846808, -0.24106797658151, 0
1353, 0.52854179774399, -0.22947018455817, 0
1354, 0.52204517171335, -0.23001282598336, 0
1355, 0.51567757262232, -0.23037590131212, 0
1356, 0.47465345808998, -0.25513800798414, 0
1357, 0.45790172535465, -0.25979900186655, 0
1358, 0.44783410784446, -0.22751377313201, 0
1359, 0.51663024053826, -0.23776680785434, 0
1360, 0.52227944270448, -0.23748256136022, 0
1361, 0.5352518263732, -0.22873201301226, 0
1362, 0.54178474690436, -0.22738793922663, 0
1363, 0.54768483354735, -0.22570505062489, 0
1364, 0.55668523999774, -0.24948961415375, 0
1365, 0.57992912754115, -0.24608993704597, 0
1366, 0.5494344275396, -0.23013188174905, 0
1367, 0.56306913313946, -0.2433973149798, 0
1368, 0.54619630734694, -0.23551449179852, 0
1369, 0.5368608954632, -0.23747213028423, 0
1370, 0.52914967581484, -0.23798187812145, 0
1371, 0.5891898643248, -0.21536415738082, 0
1372, 0.55567718563056, -0.2301243658216, 0
1373, 0.57376082623382, -0.22869916302738, 0
1374, 0.59372935340551, -0.22387770750579, 0
1375, 0.55845754661521, -0.22651217262736, 0
1376, 0.57414039375717, -0.25872697409516, 0
1377, 0.60269258704197, -0.23753081884738, 0
1378, 0.5815564849181, -0.21433169615016, 0
1379, 0.61030934194729, -0.2069769926106, 0
1380, 0.60358792115446, -0.21405455891517, 0
1381, 0.59718627365521, -0.20793075271705, 0
1382, 0.57723842137002, -0.22610781315363, 0
1383, 0.58370351670952, -0.21478277874011, 0
1384, 0.57978403321736, -0.21601278854481, 0
1385, 0.6230578505169, -0.22352873948318, 0
1386, 0.60689603802544, -0.20856648693781, 0
1387, 0.61110226734707, -0.2461841027422, 0
1388, 0.56708830191385, -0.22053829513047, 0
1389, 0.61697055589918, -0.21276553564227, 0
1390, 0.56977979228498, -0.23090680544977, 0
1391, 0.62357764423788, -0.25584752696552, 0
1392, 0.63484579478891, -0.25410205658444, 0
1393, 0.65916585626265, -0.17282078015676, 0
1394, 0.66227751539411, -0.16865718528798, 0
1395, 0.67867073292816, -0.16692248001102, 0
1396, 0.66758795141349, -0.17379471036439, 0
1397, 0.64397136527109, -0.187166689186, 0
1398, 0.68640216070971, -0.1802108236194, 0
1399, 0.6970330622686, -0.14889292693263, 0
1400, 0.73215744532025, -0.13525922561196, 0
1401, 0.69947877322397, -0.13463340206341, 0
1402, 0.7013960605626, -0.14748686971862, 0
1403, 0.69372278866341, -0.13775939617403, 0
1404, 0.66638267746924, -0.17754384657544, 0
1405, 0.68008280771055, -0.1574829742789, 0
1406, 0.7181638515206, -0.14935029758737, 0
1407, 0.71734289026353, -0.16749399685343, 0
1408, 0.66553540614729, -0.17075511403692, 0
1409, 0.68444793042836, -0.15828870625735, 0
1410, 0.67929368075238, -0.17135323327788, 0
1411, 0.65696566887021, -0.17209772327704, 0
1412, 0.66322572850202, -0.1672872840149, 0
1413, 0.66888536268689, -0.16732561404838, 0
1414, 0.65556932236424, -0.1871793219213, 0
1415, 0.68845554779672, -0.18703559468826, 0
1416, 0.67397744683889, -0.15844988270041, 0
1417, 0.64944328059197, -0.18751954453775, 0
1418, 0.6609414423479, -0.16818794889184, 0
1419, 0.64987584057257, -0.18263821842362, 0
1420, 0.63271529329197, -0.19386594180058, 0
1421, 0.63812886446486, -0.19085415389286, 0
1422, 0.62749966092567, -0.19693678130158, 0
1423, 0.62217127986858, -0.2000168194227, 0
1424, 0.61663198102163, -0.20332517226133, 0
1425, 0.62045594080912, -0.210251131813, 0
1426, 0.62625234908269, -0.20588372550996, 0
1427, 0.64173406941821, -0.19705059042395, 0
1428, 0.63194916829279, -0.20212080189023, 0
1429, 0.63541351784828, -0.19798568661204, 0
1430, 0.64083560673789, -0.20567572101027, 0
1431, 0.65310450694677, -0.20045984895093, 0
1432, 0.66291778698821, -0.17693597242276, 0
1433, 0.67723944316985, -0.15963784288544, 0
1434, 0.68571756709876, -0.15237155979564, 0
1435, 0.66630226215318, -0.16809461911061, 0
1436, 0.67442698880974, -0.16152588129944, 0
1437, 0.66466876863204, -0.16667189658998, 0
1438, 0.69556880984498, -0.19803490768044, 0
1439, 0.65254884048582, -0.1801952697961, 0
1440, 0.70604750433649, -0.19232182514004, 0
1441, 0.72240065297875, -0.19739095553294, 0
1442, 0.68950303475946, -0.22056652337083, 0
1443, 0.70919540590113, -0.21637837508573, 0
1444, 0.59968063331043, -0.21487415603757, 0
1445, 0.63053128778343, -0.21792354402931, 0
1446, 0.6473889307584, -0.21764981851999, 0
1447, 0.66995550938156, -0.22803057367976, 0
1448, 0.65112461423901, -0.23329224011563, 0
1449, 0.58678815963668, -0.25496539343039, 0
1450, 0.63707502191552, -0.23891026192484, 0
1451, 0.85083373501414, -0.19691298518047, 0
1452, 0.8987811090763, -0.19388798721719, 0
1453, 0.84518404563568, -0.15542388909501, 0
1454, 0.76253247736631, -0.15002534553864, 0
1455, 0.75779437221207, -0.17080563318069, 0
1456, 0.70362180740805, -0.13059105404291, 0
1457, 0.6919958790107, -0.14017259920169, 0
1458, 0.76438802286736, -0.20001604254321, 0
1459, 0.73519392238426, -0.20749399329335, 0
1460, 0.79973530967744, -0.19587671647708, 0
1461, 0.73146743442378, 0.25446936025592, 0
1462, 0.72301394842186, 0.28853582665377, 0
1463, 0.68607964701352, 0.2134919151751, 0
1464, 0.52294040064827, 0.28695897414675, 0
1465, 0.53142649911147, 0.29051660544223, 0
1466, 0.37780355876308, 0.26019374263408, 0
1467, 0.39008043063726, 0.26092851268145, 0
1468, 0.37759248478157, 0.25755056484744, 0
1469, 0.76512771278278, 0.17759878221024, 0
1470, 0.79084962602919, 0.22423875085795, 0
1471, 0.78552973136312, 0.19045270619968, 0
1472, 0.2305868138741, -0.17872477619337, 0
1473, 0.23286831721179, -0.20167306675642, 0
1474, 0.32645253163541, -0.15950150812121, 0
1475, 0.15635447637366, 0.042446644280793, 0
1476, 0.1422098326074, 0.017956092725248, 0
1477, 0.093552848186123, -0.0057383068886448, 0
1478, 0.23304599177864, -0.13469271735573, 0
1479, 0.26730370733688, -0.085426189567586, 0
1480, 0.64432803743492, 0.24401132387216, 0
1481, 0.25378779953497, -0.15264594851402, 0
1482, 0.28389677208442, -0.18788405454578, 0
1483, 0.2104066231941, 0.19172451514081, 0
1484, 0.22201324582326, 0.18845859211259, 0
1485, 0.24116731302118, 0.21123281618275, 0
1486, 0.74788394767944, -0.036326855103871, 0
1487, 0.37769910399932, 0.272866316615, 0
1488, 0.39764158121714, 0.26485982728971, 0
1489, 0.38016989202338, 0.25622539221736, 0
1490, 0.48387177006836, 0.29110668040121, 0
1491, 0.49693015354353, 0.28990323054407, 0
1492, 0.65980220923587, 0.23090285944447, 0
1493, 0.64239812182975, 0.24625863308987, 0
1494, 0.39339560421634, -0.238241020975, 0
1495, 0.39294017200398, -0.20849344619269, 0
1496, 0.7992152740705, 0.11079033556672, 0
1497, 0.22689715902644, 0.21055282073849, 0
1498, 0.18838700949206, 0.21161676269947, 0
1499, 0.22633931489112, 0.19939200411737, 0
1500, 0.72905048766958, 0.23951830701127, 0
1501, 0.77681236450492, 0.24487401046775, 0
1502, 0.71054683210856, 0.18266434908753, 0
1503, 0.58771391993162, -0.21851079959904, 0
1504, 0.59230634729208, -0.24448925878539, 0
1505, 0.59593545941283, -0.21530908302232, 0
1506, 0.57742013607882, -0.22144533827842, 0
1507, 0.58058655493634, -0.23589664124793, 0
1508, 0.79749999005646, -0.21073533662276, 0
1509, 0.75889397272451, 0.26524601415859, 0
1510, 0.71738043920111, 0.26757800196782, 0
1511, 0.70870194288209, 0.18506501202204, 0
1512, 0.45190042115791, -0.22483281277414, 0
1513, 0.44535371178564, -0.23420040724324, 0
1514, 0.37201477353727, 0.25234182518148, 0
1515, 0.38765999800132, 0.25971024058573, 0
1516, 0.35064523920705, 0.27766160207622, 0
1517, 0.69772269896054, 0.19905357483555, 0
1518, 0.70710094011999, 0.19131213545438, 0
1519, 0.2585863492789, -0.061962035761327, 0
1520, 0.24791579353309, -0.042069664195452, 0
1521, 0.67715626767073, 0.23844383237867, 0
1522, 0.65481304666514, 0.24162104579504, 0
1523, 0.20482785500861, 0.11080191103552, 0
1524, 0.23894793827958, 0.14495444504943, 0
1525, 0.25999062556956, 0.19486506517407, 0
1526, 0.24845358545182, 0.19342837089922, 0
1527, 0.25191433737534, 0.20027775455031, 0
1528, 0.53296847813836, 0.28575129998792, 0
1529, 0.53515955193751, 0.28972568824998, 0
1530, 0.65480364680575, 0.23644782288077, 0
1531, 0.6436456805571, 0.24998515184139, 0
1532, 0.62825021491788, 0.26345446883996, 0
1533, 0.44432953519499, -0.22090283571496, 0
1534, 0.42926762913331, -0.21586475562059, 0
1535, 0.80899254099542, 0.14396707712043, 0
1536, 0.81243437540666, 0.11162928343233, 0
1537, 0.83836677622341, 0.1547596928567, 0
1538, 0.78265629571946, 0.21123910880291, 0
1539, 0.68896311255885, 0.20309670713096, 0
1540, 0.79556488540042, 0.17831687230742, 0
1541, 0.2676049992385, -0.080174870634048, 0
1542, 0.18390413112778, -0.079350206687246, 0
1543, 0.25392036536635, -0.12601479686474, 0
1544, 0.52488271661086, 0.29542815059344, 0
1545, 0.72744825306289, -0.23127596605787, 0
1546, 0.89783712357777, -0.22007471292319, 0
1547, 0.66054006181028, -0.23066140689769, 0
1548, 0.69471164177697, 0.19618103197778, 0
1549, 0.18977059716172, 0.0024124419723131, 0
1550, 0.24286813673165, 0.022814418325252, 0
1551, 0.51761606001942, -0.24895015228008, 0
1552, 0.52888231993881, -0.24285281587378, 0
1553, 0.51485195594039, -0.24454156400069, 0
1554, 0.72986183623272, -0.23916790874759, 0
1555, 0.69934922033029, -0.21847244922828, 0
1556, 0.73560609215946, -0.22372423860358, 0
1557, 0.58674983108157, 0.29394421780264, 0
1558, 0.58204146004418, 0.27464173008159, 0
1559, 0.56877471790264, 0.29175331131554, 0
1560, 0.47645091119991, 0.29103850676646, 0
1561, 0.48761636873496, 0.29072915750127, 0
1562, 0.74159847993412, -0.21470520637569, 0
1563, 0.87263523226582, -0.27353742936324, 0
1564, 0.74949044407295, -0.20597901935658, 0
1565, 0.68184265235679, 0.20978680735258, 0
1566, 0.60769141745717, 0.2621440382718, 0
1567, 0.57132695591392, 0.28626189384728, 0
1568, 0.3126616561939, 0.20492436118723, 0
1569, 0.29662552602609, 0.20464996190703, 0
1570, 0.31053162019505, 0.2030006337156, 0
1571, 0.36281190966121, 0.25097177781352, 0
1572, 0.31388327602833, 0.25505354703368, 0
1573, 0.38781114177423, 0.26505293227118, 0
1574, 0.78780718918918, -0.037192969598354, 0
1575, 0.79964889433644, -0.05714148480344, 0
1576, 0.75134239166101, -0.02159834914495, 0
1577, 0.36585670243268, 0.25251693176819, 0
1578, 0.33976187352181, 0.25296791469817, 0
1579, 0.33857628793959, 0.24657738035027, 0
1580, 0.76299638471165, 0.038328567735124, 0
1581, 0.8192260022019, 0.046582897388962, 0
1582, 0.76262252741884, 0.018139716786083, 0
1583, 0.23782252349227, -0.052910764050726, 0
1584, 0.20416774482811, 0.024455450790406, 0
1585, 0.23578898590631, 0.02127918040031, 0
1586, 0.36957048633451, 0.27669610558403, 0
1587, 0.44992621125312, 0.28932285530325, 0
1588, 0.3644208952295, 0.26278168205323, 0
1589, 0.47404636643736, -0.22839264798935, 0
1590, 0.46457083567983, -0.2514325793448, 0
1591, 0.30551563849574, -0.21205219051712, 0
1592, 0.13295482634214, 0.14553231261325, 0
1593, 0.15438404378393, 0.13564847284624, 0
1594, 0.13227378668338, 0.12817944276459, 0
1595, 0.80864024525976, 0.065004184953446, 0
1596, 0.82036945962017, 0.087320369763025, 0
1597, 0.82550579971813, 0.015140680823966, 0
1598, 0.63543243400011, -0.21153464193974, 0
1599, 0.64411226874815, -0.21166276976513, 0
1600, 0.63870909601037, -0.2175216906946, 0
1601, 0.44745640823232, -0.22153494215294, 0
1602, 0.51333973964875, -0.24017157443977, 0
1603, 0.52182833448128, -0.25319911267179, 0
1604, 0.27206167936025, -0.11781019603568, 0
1605, 0.26540296337827, -0.11237909498211, 0
1606, 0.76054728596752, -0.085619035489982, 0
1607, 0.74859555101423, -0.055250209844762, 0
1608, 0.7631199069592, -0.010301473479982, 0
1609, 0.20178819400011, -0.13093050814351, 0
1610, 0.31025735890966, -0.14519885846422, 0
1611, 0.21881599560588, -0.11993868502491, 0
1612, 0.4348713185584, -0.21815727507351, 0
1613, 0.37823936073499, -0.24640611641479, 0
1614, 0.38955615761892, -0.2493788112988, 0
1615, 0.57117196656915, -0.21605142741146, 0
1616, 0.61392441330322, -0.27018954884507, 0
1617, 0.59129508247746, -0.20949779019796, 0
1618, 0.80014280204967, -0.030873766780737, 0
1619, 0.90969178017394, -0.0037877253029286, 0
1620, 0.83516298599762, 0.14134215338281, 0
1621, 0.81713739046971, 0.099727645503463, 0
1622, 0.88778869131944, 0.095795977229174, 0
1623, 0.29662940283778, -0.21606990907977, 0
1624, 0.32019713732791, -0.22182779907199, 0
1625, 0.32359269542408, -0.24076065864228, 0
1626, 0.24034774016445, 0.1052327884629, 0
1627, 0.2379261338841, 0.072122559607156, 0
1628, 0.18982946672763, -0.0097535153196446, 0
1629, 0.23033723349423, -0.033656890074734, 0
1630, 0.25698183512773, -0.055629954681582, 0
1631, 0.21997248360641, -0.056182025635585, 0
1632, 0.24988213246407, -0.038902589808344, 0
1633, 0.30673331962675, 0.2035254195809, 0
1634, 0.28991834922439, 0.21473427996564, 0
1635, 0.29646491107557, 0.19807129677181, 0
1636, 0.75984064857011, 0.057265473653944, 0
1637, 0.75873823394092, 0.021166042409228, 0
1638, 0.82853648721038, 0.11386967984385, 0
1639, 0.79508317861187, 0.1210637518696, 0
1640, 0.80122814957012, 0.13242046045117, 0
1641, 0.75107240720227, -0.032097115218525, 0
1642, 0.76163579652675, -0.0010652966333043, 0
1643, 0.76824406353808, 0.07641072215119, 0
1644, 0.76485735468801, 0.080032128030659, 0
1645, 0.76162997954604, 0.083128002162928, 0
1646, 0.52175322227037, -0.24089725542737, 0
1647, 0.52555722075311, -0.23778129839589, 0
1648, 0.52758781177835, -0.25623688426512, 0
1649, 0.32415863158548, 0.21723795681155, 0
1650, 0.30831594217917, 0.20092422245435, 0
1651, 0.72616393424527, 0.15088060844409, 0
1652, 0.76530229979184, 0.14382339726918, 0
1653, 0.7481999822884, 0.14398456390041, 0
1654, 0.31381917788142, -0.15201082810196, 0
1655, 0.33510716631213, -0.16858932386072, 0
1656, 0.32431650803296, -0.18441148313456, 0
1657, 0.69981792709876, -0.1514743177833, 0
1658, 0.71408426896409, -0.17363995621587, 0
1659, 0.62315371866945, -0.20755006766464, 0
1660, 0.62814080517251, -0.21163864418959, 0
1661, 0.62359183198881, -0.21420307254754, 0
1662, 0.38025322121402, 0.25854603396455, 0
1663, 0.34819259778396, 0.26493485712141, 0
1664, 0.38695829882466, 0.26285438176563, 0
1665, 0.44551609661368, 0.28362409027003, 0
1666, 0.45559053641321, 0.28462767962903, 0
1667, 0.23583991517597, 0.056284609505492, 0
1668, 0.23128941323802, 0.058376818265639, 0
1669, 0.22596469884326, 0.056457197825682, 0
1670, 0.22654054158579, 0.02013224982697, 0
1671, 0.23629615872723, 0.02628848942966, 0
1672, 0.23735117209403, 0.0032639686201815, 0
1673, 0.90489237966443, 0.048873466220118, 0
1674, 0.74927675809256, -0.025337600817133, 0
1675, 0.77475375226913, 0.049543583467099, 0
1676, 0.33644107296534, -0.18633780286128, 0
1677, 0.32918468144213, -0.18782487444419, 0
1678, 0.31083229072429, -0.15062663016608, 0
1679, 0.23758793956555, 0.077635243617673, 0
1680, 0.79799486471198, 0.010971016426642, 0
1681, 0.76743799326296, 0.057654406062557, 0
1682, 0.76309046716615, -0.039609520631394, 0
1683, 0.75691271330781, -0.0076991737982768, 0
1684, 0.31586112799267, -0.16263821563336, 0
1685, 0.30527018463798, -0.14069162160263, 0
1686, 0.30771665380021, -0.14304115485592, 0
1687, 0.09007068292023, -0.029052709750965, 0
1688, 0.064845161759822, 0.00071045267694485, 0
1689, 0.23728877422573, 0.048558977433579, 0
1690, 0.23079218838369, 0.062828627095239, 0
1691, 0.73113642192515, -0.12153529604392, 0
1692, 0.42114074752856, -0.2353492164353, 0
1693, 0.45541402763657, -0.22667610137948, 0
1694, 0.42104544291953, -0.21248109104068, 0
1695, 0.26817837963677, 0.14307538731273, 0
1696, 0.24452215626537, 0.01842077890472, 0
1697, 0.24346551821573, 0.021100202843103, 0
1698, 0.23671404079414, 0.03804710497782, 0
1699, 0.6842676462693, 0.21669192248459, 0
1700, 0.69606514065519, 0.21111222296769, 0
1701, 0.67455032641243, 0.22831458207044, 0
1702, 0.74369899483273, -0.056916883658219, 0
1703, 0.70834686604338, -0.12871881338745, 0
1704, 0.69554705864876, -0.13919874720749, 0
1705, 0.69688484587408, -0.13658156088262, 0
1706, 0.57632716130567, 0.28330495255694, 0
1707, 0.56991966366972, 0.28064287005459, 0
1708, 0.57515806406476, 0.2933761821263, 0
1709, 0.75491404352242, -0.023087647604269, 0
1710, 0.78046558687809, 0.044491247981637, 0
1711, 0.76453623412773, -0.0060243080559503, 0
1712, 0.59191869860287, -0.22881872414535, 0
1713, 0.59921236960369, -0.2193295168409, 0
1714, 0.62701850743633, -0.26952383492409, 0
1715, 0.44280279867162, -0.22376306874293, 0
1716, 0.40263223702191, -0.22991126312147, 0
1717, 0.40899353493466, -0.22859848624569, 0
1718, 0.76832851200303, 0.092833327115623, 0
1719, 0.76444431227494, 0.10055372868732, 0
1720, 0.75878748018194, 0.08581429804307, 0
1721, 0.24040097846823, 0.071292491196466, 0
1722, 0.25541948642329, 0.10810056053304, 0
1723, 0.5675878258491, -0.22748242284248, 0
1724, 0.56827726519967, -0.21714904374233, 0
1725, 0.73173833553853, 0.15104725156607, 0
1726, 0.73489229219193, 0.14733205649127, 0
1727, 0.77341237096431, 0.14599241661908, 0
1728, 0.33776050392476, 0.24232979744639, 0
1729, 0.3852283857384, 0.25854732867455, 0
1730, 0.32832058930109, 0.24677537571861, 0
1731, 0.56200532562427, -0.23783721177631, 0
1732, 0.59729191318325, -0.22998362739711, 0
1733, 0.57679886121807, -0.23206473296465, 0
1734, 0.5833853788332, -0.21131650137916, 0
1735, 0.56528397387475, -0.21818844762046, 0
1736, 0.55388704070124, -0.22428679039357, 0
1737, 0.25271330217996, 0.15457811396309, 0
1738, 0.19672935805483, 0.16609503181975, 0
1739, 0.24923151166471, 0.16032135367044, 0
1740, 0.22628528222643, 0.074920712715633, 0
1741, 0.77856014921128, -0.041592321934241, 0
1742, 0.68485303385491, 0.26943594227708, 0
1743, 0.67958666826076, 0.2525142314051, 0
1744, 0.70691180004985, 0.27931867182002, 0
1745, 0.56730432088782, -0.23691574955735, 0
1746, 0.57392822003867, -0.2149307826178, 0
1747, 0.59847231735275, -0.22431123586449, 0
1748, 0.6874297945373, 0.20415773773545, 0
1749, 0.71211283120014, 0.18047787345882, 0
1750, 0.70148228792058, 0.18908459286099, 0
1751, 0.71579802943994, -0.20688466530933, 0
1752, 0.7287972876815, -0.20244247441314, 0
1753, 0.72219466414269, -0.21193618418954, 0
1754, 0.39509126582104, 0.27527002474737, 0
1755, 0.39401466901254, 0.27074911834496, 0
1756, 0.29327216041811, 0.28678990093691, 0
1757, 0.28569852114749, 0.18197033585483, 0
1758, 0.29167724144765, 0.1846026597699, 0
1759, 0.75072559618341, -0.024539176824337, 0
1760, 0.82496372337847, -0.10807908922821, 0
1761, 0.68772924003978, -0.16608701456646, 0
1762, 0.67115526724526, -0.17352997595359, 0
1763, 0.71161076993412, -0.16195183784411, 0
1764, 0.3217483603475, 0.21898965040649, 0
1765, 0.31038205668756, 0.21547252195288, 0
1766, 0.38898975734521, -0.21765788120721, 0
1767, 0.38163673719287, -0.21987400195307, 0
1768, 0.42674813030434, -0.2146845195851, 0
1769, 0.42395946404436, -0.21841012093562, 0
1770, 0.4491266217889, -0.23668423849128, 0
1771, 0.42576901861594, 0.28649421785635, 0
1772, 0.40626018441506, 0.28255195634498, 0
1773, 0.46406518296477, -0.27522220494264, 0
1774, 0.42943456925975, -0.21875306141491, 0
1775, 0.50921683898864, -0.24347920396794, 0
1776, 0.61471641631583, 0.26320361660363, 0
1777, 0.63915707945278, 0.26219296995725, 0
1778, 0.65498342320821, 0.23887849282748, 0
1779, 0.22488621705754, 0.10490874844555, 0
1780, 0.25942519309241, 0.1382111024578, 0
1781, 0.64952401741399, 0.23704824335131, 0
1782, 0.3587770726443, 0.26949130369895, 0
1783, 0.38509279561613, 0.26216847803817, 0
1784, 0.38473821997924, 0.27208447379313, 0
1785, 0.43956942967047, -0.28165259172244, 0
1786, 0.45002829955788, -0.23004838036615, 0
1787, 0.49630378925678, -0.237976243084, 0
1788, 0.64739095081837, -0.1805554244621, 0
1789, 0.69193855427805, -0.17634080512378, 0
1790, 0.65988726527416, -0.17614189059898, 0
1791, 0.45033797486676, -0.22198161660187, 0
1792, 0.42411740373351, -0.26456231067899, 0
1793, 0.45461576084114, -0.23756128190616, 0
1794, 0.94642582883529, -0.16304469102891, 0
1795, 0.97233954855372, -0.13487640726502, 0
1796, 0.97408628028157, -0.19139310646551, 0
1797, 0.97321291441764, -0.16313475686527, 0
1798, 0.94405141151418, -0.10647766248312, 0
1799, 0.97171186296046, -0.077934893611972, 0
1800, 0.97202570575709, -0.1064056504385, 0
1801, 0.48015079901559, 0.29117539030552, 0
1802, 0.48113320537029, 0.29551071502251, 0
1803, 0.48588666232715, 0.28698642785157, 0
1804, 0.47576193277511, 0.28683835044155, 0
1805, 0.026782293954107, 0.13859768403259, 0
1806, 0.054336346897831, 0.11190297234722, 0
1807, 0.027554052943724, 0.08527221383077, 0
1808, 0.027168173448916, 0.11193494893168, 0
1809, 0.06056649860635, -0.05194534086739, 0
1810, 0.028902461449078, -0.078854084765162, 0
1811, 0.031067269467266, -0.02445527336255, 0
1812, 0.030302026771588, -0.051404842023349, 0
1813, 0.44339943085872, -0.25613986680875, 0
1814, 0.51063891435194, -0.24962524096835, 0
1815, 0.49077687913548, -0.23127370972356, 0
1816, 0.43453048544629, -0.25270018147536, 0
1817, 0.056319861028831, -0.10662781517682, 0
1818, 0.027417399579753, -0.13455217334324, 0
1819, 0.028159930514416, -0.1067031290542, 0
1820, 0.53646365262179, -0.26907849187342, 0
1821, 0.54865429652483, -0.28411058965737, 0
1822, 0.5365224872574, -0.2839432924708, 0
1823, 0.48253241129587, 0.28711095911704, 0
1824, 0.47238326214159, 0.28649600310757, 0
1825, 0.50465142928738, 0.29142412472323, 0
1826, 0.053682682771583, -0.16217509851783, 0
1827, 0.02626528319183, -0.19078194886585, 0
1828, 0.026841341385792, -0.16266706110454, 0
1829, 0.75095846598366, -0.035251142981778, 0
1830, 0.75477293992954, -0.014086196567844, 0
1831, 0.75822356314475, -0.036276811757297, 0
1832, 0.75590596498254, 0.0057523112752069, 0
1833, 0.75871722092402, 0.0026249034797444, 0
1834, 0.75833043643522, -0.00075949216642723, 0
1835, 0.75563109577641, 0.0028170864744198, 0
1836, 0.72781470214345, 0.15419667976052, 0
1837, 0.72980051918176, 0.15818053994766, 0
1838, 0.75803067325824, 0.14144147866343, 0
1839, 0.74487929539944, 0.11749195387353, 0
1840, 0.7430538212282, 0.11368616688044, 0
1841, 0.74102757640127, 0.1191874075326, 0
1842, 0.74204069881473, 0.11643678720652, 0
1843, 0.96896682225464, 0.035881926629183, 0
1844, 0.94128910432716, 0.064496200492321, 0
1845, 0.97232228207251, 0.089947301737147, 0
1846, 0.97064455216358, 0.062914614183165, 0
1847, 0.94489081598707, 0.11686843657138, 0
1848, 0.97256853391455, 0.14248941518246, 0
1849, 0.97244540799353, 0.1162183584598, 0
1850, 0.28655690805559, -0.13555582171716, 0
1851, 0.320860497157, -0.17397510415835, 0
1852, 0.34099203653204, -0.18857625431309, 0
1853, 0.33863854769538, -0.18206996111355, 0
1854, 0.31419690802552, 0.2640492614498, 0
1855, 0.30492068994383, 0.26285721931422, 0
1856, 0.3718266657085, 0.25829811800961, 0
1857, 0.36394858682444, 0.27100369146214, 0
1858, 0.75636563810565, 0.011584341417243, 0
1859, 0.75917237141716, 0.0085080430701941, 0
1860, 0.7561358015441, 0.0086683263462247, 0
1861, 0.34546200593881, 0.23557754660455, 0
1862, 0.34611931427691, 0.24001853595667, 0
1863, 0.35035640376776, 0.23918502920721, 0
1864, 0.34788272368223, 0.23735775087587, 0
1865, 0.3412157898212, 0.23639845707079, 0
1866, 0.34063720230785, 0.23193267313043, 0
1867, 0.34304960412333, 0.23375510986749, 0
1868, 0.77959103050841, -0.051166688414187, 0
1869, 0.75424198664347, -0.033909639023918, 0
1870, 0.24361286425896, 0.05021549501349, 0
1871, 0.24106898161029, 0.053607315759827, 0
1872, 0.2441509970819, 0.056177297684063, 0
1873, 0.24388193067043, 0.053196396348777, 0
1874, 0.66879224361035, -0.20717555501727, 0
1875, 0.65256397038046, -0.18482636115627, 0
1876, 0.68291560800231, -0.15506059760043, 0
1877, 0.67173957444155, -0.16625640098714, 0
1878, 0.74481299320986, -0.17602207862387, 0
1879, 0.75369986464731, -0.021046999282772, 0
1880, 0.77407946208277, -0.027192970161495, 0
1881, 0.28516853630668, 0.20831543652705, 0
1882, 0.30811971739892, 0.20818121505773, 0
1883, 0.30522842965955, 0.20644719502539, 0
1884, 0.49874729682057, -0.26055663340112, 0
1885, 0.4595734273354, -0.23400279529463, 0
1886, 0.49189800461887, -0.23866227076466, 0
1887, 0.46327537341453, -0.26285412977056, 0
1888, 0.026418944731843, 0.19235765243761, 0
1889, 0.053201238685951, 0.16536059448141, 0
1890, 0.026600619342975, 0.1654776682351, 0
1891, 0.58346068037737, -0.22525766141131, 0
1892, 0.59540324551204, -0.23656878418283, 0
1893, 0.58850144359543, -0.21015407401165, 0
1894, 0.33954615257873, -0.1938576612782, 0
1895, 0.37538133942065, -0.19495967726092, 0
1896, 0.7547455646989, -0.22806137557214, 0
1897, 0.94892483110273, -0.21899682781408, 0
1898, 0.69604708701261, -0.23099437305288, 0
1899, 0.73244936063319, -0.24977451598202, 0
1900, 0.7661546106516, -0.026706086480748, 0
1901, 0.75215786072169, -0.023075361336644, 0
1902, 0.75286359039502, -0.025116920094518, 0
1903, 0.50538010063561, 0.28758368824628, 0
1904, 0.4957389852793, 0.28598602490059, 0
1905, 0.47316203909635, 0.29527579862496, 0
1906, 0.50850250430381, 0.291599680468, 0
1907, 0.27696300416183, -0.10768782943642, 0
1908, 0.25735802368635, -0.092222649505257, 0
1909, 0.36358871359576, 0.24782186356922, 0
1910, 0.37443724387576, 0.29359714842721, 0
1911, 0.37188133158822, 0.25526221041181, 0
1912, 0.40500567351121, 0.2712607210674, 0
1913, 0.29029694484304, -0.16847543274648, 0
1914, 0.31905387717228, -0.15882313716587, 0
1915, 0.29542986738691, -0.1353267476154, 0
1916, 0.30160096556564, -0.14439844245144, 0
1917, 0.22910532149148, 0.091611991401654, 0
1918, 0.24318866743365, 0.070953147741713, 0
1919, 0.2435009145922, 0.074891463537168, 0
1920, 0.43013194833303, -0.2273809547486, 0
1921, 0.43576244203672, -0.22169584569326, 0
1922, 0.43134154056448, -0.23305984989332, 0
1923, 0.39597308696919, -0.22952027740082, 0
1924, 0.79333455566365, -0.28051780601765, 0
1925, 0.65681422435369, -0.24994956898474, 0
1926, 0.68625805819382, -0.26372059276516, 0
1927, 0.22774837383898, 0.15073262366709, 0
1928, 0.24570939058861, 0.06799825859636, 0
1929, 0.72036532129315, 0.16255546410127, 0
1930, 0.72949267148584, 0.14319857635178, 0
1931, 0.72825030768921, 0.16211275894377, 0
1932, 0.73688477952225, 0.14318552806072, 0
1933, 0.53318124059782, 0.29506679912777, 0
1934, 0.52967286372811, 0.28636816805239, 0
1935, 0.54015716412492, 0.28247096358502, 0
1936, 0.53849588863426, 0.28354534939226, 0
1937, 0.20981868719421, 0.036538315096571, 0
1938, 0.24342085712221, 0.031689729387394, 0
1939, 0.2302968925822, -0.0047775261505055, 0
1940, 0.688285479013, 0.20819842099516, 0
1941, 0.6736543397501, 0.21932113043776, 0
1942, 0.67749944694489, 0.21988389484614, 0
1943, 0.73387223967039, 0.17692530504491, 0
1944, 0.39422814402563, -0.20484380544276, 0
1945, 0.42685088493648, -0.2381392683232, 0
1946, 0.41700409906926, -0.22099386426509, 0
1947, 0.30965151947327, 0.22958121900804, 0
1948, 0.28712588428426, 0.23582185500494, 0
1949, 0.29922360360946, 0.20140611601128, 0
1950, 0.30201963520881, 0.2250006033209, 0
1951, 0.7258007019827, -0.1144579700669, 0
1952, 0.74150652800496, -0.12429857931054, 0
1953, 0.73012560771201, -0.14928782333688, 0
1954, 0.58537545879534, 0.27356556529745, 0
1955, 0.57877325691703, 0.27544870061986, 0
1956, 0.54823820628209, 0.29382229711973, 0
1957, 0.56090779393677, 0.28725176813121, 0
1958, 0.24093443348436, 0.1004185881695, 0
1959, 0.56794232635417, 0.27810885122736, 0
1960, 0.58493882926468, 0.28310767331623, 0
1961, 0.34862799285269, -0.17820234468541, 0
1962, 0.62061497023801, -0.19719244885052, 0
1963, 0.61944275302688, -0.20144315965934, 0
1964, 0.61511841594114, -0.200185442945, 0
1965, 0.61790189206934, -0.19860082882731, 0
1966, 0.4145449985742, -0.22661175387792, 0
1967, 0.43738472769773, -0.22585161761559, 0
1968, 0.39141999535574, -0.20324440929142, 0
1969, 0.41872260258588, -0.21695777547223, 0
1970, 0.49293411438191, -0.25396870903056, 0
1971, 0.43882807375998, -0.23944523599713, 0
1972, 0.52455623363447, -0.28305819498601, 0
1973, 0.46911461931043, -0.2337419894975, 0
1974, 0.2547017886853, 0.13004636600994, 0
1975, 0.72967895697173, 0.14830961242945, 0
1976, 0.74847429175943, 0.13605842231956, 0
1977, 0.73890856456492, 0.12473021537481, 0
1978, 0.73453368158484, 0.15435489437363, 0
1979, 0.30457566199346, -0.1468471280532, 0
1980, 0.31279964274181, -0.14715446729581, 0
1981, 0.25850800332519, -0.16108127553307, 0
1982, 0.77101808529536, -0.014544017240908, 0
1983, 0.704613924374, -0.14971198564727, 0
1984, 0.63108465594736, -0.19120059686307, 0
1985, 0.63010747710882, -0.19540136155108, 0
1986, 0.62591593927173, -0.19421302894755, 0
1987, 0.62850029760954, -0.19270681290531, 0
1988, 0.37479303181699, 0.25370731205867, 0
1989, 0.39932949991425, 0.26840789707929, 0
1990, 0.34992413833084, 0.29185009255739, 0
1991, 0.34853215491021, 0.25516516817118, 0
1992, 0.060545019383449, 0.058659988733355, 0
1993, 0.032553022069537, 0.030506725544482, 0
1994, 0.029989895736277, 0.058216670449334, 0
1995, 0.35779419004955, 0.27973395374933, 0
1996, 0.39169473842841, 0.26386061817289, 0
1997, 0.35547751348399, 0.25072755965522, 0
1998, 0.40025239398488, -0.20778634163828, 0
1999, 0.41855282146345, -0.2121360252915, 0
2000, 0.7584088123863, 0.064032989945069, 0
2001, 0.82298528046974, 0.075346284652364, 0
2002, 0.80288938461946, 0.027240361632723, 0
2003, 0.24198350467798, 0.065671224124671, 0
2004, 0.2448176877179, 0.062199822031348, 0
2005, 0.24522566782977, 0.065214530508715, 0
2006, 0.59989057009682, -0.2567399809577, 0
2007, 0.56565527926142, -0.22446589503629, 0
2008, 0.56944144087002, -0.24238015052387, 0
2009, 0.56337495220057, -0.2590836843383, 0
2010, 0.25091507330842, 0.099704065069983, 0
2011, 0.23647748448646, 0.10717829249837, 0
2012, 0.24294171299033, 0.07705417366999, 0
2013, 0.25333608781492, -0.045550788892628, 0
2014, 0.22247109353318, -0.010524859022942, 0
2015, 0.22008888006222, -0.075904314912639, 0
2016, 0.23637101593547, -0.064434499453881, 0
2017, 0.75582063216114, 0.081827327187322, 0
2018, 0.74672415324974, 0.10165732846771, 0
2019, 0.74501865758435, 0.1078515835429, 0
2020, 0.74591960985995, 0.10479199443872, 0
2021, 0.3019462350895, 0.21903711996418, 0
2022, 0.30385525283809, 0.20987423698476, 0
2023, 0.30923756496187, 0.20545349103629, 0
2024, 0.29637017216276, 0.23351510103466, 0
2025, 0.24964677426383, -0.047254397048901, 0
2026, 0.23831129820369, -0.040997374855895, 0
2027, 0.25275903640271, -0.051799031023063, 0
2028, 0.3726348883909, -0.19354984088999, 0
2029, 0.35653969605426, -0.18663715348719, 0
2030, 0.75276426776344, 0.094847778720444, 0
2031, 0.75076433990249, 0.085187016235445, 0
2032, 0.74902602442541, 0.09010818626791, 0
2033, 0.74981655021352, 0.087766466011581, 0
2034, 0.69242509759449, 0.19838077326073, 0
2035, 0.71485476340154, 0.17639685139262, 0
2036, 0.71365374131504, 0.17288449780163, 0
2037, 0.71213749185473, 0.17508081597195, 0
2038, 0.29935339915539, -0.13281061776833, 0
2039, 0.31655232192974, -0.1531113230534, 0
2040, 0.30900264441239, -0.15442192230311, 0
2041, 0.3211058379788, -0.15602964767648, 0
2042, 0.97302117788413, 0.19542343899734, 0
2043, 0.94660172295207, 0.2214430385292, 0
2044, 0.97358054506794, 0.24790726864756, 0
2045, 0.97330086147604, 0.22166535382245, 0
2046, 0.39662724826991, 0.26685499884754, 0
2047, 0.37999145724603, 0.26914442573441, 0
2048, 0.4337223086218, 0.29346363055648, 0
2049, 0.43879510722976, 0.29414820464147, 0
2050, 0.40247640233918, 0.29224626612548, 0
2051, 0.76752058351112, -0.019154005964579, 0
2052, 0.74074151467366, -0.10576422796737, 0
2053, 0.72347566841728, -0.12962957868108, 0
2054, 0.24141994058841, 0.059456296983776, 0
2055, 0.2444843423999, 0.059188559857706, 0
2056, 0.24228137127803, 0.079525349832958, 0
2057, 0.24371485741153, 0.072951823281461, 0
2058, 0.21822627991121, 0.12621498010204, 0
2059, 0.94558971179869, 0.16876190009355, 0
2060, 0.97279485589934, 0.1689564270899, 0
2061, 0.68823828481876, -0.144936052017, 0
2062, 0.71895166322743, -0.11172473485021, 0
2063, 0.28913020788261, 0.18015153936007, 0
2064, 0.2941996131067, 0.18347367797121, 0
2065, 0.29111502544955, 0.1788412435448, 0
2066, 0.29264565348291, 0.18109621693265, 0
2067, 0.29086152941316, -0.12457078347905, 0
2068, 0.29154251222278, -0.12047108203162, 0
2069, 0.29508461031984, -0.12508298228429, 0
2070, 0.29331356127131, -0.12277703215796, 0
2071, 0.33579542005238, 0.22810433789555, 0
2072, 0.33622671927793, 0.23262126048119, 0
2073, 0.33821631118011, 0.23001850551299, 0
2074, 0.65906260099829, -0.18979268881816, 0
2075, 0.64470791598693, -0.18257882097267, 0
2076, 0.66302550149649, -0.17082081810855, 0
2077, 0.67266729872395, -0.19016606527415, 0
2078, 0.41480439543224, 0.27167774060285, 0
2079, 0.94196075143005, -0.05184033995261, 0
2080, 0.97161688155813, -0.021258889375671, 0
2081, 0.97166437225929, -0.049596891493822, 0
2082, 0.74969776087952, -0.046437174023693, 0
2083, 0.77656495794021, -0.032806443668469, 0
2084, 0.75288742745915, 0.079593029294224, 0
2085, 0.76196473485916, 0.072919784071548, 0
2086, 0.75404431627096, 0.076663890128516, 0
2087, 0.24008780270909, 0.013087815831805, 0
2088, 0.2435093610311, 0.010690863488445, 0
2089, 0.70883759202952, -0.22279924057623, 0
2090, 0.77796983897635, -0.23127674251891, 0
2091, 0.81807246706741, -0.27794120054217, 0
2092, 0.57276118299615, 0.27649504366985, 0
2093, 0.58751905789111, 0.27750247614492, 0
2094, 0.23352271021605, -0.079063039915134, 0
2095, 0.23024028847968, -0.010225695116381, 0
2096, 0.6668060740245, -0.16361842971959, 0
2097, 0.65871058728957, -0.19704999042556, 0
2098, 0.68035035082888, -0.18326797716503, 0
2099, 0.68486418993518, -0.17419891750053, 0
2100, 0.7570505473847, -0.028609683441609, 0
2101, 0.76178405148147, -0.029808683395634, 0
2102, 0.25289563456832, 0.10847848078207, 0
2103, 0.24492559681426, 0.10864928551112, 0
2104, 0.73846085573352, -0.084792081752519, 0
2105, 0.77017892816328, -0.06251272196093, 0
2106, 0.73680346926072, -0.07963220746593, 0
2107, 0.77101376738564, -0.11382462164499, 0
2108, 0.75201866253887, -0.084047377721534, 0
2109, 0.69513261354721, -0.15199312554223, 0
2110, 0.24337873707963, -0.05401146726638, 0
2111, 0.24110325644973, 0.015687343029881, 0
2112, 0.2226918197506, -0.0040277372564323, 0
2113, 0.76389377729067, -0.023000424486289, 0
2114, 0.79594317640166, -0.021555536863619, 0
2115, 0.5591464748596, -0.21999591625484, 0
2116, 0.58114050523919, -0.21191974747384, 0
2117, 0.58752327448787, -0.2125968172284, 0
2118, 0.74802249396074, 0.095512146832826, 0
2119, 0.74853457689787, 0.092646168012228, 0
2120, 0.38599500031273, -0.20041176196592, 0
2121, 0.3819163035737, -0.20171573255716, 0
2122, 0.38073505901037, -0.19766518717592, 0
2123, 0.38336502966155, -0.19903847457092, 0
2124, 0.64981702967361, 0.23842562468923, 0
2125, 0.64691250027261, 0.26113838401236, 0
2126, 0.66263070916322, 0.22904859613924, 0
2127, 0.65644047490138, 0.25271730468615, 0
2128, 0.28131226111869, 0.17596437556852, 0
2129, 0.29766041622255, 0.18850473794534, 0
2130, 0.29586264854897, 0.18595562393291, 0
2131, 0.485187501227, 0.29541121468102, 0
2132, 0.48909137879591, 0.28659087529221, 0
2133, 0.26698732224358, -0.11879054483736, 0
2134, 0.73692512465754, -0.14626017942729, 0
2135, 0.75763831967183, -0.066317873439643, 0
2136, 0.72964026107836, -0.094511325696935, 0
2137, 0.73616010161695, -0.090695601747473, 0
2138, 0.650541063932, 0.24479064078144, 0
2139, 0.65838980060636, 0.24427396279357, 0
2140, 0.64941811122451, 0.24011279959996, 0
2141, 0.62788281938244, 0.27520506202832, 0
2142, 0.5123366633554, -0.23161702668897, 0
2143, 0.45808947159429, -0.23162742564189, 0
2144, 0.51546108125757, -0.22695900580129, 0
2145, 0.5122288455089, -0.22760149914774, 0
2146, 0.52815857853815, -0.22597348687877, 0
2147, 0.52529348472867, -0.22974150527076, 0
2148, 0.52173154777455, -0.22655410395168, 0
2149, 0.52494506315635, -0.22626379541523, 0
2150, 0.73640516791966, 0.13036995621053, 0
2151, 0.72884898222475, 0.15110853805003, 0
2152, 0.75188162369634, 0.14980836004003, 0
2153, 0.93801638887982, 0.00329235825839, 0
2154, 0.97029185190638, 0.0073115186267558, 0
2155, 0.47253941253954, -0.2759241380837, 0
2156, 0.51241089455097, -0.27943841038061, 0
2157, 0.73543845123234, -0.085772732461854, 0
2158, 0.74413011643195, -0.089694483701535, 0
2159, 0.73995923380923, -0.090494956639153, 0
2160, 0.48910473103325, -0.28646456433597, 0
2161, 0.48326645981675, -0.2386069944299, 0
2162, 0.47212311330854, -0.23539043975952, 0
2163, 0.64106876307435, -0.18912076692013, 0
2164, 0.63640444402323, -0.18810401367451, 0
2165, 0.66839764752419, -0.17038990718449, 0
2166, 0.63918422936399, -0.18635615224065, 0
2167, 0.410379698876, 0.28363788616297, 0
2168, 0.41810572021389, 0.2746750042682, 0
2169, 0.41495169013321, 0.28027388741046, 0
2170, 0.4266020120919, 0.27440746599144, 0
2171, 0.60368577133886, -0.21873253851751, 0
2172, 0.58951564125369, -0.22298073306928, 0
2173, 0.60909105291729, -0.22293682707887, 0
2174, 0.60082454947831, -0.27055944307779, 0
2175, 0.28029989464611, 0.16387889562069, 0
2176, 0.27928124245982, 0.16841827048805, 0
2177, 0.28389288109164, 0.16931665707921, 0
2178, 0.28206808132155, 0.16663314092497, 0
2179, 0.69460780585938, -0.18239213624628, 0
2180, 0.65902864207704, -0.17007073033036, 0
2181, 0.66910196662866, -0.16456152891128, 0
2182, 0.66682081686868, -0.18785859263305, 0
2183, 0.12645326017846, -0.2444800032208, 0
2184, 0.1519991489439, -0.27231724450705, 0
2185, 0.1001769739752, -0.27216275871375, 0
2186, 0.12608806145955, -0.2722400016104, 0
2187, 0.52407435321931, 0.29100295629942, 0
2188, 0.5756482127026, 0.27604057948331, 0
2189, 0.53469081054527, -0.22521428455468, 0
2190, 0.5318968120586, -0.22910109878521, 0
2191, 0.53142469454171, -0.22559388571673, 0
2192, 0.51654665352446, 0.29561324060586, 0
2193, 0.49126399274593, 0.28979605845193, 0
2194, 0.50192364086734, 0.28732884219813, 0
2195, 0.67646615904293, -0.15646705321843, 0
2196, 0.66098499179416, -0.18034304077258, 0
2197, 0.37067654621076, 0.28183278291851, 0
2198, 0.37518173642106, 0.2623375929817, 0
2199, 0.35200091131573, 0.27218627623913, 0
2200, 0.35869828200974, 0.29277225523149, 0
2201, 0.3766590808367, -0.19890070827383, 0
2202, 0.37813762073412, -0.19627079981148, 0
2203, 0.032093889533285, 0.0027948353590856, 0
2204, 0.5726938216477, 0.28238803045441, 0
2205, 0.56792566141584, 0.28307769644913, 0
2206, 0.57111684526116, 0.27899690208745, 0
2207, 0.25971367738018, -0.065136063447846, 0
2208, 0.24293493263878, -0.0058629099597385, 0
2209, 0.24771372753962, -0.036360851812862, 0
2210, 0.25008012364185, -0.06731305007048, 0
2211, 0.70305658634993, -0.15439952914699, 0
2212, 0.71389155060453, -0.1261106177971, 0
2213, 0.69271530298964, -0.14941728637783, 0
2214, 0.72529563749106, -0.1759797836902, 0
2215, 0.23034148214241, 0.077909700195334, 0
2216, 0.40339845329868, -0.20895345339423, 0
2217, 0.43795241555031, -0.21920171064363, 0
2218, 0.74731589520601, -0.039429608647566, 0
2219, 0.75604748537759, -0.025601527435697, 0
2220, 0.76036755998829, 0.15215414920904, 0
2221, 0.7307384429646, 0.14082905939223, 0
2222, 0.73116720443086, 0.14375039005237, 0
2223, 0.24319639505686, 0.044197264041703, 0
2224, 0.24035965712468, 0.04781011097912, 0
2225, 0.24340462965791, 0.047206379527596, 0
2226, 0.81898010301776, -0.21440052625633, 0
2227, 0.76699154992228, -0.2239252206302, 0
2228, 0.23314406278281, 0.038039296083561, 0
2229, 0.22800266963778, 0.012607540636561, 0
2230, 0.24027602377157, 0.034609981674918, 0
2231, 0.55480911215851, -0.22712083502086, 0
2232, 0.55680363411201, -0.23762638572198, 0
2233, 0.55725347532981, -0.22356942751033, 0
2234, 0.69870068886443, -0.13248910603429, 0
2235, 0.7091514143, -0.14628006702474, 0
2236, 0.61842653896621, 0.26237849397652, 0
2237, 0.66736456663422, 0.2517847037067, 0
2238, 0.61708917002461, 0.25911469810305, 0
2239, 0.74742280529608, 0.098546061518284, 0
2240, 0.36718007697171, -0.19030576139596, 0
2241, 0.3327307866021, -0.1664030740112, 0
2242, 0.36520703750093, -0.20985614851011, 0
2243, 0.72140524723974, 0.1669814229494, 0
2244, 0.71698266273577, 0.16795470471331, 0
2245, 0.71866834952225, 0.16534927367272, 0
2246, 0.4363682268916, -0.23424174144072, 0
2247, 0.40737979524762, -0.21823875519416, 0
2248, 0.39015036332959, -0.22738767536558, 0
2249, 0.2865595663595, -0.17733512737801, 0
2250, 0.29896953944736, -0.14160219102697, 0
2251, 0.71427926959432, -0.11720104643758, 0
2252, 0.70476478900397, -0.16264753275856, 0
2253, 0.75804245094772, 0.092144326935344, 0
2254, 0.75179260385664, 0.082445203095002, 0
2255, 0.28718118119693, -0.11979338360185, 0
2256, 0.28794063048732, -0.11539735401084, 0
2257, 0.28976627597295, -0.11802222226766, 0
2258, 0.2539331994651, -0.062527286949203, 0
2259, 0.26799892219852, -0.090680104347101, 0
2260, 0.23715488142084, 0.034317261258846, 0
2261, 0.22563860642925, -0.083911820460336, 0
2262, 0.52012392078436, 0.29126469738422, 0
2263, 0.52064268701668, 0.29557017243025, 0
2264, 0.70921073252236, -0.16739023499706, 0
2265, 0.29439882668643, -0.14529950123418, 0
2266, 0.26516274360034, -0.16813180106916, 0
2267, 0.35369147948038, -0.18685789430813, 0
2268, 0.25245989170193, 0.10268030366115, 0
2269, 0.21219123224075, 0.16345785155308, 0
2270, 0.31588412131331, -0.15595205199308, 0
2271, 0.30301461591248, -0.13817766090902, 0
2272, 0.25986054287446, -0.082032451063763, 0
2273, 0.27274202093159, -0.10380233709273, 0
2274, 0.78401813292477, 0.033171727457928, 0
2275, 0.77211078158521, 0.026088305494586, 0
2276, 0.25332210065203, 0.11352906071811, 0
2277, 0.25871767678157, 0.12374657245366, 0
2278, 0.26247880745297, 0.13365230878216, 0
2279, 0.26106549968059, -0.068262379617501, 0
2280, 0.23962319622989, -0.022936229057363, 0
2281, 0.54090722662392, 0.2855917906368, 0
2282, 0.52897683510632, 0.295350179015, 0
2283, 0.52769234018242, 0.29090576633878, 0
2284, 0.38724236924996, -0.2045117219193, 0
2285, 0.38866957589186, -0.20174236916217, 0
2286, 0.29919037289261, 0.19584680458399, 0
2287, 0.27287406829033, 0.23021505559185, 0
2288, 0.37190205908601, 0.26149824522088, 0
2289, 0.39763312173002, 0.28852826776219, 0
2290, 0.2294094111979, -0.042537946711298, 0
2291, 0.22392389770744, 0.037878183311269, 0
2292, 0.35546282568752, 0.24276749720134, 0
2293, 0.40456647006869, 0.27420891938173, 0
2294, 0.94762125750599, 0.27389486949072, 0
2295, 0.97381062875299, 0.27395363432378, 0
2296, 0.60020791425106, -0.20698930813357, 0
2297, 0.7134757396679, 0.18933230628606, 0
2298, 0.68181049636629, 0.22026579000688, 0
2299, 0.69910688230626, 0.20085966416673, 0
2300, 0.47671107328102, -0.26527072049025, 0
2301, 0.46382350897458, -0.23919248239172, 0
2302, 0.45627659761532, -0.27326168167155, 0
2303, 0.47033352818715, -0.2438642303812, 0
2304, 0.4212498844183, 0.27484887888785, 0
2305, 0.43571164361283, 0.28007418038737, 0
2306, 0.41853964326086, 0.27723888163569, 0
2307, 0.41491878923963, 0.2770504489998, 0
2308, 0.34452501441977, -0.20279310006694, 0
2309, 0.32311924050344, -0.15523590308387, 0
2310, 0.76663270666274, 0.061657459321831, 0
2311, 0.78155459438053, 0.085533239540353, 0
2312, 0.75855979369331, 0.033408566695908, 0
2313, 0.10402596493002, 0.27326295450585, 0
2314, 0.078027994322675, 0.24635241385324, 0
2315, 0.051686357000803, 0.27308945934739, 0
2316, 0.07785616096541, 0.27317620692662, 0
2317, 0.32620730473727, 0.22421573071438, 0
2318, 0.33100960793269, 0.22408618471188, 0
2319, 0.32862871287313, 0.22187194971724, 0
2320, 0.79528397432277, 0.064898983490207, 0
2321, 0.78497519481932, 0.015928683180992, 0
2322, 0.77541540485835, 0.013417962399615, 0
2323, 0.72461992185781, 0.21770807607356, 0
2324, 0.72809505569549, 0.20004740385833, 0
2325, 0.69810168277612, 0.22490425767327, 0
2326, 0.026002257324172, 0.24642042938271, 0
2327, 0.025843178500402, 0.27321021469136, 0
2328, 0.70341641536659, -0.1265343824982, 0
2329, 0.6881464956677, -0.14980732071262, 0
2330, 0.68608315844761, -0.14736168883524, 0
2331, 0.66162370911215, -0.17337465015208, 0
2332, 0.67509151532573, -0.17278068229746, 0
2333, 0.025277758088111, -0.24618224619977, 0
2334, 0.049663076429237, -0.27256352990197, 0
2335, 0.024831538214618, -0.27309112309989, 0
2336, 0.75421575480727, 0.090120729366669, 0
2337, 0.79595351302624, 0.057895860993072, 0
2338, 0.23993337654618, 0.041378665440222, 0
2339, 0.24311742061511, 0.041108799540367, 0
2340, 0.45321941145594, -0.2291045743635, 0
2341, 0.46585555071568, -0.22543019083009, 0
2342, 0.44906783786764, -0.22467946053705, 0
2343, 0.457956837126, -0.24476465693187, 0
2344, 0.7597828609177, 0.047500310213398, 0
2345, 0.80623176507372, 0.049830322067369, 0
2346, 0.31467770859673, 0.20675420045708, 0
2347, 0.31533563877078, 0.20996699385543, 0
2348, 0.69619057712149, -0.14363957404457, 0
2349, 0.36223853122014, -0.19049258589319, 0
2350, 0.34579442649203, -0.17654800229001, 0
2351, 0.76576655573773, -0.11892323287276, 0
2352, 0.73403441136946, -0.11657353442169, 0
2353, 0.31945257856713, -0.18100961808375, 0
2354, 0.36983352303035, -0.19203276198549, 0
2355, 0.78009432854241, 0.021110178063069, 0
2356, 0.7604754408112, 0.01455586257459, 0
2357, 0.75703021539786, 0.014675674426822, 0
2358, 0.28765089531004, 0.1743575828782, 0
2359, 0.29038568243203, 0.18222595002612, 0
2360, 0.28944859820713, 0.17664330917306, 0
2361, 0.77046678644296, -0.044465623376319, 0
2362, 0.75240853762296, -0.01946695979671, 0
2363, 0.69112417451999, 0.20153485911982, 0
2364, 0.7073541744486, 0.18183407944663, 0
2365, 0.71914663171937, 0.18134703065347, 0
2366, 0.73417867755897, 0.18506502084352, 0
2367, 0.2830217804823, -0.10697512844594, 0
2368, 0.27038330629448, -0.11242659736054, 0
2369, 0.28011657326276, -0.10739820191377, 0
2370, 0.27044232855907, 0.15204050103588, 0
2371, 0.27449932751762, 0.1531774572569, 0
2372, 0.27308658873741, 0.15062497217612, 0
2373, 0.62483547039713, -0.19847680036214, 0
2374, 0.62326545475487, -0.19570273889903, 0
2375, 0.39623050832764, -0.21032282276219, 0
2376, 0.43197917402925, -0.21703563335456, 0
2377, 0.40285933838469, -0.22336579441324, 0
2378, 0.38536346746416, -0.22377686632249, 0
2379, 0.44895197545623, 0.2841749165071, 0
2380, 0.45627812596228, 0.29472668006184, 0
2381, 0.73039681084384, 0.14585185131036, 0
2382, 0.74056314007809, 0.12868610927846, 0
2383, 0.59963358286611, 0.27781091545144, 0
2384, 0.44120895825914, -0.22015009125313, 0
2385, 0.42250031558052, -0.21392561359805, 0
2386, 0.58967882774663, 0.28206699909666, 0
2387, 0.58356478977349, 0.27863063075961, 0
2388, 0.42887476100423, 0.28071678238632, 0
2389, 0.41778416429619, 0.272385114752, 0
2390, 0.45081377185083, -0.22735324984523, 0
2391, 0.58443055293344, -0.23151140128235, 0
2392, 0.60337339126533, -0.23023576539578, 0
2393, 0.74408716735567, 0.15246015514533, 0
2394, 0.73240445984746, 0.14415248639971, 0
2395, 0.42014368001509, 0.29346943054494, 0
2396, 0.71401837990339, 0.18328043142263, 0
2397, 0.69315670005974, 0.21978269273965, 0
2398, 0.39771414330891, -0.22254115014125, 0
2399, 0.38535018447813, -0.23590450077427, 0
2400, 0.66586699137647, 0.23459621731216, 0
2401, 0.64021748433895, 0.24863732266897, 0
2402, 0.65199608927197, 0.23965195088238, 0
2403, 0.63549364934814, 0.25886185877349, 0
2404, 0.62629532829454, 0.254829318479, 0
2405, 0.29688464798532, 0.19293800669409, 0
2406, 0.29958571980948, 0.19110677171163, 0
2407, 0.53851828663878, -0.22805997611944, 0
2408, 0.54113503778522, -0.22407034108209, 0
2409, 0.53791292416524, -0.22464231281839, 0
2410, 0.24602043292246, 0.099988060377135, 0
2411, 0.2174526193239, 0.037504589561683, 0
2412, 0.2452392346216, -0.020557434952992, 0
2413, 0.70657384108775, 0.18760073436681, 0
2414, 0.69543020354252, 0.20298914293024, 0
2415, 0.6394218505803, 0.24523131791481, 0
2416, 0.66576086790679, 0.26580883126956, 0
2417, 0.27152832400228, -0.09017758754314, 0
2418, 0.63859825462448, 0.25596558654795, 0
2419, 0.64341723066003, 0.26592543910693, 0
2420, 0.65702380829078, 0.23264261903222, 0
2421, 0.62334215461491, 0.25640280572904, 0
2422, 0.74284382212069, 0.12308912867328, 0
2423, 0.7400104569052, 0.12197124996314, 0
2424, 0.33124369004584, 0.22862766608008, 0
2425, 0.33340251399254, 0.22609526130371, 0
2426, 0.66466523908248, -0.18158438265039, 0
2427, 0.68356488859653, -0.16908497808454, 0
2428, 0.66406851191896, -0.16856112977428, 0
2429, 0.33173358641977, -0.19675513842498, 0
2430, 0.75024066762456, -0.020785292178023, 0
2431, 0.44566800194571, -0.26317228501909, 0
2432, 0.45674127293148, -0.22518496663394, 0
2433, 0.24695803118895, 0.083898713558892, 0
2434, 0.241450372079, 0.089322156290976, 0
2435, 0.47850804687611, -0.28741704780947, 0
2436, 0.45390675367769, -0.25543790828094, 0
2437, 0.43641051803527, -0.24540132712418, 0
2438, 0.49455153522673, -0.24559303653876, 0
2439, 0.44409913089043, -0.23846551931173, 0
2440, 0.20624581272616, -0.0289485816838, 0
2441, 0.24496452988541, -0.039752637096639, 0
2442, 0.25318132161421, -0.05886128035739, 0
2443, 0.38151277824942, 0.28179539393775, 0
2444, 0.38599289781551, 0.28091442088297, 0
2445, 0.24205216127631, 0.017952897978108, 0
2446, 0.29378000786734, -0.12937193252091, 0
2447, 0.29654775301181, -0.12754788219681, 0
2448, 0.23277297138535, 0.075100512175766, 0
2449, 0.8065544881937, 0.036523577217782, 0
2450, 0.64699960060564, -0.18497581828001, 0
2451, 0.51886137216783, -0.23019436364774, 0
2452, 0.51859631451606, -0.22675655487649, 0
2453, 0.66553060127416, 0.22685225374526, 0
2454, 0.68688871775266, 0.20534056069281, 0
2455, 0.69515525403994, 0.21503591615576, 0
2456, 0.70036103685777, 0.20303123794413, 0
2457, 0.73484879667344, 0.18017757232228, 0
2458, 0.59765792900872, 0.26737338908418, 0
2459, 0.60429881960288, 0.26449907646734, 0
2460, 0.61391149217918, 0.26022928405478, 0
2461, 0.32523279496655, -0.17124466419321, 0
2462, 0.30617194906809, -0.16353651917706, 0
2463, 0.4620300953665, 0.2855913871084, 0
2464, 0.40830132389806, 0.27251730380824, 0
2465, 0.57759371402101, -0.21779493808545, 0
2466, 0.1296023098842, 0.24813859089357, 0
2467, 0.15583022787641, 0.27487563638771, 0
2468, 0.12992809640322, 0.27406929544678, 0
2469, 0.61071100974647, 0.26130093044915, 0
2470, 0.6864375533004, 0.20403594538257, 0
2471, 0.271029216233, -0.085504644004223, 0
2472, 0.26166412012793, -0.095220071099844, 0
2473, 0.22192550028972, -0.10807290877962, 0
2474, 0.74319975525278, -0.096800395256389, 0
2475, 0.45600855113513, -0.22782530439589, 0
2476, 0.44619884760142, -0.22438963964021, 0
2477, 0.71793518349287, 0.17203938977823, 0
2478, 0.71531820202541, 0.17041960125748, 0
2479, 0.73902932138848, 0.2108837096597, 0
2480, 0.71577464821706, 0.20208366649561, 0
2481, 0.20389889779123, -0.019997727836856, 0
2482, 0.46487682410393, 0.29500244421094, 0
2483, 0.43308494993052, 0.27845281432093, 0
2484, 0.5721852369575, -0.22137926125099, 0
2485, 0.61049576844602, -0.23708268547775, 0
2486, 0.75937360049677, 0.044468863556052, 0
2487, 0.80903350794542, 0.021325584147122, 0
2488, 0.79240158663234, 0.024028359743723, 0
2489, 0.2431125746209, -0.063745679566783, 0
2490, 0.19424508376188, -0.032660713716578, 0
2491, 0.64960760546525, 0.25647840456834, 0
2492, 0.64864597090551, 0.27003734569136, 0
2493, 0.67798181711616, -0.16307546274499, 0
2494, 0.38693472004991, 0.27555841248789, 0
2495, 0.38098551126985, 0.26341640083117, 0
2496, 0.72429854128654, -0.10123986321501, 0
2497, 0.40128337756504, 0.27250991883334, 0
2498, 0.35238748417968, 0.24879155325301, 0
2499, 0.31732756244295, 0.21760820205476, 0
2500, 0.31426017485528, 0.2277591346456, 0
2501, 0.25725720704303, 0.15671369730103, 0
2502, 0.23301850138536, 0.11015469882255, 0
2503, 0.27321271167395, 0.15723158452991, 0
2504, 0.27724714128563, 0.15839267374821, 0
2505, 0.27587323440162, 0.15578506550255, 0
2506, 0.3176146868643, -0.15053298462184, 0
2507, 0.33131929528996, -0.17706919348571, 0
2508, 0.7049247595185, 0.2003797550679, 0
2509, 0.27599242830133, 0.16270311708396, 0
2510, 0.27877351796587, 0.16113578468445, 0
2511, 0.17737581349246, -0.24567481620977, 0
2512, 0.20343667910554, -0.27335757170273, 0
2513, 0.17771791402472, -0.27283740810489, 0
2514, 0.59242305531754, -0.21544529201622, 0
2515, 0.59501075641273, -0.21940013694404, 0
2516, 0.57451750611713, -0.22366242830612, 0
2517, 0.58553604107511, -0.24018681719518, 0
2518, 0.61833478777748, -0.23524129669696, 0
2519, 0.59116584322889, -0.21908424040714, 0
2520, 0.55079089281383, -0.22488470529461, 0
2521, 0.54709458992149, -0.22270578435629, 0
2522, 0.5500416042814, -0.22204870612584, 0
2523, 0.075775917825027, -0.24472628861572, 0
2524, 0.074920025202216, -0.27236314430786, 0
2525, 0.28816716253633, 0.19218439632551, 0
2526, 0.28577154642977, 0.17190507408539, 0
2527, 0.61004986433784, 0.27116077722526, 0
2528, 0.59863381081873, 0.27149334187626, 0
2529, 0.39734489536276, -0.28288825684758, 0
2530, 0.36671208177813, -0.2802626223867, 0
2531, 0.3847758136553, -0.26375866835844, 0
2532, 0.38202848857045, -0.28157543961714, 0
2533, 0.74700549482591, 0.11183642664198, 0
2534, 0.74405578944576, 0.11084012643833, 0
2535, 0.74267530670709, -0.06049461348487, 0
2536, 0.63542207887842, -0.19236004784672, 0
2537, 0.63374454998529, -0.18965230526879, 0
2538, 0.46894532332153, 0.29055443473194, 0
2539, 0.46904767089848, 0.29520342001996, 0
2540, 0.89520113031464, 0.27408228347972, 0
2541, 0.87011550759472, 0.24948396697428, 0
2542, 0.84476984936928, 0.27540168349456, 0
2543, 0.86998548984195, 0.27474198348714, 0
2544, 0.78055231545644, -0.20988946243356, 0
2545, 0.62918883470175, -0.24179746642845, 0
2546, 0.74681936011583, -0.23915434454039, 0
2547, 0.57479345912867, -0.28573744730158, 0
2548, 0.5876174818285, -0.27064670724531, 0
2549, 0.60197424937836, -0.28460657480836, 0
2550, 0.58814994462569, -0.28538865816783, 0
2551, 0.43791505048027, 0.28778461900236, 0
2552, 0.40786800005083, 0.27549766535469, 0
2553, 0.45355189228797, 0.28911955408116, 0
2554, 0.61584136302832, 0.27086626482586, 0
2555, 0.25606691802141, -0.049559708169939, 0
2556, 0.57623417290094, 0.2794896452237, 0
2557, 0.5578910865552, 0.29389467434406, 0
2558, 0.54852944704397, 0.28369274610174, 0
2559, 0.38275582772709, 0.2594767200994, 0
2560, 0.38946832834571, 0.26669053619232, 0
2561, 0.38305337888626, 0.2689337864737, 0
2562, 0.41199110358244, -0.2661646783366, 0
2563, 0.41051194596308, -0.28229720714054, 0
2564, 0.23423618673311, -0.037735363853364, 0
2565, 0.23200888215609, -0.089835362375509, 0
2566, 0.54473479022585, -0.22654649492576, 0
2567, 0.54411481385335, -0.22338806271919, 0
2568, 0.92109842147004, 0.24797715297044, 0
2569, 0.92141119391031, 0.27398857648522, 0
2570, 0.58046702798453, 0.28351359737961, 0
2571, 0.58265365879139, -0.22052622346884, 0
2572, 0.74115481750927, -0.2305539811935, 0
2573, 0.6163454524068, -0.28407422577607, 0
2574, 0.56293292379063, 0.29314856139279, 0
2575, 0.40472340195125, 0.28688146624462, 0
2576, 0.42703574542706, 0.27841887828406, 0
2577, 0.42208974105155, 0.27702579277931, 0
2578, 0.22883309309678, -0.24538765958328, 0
2579, 0.25344871260099, -0.27203008788055, 0
2580, 0.22844269585327, -0.27269382979164, 0
2581, 0.59949214643201, 0.29285562595375, 0
2582, 0.55257877731657, 0.28854971819044, 0
2583, 0.052421202056015, 0.21917835504976, 0
2584, 0.026210601028007, 0.21938904091016, 0
2585, 0.56198921201679, -0.27082291017125, 0
2586, 0.56172387782675, -0.28492401847947, 0
2587, 0.61481393847032, 0.29178519710967, 0
2588, 0.63452240079949, 0.24922059892942, 0
2589, 0.62197193789459, 0.28341460849536, 0
2590, 0.62275972616562, 0.29145958590145, 0
2591, 0.74519805455751, -0.28156751686872, 0
2592, 0.66321927145267, -0.28328325037634, 0
2593, 0.97524396693008, -0.27333875554508, 0
2594, 0.5442515987341, 0.28758865949883, 0
2595, 0.60695636214275, 0.29193583285694, 0
2596, 0.29643683062404, -0.27722429233666, 0
2597, 0.27494277161251, -0.27462719010861, 0
2598, 0.08169042867856, -0.13510934292746, 0
2599, 0.086691523391088, -0.079998925695063, 0
2600, 0.26946504244267, -0.087947131365513, 0
2601, 0.08403954903594, -0.10749411801879, 0
2602, 0.081267992944875, 0.085764337797321, 0
2603, 0.082204578574894, 0.13830334004484, 0
2604, 0.10913622462194, 0.11216470549495, 0
2605, 0.081736285759885, 0.11203383892108, 0
2606, 0.82231718306576, 0.25354384834169, 0
2607, 0.7990936420475, 0.27928634536028, 0
2608, 0.82169193517856, 0.27677192417084, 0
2609, 0.37569781665154, 0.26555917971102, 0
2610, 0.39274625791561, 0.27745366747641, 0
2611, 0.33878842904957, 0.25866448236846, 0
2612, 0.41485974994342, 0.28404676719605, 0
2613, 0.4241420098467, 0.27475767229235, 0
2614, 0.1789657320576, 0.2525016301507, 0
2615, 0.20373398362551, 0.27762599376299, 0
2616, 0.17978210575096, 0.27625081507535, 0
2617, 0.11556403484788, -0.053502129869713, 0
2618, 0.088989588163955, -0.053616086208097, 0
2619, 0.60828716137872, -0.21749198659982, 0
2620, 0.89947339250128, -0.2733401082941, 0
2621, 0.87142575737061, -0.22033160764366, 0
2622, 0.4252224134102, 0.2735513920649, 0
2623, 0.41904432253835, 0.28020428049544, 0
2624, 0.413909069506, 0.29389628769463, 0
2625, 0.33269067983347, -0.27971611641035, 0
2626, 0.34932733530547, -0.25997873879705, 0
2627, 0.3497013808058, -0.27998936939852, 0
2628, 0.36850746217895, 0.26784293802659, 0
2629, 0.38983900564417, 0.27418762739024, 0
2630, 0.38632568607391, 0.26564328426837, 0
2631, 0.32657862203199, 0.25167662421026, 0
2632, 0.38430298523085, 0.26596287579717, 0
2633, 0.39687911308617, 0.27298492964176, 0
2634, 0.73986839016209, 0.28675048062951, 0
2635, 0.76309245374129, -0.23657048342027, 0
2636, 0.66962230746514, -0.26584329044266, 0
2637, 0.76521470556591, 0.0033368381719716, 0
2638, 0.74660419065762, -0.042637100244674, 0
2639, 0.76216853641173, 0.0061264632441954, 0
2640, 0.76196596324496, 0.002980870825858, 0
2641, 0.76182022658615, 0.011394716800204, 0
2642, 0.76481639158072, 0.0090131369742049, 0
2643, 0.76199438149894, 0.0087605900221996, 0
2644, 0.31456375522875, -0.2784702043735, 0
2645, 0.246180625593, 0.070781076516204, 0
2646, 0.2502416552349, 0.13477534858667, 0
2647, 0.24051807560288, 0.073787897939407, 0
2648, 0.23515698218372, 0.0838955154892, 0
2649, 0.69576851221418, 0.28961867226475, 0
2650, 0.73349140991527, 0.2045842267655, 0
2651, 0.68005619990064, 0.21201985709077, 0
2652, 0.45776844976664, -0.28708173421841, 0
2653, 0.44976136627138, -0.24544889139417, 0
2654, 0.453795097628, -0.23434988140567, 0
2655, 0.75902658309685, 0.28275983046083, 0
2656, 0.77844802853878, 0.28092383261473, 0
2657, 0.75428388678301, 0.084484350765647, 0
2658, 0.77479524348822, 0.080485176232143, 0
2659, 0.75633239317999, 0.088140926277683, 0
2660, 0.23954919574529, 0.068818153222086, 0
2661, 0.22830317287058, 0.081439362684571, 0
2662, 0.20554094867001, 0.13569485289087, 0
2663, 0.36843765366904, 0.26043930723085, 0
2664, 0.27996574010265, 0.28542648583901, 0
2665, 0.38873249262138, 0.26395581853251, 0
2666, 0.23694052046848, -0.00066663211794407, 0
2667, 0.23906286985343, 0.010157775251807, 0
2668, 0.2365104358402, -0.058470497735822, 0
2669, 0.23830508228495, -0.018796400664764, 0
2670, 0.19165739735849, -0.021040143432873, 0
2671, 0.68641305104948, 0.26188682898221, 0
2672, 0.23550634471486, 0.052651839183569, 0
2673, 0.23488092885983, 0.062995617884601, 0
2674, 0.23067210728567, 0.052301960481873, 0
2675, 0.53297532279857, -0.23794100341779, 0
2676, 0.52904952628153, -0.23349871689982, 0
2677, 0.5360563609182, -0.23310207164824, 0
2678, 0.53255294359987, -0.23330039427403, 0
2679, 0.75773319883671, -0.0042581473707653, 0
2680, 0.7537857896596, -0.046632284044619, 0
2681, 0.77938237153926, -0.062063242189136, 0
2682, 0.23498422322776, 0.066526070026357, 0
2683, 0.23857824271098, 0.066128196484838, 0
2684, 0.97445396308171, -0.21909043536094, 0
2685, 0.7022400530823, -0.22608291516155, 0
2686, 0.22633863924332, 0.25674808634547, 0
2687, 0.24795022510261, 0.27912209258248, 0
2688, 0.22584210436406, 0.27837404317274, 0
2689, 0.051543041279941, -0.21754604891423, 0
2690, 0.025771520639971, -0.21848209753281, 0
2691, 0.26597193842159, 0.26483219829197, 0
2692, 0.26431498932681, 0.28241609914598, 0
2693, 0.78411990977304, -0.0046544597135906, 0
2694, 0.74899471513739, -0.027828146675437, 0
2695, 0.52225109702536, -0.23388612204369, 0
2696, 0.52565031165345, -0.23369241947176, 0
2697, 0.25645336121253, -0.052541874855781, 0
2698, 0.27486134749285, -0.095634477150792, 0
2699, 0.26076148394409, -0.076423431203603, 0
2700, 0.74988040619728, 0.11998058198358, 0
2701, 0.74872755426, 0.11632596166217, 0
2702, 0.74603214733672, 0.12114657419494, 0
2703, 0.74737985079836, 0.11873626792856, 0
2704, 0.7541432517008, -0.0066732570929475, 0
2705, 0.76877824312489, -0.0073131935511715, 0
2706, 0.78048598095473, -0.011813685822471, 0
2707, 0.76127510233333, -0.014178327467101, 0
2708, 0.75375770320472, -0.051719686286796, 0
2709, 0.76764321857083, -0.093259905365381, 0
2710, 0.47914730942382, 0.2870456590319, 0
2711, 0.51596948702389, 0.28736540690945, 0
2712, 0.49393618283051, 0.28789471999507, 0
2713, 0.91851534038491, -0.13839667488324, 0
2714, 0.85190005473794, -0.10760634251444, 0
2715, 0.91216245136356, -0.082975815156191, 0
2716, 0.91542742412731, -0.11060511140023, 0
2717, 0.31812353079543, 0.22587493160332, 0
2718, 0.30680153347898, 0.21505722792376, 0
2719, 0.30415134170641, 0.20127676980759, 0
2720, 0.31598898105684, 0.21486602054968, 0
2721, 0.77919343455832, -0.074165065945449, 0
2722, 0.76390674989868, -0.045963987132614, 0
2723, 0.73762580382591, 0.13882360589293, 0
2724, 0.74511731277899, 0.1404019088718, 0
2725, 0.73904129260579, 0.13162144222238, 0
2726, 0.75090526524458, -0.026677961875149, 0
2727, 0.70750322817166, -0.12320537508383, 0
2728, 0.69683097617421, -0.13316164869153, 0
2729, 0.69455672063589, -0.1466230369953, 0
2730, 0.70160251322254, -0.13137468769004, 0
2731, 0.78924599690448, 0.029572573124434, 0
2732, 0.77869341734848, 0.10413680743388, 0
2733, 0.75748964644858, 0.067329196437001, 0
2734, 0.78505254346702, 0.058188834472428, 0
2735, 0.57504837520534, -0.2196088315404, 0
2736, 0.23336396079962, 0.046338363556115, 0
2737, 0.23790964371315, 0.051435712990254, 0
2738, 0.23420779675647, 0.049962785163784, 0
2739, 0.28163056531385, -0.10417593823821, 0
2740, 0.27576007198232, -0.092262116113147, 0
2741, 0.2726978871038, -0.087917798335177, 0
2742, 0.9162337273611, 0.14410177917661, 0
2743, 0.91620386010548, 0.094634840126472, 0
2744, 0.91499683982373, 0.1188384215027, 0
2745, 0.2544201601782, -0.074998273803322, 0
2746, 0.21340889365046, -0.010625572262875, 0
2747, 0.24051085696332, -0.075678957179161, 0
2748, 0.75080614016824, 0.092772429051376, 0
2749, 0.7512422395364, 0.10971128377252, 0
2750, 0.77135892111693, 0.072205800270409, 0
2751, 0.24662821836778, 0.1511577835175, 0
2752, 0.25671186111639, 0.13417128145914, 0
2753, 0.73180229920478, 0.16323032406705, 0
2754, 0.75117680186019, 0.13110389449215, 0
2755, 0.75702328759473, 0.17219002534825, 0
2756, 0.75804154547573, -0.059347923822873, 0
2757, 0.75655569125908, -0.073037229719464, 0
2758, 0.77136933437444, -0.052764729377228, 0
2759, 0.75422391009617, -0.037675421897765, 0
2760, 0.75103715926249, -0.029227603906304, 0
2761, 0.75704523366978, -0.020585143604087, 0
2762, 0.68604017184138, 0.20706233674985, 0
2763, 0.7104114926378, 0.22250558383292, 0
2764, 0.78272832026645, 0.069708461726611, 0
2765, 0.75557948843276, 0.10660404910433, 0
2766, 0.7938050160463, 0.072002903948986, 0
2767, 0.75238539343552, 0.091709616121142, 0
2768, 0.75286975553332, 0.098363189658145, 0
2769, 0.75917472254524, 0.060677994798883, 0
2770, 0.68237244365879, -0.16470074699332, 0
2771, 0.65241116204214, -0.17635176343223, 0
2772, 0.70037950837773, -0.1775382870675, 0
2773, 0.67984758615911, -0.17662479271848, 0
2774, 0.29033094151059, 0.19671876530174, 0
2775, 0.28154187469354, 0.18846142338607, 0
2776, 0.29384993229961, 0.19474662921999, 0
2777, 0.41924782518101, -0.22449514182248, 0
2778, 0.39316226140101, -0.22043119351438, 0
2779, 0.41275865424688, -0.22219081593295, 0
2780, 0.24651994895989, 0.12485614053893, 0
2781, 0.23322928641714, 0.13646959590888, 0
2782, 0.68122124972847, -0.16088697256864, 0
2783, 0.64831011726049, -0.19302959060096, 0
2784, 0.67422965860234, -0.18345037584175, 0
2785, 0.67169522259204, -0.16316124409702, 0
2786, 0.73287517259388, -0.16206802217457, 0
2787, 0.73265833590392, -0.08637798464035, 0
2788, 0.73021783504213, -0.080632389275553, 0
2789, 0.7391962945013, -0.077641216289514, 0
2790, 0.24235774623147, 0.11089771511961, 0
2791, 0.23476099270655, 0.088049432068483, 0
2792, 0.79732042818519, 0.0016106472448786, 0
2793, 0.91283306009688, -0.053369936019653, 0
2794, 0.49028266580623, -0.27416478257996, 0
2795, 0.46080119042696, -0.24833251538419, 0
2796, 0.4412357013274, -0.23460041240538, 0
2797, 0.72490832181464, 0.15373554750216, 0
2798, 0.73499412698644, 0.13314871832329, 0
2799, 0.73369031415866, 0.14297834081172, 0
2800, 0.73336573665948, -0.077002894432044, 0
2801, 0.76998956846774, -0.073718940635698, 0
2802, 0.76915872275573, -0.08504004525796, 0
2803, 0.51227660358404, 0.29575497362766, 0
2804, 0.50395410302427, 0.29556891761243, 0
2805, 0.51236197826719, 0.28760217557675, 0
2806, 0.29847348201456, -0.16968448610945, 0
2807, 0.23939081859661, -0.095351587342759, 0
2808, 0.2771658879214, -0.098651788279715, 0
2809, 0.11200322513138, 0.066780917680548, 0
2810, 0.1372277831907, 0.053277979965002, 0
2811, 0.087874002948257, 0.062915410047916, 0
2812, 0.58733139329184, -0.22714212997707, 0
2813, 0.56389416727315, -0.22171894774399, 0
2814, 0.5608442143578, -0.2334093968461, 0
2815, 0.58932213453086, -0.23427143170143, 0
2816, 0.72694710170437, -0.089730820538719, 0
2817, 0.73031426794892, -0.083424320177168, 0
2818, 0.36492987621213, -0.19821004006533, 0
2819, 0.35560832791063, -0.19463941285767, 0
2820, 0.36472883715912, -0.18843389955271, 0
2821, 0.36466176820169, -0.19284642021277, 0
2822, 0.91924281968119, 0.19544672990661, 0
2823, 0.89003762626255, 0.1710327316408, 0
2824, 0.91778329141864, 0.16982648861288, 0
2825, 0.64853293676706, 0.24216553256054, 0
2826, 0.64598606340997, 0.24196152185794, 0
2827, 0.65183138823316, 0.2357114759366, 0
2828, 0.64131017021277, 0.25295553024597, 0
2829, 0.30127733074645, -0.15102961194199, 0
2830, 0.35138327850309, -0.17966090836356, 0
2831, 0.31434151866295, -0.18528135683374, 0
2832, 0.28567779143758, 0.18484997537973, 0
2833, 0.2778304199513, 0.19490564426928, 0
2834, 0.29316626374988, 0.18721759553208, 0
2835, 0.29493448108788, 0.18999514958434, 0
2836, 0.49895325710012, -0.25160794085591, 0
2837, 0.47115885786841, -0.22740508826976, 0
2838, 0.22807383903624, -0.065173638916731, 0
2839, 0.24439882318954, -0.068656975916533, 0
2840, 0.23692958348683, -0.0053456456162755, 0
2841, 0.24315254183215, 0.0077594358198374, 0
2842, 0.24661538025091, -0.073220992432683, 0
2843, 0.6183662039002, -0.20667446764617, 0
2844, 0.62421181447564, -0.20295027246633, 0
2845, 0.62129823584817, -0.20449661366199, 0
2846, 0.72025141696297, 0.17814629207361, 0
2847, 0.71833361018282, 0.17568241566441, 0
2848, 0.67991339807077, 0.21685942311526, 0
2849, 0.71749600962895, 0.17743664037673, 0
2850, 0.72309777434321, -0.11855265523836, 0
2851, 0.7736190949789, -0.14106336010162, 0
2852, 0.71102171507101, -0.12755461339491, 0
2853, 0.10212873116445, -0.21708153493048, 0
2854, 0.12831728674935, -0.19071164854054, 0
2855, 0.15264181576337, -0.21811011683085, 0
2856, 0.12738527346391, -0.21759582588067, 0
2857, 0.73013986774095, -0.08667652841596, 0
2858, 0.76085046992092, -0.10466703565349, 0
2859, 0.74438549272844, -0.14114237559549, 0
2860, 0.76374217013903, -0.061212693761439, 0
2861, 0.2771050474013, 0.18240085320183, 0
2862, 0.29178937191604, 0.19112232092822, 0
2863, 0.76153078133277, -0.02001639038522, 0
2864, 0.77580133516482, -0.01775231137374, 0
2865, 0.7350822151331, -0.074870270114613, 0
2866, 0.74872273559109, 0.15900145328193, 0
2867, 0.72633254401859, 0.1655550022658, 0
2868, 0.72730367340458, 0.14817364815193, 0
2869, 0.75874394875356, 0.11180618893568, 0
2870, 0.23838994620542, 0.018264142609377, 0
2871, 0.23167237365397, 0.0054521025123448, 0
2872, 0.21371965223718, -0.0027641616690676, 0
2873, 0.37185184288051, -0.20093649265936, 0
2874, 0.35401025376008, -0.1809423683606, 0
2875, 0.35928959921612, -0.1925705057199, 0
2876, 0.71838088466484, -0.15840440966354, 0
2877, 0.75539193275089, -0.10731318048718, 0
2878, 0.74842956028805, -0.10842520794386, 0
2879, 0.46559575974806, 0.28585554412617, 0
2880, 0.4689827822526, 0.28623973685233, 0
2881, 0.30739926556926, -0.15868087975735, 0
2882, 0.26024081389225, -0.14078830525107, 0
2883, 0.31889130165991, -0.15394942749671, 0
2884, 0.41717997993425, -0.23116257151057, 0
2885, 0.38822913184809, -0.21004397267481, 0
2886, 0.35876769316081, -0.18600143315949, 0
2887, 0.7564206222988, 0.070544453075967, 0
2888, 0.26455708018066, 0.14502778335871, 0
2889, 0.26855454855272, 0.14999038319177, 0
2890, 0.23105067127334, 0.096435597871575, 0
2891, 0.25734054974138, 0.14398445712824, 0
2892, 0.33218025737124, 0.23896023219259, 0
2893, 0.33701724835628, 0.2374417163674, 0
2894, 0.3315238334303, 0.23383868450019, 0
2895, 0.33427054089329, 0.2356402004338, 0
2896, 0.73997456372891, 0.16518622873712, 0
2897, 0.74472387574424, 0.12664786029317, 0
2898, 0.73345026450341, 0.15866676735699, 0
2899, 0.76337265448898, 0.16279830833087, 0
2900, 0.23791115384872, 0.030730996431028, 0
2901, 0.2428567260255, 0.0046566109265432, 0
2902, 0.48944304979841, 0.29502746330036, 0
2903, 0.50756747586903, -0.26581308946928, 0
2904, 0.46413623266861, -0.2302541074721, 0
2905, 0.69403651284854, -0.16687356512797, 0
2906, 0.69710212626772, -0.17188518504976, 0
2907, 0.7633494043143, 0.095032916578465, 0
2908, 0.75951042781476, 0.024523024008574, 0
2909, 0.76403634932983, 0.069395445871738, 0
2910, 0.67895492994159, -0.1543464840611, 0
2911, 0.65475365962484, -0.17420981088993, 0
2912, 0.66273090147991, -0.16653277016674, 0
2913, 0.67479584263819, -0.16485455551487, 0
2914, 0.75531901672216, -0.018558028393465, 0
2915, 0.76456402689775, -0.053037610862934, 0
2916, 0.3789335555308, 0.26593394438077, 0
2917, 0.34686920568895, 0.24485091343847, 0
2918, 0.39360323132441, 0.29189266820187, 0
2919, 0.41052570536501, -0.21422262491892, 0
2920, 0.42223510019519, -0.22791685069222, 0
2921, 0.37206007458224, -0.23786943828595, 0
2922, 0.6759692793483, 0.2168153553455, 0
2923, 0.71092845386268, 0.21544137809434, 0
2924, 0.70091977784398, 0.19667226026346, 0
2925, 0.50448983541879, -0.24809273071616, 0
2926, 0.5160353844205, -0.23420715632302, 0
2927, 0.51263466420055, -0.23587185886461, 0
2928, 0.38253192911401, -0.21138449039853, 0
2929, 0.38251281009961, -0.20601721197163, 0
2930, 0.38537343251798, -0.20765830149952, 0
2931, 0.42177924214195, -0.21625444772049, 0
2932, 0.41148768864061, -0.21805918264227, 0
2933, 0.29621792592698, 0.21772901419486, 0
2934, 0.45854381792402, -0.22314197761272, 0
2935, 0.52603750007611, -0.26825259561013, 0
2936, 0.37637820655803, 0.28208018623542, 0
2937, 0.36035388893025, 0.26127251484713, 0
2938, 0.66866439835553, 0.24637264423226, 0
2939, 0.62914833188652, 0.25307583043385, 0
2940, 0.61990964165742, -0.21760649196169, 0
2941, 0.55629971237948, -0.23356105864983, 0
2942, 0.56369000178781, -0.22883969034241, 0
2943, 0.20931132473482, -0.0525663191721, 0
2944, 0.35069719595502, -0.18293059901646, 0
2945, 0.35795964608733, -0.19918289704137, 0
2946, 0.76691161880562, 0.034544837299548, 0
2947, 0.5712262300622, -0.22571730054144, 0
2948, 0.58583597508852, -0.22181885438712, 0
2949, 0.2348111158727, 0.029922619187322, 0
2950, 0.2113910784535, 0.017141454786098, 0
2951, 0.23360255419893, -0.025603138094393, 0
2952, 0.22375040034254, 0.096496093886677, 0
2953, 0.76344946220645, -0.069912956120968, 0
2954, 0.28203795109643, -0.11870699760163, 0
2955, 0.24847388591345, -0.084786572405592, 0
2956, 0.2550033745564, -0.096877703005451, 0
2957, 0.26973285532649, -0.095692887539201, 0
2958, 0.3421442456426, 0.24122640204039, 0
2959, 0.33958074699944, 0.2393340592039, 0
2960, 0.65856116519682, 0.24081761390984, 0
2961, 0.62927838749305, 0.2822556984568, 0
2962, 0.24621139177355, 0.1205089763947, 0
2963, 0.24170079140618, 0.082379332648899, 0
2964, 0.24689504115008, 0.081032649395267, 0
2965, 0.23619679882447, 0.080454947987777, 0
2966, 0.53603394597872, 0.28481110233927, 0
2967, 0.54839950734418, 0.28841335522769, 0
2968, 0.87480742204522, -0.19540048619883, 0
2969, 0.75902361369855, -0.218292447627, 0
2970, 0.66892721120104, -0.24768022684945, 0
2971, 0.63112717054101, -0.28389310010362, 0
2972, 0.69043153230109, -0.14707622024085, 0
2973, 0.54221590646367, 0.28299871814017, 0
2974, 0.34650374411354, -0.18565702794497, 0
2975, 0.29469127811651, -0.13217074331076, 0
2976, 0.33418569605327, -0.19117602597169, 0
2977, 0.31292622157239, 0.21265302243209, 0
2978, 0.31096712989932, 0.21920287520704, 0
2979, 0.21608919231504, -0.025809868390934, 0
2980, 0.21703268629256, -0.065876859885364, 0
2981, 0.51938887710774, 0.28721532396084, 0
2982, 0.7947110060269, 0.051897028169278, 0
2983, 0.77360085984956, 0.06750684248081, 0
2984, 0.75175541100313, 0.089097527346078, 0
2985, 0.77437069104133, 0.089776701753216, 0
2986, 0.25281219912586, -0.055260090917692, 0
2987, 0.20282709087874, -0.0005174547980147, 0
2988, 0.21871183932082, 0.011907497545033, 0
2989, 0.24137799779776, 0.028150173809647, 0
2990, 0.24309795139187, 0.037978827508429, 0
2991, 0.39498617543503, -0.2148974342192, 0
2992, 0.42135430686606, -0.24483432181694, 0
2993, 0.75269266645176, 0.13835976732826, 0
2994, 0.73798080674404, 0.14588643573812, 0
2995, 0.30362789503872, 0.23155920488089, 0
2996, 0.29818715285075, 0.2120741049036, 0
2997, 0.30768444416374, 0.22433553649255, 0
2998, 0.76524693936199, 0.043688669324119, 0
2999, 0.79667457759002, 0.018372385757477, 0
3000, 0.77382803637922, 0.033803613446462, 0
3001, 0.73552610953445, 0.14115606727487, 0
3002, 0.76939859495651, 0.13570554458515, 0
3003, 0.25252996755505, -0.11786149479938, 0
3004, 0.23071694421593, -0.015691510547292, 0
3005, 0.26922468076106, -0.09911041243823, 0
3006, 0.22265300717446, 0.016606473083773, 0
3007, 0.24959529644021, -0.077238643947745, 0
3008, 0.2239805225081, 0.049945204632245, 0
3009, 0.2365809932862, 0.054305051721095, 0
3010, 0.64487760527218, -0.19533983918759, 0
3011, 0.63993146694153, -0.19395237215841, 0
3012, 0.65712519116981, -0.20524869704044, 0
3013, 0.6429981504838, -0.19210088955173, 0
3014, 0.50538611441132, -0.22941141556145, 0
3015, 0.50878257092867, -0.23802401659524, 0
3016, 0.43397877480483, -0.2614840675636, 0
3017, 0.5044283649713, -0.24126185440207, 0
3018, 0.7891161492335, 0.10161313487392, 0
3019, 0.77955441175026, 0.075510190577898, 0
3020, 0.7671867580276, 0.050221778118489, 0
3021, 0.76666123567377, 0.012825237246687, 0
3022, 0.76369731385139, 0.014101539739101, 0
3023, 0.7514290520786, -0.068413997266993, 0
3024, 0.76530326302168, -0.0014278702601765, 0
3025, 0.72749378188057, -0.12622624338572, 0
3026, 0.40029696663983, 0.26618268385284, 0
3027, 0.35953677219463, 0.26519056558226, 0
3028, 0.36533292126176, 0.25575228830098, 0
3029, 0.34319339500106, 0.26191755390256, 0
3030, 0.28636448497073, -0.1283449241418, 0
3031, 0.28657602111706, -0.12461742093337, 0
3032, 0.29064999326683, -0.12829828668748, 0
3033, 0.28861300719195, -0.12645785381043, 0
3034, 0.26422660496059, -0.074347986974635, 0
3035, 0.26931540730131, -0.082916017156479, 0
3036, 0.26340495619781, -0.09143019458384, 0
3037, 0.24915755245744, -0.092844992091338, 0
3038, 0.28034740401174, -0.10143983614178, 0
3039, 0.7283852210199, 0.14561867442456, 0
3040, 0.73216636141377, 0.14810441220546, 0
3041, 0.72652969492226, 0.15749779207791, 0
3042, 0.73237487554628, 0.14179864614761, 0
3043, 0.23153721362581, -0.051217447681894, 0
3044, 0.23778721424452, -0.070348181596187, 0
3045, 0.76982790428399, 0.084486552659131, 0
3046, 0.7674779810056, 0.017968581320195, 0
3047, 0.77319597677175, 0.045866891721929, 0
3048, 0.71020686648753, 0.21007710624358, 0
3049, 0.71772409672723, 0.19006074164588, 0
3050, 0.71255408312802, 0.19936705606289, 0
3051, 0.34517437275337, -0.1958072304521, 0
3052, 0.36027392030362, -0.18811951808739, 0
3053, 0.32037919898759, 0.22914081847177, 0
3054, 0.32601555777609, 0.22940887044562, 0
3055, 0.29481996654327, 0.225070551946, 0
3056, 0.3234604984293, 0.22665333943936, 0
3057, 0.67308537974669, 0.28835263350397, 0
3058, 0.64246793771929, 0.25852099222878, 0
3059, 0.65320334518241, 0.24823748638194, 0
3060, 0.45125609698345, -0.25044783085393, 0
3061, 0.4569153437117, -0.22953696114326, 0
3062, 0.77088899785258, -0.02270134349514, 0
3063, 0.73276463509516, -0.09056946521512, 0
3064, 0.58627016315161, -0.2151299248926, 0
3065, 0.57299441376405, -0.21781578854674, 0
3066, 0.34242100839404, 0.24574981451857, 0
3067, 0.34445604444174, 0.24295626615739, 0
3068, 0.34573547449774, 0.26931254512887, 0
3069, 0.36862229270927, 0.25710948961778, 0
3070, 0.38181885772944, 0.2660617518707, 0
3071, 0.34608908375277, 0.25848479055872, 0
3072, 0.29361480178935, 0.20885517990708, 0
3073, 0.35029986985695, -0.18658822011484, 0
3074, 0.36045230103671, -0.18475524244227, 0
3075, 0.23290145831848, 0.042210289603089, 0
3076, 0.23658274723392, 0.041716018820404, 0
3077, 0.68384809855993, -0.14971776208848, 0
3078, 0.66227442532995, -0.18576222525618, 0
3079, 0.67035973239276, -0.17786032086421, 0
3080, 0.51236430479346, 0.29158913880661, 0
3081, 0.68092199784434, -0.19278591648049, 0
3082, 0.66333118591254, -0.20151090465614, 0
3083, 0.18297060868049, -0.12572882115021, 0
3084, 0.18612015371968, -0.052155458462961, 0
3085, 0.25994663380934, -0.088464160462023, 0
3086, 0.23324796454574, 0.070594679431733, 0
3087, 0.23619198533325, 0.09247025307153, 0
3088, 0.71664099591853, -0.11465117589677, 0
3089, 0.70929597651341, -0.14027897962801, 0
3090, 0.58496917230599, -0.21273265699391, 0
3091, 0.60149794294448, -0.24623604033317, 0
3092, 0.6062895301859, -0.20467741403504, 0
3093, 0.63188809468363, 0.25119126263281, 0
3094, 0.65464366049588, 0.25783161031757, 0
3095, 0.27421107002209, 0.16729249156912, 0
3096, 0.27318180550668, 0.17253234755463, 0
3097, 0.28355586918164, 0.19339833507841, 0
3098, 0.27634165187213, 0.17036944611221, 0
3099, 0.65210167370785, -0.19028500078767, 0
3100, 0.66901886173657, -0.18268841799735, 0
3101, 0.42000507734888, 0.28805973590301, 0
3102, 0.4145472147831, 0.2885403897385, 0
3103, 0.58094391566687, 0.29392288001963, 0
3104, 0.4727440625029, 0.29068403121529, 0
3105, 0.63368134307054, -0.20005324425114, 0
3106, 0.62972441460923, -0.1995287915959, 0
3107, 0.63406440557013, -0.19592581420631, 0
3108, 0.63189441008968, -0.19772730290111, 0
3109, 0.23371830726894, 0.033880961951619, 0
3110, 0.71292799590206, -0.15511619632616, 0
3111, 0.73495273624287, -0.17750021564278, 0
3112, 0.69254218292913, -0.155467370758, 0
3113, 0.6902841029082, -0.15247820670189, 0
3114, 0.66831698622527, 0.2418135439517, 0
3115, 0.62030202680457, 0.25776946951217, 0
3116, 0.65536743799306, -0.18196835974239, 0
3117, 0.67151236048822, -0.16030116519024, 0
3118, 0.67158186984907, -0.16968419028828, 0
3119, 0.37064780129822, -0.1964502489448, 0
3120, 0.44324677109087, -0.23072062259805, 0
3121, 0.50179103648046, -0.23026080384503, 0
3122, 0.5723659347274, -0.23492772538033, 0
3123, 0.22656190123521, 0.067792448476289, 0
3124, 0.2309952720833, 0.066959409918194, 0
3125, 0.82164399042995, 0.036159266502466, 0
3126, 0.75021894816878, 0.098798790272005, 0
3127, 0.76982631586632, -0.0019587145234229, 0
3128, 0.77675252829283, 0.0028974577215378, 0
3129, 0.74897005227537, 0.10556228618686, 0
3130, 0.24682901236404, 0.075771959257813, 0
3131, 0.24775027017867, 0.10707306108246, 0
3132, 0.72723406177111, 0.17079043650287, 0
3133, 0.72222573734278, 0.17165389329859, 0
3134, 0.72431965450543, 0.16888592972613, 0
3135, 0.89086295377778, 0.032324966311155, 0
3136, 0.73731121611557, -0.13014427581645, 0
3137, 0.75347719209139, -0.027626709562009, 0
3138, 0.83408949325847, -0.058140270096814, 0
3139, 0.78872100290574, -0.074786747601839, 0
3140, 0.74598342237404, -0.046100530894702, 0
3141, 0.41505115473194, -0.25410201547055, 0
3142, 0.62910075868774, -0.20400226370009, 0
3143, 0.62696811454243, -0.20123953203112, 0
3144, 0.26480297376252, -0.1066948890207, 0
3145, 0.24610361659643, -0.04562844201922, 0
3146, 0.2977797049899, -0.15581389542151, 0
3147, 0.31980430189174, -0.16175994862556, 0
3148, 0.28786711074858, -0.13183657088567, 0
3149, 0.29098564594522, -0.13090090459168, 0
3150, 0.77249143990194, 0.01689500575828, 0
3151, 0.77012196102254, 0.021694781265323, 0
3152, 0.32471525567594, -0.15728888034131, 0
3153, 0.32396827510591, -0.17738163635285, 0
3154, 0.41133463468425, 0.2764618851558, 0
3155, 0.68819456006438, 0.20232456712739, 0
3156, 0.6785807131653, 0.22417749178769, 0
3157, 0.24136696433327, 0.08563831921597, 0
3158, 0.26075065380891, 0.1473689959911, 0
3159, 0.73229038954723, -0.082493212468465, 0
3160, 0.24948924104721, 0.096657037938146, 0
3161, 0.37818081357684, -0.20266586484171, 0
3162, 0.37328326837208, -0.20455256071954, 0
3163, 0.37497117460439, -0.20172663449668, 0
3164, 0.19718506931625, -0.092403450080551, 0
3165, 0.25646316628137, -0.084869242440458, 0
3166, 0.25943478676421, -0.10518560203894, 0
3167, 0.25871063167935, -0.073078831738372, 0
3168, 0.25703097675281, -0.078721395195988, 0
3169, 0.68453836980731, 0.27851324619106, 0
3170, 0.71171598756408, 0.25843721180827, 0
3171, 0.77817969278873, 0.2613550532366, 0
3172, 0.71543986506321, 0.18113355929811, 0
3173, 0.7482338104258, 0.1245607019505, 0
3174, 0.74553881627324, 0.12382491531189, 0
3175, 0.2789199958283, -0.10427148951907, 0
3176, 0.27808518485801, -0.096397742735688, 0
3177, 0.76431056376316, 0.10680730909666, 0
3178, 0.22118622220933, 0.13727801314222, 0
3179, 0.22938363585248, 0.12064895285452, 0
3180, 0.25218328460372, 0.14688269980726, 0
3181, 0.71980071663616, 0.1798583677079, 0
3182, 0.6835728326338, 0.21146478121759, 0
3183, 0.7381092933098, -0.096510949750849, 0
3184, 0.74533845079988, -0.049597919400622, 0
3185, 0.57993738948247, -0.21373175661912, 0
3186, 0.257288618932, 0.11518540092987, 0
3187, 0.23018595016455, 0.10242796758843, 0
3188, 0.20309369944584, 0.18042087488684, 0
3189, 0.35397790873135, 0.24573905548317, 0
3190, 0.36081886447795, 0.2461861356679, 0
3191, 0.35684053755009, 0.24757254327183, 0
3192, 0.281547397561, -0.12403103702097, 0
3193, 0.28436428937897, -0.12191221031141, 0
3194, 0.79076884405018, 0.03618995561749, 0
3195, 0.76759359226255, 0.053856744581523, 0
3196, 0.75606571850098, 0.13195460442964, 0
3197, 0.7652550137386, 0.12671415038633, 0
3198, 0.74310832622652, 0.14736821936155, 0
3199, 0.74234926810471, 0.13792714682304, 0
3200, 0.26960245085939, 0.16558313246154, 0
3201, 0.27138380913862, 0.16099375797638, 0
3202, 0.27279743958036, 0.16414312477275, 0
3203, 0.42655700770416, -0.22054931572088, 0
3204, 0.26907326535313, -0.15455724343016, 0
3205, 0.73708811224656, 0.19263554586538, 0
3206, 0.71388763433511, 0.19376959811832, 0
3207, 0.68498098351821, 0.20577250374473, 0
3208, 0.75316833298006, -0.25032500480022, 0
3209, 0.8222378251211, -0.196251367785, 0
3210, 0.77283505117407, -0.24778947104963, 0
3211, 0.65780789673561, -0.17903857109408, 0
3212, 0.65046103646319, -0.19651850433119, 0
3213, 0.65508397461473, -0.19341154609064, 0
3214, 0.68762196060066, -0.15529869755126, 0
3215, 0.20010665981322, -0.043677127035618, 0
3216, 0.24565375783607, -0.13447950115843, 0
3217, 0.20168813627636, -0.14995466787466, 0
3218, 0.24374825568807, -0.12502564620039, 0
3219, 0.21270831180827, 0.028390002905694, 0
3220, 0.21416674109457, -0.018652543954677, 0
3221, 0.51942469294412, -0.23732663560228, 0
3222, 0.51914324072293, -0.23404663918336, 0
3223, 0.24211523962705, 0.025272614388155, 0
3224, 0.2313188436459, 0.028790028936982, 0
3225, 0.58201824646238, -0.21693683692378, 0
3226, 0.55408577040997, -0.25742109192895, 0
3227, 0.37877732010275, -0.20696734425617, 0
3228, 0.38034681183822, -0.20434153840667, 0
3229, 0.75932143892588, 0.027581195737296, 0
3230, 0.72290203998952, -0.10501876294398, 0
3231, 0.77121143417002, 0.042613323094497, 0
3232, 0.57181154493407, -0.24938392400879, 0
3233, 0.5966273926106, -0.21151674709146, 0
3234, 0.68949762498413, 0.22547837494825, 0
3235, 0.70982559092217, 0.18850652127031, 0
3236, 0.24380276366168, -0.089272836215395, 0
3237, 0.25049963816791, -0.033289404048122, 0
3238, 0.28124473641741, 0.17114935622267, 0
3239, 0.281746140977, 0.18411160231482, 0
3240, 0.26908944119829, 0.18246434012192, 0
3241, 0.26201583327294, 0.14185868271157, 0
3242, 0.24719429311481, 0.14174524974535, 0
3243, 0.24781928619139, 0.12970196111753, 0
3244, 0.43898458215894, -0.23022245314896, 0
3245, 0.26577246686643, 0.15198294815476, 0
3246, 0.23981375188547, 0.12912998933456, 0
3247, 0.74839986865934, -0.095899390620226, 0
3248, 0.64610787767392, -0.18999099792707, 0
3249, 0.6667197678596, -0.16573661858287, 0
3250, 0.26566374770499, 0.15502098921431, 0
3251, 0.26975190204278, 0.15566536079343, 0
3252, 0.26805303813203, 0.1535307451251, 0
3253, 0.28156151257861, -0.11065836025366, 0
3254, 0.27658526367833, -0.096361466110653, 0
3255, 0.26792299950745, 0.1594275342399, 0
3256, 0.2705678555907, 0.1583295593849, 0
3257, 0.22038799536427, 0.084285418594759, 0
3258, 0.24840027851418, 0.10317492356116, 0
3259, 0.22733598107246, 0.086158041407659, 0
3260, 0.25071289518646, -0.043994987857604, 0
3261, 0.25563098654047, -0.04422716116257, 0
3262, 0.25579798762071, -0.046745150433338, 0
3263, 0.27052157549746, -0.092736739249399, 0
3264, 0.27282620046256, -0.094396377568152, 0
3265, 0.27249308789474, -0.097105612649946, 0
3266, 0.23316987988906, -0.11259439768511, 0
3267, 0.26240123747703, -0.12586969042392, 0
3268, 0.27794245572327, -0.10133109119868, 0
3269, 0.20018515339438, 0.034330680524679, 0
3270, 0.23667572350209, 0.015815281557086, 0
3271, 0.73766455804226, 0.15890131103963, 0
3272, 0.73979298358901, 0.13604511402912, 0
3273, 0.74261225617948, 0.158887287051, 0
3274, 0.73915147790912, 0.17343618109756, 0
3275, 0.73445581170643, 0.14480616342469, 0
3276, 0.32629570116055, 0.23461988886572, 0
3277, 0.32876969560319, 0.2316237774729, 0
3278, 0.77429309682692, -0.10466496733838, 0
3279, 0.73681099270592, -0.072524488514836, 0
3280, 0.73171444266114, -0.078945283349268, 0
3281, 0.6703773266321, 0.23189843245193, 0
3282, 0.70208666461631, 0.2089730977536, 0
3283, 0.68738262695274, 0.21066466141598, 0
3284, 0.63857379363325, -0.197518138518, 0
3285, 0.63699793625583, -0.19493909318236, 0
3286, 0.72524236570861, -0.097161594995209, 0
3287, 0.75649893227319, -0.1238257639658, 0
3288, 0.64520391652729, 0.25478702839754, 0
3289, 0.46097704704903, -0.22375551680756, 0
3290, 0.70140557687167, 0.20568421365497, 0
3291, 0.72922354102861, 0.19140245451739, 0
3292, 0.69196892568527, 0.20690957372693, 0
3293, 0.63355701129139, 0.27343823368289, 0
3294, 0.64167117622528, 0.2432946242614, 0
3295, 0.54152860140507, -0.23649331104137, 0
3296, 0.54399052712565, -0.23145121551257, 0
3297, 0.54002344402193, -0.23227664358041, 0
3298, 0.22984989209854, 0.17614215163796, 0
3299, 0.26655214823234, 0.14768672749761, 0
3300, 0.20903533201497, 0.14952004852248, 0
3301, 0.36840932846341, -0.19987388460485, 0
3302, 0.69778599921391, -0.15511794533496, 0
3303, 0.70696146104854, -0.15780692319979, 0
3304, 0.73735903381434, 0.13450376775932, 0
3305, 0.73496618890347, 0.15053121459682, 0
3306, 0.7279002982665, 0.1779004444645, 0
3307, 0.70553525551905, 0.18421405565985, 0
3308, 0.68885507945273, 0.20609136225894, 0
3309, 0.69199074584281, 0.20473502674955, 0
3310, 0.72786683945435, -0.086669514645216, 0
3311, 0.22902349302717, -0.057760902492508, 0
3312, 0.51333244931436, -0.25658929075657, 0
3313, 0.46207401770207, -0.22862006472399, 0
3314, 0.90387377923929, 0.017921133619657, 0
3315, 0.76094352340515, -0.0050546949324715, 0
3316, 0.81363406110986, 0.040885859733514, 0
3317, 0.85734766352767, -0.019556282831751, 0
3318, 0.89373951819916, 0.22198084434784, 0
3319, 0.92017062057562, 0.22171194143852, 0
3320, 0.72262416403271, 0.17529691918477, 0
3321, 0.7202796737628, 0.1736681544815, 0
3322, 0.77849011612663, -0.086043223869258, 0
3323, 0.69170877469072, 0.20295002808208, 0
3324, 0.69928921786625, 0.19150099769991, 0
3325, 0.51810722400746, -0.26404434049333, 0
3326, 0.50006527748707, -0.28427642695445, 0
3327, 0.70291358986421, 0.198364700957, 0
3328, 0.75501747863422, 0.18735945061886, 0
3329, 0.26329907835746, 0.14998038388635, 0
3330, 0.26979788583851, 0.14574835955362, 0
3331, 0.27429092817554, -0.090168977087888, 0
3332, 0.10454349170401, 0.2203312400048, 0
3333, 0.078936699437352, 0.19315718120132, 0
3334, 0.078482346880014, 0.21975479752728, 0
3335, 0.32101483318425, -0.16487490993593, 0
3336, 0.27469985191485, -0.16062618447624, 0
3337, 0.29081104265084, -0.13779246986926, 0
3338, 0.28111587315168, -0.13580917873021, 0
3339, 0.24907917168662, -0.14362457915995, 0
3340, 0.31527855733435, -0.1489297750697, 0
3341, 0.31134324580692, -0.16328093771295, 0
3342, 0.72952710607653, -0.099796928213819, 0
3343, 0.6998802512175, -0.14190553894287, 0
3344, 0.74686516612003, -0.064290092087722, 0
3345, 0.69823628508088, -0.1312146134016, 0
3346, 0.56223446808302, -0.21914127253967, 0
3347, 0.6258389853063, -0.23187208655639, 0
3348, 0.55211712577476, -0.23033771424017, 0
3349, 0.54855963054347, -0.22791846618697, 0
3350, 0.55155532718484, -0.2275511725675, 0
3351, 0.8639762945572, 0.19760267565249, 0
3352, 0.84082304196351, 0.22643368293142, 0
3353, 0.86720274361219, 0.22386915371504, 0
3354, 0.83796318252042, 0.17468255313621, 0
3355, 0.86315236958755, 0.17360349191993, 0
3356, 0.25392624244302, 0.11150139520553, 0
3357, 0.21577003723301, 0.097697953213142, 0
3358, 0.23865273617082, 0.12317207077687, 0
3359, 0.2644260452399, 0.13699499986248, 0
3360, 0.75781089637409, 0.2382672581475, 0
3361, 0.7067029397881, 0.19554712432991, 0
3362, 0.76716244646856, 0.22016664967463, 0
3363, 0.23893210996629, 0.027388884952196, 0
3364, 0.21693395328265, -0.090844564638061, 0
3365, 0.75307540803196, 0.11467829201667, 0
3366, 0.75004045142893, 0.11325735932932, 0
3367, 0.25671051357127, -0.069705254442679, 0
3368, 0.2388868040366, -0.033749243771531, 0
3369, 0.20833315633198, 0.044580173832506, 0
3370, 0.21688000835193, 0.051590466761561, 0
3371, 0.2232648294148, 0.043695854649856, 0
3372, 0.2165398783748, 0.044296055545258, 0
3373, 0.67437333729259, 0.27769308638321, 0
3374, 0.64732638918541, 0.24020809026767, 0
3375, 0.18080203775558, -0.14682363023501, 0
3376, 0.22697100078315, -0.028724594023596, 0
3377, 0.24905280799734, -0.030321945762244, 0
3378, 0.25388126432677, -0.042922035995938, 0
3379, 0.49916567899573, -0.2712027331012, 0
3380, 0.74839781822991, -0.087777302245248, 0
3381, 0.74364554710546, -0.072044553857695, 0
3382, 0.73359130108944, -0.095644823916415, 0
3383, 0.1079400393263, 0.16609992676475, 0
3384, 0.080570639006123, 0.16573026062308, 0
3385, 0.26284555930309, 0.18553257960746, 0
3386, 0.2704769460678, 0.19866140446884, 0
3387, 0.28265985037556, 0.18073415729165, 0
3388, 0.26691904797203, 0.19179257228285, 0
3389, 0.81572526583099, -0.027344599996833, 0
3390, 0.88225585556788, -0.058322271094418, 0
3391, 0.75058930445322, 0.095626538149714, 0
3392, 0.87700673849616, 0.0054643035183722, 0
3393, 0.7521426746247, 0.10612675828479, 0
3394, 0.807872104358, 0.073645647292739, 0
3395, 0.21067874357289, 0.061051833210023, 0
3396, 0.219609821001, 0.064944453136534, 0
3397, 0.23837041038194, 0.062903091227388, 0
3398, 0.21825001542526, 0.058446438155617, 0
3399, 0.60656409263819, 0.26714834254053, 0
3400, 0.60111141399571, 0.26893350033924, 0
3401, 0.61435558817586, 0.28347065608156, 0
3402, 0.67461955359242, 0.22308923582467, 0
3403, 0.74228500427073, 0.17723618725195, 0
3404, 0.32210121570301, 0.21489927485216, 0
3405, 0.26944895412606, 0.21952218304106, 0
3406, 0.33531010239072, 0.26988599384912, 0
3407, 0.69228794016382, -0.14454236062618, 0
3408, 0.70504002497547, -0.17290363591467, 0
3409, 0.64193436885756, -0.1845274651277, 0
3410, 0.69783268452973, -0.16293282345792, 0
3411, 0.70124230020378, -0.16752555753018, 0
3412, 0.54781536744327, -0.23282318677379, 0
3413, 0.54627507883456, -0.22968484084977, 0
3414, 0.23562969877168, 0.1011287355231, 0
3415, 0.22717743410997, 0.16409129739388, 0
3416, 0.25400425212645, 0.10549949412368, 0
3417, 0.13316550248083, 0.19649185945855, 0
3418, 0.15847043809594, 0.22565148891907, 0
3419, 0.13147315172372, 0.22264247159581, 0
3420, 0.33757022910425, -0.1761154320701, 0
3421, 0.76428147360589, -0.016370238635978, 0
3422, 0.78866541571932, -0.048032680671772, 0
3423, 0.2107500770365, -0.037326016790831, 0
3424, 0.49964178177922, -0.24381369027581, 0
3425, 0.40694051914191, -0.21388507374412, 0
3426, 0.46803051128775, -0.2876057300279, 0
3427, 0.20481828675242, -0.21995923076199, 0
3428, 0.18008428902333, -0.19239453138307, 0
3429, 0.17873005125789, -0.21903467379642, 0
3430, 0.31960620814836, 0.23561350352033, 0
3431, 0.32026142255261, 0.24201026183662, 0
3432, 0.32673614633081, 0.24064609741194, 0
3433, 0.32327856185658, 0.23831507535117, 0
3434, 0.733903540631, 0.13963679433411, 0
3435, 0.23403476681105, 0.18687483582964, 0
3436, 0.18691591173879, 0.18666895913182, 0
3437, 0.75379456818701, -0.041844274229048, 0
3438, 0.78850342943962, -0.060553034383372, 0
3439, 0.61547659068538, 0.26668849860778, 0
3440, 0.60735919995329, 0.26446227974607, 0
3441, 0.7529326149819, 0.086940604115077, 0
3442, 0.77073955601936, 0.029399859051701, 0
3443, 0.75957269799382, 0.1068970510244, 0
3444, 0.77782678037637, 0.11236357685576, 0
3445, 0.24064229111663, 0.17564321222388, 0
3446, 0.2595859253039, 0.16659177871815, 0
3447, 0.25095469446811, 0.10961162861239, 0
3448, 0.2631832024235, 0.15443028041582, 0
3449, 0.74164226863182, -0.083268430443141, 0
3450, 0.74755869717352, -0.077598288693436, 0
3451, 0.7624277905472, -0.078402316647093, 0
3452, 0.77566275298847, 0.053611473761628, 0
3453, 0.75521261763168, 0.093691770952775, 0
3454, 0.60365563321856, -0.22405409171416, 0
3455, 0.5799214388384, -0.21917583418912, 0
3456, 0.63354947984078, -0.22881026530562, 0
3457, 0.61144523087201, -0.21099853106984, 0
3458, 0.27236153738499, -0.12935487925925, 0
3459, 0.26540583790301, -0.13184429362849, 0
3460, 0.40658502605012, -0.20988159393237, 0
3461, 0.48055520337036, -0.25565185905743, 0
3462, 0.49444294096669, -0.2311938962213, 0
3463, 0.37825789084375, -0.21589399811317, 0
3464, 0.40309314250449, -0.21791230144375, 0
3465, 0.3722019640327, -0.2209117650844, 0
3466, 0.78417629133479, 0.063972145984121, 0
3467, 0.82125982065678, 0.023970411931357, 0
3468, 0.7805234381697, -0.197520418327, 0
3469, 0.74774343762275, -0.2211958170446, 0
3470, 0.48368390246985, -0.23070802074703, 0
3471, 0.46967627193758, -0.2646212657969, 0
3472, 0.16916120299578, 0.11821387584137, 0
3473, 0.173667786404, 0.15133429455346, 0
3474, 0.18930207165656, 0.13562812768587, 0
3475, 0.17072614782198, 0.13471518951967, 0
3476, 0.34254798003683, 0.25048639973037, 0
3477, 0.37490097945049, 0.25932252678797, 0
3478, 0.33222450545746, 0.25644341255066, 0
3479, 0.32140067904891, 0.24985265788228, 0
3480, 0.36887757316468, 0.27205260711171, 0
3481, 0.81461505077587, -0.073415778743154, 0
3482, 0.81714424185164, -0.042292184761013, 0
3483, 0.81015941961186, -0.10062260900563, 0
3484, 0.79977319917726, -0.087259623491939, 0
3485, 0.81200901212915, -0.087932970037427, 0
3486, 0.33545558834306, -0.20765881286495, 0
3487, 0.31174822254215, -0.15911753407655, 0
3488, 0.35642432741623, -0.18209279289122, 0
3489, 0.332025066101, -0.1835588712242, 0
3490, 0.29409046122223, -0.16149466540721, 0
3491, 0.68099792920819, -0.20911527307069, 0
3492, 0.67972927207051, -0.2242985485253, 0
3493, 0.66569471048114, -0.21908025503535, 0
3494, 0.68958199940113, -0.15855776141909, 0
3495, 0.67376138612312, -0.21483198287633, 0
3496, 0.15254977033378, 0.10238652879741, 0
3497, 0.19004510748128, 0.10554575796539, 0
3498, 0.1724675964446, 0.086713382286526, 0
3499, 0.17081439972019, 0.10246362906395, 0
3500, 0.38780387772162, 0.26769837276733, 0
3501, 0.6936033519516, 0.19964950182314, 0
3502, 0.7381416042102, 0.2743176737154, 0
3503, 0.69600692873465, 0.20520131888693, 0
3504, 0.7010797421292, 0.21830662894547, 0
3505, 0.72802458414546, 0.18226324352605, 0
3506, 0.92347683481972, -0.19250694736104, 0
3507, 0.68151194801766, -0.24375850553229, 0
3508, 0.44203037904581, 0.28281521803298, 0
3509, 0.37651379410885, 0.26904721882025, 0
3510, 0.36838204790574, 0.26399547249301, 0
3511, 0.40215652268038, 0.26991018047691, 0
3512, 0.18602382910955, 0.043728544228656, 0
3513, 0.19711271295831, 0.054727055531204, 0
3514, 0.1979930935403, 0.044249132467468, 0
3515, 0.32834990404321, -0.16178161314439, 0
3516, 0.27578184905882, -0.25107253529117, 0
3517, 0.26146296192503, -0.19552379333045, 0
3518, 0.17296112128923, 0.030388405837807, 0
3519, 0.17082575632113, 0.056100990794113, 0
3520, 0.17159340182153, 0.043170048871751, 0
3521, 0.152723450933, 0.070826445880759, 0
3522, 0.18961957922685, 0.071530618228978, 0
3523, 0.17164667638286, 0.07140718654032, 0
3524, 0.15724241377495, -0.011109165620346, 0
3525, 0.17407356899773, 0.0033705321293327, 0
3526, 0.2399918623331, 0.038016454912225, 0
3527, 0.17439495522003, -0.010095669750139, 0
3528, 0.16190290888227, -0.044532866184266, 0
3529, 0.23604312638596, -0.02994930361449, 0
3530, 0.22303488505345, -0.017137725591531, 0
3531, 0.23986370742345, -0.047943643518807, 0
3532, 0.25674469026473, 0.15040709400452, 0
3533, 0.24144208048282, 0.15764066367214, 0
3534, 0.23924383670724, 0.16638365184483, 0
3535, 0.25227536598494, 0.18187482040702, 0
3536, 0.26477073522678, 0.17745164219726, 0
3537, 0.25902272798187, 0.17971029334944, 0
3538, 0.84147600039129, 0.022149240238307, 0
3539, 0.86846192869803, 0.019861889439789, 0
3540, 0.78296952128872, 0.048474190266352, 0
3541, 0.77570471147941, 0.058002685330468, 0
3542, 0.15787014716842, 0.017213175645331, 0
3543, 0.23332458834989, 0.019010125412741, 0
3544, 0.17412592921648, 0.017156233840195, 0
3545, 0.27704683876762, -0.21441225551675, 0
3546, 0.22816720689218, -0.2220637877411, 0
3547, 0.7607198609029, 0.20993589267325, 0
3548, 0.69895382093319, 0.19520314334057, 0
3549, 0.77908498737266, -0.18454625117477, 0
3550, 0.79800501344519, -0.12429884252007, 0
3551, 0.79659611168065, -0.13838426267473, 0
3552, 0.65211203849612, 0.23755921859725, 0
3553, 0.73768522539479, -0.19086071006847, 0
3554, 0.7211886165796, -0.19185295181391, 0
3555, 0.7413335454475, -0.15982690183143, 0
3556, 0.72879826658663, -0.19065333182317, 0
3557, 0.10544002767364, -0.16317190077708, 0
3558, 0.13382979774872, -0.13867278482618, 0
3559, 0.15562397124157, -0.16686573036121, 0
3560, 0.13079360735727, -0.1648435147957, 0
3561, 0.1457421952412, -0.080490769760144, 0
3562, 0.72380350914284, -0.15017637602052, 0
3563, 0.70541375469045, -0.12490382221534, 0
3564, 0.69015814398211, -0.14258186499857, 0
3565, 0.71947658969417, -0.1318771894189, 0
3566, 0.077895854619362, -0.18990129522899, 0
3567, 0.076835886222194, -0.21731379192236, 0
3568, 0.7872347038246, 0.13993191139985, 0
3569, 0.78140604372828, 0.12947881958421, 0
3570, 0.72498484070222, 0.16092220560668, 0
3571, 0.73235586095287, 0.14572872833506, 0
3572, 0.79580986233406, 0.24046377823094, 0
3573, 0.81743640606633, 0.23236812694491, 0
3574, 0.32302740014512, -0.19862487152165, 0
3575, 0.36171022242932, -0.19570246575984, 0
3576, 0.3156368372551, -0.15913273471722, 0
3577, 0.11597497072448, -0.079841807143489, 0
3578, 0.2734434018832, -0.10775181623838, 0
3579, 0.27599038901334, -0.1041807267256, 0
3580, 0.84830566946599, -0.17667496328452, 0
3581, 0.82008534446189, -0.1586438032485, 0
3582, 0.82235947601903, -0.17766236596752, 0
3583, 0.77005649853044, 0.11273885850705, 0
3584, 0.82968621686821, 0.13033682364366, 0
3585, 0.8210874598484, 0.14472348772163, 0
3586, 0.70080815709074, -0.19517836641024, 0
3587, 0.69185753781584, -0.19333306622851, 0
3588, 0.65499189188106, -0.17770099326235, 0
3589, 0.70378255773769, -0.18447663200737, 0
3590, 0.69772801360338, -0.18893020329164, 0
3591, 0.75183239459157, -0.015602875276231, 0
3592, 0.76904057715193, 0.039818830680218, 0
3593, 0.20394804209911, -0.16914717764107, 0
3594, 0.24058218780166, -0.15795326080184, 0
3595, 0.22399821533097, -0.16386509393736, 0
3596, 0.59994540902207, 0.26569122178812, 0
3597, 0.59768202602412, 0.28600429452476, 0
3598, 0.79299385521494, 0.15144588439115, 0
3599, 0.79761358484841, 0.14189408565233, 0
3600, 0.52500163758014, -0.24200665412346, 0
3601, 0.69862498779255, -0.14548122740967, 0
3602, 0.71216604597123, -0.13399028791363, 0
3603, 0.70252740298511, -0.14327994803426, 0
3604, 0.76389766727458, 0.031254608915588, 0
3605, 0.75891445482012, 0.041576245466313, 0
3606, 0.20989743705695, -0.10171401930515, 0
3607, 0.24323557280722, -0.0096226371598813, 0
3608, 0.23705630073306, -0.0099055484000873, 0
3609, 0.28004223416984, -0.11529530454921, 0
3610, 0.27533653513163, -0.10096125085418, 0
3611, 0.22409862007469, -0.038218298807485, 0
3612, 0.26961428712756, -0.18378963310093, 0
3613, 0.29790840148803, -0.20383263624273, 0
3614, 0.27984505063178, -0.20067646204478, 0
3615, 0.37933376410942, 0.27708760100274, 0
3616, 0.34304491947335, 0.2745429615933, 0
3617, 0.37266679853851, 0.26861895322057, 0
3618, 0.38794309318176, 0.29314166421937, 0
3619, 0.33341540458291, 0.2439979677668, 0
3620, 0.34034380267808, 0.24836359504015, 0
3621, 0.63779282914223, 0.25108435419698, 0
3622, 0.69958320586743, 0.26190099075747, 0
3623, 0.80159642104162, 0.16633323253529, 0
3624, 0.77829118057251, 0.15808350595007, 0
3625, 0.78894064231578, 0.16140374350191, 0
3626, 0.20496006804886, 0.23655113587084, 0
3627, 0.18282001376537, 0.23164874687762, 0
3628, 0.35030705987887, -0.1909073591898, 0
3629, 0.35047965040912, -0.21336659641555, 0
3630, 0.35760131530439, -0.1894475583689, 0
3631, 0.36248814152915, -0.18653649492798, 0
3632, 0.42621233415532, -0.23092671794236, 0
3633, 0.4324238061205, -0.220295541065, 0
3634, 0.44985393864654, -0.26947139006991, 0
3635, 0.46021481582969, -0.22716853495189, 0
3636, 0.87668497255623, -0.089007683307375, 0
3637, 0.81458790405691, -0.12526957450979, 0
3638, 0.79827513435017, -0.11195729529055, 0
3639, 0.81202637939872, -0.11186512551573, 0
3640, 0.27557530397933, -0.23099443808341, 0
3641, 0.64651728729666, -0.28366076094202, 0
3642, 0.15728970035773, 0.17310730110962, 0
3643, 0.25806766917602, 0.12071136010813, 0
3644, 0.17844715949115, 0.16908493565066, 0
3645, 0.63087415197781, 0.2678941099631, 0
3646, 0.36889193019779, 0.25394824492969, 0
3647, 0.38728984700518, 0.26137114040031, 0
3648, 0.54170931075937, -0.25627069915851, 0
3649, 0.53348716958171, -0.2495837131693, 0
3650, 0.5345559482822, -0.25731046306681, 0
3651, 0.3562724985566, 0.25947500297118, 0
3652, 0.36484421497515, 0.25915402159172, 0
3653, 0.36118538974028, 0.25764280878183, 0
3654, 0.77501791361198, 0.19958355117624, 0
3655, 0.8113021059604, 0.18639455406769, 0
3656, 0.31835608914261, 0.21053511264725, 0
3657, 0.32017976819254, 0.21265258961763, 0
3658, 0.37036248728848, -0.20940850127145, 0
3659, 0.36491314270582, -0.2156623972006, 0
3660, 0.35609829627147, -0.18424172811222, 0
3661, 0.36629810071136, -0.20404784525764, 0
3662, 0.39545705770203, 0.26883215500509, 0
3663, 0.3850917140217, 0.26039091680311, 0
3664, 0.7857792855235, 0.0024440307560849, 0
3665, 0.76004655380895, 0.050667372080848, 0
3666, 0.85830203676836, -0.038302744508869, 0
3667, 0.40327154990491, -0.21319732093103, 0
3668, 0.76918496674882, -0.037104293958912, 0
3669, 0.75358322221656, -0.016928515008563, 0
3670, 0.07956135522261, -0.16267349964745, 0
3671, 0.35491269809707, 0.26329372450192, 0
3672, 0.38293643004925, 0.26156965734616, 0
3673, 0.19999554246538, -0.066247460076501, 0
3674, 0.34076790583462, -0.22086556435217, 0
3675, 0.32885205071129, -0.22734342908353, 0
3676, 0.32448038516714, -0.21178117011403, 0
3677, 0.33262414550088, -0.2163233672331, 0
3678, 0.25281796625173, -0.088328663453712, 0
3679, 0.64332214471739, -0.23487018224017, 0
3680, 0.69939084682846, -0.28179568550113, 0
3681, 0.83037200912397, -0.075409211423538, 0
3682, 0.85591031525741, -0.058489272759763, 0
3683, 0.63703330582671, 0.24722115154764, 0
3684, 0.60343119211091, -0.20983365022492, 0
3685, 0.56059861983431, -0.22273032826951, 0
3686, 0.79165564940288, -0.2417991250784, 0
3687, 0.89651515883135, -0.16724385824805, 0
3688, 0.92147049383332, -0.16514427463848, 0
3689, 0.13255811349729, 0.17048138885778, 0
3690, 0.75981165628423, 0.10150320356384, 0
3691, 0.59501876120619, 0.26912503808485, 0
3692, 0.62087195350656, 0.27069350513698, 0
3693, 0.62150099714524, 0.27648178294508, 0
3694, 0.61509976028203, -0.20871855086583, 0
3695, 0.57652831834908, -0.21382388884807, 0
3696, 0.59998678307075, -0.21080346537188, 0
3697, 0.55607069416846, -0.22074841875088, 0
3698, 0.58584889776353, -0.21075157131053, 0
3699, 0.64925677249871, -0.22547102931781, 0
3700, 0.65433273095083, -0.21507578214318, 0
3701, 0.65745047944739, -0.22258541049797, 0
3702, 0.28454417351481, -0.10982522305632, 0
3703, 0.25234010584, -0.10968817641641, 0
3704, 0.26300044796196, -0.07955977965618, 0
3705, 0.31261354153732, -0.15537558411867, 0
3706, 0.78346306968586, -0.12120347399952, 0
3707, 0.77177549408758, -0.16562512068247, 0
3708, 0.80031244901559, -0.17935289118505, 0
3709, 0.44483909908965, -0.22740158631088, 0
3710, 0.16847966016769, -0.095602795129747, 0
3711, 0.26256038907184, -0.085334555318535, 0
3712, 0.45231238531874, 0.28451697360458, 0
3713, 0.40800953372598, 0.2935753304951, 0
3714, 0.41956039598138, 0.28373490547227, 0
3715, 0.42433243409488, 0.28262883829457, 0
3716, 0.44661572256971, -0.23062079583486, 0
3717, 0.42288573674332, -0.21270965256989, 0
3718, 0.4027029877991, -0.23816049442612, 0
3719, 0.43478869449299, -0.22913802952464, 0
3720, 0.40974260516162, -0.21061892757673, 0
3721, 0.25280898183463, -0.2491285046469, 0
3722, 0.25645784312916, 0.22266665155487, 0
3723, 0.26520423402225, 0.20976606420987, 0
3724, 0.25364685881431, 0.21115662781716, 0
3725, 0.35734515278555, -0.22524059225825, 0
3726, 0.34842735269691, -0.23244449495329, 0
3727, 0.34905652931009, -0.22305307830521, 0
3728, 0.70213213181824, 0.2130981872746, 0
3729, 0.77645554385266, 0.0091798560320372, 0
3730, 0.75836186644366, 0.036134105621591, 0
3731, 0.88371688249499, -0.034482478144245, 0
3732, 0.60755408785766, -0.21277789088066, 0
3733, 0.5654045823296, -0.23251791054891, 0
3734, 0.60985343161755, -0.22937452362445, 0
3735, 0.30727669800613, 0.2113375274012, 0
3736, 0.28061177378473, 0.20216461460257, 0
3737, 0.27370231652199, 0.20623835847814, 0
3738, 0.36200847492995, 0.25422871022621, 0
3739, 0.66441621341528, -0.17371511174404, 0
3740, 0.33536736427509, -0.24494706210372, 0
3741, 0.36178604685156, -0.24385641338301, 0
3742, 0.34887734400119, -0.24621161687517, 0
3743, 0.42452091746497, -0.21357146887744, 0
3744, 0.38151975451253, 0.29357462104574, 0
3745, 0.8126679733624, 0.030880295266534, 0
3746, 0.82951324752781, 0.043079183369412, 0
3747, 0.24471348188662, 0.23973022022359, 0
3748, 0.2659118507944, 0.24703971763271, 0
3749, 0.29344535858322, 0.20063699864135, 0
3750, 0.26014405160698, 0.23497267363355, 0
3751, 0.28206426977589, -0.16538745209123, 0
3752, 0.31817286326605, -0.17017235837677, 0
3753, 0.31974935830932, -0.15201499854906, 0
3754, 0.70083303287842, -0.1586048899576, 0
3755, 0.71330663010313, -0.14787974474751, 0
3756, 0.69797382103417, -0.13421642941796, 0
3757, 0.7293031313486, -0.10539220894839, 0
3758, 0.65423681409648, 0.244730783938, 0
3759, 0.43551188459989, -0.27163997491676, 0
3760, 0.48032758857747, -0.23009767301033, 0
3761, 0.50874863783271, -0.23300272081429, 0
3762, 0.86803439539824, -0.14936706833665, 0
3763, 0.87241041414867, -0.17195941076629, 0
3764, 0.81993227248359, 0.15562132400642, 0
3765, 0.85396539812947, 0.10767091584013, 0
3766, 0.71924051108546, -0.18102668135189, 0
3767, 0.70612938352671, -0.13462964485474, 0
3768, 0.24636724005484, -0.023953437784692, 0
3769, 0.24134591381409, -0.026787942517303, 0
3770, 0.40074205871668, 0.2845688743477, 0
3771, 0.36689144519113, 0.29332946142862, 0
3772, 0.50889586005475, -0.2283401398396, 0
3773, 0.78724366603841, -0.1012883407008, 0
3774, 0.78564443889958, -0.11000990953948, 0
3775, 0.12941220827234, 0.08637179152776, 0
3776, 0.13305882135211, 0.069299087799457, 0
3777, 0.61227106013045, -0.20170368420191, 0
3778, 0.44609086259084, 0.28915673995493, 0
3779, 0.40876377139511, 0.26980545549271, 0
3780, 0.71232957705589, -0.18736518647984, 0
3781, 0.70900243540605, -0.17950530215486, 0
3782, 0.44308811622719, -0.24353219551525, 0
3783, 0.58280100026305, -0.21279946069661, 0
3784, 0.61186447448173, -0.25665008694959, 0
3785, 0.22561707664035, 0.23931520924481, 0
3786, 0.24415620825028, -0.1065991752347, 0
3787, 0.69090205297314, 0.25561436324083, 0
3788, 0.18008123161051, -0.16887934388648, 0
3789, 0.70402484627956, 0.27005208022113, 0
3790, 0.37469155358069, 0.27713289654907, 0
3791, 0.59164771639631, 0.28745485284776, 0
3792, 0.55062115500022, -0.24719952824786, 0
3793, 0.54659850071446, -0.240411416146, 0
3794, 0.551587274424, -0.23728003205323, 0
3795, 0.55146189046773, -0.2419641060973, 0
3796, 0.72860897946538, -0.083895150548696, 0
3797, 0.63512126121771, 0.25352396494358, 0
3798, 0.47913545830141, -0.24654433733499, 0
3799, 0.24881838114672, -0.050853177035146, 0
3800, 0.55560093112319, 0.28301757228891, 0
3801, 0.56248808549826, 0.28109677962455, 0
3802, 0.87497257027062, 0.042556382326597, 0
3803, 0.66436403134579, 0.27548755977338, 0
3804, 0.89173460971111, 0.075983286788525, 0
3805, 0.86164681330564, 0.059527281846057, 0
3806, 0.81154003718746, 0.13457313561246, 0
3807, 0.86669539427397, 0.073675648698198, 0
3808, 0.31489525482045, -0.19843966974416, 0
3809, 0.31968781999379, -0.2051104199291, 0
3810, 0.53794596340471, -0.24323978823574, 0
3811, 0.53330892387307, -0.24330852446939, 0
3812, 0.29686374962491, -0.13853315951325, 0
3813, 0.27532762192951, -0.17384966122297, 0
3814, 0.30559275025634, -0.16909345569633, 0
3815, 0.27003268242389, -0.13766369484527, 0
3816, 0.13207494218046, 0.028938000974463, 0
3817, 0.13778125342221, -0.029531519659943, 0
3818, 0.11750396083591, -0.009645361312872, 0
3819, 0.14351095662887, 0.029254625620271, 0
3820, 0.45319825048418, -0.22236033386802, 0
3821, 0.47710248467296, -0.22930898925004, 0
3822, 0.59295982101053, 0.29363452516188, 0
3823, 0.75483363763993, 0.12126146169208, 0
3824, 0.76165630068628, 0.11875319032616, 0
3825, 0.75671136056753, 0.11696755201242, 0
3826, 0.42312556077796, 0.27956944746335, 0
3827, 0.41484918888022, 0.27422714179725, 0
3828, 0.2419178104417, -0.036999508005602, 0
3829, 0.18743315074733, -0.10693023453715, 0
3830, 0.15821055676902, -0.14220736636624, 0
3831, 0.23749640969658, -0.014427968934807, 0
3832, 0.43865932659914, 0.28165193958088, 0
3833, 0.42850800667094, 0.27558150916575, 0
3834, 0.40726957155231, 0.27880255307297, 0
3835, 0.23478040761271, -0.045674103191973, 0
3836, 0.13937878817247, -0.050284959368638, 0
3837, 0.24269716716793, -0.0020277986925313, 0
3838, 0.24268121612515, 0.0013855971051616, 0
3839, 0.2546050578177, -0.040805092635117, 0
3840, 0.27506971122036, -0.093691782690707, 0
3841, 0.29758847618375, -0.14845282912294, 0
3842, 0.36773534685363, -0.23042883630872, 0
3843, 0.3654485226412, -0.22308638263673, 0
3844, 0.69253592230222, -0.20930071552563, 0
3845, 0.70762145511881, -0.20435010011288, 0
3846, 0.70007868871051, -0.20682540781926, 0
3847, 0.77554438926054, 0.12031563500998, 0
3848, 0.78456722545869, 0.12071607449849, 0
3849, 0.71716438217161, -0.14094065991791, 0
3850, 0.70558935167731, -0.14473275067396, 0
3851, 0.70968239766492, -0.12139873448147, 0
3852, 0.27449122559855, -0.12266947468406, 0
3853, 0.28076515651056, -0.12952101014872, 0
3854, 0.27738477531092, -0.12642988450234, 0
3855, 0.24662521045941, 0.07328527770785, 0
3856, 0.44774970481494, 0.29449815357233, 0
3857, 0.75472760273868, -0.079014731524125, 0
3858, 0.74978877118924, -0.073355283165522, 0
3859, 0.68603290338202, -0.16190855730905, 0
3860, 0.68141412677156, -0.15209915006984, 0
3861, 0.64996019149658, -0.17847350775604, 0
3862, 0.70419735446205, 0.19018410757933, 0
3863, 0.71606145754443, 0.1862716711809, 0
3864, 0.72368175922218, 0.1793080483096, 0
3865, 0.67503499018529, -0.16856047702791, 0
3866, 0.66165232320529, -0.21095829498041, 0
3867, 0.61281773340106, -0.21552068992225, 0
3868, 0.61456798545433, -0.22082670637706, 0
3869, 0.24423607447758, 0.016024777911143, 0
3870, 0.24407169448737, 0.025739985279272, 0
3871, 0.40398503651912, -0.24971722857114, 0
3872, 0.27643107550159, -0.11656420246288, 0
3873, 0.24616571820805, -0.098999266226012, 0
3874, 0.33636593624407, 0.25497436321738, 0
3875, 0.32725813405005, 0.25718641041466, 0
3876, 0.12086010601534, 0.0077373444195859, 0
3877, 0.099174851537381, 0.014958159613995, 0
3878, 0.70408900161799, 0.19406762192072, 0
3879, 0.71029181347778, 0.19249029104717, 0
3880, 0.32635649857293, 0.21962041115249, 0
3881, 0.30684983565788, 0.21940818989688, 0
3882, 0.5812929649949, -0.21281698826319, 0
3883, 0.59420145038795, -0.2087620968952, 0
3884, 0.3099791920445, 0.24439767331703, 0
3885, 0.31611681335492, 0.24739342964526, 0
3886, 0.25698242611697, 0.11271964739611, 0
3887, 0.74183782861107, 0.13292593564119, 0
3888, 0.72351871766162, 0.15669174299679, 0
3889, 0.75986886412942, -0.0088710276698659, 0
3890, 0.78081227655662, -0.021950198936441, 0
3891, 0.66087437880757, -0.17059237847091, 0
3892, 0.675465720001, -0.20178287263038, 0
3893, 0.69167704390518, -0.16247944729255, 0
3894, 0.78002691582084, 0.027135951967917, 0
3895, 0.3231610156213, 0.26480504433963, 0
3896, 0.2833910566834, 0.17379557711048, 0
3897, 0.2863605908726, 0.18835256626092, 0
3898, 0.63639238751534, -0.20389826145025, 0
3899, 0.63226659634393, -0.20776845281992, 0
3900, 0.27450489774293, 0.18798318989012, 0
3901, 0.28600670476085, 0.19910781818577, 0
3902, 0.26657078469321, 0.17089983746947, 0
3903, 0.26313921525664, 0.16150518015841, 0
3904, 0.26485499997492, 0.16620250881394, 0
3905, 0.24154463716088, 0.072677404139111, 0
3906, 0.22889262316339, 0.038028207579221, 0
3907, 0.21660540470991, 0.07327783774292, 0
3908, 0.2216767673167, 0.070137310734265, 0
3909, 0.74005531107541, -0.06704607282566, 0
3910, 0.78621307232129, 0.0099192432952273, 0
3911, 0.69332079106637, 0.26505217565742, 0
3912, 0.72251344934791, 0.18327250006664, 0
3913, 0.72201571419621, 0.21087619335541, 0
3914, 0.68334247629006, 0.22504035924878, 0
3915, 0.29428497540232, 0.25338062639295, 0
3916, 0.29934745509595, 0.24194551268606, 0
3917, 0.31595539634164, 0.22211098863222, 0
3918, 0.28234634154476, 0.24885069410125, 0
3919, 0.29077908507053, 0.24501190765233, 0
3920, 0.64101562036388, -0.22619593646738, 0
3921, 0.26263473904903, -0.071324759976218, 0
3922, 0.62055088351605, -0.24476759820828, 0
3923, 0.23680777809793, 0.045305707156209, 0
3924, 0.60844085753828, 0.27621378894293, 0
3925, 0.74152844740675, -0.075139738734151, 0
3926, 0.32274284549563, -0.16801907855667, 0
3927, 0.32072148599011, -0.18820614396099, 0
3928, 0.77777175349775, 0.096253687697757, 0
3929, 0.75758675539577, 0.079013377957474, 0
3930, 0.76996183269322, 0.0069346769600462, 0
3931, 0.77030215065189, 0.0027334102204495, 0
3932, 0.25986031145427, 0.16193021916596, 0
3933, 0.26087962572961, 0.13027066759649, 0
3934, 0.41178625507785, 0.27081516251134, 0
3935, 0.57013630445876, -0.21922059716763, 0
3936, 0.67488212311999, -0.17767904293048, 0
3937, 0.69500993672889, -0.15895327355149, 0
3938, 0.26531699370126, -0.088217760954266, 0
3939, 0.27703092842454, -0.094232320027889, 0
3940, 0.76800788896177, 0.11974727136125, 0
3941, 0.74698015531191, 0.13056096956038, 0
3942, 0.76862432673526, 0.15424905486778, 0
3943, 0.73268815694206, 0.16885768144386, 0
3944, 0.7358492481658, 0.16427443562182, 0
3945, 0.79824419598893, 0.032718353796737, 0
3946, 0.84020158857746, 0.062385271180259, 0
3947, 0.84179025236046, 0.074549765957536, 0
3948, 0.6197547965088, 0.26615017486787, 0
3949, 0.5801932241544, -0.22333425907805, 0
3950, 0.27862239603049, 0.21434570365945, 0
3951, 0.22731470391368, 0.027207450559397, 0
3952, 0.56541504597017, 0.27956706587956, 0
3953, 0.60181447180833, 0.26421100128329, 0
3954, 0.50479927175852, -0.23511698002107, 0
3955, 0.489326455489, -0.24661350376469, 0
3956, 0.785296625357, -0.027145062906279, 0
3957, 0.75523552945341, -0.0003394281413837, 0
3958, 0.28454397198284, 0.26172250688659, 0
3959, 0.29435430065034, 0.26300249086723, 0
3960, 0.78459895594278, 0.053042881667422, 0
3961, 0.76243756790133, 0.036087987464712, 0
3962, 0.20318560984144, 0.077855395907787, 0
3963, 0.20014916139988, 0.066291225719494, 0
3964, 0.25501893086957, 0.1615594909468, 0
3965, 0.78807168362189, -0.015710451304249, 0
3966, 0.4143197910882, -0.24116830796506, 0
3967, 0.41528659970291, -0.21758453452304, 0
3968, 0.80876602517972, 0.056481398636413, 0
3969, 0.82363914656612, 0.064348006418774, 0
3970, 0.31218108514346, 0.2346130992057, 0
3971, 0.31662003333172, 0.2317816151682, 0
3972, 0.70799591205456, 0.23196862349052, 0
3973, 0.74498099003263, 0.18291848946955, 0
3974, 0.228559093783, 0.042896932141494, 0
3975, 0.75206203360131, 0.12681862646563, 0
3976, 0.73870044629859, 0.1493906559563, 0
3977, 0.25556109908224, -0.04237660600451, 0
3978, 0.17585864312065, -0.023040602618083, 0
3979, 0.72508880097316, -0.16165714788721, 0
3980, 0.73849014015976, -0.0699272447604, 0
3981, 0.81929417263995, 0.1252323588431, 0
3982, 0.46924689875058, -0.25373456974724, 0
3983, 0.61645351384157, -0.22724281654541, 0
3984, 0.69533544551581, -0.13539208108662, 0
3985, 0.74791657292827, -0.059857642421492, 0
3986, 0.25282691055066, 0.11603586935755, 0
3987, 0.25339638170381, 0.12604155386661, 0
3988, 0.35362430636674, -0.18374314744935, 0
3989, 0.34748132909329, -0.18173012013809, 0
3990, 0.26938355681901, 0.17499474398822, 0
3991, 0.65854904437035, -0.18381323692311, 0
3992, 0.66910751337611, -0.16202263891684, 0
3993, 0.30613388631795, -0.17532133553397, 0
3994, 0.34028608394305, -0.17281195152292, 0
3995, 0.29307678173649, -0.15308376086415, 0
3996, 0.71567464211038, -0.13322968876189, 0
3997, 0.70079337777099, -0.13829526882421, 0
3998, 0.72637083599582, 0.17554624834087, 0
3999, 0.72963360648017, 0.17273500099476, 0
4000, 0.762484072897, -0.18619491689167, 0
4001, 0.7489089941693, -0.18953669354746, 0
4002, 0.7654415881261, 0.025294788506975, 0
4003, 0.8024266263407, 0.085518962262473, 0
4004, 0.3220405850112, -0.15821129923768, 0
4005, 0.31171332113145, -0.20832569667012, 0
4006, 0.70587795291715, -0.12971083362511, 0
4007, 0.56210036187469, -0.2256370215689, 0
4008, 0.35815211159787, 0.27429441736106, 0
4009, 0.70951735419243, 0.19726588339476, 0
4010, 0.68689417908567, 0.22030985090911, 0
4011, 0.30102458590691, -0.13553050361673, 0
4012, 0.30035253463982, -0.16309080354161, 0
4013, 0.69989196047824, -0.1320362752833, 0
4014, 0.76544035853129, 0.036065276408192, 0
4015, 0.31818286334169, 0.21390246663914, 0
4016, 0.312216786315, 0.22335213374435, 0
4017, 0.33455444765217, -0.17381093715942, 0
4018, 0.37628491433151, -0.2121705679861, 0
4019, 0.37548364675963, -0.22581151052544, 0
4020, 0.7447818078605, -0.080945940028994, 0
4021, 0.6479253813051, -0.20371322640965, 0
4022, 0.64128483807805, -0.20136315571711, 0
4023, 0.64627300297936, -0.19925781881831, 0
4024, 0.81740353539887, 0.17091339365273, 0
4025, 0.72284974483786, 0.19071050104648, 0
4026, 0.71344013422141, 0.17856417406389, 0
4027, 0.3093351487045, -0.19197525305557, 0
4028, 0.3348200807839, -0.17966772995607, 0
4029, 0.26908521165006, -0.10303190214818, 0
4030, 0.21717061305428, -0.044158663940696, 0
4031, 0.66869672158043, -0.19656937614129, 0
4032, 0.66466106624757, -0.16510255398787, 0
4033, 0.73560773207612, 0.1371997964625, 0
4034, 0.65088716609085, -0.20898500772072, 0
4035, 0.20781606663731, -0.081206285469683, 0
4036, 0.24335009258565, -0.030312799612667, 0
4037, 0.32393338202639, 0.2217325123791, 0
4038, 0.31033028830855, 0.21223742963856, 0
4039, 0.66730299730376, 0.23780845062819, 0
4040, 0.25258164746888, 0.11896844853152, 0
4041, 0.13084299747786, 0.10727561714618, 0
4042, 0.54301586271411, -0.24715789334037, 0
4043, 0.54227223205959, -0.24182560219087, 0
4044, 0.83623328579337, -0.040682944299718, 0
4045, 0.75806591673378, 0.017959451824614, 0
4046, 0.56903876204874, -0.2230251879898, 0
4047, 0.70606466505012, -0.13965900198957, 0
4048, 0.69701527876332, 0.19387953246942, 0
4049, 0.83127094104734, -0.12012554053652, 0
4050, 0.81774344412517, -0.14086117184919, 0
4051, 0.21205862367672, 0.089799745314268, 0
4052, 0.24261974666308, 0.13553004589387, 0
4053, 0.24924663068244, 0.1113935773795, 0
4054, 0.86215246438398, -0.12709874575421, 0
4055, 0.82052622177434, -0.10039858869433, 0
4056, 0.83934982198801, -0.13671881634986, 0
4057, 0.8245969428414, -0.090137508170383, 0
4058, 0.31742432335489, -0.25705077604056, 0
4059, 0.24387172707683, 0.18456269038659, 0
4060, 0.91236887147051, -0.028214351283553, 0
4061, 0.30628667457663, 0.23806054714967, 0
4062, 0.46091421172691, 0.29002297183802, 0
4063, 0.16999148615808, -0.063645957912973, 0
4064, 0.72277762947104, 0.1971987503142, 0
4065, 0.6892670436266, 0.21615056164111, 0
4066, 0.70480906621702, 0.24528057852591, 0
4067, 0.45595334478353, -0.22271701486828, 0
4068, 0.12589091365918, 0.036751343310511, 0
4069, 0.75849931284551, -0.012428768468734, 0
4070, 0.30640182815424, -0.20113615299345, 0
4071, 0.85761377507349, 0.030504877599118, 0
4072, 0.3248520583327, -0.16334137108378, 0
4073, 0.31362701238314, 0.2085622841721, 0
4074, 0.91670972124418, 0.071481431622269, 0
4075, 0.71424763549147, -0.19713204097061, 0
4076, 0.832283270028, -0.0084024842004086, 0
4077, 0.70902449340739, 0.17954941138574, 0
4078, 0.35913922406996, -0.2080749860137, 0
4079, 0.55192875987586, -0.23355901877229, 0
4080, 0.44207927922864, 0.2886784134672, 0
4081, 0.22057037944725, 0.1093543741581, 0
4082, 0.68626993667047, -0.20080044153135, 0
4083, 0.78857172748215, -0.088203250246838, 0
4084, 0.33779589432528, 0.25043551027105, 0
4085, 0.27501728870939, 0.25566043928361, 0
4086, 0.58865104243542, 0.27235679916132, 0
4087, 0.42072331714622, -0.21970496478191, 0
4088, 0.37481942889964, -0.20881265279842, 0
4089, 0.75165948031497, -0.15528356258532, 0
4090, 0.69075109511149, 0.212564557015, 0
4091, 0.28890591275325, 0.18496539708833, 0
4092, 0.35854857631366, -0.18323829459168, 0
4093, 0.63748309057429, -0.20070819998412, 0
4094, 0.28427671534503, -0.13119986295284, 0
4095, 0.54715439915163, -0.25201706535313, 0
4096, 0.70324394848303, -0.13899463280159, 0
4097, 0.72325738648252, 0.17719416491317, 0
4098, 0.35243832223917, -0.20401076745348, 0
4099, 0.25294103758118, -0.081413969698384, 0
4100, 0.26440148148081, 0.15826308468636, 0
4101, 0.26669207715268, -0.093818785819229, 0
4102, 0.65719966826068, -0.17521836872701, 0
4103, 0.73354255003324, 0.13583501786365, 0
4104, 0.23209542847803, -0.1230889185111, 0
4105, 0.75153372403286, 0.12291108182128, 0
4106, 0.2551093785146, -0.066170413727552, 0
4107, 0.75524926382695, 0.073655451169379, 0
4108, 0.21118610211647, 0.080731960583807, 0
4109, 0.24454111056156, -0.049609182459888, 0
4110, 0.80222402688634, 0.044359964074823, 0
4111, 0.23069208907936, 0.016162239562674, 0
4112, 0.76873923659409, 0.010261813527217, 0
4113, 0.75906423141016, 0.25095889926285, 0
4114, 0.5262916732926, 0.28675332459847, 0
4115, 0.35286230251959, 0.24097501181027, 0
4116, 0.25679789311326, -0.17691201067074, 0
4117, 0.12682295625333, 0.020808033992608, 0
4118, 0.16185905221894, -0.11823091168518, 0
4119, 0.6472567882747, 0.24453051627942, 0
4120, 0.31666012701693, -0.16637924147773, 0
4121, 0.21624031287179, 0.19945740967546, 0
4122, 0.74961951418004, -0.02305982383598, 0
4123, 0.31673372237971, 0.27575818469146, 0
4124, 0.49181159975328, 0.2858935660837, 0
4125, 0.39965408467454, -0.21203845514201, 0
4126, 0.80295756086747, 0.09845086032138, 0
4127, 0.20016234469347, 0.19955265186714, 0
4128, 0.76547745967735, 0.19237157226817, 0
4129, 0.60929750175547, -0.20327577054119, 0
4130, 0.44107016225646, -0.22681652267753, 0
4131, 0.64512440320206, -0.25218162912358, 0
4132, 0.7748587985694, 0.18315691042606, 0
4133, 0.38049468032405, 0.26093145869399, 0
4134, 0.72341096554935, 0.18085328727695, 0
4135, 0.21845758764145, -0.13347802393208, 0
4136, 0.64562511496483, 0.24715456790355, 0
4137, 0.25345284946557, 0.19619039687453, 0
4138, 0.5520509628618, 0.28349634474688, 0
4139, 0.65434465450443, 0.23425133880085, 0
4140, 0.79720662687395, 0.20027113216214, 0
4141, 0.27622863444108, -0.094761856276416, 0
4142, 0.579759811894, 0.27927064349569, 0
4143, 0.76935892781929, -0.2816667526288, 0
4144, 0.71056743883089, 0.17738040022972, 0
4145, 0.25195654441056, -0.071309392687291, 0
4146, 0.52786041263887, -0.2487608928243, 0
4147, 0.92521045250027, -0.27323799226855, 0
4148, 0.57320150570149, 0.27934240535885, 0
4149, 0.49371692888529, 0.28526631733532, 0
4150, 0.75413430620561, -0.21239430963272, 0
4151, 0.7035704760847, 0.18664729659558, 0
4152, 0.60297993381471, 0.26656803528381, 0
4153, 0.30159854856173, 0.19869529688812, 0
4154, 0.3929490514588, 0.26704077768798, 0
4155, 0.75004381835201, -0.042327676796077, 0
4156, 0.33087617229158, 0.25210448847562, 0
4157, 0.77041023515278, 0.036039343017735, 0
4158, 0.2381105781285, 0.0068848069811637, 0
4159, 0.3915471411734, 0.26862390208434, 0
4160, 0.45848542173633, -0.22598358069732, 0
4161, 0.13987088560315, 0.13645340940803, 0
4162, 0.63941793291954, -0.21357303413316, 0
4163, 0.52336386953314, -0.24663321151995, 0
4164, 0.76679942724634, -0.01213223072701, 0
4165, 0.40799783070346, -0.22309846294651, 0
4166, 0.58048212897473, -0.22873540220299, 0
4167, 0.85706012293412, 0.047157755630991, 0
4168, 0.29630025550895, -0.23046922569309, 0
4169, 0.24371813346263, 0.028643975572491, 0
4170, 0.30606806986272, 0.19867845428315, 0
4171, 0.78384255599011, 0.038965114666135, 0
4172, 0.79118698757256, 0.13080125130765, 0
4173, 0.74869377251173, -0.030508628969534, 0
4174, 0.76528832791841, 0.087652204620507, 0
4175, 0.7447350727588, 0.1665743813775, 0
4176, 0.3675182421856, -0.1948848678021, 0
4177, 0.72104779812951, -0.10830576741212, 0
4178, 0.62544556620041, -0.21083123273283, 0
4179, 0.39253756958081, 0.26220639658226, 0
4180, 0.45740657717485, 0.28977372727348, 0
4181, 0.23805502327212, 0.023057078854662, 0
4182, 0.83608209814114, 0.051849984921199, 0
4183, 0.34303447834885, -0.17473893837752, 0
4184, 0.23016323851657, 0.12811587955, 0
4185, 0.7883346060575, 0.042545009286546, 0
4186, 0.75919971592272, -0.017612829283712, 0
4187, 0.32675612688559, -0.16600542948774, 0
4188, 0.11214694421012, 0.028600697851134, 0
4189, 0.22918898843932, 0.047884052078885, 0
4190, 0.79242701559199, -0.15668985259884, 0
4191, 0.43322650317365, -0.22437610003394, 0
4192, 0.2467052357169, 0.1168101768488, 0
4193, 0.5954345096821, 0.27396050873513, 0
4194, 0.23067274022457, 0.00088299152939928, 0
4195, 0.74482554838091, 0.19652960018858, 0
4196, 0.70136625308585, -0.13476191773399, 0
4197, 0.57022936641228, 0.2770054308489, 0
4198, 0.81191040429426, 0.0011435909706306, 0
4199, 0.59340105430363, -0.21202368725458, 0
4200, 0.41079907343905, -0.23477246503686, 0
4201, 0.55709454849557, -0.24303326324887, 0
4202, 0.73957639010407, 0.14089344580522, 0
4203, 0.35347081996027, 0.26747654039035, 0
4204, 0.58466399708425, -0.21777594622106, 0
4205, 0.55298890482901, -0.22143103976765, 0
4206, 0.25624797050779, 0.17372250813189, 0
4207, 0.24688394931675, 0.078339716835642, 0
4208, 0.69414855627997, 0.27142288982659, 0
4209, 0.61359859713623, -0.20506718189358, 0
4210, 0.67839738792515, 0.23019571935009, 0
4211, 0.72226332708804, -0.20708777463734, 0
4212, 0.75115545944872, -0.13470411393597, 0
4213, 0.36410342910688, 0.26670471928105, 0
4214, 0.27290746648027, 0.17882283533622, 0
4215, 0.68964212427539, -0.17087507557969, 0
4216, 0.70359034812591, -0.13474431235831, 0
4217, 0.3167227036586, 0.21174135790112, 0
4218, 0.44791189543543, -0.2854990019031, 0
4219, 0.59201348979455, 0.27079106818686, 0
4220, 0.62438700949032, 0.2647798545307, 0
4221, 0.64749843582045, 0.23831299666828, 0
4222, 0.38749968052257, 0.271182942948, 0
4223, 0.66332268168424, -0.19281766200451, 0
4224, 0.48717572216981, -0.23110709030153, 0
4225, 0.72092205687173, -0.28073159265931, 0
4226, 0.71788977785911, -0.22058119295955, 0
4227, 0.20828149662861, 0.21926943119231, 0
4228, 0.16443723167026, 0.19861448779946, 0
4229, 0.77409480209923, 0.23060479540793, 0
4230, 0.72094455506525, 0.27761363270554, 0
4231, 0.78356828115258, 0.17120546831426, 0
4232, 0.83288740347706, 0.19860564066515, 0
4233, 0.71044006270286, -0.24573342819353, 0
4234, 0.71273037111896, -0.23646680841006, 0
4235, 0.71457249852763, -0.22997152364625, 0
4236, 0.73632721061712, -0.26387172218675, 0
4237, 0.76056955999713, -0.26458168762885, 0
4238, 0.78342376857206, -0.26246327089962, 0
4239, 0.8069559074534, -0.25696411890237, 0
4240, 0.76642468711681, -0.21060056517164, 0
4241, 0.77622718231531, -0.21807031680275, 0
4242, 0.79013970283896, -0.22281214094678, 0
4243, 0.80886180000771, -0.23116616784269, 0
4244, 0.84397783504344, -0.21932449954243, 0
4245, 0.84448253253563, -0.27428287724867, 0
4246, 0.97480474094253, -0.24649820381857, 0
4247, 0.94952103375833, -0.24627672310319, 0
4248, 0.92396827853069, -0.24639849305091, 0
4249, 0.89758986085644, -0.2465850115446, 0
4250, 0.86908064881603, -0.24652673191019, 0
4251, 0.70709186728064, -0.25956316826741, 0
4252, 0.71587131684637, -0.22606040495554, 0
4253, 0.76722516104355, -0.21565444320046, 0
4254, 0.83467174477124, -0.24565287908927, 0
4255, 0.34755197542267, 0.2497705911245, 0
4256, 0.35870367905654, 0.25254796600853, 0
4257, 0.33711958088366, 0.24843196838134, 0
4258, 0.33189968164042, 0.24779021162093, 0
4259, 0.36403627238191, 0.27576613575684, 0
4260, 0.33970346941793, 0.26558608556164, 0
4261, 0.83469518825932, 0.10169292458905, 0
4262, 0.87958176251209, 0.12022025859761, 0
4263, 0.24730581835441, -0.1684614110617, 0
4264, 0.21050124147317, -0.19318032010772, 0
4265, 0.11834517166606, 0.048935300896554, 0
4266, 0.070139507737943, 0.029232903073905, 0
4267, 0.33457490578218, 0.26122824936601, 0
4268, 0.36920739406097, 0.25090434792096, 0
4269, 0.40266806528069, 0.28088591989938, 0
4270, 0.35979374768645, 0.24931960569045, 0
4271, 0.35122078750811, 0.2438246282065, 0
4272, 0.34948202258783, 0.2467682257146, 0
4273, 0.2937379142345, 0.27419706151437, 0
4274, 0.34015489997306, 0.29044489827495, 0
4275, 0.30629811281713, 0.28742617182211, 0
4276, 0.35811298029857, 0.2445039522585, 0
4277, 0.40300753973103, 0.2674621849276, 0
4278, 0.3985643281938, 0.27808601522264, 0
4279, 0.37752120223988, 0.25500182926466, 0
4280, 0.39823726206687, 0.27068372513987, 0
4281, 0.35753498012577, 0.25591598846226, 0
4282, 0.38975651587654, 0.27001517611208, 0
4283, 0.39632472622925, 0.28095126590895, 0
4284, 0.39324626009091, 0.28369650658904, 0
4285, 0.38929715843638, 0.28590074082593, 0
4286, 0.3843462445147, 0.28709936762985, 0
4287, 0.37863194819124, 0.28755967153637, 0
4288, 0.3722835871797, 0.28748451123447, 0
4289, 0.36538861044103, 0.28694844205578, 0
4290, 0.35790550462247, 0.28590946693993, 0
4291, 0.34974093598956, 0.28418321672313, 0
4292, 0.34048886179789, 0.28131170531897, 0
4293, 0.40396620293191, 0.27736653764167, 0
4294, 0.32937975658827, 0.28861779522343, 0
4295, 0.38671806005594, 0.26392209009153, 0
4296, 0.35061249191555, 0.25193137215904, 0
4297, 0.40017325544423, 0.27523685033485, 0
4298, 0.32901469175558, 0.27607574468452, 0
4299, 0.56373521756796, -0.25033863437016, 0
4300, 0.59035231889844, -0.21237061301544, 0
4301, 0.25272677443195, 0.12231638781162, 0
4302, 0.45594655211902, -0.24108579909764, 0
4303, 0.55966723709785, -0.22972140640937, 0
4304, 0.57558076451873, -0.23982361354952, 0
4305, 0.74968706888361, 0.10213945488594, 0
4306, 0.75597173772952, 0.10197836057708, 0
4307, 0.49860338153546, 0.28680450859582, 0
4308, 0.49441204062232, 0.29396948101916, 0
4309, 0.54513833485383, 0.28354033129318, 0
4310, 0.54256132611447, 0.29280916083767, 0
4311, 0.65777447101424, 0.23510224129751, 0
4312, 0.62572630130855, 0.25970968867385, 0
4313, 0.62225261247183, 0.26102450869102, 0
4314, 0.63201339689482, 0.26143422219217, 0
4315, 0.63524950008366, 0.26546358971982, 0
4316, 0.63895337200922, 0.27033305676676, 0
4317, 0.64358974600181, 0.27650496455738, 0
4318, 0.63081658016236, 0.29068625301468, 0
4319, 0.63964566239806, 0.28908392719652, 0
4320, 0.66196458094067, 0.23637425897206, 0
4321, 0.66272090342581, 0.23958229529903, 0
4322, 0.66305487026198, 0.24332885768604, 0
4323, 0.66279179079049, 0.24764562869987, 0
4324, 0.66174154167427, 0.25266241724078, 0
4325, 0.66036933437101, 0.2585020318704, 0
4326, 0.6584267773095, 0.26550746056027, 0
4327, 0.65541967971431, 0.27409027895575, 0
4328, 0.66425681429092, 0.23172212638727, 0
4329, 0.66221383652164, 0.2869645782803, 0
4330, 0.64821395155983, 0.23898223720839, 0
4331, 0.6290602232296, 0.2579569714354, 0
4332, 0.66094951887043, 0.23352537152533, 0
4333, 0.65024193929645, 0.28532874979799, 0
******* E L E M E N T S *************
*ELEMENT, type=CPS4, ELSET=Surface1
1, 815, 1796, 1797, 1794
2, 1794, 1797, 1795, 807
3, 1797, 61, 72, 1795
4, 1796, 71, 61, 1797
5, 807, 1795, 1800, 1798
6, 1798, 1800, 1799, 808
7, 1800, 62, 73, 1799
8, 1795, 72, 62, 1800
9, 1803, 521, 384, 2132
10, 1490, 1801, 2710, 1823
11, 1904, 4149, 385, 519
12, 1905, 133, 111, 2539
13, 178, 168, 1808, 1805
14, 1805, 1808, 1806, 752
15, 1808, 1807, 753, 1806
16, 168, 179, 1807, 1808
17, 2809, 4265, 2810, 3776
18, 1809, 1812, 1810, 758
19, 1812, 171, 182, 1810
20, 1811, 181, 171, 1812
21, 2160, 2435, 36, 31
22, 2437, 3782, 2439, 1971
23, 183, 1818, 1819, 172
24, 172, 1819, 1810, 182
25, 1819, 1817, 758, 1810
26, 1818, 757, 1817, 1819
27, 39, 1821, 1822, 33
28, 1785, 3634, 2431, 3759
29, 1352, 810, 3221, 1359
30, 1821, 811, 1820, 1822
31, 4308, 2193, 2712, 1491
32, 1802, 745, 1560, 1801
33, 2194, 4307, 386, 518
34, 746, 2194, 1903, 1825
35, 757, 1818, 1828, 1826
36, 1826, 1828, 1827, 755
37, 1828, 173, 184, 1827
38, 1818, 183, 173, 1828
39, 2114, 3965, 3890, 3956
40, 1340, 1310, 2680, 2708
41, 2704, 713, 192, 1320
42, 1869, 1321, 1641, 1829
43, 715, 190, 1835, 1832
44, 1832, 1835, 1833, 1255
45, 2082, 4155, 2638, 3140
46, 1682, 1330, 1310, 2722
47, 2993, 1976, 2754, 3196
48, 2381, 3039, 1930, 2222
49, 1171, 2994, 1932, 4202
50, 2152, 1653, 2993, 1838
51, 793, 1841, 1842, 1839
52, 1839, 1842, 1840, 792
53, 1842, 438, 466, 1840
54, 1841, 467, 438, 1842
55, 75, 65, 1846, 1843
56, 1843, 1846, 1844, 806
57, 1846, 1845, 805, 1844
58, 65, 76, 1845, 1846
59, 76, 66, 1849, 1845
60, 1845, 1849, 1847, 805
61, 1849, 1848, 804, 1847
62, 66, 77, 1848, 1849
63, 1112, 1894, 2976, 2429
64, 2629, 4222, 4282, 868
65, 751, 2494, 2629, 2610
66, 876, 1783, 1664, 4295
67, 873, 3875, 3478, 4267
68, 716, 189, 1860, 1858
69, 1858, 1860, 1859, 1254
70, 1860, 1832, 1255, 1859
71, 189, 715, 1832, 1860
72, 546, 359, 1864, 1861
73, 1861, 1864, 1862, 860
74, 1864, 1863, 863, 1862
75, 359, 545, 1863, 1864
76, 859, 1866, 1867, 1865
77, 1865, 1867, 1861, 860
78, 1867, 358, 546, 1861
79, 1866, 547, 358, 1867
80, 3669, 3591, 1327, 2362
81, 2679, 1303, 2704, 1683
82, 1868, 3422, 1574, 1741
83, 582, 323, 1873, 1870
84, 1870, 1873, 1871, 970
85, 1873, 1872, 967, 1871
86, 323, 581, 1872, 1873
87, 1875, 1419, 2450, 1417
88, 2911, 1411, 680, 225
89, 2771, 2911, 225, 679
90, 3992, 683, 222, 2096
91, 3858, 3023, 3344, 1307
92, 1318, 2792, 3664, 2693
93, 1759, 1306, 4122, 1674
94, 2997, 4016, 2500, 1947
95, 2287, 914, 3748, 3750
96, 1634, 1881, 913, 3072
97, 3072, 1569, 909, 2996
98, 1970, 2438, 3955, 760
99, 1356, 3798, 1081, 3982
100, 2436, 2795, 2343, 3060
101, 1973, 1589, 2837, 1071
102, 177, 167, 1890, 1888
103, 1888, 1890, 1889, 731
104, 1890, 1805, 752, 1889
105, 167, 178, 1805, 1890
106, 1379, 4129, 3092, 1386
107, 1390, 1373, 2947, 1723
108, 3694, 2843, 1424, 4209
109, 3734, 3983, 3868, 2173
110, 1961, 2830, 626, 279
111, 2819, 2875, 3630, 1099
112, 2226, 3209, 1460, 1508
113, 4233, 820, 3507, 4251
114, 820, 1447, 1547, 3507
115, 1508, 1460, 3468, 2544
116, 1682, 1324, 1831, 1330
117, 1322, 4173, 196, 708
118, 1289, 2705, 4164, 1982
119, 3956, 2083, 1741, 1574
120, 2132, 384, 520, 4124
121, 2193, 2132, 4124, 2712
122, 2131, 1802, 1801, 1490
123, 2193, 1561, 1803, 2132
124, 3703, 3003, 1044, 1042
125, 3034, 1018, 301, 603
126, 3704, 1150, 1541, 1018
127, 1039, 1040, 1024, 2472
128, 3646, 4268, 1514, 1911
129, 3895, 1854, 1572, 852
130, 4298, 4294, 739, 4123
131, 4285, 2444, 751, 4284
132, 3490, 4012, 1108, 3146
133, 1139, 1481, 1981, 3204
134, 3576, 1914, 1131, 2270
135, 1151, 1132, 1850, 3338
136, 3158, 2888, 3299, 3329
137, 3719, 3244, 4130, 1967
138, 1969, 2931, 1059, 1060
139, 2795, 1078, 2301, 2343
140, 3667, 3425, 3460, 2216
141, 1562, 816, 1556, 3469
142, 4242, 4241, 2227, 2090
143, 4252, 2089, 2685, 4235
144, 3233, 1381, 3883, 4199
145, 1917, 942, 3257, 3259
146, 2434, 3157, 948, 944
147, 1919, 2057, 3855, 3130
148, 1721, 1918, 2057, 3905
149, 3571, 2381, 2222, 2394
150, 1978, 2898, 1837, 795
151, 3272, 2723, 4033, 3304
152, 4033, 3434, 1234, 4103
153, 2187, 2262, 2981, 1464
154, 4310, 777, 1529, 779
155, 779, 1529, 1528, 2966
156, 4309, 2973, 393, 511
157, 2445, 3869, 1696, 955
158, 3270, 2087, 2111, 2870
159, 2980, 2015, 1045, 2838
160, 4010, 3914, 3156, 2298
161, 784, 3306, 3998, 3999
162, 1187, 2453, 1180, 783
163, 1169, 769, 1500, 1213
164, 1717, 1966, 2779, 4165
165, 2919, 1069, 1068, 3720
166, 3955, 1886, 1077, 1087
167, 1080, 1073, 2340, 1786
168, 1881, 3736, 3901, 913
169, 905, 2719, 1633, 1883
170, 3881, 2718, 1765, 2978
171, 2997, 3881, 2978, 4016
172, 2109, 2213, 3113, 3112
173, 3996, 2212, 2852, 3602
174, 1763, 3303, 2252, 2264
175, 4096, 4216, 4196, 3997
176, 2387, 4142, 1955, 1558
177, 1210, 2093, 1954, 4086
178, 1567, 2204, 1706, 1204
179, 2058, 927, 3179, 4184
180, 2501, 931, 3932, 3964
181, 3242, 4052, 2646, 947
182, 1958, 2410, 3258, 946
183, 4142, 2556, 2188, 1955
184, 777, 119, 126, 1933
185, 777, 1933, 1465, 1529
186, 1955, 2188, 506, 399
187, 4078, 1095, 3659, 2242
188, 2308, 3051, 1894, 1112
189, 2267, 2029, 3660, 3988
190, 1107, 3661, 3301, 2818
191, 673, 232, 1965, 1962
192, 1962, 1965, 1963, 1423
193, 1965, 1964, 1424, 1963
194, 232, 672, 1964, 1965
195, 3871, 726, 2562, 3141
196, 3871, 3718, 1494, 1614
197, 3718, 1716, 1923, 1494
198, 3461, 1087, 3798, 1356
199, 3759, 3016, 1792, 719
200, 2156, 32, 38, 1972
201, 1087, 1077, 2161, 3798
202, 3178, 2058, 4184, 2781
203, 3933, 928, 336, 568
204, 762, 3887, 1172, 3941
205, 1651, 473, 432, 2868
206, 2896, 768, 3943, 3944
207, 2724, 1171, 4202, 3199
208, 1137, 3927, 1121, 3574
209, 2354, 630, 275, 2240
210, 1324, 2101, 1309, 1831
211, 4216, 1456, 2730, 4196
212, 1953, 2134, 1400, 1333
213, 3023, 1297, 3985, 3344
214, 675, 230, 1987, 1984
215, 1984, 1987, 1985, 1420
216, 1987, 1986, 1422, 1985
217, 230, 674, 1986, 1987
218, 1754, 868, 1755, 2633
219, 870, 1578, 3476, 871
220, 3895, 852, 3875, 873
221, 2497, 4280, 1989, 3511
222, 180, 1993, 1994, 169
223, 169, 1994, 1807, 179
224, 1994, 1992, 753, 1807
225, 756, 4188, 4068, 4265
226, 4272, 4271, 3189, 2498
227, 2665, 1664, 3647, 861
228, 863, 1863, 4115, 4271
229, 2916, 877, 2495, 3070
230, 1533, 261, 643, 2384
231, 1921, 1070, 2384, 2217
232, 2001, 3947, 1277, 1596
233, 2357, 4045, 717, 188
234, 2355, 3151, 3046, 3150
235, 964, 2004, 2005, 2003
236, 2003, 2005, 1928, 961
237, 2005, 325, 579, 1928
238, 2004, 580, 325, 2005
239, 1506, 3455, 2465, 2735
240, 2948, 1503, 4204, 2571
241, 3732, 3457, 1379, 1386
242, 2009, 4299, 1364, 3226
243, 3643, 933, 570, 335
244, 3414, 1958, 946, 1626
245, 943, 330, 574, 3160
246, 2102, 1722, 936, 930
247, 3769, 3768, 2412, 2280
248, 3364, 1035, 2565, 2261
249, 800, 1719, 2907, 1718
250, 2020, 440, 464, 2018
251, 2019, 465, 440, 2020
252, 899, 4073, 2347, 908
253, 1569, 1949, 905, 909
254, 855, 908, 2347, 4217
255, 2776, 2405, 2286, 1635
256, 2016, 2489, 951, 2668
257, 2094, 1032, 1031, 2747
258, 2951, 2280, 2669, 1027
259, 3661, 1106, 2873, 3301
260, 3630, 3052, 2886, 2029
261, 4098, 2308, 1118, 3629
262, 2033, 443, 461, 2031
263, 2032, 462, 443, 2033
264, 2457, 3505, 785, 1943
265, 1178, 4026, 2035, 2849
266, 2037, 2036, 789, 2035
267, 427, 477, 2036, 2037
268, 1151, 3815, 2882, 1139
269, 2265, 3841, 1916, 2250
270, 2446, 2975, 1123, 2447
271, 1132, 1154, 1135, 3337
272, 78, 68, 2045, 2042
273, 2042, 2045, 2043, 763
274, 2045, 2044, 766, 2043
275, 68, 79, 2044, 2045
276, 2197, 1586, 3790, 2936
277, 1514, 541, 364, 1988
278, 2495, 4133, 3672, 738
279, 4271, 4115, 2292, 3189
280, 883, 1666, 379, 525
281, 3779, 534, 371, 3934
282, 2623, 2169, 2307, 2306
283, 2694, 1674, 195, 709
284, 3857, 2757, 3023, 3858
285, 2972, 3407, 3564, 2061
286, 967, 1872, 2055, 2054
287, 2054, 2055, 2004, 964
288, 2055, 324, 580, 2004
289, 1872, 581, 324, 2055
290, 1679, 925, 2012, 2056
291, 4192, 932, 3986, 4040
292, 1928, 579, 326, 2645
293, 3130, 3855, 578, 327
294, 77, 67, 2060, 1848
295, 1848, 2060, 2059, 804
296, 2060, 2042, 763, 2059
297, 67, 78, 2042, 2060
298, 1399, 3601, 2348, 2729
299, 2851, 1454, 3707, 4190
300, 3706, 3550, 3638, 3774
301, 3766, 1658, 3781, 3780
302, 3900, 2775, 3097, 2833
303, 3900, 3240, 4214, 2861
304, 2066, 346, 558, 2064
305, 2065, 559, 346, 2066
306, 1157, 2069, 2070, 2067
307, 2067, 2070, 2068, 1158
308, 2070, 292, 612, 2068
309, 2069, 613, 292, 2070
310, 548, 357, 2073, 2071
311, 2071, 2073, 2072, 856
312, 2073, 1866, 859, 2072
313, 357, 547, 1866, 2073
314, 2182, 3078, 2074, 4223
315, 1790, 2331, 1393, 4102
316, 1788, 3861, 226, 678
317, 2169, 886, 3154, 2307
318, 3826, 2577, 749, 2576
319, 3715, 3714, 2623, 3826
320, 73, 63, 2081, 1799
321, 1799, 2081, 2079, 808
322, 2081, 2080, 809, 2079
323, 63, 74, 2080, 2081
324, 2218, 1486, 197, 707
325, 1333, 1400, 3025, 2053
326, 460, 445, 2086, 2084
327, 800, 1263, 3177, 1719
328, 2732, 3444, 3583, 1263
329, 975, 2987, 1549, 1628
330, 3109, 2949, 2900, 2260
331, 3673, 1542, 3164, 4035
332, 4239, 4238, 1924, 2091
333, 2089, 1555, 1442, 2685
334, 4254, 4244, 2226, 4243
335, 4236, 1899, 4233, 4251
336, 1559, 1708, 6, 107
337, 1707, 1959, 4197, 2206
338, 1205, 3801, 3952, 2205
339, 2747, 1031, 3007, 2842
340, 1031, 2955, 4099, 3007
341, 2165, 1413, 1435, 1408
342, 3117, 221, 683, 3992
343, 1397, 2450, 2075, 3409
344, 3890, 2864, 3062, 1880
345, 1902, 1901, 1759, 2726
346, 2100, 2219, 3137, 1321
347, 2362, 1327, 2430, 1576
348, 2952, 942, 1917, 2890
349, 3180, 2891, 3158, 3532
350, 1606, 3451, 2757, 3857
351, 2709, 1290, 3322, 2802
352, 2878, 2877, 3247, 2474
353, 2789, 3279, 2865, 2106
354, 1607, 1292, 3184, 1294
355, 974, 3543, 1585, 956
356, 976, 1011, 587, 318
357, 2989, 3223, 3870, 4169
358, 4109, 3799, 2025, 3145
359, 1301, 1318, 3965, 2114
360, 1709, 1879, 1901, 1902
361, 1900, 2113, 1328, 2101
362, 1313, 3128, 3931, 3127
363, 1891, 2948, 2571, 3949
364, 2520, 1736, 4205, 2522
365, 3394, 1595, 3969, 2001
366, 1644, 1645, 3929, 1247
367, 2119, 442, 462, 2032
368, 2118, 463, 442, 2119
369, 633, 272, 2123, 2120
370, 2120, 2123, 2121, 1103
371, 2123, 2122, 1104, 2121
372, 272, 632, 2122, 2123
373, 3552, 2124, 1781, 2827
374, 2139, 3758, 1522, 2960
375, 2825, 2826, 3374, 2140
376, 3683, 495, 410, 2415
377, 3240, 3385, 3537, 3536
378, 2775, 3897, 2525, 3097
379, 2130, 347, 557, 2129
380, 2064, 558, 347, 2130
381, 1802, 132, 112, 745
382, 744, 2804, 115, 130
383, 745, 112, 133, 1905
384, 3104, 2538, 2880, 1824
385, 2481, 3220, 2746, 975
386, 1024, 3005, 2957, 4101
387, 3831, 1026, 3607, 3608
388, 3287, 2878, 2052, 1341
389, 1702, 200, 704, 2535
390, 3286, 697, 208, 2496
391, 3382, 3063, 1331, 2136
392, 2236, 2238, 3115, 4313
393, 3293, 2141, 770, 3645
394, 1355, 2144, 2145, 2142
395, 3326, 2160, 31, 37
396, 1775, 1602, 2927, 3015
397, 2144, 655, 250, 2145
398, 657, 248, 2149, 2146
399, 2146, 2149, 2147, 1353
400, 2149, 2148, 1354, 2147
401, 248, 656, 2148, 2149
402, 2220, 1652, 1727, 3942
403, 3305, 1725, 3040, 1726
404, 1977, 1230, 436, 468
405, 74, 64, 2154, 2080
406, 2080, 2154, 2153, 809
407, 2154, 1843, 806, 2153
408, 64, 75, 1843, 2154
409, 3120, 3709, 4130, 3244
410, 1815, 253, 651, 4224
411, 1576, 2430, 4122, 1306
412, 2878, 2474, 3183, 2052
413, 2857, 2817, 3796, 3310
414, 2837, 256, 648, 1074
415, 4160, 3289, 2934, 2432
416, 1887, 3982, 1590, 1357
417, 3313, 2341, 1075, 3635
418, 3079, 1762, 1396, 1404
419, 2163, 2166, 2164, 1421
420, 2166, 228, 676, 2164
421, 2905, 3410, 3937, 3893
422, 1665, 3508, 377, 527
423, 3713, 139, 153, 2050
424, 2009, 3226, 811, 2585
425, 1723, 2947, 4046, 2007
426, 3064, 2117, 3090, 1383
427, 3868, 2940, 1389, 3867
428, 562, 343, 2178, 2175
429, 2175, 2178, 2176, 921
430, 920, 3096, 3098, 826
431, 343, 561, 2177, 2178
432, 2773, 2099, 2427, 1410
433, 3082, 2097, 1431, 3012
434, 2098, 2773, 3936, 2784
435, 2427, 1761, 3859, 2770
436, 723, 2185, 2186, 2183
437, 2183, 2186, 2184, 721
438, 2186, 12, 22, 2184
439, 2185, 21, 12, 2186
440, 2282, 118, 127, 1544
441, 2204, 4148, 2556, 1706
442, 2204, 1707, 2206, 4148
443, 1559, 1205, 2205, 1567
444, 658, 247, 2191, 2189
445, 2189, 2191, 2190, 1361
446, 2191, 2146, 1353, 2190
447, 247, 657, 2146, 2191
448, 3080, 2805, 2711, 775
449, 1560, 3104, 1824, 1804
450, 745, 1905, 3104, 1560
451, 2711, 2805, 388, 516
452, 2180, 1418, 681, 224
453, 2784, 3936, 3079, 3100
454, 4255, 4272, 2498, 4296
455, 4270, 3190, 1909, 1571
456, 894, 370, 534, 3779
457, 4279, 540, 365, 1489
458, 2442, 1021, 1630, 2986
459, 3311, 2668, 1583, 3043
460, 4035, 3164, 3606, 3364
461, 3215, 3423, 2440, 2490
462, 632, 273, 2202, 2122
463, 2122, 2202, 2201, 1104
464, 2202, 1895, 1105, 2201
465, 273, 631, 1895, 2202
466, 2203, 170, 181, 1811
467, 1993, 180, 170, 2203
468, 3924, 2527, 2554, 1209
469, 3440, 2459, 1208, 1566
470, 2973, 1935, 512, 393
471, 3800, 4138, 510, 395
472, 1956, 2967, 2582, 776
473, 3768, 1046, 310, 594
474, 2228, 1698, 3076, 3075
475, 954, 3269, 3514, 3512
476, 3220, 3530, 2014, 2746
477, 2053, 3025, 2850, 1314
478, 3979, 2786, 1953, 3562
479, 3303, 2211, 3754, 2252
480, 1704, 1705, 3984, 1403
481, 944, 948, 329, 575
482, 2372, 838, 565, 340
483, 961, 1928, 2645, 1918
484, 1945, 1056, 2246, 1922
485, 1944, 1058, 635, 270
486, 2248, 2778, 1766, 2378
487, 3957, 714, 191, 1303
488, 1330, 1831, 2759, 3437
489, 1652, 3002, 1236, 1727
490, 4175, 3274, 768, 2896
491, 3942, 3624, 1165, 2899
492, 583, 322, 2225, 2223
493, 2223, 2225, 2224, 972
494, 2225, 1870, 970, 2224
495, 322, 582, 1870, 2225
496, 4242, 1508, 2544, 4241
497, 1897, 2684, 1796, 815
498, 4239, 3686, 3210, 4238
499, 3208, 2546, 1554, 1899
500, 4111, 1006, 3270, 3543
501, 958, 1002, 1012, 2988
502, 3269, 1937, 3369, 3514
503, 3526, 2230, 1009, 2990
504, 4205, 3697, 243, 661
505, 3685, 2813, 3346, 2115
506, 3733, 2942, 4303, 2814
507, 3949, 2571, 3455, 1506
508, 2850, 2062, 3088, 1314
509, 2817, 2788, 1291, 3796
510, 2383, 4193, 2528, 780
511, 4219, 401, 503, 3691
512, 2827, 1781, 492, 413
513, 1781, 4221, 412, 492
514, 464, 441, 2239, 2018
515, 2030, 3391, 2748, 2767
516, 441, 463, 2118, 2239
517, 2886, 3074, 4092, 1100
518, 2820, 629, 276, 3631
519, 4028, 3420, 4017, 2507
520, 790, 2244, 2245, 2243
521, 2243, 2245, 1929, 791
522, 2245, 429, 475, 1929
523, 2244, 476, 429, 2245
524, 2884, 2920, 2777, 1966
525, 3464, 3667, 4125, 1067
526, 1093, 1999, 266, 638
527, 1151, 1139, 3204, 1134
528, 2447, 1123, 614, 291
529, 4072, 3515, 1474, 1142
530, 3337, 1915, 2975, 1124
531, 2159, 2104, 2157, 2137
532, 461, 444, 2254, 2031
533, 4126, 1621, 1536, 1496
534, 2764, 2983, 1258, 3466
535, 444, 460, 2084, 2254
536, 1158, 2068, 2257, 2255
537, 2255, 2257, 2256, 1149
538, 2257, 293, 611, 2256
539, 2068, 612, 293, 2257
540, 1479, 2600, 2471, 3035
541, 1631, 3311, 3043, 998
542, 2273, 3578, 1907, 3579
543, 2871, 1672, 4158, 952
544, 1002, 2112, 1939, 4194
545, 1017, 1007, 3906, 2291
546, 775, 2262, 2263, 2192
547, 2192, 2263, 117, 128
548, 1529, 1465, 1934, 1528
549, 1206, 3800, 395, 509
550, 2329, 2972, 2061, 2330
551, 1979, 1155, 1610, 1686
552, 2462, 3341, 3487, 2881
553, 1677, 3489, 1130, 1656
554, 3339, 3216, 1478, 1053
555, 1737, 3532, 923, 2501
556, 1927, 3533, 3534, 3415
557, 1853, 1136, 3420, 4028
558, 1099, 3630, 2029, 2267
559, 3515, 283, 621, 1474
560, 2472, 1024, 4101, 3036
561, 2600, 2417, 2741, 2471
562, 2356, 1582, 4045, 2357
563, 3046, 3151, 1262, 1582
564, 945, 2790, 932, 4192
565, 1780, 2752, 2278, 3359
566, 2751, 3180, 3532, 1737
567, 949, 958, 2988, 2950
568, 2990, 1009, 320, 584
569, 2207, 303, 601, 1519
570, 1035, 2473, 3266, 1020
571, 778, 3800, 1206, 1957
572, 4310, 1956, 120, 125
573, 2557, 778, 1957, 2574
574, 776, 2582, 778, 2557
575, 1144, 1968, 2285, 2284
576, 2284, 2285, 2120, 1103
577, 2285, 271, 633, 2120
578, 1968, 634, 271, 2285
579, 2995, 1947, 3970, 4061
580, 2499, 2720, 4015, 846
581, 2500, 2717, 3053, 3971
582, 3657, 3656, 552, 353
583, 1855, 3959, 3915, 853
584, 4278, 1754, 2633, 4297
585, 892, 742, 3651, 3671
586, 2444, 882, 2494, 751
587, 1671, 4181, 1010, 3363
588, 1014, 1017, 2291, 2411
589, 1488, 874, 368, 536
590, 3790, 881, 1487, 3615
591, 1586, 3480, 881, 3790
592, 2292, 544, 361, 4276
593, 79, 69, 2295, 2044
594, 2044, 2295, 2294, 766
595, 2295, 80, 94, 2294
596, 69, 5, 80, 2295
597, 2619, 3867, 3457, 3732
598, 2173, 3868, 3867, 2619
599, 4304, 1507, 1733, 3122
600, 2942, 4007, 1375, 4303
601, 3548, 787, 1548, 4048
602, 3862, 1174, 3324, 1750
603, 2365, 3172, 1178, 3181
604, 1814, 1553, 1602, 1775
605, 1074, 648, 257, 2341
606, 1084, 252, 652, 3462
607, 3326, 3379, 2794, 2160
608, 3934, 371, 533, 2078
609, 748, 2482, 134, 110
610, 1135, 2265, 2250, 3812
611, 1136, 1116, 2350, 4183
612, 2831, 1133, 1122, 4027
613, 2270, 1131, 2883, 2039
614, 1260, 4198, 1312, 1597
615, 3910, 3729, 3128, 3664
616, 2337, 2982, 2345, 3968
617, 163, 150, 2316, 2313
618, 2313, 2316, 2314, 732
619, 2316, 2315, 734, 2314
620, 150, 164, 2315, 2316
621, 915, 2499, 846, 1764
622, 2317, 2319, 2318, 845
623, 2319, 355, 549, 2318
624, 2022, 1883, 1882, 3735
625, 1242, 1580, 3961, 4014
626, 3929, 2017, 2084, 2086
627, 3541, 1681, 3195, 3452
628, 2909, 2085, 2887, 2733
629, 1180, 416, 488, 1217
630, 3205, 4195, 2650, 2324
631, 4128, 4132, 1471, 3654
632, 3291, 4064, 1168, 4025
633, 164, 151, 2327, 2315
634, 2315, 2327, 2326, 734
635, 2327, 165, 176, 2326
636, 151, 8, 165, 2327
637, 2348, 1317, 1704, 1298
638, 1344, 3602, 1342, 3089
639, 2782, 1409, 1876, 1405
640, 3099, 1417, 3248, 2783
641, 2783, 3248, 3013, 3010
642, 3081, 1415, 1398, 2098
643, 3081, 3892, 3491, 4082
644, 2179, 3590, 3589, 2772
645, 185, 175, 2335, 2333
646, 2333, 2335, 2334, 722
647, 2335, 10, 20, 2334
648, 175, 1, 10, 2335
649, 4110, 803, 2449, 3316
650, 802, 2312, 186, 9
651, 2355, 3150, 2322, 2321
652, 4171, 1266, 2274, 3194
653, 949, 2987, 2872, 958
654, 2338, 2339, 2223, 972
655, 2339, 321, 583, 2223
656, 2339, 2990, 584, 321
657, 3759, 2431, 1813, 3016
658, 2652, 4218, 29, 35
659, 2156, 3325, 3312, 2903
660, 2794, 761, 1079, 1088
661, 2903, 3312, 1814, 1076
662, 1884, 2836, 1970, 761
663, 1261, 2946, 1265, 3604
664, 3020, 3665, 2344, 1248
665, 3150, 3046, 3022, 3021
666, 4185, 4171, 3194, 803
667, 1948, 2024, 3916, 3919
668, 1569, 3749, 1635, 1949
669, 1635, 2286, 4153, 1949
670, 2286, 844, 848, 4153
671, 3303, 1284, 1983, 2211
672, 1298, 1704, 1403, 1457
673, 3555, 4089, 2859, 2134
674, 3111, 1878, 3555, 2786
675, 4078, 2242, 3661, 1107
676, 2242, 3658, 1106, 3661
677, 3488, 4092, 277, 627
678, 3073, 2267, 3988, 2944
679, 2211, 1657, 3302, 3754
680, 3382, 2136, 3342, 1296
681, 3850, 4047, 4096, 3603
682, 2241, 282, 622, 1129
683, 3490, 1913, 2806, 4012
684, 3119, 2028, 2354, 4176
685, 3812, 2250, 2271, 4011
686, 2357, 1858, 1254, 2356
687, 188, 716, 1858, 2357
688, 560, 345, 2360, 2358
689, 826, 3238, 3896, 2128
690, 345, 559, 2065, 2360
691, 3287, 1341, 1952, 4212
692, 1301, 4076, 1312, 4198
693, 3127, 3931, 2637, 3024
694, 3283, 3182, 1220, 1940
695, 2324, 1163, 2480, 4064
696, 787, 3501, 2034, 1548
697, 1030, 2258, 2442, 973
698, 2368, 1604, 3872, 1159
699, 1541, 3035, 300, 604
700, 2943, 4030, 3423, 3215
701, 2741, 3331, 606, 299
702, 2957, 3265, 3264, 3263
703, 3532, 3158, 3329, 923
704, 2372, 2371, 833, 2370
705, 340, 564, 2371, 2372
706, 1422, 1986, 2374, 2373
707, 2373, 2374, 1962, 1423
708, 2374, 231, 673, 1962
709, 1986, 674, 231, 2374
710, 2375, 1058, 1944, 1495
711, 2377, 3464, 1067, 2398
712, 2217, 262, 642, 1612
713, 1716, 2377, 2398, 1923
714, 1613, 2921, 3741, 728
715, 1766, 1098, 2885, 1145
716, 1666, 3712, 526, 379
717, 4180, 2553, 1666, 883
718, 1929, 475, 430, 797
719, 3887, 3272, 3304, 2725
720, 2867, 791, 3570, 1931
721, 794, 2382, 1230, 1977
722, 1566, 1208, 404, 500
723, 773, 1211, 1776, 3439
724, 3596, 502, 403, 3953
725, 1534, 641, 264, 1768
726, 3203, 1774, 1062, 1769
727, 3464, 2247, 3425, 3667
728, 3791, 2386, 1207, 3597
729, 1933, 126, 118, 2282
730, 779, 2966, 1936, 2281
731, 4062, 4180, 883, 2463
732, 3154, 2552, 2464, 750
733, 2170, 2622, 531, 374
734, 2050, 153, 2918, 2289
735, 1694, 3717, 265, 639
736, 3061, 3635, 4160, 2475
737, 1786, 2340, 1082, 2390
738, 1724, 1615, 664, 241
739, 1746, 3695, 665, 240
740, 1733, 4166, 1382, 1373
741, 1449, 2006, 3091, 1504
742, 1932, 3275, 2799, 3001
743, 2152, 1838, 1652, 2220
744, 1232, 1978, 3305, 3976
745, 3271, 3944, 2753, 2898
746, 891, 1771, 887, 895
747, 884, 3856, 136, 108
748, 1771, 3101, 3714, 3715
749, 1771, 3715, 2388, 887
750, 3973, 2366, 2457, 3403
751, 1220, 1565, 1184, 2762
752, 3306, 3864, 4097, 3998
753, 1966, 2777, 1946, 2779
754, 3460, 3720, 637, 268
755, 2398, 1067, 2991, 2778
756, 3374, 1197, 4221, 4330
757, 1190, 411, 493, 1197
758, 1187, 4328, 2126, 2453
759, 3059, 1192, 2138, 3758
760, 2124, 4330, 4221, 1781
761, 772, 2125, 2491, 3094
762, 4314, 4331, 1200, 2403
763, 4323, 1193, 2139, 4322
764, 918, 916, 2063, 2359
765, 3880, 1649, 354, 550
766, 2129, 557, 348, 2406
767, 1362, 2408, 2409, 2407
768, 2407, 2409, 2189, 1361
769, 2409, 246, 658, 2189
770, 2408, 659, 246, 2409
771, 2964, 4207, 577, 328
772, 1958, 831, 924, 2410
773, 3357, 4051, 942, 2952
774, 1016, 954, 3518, 3544
775, 1014, 1001, 3951, 1017
776, 2480, 1212, 1182, 3050
777, 4151, 1750, 424, 480
778, 1750, 3324, 481, 424
779, 3206, 4009, 3361, 3879
780, 4139, 2827, 413, 491
781, 4317, 1196, 3293, 4316
782, 2986, 1630, 2697, 2027
783, 1150, 1479, 3035, 1541
784, 4315, 4314, 2403, 1777
785, 4333, 4319, 1196, 4317
786, 1532, 4220, 4313, 4312
787, 468, 437, 2423, 1977
788, 1977, 2423, 2422, 794
789, 2423, 1841, 793, 2422
790, 437, 467, 1841, 2423
791, 549, 356, 2425, 2318
792, 2318, 2425, 2424, 845
793, 2425, 2071, 856, 2424
794, 356, 548, 2071, 2425
795, 1418, 2912, 223, 681
796, 2906, 3411, 3410, 2905
797, 3936, 2332, 1762, 3079
798, 3494, 3112, 3113, 3214
799, 1981, 4263, 4116, 2266
800, 3301, 2873, 1105, 3119
801, 3341, 1109, 4120, 1684
802, 2875, 2349, 3052, 3630
803, 3925, 3381, 3909, 3980
804, 3280, 204, 700, 2788
805, 1715, 2476, 1601, 1533
806, 3426, 2155, 1773, 2652
807, 2653, 4302, 1793, 1086
808, 1357, 1590, 2795, 2436
809, 3299, 2888, 1695, 3330
810, 2437, 1971, 1056, 1065
811, 2145, 250, 654, 3772
812, 2904, 1074, 2341, 3313
813, 1072, 3760, 3821, 2162
814, 1082, 1693, 2432, 1089
815, 1088, 1079, 2300, 2155
816, 719, 2563, 19, 2
817, 1648, 3650, 3649, 4146
818, 3423, 1028, 2979, 2440
819, 1036, 2490, 2670, 3978
820, 2669, 1005, 1026, 3831
821, 4280, 3662, 2046, 1989
822, 4154, 875, 1996, 898
823, 1588, 3652, 2663, 3510
824, 4260, 3029, 1663, 3068
825, 1003, 2986, 2027, 3799
826, 2840, 2208, 3837, 2666
827, 2260, 2900, 1013, 2230
828, 2806, 1126, 3993, 3814
829, 1154, 1138, 2265, 1135
830, 2447, 2069, 1157, 2446
831, 291, 613, 2069, 2447
832, 3356, 930, 936, 3886
833, 2891, 3241, 2888, 3158
834, 3300, 2269, 1738, 836
835, 2086, 445, 459, 4107
836, 2488, 2999, 2487, 2002
837, 3316, 2449, 3745, 3125
838, 3892, 4031, 3082, 1874
839, 3100, 3079, 1404, 2426
840, 2099, 4215, 1761, 2427
841, 3118, 1877, 1413, 2165
842, 656, 249, 2452, 2148
843, 2148, 2452, 2451, 1354
844, 2452, 2144, 1355, 2451
845, 249, 655, 2144, 2452
846, 2924, 1517, 787, 3548
847, 3878, 2924, 3548, 1174
848, 4134, 2365, 3181, 3864
849, 4195, 1179, 2479, 2650
850, 3307, 4151, 480, 425
851, 3182, 2651, 1565, 1220
852, 1203, 3924, 1209, 3401
853, 1142, 1474, 3152, 4004
854, 4183, 280, 624, 3994
855, 2831, 2353, 1113, 1133
856, 890, 2380, 135, 109
857, 2306, 2307, 3827, 2168
858, 1736, 2233, 3697, 4205
859, 1345, 1348, 3695, 1746
860, 1723, 2007, 4007, 2942
861, 733, 2467, 2468, 2466
862, 2466, 2468, 2313, 732
863, 2468, 149, 163, 2313
864, 2467, 162, 149, 2468
865, 3439, 1776, 2236, 3948
866, 4086, 504, 401, 4219
867, 2458, 402, 502, 3596
868, 2299, 2414, 1219, 1517
869, 3181, 1178, 2849, 2846
870, 3786, 1047, 3003, 3703
871, 3840, 4141, 3939, 2740
872, 1605, 2133, 1604, 2368
873, 3287, 4212, 1454, 2851
874, 3344, 3985, 1702, 2535
875, 1299, 207, 697, 3286
876, 3982, 1081, 2303, 1590
877, 3015, 3761, 3954, 3017
878, 4067, 2934, 646, 259
879, 789, 2036, 2478, 2477
880, 2477, 2478, 2244, 790
881, 2478, 428, 476, 2244
882, 2036, 477, 428, 2478
883, 2455, 2397, 4010, 4065
884, 1941, 417, 487, 2922
885, 1907, 1043, 3253, 2369
886, 1037, 3703, 1042, 3166
887, 1147, 608, 297, 3176
888, 2552, 2293, 1912, 2464
889, 886, 3834, 2552, 3154
890, 4317, 4316, 2419, 2492
891, 2826, 1190, 1197, 3374
892, 2126, 1492, 490, 415
893, 1522, 1188, 2402, 1778
894, 3645, 770, 4220, 1532
895, 3684, 1346, 2296, 3696
896, 4201, 2232, 3794, 3795
897, 1893, 237, 667, 3698
898, 1449, 2548, 2174, 2006
899, 2768, 3126, 3391, 2030
900, 2449, 3945, 2002, 3745
901, 1581, 3316, 3125, 3746
902, 2983, 1246, 2310, 1258
903, 1675, 3020, 1248, 3047
904, 3729, 3930, 3931, 3128
905, 4045, 1637, 187, 717
906, 3839, 3977, 307, 597
907, 4029, 1034, 3578, 2273
908, 2739, 609, 296, 3038
909, 4101, 2957, 3263, 2259
910, 2420, 4139, 491, 414
911, 3621, 2588, 3683, 2401
912, 1197, 493, 412, 4221
913, 1530, 3552, 2827, 4139
914, 3212, 2783, 3010, 4023
915, 2098, 1398, 2099, 2773
916, 1436, 1416, 3117, 2785
917, 4031, 4223, 2097, 3082
918, 4287, 2936, 2443, 4286
919, 3511, 1989, 3026, 4277
920, 3509, 2609, 2916, 2047
921, 1516, 2199, 4008, 1995
922, 2352, 1332, 1951, 1691
923, 1657, 1402, 3601, 1399
924, 1343, 3551, 3550, 3706
925, 862, 2917, 4272, 4255
926, 3652, 3028, 3069, 2663
927, 1487, 3509, 2047, 878
928, 3029, 3071, 892, 1663
929, 2933, 2996, 847, 2021
930, 911, 915, 1764, 4037
931, 1633, 1650, 1570, 2023
932, 847, 2022, 3735, 2718
933, 1779, 3357, 2952, 3187
934, 3358, 929, 2962, 2780
935, 3533, 1739, 825, 3534
936, 1722, 572, 333, 936
937, 833, 2371, 2505, 2503
938, 2503, 2505, 2504, 922
939, 2505, 341, 563, 2504
940, 2371, 564, 341, 2505
941, 1684, 4120, 3335, 3147
942, 3814, 3993, 1127, 1109
943, 4048, 1548, 482, 423
944, 3205, 2324, 4064, 3291
945, 922, 2504, 2510, 2509
946, 2509, 2510, 2175, 921
947, 2510, 342, 562, 2175
948, 2504, 563, 342, 2510
949, 22, 13, 2513, 2184
950, 2184, 2513, 2511, 721
951, 2513, 2512, 724, 2511
952, 13, 23, 2512, 2513
953, 2815, 1712, 2812, 2391
954, 1713, 2171, 1380, 1444
955, 2465, 1384, 1348, 1345
956, 3347, 3456, 1445, 1385
957, 1381, 669, 236, 3883
958, 1372, 2231, 3350, 3348
959, 2812, 2172, 2948, 1891
960, 3455, 3225, 1384, 2465
961, 1391, 1392, 2545, 3922
962, 2520, 2522, 2521, 1363
963, 2522, 244, 660, 2521
964, 2735, 2465, 1345, 3065
965, 722, 2334, 2524, 2523
966, 2523, 2524, 2185, 723
967, 2524, 11, 21, 2185
968, 2334, 20, 11, 2524
969, 561, 344, 2526, 2177
970, 2862, 904, 2834, 2835
971, 3897, 2832, 4091, 904
972, 344, 560, 2358, 2526
973, 781, 1960, 2386, 3791
974, 1211, 2469, 2460, 1776
975, 3400, 2458, 3596, 4152
976, 2469, 1566, 500, 405
977, 726, 2531, 2532, 2529
978, 2529, 2532, 18, 28
979, 2532, 2530, 27, 18
980, 2531, 728, 2530, 2532
981, 792, 1840, 2534, 2533
982, 2533, 2534, 2019, 798
983, 2534, 439, 465, 2019
984, 1840, 466, 439, 2534
985, 1305, 1304, 2108, 3380
986, 2052, 3183, 3382, 1296
987, 2167, 1772, 3834, 886
988, 720, 373, 531, 2622
989, 3508, 3832, 528, 377
990, 2380, 748, 110, 135
991, 676, 229, 2537, 2164
992, 2164, 2537, 2536, 1421
993, 2537, 1984, 1420, 2536
994, 229, 675, 1984, 2537
995, 134, 2482, 2539, 111
996, 4308, 114, 131, 2902
997, 2712, 4124, 4149, 1904
998, 2482, 747, 2538, 2539
999, 95, 82, 2543, 2540
1000, 2540, 2543, 2541, 765
1001, 2543, 2542, 764, 2541
1002, 82, 96, 2542, 2543
1003, 1899, 1554, 4234, 4233
1004, 1458, 1564, 4150, 4240
1005, 2591, 4225, 44, 54
1006, 4236, 4251, 4225, 2591
1007, 50, 2549, 2550, 40
1008, 40, 2550, 2547, 3
1009, 2550, 2548, 730, 2547
1010, 2571, 4204, 3225, 3455
1011, 2168, 3827, 2078, 2389
1012, 2624, 152, 139, 3713
1013, 884, 3778, 1587, 3856
1014, 2078, 533, 372, 2389
1015, 3801, 396, 508, 3952
1016, 3262, 306, 598, 3261
1017, 2839, 2842, 4145, 2210
1018, 1035, 1020, 2807, 2565
1019, 4036, 1160, 3377, 1046
1020, 4086, 1954, 400, 504
1021, 3822, 3791, 3597, 2581
1022, 1708, 1204, 782, 3103
1023, 867, 1997, 4256, 4281
1024, 3738, 1571, 1577, 3028
1025, 3713, 2050, 2575, 888
1026, 4179, 1467, 367, 537
1027, 28, 19, 2563, 2529
1028, 2529, 2563, 2562, 726
1029, 1923, 2398, 2778, 2248
1030, 3084, 3215, 2490, 1036
1031, 1519, 601, 304, 1021
1032, 1028, 3376, 1004, 2979
1033, 2209, 1632, 1029, 3237
1034, 1363, 2521, 2567, 2566
1035, 2566, 2567, 2408, 1362
1036, 2567, 245, 659, 2408
1037, 2521, 660, 245, 2567
1038, 766, 2294, 2569, 2568
1039, 2568, 2569, 2540, 765
1040, 2569, 81, 95, 2540
1041, 2294, 94, 81, 2569
1042, 1956, 776, 124, 120
1043, 2966, 513, 392, 1936
1044, 1558, 1955, 399, 505
1045, 2093, 2387, 1558, 1954
1046, 1545, 818, 4252, 4235
1047, 41, 2573, 2549, 50
1048, 1615, 1746, 240, 664
1049, 1391, 1714, 817, 1392
1050, 3691, 503, 402, 2458
1051, 1559, 107, 123, 2574
1052, 1959, 397, 507, 4197
1053, 2283, 2187, 1464, 4114
1054, 3832, 2305, 376, 528
1055, 2879, 2463, 380, 524
1056, 2577, 2306, 2168, 2304
1057, 2389, 372, 532, 889
1058, 23, 14, 2580, 2512
1059, 2512, 2580, 2578, 724
1060, 1137, 1677, 1656, 3927
1061, 14, 24, 2579, 2580
1062, 1557, 3822, 92, 106
1063, 734, 2326, 2584, 2583
1064, 2583, 2584, 1888, 731
1065, 2584, 166, 177, 1888
1066, 2326, 176, 166, 2584
1067, 3, 2547, 2586, 34
1068, 34, 2586, 1821, 39
1069, 2586, 2585, 811, 1821
1070, 2547, 730, 2585, 2586
1071, 3399, 4152, 2459, 3440
1072, 2587, 2590, 90, 104
1073, 2419, 1777, 3058, 2125
1074, 2939, 408, 496, 3093
1075, 2514, 4199, 4300, 1371
1076, 816, 4226, 818, 1556
1077, 4243, 4242, 2090, 3686
1078, 2635, 1896, 2572, 2546
1079, 3924, 780, 1202, 2527
1080, 2581, 2595, 91, 105
1081, 2595, 2587, 104, 91
1082, 1203, 2383, 780, 3924
1083, 24, 15, 2597, 2579
1084, 725, 1473, 3546, 989
1085, 3721, 2578, 2580, 2579
1086, 15, 25, 2596, 2597
1087, 2462, 3814, 1109, 3341
1088, 2598, 2601, 1817, 757
1089, 2601, 2599, 758, 1817
1090, 3561, 3577, 1000, 1019
1091, 984, 2604, 2605, 2602
1092, 2602, 2605, 1806, 753
1093, 2605, 2603, 752, 1806
1094, 2604, 981, 2603, 2605
1095, 96, 83, 2608, 2542
1096, 2542, 2608, 2606, 764
1097, 2608, 2607, 767, 2606
1098, 83, 97, 2607, 2608
1099, 3027, 2937, 1588, 4213
1100, 879, 4259, 1586, 2197
1101, 2663, 3069, 1856, 2288
1102, 2630, 876, 4295, 1573
1103, 749, 2613, 2170, 3833
1104, 2395, 138, 152, 2624
1105, 2305, 2483, 529, 376
1106, 3712, 2379, 378, 526
1107, 735, 2615, 2616, 2614
1108, 2614, 2616, 2467, 733
1109, 2616, 148, 162, 2467
1110, 2615, 161, 148, 2616
1111, 1160, 2209, 3237, 3377
1112, 2599, 2618, 1809, 758
1113, 994, 1811, 1812, 1809
1114, 4117, 1476, 3819, 3816
1115, 2970, 1448, 3679, 1925
1116, 3680, 813, 43, 53
1117, 1564, 1459, 1562, 4150
1118, 4234, 1898, 820, 4233
1119, 2049, 4080, 3778, 884
1120, 747, 4062, 2463, 2879
1121, 891, 2395, 3101, 1771
1122, 2464, 1912, 894, 3779
1123, 26, 17, 2627, 2625
1124, 2625, 2627, 2626, 727
1125, 2627, 2530, 728, 2626
1126, 17, 27, 2530, 2627
1127, 2199, 4203, 1782, 4008
1128, 1991, 871, 4255, 4296
1129, 1989, 2046, 1488, 3026
1130, 2632, 738, 876, 2630
1131, 2293, 2497, 3511, 1912
1132, 4156, 2631, 1730, 4258
1133, 4288, 2197, 2936, 4287
1134, 2612, 2167, 886, 2169
1135, 3787, 2671, 1194, 1743
1136, 4066, 3170, 3622, 3787
1137, 4066, 1500, 1461, 3170
1138, 3698, 667, 238, 1734
1139, 2684, 60, 71, 1796
1140, 1896, 3469, 1556, 2572
1141, 4237, 4236, 2591, 4143
1142, 1329, 2639, 2640, 2637
1143, 2760, 2726, 2694, 4173
1144, 1879, 2362, 1576, 1901
1145, 2639, 1255, 1833, 2640
1146, 1254, 1859, 2643, 2641
1147, 2641, 2643, 2642, 1256
1148, 2643, 2639, 1329, 2642
1149, 1859, 1255, 2639, 2643
1150, 25, 16, 2644, 2596
1151, 1119, 2596, 2644, 4058
1152, 1090, 1091, 4005, 1591
1153, 16, 26, 2625, 2644
1154, 2448, 960, 3086, 959
1155, 3178, 2662, 926, 2058
1156, 4301, 4040, 3643, 2277
1157, 1191, 1742, 3169, 3373
1158, 3057, 1162, 87, 101
1159, 3622, 3789, 4208, 3911
1160, 3760, 650, 255, 3821
1161, 3761, 3772, 3014, 3954
1162, 1972, 38, 33, 1822
1163, 3014, 251, 653, 3121
1164, 97, 84, 2656, 2607
1165, 2037, 4144, 478, 427
1166, 3282, 1700, 1215, 3290
1167, 84, 98, 2655, 2656
1168, 3394, 2766, 2320, 1595
1169, 3690, 3443, 2765, 4306
1170, 2648, 2661, 2215, 2965
1171, 1918, 2645, 3855, 2057
1172, 4298, 4123, 1854, 3895
1173, 4133, 1662, 2559, 3672
1174, 869, 1988, 4279, 1468
1175, 1911, 1514, 1988, 869
1176, 2746, 2872, 2987, 975
1177, 3109, 2260, 1698, 2228
1178, 998, 3043, 3835, 2290
1179, 2440, 2979, 3220, 2481
1180, 3828, 2441, 2209, 1160
1181, 3611, 1629, 3376, 1028
1182, 1182, 3290, 2456, 2508
1183, 1461, 771, 1510, 3170
1184, 1701, 3281, 1187, 783
1185, 4066, 3787, 1743, 1183
1186, 2736, 3923, 1689, 2738
1187, 965, 2672, 3009, 1667
1188, 2674, 2738, 2672, 965
1189, 3923, 972, 2224, 1689
1190, 1369, 2677, 2678, 2675
1191, 2675, 2678, 2676, 1370
1192, 2678, 2190, 1353, 2676
1193, 2677, 1361, 2190, 2678
1194, 1880, 3062, 1900, 1325
1195, 1831, 1309, 1869, 2759
1196, 4069, 1323, 1830, 1311
1197, 2801, 2105, 2860, 2953
1198, 1669, 1668, 1690, 966
1199, 2673, 969, 971, 3397
1200, 2683, 2660, 962, 2682
1201, 2003, 961, 2660, 2683
1202, 1925, 3679, 1450, 4131
1203, 4240, 4150, 2969, 4253
1204, 4237, 3208, 1899, 4236
1205, 3507, 1547, 1448, 2970
1206, 736, 2687, 2688, 2686
1207, 2686, 2688, 2615, 735
1208, 2688, 147, 161, 2615
1209, 2687, 160, 147, 2688
1210, 184, 174, 2690, 1827
1211, 1827, 2690, 2689, 755
1212, 2690, 2333, 722, 2689
1213, 174, 185, 2333, 2690
1214, 737, 2664, 2692, 2691
1215, 2691, 2692, 2687, 736
1216, 2692, 146, 160, 2687
1217, 2664, 159, 146, 2692
1218, 1327, 711, 194, 2430
1219, 2726, 1759, 1674, 2694
1220, 3965, 2706, 2864, 3890
1221, 2693, 1313, 1289, 2706
1222, 1353, 2147, 2696, 2676
1223, 2676, 2696, 1647, 1370
1224, 2696, 2695, 1360, 1647
1225, 2147, 1354, 2695, 2696
1226, 2489, 1030, 973, 951
1227, 3144, 1605, 2368, 1034
1228, 1908, 2472, 3036, 3085
1229, 2555, 599, 306, 3262
1230, 1228, 2702, 2703, 2700
1231, 2700, 2703, 2701, 1227
1232, 2703, 1839, 792, 2701
1233, 2702, 793, 1839, 2703
1234, 2877, 2858, 1305, 3247
1235, 2496, 208, 696, 3230
1236, 1834, 3957, 1303, 2679
1237, 4164, 1608, 2707, 3421
1238, 2108, 3857, 3858, 3450
1239, 1801, 1560, 1804, 2710
1240, 2804, 743, 129, 115
1241, 2804, 1825, 1906, 743
1242, 2880, 381, 523, 1824
1243, 808, 2715, 2716, 1798
1244, 1798, 2716, 2713, 807
1245, 2714, 4049, 4056, 4054
1246, 910, 3950, 1881, 1634
1247, 3917, 903, 2499, 915
1248, 4038, 906, 899, 2977
1249, 910, 1634, 2933, 3055
1250, 3087, 2791, 2434, 940
1251, 1679, 2448, 959, 925
1252, 2965, 1679, 2056, 2963
1253, 3889, 1683, 1323, 4069
1254, 1319, 1829, 1486, 2218
1255, 1833, 1835, 3957, 1834
1256, 2866, 4175, 2896, 3273
1257, 3941, 1172, 2897, 1229
1258, 1231, 2899, 2755, 796
1259, 2899, 1165, 1469, 2755
1260, 1309, 2100, 1321, 1869
1261, 1486, 1322, 708, 197
1262, 1337, 1333, 2053, 3565
1263, 4196, 2730, 4013, 1401
1264, 1334, 211, 693, 3851
1265, 2214, 3556, 3553, 3111
1266, 2908, 3229, 452, 718
1267, 3129, 2020, 2018, 4305
1268, 3592, 1259, 1580, 1242
1269, 2117, 1893, 3698, 3090
1270, 1712, 1374, 2172, 2812
1271, 1367, 1731, 2232, 4201
1272, 2738, 1689, 2737, 2672
1273, 3008, 3371, 3974, 4189
1274, 2683, 3397, 964, 2003
1275, 1668, 969, 2673, 1690
1276, 3253, 3702, 2367, 2369
1277, 3578, 1159, 1043, 1907
1278, 3038, 296, 608, 1147
1279, 2016, 3044, 2839, 2489
1280, 1622, 3804, 4074, 2743
1281, 2742, 2744, 1847, 804
1282, 2744, 2743, 805, 1847
1283, 1274, 2823, 3355, 1239
1284, 1029, 1025, 308, 596
1285, 3529, 3769, 2280, 2951
1286, 1021, 304, 600, 1630
1287, 1250, 2311, 2658, 3019
1288, 3393, 2749, 798, 3129
1289, 2984, 1252, 2032, 2033
1290, 4207, 3130, 327, 577
1291, 948, 2433, 576, 329
1292, 1523, 3497, 937, 939
1293, 925, 959, 1627, 2647
1294, 2724, 3199, 762, 1976
1295, 2868, 432, 472, 3039
1296, 2393, 3273, 3271, 1232
1297, 3040, 1975, 2381, 3571
1298, 3381, 1307, 1285, 3909
1299, 1285, 201, 703, 3909
1300, 3184, 199, 705, 1294
1301, 1302, 2761, 1709, 2219
1302, 4173, 2694, 709, 196
1303, 1301, 2114, 1618, 3389
1304, 1642, 2640, 1833, 1834
1305, 786, 3863, 1176, 3912
1306, 768, 784, 3999, 3943
1307, 4077, 2364, 479, 426
1308, 3728, 2455, 1700, 3282
1309, 2750, 1643, 2085, 2909
1310, 4306, 1244, 2768, 1249
1311, 1266, 1257, 4157, 3000
1312, 1718, 2907, 1245, 4174
1313, 1433, 2195, 1416, 1436
1314, 3012, 1431, 4021, 4034
1315, 1405, 2910, 2195, 1433
1316, 1874, 3082, 3012, 3866
1317, 900, 919, 2063, 916
1318, 4170, 555, 350, 1650
1319, 4217, 2347, 907, 3656
1320, 4125, 1998, 1058, 2375
1321, 3359, 2278, 337, 567
1322, 1410, 1395, 3865, 2332
1323, 1414, 1875, 1417, 3099
1324, 3892, 1874, 3495, 3491
1325, 1789, 2906, 2905, 4215
1326, 1299, 2816, 698, 207
1327, 2865, 203, 701, 2800
1328, 2215, 1740, 960, 2448
1329, 2965, 2215, 2448, 1679
1330, 3047, 1248, 2998, 3231
1331, 1272, 3481, 3681, 3138
1332, 4186, 1311, 2914, 2761
1333, 3538, 4071, 1315, 1270
1334, 1077, 1815, 4224, 2161
1335, 2796, 3120, 3244, 2246
1336, 1791, 3820, 645, 260
1337, 2435, 3426, 30, 36
1338, 3275, 3571, 2394, 2799
1339, 3002, 1224, 3569, 1236
1340, 3434, 3042, 2221, 1234
1341, 3909, 703, 202, 3980
1342, 1903, 2194, 518, 387
1343, 1823, 383, 521, 1803
1344, 2803, 2192, 128, 116
1345, 1824, 523, 382, 1804
1346, 1678, 1654, 3340, 1980
1347, 2309, 620, 285, 987
1348, 3995, 3146, 2829, 3841
1349, 2955, 3678, 3165, 4099
1350, 1159, 3872, 3609, 1043
1351, 3876, 995, 1476, 4117
1352, 1992, 2811, 2602, 753
1353, 2811, 2809, 984, 2602
1354, 1477, 1687, 997, 3818
1355, 1504, 1892, 2815, 2517
1356, 1392, 4131, 1450, 2545
1357, 1732, 1747, 1374, 1712
1358, 2157, 1339, 3159, 2787
1359, 3925, 3980, 3279, 2789
1360, 2107, 3278, 1300, 2858
1361, 1284, 2235, 3850, 1983
1362, 2821, 2240, 2820, 2349
1363, 1114, 1116, 1136, 1853
1364, 1105, 1895, 2028, 3119
1365, 2349, 2820, 3631, 3052
1366, 1175, 2823, 2824, 2822
1367, 2822, 2824, 2059, 763
1368, 2824, 2742, 804, 2059
1369, 1201, 1531, 4136, 1192
1370, 2588, 409, 495, 3683
1371, 2238, 406, 498, 3115
1372, 3815, 3459, 990, 2882
1373, 4017, 1141, 1655, 1111
1374, 4012, 2806, 3814, 2462
1375, 917, 920, 826, 2128
1376, 2525, 2862, 2776, 2774
1377, 2832, 1757, 918, 4091
1378, 4091, 918, 2359, 1758
1379, 1073, 3061, 2475, 2340
1380, 1589, 649, 256, 2837
1381, 2142, 2145, 3772, 3761
1382, 4302, 1083, 1885, 1793
1383, 2746, 2014, 2112, 2872
1384, 2841, 315, 589, 2088
1385, 2087, 2088, 953, 2111
1386, 1009, 1938, 585, 320
1387, 1426, 2844, 2845, 1659
1388, 1659, 2845, 2843, 1425
1389, 2845, 1963, 1424, 2843
1390, 2844, 1423, 1963, 2845
1391, 3402, 1217, 1941, 1942
1392, 2846, 2849, 2847, 1222
1393, 2849, 2035, 789, 2847
1394, 2413, 3862, 1750, 4151
1395, 3230, 696, 209, 4177
1396, 1296, 3342, 3757, 1293
1397, 3601, 3343, 1317, 2348
1398, 723, 2183, 2856, 2853
1399, 2853, 2856, 2854, 993
1400, 2856, 2855, 992, 2854
1401, 2183, 721, 2855, 2856
1402, 2787, 3159, 2817, 2857
1403, 917, 2128, 902, 3387
1404, 2776, 2862, 2835, 2405
1405, 4214, 3990, 3096, 920
1406, 3900, 3388, 3385, 3240
1407, 2864, 1982, 2051, 3062
1408, 2105, 2681, 1868, 2758
1409, 2705, 1711, 1608, 4164
1410, 1837, 3041, 1836, 795
1411, 1233, 3197, 1224, 3002
1412, 3928, 800, 1718, 2985
1413, 799, 3928, 2985, 2311
1414, 3018, 1237, 3444, 2732
1415, 2253, 3453, 2336, 2659
1416, 1585, 2870, 1008, 4181
1417, 3951, 974, 956, 3224
1418, 950, 955, 1697, 1550
1419, 2697, 305, 599, 2555
1420, 1117, 2819, 1099, 3628
1421, 1895, 631, 274, 2028
1422, 2945, 3575, 2875, 2819
1423, 3287, 2351, 2877, 2878
1424, 2136, 1299, 3286, 3342
1425, 1295, 1401, 3756, 1705
1426, 747, 2879, 2880, 2538
1427, 2803, 3080, 775, 2192
1428, 1825, 1903, 774, 1906
1429, 2879, 524, 381, 2880
1430, 1126, 1122, 1133, 3993
1431, 4120, 3752, 3926, 3335
1432, 3204, 1981, 2266, 3336
1433, 3147, 3335, 4072, 1142
1434, 3720, 1068, 267, 637
1435, 2885, 1098, 1495, 1144
1436, 1692, 3632, 2920, 2884
1437, 1066, 1061, 3203, 1063
1438, 1127, 1113, 1851, 3752
1439, 1050, 3853, 3854, 3458
1440, 3051, 1110, 1852, 1894
1441, 1596, 1277, 4261, 1621
1442, 4003, 3394, 2001, 1596
1443, 4107, 459, 446, 2887
1444, 4040, 3986, 933, 3643
1445, 923, 3329, 3245, 3448
1446, 857, 2894, 2895, 2892
1447, 2892, 2895, 2893, 858
1448, 2895, 2072, 859, 2893
1449, 2894, 856, 2072, 2895
1450, 3199, 4202, 2723, 3272
1451, 1230, 2150, 469, 436
1452, 2220, 3942, 2899, 1231
1453, 2797, 431, 473, 1651
1454, 1016, 3544, 3525, 1549
1455, 4158, 2901, 2841, 2667
1456, 3543, 3270, 2870, 1585
1457, 2900, 3363, 2989, 1013
1458, 4308, 2902, 1561, 2193
1459, 774, 1903, 387, 517
1460, 2805, 774, 517, 388
1461, 4307, 1904, 519, 386
1462, 4218, 2302, 3634, 1785
1463, 3820, 4067, 259, 645
1464, 3060, 2343, 4302, 2653
1465, 3716, 1786, 2390, 1358
1466, 2196, 1432, 1790, 3211
1467, 2096, 222, 682, 4032
1468, 3116, 1439, 1419, 1875
1469, 2748, 2119, 2032, 1252
1470, 1262, 4002, 2908, 1637
1471, 729, 3604, 802, 3229
1472, 1398, 1789, 4215, 2099
1473, 1413, 2181, 3249, 1435
1474, 1415, 3587, 3590, 2179
1475, 3078, 3991, 1414, 2074
1476, 1330, 3437, 2680, 1310
1477, 3062, 2051, 2113, 1900
1478, 2330, 2061, 687, 218
1479, 3071, 870, 871, 1991
1480, 2288, 1856, 3477, 2198
1481, 742, 867, 4281, 3651
1482, 4297, 2633, 4280, 2497
1483, 1998, 2216, 636, 269
1484, 1614, 1613, 728, 2531
1485, 2778, 2991, 1098, 1766
1486, 4087, 1769, 2931, 1969
1487, 2297, 3879, 1518, 3235
1488, 3304, 4033, 4103, 2798
1489, 1942, 1941, 2922, 2848
1490, 2324, 2650, 3913, 1163
1491, 1359, 2926, 2927, 1602
1492, 3798, 2161, 1085, 1081
1493, 3017, 3954, 759, 3424
1494, 2926, 1355, 2142, 2927
1495, 1145, 2885, 2930, 2928
1496, 2928, 2930, 2929, 1101
1497, 2930, 2284, 1103, 2929
1498, 2885, 1144, 2284, 2930
1499, 1920, 4191, 1061, 1066
1500, 3967, 1969, 1060, 1069
1501, 1063, 3203, 1769, 4087
1502, 1883, 1633, 2023, 1882
1503, 2024, 2995, 4061, 3916
1504, 1650, 350, 554, 1570
1505, 1948, 3919, 3918, 914
1506, 1079, 760, 3461, 2300
1507, 3954, 3014, 3121, 759
1508, 2925, 3017, 3424, 2836
1509, 3070, 2495, 738, 2632
1510, 3616, 3068, 2199, 1516
1511, 1991, 4296, 867, 742
1512, 4277, 3026, 369, 535
1513, 2141, 3693, 3692, 770
1514, 4319, 4318, 2961, 1196
1515, 4136, 1493, 1480, 4119
1516, 4321, 2960, 1199, 4320
1517, 1747, 3454, 2171, 1713
1518, 2941, 1372, 3348, 4079
1519, 1371, 4300, 2117, 3064
1520, 1449, 1376, 730, 2548
1521, 2258, 1519, 1021, 2442
1522, 3044, 2747, 2842, 2839
1523, 1632, 1033, 1025, 1029
1524, 2208, 3607, 592, 313
1525, 3660, 1100, 4092, 3488
1526, 2944, 3988, 2874, 2830
1527, 2874, 3488, 627, 278
1528, 2659, 2336, 3441, 2657
1529, 2750, 2909, 1246, 2983
1530, 2322, 4112, 3930, 3729
1531, 3883, 236, 668, 1617
1532, 3226, 4095, 3648, 811
1533, 1714, 2971, 3641, 817
1534, 2519, 2514, 1371, 1503
1535, 2014, 2095, 1939, 2112
1536, 1017, 3951, 3224, 1007
1537, 2988, 1012, 2229, 3006
1538, 924, 3160, 2010, 2410
1539, 947, 1780, 3241, 2891
1540, 1283, 2708, 1292, 1607
1541, 3315, 2679, 1683, 3889
1542, 1317, 1295, 1705, 1704
1543, 3342, 3286, 2496, 3757
1544, 2708, 2680, 2082, 1292
1545, 1604, 3852, 1148, 3872
1546, 2699, 3704, 1018, 3034
1547, 3037, 2956, 1908, 3678
1548, 858, 2893, 2959, 1728
1549, 1728, 2959, 2958, 864
1550, 2959, 1865, 860, 2958
1551, 2893, 859, 1865, 2959
1552, 2421, 407, 497, 2404
1553, 2125, 3058, 3288, 2491
1554, 1193, 3059, 3758, 2139
1555, 1531, 2401, 1493, 4136
1556, 927, 4081, 934, 3179
1557, 2012, 1919, 3130, 4207
1558, 2433, 2964, 328, 576
1559, 2594, 2281, 2973, 4309
1560, 4138, 2558, 394, 510
1561, 1544, 127, 117, 2263
1562, 4114, 390, 514, 1934
1563, 2592, 3641, 42, 52
1564, 3641, 2971, 51, 42
1565, 4150, 1562, 3469, 2969
1566, 1926, 2636, 813, 3680
1567, 3755, 1344, 3089, 2235
1568, 1300, 3278, 1290, 2709
1569, 3025, 1691, 1951, 2850
1570, 1293, 3757, 1332, 2352
1571, 1933, 2282, 2283, 1465
1572, 4310, 779, 2281, 2594
1573, 1544, 2263, 2262, 2187
1574, 2967, 2558, 4138, 2582
1575, 3074, 628, 277, 4092
1576, 3628, 1099, 2267, 3073
1577, 848, 349, 555, 4170
1578, 4037, 1764, 1649, 3880
1579, 4016, 2978, 903, 3917
1580, 3056, 911, 4037, 2317
1581, 3004, 3831, 3608, 2095
1582, 2842, 3007, 2745, 4145
1583, 3921, 302, 602, 2279
1584, 2838, 2016, 2668, 3311
1585, 1528, 391, 513, 2966
1586, 389, 2981, 2711, 516
1587, 2981, 2262, 775, 2711
1588, 2582, 4138, 3800, 778
1589, 1267, 3442, 2275, 3894
1590, 3442, 1261, 3604, 729
1591, 3441, 2984, 2033, 2031
1592, 2765, 1253, 2749, 3393
1593, 1249, 2768, 2030, 3453
1594, 3177, 1226, 2869, 3443
1595, 3906, 2228, 3075, 3974
1596, 952, 4158, 2667, 1006
1597, 2870, 2111, 2445, 1008
1598, 3224, 956, 1671, 2949
1599, 1002, 4194, 2871, 1012
1600, 1016, 1549, 2987, 949
1601, 1067, 4125, 2375, 2991
1602, 3273, 2896, 3944, 3271
1603, 1233, 3196, 1225, 3197
1604, 2151, 1651, 2868, 1975
1605, 2720, 855, 4217, 4015
1606, 4073, 2346, 907, 2347
1607, 906, 912, 4073, 899
1608, 2346, 553, 352, 907
1609, 1263, 3583, 1226, 3177
1610, 1266, 3000, 1267, 2274
1611, 3195, 1273, 3665, 3020
1612, 3039, 472, 433, 1930
1613, 4202, 1932, 3001, 2723
1614, 3175, 2739, 3038, 3268
1615, 3678, 1908, 3085, 3165
1616, 1672, 3838, 2901, 4158
1617, 3870, 976, 318, 586
1618, 1012, 2871, 952, 2229
1619, 1584, 3219, 1937, 3269
1620, 1938, 4169, 319, 585
1621, 1937, 2411, 3372, 3369
1622, 2674, 4189, 2736, 2738
1623, 966, 3123, 3908, 3396
1624, 969, 1667, 963, 971
1625, 1419, 1439, 3861, 1788
1626, 3010, 3013, 3011, 1427
1627, 3013, 2163, 1421, 3011
1628, 1439, 3588, 2771, 3861
1629, 3379, 1884, 761, 2794
1630, 2156, 3326, 37, 32
1631, 1793, 1885, 2143, 2654
1632, 2925, 1775, 3015, 3017
1633, 798, 2019, 2020, 3129
1634, 4003, 4126, 3018, 799
1635, 4003, 1596, 1621, 4126
1636, 3019, 2658, 1643, 2750
1637, 1250, 3019, 2764, 2766
1638, 3022, 3046, 1582, 2356
1639, 3022, 2641, 1256, 3021
1640, 2356, 1254, 2641, 3022
1641, 3024, 1642, 3315, 1711
1642, 4290, 1995, 879, 4289
1643, 2048, 2551, 4080, 2049
1644, 1857, 4213, 2628, 3480
1645, 1910, 3744, 154, 141
1646, 1156, 3032, 3033, 3030
1647, 3030, 3033, 3031, 1152
1648, 3033, 2067, 1158, 3031
1649, 3032, 1157, 2067, 3033
1650, 3711, 3938, 1479, 1150
1651, 2259, 3263, 2417, 2600
1652, 1044, 3267, 1054, 2133
1653, 3264, 2698, 3840, 1041
1654, 3005, 991, 3265, 2957
1655, 1042, 1044, 2133, 1605
1656, 2152, 2866, 3273, 2393
1657, 2798, 4103, 470, 435
1658, 1653, 3198, 1171, 2724
1659, 3199, 3272, 3887, 762
1660, 1033, 3378, 3839, 1025
1661, 3219, 1014, 2411, 1937
1662, 3000, 4157, 2946, 1261
1663, 1251, 1249, 3453, 2253
1664, 3150, 3021, 4112, 2322
1665, 1217, 488, 417, 1941
1666, 1463, 1218, 3182, 3283
1667, 2453, 489, 416, 1180
1668, 1699, 2848, 1218, 1463
1669, 4191, 1967, 1070, 1921
1670, 1692, 1945, 1922, 3632
1671, 1144, 1495, 1944, 1968
1672, 1059, 2385, 1694, 1999
1673, 4098, 2945, 2819, 1117
1674, 2818, 3301, 3119, 4176
1675, 3052, 3631, 3074, 2886
1676, 1116, 3989, 1961, 2350
1677, 2317, 4037, 3880, 2319
1678, 3053, 3056, 3054, 850
1679, 3056, 2317, 845, 3054
1680, 2718, 3735, 4038, 1765
1681, 4316, 3293, 3645, 4315
1682, 3058, 2418, 2828, 3288
1683, 2343, 2301, 1083, 4302
1684, 1770, 2654, 1073, 1080
1685, 3426, 2652, 35, 30
1686, 1971, 2796, 2246, 1056
1687, 2788, 700, 205, 1291
1688, 2219, 1709, 1902, 3137
1689, 4300, 1617, 1893, 2117
1690, 1616, 2174, 2549, 2573
1691, 1376, 2009, 2585, 730
1692, 864, 2958, 3067, 3066
1693, 3066, 3067, 2917, 862
1694, 3067, 1862, 863, 2917
1695, 2958, 860, 1862, 3067
1696, 2937, 3653, 3652, 1588
1697, 3500, 2630, 1573, 2560
1698, 2494, 1784, 4222, 2629
1699, 3191, 4276, 3190, 4270
1700, 2287, 3750, 3722, 3405
1701, 2023, 1570, 1568, 912
1702, 4153, 848, 4170, 2719
1703, 1852, 1114, 1853, 1676
1704, 1117, 3628, 1110, 3051
1705, 1684, 3147, 1914, 3576
1706, 3338, 1850, 3148, 4094
1707, 2229, 952, 1006, 4111
1708, 1669, 966, 3396, 3398
1709, 1670, 4111, 3543, 974
1710, 1876, 3860, 2910, 1405
1711, 3891, 1394, 1418, 2180
1712, 1411, 2180, 224, 680
1713, 2074, 1414, 3099, 3213
1714, 1491, 2712, 1904, 4307
1715, 1905, 2539, 2538, 3104
1716, 2131, 113, 132, 1802
1717, 744, 746, 1825, 2804
1718, 1874, 3866, 3493, 3495
1719, 2181, 3992, 2096, 3249
1720, 3268, 3038, 1147, 2808
1721, 1046, 3377, 595, 310
1722, 925, 2647, 1919, 2012
1723, 2276, 3356, 3886, 3186
1724, 2011, 1626, 2103, 2790
1725, 1341, 1293, 2352, 1952
1726, 1335, 691, 214, 1336
1727, 4303, 1375, 2231, 1372
1728, 1380, 3732, 1386, 3684
1729, 2007, 4046, 1388, 2813
1730, 4328, 4332, 1492, 2126
1731, 3093, 496, 409, 2588
1732, 4331, 2404, 2939, 1200
1733, 921, 2176, 3098, 3095
1734, 3095, 3098, 3096, 828
1735, 2833, 3097, 3901, 3736
1736, 901, 2358, 2360, 919
1737, 1408, 1435, 2428, 2076
1738, 2785, 3117, 3992, 2181
1739, 1395, 2770, 2782, 2493
1740, 2624, 3713, 888, 3102
1741, 2575, 3770, 4269, 1772
1742, 2205, 3952, 1959, 1707
1743, 2386, 2093, 1210, 1207
1744, 3952, 508, 397, 1959
1745, 2902, 2131, 1490, 1561
1746, 4308, 744, 130, 114
1747, 4124, 520, 385, 4149
1748, 1804, 382, 522, 2710
1749, 1429, 3107, 3108, 3105
1750, 3105, 3108, 3106, 1428
1751, 3108, 1985, 1422, 3106
1752, 3107, 1420, 1985, 3108
1753, 2667, 2841, 2088, 2087
1754, 2110, 1003, 3799, 4109
1755, 954, 3512, 3520, 3518
1756, 1007, 3224, 2949, 3109
1757, 1407, 1763, 2264, 1658
1758, 2212, 1334, 3851, 2852
1759, 2214, 3766, 3554, 3556
1760, 2214, 1407, 1658, 3766
1761, 3110, 3755, 2235, 1284
1762, 2077, 2784, 3100, 2182
1763, 2773, 1410, 2332, 3936
1764, 2418, 3797, 3621, 2828
1765, 3094, 2491, 1189, 2127
1766, 1778, 2402, 3552, 1530
1767, 1435, 3249, 1437, 2428
1768, 4215, 2905, 3893, 1761
1769, 3991, 3116, 1875, 1414
1770, 2770, 3859, 1409, 2782
1771, 2829, 1128, 1155, 1979
1772, 2249, 1482, 1122, 1126
1773, 2350, 1961, 279, 625
1774, 3120, 3716, 1358, 3709
1775, 1601, 1791, 260, 644
1776, 4130, 3709, 2476, 1715
1777, 3185, 3882, 2116, 1347
1778, 1392, 817, 819, 4131
1779, 1747, 1713, 2515, 1374
1780, 2682, 2673, 3397, 2683
1781, 963, 968, 1871, 967
1782, 3124, 3086, 960, 3123
1783, 2682, 962, 3086, 3124
1784, 3956, 3890, 1880, 2083
1785, 1301, 4198, 2792, 1318
1786, 1619, 2153, 806, 3314
1787, 1711, 3315, 3889, 1608
1788, 2791, 3259, 2661, 2648
1789, 1223, 3133, 3134, 3132
1790, 3132, 3134, 2867, 1170
1791, 3134, 2243, 791, 2867
1792, 3133, 790, 2243, 3134
1793, 2786, 3555, 2134, 1953
1794, 1829, 1641, 1322, 1486
1795, 1315, 4167, 4182, 3746
1796, 4076, 1269, 1282, 1312
1797, 1304, 1606, 3857, 2108
1798, 1300, 2709, 1606, 1304
1799, 1301, 3389, 1316, 4076
1800, 2758, 1868, 1741, 2361
1801, 3159, 3280, 2788, 2817
1802, 1060, 1059, 1999, 1093
1803, 3425, 2919, 3720, 3460
1804, 3325, 1603, 1551, 3312
1805, 1062, 1534, 1768, 1146
1806, 1428, 3106, 3143, 3142
1807, 3142, 3143, 2844, 1426
1808, 3143, 2373, 1423, 2844
1809, 3106, 1422, 2373, 3143
1810, 2256, 611, 294, 1049
1811, 2808, 1147, 3176, 3254
1812, 3579, 1907, 2369, 3175
1813, 2133, 1054, 3852, 1604
1814, 3336, 2266, 3813, 3751
1815, 1850, 1124, 3149, 3148
1816, 1134, 1125, 1138, 1154
1817, 1125, 3336, 3751, 1140
1818, 3337, 1135, 3812, 1915
1819, 3149, 3032, 1156, 3148
1820, 2446, 1157, 3032, 3149
1821, 2658, 3045, 1644, 1643
1822, 3540, 1675, 3047, 1710
1823, 3665, 449, 455, 2344
1824, 3466, 1258, 3541, 2734
1825, 801, 4185, 803, 4110
1826, 2002, 2487, 3467, 3745
1827, 2766, 2764, 3466, 2320
1828, 2040, 3705, 1654, 1678
1829, 2266, 4116, 3612, 3813
1830, 2307, 3154, 750, 3827
1831, 3833, 2170, 374, 530
1832, 889, 532, 373, 720
1833, 3101, 3102, 2612, 3714
1834, 1166, 1511, 1502, 2396
1835, 1838, 2993, 3196, 1233
1836, 2370, 2889, 838, 2372
1837, 3111, 3553, 4001, 1878
1838, 3024, 2637, 2640, 1642
1839, 3245, 2889, 2370, 3252
1840, 3886, 936, 333, 571
1841, 1104, 2201, 3163, 3161
1842, 3161, 3163, 3162, 1102
1843, 3163, 2873, 1106, 3162
1844, 2201, 1105, 2873, 3163
1845, 3083, 4118, 3830, 3375
1846, 3266, 4104, 3218, 1047
1847, 1034, 2368, 1159, 3578
1848, 1177, 1521, 1181, 4210
1849, 1162, 2649, 100, 87
1850, 1218, 1216, 2651, 3182
1851, 794, 2422, 3174, 2897
1852, 2897, 3174, 3173, 1229
1853, 3174, 2702, 1228, 3173
1854, 2422, 793, 2702, 3174
1855, 2745, 3168, 2699, 3167
1856, 2956, 1037, 3166, 1039
1857, 1038, 2808, 3254, 2698
1858, 3968, 2345, 1581, 1243
1859, 2410, 2010, 2268, 3258
1860, 3986, 2276, 3186, 933
1861, 3932, 3903, 3904, 3446
1862, 1836, 2797, 1651, 2151
1863, 785, 4134, 3864, 3306
1864, 3728, 3504, 2397, 2455
1865, 1548, 2034, 422, 482
1866, 3140, 706, 199, 3184
1867, 2214, 3111, 2786, 3979
1868, 1627, 962, 2660, 1721
1869, 3330, 1695, 566, 339
1870, 2963, 2056, 2964, 2433
1871, 1385, 1445, 1661, 2940
1872, 1382, 3949, 1506, 2516
1873, 3922, 2545, 3347, 2518
1874, 1892, 1732, 1712, 2815
1875, 836, 3473, 3475, 3474
1876, 947, 2646, 2752, 1780
1877, 3071, 1991, 742, 892
1878, 4298, 3406, 3616, 4292
1879, 2633, 1755, 3662, 4280
1880, 1467, 1515, 538, 367
1881, 1152, 3031, 3193, 3192
1882, 3192, 3193, 2954, 1148
1883, 3193, 2255, 1149, 2954
1884, 3031, 1158, 2255, 3193
1885, 2355, 2321, 2999, 2488
1886, 2310, 2769, 1636, 1681
1887, 3045, 4174, 1645, 1644
1888, 1636, 448, 456, 1273
1889, 3942, 1727, 1235, 3624
1890, 3888, 474, 431, 2797
1891, 791, 1929, 797, 3570
1892, 1931, 3570, 3041, 1837
1893, 830, 3201, 3202, 3200
1894, 3200, 3202, 3095, 828
1895, 3202, 2509, 921, 3095
1896, 3201, 922, 2509, 3202
1897, 3633, 1612, 2376, 1774
1898, 2931, 1146, 2385, 1059
1899, 1774, 2376, 1534, 1062
1900, 2399, 2248, 2378, 1057
1901, 4165, 2779, 2932, 2247
1902, 3813, 3612, 1482, 2249
1903, 2240, 275, 629, 2820
1904, 3751, 3813, 2249, 1913
1905, 3927, 1656, 2353, 2831
1906, 1215, 1167, 3292, 3503
1907, 3049, 3206, 3879, 2297
1908, 1539, 1748, 2470, 3155
1909, 788, 2454, 1748, 1539
1910, 2227, 2969, 3469, 1896
1911, 2090, 2227, 1896, 2635
1912, 1443, 1555, 2089, 4226
1913, 4225, 3680, 53, 44
1914, 2450, 1419, 1788, 2075
1915, 2330, 218, 686, 3077
1916, 1394, 1412, 2912, 1418
1917, 2910, 685, 220, 2195
1918, 3078, 2426, 2196, 3991
1919, 3081, 2098, 2784, 2077
1920, 2077, 2182, 4223, 4031
1921, 2772, 3408, 3411, 2906
1922, 3164, 1542, 3710, 3829
1923, 1020, 3266, 1047, 3786
1924, 3036, 4101, 2259, 3938
1925, 957, 3006, 1670, 1001
1926, 1013, 2989, 4169, 1938
1927, 3978, 3527, 3524, 996
1928, 1698, 3526, 2338, 3076
1929, 1354, 2451, 3222, 2695
1930, 2695, 3222, 3221, 1360
1931, 3222, 2926, 1359, 3221
1932, 2451, 1355, 2926, 3222
1933, 4181, 1008, 950, 1010
1934, 1584, 2950, 957, 3219
1935, 2261, 2565, 1032, 2094
1936, 1016, 949, 2950, 1584
1937, 2947, 2516, 2484, 4046
1938, 4299, 1367, 4201, 1364
1939, 3122, 1390, 3733, 1745
1940, 1103, 2121, 3228, 2929
1941, 2929, 3228, 3227, 1101
1942, 3228, 3161, 1102, 3227
1943, 2121, 1104, 3161, 3228
1944, 1618, 1574, 3422, 1279
1945, 1272, 1575, 1308, 3481
1946, 3636, 2715, 2793, 3390
1947, 3482, 1279, 1575, 1272
1948, 1389, 1425, 2843, 3694
1949, 2515, 1505, 2514, 2519
1950, 2485, 2518, 3983, 3734
1951, 1390, 1723, 2942, 3733
1952, 1700, 4090, 1167, 1215
1953, 1943, 785, 3306, 784
1954, 2454, 3207, 2470, 1748
1955, 3048, 2923, 3504, 3728
1956, 2210, 4145, 3367, 4106
1957, 1039, 3166, 3144, 1040
1958, 1041, 3840, 2740, 3331
1959, 1757, 900, 916, 918
1960, 904, 4091, 1758, 2834
1961, 2405, 2835, 2129, 2406
1962, 2861, 4214, 920, 917
1963, 2889, 3299, 3330, 838
1964, 1779, 3187, 2011, 2502
1965, 3258, 2268, 3416, 938
1966, 2216, 3460, 268, 636
1967, 3632, 1922, 3719, 1920
1968, 3966, 2992, 1945, 1692
1969, 1769, 1062, 1146, 2931
1970, 3445, 834, 3535, 4059
1971, 1294, 705, 200, 1702
1972, 2757, 2135, 1297, 3023
1973, 3287, 2851, 1343, 2351
1974, 4102, 1393, 1411, 2911
1975, 3893, 3937, 3112, 3494
1976, 1434, 3077, 3860, 1876
1977, 3081, 2077, 4031, 3892
1978, 931, 3448, 3250, 4100
1979, 1927, 3415, 2269, 3300
1980, 3252, 3251, 832, 3250
1981, 2370, 833, 3251, 3252
1982, 3610, 3268, 2808, 1038
1983, 3673, 4035, 2015, 2980
1984, 3531, 4109, 3145, 1023
1985, 832, 3251, 3256, 3255
1986, 3255, 3256, 3201, 830
1987, 3256, 2503, 922, 3201
1988, 3251, 833, 2503, 3256
1989, 2791, 2648, 3157, 2434
1990, 1022, 2555, 3262, 2013
1991, 1630, 600, 305, 2697
1992, 3378, 3261, 3977, 3839
1993, 2698, 3254, 4141, 3840
1994, 1149, 2256, 1049, 1052
1995, 1129, 622, 283, 3515
1996, 3035, 2471, 605, 300
1997, 2369, 2367, 2739, 3175
1998, 1004, 1027, 3004, 3530
1999, 2950, 2988, 3006, 957
2000, 973, 2442, 2986, 1003
2001, 2489, 2839, 2210, 1030
2002, 3547, 3362, 769, 1169
2003, 1727, 1236, 3568, 1235
2004, 3944, 3943, 1170, 2753
2005, 3048, 3728, 3282, 1212
2006, 845, 2424, 3277, 3054
2007, 3054, 3277, 3276, 850
2008, 3277, 2894, 857, 3276
2009, 2424, 856, 2894, 3277
2010, 2137, 2157, 2787, 3063
2011, 2135, 2756, 1283, 1297
2012, 1976, 762, 3941, 2754
2013, 1216, 418, 486, 2651
2014, 783, 1180, 1217, 3402
2015, 1518, 3878, 1174, 3862
2016, 1421, 2536, 3285, 3011
2017, 3011, 3285, 3284, 1427
2018, 3285, 3107, 1429, 3284
2019, 2536, 1420, 3107, 3285
2020, 1983, 3850, 3603, 1402
2021, 3380, 4020, 3449, 2158
2022, 3754, 3302, 3937, 3410
2023, 2961, 2589, 3693, 2141
2024, 2140, 3374, 4330, 2124
2025, 1480, 3294, 1190, 2826
2026, 2652, 1773, 2302, 4218
2027, 3121, 653, 252, 1084
2028, 4065, 1699, 1463, 4090
2029, 1174, 3548, 4048, 3324
2030, 4210, 1181, 3281, 1701
2031, 3155, 2470, 484, 421
2032, 1176, 2396, 3172, 2365
2033, 1213, 1500, 4066, 3972
2034, 2456, 3503, 2414, 2299
2035, 2960, 1522, 1778, 1199
2036, 4315, 3645, 1532, 4314
2037, 4332, 4311, 2420, 1492
2038, 1368, 3296, 3297, 3295
2039, 3295, 3297, 2677, 1369
2040, 3297, 2407, 1361, 2677
2041, 3296, 1362, 2407, 3297
2042, 3160, 574, 331, 2010
2043, 1738, 3644, 3473, 836
2044, 1676, 1853, 4028, 3489
2045, 2353, 3153, 1851, 1113
2046, 2028, 274, 630, 2354
2047, 3757, 2496, 3230, 1332
2048, 1341, 2052, 1296, 1293
2049, 2898, 2753, 1931, 1837
2050, 2725, 3304, 2798, 2150
2051, 1236, 3569, 4172, 3568
2052, 2923, 2763, 2325, 3504
2053, 2455, 4065, 4090, 1700
2054, 2763, 3972, 1164, 2325
2055, 3137, 1902, 2726, 2760
2056, 4013, 1336, 3345, 2234
2057, 3450, 3858, 1307, 3381
2058, 1043, 3609, 1052, 3253
2059, 1089, 2432, 2934, 4067
2060, 1816, 1055, 3782, 2437
2061, 3462, 652, 253, 1815
2062, 1512, 1089, 4067, 3820
2063, 3389, 3482, 4044, 1316
2064, 3135, 1673, 1278, 3802
2065, 1575, 3438, 3139, 1308
2066, 3666, 3731, 1268, 3317
2067, 765, 3318, 3319, 2568
2068, 2568, 3319, 2043, 766
2069, 3319, 2822, 763, 2043
2070, 3318, 1175, 2822, 3319
2071, 1222, 2847, 3321, 3320
2072, 3320, 3321, 3133, 1223
2073, 3321, 2477, 790, 3133
2074, 2847, 789, 2477, 3321
2075, 1328, 1302, 2219, 2100
2076, 1336, 214, 690, 3345
2077, 1338, 2251, 1334, 2212
2078, 2706, 1289, 1982, 2864
2079, 1511, 2413, 4151, 3307
2080, 1184, 485, 420, 3207
2081, 1221, 4025, 3049, 786
2082, 2364, 3307, 425, 479
2083, 1513, 1080, 1786, 3716
2084, 760, 3955, 1087, 3461
2085, 2431, 2436, 3060, 1813
2086, 2397, 3234, 3914, 4010
2087, 4065, 4010, 2298, 1699
2088, 2298, 3156, 3402, 1942
2089, 1940, 1220, 2762, 3308
2090, 926, 935, 3497, 1523
2091, 2790, 2103, 4053, 932
2092, 1049, 294, 610, 3702
2093, 2272, 3711, 1150, 3704
2094, 2367, 295, 609, 2739
2095, 731, 3333, 3334, 2583
2096, 2583, 3334, 2314, 734
2097, 3334, 3332, 732, 2314
2098, 3333, 840, 3332, 3334
2099, 1143, 2241, 1129, 4187
2100, 3176, 297, 607, 3939
2101, 4004, 3152, 2309, 2041
2102, 3753, 987, 285, 619
2103, 1894, 1852, 1676, 2976
2104, 4011, 2271, 289, 615
2105, 3153, 1115, 2461, 1851
2106, 1123, 2038, 290, 614
2107, 2852, 3851, 2727, 1703
2108, 2858, 1300, 1304, 1305
2109, 3089, 1342, 3767, 4047
2110, 1401, 4013, 2234, 3756
2111, 2252, 3754, 3410, 3411
2112, 2104, 2106, 1339, 2157
2113, 2800, 701, 204, 3280
2114, 2801, 2721, 2681, 2105
2115, 3097, 2525, 2774, 3901
2116, 3897, 904, 2862, 2525
2117, 2176, 2178, 2177, 3238
2118, 3238, 2177, 2526, 3896
2119, 3225, 1383, 1378, 1384
2120, 2814, 4303, 1372, 2941
2121, 3784, 1391, 3922, 1387
2122, 1386, 3092, 1346, 3684
2123, 1735, 1724, 241, 663
2124, 3348, 3350, 3349, 1366
2125, 3350, 2520, 1363, 3349
2126, 4007, 3685, 2233, 1375
2127, 765, 2541, 3353, 3318
2128, 3318, 3353, 3351, 1175
2129, 1462, 99, 86, 1186
2130, 2541, 764, 3352, 3353
2131, 1161, 1470, 1538, 4140
2132, 3351, 3355, 2823, 1175
2133, 3019, 2750, 2983, 2764
2134, 2890, 1917, 3087, 831
2135, 2888, 3241, 835, 1695
2136, 927, 1523, 939, 4081
2137, 3787, 3622, 3911, 2671
2138, 3309, 3308, 788, 3323
2139, 4229, 1501, 4113, 3360
2140, 1628, 1549, 3525, 3527
2141, 1227, 2701, 3366, 3365
2142, 3365, 3366, 2749, 1253
2143, 3366, 2533, 798, 2749
2144, 2701, 792, 2533, 3366
2145, 1629, 3529, 2951, 3376
2146, 4035, 3364, 2261, 2015
2147, 3377, 3237, 309, 595
2148, 2258, 4106, 2207, 1519
2149, 1006, 2667, 2087, 3270
2150, 3369, 3372, 3370, 978
2151, 3075, 3076, 3923, 2736
2152, 2260, 2230, 3526, 1698
2153, 4311, 1530, 4139, 2420
2154, 2491, 3288, 1201, 1189
2155, 2565, 2807, 3236, 1032
2156, 2838, 1045, 3044, 2016
2157, 3236, 2807, 3873, 3037
2158, 1590, 2303, 1078, 2795
2159, 2302, 1887, 1357, 3634
2160, 1971, 2439, 1513, 2796
2161, 2351, 2107, 2858, 2877
2162, 2535, 704, 201, 1285
2163, 752, 2603, 3384, 1889
2164, 1889, 3384, 3333, 731
2165, 3384, 3383, 840, 3333
2166, 2603, 981, 3383, 3384
2167, 2834, 1758, 2064, 2130
2168, 3385, 3388, 1525, 823
2169, 3388, 3386, 822, 1525
2170, 919, 2360, 2065, 2063
2171, 3000, 1261, 3442, 1267
2172, 3467, 1270, 3125, 3745
2173, 4305, 2018, 2239, 3126
2174, 1830, 1326, 3591, 3669
2175, 2310, 1246, 2000, 2769
2176, 3453, 2030, 2767, 2336
2177, 3391, 2118, 2119, 2748
2178, 1690, 2673, 2682, 3124
2179, 3370, 3398, 3395, 978
2180, 3398, 3396, 980, 3395
2181, 3397, 971, 2054, 964
2182, 773, 3399, 3440, 1211
2183, 3822, 2581, 105, 92
2184, 1203, 3401, 2587, 2595
2185, 2459, 3953, 1198, 1208
2186, 3292, 1940, 3308, 3309
2187, 2363, 1539, 3155, 1214
2188, 1947, 2500, 3971, 3970
2189, 2978, 1765, 843, 903
2190, 2977, 899, 908, 855
2191, 4296, 2498, 1997, 867
2192, 875, 2665, 861, 1996
2193, 2936, 3790, 3615, 2443
2194, 2047, 2916, 3070, 2561
2195, 3562, 1953, 1333, 1337
2196, 1407, 2876, 3110, 1763
2197, 1409, 3214, 1434, 1876
2198, 4223, 2074, 3213, 2097
2199, 1366, 3349, 3413, 3412
2200, 3412, 3413, 3296, 1368
2201, 3413, 2566, 1362, 3296
2202, 3349, 1363, 2566, 3413
2203, 1737, 2501, 3964, 1739
2204, 3414, 2890, 831, 1958
2205, 1739, 3964, 827, 825
2206, 841, 4121, 1499, 1497
2207, 3417, 3419, 3332, 840
2208, 3419, 2466, 732, 3332
2209, 3418, 733, 2466, 3419
2210, 2883, 1153, 987, 3753
2211, 3487, 3576, 2270, 3705
2212, 3489, 4028, 2507, 1130
2213, 1141, 281, 623, 1655
2214, 1269, 3392, 3539, 1282
2215, 2051, 3421, 2863, 2113
2216, 1318, 2693, 2706, 3965
2217, 4030, 998, 2290, 3611
2218, 3368, 3828, 1160, 4036
2219, 3978, 2670, 1628, 3527
2220, 2840, 3608, 3607, 2208
2221, 2476, 2342, 1791, 1601
2222, 1972, 1822, 1820, 2935
2223, 2475, 4160, 2432, 1693
2224, 3871, 1614, 2531, 726
2225, 4019, 1767, 3463, 3465
2226, 1125, 1140, 3995, 1138
2227, 3427, 3429, 2511, 724
2228, 3429, 2855, 721, 2511
2229, 3428, 992, 2855, 3429
2230, 850, 3276, 3433, 3430
2231, 3430, 3433, 3431, 849
2232, 3433, 3432, 851, 3431
2233, 3276, 857, 3432, 3433
2234, 3235, 1518, 3862, 2413
2235, 3041, 3888, 2797, 1836
2236, 2994, 1726, 3275, 1932
2237, 1214, 3155, 421, 483
2238, 3626, 4227, 821, 3785
2239, 3243, 2780, 3987, 1974
2240, 1483, 1484, 1499, 4121
2241, 1268, 1619, 3314, 3392
2242, 3194, 2274, 2731, 3945
2243, 3562, 1337, 3849, 1406
2244, 2915, 2722, 1310, 1340
2245, 1936, 392, 512, 1935
2246, 3401, 1209, 3693, 2589
2247, 1645, 1720, 2017, 3929
2248, 2017, 2657, 2254, 2084
2249, 2907, 1251, 2253, 1245
2250, 1496, 1536, 1241, 1639
2251, 929, 945, 4192, 2962
2252, 934, 2502, 945, 929
2253, 3534, 825, 834, 3445
2254, 928, 2277, 569, 336
2255, 3451, 2953, 2135, 2757
2256, 3449, 2789, 2106, 2104
2257, 1763, 3110, 1284, 3303
2258, 2275, 3442, 729, 4002
2259, 1582, 1262, 1637, 4045
2260, 3910, 3664, 2792, 1680
2261, 3151, 2275, 4002, 1262
2262, 2940, 1661, 1425, 1389
2263, 2391, 2812, 1891, 4166
2264, 1444, 3696, 3233, 1505
2265, 3867, 1389, 3694, 3457
2266, 1045, 2094, 2747, 3044
2267, 4118, 1019, 3558, 3830
2268, 3459, 3458, 1054, 3267
2269, 1155, 1678, 1980, 1610
2270, 2340, 2475, 1693, 1082
2271, 2342, 1512, 3820, 1791
2272, 2836, 3424, 2438, 1970
2273, 2300, 3461, 1356, 3471
2274, 1767, 1145, 2928, 3463
2275, 1076, 1814, 1775, 2925
2276, 2793, 2079, 809, 4060
2277, 3389, 1618, 1279, 3482
2278, 2083, 3668, 2361, 1741
2279, 2544, 3468, 1458, 4240
2280, 1732, 2392, 3454, 1747
2281, 4238, 3210, 3208, 4237
2282, 4251, 1926, 3680, 4225
2283, 2161, 4224, 3470, 1085
2284, 4224, 651, 254, 3470
2285, 935, 3474, 3475, 3472
2286, 3472, 3475, 1593, 982
2287, 3475, 3473, 839, 1593
2288, 2646, 3243, 1974, 2752
2289, 880, 740, 1579, 4257
2290, 4258, 3619, 740, 880
2291, 3874, 866, 4084, 1578
2292, 866, 880, 4257, 4084
2293, 3279, 702, 203, 2865
2294, 4056, 4049, 3637, 4050
2295, 3484, 1287, 3483, 3485
2296, 3146, 1108, 1128, 2829
2297, 3752, 1851, 2461, 3926
2298, 1685, 1686, 288, 616
2299, 2974, 3989, 1116, 1114
2300, 3211, 1790, 4102, 3588
2301, 3491, 3495, 3492, 1442
2302, 3495, 3493, 1447, 3492
2303, 3865, 2913, 1877, 3118
2304, 983, 3498, 3499, 3496
2305, 3496, 3499, 3472, 982
2306, 3499, 3497, 935, 3472
2307, 3498, 937, 3497, 3499
2308, 4159, 2560, 875, 4154
2309, 1783, 3663, 3647, 1664
2310, 1489, 365, 539, 885
2311, 2559, 885, 1729, 3663
2312, 3654, 1538, 3362, 3547
2313, 1699, 2298, 1942, 2848
2314, 3572, 767, 3171, 1501
2315, 1517, 1219, 3501, 787
2316, 4235, 2685, 1898, 4234
2317, 1924, 4143, 45, 55
2318, 3090, 3698, 1734, 3783
2319, 2091, 1924, 55, 46
2320, 3029, 2611, 870, 3071
2321, 881, 3617, 3509, 1487
2322, 1755, 4159, 4154, 3662
2323, 2609, 2198, 877, 2916
2324, 2291, 3906, 3974, 3371
2325, 956, 1585, 4181, 1671
2326, 3514, 3513, 979, 3512
2327, 3369, 978, 3513, 3514
2328, 3640, 989, 3721, 3516
2329, 1655, 623, 282, 2241
2330, 3837, 591, 314, 3838
2331, 3518, 3520, 1475, 985
2332, 3520, 3519, 977, 1475
2333, 3512, 979, 3519, 3520
2334, 977, 3519, 3523, 3521
2335, 3521, 3523, 3498, 983
2336, 3523, 3522, 937, 3498
2337, 3519, 979, 3522, 3523
2338, 2490, 2440, 2481, 2670
2339, 3527, 3525, 1015, 3524
2340, 1915, 3812, 4011, 2038
2341, 2411, 2291, 3371, 3372
2342, 3710, 3561, 1019, 4118
2343, 4081, 1779, 2502, 934
2344, 831, 3087, 940, 924
2345, 1626, 946, 3131, 2103
2346, 940, 943, 3160, 924
2347, 2751, 1737, 1739, 3533
2348, 3964, 3932, 3446, 827
2349, 3537, 3385, 823, 3535
2350, 3387, 902, 900, 1757
2351, 1674, 4122, 710, 195
2352, 3605, 454, 451, 1264
2353, 1982, 4164, 3421, 2051
2354, 1015, 3525, 3544, 3542
2355, 3542, 3544, 3518, 985
2356, 3223, 1550, 976, 3870
2357, 2111, 953, 3869, 2445
2358, 2041, 2309, 987, 1153
2359, 3546, 3427, 724, 2578
2360, 2366, 3291, 4025, 1221
2361, 4144, 4077, 426, 478
2362, 1163, 3048, 1212, 2480
2363, 3863, 1166, 2396, 1176
2364, 2730, 1335, 1336, 4013
2365, 3708, 1460, 3209, 3582
2366, 4326, 772, 3094, 4325
2367, 1400, 3136, 1691, 3025
2368, 3553, 3556, 1752, 1459
2369, 3556, 3554, 1441, 1752
2370, 2134, 2859, 3136, 1400
2371, 992, 3559, 3560, 2854
2372, 2854, 3560, 3557, 993
2373, 3560, 3558, 999, 3557
2374, 3168, 2272, 3704, 2699
2375, 1026, 1005, 593, 312
2376, 3165, 3085, 3711, 2272
2377, 2015, 2261, 2094, 1045
2378, 1051, 3829, 3083, 1609
2379, 3979, 3562, 1406, 2876
2380, 1703, 2727, 3563, 4006
2381, 3997, 4196, 1401, 1295
2382, 1705, 3756, 2728, 3984
2383, 755, 2689, 3567, 3566
2384, 3566, 3567, 2853, 993
2385, 3567, 2523, 723, 2853
2386, 2689, 722, 2523, 3567
2387, 797, 430, 474, 3888
2388, 1536, 1621, 4261, 1638
2389, 2150, 2798, 435, 469
2390, 2382, 2725, 2150, 1230
2391, 4232, 3352, 3573, 1161
2392, 3572, 3573, 2606, 767
2393, 3573, 3352, 764, 2606
2394, 1161, 3573, 3572, 1470
2395, 3926, 2461, 1143, 4187
2396, 3993, 1133, 1113, 1127
2397, 1112, 2429, 1120, 3486
2398, 1032, 3236, 2955, 1031
2399, 3577, 2599, 2601, 1000
2400, 2807, 1020, 3786, 3873
2401, 1453, 3581, 3582, 3580
2402, 3580, 3582, 3209, 1451
2403, 4262, 1622, 2743, 2744
2404, 1239, 3355, 3354, 1537
2405, 3981, 3584, 1275, 3806
2406, 3354, 4024, 3764, 1537
2407, 1440, 3589, 3590, 3586
2408, 3586, 3590, 3587, 1438
2409, 1416, 684, 221, 3117
2410, 2493, 1433, 1436, 2913
2411, 3482, 1272, 3138, 4044
2412, 4044, 3138, 3682, 3666
2413, 3317, 1268, 3392, 1269
2414, 1303, 191, 713, 2704
2415, 1122, 1482, 3614, 3613
2416, 3364, 3606, 2473, 1035
2417, 3167, 2699, 3034, 3921
2418, 780, 2528, 3400, 1202
2419, 3401, 2589, 2590, 2587
2420, 1173, 3598, 3599, 1535
2421, 1638, 1238, 3584, 3981
2422, 2085, 1247, 4107, 2887
2423, 3598, 1235, 3568, 3599
2424, 4146, 3649, 3811, 1552
2425, 1083, 1071, 2904, 1885
2426, 4163, 3600, 1646, 1351
2427, 3600, 1647, 1360, 1646
2428, 3564, 1457, 688, 217
2429, 2728, 3345, 690, 215
2430, 4006, 3563, 2328, 1456
2431, 3452, 3195, 3020, 1675
2432, 3928, 2732, 1263, 800
2433, 1622, 1276, 3807, 3804
2434, 2312, 3730, 453, 186
2435, 1481, 3594, 4263, 1981
2436, 3007, 4099, 3168, 2745
2437, 3261, 598, 307, 3977
2438, 2027, 2697, 2555, 1022
2439, 3217, 3375, 3788, 3593
2440, 4145, 2745, 3167, 3367
2441, 4168, 3640, 3516, 1119
2442, 2308, 1112, 3486, 1118
2443, 2610, 2629, 868, 1754
2444, 4291, 1516, 1995, 4290
2445, 4123, 739, 4275, 893
2446, 3875, 852, 3479, 2631
2447, 1996, 861, 1467, 4179
2448, 2561, 3070, 2632, 741
2449, 1856, 1911, 869, 3477
2450, 3477, 869, 1468, 1466
2451, 1559, 2574, 1957, 1205
2452, 3103, 1557, 106, 93
2453, 1206, 509, 396, 3801
2454, 4260, 4267, 2611, 3029
2455, 871, 3476, 862, 4255
2456, 3478, 4156, 866, 3874
2457, 3432, 857, 2892, 865
2458, 2208, 313, 591, 3837
2459, 4194, 2666, 1672, 2871
2460, 4194, 1939, 2840, 2666
2461, 1509, 2655, 2634, 3502
2462, 3502, 2634, 1462, 4230
2463, 1189, 1201, 1192, 3059
2464, 1540, 4231, 3625, 3623
2465, 4232, 3351, 3353, 3352
2466, 3625, 3598, 1173, 3623
2467, 3624, 1235, 3598, 3625
2468, 733, 3418, 3627, 2614
2469, 2614, 3627, 3626, 735
2470, 1695, 835, 338, 566
2471, 3188, 1483, 4127, 3436
2472, 4183, 2350, 625, 280
2473, 4098, 3629, 1095, 4078
2474, 3989, 2944, 2830, 1961
2475, 1115, 1111, 1143, 2461
2476, 2048, 2049, 137, 122
2477, 2932, 3967, 1069, 2919
2478, 2384, 643, 262, 2217
2479, 1057, 4019, 3842, 2921
2480, 4146, 1552, 3600, 4163
2481, 3471, 1356, 3982, 1887
2482, 1773, 3471, 1887, 2302
2483, 3636, 1286, 2716, 2715
2484, 1280, 4057, 4055, 1760
2485, 3708, 3549, 3468, 1460
2486, 3483, 1287, 3638, 3639
2487, 3545, 725, 989, 3640
2488, 4264, 3593, 3788, 3428
2489, 3420, 3994, 1141, 4017
2490, 4098, 4078, 1107, 2945
2491, 1384, 1378, 3185, 1348
2492, 4226, 2089, 4252, 818
2493, 4251, 3507, 2970, 1926
2494, 1898, 3492, 1447, 820
2495, 3635, 1075, 3289, 4160
2496, 3772, 654, 251, 3014
2497, 1146, 1768, 3743, 2385
2498, 839, 3473, 3644, 3642
2499, 4228, 3436, 4127, 1498
2500, 1498, 4127, 841, 4227
2501, 1738, 3188, 3436, 3644
2502, 2404, 497, 408, 2939
2503, 1199, 1778, 1530, 4311
2504, 4318, 2590, 2589, 2961
2505, 1777, 2403, 2418, 3058
2506, 2453, 2126, 415, 489
2507, 1502, 1511, 3307, 2364
2508, 2628, 3510, 897, 3617
2509, 2917, 863, 4271, 4272
2510, 2560, 1573, 2665, 875
2511, 4282, 3500, 2560, 4159
2512, 1350, 3649, 3650, 3648
2513, 3648, 3650, 1820, 811
2514, 3811, 2675, 1370, 1552
2515, 1553, 1352, 1359, 1602
2516, 2388, 2576, 896, 2483
2517, 4259, 1857, 3480, 1586
2518, 4275, 158, 145, 1756
2519, 4222, 741, 3500, 4282
2520, 4090, 1463, 3283, 1167
2521, 4232, 1161, 4140, 3655
2522, 1540, 1471, 4132, 4231
2523, 3749, 2774, 2776, 1635
2524, 3404, 3657, 353, 551
2525, 1950, 2021, 3881, 2997
2526, 3376, 2951, 1027, 1004
2527, 2901, 590, 315, 2841
2528, 958, 2872, 2112, 1002
2529, 3631, 276, 628, 3074
2530, 4098, 1117, 3051, 2308
2531, 1988, 364, 540, 4279
2532, 4084, 4257, 1579, 3620
2533, 885, 539, 366, 1729
2534, 4123, 893, 1855, 1854
2535, 3668, 1325, 1324, 1682
2536, 4060, 809, 2153, 1619
2537, 2385, 3743, 3717, 1694
2538, 1613, 2399, 1057, 2921
2539, 3591, 193, 711, 1327
2540, 1597, 3538, 1270, 3467
2541, 3796, 1291, 205, 699
2542, 993, 3557, 3670, 3566
2543, 3566, 3670, 1826, 755
2544, 3670, 2598, 757, 1826
2545, 3557, 999, 2598, 3670
2546, 1854, 1855, 853, 1572
2547, 4008, 1782, 1857, 4259
2548, 897, 2288, 2198, 2609
2549, 4286, 2443, 2444, 4285
2550, 3607, 1026, 312, 592
2551, 3145, 2025, 3260, 1520
2552, 3873, 3786, 3703, 1037
2553, 1648, 4146, 4163, 1603
2554, 3325, 2935, 1648, 1603
2555, 2155, 2300, 3471, 1773
2556, 1492, 2420, 414, 490
2557, 4325, 3094, 2127, 4324
2558, 2492, 2419, 2125, 772
2559, 1118, 3486, 3677, 3674
2560, 3675, 3677, 3676, 1624
2561, 1092, 1624, 1091, 1090
2562, 3486, 1120, 3676, 3677
2563, 3830, 3558, 3560, 3559
2564, 4135, 1048, 1053, 1478
2565, 1583, 2110, 4109, 3531
2566, 3085, 3036, 3938, 3711
2567, 2518, 3347, 1385, 3983
2568, 1753, 1443, 4226, 816
2569, 2572, 1556, 818, 1545
2570, 4238, 4237, 4143, 1924
2571, 4054, 4056, 1453, 3762
2572, 4185, 1710, 1271, 4171
2573, 2802, 2801, 2953, 3451
2574, 2113, 2863, 1302, 1328
2575, 1196, 2961, 2141, 3293
2576, 4312, 2421, 2404, 4331
2577, 1188, 2825, 2140, 2402
2578, 1192, 4136, 4119, 2138
2579, 3210, 2635, 2546, 3208
2580, 4241, 2544, 4240, 4253
2581, 2392, 3734, 2173, 3454
2582, 2007, 2813, 3685, 4007
2583, 1554, 1545, 4235, 4234
2584, 4254, 4243, 3686, 4239
2585, 819, 817, 3641, 2592
2586, 2636, 819, 2592, 813
2587, 807, 2713, 3688, 1794
2588, 1794, 3688, 3506, 815
2589, 3688, 3687, 1452, 3506
2590, 2713, 1281, 3687, 3688
2591, 839, 3642, 3689, 1592
2592, 1592, 3689, 3383, 981
2593, 3689, 3417, 840, 3383
2594, 3785, 821, 842, 3747
2595, 799, 3018, 2732, 3928
2596, 1246, 2909, 2733, 2000
2597, 2311, 2985, 3045, 2658
2598, 3126, 2239, 2118, 3391
2599, 2238, 2460, 499, 406
2600, 2554, 3439, 3948, 3692
2601, 2401, 3683, 2415, 1493
2602, 4320, 1199, 4311, 4332
2603, 1376, 3232, 4299, 2009
2604, 2545, 1450, 3456, 3347
2605, 3777, 233, 671, 4129
2606, 1449, 1365, 3232, 1376
2607, 1447, 3493, 3701, 1547
2608, 1547, 3701, 3699, 1448
2609, 3701, 3700, 1446, 3699
2610, 2166, 3409, 677, 228
2611, 3263, 3264, 1041, 2417
2612, 1040, 4029, 3005, 1024
2613, 3613, 3614, 3545, 1623
2614, 3003, 1543, 3267, 1044
2615, 1543, 990, 3459, 3267
2616, 4264, 3427, 3546, 1473
2617, 4190, 3708, 3582, 3581
2618, 2156, 1972, 2935, 3325
2619, 759, 3121, 1084, 1787
2620, 3829, 3710, 4118, 3083
2621, 2670, 2481, 975, 1628
2622, 3673, 3084, 4063, 1542
2623, 887, 2388, 2483, 2305
2624, 1772, 4269, 4293, 3834
2625, 3827, 750, 3934, 2078
2626, 2577, 2304, 2613, 749
2627, 1358, 2390, 1512, 2342
2628, 2376, 263, 641, 1534
2629, 1968, 1944, 270, 634
2630, 1070, 1715, 1533, 2384
2631, 2921, 3842, 1094, 3741
2632, 1068, 1093, 638, 267
2633, 1946, 4087, 1969, 3967
2634, 1091, 3809, 3808, 4005
2635, 989, 3546, 2578, 3721
2636, 1624, 3676, 3809, 1091
2637, 822, 3723, 3724, 1527
2638, 1527, 3724, 1485, 824
2639, 3724, 3722, 842, 1485
2640, 2719, 4170, 1650, 1633
2641, 1095, 3629, 3727, 3725
2642, 3725, 3727, 3726, 1094
2643, 3727, 3674, 1096, 3726
2644, 3629, 1118, 3674, 3727
2645, 4026, 1749, 4077, 4144
2646, 3171, 2656, 2655, 1509
2647, 3973, 3328, 4195, 3205
2648, 4076, 1316, 3317, 1269
2649, 2337, 2734, 3960, 2982
2650, 3969, 1243, 4182, 3946
2651, 2761, 2914, 1879, 1709
2652, 2174, 2548, 2550, 2549
2653, 3696, 2296, 1381, 3233
2654, 4046, 2484, 3935, 1388
2655, 1892, 1377, 2392, 1732
2656, 822, 3386, 3737, 3723
2657, 903, 843, 2720, 2499
2658, 2835, 2834, 2130, 2129
2659, 3406, 4260, 3068, 3616
2660, 3651, 4281, 3653, 2937
2661, 2443, 3615, 882, 2444
2662, 882, 878, 1784, 2494
2663, 2179, 2772, 2906, 1789
2664, 1762, 3118, 2165, 1396
2665, 1761, 3893, 3494, 3859
2666, 3116, 3211, 3588, 1439
2667, 727, 2626, 3742, 3740
2668, 3740, 3742, 3726, 1096
2669, 3742, 3741, 1094, 3726
2670, 2626, 728, 3741, 3742
2671, 3016, 1813, 1055, 1816
2672, 2160, 2794, 1088, 2435
2673, 3709, 1358, 2342, 2476
2674, 3615, 1487, 878, 882
2675, 1912, 3511, 4277, 894
2676, 4284, 751, 2610, 4283
2677, 868, 4282, 4159, 1755
2678, 2715, 808, 2079, 2793
2679, 1270, 1315, 3746, 3125
2680, 3731, 4060, 1619, 1268
2681, 842, 3722, 3750, 3747
2682, 3747, 3750, 3748, 736
2683, 2021, 847, 2718, 3881
2684, 1124, 2975, 2446, 3149
2685, 3575, 2818, 4176, 2821
2686, 3340, 2506, 286, 618
2687, 1399, 2729, 2213, 2109
2688, 3851, 693, 212, 2727
2689, 2828, 3621, 2401, 1531
2690, 2403, 1200, 3797, 2418
2691, 1081, 1085, 1072, 2303
2692, 3470, 254, 650, 3760
2693, 1055, 2653, 1086, 3782
2694, 1281, 3762, 3763, 3687
2695, 3687, 3763, 2968, 1452
2696, 3763, 3580, 1451, 2968
2697, 3762, 1453, 3580, 3763
2698, 1595, 3968, 1243, 3969
2699, 1241, 3981, 3806, 1640
2700, 1234, 2221, 471, 434
2701, 3584, 1620, 3585, 1275
2702, 3551, 4050, 3637, 3550
2703, 2729, 2348, 1298, 3407
2704, 1402, 3603, 3343, 3601
2705, 1023, 3145, 1520, 2441
2706, 1036, 3978, 996, 3528
2707, 3367, 3167, 3921, 2279
2708, 2979, 1004, 3530, 3220
2709, 3662, 4154, 898, 2046
2710, 1784, 2561, 741, 4222
2711, 1663, 892, 3671, 4203
2712, 1995, 4008, 4259, 879
2713, 2777, 1063, 4087, 1946
2714, 2927, 2142, 3761, 3015
2715, 2010, 331, 573, 2268
2716, 3329, 3299, 2889, 3245
2717, 3246, 3358, 2780, 3243
2718, 3849, 3996, 3602, 1344
2719, 3468, 3549, 4000, 1458
2720, 3774, 3773, 1290, 3278
2721, 3638, 1287, 3773, 3774
2722, 4265, 4068, 754, 2810
2723, 2810, 754, 1475, 977
2724, 3776, 3775, 984, 2809
2725, 3521, 983, 3775, 3776
2726, 2231, 1736, 2520, 3350
2727, 1364, 4201, 3795, 3792
2728, 1504, 3091, 1377, 1892
2729, 2395, 2624, 3102, 3101
2730, 891, 2048, 122, 7
2731, 3856, 1587, 2553, 890
2732, 891, 7, 138, 2395
2733, 2062, 695, 210, 3088
2734, 3780, 3781, 3589, 1440
2735, 2332, 3865, 3118, 1762
2736, 3602, 2852, 1703, 1342
2737, 3141, 2562, 1792, 1064
2738, 1061, 3633, 1774, 3203
2739, 2438, 1787, 1886, 3955
2740, 1507, 2391, 4166, 1733
2741, 3091, 1387, 2485, 1377
2742, 1444, 1380, 3684, 3696
2743, 3697, 2115, 662, 243
2744, 735, 3626, 3785, 2686
2745, 2686, 3785, 3747, 736
2746, 2962, 4192, 4040, 4301
2747, 4228, 3417, 3689, 3642
2748, 3769, 4036, 1046, 3768
2749, 4099, 3165, 2272, 3168
2750, 3375, 3830, 3559, 3788
2751, 3864, 3181, 2846, 4097
2752, 1742, 4208, 1185, 3169
2753, 1501, 3171, 1509, 4113
2754, 3324, 4048, 423, 481
2755, 3612, 4116, 988, 3517
2756, 3788, 3559, 992, 3428
2757, 1052, 1049, 3702, 3253
2758, 2922, 487, 418, 1216
2759, 1186, 86, 100, 2649
2760, 4113, 1509, 3502, 771
2761, 4292, 3616, 1516, 4291
2762, 3069, 3646, 1911, 1856
2763, 2551, 3508, 1665, 4080
2764, 3771, 1910, 141, 155
2765, 4148, 2206, 4197, 2092
2766, 2556, 4148, 2092, 2188
2767, 1706, 2556, 4142, 2570
2768, 1960, 2387, 2093, 2386
2769, 1734, 238, 666, 2116
2770, 4166, 1891, 3949, 1382
2771, 3795, 3793, 1349, 3792
2772, 3794, 1368, 3793, 3795
2773, 3985, 1607, 1294, 1702
2774, 2158, 3449, 2104, 2159
2775, 3183, 2137, 3063, 3382
2776, 3115, 498, 407, 2421
2777, 4324, 2127, 1193, 4323
2778, 2796, 1513, 3716, 3120
2779, 3821, 255, 649, 1589
2780, 2654, 2143, 3061, 1073
2781, 3871, 3966, 4200, 3718
2782, 3415, 3298, 837, 2269
2783, 1497, 1499, 824, 1485
2784, 4228, 3418, 3419, 3417
2785, 3218, 3216, 990, 1543
2786, 3561, 4063, 3528, 3836
2787, 3705, 2270, 2039, 1654
2788, 2383, 1207, 1210, 4193
2789, 1954, 1558, 505, 400
2790, 3682, 3390, 3731, 3666
2791, 1243, 1581, 3746, 4182
2792, 1710, 3047, 3231, 1271
2793, 2101, 1328, 2100, 1309
2794, 2982, 801, 4110, 2345
2795, 1244, 4305, 3126, 2768
2796, 3804, 3807, 3805, 1278
2797, 1092, 1625, 3675, 1624
2798, 3808, 3809, 3574, 1121
2799, 3809, 3676, 1120, 3574
2800, 1591, 4005, 3808, 4070
2801, 1350, 3810, 3811, 3649
2802, 3312, 1551, 1553, 1814
2803, 1885, 2904, 3313, 2143
2804, 3810, 1369, 2675, 3811
2805, 1134, 3204, 3336, 1125
2806, 1913, 2249, 1126, 2806
2807, 2882, 990, 3216, 3339
2808, 1151, 3338, 1050, 3815
2809, 997, 3817, 986, 3818
2810, 995, 1015, 3542, 1476
2811, 3776, 2810, 977, 3521
2812, 4068, 3816, 3819, 754
2813, 3782, 1086, 1770, 2439
2814, 1886, 3462, 1815, 1077
2815, 2143, 3313, 3635, 3061
2816, 3424, 759, 1787, 2438
2817, 3103, 782, 781, 1557
2818, 1208, 1198, 501, 404
2819, 782, 2570, 1960, 781
2820, 1226, 3824, 3825, 2869
2821, 2869, 3825, 3365, 1253
2822, 3825, 3823, 1227, 3365
2823, 3824, 1225, 3823, 3825
2824, 2379, 1665, 527, 378
2825, 3826, 2623, 2306, 2577
2826, 1587, 3712, 1666, 2553
2827, 1611, 1051, 1609, 4135
2828, 3530, 3004, 2095, 2014
2829, 1609, 3083, 3375, 3217
2830, 890, 2553, 4180, 2380
2831, 891, 895, 2551, 2048
2832, 3834, 4293, 2293, 2552
2833, 748, 4062, 747, 2482
2834, 1000, 2601, 2598, 999
2835, 3836, 3817, 997, 2617
2836, 3528, 996, 3817, 3836
2837, 1792, 2562, 2563, 719
2838, 1921, 2217, 1612, 3633
2839, 4030, 3611, 1028, 3423
2840, 2026, 1023, 2441, 3828
2841, 3331, 2740, 298, 606
2842, 3265, 1038, 2698, 3264
2843, 2740, 3939, 607, 298
2844, 1109, 1127, 3752, 4120
2845, 1138, 3995, 3841, 2265
2846, 2039, 2883, 3753, 2506
2847, 3718, 4200, 1717, 1716
2848, 1612, 642, 263, 2376
2849, 3843, 3725, 1094, 3842
2850, 3659, 1095, 3725, 3843
2851, 1443, 3845, 3846, 1555
2852, 1555, 3846, 3844, 1442
2853, 3846, 3586, 1438, 3844
2854, 3845, 1440, 3586, 3846
2855, 4126, 1496, 1237, 3018
2856, 3847, 3848, 3569, 1224
2857, 2731, 3894, 2355, 2488
2858, 1638, 4261, 3765, 1238
2859, 3756, 2234, 3345, 2728
2860, 1878, 1455, 4089, 3555
2861, 2214, 3979, 2876, 1407
2862, 1658, 2264, 3408, 3781
2863, 1456, 2328, 1335, 2730
2864, 1951, 4177, 2062, 2850
2865, 2235, 3089, 4047, 3850
2866, 1054, 3458, 3854, 3852
2867, 3852, 3854, 3192, 1148
2868, 3854, 3853, 1152, 3192
2869, 2038, 4011, 615, 290
2870, 3416, 332, 572, 1722
2871, 2780, 2962, 4301, 3987
2872, 2661, 941, 1740, 2215
2873, 2647, 3905, 2057, 1919
2874, 3715, 3826, 2576, 2388
2875, 2483, 896, 375, 529
2876, 2613, 720, 2622, 2170
2877, 1297, 1283, 1607, 3985
2878, 2474, 2159, 2137, 3183
2879, 2251, 694, 211, 1334
2880, 2351, 1343, 3706, 2107
2881, 3213, 3099, 2783, 3212
2882, 1431, 3212, 4023, 4021
2883, 1396, 2165, 1408, 3739
2884, 2075, 1788, 678, 227
2885, 2034, 1214, 483, 422
2886, 2325, 1164, 1177, 3234
2887, 786, 3049, 2297, 3863
2888, 2508, 2456, 2299, 3327
2889, 1437, 4032, 2912, 1412
2890, 3739, 1408, 2076, 2331
2891, 3861, 2771, 679, 226
2892, 3409, 2075, 227, 677
2893, 1388, 3935, 1724, 1735
2894, 3935, 3065, 1615, 1724
2895, 2232, 2941, 4079, 3794
2896, 4304, 3122, 1745, 2008
2897, 2323, 1213, 3972, 2763
2898, 2634, 85, 99, 1462
2899, 1016, 1584, 3269, 954
2900, 4191, 1921, 3633, 1061
2901, 3667, 2216, 1998, 4125
2902, 2779, 1946, 3967, 2932
2903, 4029, 2273, 991, 3005
2904, 2473, 1611, 4104, 3266
2905, 2280, 2412, 1005, 2669
2906, 878, 2047, 2561, 1784
2907, 3190, 543, 362, 1909
2908, 3478, 3875, 2631, 4156
2909, 3620, 1579, 864, 3066
2910, 3938, 2259, 2600, 1479
2911, 1047, 3218, 1543, 3003
2912, 3254, 3176, 3939, 4141
2913, 2025, 1022, 2013, 3260
2914, 754, 3819, 985, 1475
2915, 986, 3524, 1015, 995
2916, 1688, 2203, 1811, 994
2917, 3817, 996, 3524, 986
2918, 1212, 3282, 3290, 1182
2919, 4128, 3654, 3547, 1179
2920, 2479, 1169, 1213, 2323
2921, 3503, 3292, 3309, 2414
2922, 910, 1948, 914, 2287
2923, 912, 1568, 2346, 4073
2924, 3950, 3405, 3723, 3737
2925, 1377, 2485, 3734, 2392
2926, 1503, 1371, 3064, 4204
2927, 3983, 1385, 2940, 3868
2928, 852, 1572, 3885, 3479
2929, 3479, 3885, 3431, 851
2930, 3885, 3884, 849, 3431
2931, 1572, 853, 3884, 3885
2932, 933, 3186, 334, 570
2933, 3241, 1780, 3359, 835
2934, 3087, 1917, 3259, 2791
2935, 1725, 2151, 1975, 3040
2936, 796, 2755, 3973, 3403
2937, 2723, 3001, 3434, 4033
2938, 2638, 2218, 707, 198
2939, 2953, 2860, 2756, 2135
2940, 1311, 1830, 3669, 2914
2941, 2756, 1340, 2708, 1283
2942, 1417, 2450, 1397, 3248
2943, 1877, 2785, 2181, 1413
2944, 1432, 3739, 2331, 1790
2945, 1681, 1636, 1273, 3195
2946, 4115, 360, 544, 2292
2947, 861, 3647, 1515, 1467
2948, 1571, 1909, 872, 1577
2949, 2198, 3477, 1466, 877
2950, 2861, 917, 3387, 3239
2951, 3240, 3536, 3990, 4214
2952, 2359, 2063, 2065, 2066
2953, 3239, 3387, 1757, 2832
2954, 1428, 3142, 3899, 3898
2955, 3898, 3899, 1598, 1430
2956, 3899, 1660, 1445, 1598
2957, 3142, 1426, 1660, 3899
2958, 846, 4015, 3657, 3404
2959, 2833, 3736, 3737, 3386
2960, 829, 3446, 3904, 3902
2961, 3902, 3904, 3200, 828
2962, 3904, 3903, 830, 3200
2963, 2781, 4184, 3246, 4052
2964, 3179, 934, 929, 3358
2965, 3448, 3245, 3252, 3250
2966, 959, 3086, 962, 1627
2967, 2660, 961, 1918, 1721
2968, 2088, 589, 316, 953
2969, 3869, 588, 317, 1696
2970, 4169, 3870, 586, 319
2971, 3219, 957, 1001, 1014
2972, 1001, 1670, 974, 3951
2973, 960, 1740, 3908, 3123
2974, 2737, 970, 1871, 968
2975, 3908, 3907, 980, 3396
2976, 1740, 941, 3907, 3908
2977, 2758, 2361, 2722, 2915
2978, 1331, 2857, 3310, 2816
2979, 1868, 2681, 3438, 3422
2980, 3229, 802, 9, 452
2981, 4002, 729, 3229, 2908
2982, 2486, 450, 454, 3605
2983, 4322, 2139, 2960, 4321
2984, 2655, 98, 85, 2634
2985, 3172, 1749, 4026, 1178
2986, 1221, 786, 3912, 3505
2987, 3879, 3361, 3878, 1518
2988, 3328, 4128, 1179, 4195
2989, 854, 3918, 3919, 3915
2990, 3915, 3919, 3916, 853
2991, 3055, 1950, 2995, 2024
2992, 1882, 2023, 912, 906
2993, 1446, 1600, 3920, 3699
2994, 3699, 3920, 3679, 1448
2995, 3920, 3456, 1450, 3679
2996, 1600, 1445, 3456, 3920
2997, 3084, 1036, 3528, 4063
2998, 1040, 3144, 1034, 4029
2999, 3043, 1583, 3531, 3835
3000, 1374, 2515, 2519, 2172
3001, 1365, 4304, 2008, 3232
3002, 2008, 1745, 1731, 1367
3003, 1669, 3398, 3370, 3008
3004, 1668, 965, 1667, 969
3005, 971, 963, 967, 2054
3006, 966, 1690, 3124, 3123
3007, 1203, 3597, 1207, 2383
3008, 1957, 1206, 3801, 1205
3009, 4193, 1210, 4086, 4219
3010, 3668, 1682, 2722, 2361
3011, 2681, 2721, 3139, 3438
3012, 3421, 2707, 4186, 2863
3013, 3927, 2831, 4027, 1121
3014, 1481, 3339, 1053, 3594
3015, 4012, 2462, 2881, 1108
3016, 3152, 284, 620, 2309
3017, 3147, 1142, 4004, 1914
3018, 1686, 1610, 617, 288
3019, 1128, 2040, 1678, 1155
3020, 4003, 799, 2311, 1250
3021, 3690, 4306, 1249, 1251
3022, 3140, 2638, 198, 706
3023, 3931, 3930, 1329, 2637
3024, 1637, 2908, 718, 187
3025, 2269, 837, 3188, 1738
3026, 939, 937, 4051, 3357
3027, 1927, 3300, 2662, 3178
3028, 2268, 573, 332, 3416
3029, 3714, 2612, 2169, 2623
3030, 895, 3832, 3508, 2551
3031, 2050, 2289, 3770, 2575
3032, 2171, 2619, 3732, 1380
3033, 1505, 3233, 4199, 2514
3034, 2006, 2174, 1616, 3784
3035, 1365, 2517, 1507, 4304
3036, 3214, 3113, 2329, 1434
3037, 2328, 213, 691, 1335
3038, 2264, 2252, 3411, 3408
3039, 2182, 3100, 2426, 3078
3040, 1018, 1541, 604, 301
3041, 3606, 3164, 3829, 1051
3042, 3940, 3824, 1226, 3583
3043, 3824, 3940, 3197, 1225
3044, 3940, 3847, 1224, 3197
3045, 1496, 1639, 3848, 1237
3046, 801, 3540, 1710, 4185
3047, 3407, 1298, 1457, 3564
3048, 3570, 797, 3888, 3041
3049, 2221, 1930, 433, 471
3050, 2755, 1469, 3328, 3973
3051, 3042, 2222, 1930, 2221
3052, 2152, 2393, 3198, 1653
3053, 1975, 2868, 3039, 2381
3054, 3290, 1215, 3503, 2456
3055, 795, 1836, 2151, 1725
3056, 3945, 2731, 2488, 2002
3057, 3807, 3947, 3946, 3805
3058, 1200, 2939, 3093, 3797
3059, 2527, 1202, 3399, 773
3060, 4327, 2492, 772, 4326
3061, 1617, 668, 237, 1893
3062, 1347, 2116, 666, 239
3063, 3226, 1364, 3792, 4095
3064, 3122, 1733, 1373, 1390
3065, 3735, 1882, 906, 4038
3066, 913, 3901, 2774, 3749
3067, 3917, 915, 911, 2717
3068, 1649, 3404, 551, 354
3069, 1030, 2210, 4106, 2258
3070, 2949, 1671, 3363, 2900
3071, 3237, 1029, 596, 309
3072, 1629, 2564, 3368, 3529
3073, 3953, 403, 501, 1198
3074, 4193, 4219, 3691, 2528
3075, 1776, 2460, 2238, 2236
3076, 1211, 3440, 1566, 2469
3077, 3437, 2759, 1319, 4155
3078, 1323, 1320, 1326, 1830
3079, 2430, 194, 710, 4122
3080, 3242, 947, 2891, 3180
3081, 3157, 2963, 2433, 948
3082, 2056, 2012, 4207, 2964
3083, 1901, 1576, 1306, 1759
3084, 2759, 1869, 1829, 1319
3085, 2863, 4186, 2761, 1302
3086, 1608, 3889, 4069, 2707
3087, 893, 4273, 3959, 1855
3088, 898, 1996, 4179, 874
3089, 738, 3672, 1783, 876
3090, 739, 144, 158, 4275
3091, 3604, 1265, 2312, 802
3092, 4306, 2765, 3393, 1244
3093, 979, 3513, 3963, 3522
3094, 3522, 3963, 3962, 937
3095, 3963, 3395, 980, 3962
3096, 3513, 978, 3395, 3963
3097, 1927, 3178, 2781, 1524
3098, 3187, 3414, 1626, 2011
3099, 1524, 3242, 3180, 2751
3100, 938, 3416, 1722, 2102
3101, 3443, 2869, 1253, 2765
3102, 1245, 2253, 2659, 1720
3103, 1719, 3690, 1251, 2907
3104, 2734, 3541, 3452, 3960
3105, 1719, 3177, 3443, 3690
3106, 1325, 1900, 2101, 1324
3107, 1614, 1494, 2399, 1613
3108, 1920, 3719, 1967, 4191
3109, 2321, 3910, 1680, 2999
3110, 849, 3970, 3971, 3430
3111, 3430, 3971, 3053, 850
3112, 1949, 4153, 2719, 905
3113, 4015, 4217, 3656, 3657
3114, 2920, 1066, 1063, 2777
3115, 2991, 2375, 1495, 1098
3116, 2762, 1184, 3207, 2454
3117, 1168, 3050, 4009, 3206
3118, 2035, 4026, 4144, 2037
3119, 1689, 2224, 970, 2737
3120, 1550, 1697, 1011, 976
3121, 1696, 317, 587, 1011
3122, 2672, 2737, 968, 3009
3123, 1232, 3271, 2898, 1978
3124, 2753, 1170, 2867, 1931
3125, 3198, 3976, 2994, 1171
3126, 1653, 2724, 1976, 2993
3127, 2980, 2838, 3311, 1631
3128, 1005, 2412, 311, 593
3129, 951, 973, 1003, 2110
3130, 3034, 603, 302, 3921
3131, 3063, 2787, 2857, 1331
3132, 1274, 2742, 2824, 2823
3133, 3807, 1276, 1277, 3947
3134, 1639, 1241, 1640, 4172
3135, 2301, 1973, 1071, 1083
3136, 1731, 2814, 2941, 2232
3137, 2516, 1506, 2735, 2484
3138, 2860, 2915, 1340, 2756
3139, 2106, 2865, 2800, 1339
3140, 3380, 2108, 3450, 4020
3141, 3980, 202, 702, 3279
3142, 838, 3330, 339, 565
3143, 932, 4053, 2276, 3986
3144, 2752, 1974, 3933, 2278
3145, 835, 3359, 567, 338
3146, 3073, 2944, 3989, 2974
3147, 1110, 2974, 1114, 1852
3148, 2242, 3659, 1097, 3658
3149, 1130, 2507, 1115, 3153
3150, 1758, 2359, 2066, 2064
3151, 3096, 3990, 3902, 828
3152, 3990, 3536, 829, 3902
3153, 3866, 3700, 3701, 3493
3154, 2428, 1437, 1412, 1394
3155, 1415, 2179, 1789, 1398
3156, 3866, 3012, 4034, 3700
3157, 1108, 2881, 2040, 1128
3158, 3815, 1050, 3458, 3459
3159, 1657, 1399, 2109, 3302
3160, 1403, 3984, 689, 216
3161, 3088, 210, 694, 2251
3162, 3565, 1338, 2212, 3996
3163, 3943, 3999, 3132, 1170
3164, 3999, 3998, 1223, 3132
3165, 2396, 1502, 1749, 3172
3166, 1458, 4000, 4001, 1564
3167, 1564, 4001, 3553, 1459
3168, 1337, 3565, 3996, 3849
3169, 2274, 1267, 3894, 2731
3170, 1257, 3592, 1242, 4157
3171, 1136, 4183, 3994, 3420
3172, 3988, 3660, 3488, 2874
3173, 1096, 3674, 3677, 3675
3174, 3516, 3721, 2579, 2597
3175, 1119, 1092, 1090, 4168
3176, 2061, 3564, 217, 687
3177, 2876, 1406, 3755, 3110
3178, 1745, 3733, 2814, 1731
3179, 1449, 1504, 2517, 1365
3180, 4209, 3777, 4129, 1379
3181, 4156, 4258, 880, 866
3182, 740, 1728, 864, 1579
3183, 3480, 2628, 3617, 881
3184, 1863, 545, 360, 4115
3185, 1470, 3572, 1501, 4229
3186, 3403, 2457, 1943, 3274
3187, 3912, 1176, 2365, 4134
3188, 1167, 3283, 1940, 3292
3189, 1654, 2039, 2506, 3340
3190, 1140, 3751, 1913, 3490
3191, 1132, 3337, 1124, 1850
3192, 1342, 1703, 4006, 3767
3193, 2802, 3322, 2721, 2801
3194, 3390, 2793, 4060, 3731
3195, 2982, 3960, 3540, 801
3196, 1316, 4044, 3666, 3317
3197, 2001, 3969, 3946, 3947
3198, 3055, 2933, 2021, 1950
3199, 2996, 909, 2022, 847
3200, 1764, 846, 3404, 1649
3201, 1151, 1134, 1154, 1132
3202, 3338, 4094, 3853, 1050
3203, 1914, 4004, 2041, 1131
3204, 1131, 2041, 1153, 2883
3205, 3465, 3463, 4018, 1097
3206, 1321, 3137, 2760, 1641
3207, 1308, 3484, 3485, 3481
3208, 4020, 3925, 2789, 3449
3209, 1339, 2800, 3280, 3159
3210, 2247, 2932, 2919, 3425
3211, 1768, 264, 640, 3743
3212, 1427, 4022, 4023, 3010
3213, 3248, 1397, 2163, 3013
3214, 4032, 682, 223, 2912
3215, 4022, 1430, 4021, 4023
3216, 1240, 1239, 1537, 1620
3217, 1536, 1638, 3981, 1241
3218, 3976, 3305, 1726, 2994
3219, 4009, 2508, 3327, 3361
3220, 2999, 1680, 1260, 2487
3221, 1643, 1644, 1247, 2085
3222, 3207, 420, 484, 2470
3223, 3504, 2325, 3234, 2397
3224, 3050, 1182, 2508, 4009
3225, 3994, 624, 281, 1141
3226, 2429, 1137, 3574, 1120
3227, 2507, 4017, 1111, 1115
3228, 3702, 610, 295, 2367
3229, 2956, 1039, 2472, 1908
3230, 3860, 219, 685, 2910
3231, 1410, 2427, 2770, 1395
3232, 3588, 4102, 2911, 2771
3233, 2897, 1172, 2382, 794
3234, 4175, 796, 3403, 3274
3235, 1726, 3040, 3571, 3275
3236, 1978, 795, 1725, 3305
3237, 1446, 3700, 4034, 1599
3238, 1599, 4034, 4021, 1430
3239, 2426, 1404, 1432, 2196
3240, 2163, 1397, 3409, 2166
3241, 2013, 3262, 3261, 3378
3242, 2103, 3131, 3447, 4053
3243, 2277, 3643, 335, 569
3244, 4052, 3246, 3243, 2646
3245, 3072, 913, 3749, 1569
3246, 3950, 3737, 3736, 1881
3247, 2319, 3880, 550, 355
3248, 2717, 911, 3056, 3053
3249, 3294, 494, 411, 1190
3250, 2138, 4119, 2825, 1188
3251, 2651, 486, 419, 1565
3252, 3447, 2102, 930, 3356
3253, 837, 1484, 1483, 3188
3254, 834, 825, 827, 4206
3255, 982, 1594, 4041, 3496
3256, 3496, 4041, 3775, 983
3257, 4041, 2604, 984, 3775
3258, 1594, 981, 2604, 4041
3259, 1368, 3295, 4043, 3793
3260, 3793, 4043, 4042, 1349
3261, 4043, 3810, 1350, 4042
3262, 3295, 1369, 3810, 4043
3263, 4049, 1760, 3639, 3637
3264, 3138, 3681, 1288, 3682
3265, 2344, 455, 450, 2486
3266, 1387, 3922, 2518, 2485
3267, 3695, 1347, 239, 665
3268, 2517, 2815, 2391, 1507
3269, 1454, 4089, 1455, 3707
3270, 1332, 3230, 4177, 1951
3271, 3343, 3997, 1295, 1317
3272, 3505, 3912, 4134, 785
3273, 3973, 3205, 3291, 2366
3274, 1163, 3913, 2923, 3048
3275, 3636, 1288, 1280, 2714
3276, 4190, 3707, 3549, 3708
3277, 3550, 3637, 3639, 3638
3278, 3300, 836, 3474, 2662
3279, 1974, 3987, 928, 3933
3280, 2662, 3474, 935, 926
3281, 1286, 1281, 2713, 2716
3282, 2714, 1280, 1760, 4049
3283, 1288, 3681, 4057, 1280
3284, 3437, 4155, 2082, 2680
3285, 1623, 3545, 3640, 4168
3286, 824, 3435, 4059, 1526
3287, 1526, 4059, 3535, 823
3288, 1286, 4054, 3762, 1281
3289, 2693, 3664, 3128, 1313
3290, 3802, 1278, 3805, 4167
3291, 3764, 1173, 1535, 3585
3292, 1537, 3764, 3585, 1620
3293, 910, 2287, 3405, 3950
3294, 1765, 4038, 2977, 843
3295, 4061, 3884, 853, 3916
3296, 3970, 849, 3884, 4061
3297, 750, 2464, 3779, 3934
3298, 896, 3833, 530, 375
3299, 3102, 888, 2167, 2612
3300, 3236, 3037, 3678, 2955
3301, 1542, 4063, 3561, 3710
3302, 2412, 3768, 594, 311
3303, 991, 3610, 1038, 3265
3304, 1688, 994, 1687, 1477
3305, 1476, 3542, 985, 3819
3306, 3818, 986, 995, 3876
3307, 4188, 4117, 3816, 4068
3308, 1760, 4055, 3483, 3639
3309, 4057, 3485, 3483, 4055
3310, 1749, 1502, 2364, 4077
3311, 2414, 3309, 3323, 1219
3312, 3972, 4066, 1183, 1164
3313, 2650, 2479, 2323, 3913
3314, 2557, 2574, 123, 121
3315, 2460, 2469, 405, 499
3316, 2671, 3911, 4208, 1742
3317, 771, 3502, 4230, 1510
3318, 1493, 2415, 3294, 1480
3319, 1813, 3060, 2653, 1055
3320, 1785, 3759, 719, 2
3321, 3871, 3141, 2992, 3966
3322, 4266, 1993, 2203, 1688
3323, 3877, 1477, 3818, 3876
3324, 3549, 3707, 1455, 4000
3325, 4190, 3581, 4050, 3551
3326, 1122, 3613, 4070, 4027
3327, 4027, 4070, 3808, 1121
3328, 1625, 3740, 1096, 3675
3329, 3231, 2998, 1259, 3592
3330, 1312, 1282, 3538, 1597
3331, 3392, 3314, 3135, 3539
3332, 1916, 1979, 1686, 1685
3333, 3335, 3926, 4187, 4072
3334, 4187, 1129, 3515, 4072
3335, 1610, 1980, 287, 617
3336, 843, 2977, 855, 2720
3337, 1568, 351, 553, 2346
3338, 1570, 554, 351, 1568
3339, 1278, 1673, 4074, 3804
3340, 4074, 1844, 805, 2743
3341, 1673, 806, 1844, 4074
3342, 1441, 3554, 4075, 1751
3343, 1751, 4075, 3845, 1443
3344, 4075, 3780, 1440, 3845
3345, 3563, 692, 213, 2328
3346, 1248, 2344, 2486, 2998
3347, 1273, 456, 449, 3665
3348, 3681, 3481, 3485, 4057
3349, 1258, 2310, 1681, 3541
3350, 3966, 1692, 2884, 4200
3351, 3327, 2299, 1517, 2924
3352, 1510, 4230, 1744, 3789
3353, 1500, 769, 3360, 1461
3354, 1219, 3323, 2363, 3501
3355, 3628, 3073, 2974, 1110
3356, 2029, 2886, 1100, 3660
3357, 1366, 3412, 4079, 3348
3358, 1378, 3783, 3882, 3185
3359, 3783, 1734, 2116, 3882
3360, 3412, 1368, 3794, 4079
3361, 3856, 890, 109, 136
3362, 4080, 1665, 2379, 3778
3363, 2576, 749, 3833, 896
3364, 3614, 3517, 725, 3545
3365, 1119, 3516, 2597, 2596
3366, 3517, 988, 1473, 725
3367, 1482, 3612, 3517, 3614
3368, 1027, 2669, 3831, 3004
3369, 2273, 3579, 3610, 991
3370, 2943, 1631, 998, 4030
3371, 4135, 1609, 3217, 1048
3372, 946, 3258, 938, 3131
3373, 1927, 1524, 2751, 3533
3374, 2058, 926, 1523, 927
3375, 2097, 3213, 3212, 1431
3376, 2913, 1436, 2785, 1877
3377, 4082, 3844, 1438, 3587
3378, 3491, 1442, 3844, 4082
3379, 1287, 3484, 4083, 3773
3380, 3773, 4083, 3322, 1290
3381, 3766, 3780, 4075, 3554
3382, 1406, 3849, 1344, 3755
3383, 851, 3432, 865, 1730
3384, 1730, 865, 3619, 4258
3385, 3663, 1729, 1515, 3647
3386, 2631, 3479, 851, 1730
3387, 737, 2691, 4085, 3958
3388, 3958, 4085, 3918, 854
3389, 4016, 3917, 2717, 2500
3390, 2691, 736, 3748, 4085
3391, 2903, 1076, 1884, 3379
3392, 2935, 1820, 3650, 1648
3393, 2435, 1088, 2155, 3426
3394, 1533, 1601, 644, 261
3395, 1203, 2595, 2581, 3597
3396, 2527, 773, 3439, 2554
3397, 2528, 3691, 2458, 3400
3398, 1999, 1694, 639, 266
3399, 2390, 1082, 1089, 1512
3400, 1967, 4130, 1715, 1070
3401, 1058, 1998, 269, 635
3402, 1102, 3162, 4088, 3227
3403, 3227, 4088, 4018, 1101
3404, 4088, 3658, 1097, 4018
3405, 3162, 1106, 3658, 4088
3406, 2136, 1331, 2816, 1299
3407, 1305, 3380, 2158, 3247
3408, 2816, 3310, 206, 698
3409, 3328, 1469, 4132, 4128
3410, 4025, 1168, 3206, 3049
3411, 3900, 2833, 3386, 3388
3412, 3900, 2861, 3239, 2775
3413, 3896, 2526, 2358, 901
3414, 2128, 3896, 901, 902
3415, 4176, 2354, 2240, 2821
3416, 2429, 2976, 1677, 1137
3417, 2976, 1676, 3489, 1677
3418, 1430, 4022, 4093, 3898
3419, 3898, 4093, 3105, 1428
3420, 4093, 3284, 1429, 3105
3421, 4022, 1427, 3284, 4093
3422, 2772, 3589, 3781, 3408
3423, 3991, 2196, 3211, 3116
3424, 3081, 4082, 3587, 1415
3425, 2329, 2330, 3077, 1434
3426, 1980, 3340, 618, 287
3427, 3853, 4094, 3030, 1152
3428, 4094, 3148, 1156, 3030
3429, 1474, 621, 284, 3152
3430, 3065, 1345, 1746, 1615
3431, 3648, 4095, 4042, 1350
3432, 4095, 3792, 1349, 4042
3433, 1348, 3185, 1347, 3695
3434, 4212, 1952, 3136, 2859
3435, 2851, 4190, 3551, 1343
3436, 1878, 4001, 4000, 1455
3437, 1565, 419, 485, 1184
3438, 3998, 4097, 3320, 1223
3439, 4097, 2846, 1222, 3320
3440, 3361, 3327, 2924, 3878
3441, 1656, 1130, 3153, 2353
3442, 3341, 1684, 3576, 3487
3443, 2506, 3753, 619, 286
3444, 3673, 2980, 1631, 2943
3445, 3609, 2954, 1149, 1052
3446, 2417, 1041, 3331, 2741
3447, 2471, 2741, 299, 605
3448, 832, 3255, 4100, 3250
3449, 4081, 939, 3357, 1779
3450, 4184, 3179, 3358, 3246
3451, 3255, 830, 3903, 4100
3452, 4020, 3450, 3381, 3925
3453, 3984, 2728, 215, 689
3454, 2709, 2802, 3451, 1606
3455, 2727, 212, 692, 3563
3456, 2975, 1915, 2038, 1123
3457, 3872, 1148, 2954, 3609
3458, 1025, 3839, 597, 308
3459, 2195, 220, 684, 1416
3460, 2331, 2076, 3891, 1393
3461, 1404, 1396, 3739, 1432
3462, 2076, 2428, 1394, 3891
3463, 2393, 1232, 3976, 3198
3464, 2799, 2394, 2222, 3042
3465, 1172, 3887, 2725, 2382
3466, 4103, 1234, 434, 470
3467, 1019, 1000, 999, 3558
3468, 3577, 2617, 2618, 2599
3469, 3561, 3836, 2617, 3577
3470, 1228, 2700, 4105, 3173
3471, 3173, 4105, 3975, 1229
3472, 4105, 3823, 1225, 3975
3473, 2700, 1227, 3823, 4105
3474, 3529, 3368, 4036, 3769
3475, 3673, 2943, 3215, 3084
3476, 2095, 3608, 2840, 1939
3477, 1264, 451, 453, 3730
3478, 2998, 2486, 3605, 1259
3479, 1288, 3636, 3390, 3682
3480, 941, 3257, 4108, 3907
3481, 3907, 4108, 3962, 980
3482, 4108, 4051, 937, 3962
3483, 3257, 942, 4051, 4108
3484, 3260, 2013, 3378, 1033
3485, 3838, 314, 590, 2901
3486, 2564, 2026, 3828, 3368
3487, 2914, 3669, 2362, 1879
3488, 3127, 3024, 1711, 2705
3489, 2985, 1718, 4174, 3045
3490, 3960, 3452, 1675, 3540
3491, 1720, 2659, 2657, 2017
3492, 2657, 3441, 2031, 2254
3493, 2647, 1627, 1721, 3905
3494, 940, 2434, 944, 943
3495, 3186, 3886, 571, 334
3496, 2645, 326, 578, 3855
3497, 2320, 2337, 3968, 1595
3498, 1271, 3231, 3592, 1257
3499, 2345, 4110, 3316, 1581
3500, 803, 3194, 3945, 2449
3501, 1010, 950, 1550, 3223
3502, 2338, 3526, 2990, 2339
3503, 2441, 1520, 1632, 2209
3504, 1256, 2642, 4112, 3021
3505, 2000, 447, 457, 2769
3506, 1680, 2792, 4198, 1260
3507, 2642, 1329, 3930, 4112
3508, 4064, 2480, 3050, 1168
3509, 3654, 1471, 4140, 1538
3510, 767, 2607, 2656, 3171
3511, 1934, 514, 391, 1528
3512, 2981, 389, 515, 1464
3513, 776, 2557, 121, 124
3514, 1468, 4279, 1489, 1662
3515, 877, 1466, 4133, 2495
3516, 1577, 872, 4268, 3646
3517, 3655, 4140, 1471, 1540
3518, 3362, 4229, 3360, 769
3519, 3625, 4231, 1165, 3624
3520, 1140, 3490, 3146, 3995
3521, 1139, 2882, 3339, 1481
3522, 1472, 988, 4116, 4263
3523, 4266, 1992, 1994, 1993
3524, 3877, 3876, 4117, 4188
3525, 4266, 1688, 1477, 3877
3526, 1520, 3260, 1033, 1632
3527, 1048, 3217, 3593, 3595
3528, 4104, 1478, 3216, 3218
3529, 3797, 3093, 2588, 3621
3530, 770, 3692, 3948, 4220
3531, 3913, 2323, 2763, 2923
3532, 4264, 3428, 3429, 3427
3533, 4264, 1473, 988, 1472
3534, 821, 1497, 1485, 842
3535, 4127, 1483, 4121, 841
3536, 4228, 3642, 3644, 3436
3537, 1314, 3088, 2251, 1338
3538, 3247, 2158, 2159, 2474
3539, 1782, 3027, 4213, 1857
3540, 4283, 2610, 1754, 4278
3541, 872, 542, 363, 4268
3542, 743, 2803, 116, 129
3543, 1906, 774, 2805, 3080
3544, 1561, 1490, 1823, 1803
3545, 2402, 2140, 2124, 3552
3546, 3758, 2138, 1188, 1522
3547, 3632, 1920, 1066, 2920
3548, 1716, 1717, 4165, 2377
3549, 3743, 640, 265, 3717
3550, 4174, 1245, 1720, 1645
3551, 1639, 4172, 3569, 3848
3552, 3847, 3940, 3583, 3444
3553, 1484, 3435, 824, 1499
3554, 4227, 841, 1497, 821
3555, 3360, 4113, 771, 1461
3556, 4333, 4317, 2492, 4327
3557, 4230, 1462, 1186, 1744
3558, 2522, 4205, 661, 244
3559, 1375, 2233, 1736, 2231
3560, 1616, 2573, 2971, 1714
3561, 4019, 3465, 3843, 3842
3562, 2378, 1766, 1145, 1767
3563, 3465, 1097, 3659, 3843
3564, 1926, 2970, 1925, 2636
3565, 1459, 1753, 816, 1562
3566, 4254, 4239, 2091, 4245
3567, 1179, 3547, 1169, 2479
3568, 1538, 1470, 4229, 3362
3569, 3323, 788, 1539, 2363
3570, 3289, 258, 646, 2934
3571, 4256, 4270, 1571, 3738
3572, 4289, 879, 2197, 4288
3573, 3617, 897, 2609, 3509
3574, 2848, 2922, 1216, 1218
3575, 2366, 1221, 3505, 2457
3576, 3308, 2762, 2454, 788
3577, 1611, 4135, 1478, 4104
3578, 2279, 602, 303, 2207
3579, 4119, 1480, 2826, 2825
3580, 4316, 4315, 1777, 2419
3581, 3288, 2828, 1531, 1201
3582, 837, 3298, 3435, 1484
3583, 3537, 4206, 829, 3536
3584, 3535, 834, 4206, 3537
3585, 822, 1527, 4137, 1525
3586, 1525, 4137, 1526, 823
3587, 1527, 824, 1526, 4137
3588, 2282, 1544, 2187, 2283
3589, 1464, 515, 390, 4114
3590, 2558, 4309, 511, 394
3591, 2127, 1189, 3059, 1193
3592, 4313, 3115, 2421, 4312
3593, 2992, 1065, 1056, 1945
3594, 1494, 1923, 2248, 2399
3595, 4003, 1250, 2766, 3394
3596, 4262, 1274, 1239, 1240
3597, 4024, 3623, 1173, 3764
3598, 4232, 3354, 3355, 3351
3599, 3863, 2297, 3235, 1166
3600, 4231, 4132, 1469, 1165
3601, 4106, 3367, 2279, 2207
3602, 3579, 3175, 3268, 3610
3603, 1708, 3103, 93, 6
3604, 1465, 2283, 4114, 1934
3605, 2636, 1925, 4131, 819
3606, 4143, 2591, 54, 45
3607, 2971, 2573, 41, 51
3608, 1166, 3235, 2413, 1511
3609, 3006, 2229, 4111, 1670
3610, 1603, 4163, 1351, 1551
3611, 1351, 1646, 810, 1352
3612, 1816, 2437, 1065, 1064
3613, 2546, 2572, 1545, 1554
3614, 4241, 4253, 2969, 2227
3615, 2685, 1442, 3492, 1898
3616, 2092, 4197, 507, 398
3617, 2570, 4142, 2387, 1960
3618, 1204, 1706, 2570, 782
3619, 2902, 131, 113, 2131
3620, 743, 1906, 3080, 2803
3621, 2710, 522, 383, 1823
3622, 4243, 2226, 1508, 4242
3623, 4244, 1451, 3209, 2226
3624, 813, 2592, 52, 43
3625, 3170, 1510, 3789, 3622
3626, 3169, 1185, 2649, 1162
3627, 1744, 1186, 2649, 1185
3628, 2188, 2092, 398, 506
3629, 1202, 3400, 4152, 3399
3630, 1567, 2205, 1707, 2204
3631, 3405, 3722, 3724, 3723
3632, 909, 905, 1883, 2022
3633, 1634, 3072, 2996, 2933
3634, 2611, 3874, 1578, 870
3635, 2304, 889, 720, 2613
3636, 3744, 3618, 140, 154
3637, 1683, 2704, 1320, 1323
3638, 1326, 712, 193, 3591
3639, 1320, 192, 712, 1326
3640, 1578, 4084, 3620, 3476
3641, 865, 2892, 858, 3619
3642, 3619, 858, 1728, 740
3643, 4171, 1271, 1257, 1266
3644, 1580, 1264, 3730, 3961
3645, 2666, 3837, 3838, 1672
3646, 893, 4275, 1756, 4273
3647, 4294, 157, 144, 739
3648, 4276, 361, 543, 3190
3649, 1075, 647, 258, 3289
3650, 1078, 2162, 1973, 2301
3651, 4058, 2644, 2625, 727
3652, 4058, 727, 3740, 1625
3653, 981, 1594, 4161, 1592
3654, 1592, 4161, 1593, 839
3655, 1594, 982, 1593, 4161
3656, 4071, 3802, 4167, 1315
3657, 1279, 3422, 3438, 1575
3658, 3314, 806, 1673, 3135
3659, 1445, 1600, 4162, 1598
3660, 1598, 4162, 1599, 1430
3661, 1600, 1446, 1599, 4162
3662, 1552, 1370, 1647, 3600
3663, 4218, 1785, 2, 29
3664, 2303, 1072, 2162, 1078
3665, 2473, 3606, 1051, 1611
3666, 3037, 3873, 1037, 2956
3667, 4155, 1319, 2218, 2638
3668, 3139, 4083, 3484, 1308
3669, 3166, 1042, 1605, 3144
3670, 3611, 2290, 2564, 1629
3671, 1048, 3595, 3594, 1053
3672, 2377, 4165, 2247, 3464
3673, 2006, 3784, 1387, 3091
3674, 2115, 3346, 242, 662
3675, 1346, 670, 235, 2296
3676, 2487, 1260, 1597, 3467
3677, 2114, 3956, 1574, 1618
3678, 2887, 446, 458, 2733
3679, 4172, 1640, 3599, 3568
3680, 4262, 2744, 2742, 1274
3681, 1238, 1240, 1620, 3584
3682, 1623, 1591, 4070, 3613
3683, 1119, 4058, 1625, 1092
3684, 4168, 1090, 1591, 1623
3685, 3187, 2952, 2890, 3414
3686, 2278, 3933, 568, 337
3687, 943, 944, 575, 330
3688, 953, 316, 588, 3869
3689, 2290, 3835, 2026, 2564
3690, 2668, 951, 2110, 1583
3691, 3835, 3531, 1023, 2026
3692, 3799, 2027, 1022, 2025
3693, 1950, 2997, 1947, 2995
3694, 2733, 458, 447, 2000
3695, 3894, 2275, 3151, 2355
3696, 1265, 3961, 3730, 2312
3697, 3765, 4262, 1240, 1238
3698, 3806, 1275, 3585, 1535
3699, 1640, 3806, 1535, 3599
3700, 1641, 2760, 4173, 1322
3701, 1642, 1834, 2679, 3315
3702, 2767, 2748, 1252, 2984
3703, 2336, 2767, 2984, 3441
3704, 1646, 1360, 3221, 810
3705, 1551, 1351, 1352, 1553
3706, 2156, 2903, 3379, 3326
3707, 2406, 348, 556, 844
3708, 2405, 2406, 844, 2286
3709, 3656, 907, 352, 552
3710, 1838, 1233, 3002, 1652
3711, 3001, 2799, 3042, 3434
3712, 2866, 1231, 796, 4175
3713, 2945, 1107, 2818, 3575
3714, 1111, 1655, 2241, 1143
3715, 4177, 209, 695, 2062
3716, 2729, 3407, 2972, 2213
3717, 1457, 1403, 216, 688
3718, 1425, 1661, 4178, 1659
3719, 1659, 4178, 1660, 1426
3720, 1661, 1445, 1660, 4178
3721, 3028, 1577, 3646, 3069
3722, 1662, 1489, 885, 2559
3723, 1573, 4295, 1664, 2665
3724, 888, 2575, 1772, 2167
3725, 2380, 4180, 4062, 748
3726, 2463, 883, 525, 380
3727, 3008, 3370, 3372, 3371
3728, 1669, 2674, 965, 1668
3729, 4189, 3974, 3075, 2736
3730, 2230, 1013, 1938, 1009
3731, 3363, 1010, 3223, 2989
3732, 1008, 2445, 955, 950
3733, 1259, 3605, 1264, 1580
3734, 3636, 2714, 4054, 1286
3735, 3575, 2821, 2349, 2875
3736, 2271, 1685, 616, 289
3737, 2830, 2874, 278, 626
3738, 931, 4100, 3903, 3932
3739, 4157, 1242, 4014, 2946
3740, 2946, 4014, 3961, 1265
3741, 2321, 2322, 3729, 3910
3742, 2083, 1880, 1325, 3668
3743, 1313, 3127, 2705, 1289
3744, 3841, 2829, 1979, 1916
3745, 2250, 1916, 1685, 2271
3746, 2881, 3487, 3705, 2040
3747, 2618, 2617, 997, 1687
3748, 994, 1809, 2618, 1687
3749, 4266, 3877, 4188, 756
3750, 1669, 3008, 4189, 2674
3751, 3076, 2338, 972, 3923
3752, 1667, 3009, 968, 963
3753, 2107, 3706, 3774, 3278
3754, 4047, 3767, 4216, 4096
3755, 4212, 2859, 4089, 1454
3756, 3016, 1816, 1064, 1792
3757, 3131, 938, 2102, 3447
3758, 2502, 2011, 2790, 945
3759, 4152, 3596, 3953, 2459
3760, 4310, 125, 119, 777
3761, 955, 1696, 1011, 1697
3762, 1007, 3109, 2228, 3906
3763, 3156, 1701, 783, 3402
3764, 3234, 1177, 4210, 3914
3765, 3501, 2363, 1214, 2034
3766, 3565, 2053, 1314, 1338
3767, 3302, 2109, 3112, 3937
3768, 1307, 3344, 2535, 1285
3769, 3767, 4006, 1456, 4216
3770, 2211, 1983, 1402, 1657
3771, 3603, 4096, 3997, 3343
3772, 2281, 1936, 1935, 2973
3773, 1557, 781, 3791, 3822
3774, 1559, 1567, 1204, 1708
3775, 1282, 3539, 4071, 3538
3776, 3539, 3135, 3802, 4071
3777, 1713, 1444, 1505, 2515
3778, 4204, 3064, 1383, 3225
3779, 3092, 234, 670, 1346
3780, 1069, 1060, 1093, 1068
3781, 2378, 1767, 4019, 1057
3782, 1237, 3848, 3847, 3444
3783, 1244, 3393, 3129, 4305
3784, 3259, 3257, 941, 2661
3785, 2296, 235, 669, 1381
3786, 3232, 2008, 1367, 4299
3787, 4129, 671, 234, 3092
3788, 3196, 2754, 3975, 1225
3789, 2754, 3941, 1229, 3975
3790, 2152, 2220, 1231, 2866
3791, 4293, 4297, 2497, 2293
3792, 3476, 3620, 3066, 862
3793, 4268, 363, 541, 1514
3794, 3784, 1616, 1714, 1391
3795, 1383, 3090, 3783, 1378
3796, 3346, 1735, 663, 242
3797, 1964, 672, 233, 3777
3798, 2813, 1388, 1735, 3346
3799, 1424, 1964, 3777, 4209
3800, 4053, 3447, 3356, 2276
3801, 3415, 3534, 3445, 3298
3802, 1524, 2781, 4052, 3242
3803, 2648, 2965, 2963, 3157
3804, 1835, 190, 714, 3957
3805, 2707, 4069, 1311, 4186
3806, 1292, 2082, 3140, 3184
3807, 3373, 3169, 1162, 3057
3808, 3789, 1744, 1185, 4208
3809, 2484, 2735, 3065, 3935
3810, 2172, 2519, 1503, 2948
3811, 3457, 3694, 4209, 1379
3812, 3274, 1943, 784, 768
3813, 1164, 1183, 1521, 1177
3814, 3914, 4210, 1701, 3156
3815, 1443, 1753, 4211, 1751
3816, 1751, 4211, 1752, 1441
3817, 1753, 1459, 1752, 4211
3818, 3310, 3796, 699, 206
3819, 2721, 3322, 4083, 3139
3820, 2105, 2758, 2915, 2860
3821, 4267, 3478, 3874, 2611
3822, 1466, 1468, 1662, 4133
3823, 1997, 3191, 4270, 4256
3824, 3098, 2176, 3238, 826
3825, 902, 901, 919, 900
3826, 2775, 3239, 2832, 3897
3827, 1453, 4056, 4050, 3581
3828, 4167, 3805, 3946, 4182
3829, 1247, 3929, 2086, 4107
3830, 3077, 686, 219, 3860
3831, 3859, 3494, 3214, 1409
3832, 1395, 2493, 2913, 3865
3833, 1952, 2352, 1691, 3136
3834, 2213, 2972, 2329, 3113
3835, 910, 3055, 2024, 1948
3836, 914, 3918, 4085, 3748
3837, 844, 556, 349, 848
3838, 1922, 2246, 3244, 3719
3839, 3463, 2928, 1101, 4018
3840, 1076, 2925, 2836, 1884
3841, 1085, 3470, 3760, 1072
3842, 1086, 1793, 2654, 1770
3843, 2049, 884, 108, 137
3844, 2304, 2168, 2389, 889
3845, 895, 887, 2305, 3832
3846, 2162, 3821, 1589, 1973
3847, 1787, 1084, 3462, 1886
3848, 4200, 2884, 1966, 1717
3849, 1209, 2554, 3692, 3693
3850, 2415, 410, 494, 3294
3851, 4220, 3948, 2236, 4313
3852, 1194, 2671, 1742, 1191
3853, 3298, 3445, 4059, 3435
3854, 2501, 923, 3448, 931
3855, 4314, 1532, 4312, 4331
3856, 2498, 3189, 3191, 1997
3857, 1909, 362, 542, 872
3858, 4298, 3895, 873, 3406
3859, 761, 1970, 760, 1079
3860, 1071, 2837, 1074, 2904
3861, 2493, 2782, 1405, 1433
3862, 3249, 2096, 4032, 1437
3863, 1393, 3891, 2180, 1411
3864, 3141, 1064, 1065, 2992
3865, 3634, 1357, 2436, 2431
3866, 2439, 1770, 1080, 1513
3867, 4245, 2091, 46, 56
3868, 3686, 2090, 2635, 3210
3869, 1498, 4227, 3626, 3627
3870, 4228, 1498, 3627, 3418
3871, 3655, 1540, 3623, 4024
3872, 4232, 3655, 4024, 3354
3873, 814, 1897, 815, 3506
3874, 1546, 814, 3506, 1452
3875, 2621, 1546, 1452, 2968
3876, 4244, 2621, 2968, 1451
3877, 4246, 70, 60, 2684
3878, 4247, 4246, 2684, 1897
3879, 4248, 4247, 1897, 814
3880, 4249, 4248, 814, 1546
3881, 4250, 4249, 1546, 2621
3882, 4254, 4250, 2621, 4244
3883, 2593, 49, 4, 59
3884, 4246, 2593, 59, 70
3885, 812, 58, 49, 2593
3886, 4247, 812, 2593, 4246
3887, 4147, 48, 58, 812
3888, 4248, 4147, 812, 4247
3889, 2620, 57, 48, 4147
3890, 4249, 2620, 4147, 4248
3891, 1563, 47, 57, 2620
3892, 4250, 1563, 2620, 4249
3893, 4245, 56, 47, 1563
3894, 4254, 4245, 1563, 4250
3895, 4281, 4256, 3738, 3653
3896, 3189, 2292, 4276, 3191
3897, 4213, 1588, 3510, 2628
3898, 4203, 3671, 3027, 1782
3899, 3653, 3738, 3028, 3652
3900, 3671, 3651, 2937, 3027
3901, 3765, 4261, 1277, 1276
3902, 4262, 3765, 1276, 1622
3903, 1472, 4263, 3594, 3595
3904, 4264, 1472, 3595, 3593
3905, 756, 4265, 2809, 2811
3906, 4266, 756, 2811, 1992
3907, 3959, 3958, 854, 3915
3908, 3618, 2918, 153, 140
3909, 4273, 737, 3958, 3959
3910, 874, 4179, 537, 368
3911, 1756, 145, 159, 2664
3912, 4273, 1756, 2664, 737
3913, 3510, 2663, 2288, 897
3914, 894, 4277, 535, 370
3915, 741, 2632, 2630, 3500
3916, 3778, 2379, 3712, 1587
3917, 3026, 1488, 536, 369
3918, 1729, 366, 538, 1515
3919, 2046, 898, 874, 1488
3920, 3672, 2559, 3663, 1783
3921, 3406, 873, 4267, 4260
3922, 3068, 1663, 4203, 2199
3923, 2200, 3771, 155, 142
3924, 1990, 2200, 142, 156
3925, 4274, 1990, 156, 143
3926, 4294, 4274, 143, 157
3927, 4278, 4297, 4293, 4269
3928, 4283, 4278, 4269, 3770
3929, 4284, 4283, 3770, 2289
3930, 4285, 4284, 2289, 2918
3931, 4286, 4285, 2918, 3618
3932, 4287, 4286, 3618, 3744
3933, 4288, 4287, 3744, 1910
3934, 4289, 4288, 1910, 3771
3935, 4290, 4289, 3771, 2200
3936, 4291, 4290, 2200, 1990
3937, 4292, 4291, 1990, 4274
3938, 4298, 4292, 4274, 4294
3939, 4199, 3883, 1617, 4300
3940, 2233, 3685, 2115, 3697
3941, 3987, 4301, 2277, 928
3942, 4206, 827, 3446, 829
3943, 2341, 257, 647, 1075
3944, 3454, 2173, 2619, 2171
3945, 1373, 1382, 2516, 2947
3946, 2769, 457, 448, 1636
3947, 2320, 3466, 2734, 2337
3948, 1491, 4307, 2194, 746
3949, 4308, 1491, 746, 744
3950, 2594, 4309, 2558, 2967
3951, 4310, 2594, 2967, 1956
3952, 4318, 103, 90, 2590
3953, 4319, 89, 103, 4318
3954, 4333, 102, 89, 4319
3955, 4329, 3057, 101, 88
3956, 4333, 4329, 88, 102
3957, 2400, 4328, 1187, 3281
3958, 4039, 2400, 3281, 1181
3959, 3114, 4039, 1181, 1521
3960, 2938, 3114, 1521, 1183
3961, 2237, 2938, 1183, 1743
3962, 1195, 2237, 1743, 1194
3963, 2416, 1195, 1194, 1191
3964, 3803, 2416, 1191, 3373
3965, 4329, 3803, 3373, 3057
3966, 4320, 4332, 4328, 2400
3967, 4321, 4320, 2400, 4039
3968, 4322, 4321, 4039, 3114
3969, 4323, 4322, 3114, 2938
3970, 4324, 4323, 2938, 2237
3971, 4325, 4324, 2237, 1195
3972, 4326, 4325, 1195, 2416
3973, 4327, 4326, 2416, 3803
3974, 4333, 4327, 3803, 4329
*ELSET,ELSET=contact_source
163, 164, 165, 166, 167, 168, 169, 170, 171, 172, 
173, 174, 175, 176, 177, 178, 179, 180, 181, 182, 
183, 184, 
*ELSET,ELSET=contact_drain
53, 54, 55, 56, 57, 58, 59, 60, 61, 62, 
63, 64, 65, 66, 67, 68, 69, 70, 71, 72, 
73, 74, 
*ELSET,ELSET=probe_A
103, 104, 105, 106, 107, 108, 109, 110, 111, 112, 
113, 114, 115, 116, 117, 118, 119, 120, 121, 122, 
123, 124, 125, 126, 127, 128, 129, 130, 131, 132, 
133, 134, 
*ELSET,ELSET=probe_B
21, 22, 23, 24, 25, 26, 27, 28, 29, 30, 
31, 32, 
*ELSET,ELSET=walls
1, 2, 3, 4, 5, 6, 7, 8, 9, 10, 
11, 12, 13, 14, 15, 16, 17, 18, 19, 20, 
33, 34, 35, 36, 37, 38, 39, 40, 41, 42, 
43, 44, 45, 46, 47, 48, 49, 50, 51, 52, 
75, 76, 77, 78, 79, 80, 81, 82, 83, 84, 
85, 86, 87, 88, 89, 90, 91, 92, 93, 94, 
95, 96, 97, 98, 99, 100, 101, 102, 135, 136, 
137, 138, 139, 140, 141, 142, 143, 144, 145, 146, 
147, 148, 149, 150, 151, 152, 153, 154, 155, 156, 
157, 158, 159, 160, 161, 162, 185, 186, 187, 188, 
189, 190, 191, 192, 193, 194, 195, 196, 197, 198, 
199, 200, 201, 202, 203, 204, 205, 206, 207, 208, 
209, 210, 211, 212, 213, 214, 215, 216, 217, 218, 
219, 220, 221, 222, 223, 224, 225, 226, 227, 228, 
229, 230, 231, 232, 233, 234, 235, 236, 237, 238, 
239, 240, 241, 242, 243, 244, 245, 246, 247, 248, 
249, 250, 251, 252, 253, 254, 255, 256, 257, 258, 
259, 260, 261, 262, 263, 264, 265, 266, 267, 268, 
269, 270, 271, 272, 273, 274, 275, 276, 277, 278, 
279, 280, 281, 282, 283, 284, 285, 286, 287, 288, 
289, 290, 291, 292, 293, 294, 295, 296, 297, 298, 
299, 300, 301, 302, 303, 304, 305, 306, 307, 308, 
309, 310, 311, 312, 313, 314, 315, 316, 317, 318, 
319, 320, 321, 322, 323, 324, 325, 326, 327, 328, 
329, 330, 331, 332, 333, 334, 335, 336, 337, 338, 
339, 340, 341, 342, 343, 344, 345, 346, 347, 348, 
349, 350, 351, 352, 353, 354, 355, 356, 357, 358, 
359, 360, 361, 362, 363, 364, 365, 366, 367, 368, 
369, 370, 371, 372, 373, 374, 375, 376, 377, 378, 
379, 380, 381, 382, 383, 384, 385, 386, 387, 388, 
389, 390, 391, 392, 393, 394, 395, 396, 397, 398, 
399, 400, 401, 402, 403, 404, 405, 406, 407, 408, 
409, 410, 411, 412, 413, 414, 415, 416, 417, 418, 
419, 420, 421, 422, 423, 424, 425, 426, 427, 428, 
429, 430, 431, 432, 433, 434, 435, 436, 437, 438, 
439, 440, 441, 442, 443, 444, 445, 446, 447, 448, 
449, 450, 451, 452, 453, 454, 455, 456, 457, 458, 
459, 460, 461, 462, 463, 464, 465, 466, 467, 468, 
469, 470, 471, 472, 473, 474, 475, 476, 477, 478, 
479, 480, 481, 482, 483, 484, 485, 486, 487, 488, 
489, 490, 491, 492, 493, 494, 495, 496, 497, 498, 
499, 500, 501, 502, 503, 504, 505, 506, 507, 508, 
509, 510, 511, 512, 513, 514, 515, 516, 517, 518, 
519, 520, 521, 522, 523, 524, 525, 526, 527, 528, 
529, 530, 531, 532, 533, 534, 535, 536, 537, 538, 
539, 540, 541, 542, 543, 544, 545, 546, 547, 548, 
549, 550, 551, 552, 553, 554, 555, 556, 557, 558, 
559, 560, 561, 562, 563, 564, 565, 566, 567, 568, 
569, 570, 571, 572, 573, 574, 575, 576, 577, 578, 
579, 580, 581, 582, 583, 584, 585, 586, 587, 588, 
589, 590, 591, 592, 593, 594, 595, 596, 597, 598, 
599, 600, 601, 602, 603, 604, 605, 606, 607, 608, 
609, 610, 611, 612, 613, 614, 615, 616, 617, 618, 
619, 620, 621, 622, 623, 624, 625, 626, 627, 628, 
629, 630, 631, 632, 633, 634, 635, 636, 637, 638, 
639, 640, 641, 642, 643, 644, 645, 646, 647, 648, 
649, 650, 651, 652, 653, 654, 655, 656, 657, 658, 
659, 660, 661, 662, 663, 664, 665, 666, 667, 668, 
669, 670, 671, 672, 673, 674, 675, 676, 677, 678, 
679, 680, 681, 682, 683, 684, 685, 686, 687, 688, 
689, 690, 691, 692, 693, 694, 695, 696, 697, 698, 
699, 700, 701, 702, 703, 704, 705, 706, 707, 708, 
709, 710, 711, 712, 713, 714, 715, 716, 717, 718, 
*ELSET,ELSET=domain
719, 720, 721, 722, 723, 724, 725, 726, 727, 728, 
729, 730, 731, 732, 733, 734, 735, 736, 737, 738, 
739, 740, 741, 742, 743, 744, 745, 746, 747, 748, 
749, 750, 751, 752, 753, 754, 755, 756, 757, 758, 
759, 760, 761, 762, 763, 764, 765, 766, 767, 768, 
769, 770, 771, 772, 773, 774, 775, 776, 777, 778, 
779, 780, 781, 782, 783, 784, 785, 786, 787, 788, 
789, 790, 791, 792, 793, 794, 795, 796, 797, 798, 
799, 800, 801, 802, 803, 804, 805, 806, 807, 808, 
809, 810, 811, 812, 813, 814, 815, 816, 817, 818, 
819, 820, 821, 822, 823, 824, 825, 826, 827, 828, 
829, 830, 831, 832, 833, 834, 835, 836, 837, 838, 
839, 840, 841, 842, 843, 844, 845, 846, 847, 848, 
849, 850, 851, 852, 853, 854, 855, 856, 857, 858, 
859, 860, 861, 862, 863, 864, 865, 866, 867, 868, 
869, 870, 871, 872, 873, 874, 875, 876, 877, 878, 
879, 880, 881, 882, 883, 884, 885, 886, 887, 888, 
889, 890, 891, 892, 893, 894, 895, 896, 897, 898, 
899, 900, 901, 902, 903, 904, 905, 906, 907, 908, 
909, 910, 911, 912, 913, 914, 915, 916, 917, 918, 
919, 920, 921, 922, 923, 924, 925, 926, 927, 928, 
929, 930, 931, 932, 933, 934, 935, 936, 937, 938, 
939, 940, 941, 942, 943, 944, 945, 946, 947, 948, 
949, 950, 951, 952, 953, 954, 955, 956, 957, 958, 
959, 960, 961, 962, 963, 964, 965, 966, 967, 968, 
969, 970, 971, 972, 973, 974, 975, 976, 977, 978, 
979, 980, 981, 982, 983, 984, 985, 986, 987, 988, 
989, 990, 991, 992, 993, 994, 995, 996, 997, 998, 
999, 1000, 1001, 1002, 1003, 1004, 1005, 1006, 1007, 1008, 
1009, 1010, 1011, 1012, 1013, 1014, 1015, 1016, 1017, 1018, 
1019, 1020, 1021, 1022, 1023, 1024, 1025, 1026, 1027, 1028, 
1029, 1030, 1031, 1032, 1033, 1034, 1035, 1036, 1037, 1038, 
1039, 1040, 1041, 1042, 1043, 1044, 1045, 1046, 1047, 1048, 
1049, 1050, 1051, 1052, 1053, 1054, 1055, 1056, 1057, 1058, 
1059, 1060, 1061, 1062, 1063, 1064, 1065, 1066, 1067, 1068, 
1069, 1070, 1071, 1072, 1073, 1074, 1075, 1076, 1077, 1078, 
1079, 1080, 1081, 1082, 1083, 1084, 1085, 1086, 1087, 1088, 
1089, 1090, 1091, 1092, 1093, 1094, 1095, 1096, 1097, 1098, 
1099, 1100, 1101, 1102, 1103, 1104, 1105, 1106, 1107, 1108, 
1109, 1110, 1111, 1112, 1113, 1114, 1115, 1116, 1117, 1118, 
1119, 1120, 1121, 1122, 1123, 1124, 1125, 1126, 1127, 1128, 
1129, 1130, 1131, 1132, 1133, 1134, 1135, 1136, 1137, 1138, 
1139, 1140, 1141, 1142, 1143, 1144, 1145, 1146, 1147, 1148, 
1149, 1150, 1151, 1152, 1153, 1154, 1155, 1156, 1157, 1158, 
1159, 1160, 1161, 1162, 1163, 1164, 1165, 1166, 1167, 1168, 
1169, 1170, 1171, 1172, 1173, 1174, 1175, 1176, 1177, 1178, 
1179, 1180, 1181, 1182, 1183, 1184, 1185, 1186, 1187, 1188, 
1189, 1190, 1191, 1192, 1193, 1194, 1195, 1196, 1197, 1198, 
1199, 1200, 1201, 1202, 1203, 1204, 1205, 1206, 1207, 1208, 
1209, 1210, 1211, 1212, 1213, 1214, 1215, 1216, 1217, 1218, 
1219, 1220, 1221, 1222, 1223, 1224, 1225, 1226, 1227, 1228, 
1229, 1230, 1231, 1232, 1233, 1234, 1235, 1236, 1237, 1238, 
1239, 1240, 1241, 1242, 1243, 1244, 1245, 1246, 1247, 1248, 
1249, 1250, 1251, 1252, 1253, 1254, 1255, 1256, 1257, 1258, 
1259, 1260, 1261, 1262, 1263, 1264, 1265, 1266, 1267, 1268, 
1269, 1270, 1271, 1272, 1273, 1274, 1275, 1276, 1277, 1278, 
1279, 1280, 1281, 1282, 1283, 1284, 1285, 1286, 1287, 1288, 
1289, 1290, 1291, 1292, 1293, 1294, 1295, 1296, 1297, 1298, 
1299, 1300, 1301, 1302, 1303, 1304, 1305, 1306, 1307, 1308, 
1309, 1310, 1311, 1312, 1313, 1314, 1315, 1316, 1317, 1318, 
1319, 1320, 1321, 1322, 1323, 1324, 1325, 1326, 1327, 1328, 
1329, 1330, 1331, 1332, 1333, 1334, 1335, 1336, 1337, 1338, 
1339, 1340, 1341, 1342, 1343, 1344, 1345, 1346, 1347, 1348, 
1349, 1350, 1351, 1352, 1353, 1354, 1355, 1356, 1357, 1358, 
1359, 1360, 1361, 1362, 1363, 1364, 1365, 1366, 1367, 1368, 
1369, 1370, 1371, 1372, 1373, 1374, 1375, 1376, 1377, 1378, 
1379, 1380, 1381, 1382, 1383, 1384, 1385, 1386, 1387, 1388, 
1389, 1390, 1391, 1392, 1393, 1394, 1395, 1396, 1397, 1398, 
1399, 1400, 1401, 1402, 1403, 1404, 1405, 1406, 1407, 1408, 
1409, 1410, 1411, 1412, 1413, 1414, 1415, 1416, 1417, 1418, 
1419, 1420, 1421, 1422, 1423, 1424, 1425, 1426, 1427, 1428, 
1429, 1430, 1431, 1432, 1433, 1434, 1435, 1436, 1437, 1438, 
1439, 1440, 1441, 1442, 1443, 1444, 1445, 1446, 1447, 1448, 
1449, 1450, 1451, 1452, 1453, 1454, 1455, 1456, 1457, 1458, 
1459, 1460, 1461, 1462, 1463, 1464, 1465, 1466, 1467, 1468, 
1469, 1470, 1471, 1472, 1473, 1474, 1475, 1476, 1477, 1478, 
1479, 1480, 1481, 1482, 1483, 1484, 1485, 1486, 1487, 1488, 
1489, 1490, 1491, 1492, 1493, 1494, 1495, 1496, 1497, 1498, 
1499, 1500, 1501, 1502, 1503, 1504, 1505, 1506, 1507, 1508, 
1509, 1510, 1511, 1512, 1513, 1514, 1515, 1516, 1517, 1518, 
1519, 1520, 1521, 1522, 1523, 1524, 1525, 1526, 1527, 1528, 
1529, 1530, 1531, 1532, 1533, 1534, 1535, 1536, 1537, 1538, 
1539, 1540, 1541, 1542, 1543, 1544, 1545, 1546, 1547, 1548, 
1549, 1550, 1551, 1552, 1553, 1554, 1555, 1556, 1557, 1558, 
1559, 1560, 1561, 1562, 1563, 1564, 1565, 1566, 1567, 1568, 
1569, 1570, 1571, 1572, 1573, 1574, 1575, 1576, 1577, 1578, 
1579, 1580, 1581, 1582, 1583, 1584, 1585, 1586, 1587, 1588, 
1589, 1590, 1591, 1592, 1593, 1594, 1595, 1596, 1597, 1598, 
1599, 1600, 1601, 1602, 1603, 1604, 1605, 1606, 1607, 1608, 
1609, 1610, 1611, 1612, 1613, 1614, 1615, 1616, 1617, 1618, 
1619, 1620, 1621, 1622, 1623, 1624, 1625, 1626, 1627, 1628, 
1629, 1630, 1631, 1632, 1633, 1634, 1635, 1636, 1637, 1638, 
1639, 1640, 1641, 1642, 1643, 1644, 1645, 1646, 1647, 1648, 
1649, 1650, 1651, 1652, 1653, 1654, 1655, 1656, 1657, 1658, 
1659, 1660, 1661, 1662, 1663, 1664, 1665, 1666, 1667, 1668, 
1669, 1670, 1671, 1672, 1673, 1674, 1675, 1676, 1677, 1678, 
1679, 1680, 1681, 1682, 1683, 1684, 1685, 1686, 1687, 1688, 
1689, 1690, 1691, 1692, 1693, 1694, 1695, 1696, 1697, 1698, 
1699, 1700, 1701, 1702, 1703, 1704, 1705, 1706, 1707, 1708, 
1709, 1710, 1711, 1712, 1713, 1714, 1715, 1716, 1717, 1718, 
1719, 1720, 1721, 1722, 1723, 1724, 1725, 1726, 1727, 1728, 
1729, 1730, 1731, 1732, 1733, 1734, 1735, 1736, 1737, 1738, 
1739, 1740, 1741, 1742, 1743, 1744, 1745, 1746, 1747, 1748, 
1749, 1750, 1751, 1752, 1753, 1754, 1755, 1756, 1757, 1758, 
1759, 1760, 1761, 1762, 1763, 1764, 1765, 1766, 1767, 1768, 
1769, 1770, 1771, 1772, 1773, 1774, 1775, 1776, 1777, 1778, 
1779, 1780, 1781, 1782, 1783, 1784, 1785, 1786, 1787, 1788, 
1789, 1790, 1791, 1792, 1793, 1794, 1795, 1796, 1797, 1798, 
1799, 1800, 1801, 1802, 1803, 1804, 1805, 1806, 1807, 1808, 
1809, 1810, 1811, 1812, 1813, 1814, 1815, 1816, 1817, 1818, 
1819, 1820, 1821, 1822, 1823, 1824, 1825, 1826, 1827, 1828, 
1829, 1830, 1831, 1832, 1833, 1834, 1835, 1836, 1837, 1838, 
1839, 1840, 1841, 1842, 1843, 1844, 1845, 1846, 1847, 1848, 
1849, 1850, 1851, 1852, 1853, 1854, 1855, 1856, 1857, 1858, 
1859, 1860, 1861, 1862, 1863, 1864, 1865, 1866, 1867, 1868, 
1869, 1870, 1871, 1872, 1873, 1874, 1875, 1876, 1877, 1878, 
1879, 1880, 1881, 1882, 1883, 1884, 1885, 1886, 1887, 1888, 
1889, 1890, 1891, 1892, 1893, 1894, 1895, 1896, 1897, 1898, 
1899, 1900, 1901, 1902, 1903, 1904, 1905, 1906, 1907, 1908, 
1909, 1910, 1911, 1912, 1913, 1914, 1915, 1916, 1917, 1918, 
1919, 1920, 1921, 1922, 1923, 1924, 1925, 1926, 1927, 1928, 
1929, 1930, 1931, 1932, 1933, 1934, 1935, 1936, 1937, 1938, 
1939, 1940, 1941, 1942, 1943, 1944, 1945, 1946, 1947, 1948, 
1949, 1950, 1951, 1952, 1953, 1954, 1955, 1956, 1957, 1958, 
1959, 1960, 1961, 1962, 1963, 1964, 1965, 1966, 1967, 1968, 
1969, 1970, 1971, 1972, 1973, 1974, 1975, 1976, 1977, 1978, 
1979, 1980, 1981, 1982, 1983, 1984, 1985, 1986, 1987, 1988, 
1989, 1990, 1991, 1992, 1993, 1994, 1995, 1996, 1997, 1998, 
1999, 2000, 2001, 2002, 2003, 2004, 2005, 2006, 2007, 2008, 
2009, 2010, 2011, 2012, 2013, 2014, 2015, 2016, 2017, 2018, 
2019, 2020, 2021, 2022, 2023, 2024, 2025, 2026, 2027, 2028, 
2029, 2030, 2031, 2032, 2033, 2034, 2035, 2036, 2037, 2038, 
2039, 2040, 2041, 2042, 2043, 2044, 2045, 2046, 2047, 2048, 
2049, 2050, 2051, 2052, 2053, 2054, 2055, 2056, 2057, 2058, 
2059, 2060, 2061, 2062, 2063, 2064, 2065, 2066, 2067, 2068, 
2069, 2070, 2071, 2072, 2073, 2074, 2075, 2076, 2077, 2078, 
2079, 2080, 2081, 2082, 2083, 2084, 2085, 2086, 2087, 2088, 
2089, 2090, 2091, 2092, 2093, 2094, 2095, 2096, 2097, 2098, 
2099, 2100, 2101, 2102, 2103, 2104, 2105, 2106, 2107, 2108, 
2109, 2110, 2111, 2112, 2113, 2114, 2115, 2116, 2117, 2118, 
2119, 2120, 2121, 2122, 2123, 2124, 2125, 2126, 2127, 2128, 
2129, 2130, 2131, 2132, 2133, 2134, 2135, 2136, 2137, 2138, 
2139, 2140, 2141, 2142, 2143, 2144, 2145, 2146, 2147, 2148, 
2149, 2150, 2151, 2152, 2153, 2154, 2155, 2156, 2157, 2158, 
2159, 2160, 2161, 2162, 2163, 2164, 2165, 2166, 2167, 2168, 
2169, 2170, 2171, 2172, 2173, 2174, 2175, 2176, 2177, 2178, 
2179, 2180, 2181, 2182, 2183, 2184, 2185, 2186, 2187, 2188, 
2189, 2190, 2191, 2192, 2193, 2194, 2195, 2196, 2197, 2198, 
2199, 2200, 2201, 2202, 2203, 2204, 2205, 2206, 2207, 2208, 
2209, 2210, 2211, 2212, 2213, 2214, 2215, 2216, 2217, 2218, 
2219, 2220, 2221, 2222, 2223, 2224, 2225, 2226, 2227, 2228, 
2229, 2230, 2231, 2232, 2233, 2234, 2235, 2236, 2237, 2238, 
2239, 2240, 2241, 2242, 2243, 2244, 2245, 2246, 2247, 2248, 
2249, 2250, 2251, 2252, 2253, 2254, 2255, 2256, 2257, 2258, 
2259, 2260, 2261, 2262, 2263, 2264, 2265, 2266, 2267, 2268, 
2269, 2270, 2271, 2272, 2273, 2274, 2275, 2276, 2277, 2278, 
2279, 2280, 2281, 2282, 2283, 2284, 2285, 2286, 2287, 2288, 
2289, 2290, 2291, 2292, 2293, 2294, 2295, 2296, 2297, 2298, 
2299, 2300, 2301, 2302, 2303, 2304, 2305, 2306, 2307, 2308, 
2309, 2310, 2311, 2312, 2313, 2314, 2315, 2316, 2317, 2318, 
2319, 2320, 2321, 2322, 2323, 2324, 2325, 2326, 2327, 2328, 
2329, 2330, 2331, 2332, 2333, 2334, 2335, 2336, 2337, 2338, 
2339, 2340, 2341, 2342, 2343, 2344, 2345, 2346, 2347, 2348, 
2349, 2350, 2351, 2352, 2353, 2354, 2355, 2356, 2357, 2358, 
2359, 2360, 2361, 2362, 2363, 2364, 2365, 2366, 2367, 2368, 
2369, 2370, 2371, 2372, 2373, 2374, 2375, 2376, 2377, 2378, 
2379, 2380, 2381, 2382, 2383, 2384, 2385, 2386, 2387, 2388, 
2389, 2390, 2391, 2392, 2393, 2394, 2395, 2396, 2397, 2398, 
2399, 2400, 2401, 2402, 2403, 2404, 2405, 2406, 2407, 2408, 
2409, 2410, 2411, 2412, 2413, 2414, 2415, 2416, 2417, 2418, 
2419, 2420, 2421, 2422, 2423, 2424, 2425, 2426, 2427, 2428, 
2429, 2430, 2431, 2432, 2433, 2434, 2435, 2436, 2437, 2438, 
2439, 2440, 2441, 2442, 2443, 2444, 2445, 2446, 2447, 2448, 
2449, 2450, 2451, 2452, 2453, 2454, 2455, 2456, 2457, 2458, 
2459, 2460, 2461, 2462, 2463, 2464, 2465, 2466, 2467, 2468, 
2469, 2470, 2471, 2472, 2473, 2474, 2475, 2476, 2477, 2478, 
2479, 2480, 2481, 2482, 2483, 2484, 2485, 2486, 2487, 2488, 
2489, 2490, 2491, 2492, 2493, 2494, 2495, 2496, 2497, 2498, 
2499, 2500, 2501, 2502, 2503, 2504, 2505, 2506, 2507, 2508, 
2509, 2510, 2511, 2512, 2513, 2514, 2515, 2516, 2517, 2518, 
2519, 2520, 2521, 2522, 2523, 2524, 2525, 2526, 2527, 2528, 
2529, 2530, 2531, 2532, 2533, 2534, 2535, 2536, 2537, 2538, 
2539, 2540, 2541, 2542, 2543, 2544, 2545, 2546, 2547, 2548, 
2549, 2550, 2551, 2552, 2553, 2554, 2555, 2556, 2557, 2558, 
2559, 2560, 2561, 2562, 2563, 2564, 2565, 2566, 2567, 2568, 
2569, 2570, 2571, 2572, 2573, 2574, 2575, 2576, 2577, 2578, 
2579, 2580, 2581, 2582, 2583, 2584, 2585, 2586, 2587, 2588, 
2589, 2590, 2591, 2592, 2593, 2594, 2595, 2596, 2597, 2598, 
2599, 2600, 2601, 2602, 2603, 2604, 2605, 2606, 2607, 2608, 
2609, 2610, 2611, 2612, 2613, 2614, 2615, 2616, 2617, 2618, 
2619, 2620, 2621, 2622, 2623, 2624, 2625, 2626, 2627, 2628, 
2629, 2630, 2631, 2632, 2633, 2634, 2635, 2636, 2637, 2638, 
2639, 2640, 2641, 2642, 2643, 2644, 2645, 2646, 2647, 2648, 
2649, 2650, 2651, 2652, 2653, 2654, 2655, 2656, 2657, 2658, 
2659, 2660, 2661, 2662, 2663, 2664, 2665, 2666, 2667, 2668, 
2669, 2670, 2671, 2672, 2673, 2674, 2675, 2676, 2677, 2678, 
2679, 2680, 2681, 2682, 2683, 2684, 2685, 2686, 2687, 2688, 
2689, 2690, 2691, 2692, 2693, 2694, 2695, 2696, 2697, 2698, 
2699, 2700, 2701, 2702, 2703, 2704, 2705, 2706, 2707, 2708, 
2709, 2710, 2711, 2712, 2713, 2714, 2715, 2716, 2717, 2718, 
2719, 2720, 2721, 2722, 2723, 2724, 2725, 2726, 2727, 2728, 
2729, 2730, 2731, 2732, 2733, 2734, 2735, 2736, 2737, 2738, 
2739, 2740, 2741, 2742, 2743, 2744, 2745, 2746, 2747, 2748, 
2749, 2750, 2751, 2752, 2753, 2754, 2755, 2756, 2757, 2758, 
2759, 2760, 2761, 2762, 2763, 2764, 2765, 2766, 2767, 2768, 
2769, 2770, 2771, 2772, 2773, 2774, 2775, 2776, 2777, 2778, 
2779, 2780, 2781, 2782, 2783, 2784, 2785, 2786, 2787, 2788, 
2789, 2790, 2791, 2792, 2793, 2794, 2795, 2796, 2797, 2798, 
2799, 2800, 2801, 2802, 2803, 2804, 2805, 2806, 2807, 2808, 
2809, 2810, 2811, 2812, 2813, 2814, 2815, 2816, 2817, 2818, 
2819, 2820, 2821, 2822, 2823, 2824, 2825, 2826, 2827, 2828, 
2829, 2830, 2831, 2832, 2833, 2834, 2835, 2836, 2837, 2838, 
2839, 2840, 2841, 2842, 2843, 2844, 2845, 2846, 2847, 2848, 
2849, 2850, 2851, 2852, 2853, 2854, 2855, 2856, 2857, 2858, 
2859, 2860, 2861, 2862, 2863, 2864, 2865, 2866, 2867, 2868, 
2869, 2870, 2871, 2872, 2873, 2874, 2875, 2876, 2877, 2878, 
2879, 2880, 2881, 2882, 2883, 2884, 2885, 2886, 2887, 2888, 
2889, 2890, 2891, 2892, 2893, 2894, 2895, 2896, 2897, 2898, 
2899, 2900, 2901, 2902, 2903, 2904, 2905, 2906, 2907, 2908, 
2909, 2910, 2911, 2912, 2913, 2914, 2915, 2916, 2917, 2918, 
2919, 2920, 2921, 2922, 2923, 2924, 2925, 2926, 2927, 2928, 
2929, 2930, 2931, 2932, 2933, 2934, 2935, 2936, 2937, 2938, 
2939, 2940, 2941, 2942, 2943, 2944, 2945, 2946, 2947, 2948, 
2949, 2950, 2951, 2952, 2953, 2954, 2955, 2956, 2957, 2958, 
2959, 2960, 2961, 2962, 2963, 2964, 2965, 2966, 2967, 2968, 
2969, 2970, 2971, 2972, 2973, 2974, 2975, 2976, 2977, 2978, 
2979, 2980, 2981, 2982, 2983, 2984, 2985, 2986, 2987, 2988, 
2989, 2990, 2991, 2992, 2993, 2994, 2995, 2996, 2997, 2998, 
2999, 3000, 3001, 3002, 3003, 3004, 3005, 3006, 3007, 3008, 
3009, 3010, 3011, 3012, 3013, 3014, 3015, 3016, 3017, 3018, 
3019, 3020, 3021, 3022, 3023, 3024, 3025, 3026, 3027, 3028, 
3029, 3030, 3031, 3032, 3033, 3034, 3035, 3036, 3037, 3038, 
3039, 3040, 3041, 3042, 3043, 3044, 3045, 3046, 3047, 3048, 
3049, 3050, 3051, 3052, 3053, 3054, 3055, 3056, 3057, 3058, 
3059, 3060, 3061, 3062, 3063, 3064, 3065, 3066, 3067, 3068, 
3069, 3070, 3071, 3072, 3073, 3074, 3075, 3076, 3077, 3078, 
3079, 3080, 3081, 3082, 3083, 3084, 3085, 3086, 3087, 3088, 
3089, 3090, 3091, 3092, 3093, 3094, 3095, 3096, 3097, 3098, 
3099, 3100, 3101, 3102, 3103, 3104, 3105, 3106, 3107, 3108, 
3109, 3110, 3111, 3112, 3113, 3114, 3115, 3116, 3117, 3118, 
3119, 3120, 3121, 3122, 3123, 3124, 3125, 3126, 3127, 3128, 
3129, 3130, 3131, 3132, 3133, 3134, 3135, 3136, 3137, 3138, 
3139, 3140, 3141, 3142, 3143, 3144, 3145, 3146, 3147, 3148, 
3149, 3150, 3151, 3152, 3153, 3154, 3155, 3156, 3157, 3158, 
3159, 3160, 3161, 3162, 3163, 3164, 3165, 3166, 3167, 3168, 
3169, 3170, 3171, 3172, 3173, 3174, 3175, 3176, 3177, 3178, 
3179, 3180, 3181, 3182, 3183, 3184, 3185, 3186, 3187, 3188, 
3189, 3190, 3191, 3192, 3193, 3194, 3195, 3196, 3197, 3198, 
3199, 3200, 3201, 3202, 3203, 3204, 3205, 3206, 3207, 3208, 
3209, 3210, 3211, 3212, 3213, 3214, 3215, 3216, 3217, 3218, 
3219, 3220, 3221, 3222, 3223, 3224, 3225, 3226, 3227, 3228, 
3229, 3230, 3231, 3232, 3233, 3234, 3235, 3236, 3237, 3238, 
3239, 3240, 3241, 3242, 3243, 3244, 3245, 3246, 3247, 3248, 
3249, 3250, 3251, 3252, 3253, 3254, 3255, 3256, 3257, 3258, 
3259, 3260, 3261, 3262, 3263, 3264, 3265, 3266, 3267, 3268, 
3269, 3270, 3271, 3272, 3273, 3274, 3275, 3276, 3277, 3278, 
3279, 3280, 3281, 3282, 3283, 3284, 3285, 3286, 3287, 3288, 
3289, 3290, 3291, 3292, 3293, 3294, 3295, 3296, 3297, 3298, 
3299, 3300, 3301, 3302, 3303, 3304, 3305, 3306, 3307, 3308, 
3309, 3310, 3311, 3312, 3313, 3314, 3315, 3316, 3317, 3318, 
3319, 3320, 3321, 3322, 3323, 3324, 3325, 3326, 3327, 3328, 
3329, 3330, 3331, 3332, 3333, 3334, 3335, 3336, 3337, 3338, 
3339, 3340, 3341, 3342, 3343, 3344, 3345, 3346, 3347, 3348, 
3349, 3350, 3351, 3352, 3353, 3354, 3355, 3356, 3357, 3358, 
3359, 3360, 3361, 3362, 3363, 3364, 3365, 3366, 3367, 3368, 
3369, 3370, 3371, 3372, 3373, 3374, 3375, 3376, 3377, 3378, 
3379, 3380, 3381, 3382, 3383, 3384, 3385, 3386, 3387, 3388, 
3389, 3390, 3391, 3392, 3393, 3394, 3395, 3396, 3397, 3398, 
3399, 3400, 3401, 3402, 3403, 3404, 3405, 3406, 3407, 3408, 
3409, 3410, 3411, 3412, 3413, 3414, 3415, 3416, 3417, 3418, 
3419, 3420, 3421, 3422, 3423, 3424, 3425, 3426, 3427, 3428, 
3429, 3430, 3431, 3432, 3433, 3434, 3435, 3436, 3437, 3438, 
3439, 3440, 3441, 3442, 3443, 3444, 3445, 3446, 3447, 3448, 
3449, 3450, 3451, 3452, 3453, 3454, 3455, 3456, 3457, 3458, 
3459, 3460, 3461, 3462, 3463, 3464, 3465, 3466, 3467, 3468, 
3469, 3470, 3471, 3472, 3473, 3474, 3475, 3476, 3477, 3478, 
3479, 3480, 3481, 3482, 3483, 3484, 3485, 3486, 3487, 3488, 
3489, 3490, 3491, 3492, 3493, 3494, 3495, 3496, 3497, 3498, 
3499, 3500, 3501, 3502, 3503, 3504, 3505, 3506, 3507, 3508, 
3509, 3510, 3511, 3512, 3513, 3514, 3515, 3516, 3517, 3518, 
3519, 3520, 3521, 3522, 3523, 3524, 3525, 3526, 3527, 3528, 
3529, 3530, 3531, 3532, 3533, 3534, 3535, 3536, 3537, 3538, 
3539, 3540, 3541, 3542, 3543, 3544, 3545, 3546, 3547, 3548, 
3549, 3550, 3551, 3552, 3553, 3554, 3555, 3556, 3557, 3558, 
3559, 3560, 3561, 3562, 3563, 3564, 3565, 3566, 3567, 3568, 
3569, 3570, 3571, 3572, 3573, 3574, 3575, 3576, 3577, 3578, 
3579, 3580, 3581, 3582, 3583, 3584, 3585, 3586, 3587, 3588, 
3589, 3590, 3591, 3592, 3593, 3594, 3595, 3596, 3597, 3598, 
3599, 3600, 3601, 3602, 3603, 3604, 3605, 3606, 3607, 3608, 
3609, 3610, 3611, 3612, 3613, 3614, 3615, 3616, 3617, 3618, 
3619, 3620, 3621, 3622, 3623, 3624, 3625, 3626, 3627, 3628, 
3629, 3630, 3631, 3632, 3633, 3634, 3635, 3636, 3637, 3638, 
3639, 3640, 3641, 3642, 3643, 3644, 3645, 3646, 3647, 3648, 
3649, 3650, 3651, 3652, 3653, 3654, 3655, 3656, 3657, 3658, 
3659, 3660, 3661, 3662, 3663, 3664, 3665, 3666, 3667, 3668, 
3669, 3670, 3671, 3672, 3673, 3674, 3675, 3676, 3677, 3678, 
3679, 3680, 3681, 3682, 3683, 3684, 3685, 3686, 3687, 3688, 
3689, 3690, 3691, 3692, 3693, 3694, 3695, 3696, 3697, 3698, 
3699, 3700, 3701, 3702, 3703, 3704, 3705, 3706, 3707, 3708, 
3709, 3710, 3711, 3712, 3713, 3714, 3715, 3716, 3717, 3718, 
3719, 3720, 3721, 3722, 3723, 3724, 3725, 3726, 3727, 3728, 
3729, 3730, 3731, 3732, 3733, 3734, 3735, 3736, 3737, 3738, 
3739, 3740, 3741, 3742, 3743, 3744, 3745, 3746, 3747, 3748, 
3749, 3750, 3751, 3752, 3753, 3754, 3755, 3756, 3757, 3758, 
3759, 3760, 3761, 3762, 3763, 3764, 3765, 3766, 3767, 3768, 
3769, 3770, 3771, 3772, 3773, 3774, 3775, 3776, 3777, 3778, 
3779, 3780, 3781, 3782, 3783, 3784, 3785, 3786, 3787, 3788, 
3789, 3790, 3791, 3792, 3793, 3794, 3795, 3796, 3797, 3798, 
3799, 3800, 3801, 3802, 3803, 3804, 3805, 3806, 3807, 3808, 
3809, 3810, 3811, 3812, 3813, 3814, 3815, 3816, 3817, 3818, 
3819, 3820, 3821, 3822, 3823, 3824, 3825, 3826, 3827, 3828, 
3829, 3830, 3831, 3832, 3833, 3834, 3835, 3836, 3837, 3838, 
3839, 3840, 3841, 3842, 3843, 3844, 3845, 3846, 3847, 3848, 
3849, 3850, 3851, 3852, 3853, 3854, 3855, 3856, 3857, 3858, 
3859, 3860, 3861, 3862, 3863, 3864, 3865, 3866, 3867, 3868, 
3869, 3870, 3871, 3872, 3873, 3874, 3875, 3876, 3877, 3878, 
3879, 3880, 3881, 3882, 3883, 3884, 3885, 3886, 3887, 3888, 
3889, 3890, 3891, 3892, 3893, 3894, 3895, 3896, 3897, 3898, 
3899, 3900, 3901, 3902, 3903, 3904, 3905, 3906, 3907, 3908, 
3909, 3910, 3911, 3912, 3913, 3914, 3915, 3916, 3917, 3918, 
3919, 3920, 3921, 3922, 3923, 3924, 3925, 3926, 3927, 3928, 
3929, 3930, 3931, 3932, 3933, 3934, 3935, 3936, 3937, 3938, 
3939, 3940, 3941, 3942, 3943, 3944, 3945, 3946, 3947, 3948, 
3949, 3950, 3951, 3952, 3953, 3954, 3955, 3956, 3957, 3958, 
3959, 3960, 3961, 3962, 3963, 3964, 3965, 3966, 3967, 3968, 
3969, 3970, 3971, 3972, 3973, 3974, 3975, 3976, 3977, 3978, 
3979, 3980, 3981, 3982, 3983, 3984, 3985, 3986, 3987, 3988, 
3989, 3990, 3991, 3992, 3993, 3994, 3995, 3996, 3997, 3998, 
3999, 4000, 4001, 4002, 4003, 4004, 4005, 4006, 4007, 4008, 
4009, 4010, 4011, 4012, 4013, 4014, 4015, 4016, 4017, 4018, 
4019, 4020, 4021, 4022, 4023, 4024, 4025, 4026, 4027, 4028, 
4029, 4030, 4031, 4032, 4033, 4034, 4035, 4036, 4037, 4038, 
4039, 4040, 4041, 4042, 4043, 4044, 4045, 4046, 4047, 4048, 
4049, 4050, 4051, 4052, 4053, 4054, 4055, 4056, 4057, 4058, 
4059, 4060, 4061, 4062, 4063, 4064, 4065, 4066, 4067, 4068, 
4069, 4070, 4071, 4072, 4073, 4074, 4075, 4076, 4077, 4078, 
4079, 4080, 4081, 4082, 4083, 4084, 4085, 4086, 4087, 4088, 
4089, 4090, 4091, 4092, 4093, 4094, 4095, 4096, 4097, 4098, 
4099, 4100, 4101, 4102, 4103, 4104, 4105, 4106, 4107, 4108, 
4109, 4110, 4111, 4112, 4113, 4114, 4115, 4116, 4117, 4118, 
4119, 4120, 4121, 4122, 4123, 4124, 4125, 4126, 4127, 4128, 
4129, 4130, 4131, 4132, 4133, 4134, 4135, 4136, 4137, 4138, 
4139, 4140, 4141, 4142, 4143, 4144, 4145, 4146, 4147, 4148, 
4149, 4150, 4151, 4152, 4153, 4154, 4155, 4156, 4157, 4158, 
4159, 4160, 4161, 4162, 4163, 4164, 4165, 4166, 4167, 4168, 
4169, 4170, 4171, 4172, 4173, 4174, 4175, 4176, 4177, 4178, 
4179, 4180, 4181, 4182, 4183, 4184, 4185, 4186, 4187, 4188, 
4189, 4190, 4191, 4192, 4193, 4194, 4195, 4196, 4197, 4198, 
4199, 4200, 4201, 4202, 4203, 4204, 4205, 4206, 4207, 4208, 
4209, 4210, 4211, 4212, 4213, 4214, 4215, 4216, 4217, 4218, 
4219, 4220, 4221, 4222, 4223, 4224, 4225, 4226, 4227, 4228, 
4229, 4230, 4231, 4232, 4233, 4234, 4235, 4236, 4237, 4238, 
4239, 4240, 4241, 4242, 4243, 4244, 4245, 4246, 4247, 4248, 
4249, 4250, 4251, 4252, 4253, 4254, 4255, 4256, 4257, 4258, 
4259, 4260, 4261, 4262, 4263, 4264, 4265, 4266, 4267, 4268, 
4269, 4270, 4271, 4272, 4273, 4274, 4275, 4276, 4277, 4278, 
4279, 4280, 4281, 4282, 4283, 4284, 4285, 4286, 4287, 4288, 
4289, 4290, 4291, 4292, 4293, 4294, 4295, 4296, 4297, 4298, 
4299, 4300, 4301, 4302, 4303, 4304, 4305, 4306, 4307, 4308, 
4309, 4310, 4311, 4312, 4313, 4314, 4315, 4316, 4317, 4318, 
4319, 4320, 4321, 4322, 4323, 4324, 4325, 4326, 4327, 4328, 
4329, 4330, 4331, 4332, 4333, 4334, 4335, 4336, 4337, 4338, 
4339, 4340, 4341, 4342, 4343, 4344, 4345, 4346, 4347, 4348, 
4349, 4350, 4351, 4352, 4353, 4354, 4355, 4356, 4357, 4358, 
4359, 4360, 4361, 4362, 4363, 4364, 4365, 4366, 4367, 4368, 
4369, 4370, 4371, 4372, 4373, 4374, 4375, 4376, 4377, 4378, 
4379, 4380, 4381, 4382, 4383, 4384, 4385, 4386, 4387, 4388, 
4389, 4390, 4391, 4392, 4393, 4394, 4395, 4396, 4397, 4398, 
4399, 4400, 4401, 4402, 4403, 4404, 4405, 4406, 4407, 4408, 
4409, 4410, 4411, 4412, 4413, 4414, 4415, 4416, 4417, 4418, 
4419, 4420, 4421, 4422, 4423, 4424, 4425, 4426, 4427, 4428, 
4429, 4430, 4431, 4432, 4433, 4434, 4435, 4436, 4437, 4438, 
4439, 4440, 4441, 4442, 4443, 4444, 4445, 4446, 4447, 4448, 
4449, 4450, 4451, 4452, 4453, 4454, 4455, 4456, 4457, 4458, 
4459, 4460, 4461, 4462, 4463, 4464, 4465, 4466, 4467, 4468, 
4469, 4470, 4471, 4472, 4473, 4474, 4475, 4476, 4477, 4478, 
4479, 4480, 4481, 4482, 4483, 4484, 4485, 4486, 4487, 4488, 
4489, 4490, 4491, 4492, 4493, 4494, 4495, 4496, 4497, 4498, 
4499, 4500, 4501, 4502, 4503, 4504, 4505, 4506, 4507, 4508, 
4509, 4510, 4511, 4512, 4513, 4514, 4515, 4516, 4517, 4518, 
4519, 4520, 4521, 4522, 4523, 4524, 4525, 4526, 4527, 4528, 
4529, 4530, 4531, 4532, 4533, 4534, 4535, 4536, 4537, 4538, 
4539, 4540, 4541, 4542, 4543, 4544, 4545, 4546, 4547, 4548, 
4549, 4550, 4551, 4552, 4553, 4554, 4555, 4556, 4557, 4558, 
4559, 4560, 4561, 4562, 4563, 4564, 4565, 4566, 4567, 4568, 
4569, 4570, 4571, 4572, 4573, 4574, 4575, 4576, 4577, 4578, 
4579, 4580, 4581, 4582, 4583, 4584, 4585, 4586, 4587, 4588, 
4589, 4590, 4591, 4592, 4593, 4594, 4595, 4596, 4597, 4598, 
4599, 4600, 4601, 4602, 4603, 4604, 4605, 4606, 4607, 4608, 
4609, 4610, 4611, 4612, 4613, 4614, 4615, 4616, 4617, 4618, 
4619, 4620, 4621, 4622, 4623, 4624, 4625, 4626, 4627, 4628, 
4629, 4630, 4631, 4632, 4633, 4634, 4635, 4636, 4637, 4638, 
4639, 4640, 4641, 4642, 4643, 4644, 4645, 4646, 4647, 4648, 
4649, 4650, 4651, 4652, 4653, 4654, 4655, 4656, 4657, 4658, 
4659, 4660, 4661, 4662, 4663, 4664, 4665, 4666, 4667, 4668, 
4669, 4670, 4671, 4672, 4673, 4674, 4675, 4676, 4677, 4678, 
4679, 4680, 4681, 4682, 4683, 4684, 4685, 4686, 4687, 4688, 
4689, 4690, 4691, 4692, 
*NSET,NSET=contact_source
1, 8, 165, 166, 167, 168, 169, 170, 171, 172, 
173, 174, 175, 176, 177, 178, 179, 180, 181, 182, 
183, 184, 185, 
*NSET,NSET=contact_drain
4, 5, 59, 60, 61, 62, 63, 64, 65, 66, 
67, 68, 69, 70, 71, 72, 73, 74, 75, 76, 
77, 78, 79, 
*NSET,NSET=probe_A
6, 7, 107, 108, 109, 110, 111, 112, 113, 114, 
115, 116, 117, 118, 119, 120, 121, 122, 123, 124, 
125, 126, 127, 128, 129, 130, 131, 132, 133, 134, 
135, 136, 137, 
*NSET,NSET=probe_B
2, 3, 29, 30, 31, 32, 33, 34, 35, 36, 
37, 38, 39, 
*NSET,NSET=walls
1, 2, 3, 4, 5, 6, 7, 8, 9, 10, 
11, 12, 13, 14, 15, 16, 17, 18, 19, 20, 
21, 22, 23, 24, 25, 26, 27, 28, 40, 41, 
42, 43, 44, 45, 46, 47, 48, 49, 50, 51, 
52, 53, 54, 55, 56, 57, 58, 80, 81, 82, 
83, 84, 85, 86, 87, 88, 89, 90, 91, 92, 
93, 94, 95, 96, 97, 98, 99, 100, 101, 102, 
103, 104, 105, 106, 138, 139, 140, 141, 142, 143, 
144, 145, 146, 147, 148, 149, 150, 151, 152, 153, 
154, 155, 156, 157, 158, 159, 160, 161, 162, 163, 
164, 186, 187, 188, 189, 190, 191, 192, 193, 194, 
195, 196, 197, 198, 199, 200, 201, 202, 203, 204, 
205, 206, 207, 208, 209, 210, 211, 212, 213, 214, 
215, 216, 217, 218, 219, 220, 221, 222, 223, 224, 
225, 226, 227, 228, 229, 230, 231, 232, 233, 234, 
235, 236, 237, 238, 239, 240, 241, 242, 243, 244, 
245, 246, 247, 248, 249, 250, 251, 252, 253, 254, 
255, 256, 257, 258, 259, 260, 261, 262, 263, 264, 
265, 266, 267, 268, 269, 270, 271, 272, 273, 274, 
275, 276, 277, 278, 279, 280, 281, 282, 283, 284, 
285, 286, 287, 288, 289, 290, 291, 292, 293, 294, 
295, 296, 297, 298, 299, 300, 301, 302, 303, 304, 
305, 306, 307, 308, 309, 310, 311, 312, 313, 314, 
315, 316, 317, 318, 319, 320, 321, 322, 323, 324, 
325, 326, 327, 328, 329, 330, 331, 332, 333, 334, 
335, 336, 337, 338, 339, 340, 341, 342, 343, 344, 
345, 346, 347, 348, 349, 350, 351, 352, 353, 354, 
355, 356, 357, 358, 359, 360, 361, 362, 363, 364, 
365, 366, 367, 368, 369, 370, 371, 372, 373, 374, 
375, 376, 377, 378, 379, 380, 381, 382, 383, 384, 
385, 386, 387, 388, 389, 390, 391, 392, 393, 394, 
395, 396, 397, 398, 399, 400, 401, 402, 403, 404, 
405, 406, 407, 408, 409, 410, 411, 412, 413, 414, 
415, 416, 417, 418, 419, 420, 421, 422, 423, 424, 
425, 426, 427, 428, 429, 430, 431, 432, 433, 434, 
435, 436, 437, 438, 439, 440, 441, 442, 443, 444, 
445, 446, 447, 448, 449, 450, 451, 452, 453, 454, 
455, 456, 457, 458, 459, 460, 461, 462, 463, 464, 
465, 466, 467, 468, 469, 470, 471, 472, 473, 474, 
475, 476, 477, 478, 479, 480, 481, 482, 483, 484, 
485, 486, 487, 488, 489, 490, 491, 492, 493, 494, 
495, 496, 497, 498, 499, 500, 501, 502, 503, 504, 
505, 506, 507, 508, 509, 510, 511, 512, 513, 514, 
515, 516, 517, 518, 519, 520, 521, 522, 523, 524, 
525, 526, 527, 528, 529, 530, 531, 532, 533, 534, 
535, 536, 537, 538, 539, 540, 541, 542, 543, 544, 
545, 546, 547, 548, 549, 550, 551, 552, 553, 554, 
555, 556, 557, 558, 559, 560, 561, 562, 563, 564, 
565, 566, 567, 568, 569, 570, 571, 572, 573, 574, 
575, 576, 577, 578, 579, 580, 581, 582, 583, 584, 
585, 586, 587, 588, 589, 590, 591, 592, 593, 594, 
595, 596, 597, 598, 599, 600, 601, 602, 603, 604, 
605, 606, 607, 608, 609, 610, 611, 612, 613, 614, 
615, 616, 617, 618, 619, 620, 621, 622, 623, 624, 
625, 626, 627, 628, 629, 630, 631, 632, 633, 634, 
635, 636, 637, 638, 639, 640, 641, 642, 643, 644, 
645, 646, 647, 648, 649, 650, 651, 652, 653, 654, 
655, 656, 657, 658, 659, 660, 661, 662, 663, 664, 
665, 666, 667, 668, 669, 670, 671, 672, 673, 674, 
675, 676, 677, 678, 679, 680, 681, 682, 683, 684, 
685, 686, 687, 688, 689, 690, 691, 692, 693, 694, 
695, 696, 697, 698, 699, 700, 701, 702, 703, 704, 
705, 706, 707, 708, 709, 710, 711, 712, 713, 714, 
715, 716, 717, 718, 
*NSET,NSET=domain
1, 2, 3, 4, 5, 6, 7, 8, 9, 10, 
11, 12, 13, 14, 15, 16, 17, 18, 19, 20, 
21, 22, 23, 24, 25, 26, 27, 28, 29, 30, 
31, 32, 33, 34, 35, 36, 37, 38, 39, 40, 
41, 42, 43, 44, 45, 46, 47, 48, 49, 50, 
51, 52, 53, 54, 55, 56, 57, 58, 59, 60, 
61, 62, 63, 64, 65, 66, 67, 68, 69, 70, 
71, 72, 73, 74, 75, 76, 77, 78, 79, 80, 
81, 82, 83, 84, 85, 86, 87, 88, 89, 90, 
91, 92, 93, 94, 95, 96, 97, 98, 99, 100, 
101, 102, 103, 104, 105, 106, 107, 108, 109, 110, 
111, 112, 113, 114, 115, 116, 117, 118, 119, 120, 
121, 122, 123, 124, 125, 126, 127, 128, 129, 130, 
131, 132, 133, 134, 135, 136, 137, 138, 139, 140, 
141, 142, 143, 144, 145, 146, 147, 148, 149, 150, 
151, 152, 153, 154, 155, 156, 157, 158, 159, 160, 
161, 162, 163, 164, 165, 166, 167, 168, 169, 170, 
171, 172, 173, 174, 175, 176, 177, 178, 179, 180, 
181, 182, 183, 184, 185, 186, 187, 188, 189, 190, 
191, 192, 193, 194, 195, 196, 197, 198, 199, 200, 
201, 202, 203, 204, 205, 206, 207, 208, 209, 210, 
211, 212, 213, 214, 215, 216, 217, 218, 219, 220, 
221, 222, 223, 224, 225, 226, 227, 228, 229, 230, 
231, 232, 233, 234, 235, 236, 237, 238, 239, 240, 
241, 242, 243, 244, 245, 246, 247, 248, 249, 250, 
251, 252, 253, 254, 255, 256, 257, 258, 259, 260, 
261, 262, 263, 264, 265, 266, 267, 268, 269, 270, 
271, 272, 273, 274, 275, 276, 277, 278, 279, 280, 
281, 282, 283, 284, 285, 286, 287, 288, 289, 290, 
291, 292, 293, 294, 295, 296, 297, 298, 299, 300, 
301, 302, 303, 304, 305, 306, 307, 308, 309, 310, 
311, 312, 313, 314, 315, 316, 317, 318, 319, 320, 
321, 322, 323, 324, 325, 326, 327, 328, 329, 330, 
331, 332, 333, 334, 335, 336, 337, 338, 339, 340, 
341, 342, 343, 344, 345, 346, 347, 348, 349, 350, 
351, 352, 353, 354, 355, 356, 357, 358, 359, 360, 
361, 362, 363, 364, 365, 366, 367, 368, 369, 370, 
371, 372, 373, 374, 375, 376, 377, 378, 379, 380, 
381, 382, 383, 384, 385, 386, 387, 388, 389, 390, 
391, 392, 393, 394, 395, 396, 397, 398, 399, 400, 
401, 402, 403, 404, 405, 406, 407, 408, 409, 410, 
411, 412, 413, 414, 415, 416, 417, 418, 419, 420, 
421, 422, 423, 424, 425, 426, 427, 428, 429, 430, 
431, 432, 433, 434, 435, 436, 437, 438, 439, 440, 
441, 442, 443, 444, 445, 446, 447, 448, 449, 450, 
451, 452, 453, 454, 455, 456, 457, 458, 459, 460, 
461, 462, 463, 464, 465, 466, 467, 468, 469, 470, 
471, 472, 473, 474, 475, 476, 477, 478, 479, 480, 
481, 482, 483, 484, 485, 486, 487, 488, 489, 490, 
491, 492, 493, 494, 495, 496, 497, 498, 499, 500, 
501, 502, 503, 504, 505, 506, 507, 508, 509, 510, 
511, 512, 513, 514, 515, 516, 517, 518, 519, 520, 
521, 522, 523, 524, 525, 526, 527, 528, 529, 530, 
531, 532, 533, 534, 535, 536, 537, 538, 539, 540, 
541, 542, 543, 544, 545, 546, 547, 548, 549, 550, 
551, 552, 553, 554, 555, 556, 557, 558, 559, 560, 
561, 562, 563, 564, 565, 566, 567, 568, 569, 570, 
571, 572, 573, 574, 575, 576, 577, 578, 579, 580, 
581, 582, 583, 584, 585, 586, 587, 588, 589, 590, 
591, 592, 593, 594, 595, 596, 597, 598, 599, 600, 
601, 602, 603, 604, 605, 606, 607, 608, 609, 610, 
611, 612, 613, 614, 615, 616, 617, 618, 619, 620, 
621, 622, 623, 624, 625, 626, 627, 628, 629, 630, 
631, 632, 633, 634, 635, 636, 637, 638, 639, 640, 
641, 642, 643, 644, 645, 646, 647, 648, 649, 650, 
651, 652, 653, 654, 655, 656, 657, 658, 659, 660, 
661, 662, 663, 664, 665, 666, 667, 668, 669, 670, 
671, 672, 673, 674, 675, 676, 677, 678, 679, 680, 
681, 682, 683, 684, 685, 686, 687, 688, 689, 690, 
691, 692, 693, 694, 695, 696, 697, 698, 699, 700, 
701, 702, 703, 704, 705, 706, 707, 708, 709, 710, 
711, 712, 713, 714, 715, 716, 717, 718, 719, 720, 
721, 722, 723, 724, 725, 726, 727, 728, 729, 730, 
731, 732, 733, 734, 735, 736, 737, 738, 739, 740, 
741, 742, 743, 744, 745, 746, 747, 748, 749, 750, 
751, 752, 753, 754, 755, 756, 757, 758, 759, 760, 
761, 762, 763, 764, 765, 766, 767, 768, 769, 770, 
771, 772, 773, 774, 775, 776, 777, 778, 779, 780, 
781, 782, 783, 784, 785, 786, 787, 788, 789, 790, 
791, 792, 793, 794, 795, 796, 797, 798, 799, 800, 
801, 802, 803, 804, 805, 806, 807, 808, 809, 810, 
811, 812, 813, 814, 815, 816, 817, 818, 819, 820, 
821, 822, 823, 824, 825, 826, 827, 828, 829, 830, 
831, 832, 833, 834, 835, 836, 837, 838, 839, 840, 
841, 842, 843, 844, 845, 846, 847, 848, 849, 850, 
851, 852, 853, 854, 855, 856, 857, 858, 859, 860, 
861, 862, 863, 864, 865, 866, 867, 868, 869, 870, 
871, 872, 873, 874, 875, 876, 877, 878, 879, 880, 
881, 882, 883, 884, 885, 886, 887, 888, 889, 890, 
891, 892, 893, 894, 895, 896, 897, 898, 899, 900, 
901, 902, 903, 904, 905, 906, 907, 908, 909, 910, 
911, 912, 913, 914, 915, 916, 917, 918, 919, 920, 
921, 922, 923, 924, 925, 926, 927, 928, 929, 930, 
931, 932, 933, 934, 935, 936, 937, 938, 939, 940, 
941, 942, 943, 944, 945, 946, 947, 948, 949, 950, 
951, 952, 953, 954, 955, 956, 957, 958, 959, 960, 
961, 962, 963, 964, 965, 966, 967, 968, 969, 970, 
971, 972, 973, 974, 975, 976, 977, 978, 979, 980, 
981, 982, 983, 984, 985, 986, 987, 988, 989, 990, 
991, 992, 993, 994, 995, 996, 997, 998, 999, 1000, 
1001, 1002, 1003, 1004, 1005, 1006, 1007, 1008, 1009, 1010, 
1011, 1012, 1013, 1014, 1015, 1016, 1017, 1018, 1019, 1020, 
1021, 1022, 1023, 1024, 1025, 1026, 1027, 1028, 1029, 1030, 
1031, 1032, 1033, 1034, 1035, 1036, 1037, 1038, 1039, 1040, 
1041, 1042, 1043, 1044, 1045, 1046, 1047, 1048, 1049, 1050, 
1051, 1052, 1053, 1054, 1055, 1056, 1057, 1058, 1059, 1060, 
1061, 1062, 1063, 1064, 1065, 1066, 1067, 1068, 1069, 1070, 
1071, 1072, 1073, 1074, 1075, 1076, 1077, 1078, 1079, 1080, 
1081, 1082, 1083, 1084, 1085, 1086, 1087, 1088, 1089, 1090, 
1091, 1092, 1093, 1094, 1095, 1096, 1097, 1098, 1099, 1100, 
1101, 1102, 1103, 1104, 1105, 1106, 1107, 1108, 1109, 1110, 
1111, 1112, 1113, 1114, 1115, 1116, 1117, 1118, 1119, 1120, 
1121, 1122, 1123, 1124, 1125, 1126, 1127, 1128, 1129, 1130, 
1131, 1132, 1133, 1134, 1135, 1136, 1137, 1138, 1139, 1140, 
1141, 1142, 1143, 1144, 1145, 1146, 1147, 1148, 1149, 1150, 
1151, 1152, 1153, 1154, 1155, 1156, 1157, 1158, 1159, 1160, 
1161, 1162, 1163, 1164, 1165, 1166, 1167, 1168, 1169, 1170, 
1171, 1172, 1173, 1174, 1175, 1176, 1177, 1178, 1179, 1180, 
1181, 1182, 1183, 1184, 1185, 1186, 1187, 1188, 1189, 1190, 
1191, 1192, 1193, 1194, 1195, 1196, 1197, 1198, 1199, 1200, 
1201, 1202, 1203, 1204, 1205, 1206, 1207, 1208, 1209, 1210, 
1211, 1212, 1213, 1214, 1215, 1216, 1217, 1218, 1219, 1220, 
1221, 1222, 1223, 1224, 1225, 1226, 1227, 1228, 1229, 1230, 
1231, 1232, 1233, 1234, 1235, 1236, 1237, 1238, 1239, 1240, 
1241, 1242, 1243, 1244, 1245, 1246, 1247, 1248, 1249, 1250, 
1251, 1252, 1253, 1254, 1255, 1256, 1257, 1258, 1259, 1260, 
1261, 1262, 1263, 1264, 1265, 1266, 1267, 1268, 1269, 1270, 
1271, 1272, 1273, 1274, 1275, 1276, 1277, 1278, 1279, 1280, 
1281, 1282, 1283, 1284, 1285, 1286, 1287, 1288, 1289, 1290, 
1291, 1292, 1293, 1294, 1295, 1296, 1297, 1298, 1299, 1300, 
1301, 1302, 1303, 1304, 1305, 1306, 1307, 1308, 1309, 1310, 
1311, 1312, 1313, 1314, 1315, 1316, 1317, 1318, 1319, 1320, 
1321, 1322, 1323, 1324, 1325, 1326, 1327, 1328, 1329, 1330, 
1331, 1332, 1333, 1334, 1335, 1336, 1337, 1338, 1339, 1340, 
1341, 1342, 1343, 1344, 1345, 1346, 1347, 1348, 1349, 1350, 
1351, 1352, 1353, 1354, 1355, 1356, 1357, 1358, 1359, 1360, 
1361, 1362, 1363, 1364, 1365, 1366, 1367, 1368, 1369, 1370, 
1371, 1372, 1373, 1374, 1375, 1376, 1377, 1378, 1379, 1380, 
1381, 1382, 1383, 1384, 1385, 1386, 1387, 1388, 1389, 1390, 
1391, 1392, 1393, 1394, 1395, 1396, 1397, 1398, 1399, 1400, 
1401, 1402, 1403, 1404, 1405, 1406, 1407, 1408, 1409, 1410, 
1411, 1412, 1413, 1414, 1415, 1416, 1417, 1418, 1419, 1420, 
1421, 1422, 1423, 1424, 1425, 1426, 1427, 1428, 1429, 1430, 
1431, 1432, 1433, 1434, 1435, 1436, 1437, 1438, 1439, 1440, 
1441, 1442, 1443, 1444, 1445, 1446, 1447, 1448, 1449, 1450, 
1451, 1452, 1453, 1454, 1455, 1456, 1457, 1458, 1459, 1460, 
1461, 1462, 1463, 1464, 1465, 1466, 1467, 1468, 1469, 1470, 
1471, 1472, 1473, 1474, 1475, 1476, 1477, 1478, 1479, 1480, 
1481, 1482, 1483, 1484, 1485, 1486, 1487, 1488, 1489, 1490, 
1491, 1492, 1493, 1494, 1495, 1496, 1497, 1498, 1499, 1500, 
1501, 1502, 1503, 1504, 1505, 1506, 1507, 1508, 1509, 1510, 
1511, 1512, 1513, 1514, 1515, 1516, 1517, 1518, 1519, 1520, 
1521, 1522, 1523, 1524, 1525, 1526, 1527, 1528, 1529, 1530, 
1531, 1532, 1533, 1534, 1535, 1536, 1537, 1538, 1539, 1540, 
1541, 1542, 1543, 1544, 1545, 1546, 1547, 1548, 1549, 1550, 
1551, 1552, 1553, 1554, 1555, 1556, 1557, 1558, 1559, 1560, 
1561, 1562, 1563, 1564, 1565, 1566, 1567, 1568, 1569, 1570, 
1571, 1572, 1573, 1574, 1575, 1576, 1577, 1578, 1579, 1580, 
1581, 1582, 1583, 1584, 1585, 1586, 1587, 1588, 1589, 1590, 
1591, 1592, 1593, 1594, 1595, 1596, 1597, 1598, 1599, 1600, 
1601, 1602, 1603, 1604, 1605, 1606, 1607, 1608, 1609, 1610, 
1611, 1612, 1613, 1614, 1615, 1616, 1617, 1618, 1619, 1620, 
1621, 1622, 1623, 1624, 1625, 1626, 1627, 1628, 1629, 1630, 
1631, 1632, 1633, 1634, 1635, 1636, 1637, 1638, 1639, 1640, 
1641, 1642, 1643, 1644, 1645, 1646, 1647, 1648, 1649, 1650, 
1651, 1652, 1653, 1654, 1655, 1656, 1657, 1658, 1659, 1660, 
1661, 1662, 1663, 1664, 1665, 1666, 1667, 1668, 1669, 1670, 
1671, 1672, 1673, 1674, 1675, 1676, 1677, 1678, 1679, 1680, 
1681, 1682, 1683, 1684, 1685, 1686, 1687, 1688, 1689, 1690, 
1691, 1692, 1693, 1694, 1695, 1696, 1697, 1698, 1699, 1700, 
1701, 1702, 1703, 1704, 1705, 1706, 1707, 1708, 1709, 1710, 
1711, 1712, 1713, 1714, 1715, 1716, 1717, 1718, 1719, 1720, 
1721, 1722, 1723, 1724, 1725, 1726, 1727, 1728, 1729, 1730, 
1731, 1732, 1733, 1734, 1735, 1736, 1737, 1738, 1739, 1740, 
1741, 1742, 1743, 1744, 1745, 1746, 1747, 1748, 1749, 1750, 
1751, 1752, 1753, 1754, 1755, 1756, 1757, 1758, 1759, 1760, 
1761, 1762, 1763, 1764, 1765, 1766, 1767, 1768, 1769, 1770, 
1771, 1772, 1773, 1774, 1775, 1776, 1777, 1778, 1779, 1780, 
1781, 1782, 1783, 1784, 1785, 1786, 1787, 1788, 1789, 1790, 
1791, 1792, 1793, 1794, 1795, 1796, 1797, 1798, 1799, 1800, 
1801, 1802, 1803, 1804, 1805, 1806, 1807, 1808, 1809, 1810, 
1811, 1812, 1813, 1814, 1815, 1816, 1817, 1818, 1819, 1820, 
1821, 1822, 1823, 1824, 1825, 1826, 1827, 1828, 1829, 1830, 
1831, 1832, 1833, 1834, 1835, 1836, 1837, 1838, 1839, 1840, 
1841, 1842, 1843, 1844, 1845, 1846, 1847, 1848, 1849, 1850, 
1851, 1852, 1853, 1854, 1855, 1856, 1857, 1858, 1859, 1860, 
1861, 1862, 1863, 1864, 1865, 1866, 1867, 1868, 1869, 1870, 
1871, 1872, 1873, 1874, 1875, 1876, 1877, 1878, 1879, 1880, 
1881, 1882, 1883, 1884, 1885, 1886, 1887, 1888, 1889, 1890, 
1891, 1892, 1893, 1894, 1895, 1896, 1897, 1898, 1899, 1900, 
1901, 1902, 1903, 1904, 1905, 1906, 1907, 1908, 1909, 1910, 
1911, 1912, 1913, 1914, 1915, 1916, 1917, 1918, 1919, 1920, 
1921, 1922, 1923, 1924, 1925, 1926, 1927, 1928, 1929, 1930, 
1931, 1932, 1933, 1934, 1935, 1936, 1937, 1938, 1939, 1940, 
1941, 1942, 1943, 1944, 1945, 1946, 1947, 1948, 1949, 1950, 
1951, 1952, 1953, 1954, 1955, 1956, 1957, 1958, 1959, 1960, 
1961, 1962, 1963, 1964, 1965, 1966, 1967, 1968, 1969, 1970, 
1971, 1972, 1973, 1974, 1975, 1976, 1977, 1978, 1979, 1980, 
1981, 1982, 1983, 1984, 1985, 1986, 1987, 1988, 1989, 1990, 
1991, 1992, 1993, 1994, 1995, 1996, 1997, 1998, 1999, 2000, 
2001, 2002, 2003, 2004, 2005, 2006, 2007, 2008, 2009, 2010, 
2011, 2012, 2013, 2014, 2015, 2016, 2017, 2018, 2019, 2020, 
2021, 2022, 2023, 2024, 2025, 2026, 2027, 2028, 2029, 2030, 
2031, 2032, 2033, 2034, 2035, 2036, 2037, 2038, 2039, 2040, 
2041, 2042, 2043, 2044, 2045, 2046, 2047, 2048, 2049, 2050, 
2051, 2052, 2053, 2054, 2055, 2056, 2057, 2058, 2059, 2060, 
2061, 2062, 2063, 2064, 2065, 2066, 2067, 2068, 2069, 2070, 
2071, 2072, 2073, 2074, 2075, 2076, 2077, 2078, 2079, 2080, 
2081, 2082, 2083, 2084, 2085, 2086, 2087, 2088, 2089, 2090, 
2091, 2092, 2093, 2094, 2095, 2096, 2097, 2098, 2099, 2100, 
2101, 2102, 2103, 2104, 2105, 2106, 2107, 2108, 2109, 2110, 
2111, 2112, 2113, 2114, 2115, 2116, 2117, 2118, 2119, 2120, 
2121, 2122, 2123, 2124, 2125, 2126, 2127, 2128, 2129, 2130, 
2131, 2132, 2133, 2134, 2135, 2136, 2137, 2138, 2139, 2140, 
2141, 2142, 2143, 2144, 2145, 2146, 2147, 2148, 2149, 2150, 
2151, 2152, 2153, 2154, 2155, 2156, 2157, 2158, 2159, 2160, 
2161, 2162, 2163, 2164, 2165, 2166, 2167, 2168, 2169, 2170, 
2171, 2172, 2173, 2174, 2175, 2176, 2177, 2178, 2179, 2180, 
2181, 2182, 2183, 2184, 2185, 2186, 2187, 2188, 2189, 2190, 
2191, 2192, 2193, 2194, 2195, 2196, 2197, 2198, 2199, 2200, 
2201, 2202, 2203, 2204, 2205, 2206, 2207, 2208, 2209, 2210, 
2211, 2212, 2213, 2214, 2215, 2216, 2217, 2218, 2219, 2220, 
2221, 2222, 2223, 2224, 2225, 2226, 2227, 2228, 2229, 2230, 
2231, 2232, 2233, 2234, 2235, 2236, 2237, 2238, 2239, 2240, 
2241, 2242, 2243, 2244, 2245, 2246, 2247, 2248, 2249, 2250, 
2251, 2252, 2253, 2254, 2255, 2256, 2257, 2258, 2259, 2260, 
2261, 2262, 2263, 2264, 2265, 2266, 2267, 2268, 2269, 2270, 
2271, 2272, 2273, 2274, 2275, 2276, 2277, 2278, 2279, 2280, 
2281, 2282, 2283, 2284, 2285, 2286, 2287, 2288, 2289, 2290, 
2291, 2292, 2293, 2294, 2295, 2296, 2297, 2298, 2299, 2300, 
2301, 2302, 2303, 2304, 2305, 2306, 2307, 2308, 2309, 2310, 
2311, 2312, 2313, 2314, 2315, 2316, 2317, 2318, 2319, 2320, 
2321, 2322, 2323, 2324, 2325, 2326, 2327, 2328, 2329, 2330, 
2331, 2332, 2333, 2334, 2335, 2336, 2337, 2338, 2339, 2340, 
2341, 2342, 2343, 2344, 2345, 2346, 2347, 2348, 2349, 2350, 
2351, 2352, 2353, 2354, 2355, 2356, 2357, 2358, 2359, 2360, 
2361, 2362, 2363, 2364, 2365, 2366, 2367, 2368, 2369, 2370, 
2371, 2372, 2373, 2374, 2375, 2376, 2377, 2378, 2379, 2380, 
2381, 2382, 2383, 2384, 2385, 2386, 2387, 2388, 2389, 2390, 
2391, 2392, 2393, 2394, 2395, 2396, 2397, 2398, 2399, 2400, 
2401, 2402, 2403, 2404, 2405, 2406, 2407, 2408, 2409, 2410, 
2411, 2412, 2413, 2414, 2415, 2416, 2417, 2418, 2419, 2420, 
2421, 2422, 2423, 2424, 2425, 2426, 2427, 2428, 2429, 2430, 
2431, 2432, 2433, 2434, 2435, 2436, 2437, 2438, 2439, 2440, 
2441, 2442, 2443, 2444, 2445, 2446, 2447, 2448, 2449, 2450, 
2451, 2452, 2453, 2454, 2455, 2456, 2457, 2458, 2459, 2460, 
2461, 2462, 2463, 2464, 2465, 2466, 2467, 2468, 2469, 2470, 
2471, 2472, 2473, 2474, 2475, 2476, 2477, 2478, 2479, 2480, 
2481, 2482, 2483, 2484, 2485, 2486, 2487, 2488, 2489, 2490, 
2491, 2492, 2493, 2494, 2495, 2496, 2497, 2498, 2499, 2500, 
2501, 2502, 2503, 2504, 2505, 2506, 2507, 2508, 2509, 2510, 
2511, 2512, 2513, 2514, 2515, 2516, 2517, 2518, 2519, 2520, 
2521, 2522, 2523, 2524, 2525, 2526, 2527, 2528, 2529, 2530, 
2531, 2532, 2533, 2534, 2535, 2536, 2537, 2538, 2539, 2540, 
2541, 2542, 2543, 2544, 2545, 2546, 2547, 2548, 2549, 2550, 
2551, 2552, 2553, 2554, 2555, 2556, 2557, 2558, 2559, 2560, 
2561, 2562, 2563, 2564, 2565, 2566, 2567, 2568, 2569, 2570, 
2571, 2572, 2573, 2574, 2575, 2576, 2577, 2578, 2579, 2580, 
2581, 2582, 2583, 2584, 2585, 2586, 2587, 2588, 2589, 2590, 
2591, 2592, 2593, 2594, 2595, 2596, 2597, 2598, 2599, 2600, 
2601, 2602, 2603, 2604, 2605, 2606, 2607, 2608, 2609, 2610, 
2611, 2612, 2613, 2614, 2615, 2616, 2617, 2618, 2619, 2620, 
2621, 2622, 2623, 2624, 2625, 2626, 2627, 2628, 2629, 2630, 
2631, 2632, 2633, 2634, 2635, 2636, 2637, 2638, 2639, 2640, 
2641, 2642, 2643, 2644, 2645, 2646, 2647, 2648, 2649, 2650, 
2651, 2652, 2653, 2654, 2655, 2656, 2657, 2658, 2659, 2660, 
2661, 2662, 2663, 2664, 2665, 2666, 2667, 2668, 2669, 2670, 
2671, 2672, 2673, 2674, 2675, 2676, 2677, 2678, 2679, 2680, 
2681, 2682, 2683, 2684, 2685, 2686, 2687, 2688, 2689, 2690, 
2691, 2692, 2693, 2694, 2695, 2696, 2697, 2698, 2699, 2700, 
2701, 2702, 2703, 2704, 2705, 2706, 2707, 2708, 2709, 2710, 
2711, 2712, 2713, 2714, 2715, 2716, 2717, 2718, 2719, 2720, 
2721, 2722, 2723, 2724, 2725, 2726, 2727, 2728, 2729, 2730, 
2731, 2732, 2733, 2734, 2735, 2736, 2737, 2738, 2739, 2740, 
2741, 2742, 2743, 2744, 2745, 2746, 2747, 2748, 2749, 2750, 
2751, 2752, 2753, 2754, 2755, 2756, 2757, 2758, 2759, 2760, 
2761, 2762, 2763, 2764, 2765, 2766, 2767, 2768, 2769, 2770, 
2771, 2772, 2773, 2774, 2775, 2776, 2777, 2778, 2779, 2780, 
2781, 2782, 2783, 2784, 2785, 2786, 2787, 2788, 2789, 2790, 
2791, 2792, 2793, 2794, 2795, 2796, 2797, 2798, 2799, 2800, 
2801, 2802, 2803, 2804, 2805, 2806, 2807, 2808, 2809, 2810, 
2811, 2812, 2813, 2814, 2815, 2816, 2817, 2818, 2819, 2820, 
2821, 2822, 2823, 2824, 2825, 2826, 2827, 2828, 2829, 2830, 
2831, 2832, 2833, 2834, 2835, 2836, 2837, 2838, 2839, 2840, 
2841, 2842, 2843, 2844, 2845, 2846, 2847, 2848, 2849, 2850, 
2851, 2852, 2853, 2854, 2855, 2856, 2857, 2858, 2859, 2860, 
2861, 2862, 2863, 2864, 2865, 2866, 2867, 2868, 2869, 2870, 
2871, 2872, 2873, 2874, 2875, 2876, 2877, 2878, 2879, 2880, 
2881, 2882, 2883, 2884, 2885, 2886, 2887, 2888, 2889, 2890, 
2891, 2892, 2893, 2894, 2895, 2896, 2897, 2898, 2899, 2900, 
2901, 2902, 2903, 2904, 2905, 2906, 2907, 2908, 2909, 2910, 
2911, 2912, 2913, 2914, 2915, 2916, 2917, 2918, 2919, 2920, 
2921, 2922, 2923, 2924, 2925, 2926, 2927, 2928, 2929, 2930, 
2931, 2932, 2933, 2934, 2935, 2936, 2937, 2938, 2939, 2940, 
2941, 2942, 2943, 2944, 2945, 2946, 2947, 2948, 2949, 2950, 
2951, 2952, 2953, 2954, 2955, 2956, 2957, 2958, 2959, 2960, 
2961, 2962, 2963, 2964, 2965, 2966, 2967, 2968, 2969, 2970, 
2971, 2972, 2973, 2974, 2975, 2976, 2977, 2978, 2979, 2980, 
2981, 2982, 2983, 2984, 2985, 2986, 2987, 2988, 2989, 2990, 
2991, 2992, 2993, 2994, 2995, 2996, 2997, 2998, 2999, 3000, 
3001, 3002, 3003, 3004, 3005, 3006, 3007, 3008, 3009, 3010, 
3011, 3012, 3013, 3014, 3015, 3016, 3017, 3018, 3019, 3020, 
3021, 3022, 3023, 3024, 3025, 3026, 3027, 3028, 3029, 3030, 
3031, 3032, 3033, 3034, 3035, 3036, 3037, 3038, 3039, 3040, 
3041, 3042, 3043, 3044, 3045, 3046, 3047, 3048, 3049, 3050, 
3051, 3052, 3053, 3054, 3055, 3056, 3057, 3058, 3059, 3060, 
3061, 3062, 3063, 3064, 3065, 3066, 3067, 3068, 3069, 3070, 
3071, 3072, 3073, 3074, 3075, 3076, 3077, 3078, 3079, 3080, 
3081, 3082, 3083, 3084, 3085, 3086, 3087, 3088, 3089, 3090, 
3091, 3092, 3093, 3094, 3095, 3096, 3097, 3098, 3099, 3100, 
3101, 3102, 3103, 3104, 3105, 3106, 3107, 3108, 3109, 3110, 
3111, 3112, 3113, 3114, 3115, 3116, 3117, 3118, 3119, 3120, 
3121, 3122, 3123, 3124, 3125, 3126, 3127, 3128, 3129, 3130, 
3131, 3132, 3133, 3134, 3135, 3136, 3137, 3138, 3139, 3140, 
3141, 3142, 3143, 3144, 3145, 3146, 3147, 3148, 3149, 3150, 
3151, 3152, 3153, 3154, 3155, 3156, 3157, 3158, 3159, 3160, 
3161, 3162, 3163, 3164, 3165, 3166, 3167, 3168, 3169, 3170, 
3171, 3172, 3173, 3174, 3175, 3176, 3177, 3178, 3179, 3180, 
3181, 3182, 3183, 3184, 3185, 3186, 3187, 3188, 3189, 3190, 
3191, 3192, 3193, 3194, 3195, 3196, 3197, 3198, 3199, 3200, 
3201, 3202, 3203, 3204, 3205, 3206, 3207, 3208, 3209, 3210, 
3211, 3212, 3213, 3214, 3215, 3216, 3217, 3218, 3219, 3220, 
3221, 3222, 3223, 3224, 3225, 3226, 3227, 3228, 3229, 3230, 
3231, 3232, 3233, 3234, 3235, 3236, 3237, 3238, 3239, 3240, 
3241, 3242, 3243, 3244, 3245, 3246, 3247, 3248, 3249, 3250, 
3251, 3252, 3253, 3254, 3255, 3256, 3257, 3258, 3259, 3260, 
3261, 3262, 3263, 3264, 3265, 3266, 3267, 3268, 3269, 3270, 
3271, 3272, 3273, 3274, 3275, 3276, 3277, 3278, 3279, 3280, 
3281, 3282, 3283, 3284, 3285, 3286, 3287, 3288, 3289, 3290, 
3291, 3292, 3293, 3294, 3295, 3296, 3297, 3298, 3299, 3300, 
3301, 3302, 3303, 3304, 3305, 3306, 3307, 3308, 3309, 3310, 
3311, 3312, 3313, 3314, 3315, 3316, 3317, 3318, 3319, 3320, 
3321, 3322, 3323, 3324, 3325, 3326, 3327, 3328, 3329, 3330, 
3331, 3332, 3333, 3334, 3335, 3336, 3337, 3338, 3339, 3340, 
3341, 3342, 3343, 3344, 3345, 3346, 3347, 3348, 3349, 3350, 
3351, 3352, 3353, 3354, 3355, 3356, 3357, 3358, 3359, 3360, 
3361, 3362, 3363, 3364, 3365, 3366, 3367, 3368, 3369, 3370, 
3371, 3372, 3373, 3374, 3375, 3376, 3377, 3378, 3379, 3380, 
3381, 3382, 3383, 3384, 3385, 3386, 3387, 3388, 3389, 3390, 
3391, 3392, 3393, 3394, 3395, 3396, 3397, 3398, 3399, 3400, 
3401, 3402, 3403, 3404, 3405, 3406, 3407, 3408, 3409, 3410, 
3411, 3412, 3413, 3414, 3415, 3416, 3417, 3418, 3419, 3420, 
3421, 3422, 3423, 3424, 3425, 3426, 3427, 3428, 3429, 3430, 
3431, 3432, 3433, 3434, 3435, 3436, 3437, 3438, 3439, 3440, 
3441, 3442, 3443, 3444, 3445, 3446, 3447, 3448, 3449, 3450, 
3451, 3452, 3453, 3454, 3455, 3456, 3457, 3458, 3459, 3460, 
3461, 3462, 3463, 3464, 3465, 3466, 3467, 3468, 3469, 3470, 
3471, 3472, 3473, 3474, 3475, 3476, 3477, 3478, 3479, 3480, 
3481, 3482, 3483, 3484, 3485, 3486, 3487, 3488, 3489, 3490, 
3491, 3492, 3493, 3494, 3495, 3496, 3497, 3498, 3499, 3500, 
3501, 3502, 3503, 3504, 3505, 3506, 3507, 3508, 3509, 3510, 
3511, 3512, 3513, 3514, 3515, 3516, 3517, 3518, 3519, 3520, 
3521, 3522, 3523, 3524, 3525, 3526, 3527, 3528, 3529, 3530, 
3531, 3532, 3533, 3534, 3535, 3536, 3537, 3538, 3539, 3540, 
3541, 3542, 3543, 3544, 3545, 3546, 3547, 3548, 3549, 3550, 
3551, 3552, 3553, 3554, 3555, 3556, 3557, 3558, 3559, 3560, 
3561, 3562, 3563, 3564, 3565, 3566, 3567, 3568, 3569, 3570, 
3571, 3572, 3573, 3574, 3575, 3576, 3577, 3578, 3579, 3580, 
3581, 3582, 3583, 3584, 3585, 3586, 3587, 3588, 3589, 3590, 
3591, 3592, 3593, 3594, 3595, 3596, 3597, 3598, 3599, 3600, 
3601, 3602, 3603, 3604, 3605, 3606, 3607, 3608, 3609, 3610, 
3611, 3612, 3613, 3614, 3615, 3616, 3617, 3618, 3619, 3620, 
3621, 3622, 3623, 3624, 3625, 3626, 3627, 3628, 3629, 3630, 
3631, 3632, 3633, 3634, 3635, 3636, 3637, 3638, 3639, 3640, 
3641, 3642, 3643, 3644, 3645, 3646, 3647, 3648, 3649, 3650, 
3651, 3652, 3653, 3654, 3655, 3656, 3657, 3658, 3659, 3660, 
3661, 3662, 3663, 3664, 3665, 3666, 3667, 3668, 3669, 3670, 
3671, 3672, 3673, 3674, 3675, 3676, 3677, 3678, 3679, 3680, 
3681, 3682, 3683, 3684, 3685, 3686, 3687, 3688, 3689, 3690, 
3691, 3692, 3693, 3694, 3695, 3696, 3697, 3698, 3699, 3700, 
3701, 3702, 3703, 3704, 3705, 3706, 3707, 3708, 3709, 3710, 
3711, 3712, 3713, 3714, 3715, 3716, 3717, 3718, 3719, 3720, 
3721, 3722, 3723, 3724, 3725, 3726, 3727, 3728, 3729, 3730, 
3731, 3732, 3733, 3734, 3735, 3736, 3737, 3738, 3739, 3740, 
3741, 3742, 3743, 3744, 3745, 3746, 3747, 3748, 3749, 3750, 
3751, 3752, 3753, 3754, 3755, 3756, 3757, 3758, 3759, 3760, 
3761, 3762, 3763, 3764, 3765, 3766, 3767, 3768, 3769, 3770, 
3771, 3772, 3773, 3774, 3775, 3776, 3777, 3778, 3779, 3780, 
3781, 3782, 3783, 3784, 3785, 3786, 3787, 3788, 3789, 3790, 
3791, 3792, 3793, 3794, 3795, 3796, 3797, 3798, 3799, 3800, 
3801, 3802, 3803, 3804, 3805, 3806, 3807, 3808, 3809, 3810, 
3811, 3812, 3813, 3814, 3815, 3816, 3817, 3818, 3819, 3820, 
3821, 3822, 3823, 3824, 3825, 3826, 3827, 3828, 3829, 3830, 
3831, 3832, 3833, 3834, 3835, 3836, 3837, 3838, 3839, 3840, 
3841, 3842, 3843, 3844, 3845, 3846, 3847, 3848, 3849, 3850, 
3851, 3852, 3853, 3854, 3855, 3856, 3857, 3858, 3859, 3860, 
3861, 3862, 3863, 3864, 3865, 3866, 3867, 3868, 3869, 3870, 
3871, 3872, 3873, 3874, 3875, 3876, 3877, 3878, 3879, 3880, 
3881, 3882, 3883, 3884, 3885, 3886, 3887, 3888, 3889, 3890, 
3891, 3892, 3893, 3894, 3895, 3896, 3897, 3898, 3899, 3900, 
3901, 3902, 3903, 3904, 3905, 3906, 3907, 3908, 3909, 3910, 
3911, 3912, 3913, 3914, 3915, 3916, 3917, 3918, 3919, 3920, 
3921, 3922, 3923, 3924, 3925, 3926, 3927, 3928, 3929, 3930, 
3931, 3932, 3933, 3934, 3935, 3936, 3937, 3938, 3939, 3940, 
3941, 3942, 3943, 3944, 3945, 3946, 3947, 3948, 3949, 3950, 
3951, 3952, 3953, 3954, 3955, 3956, 3957, 3958, 3959, 3960, 
3961, 3962, 3963, 3964, 3965, 3966, 3967, 3968, 3969, 3970, 
3971, 3972, 3973, 3974, 3975, 3976, 3977, 3978, 3979, 3980, 
3981, 3982, 3983, 3984, 3985, 3986, 3987, 3988, 3989, 3990, 
3991, 3992, 3993, 3994, 3995, 3996, 3997, 3998, 3999, 4000, 
4001, 4002, 4003, 4004, 4005, 4006, 4007, 4008, 4009, 4010, 
4011, 4012, 4013, 4014, 4015, 4016, 4017, 4018, 4019, 4020, 
4021, 4022, 4023, 4024, 4025, 4026, 4027, 4028, 4029, 4030, 
4031, 4032, 4033, 4034, 4035, 4036, 4037, 4038, 4039, 4040, 
4041, 4042, 4043, 4044, 4045, 4046, 4047, 4048, 4049, 4050, 
4051, 4052, 4053, 4054, 4055, 4056, 4057, 4058, 4059, 4060, 
4061, 4062, 4063, 4064, 4065, 4066, 4067, 4068, 4069, 4070, 
4071, 4072, 4073, 4074, 4075, 4076, 4077, 4078, 4079, 4080, 
4081, 4082, 4083, 4084, 4085, 4086, 4087, 4088, 4089, 4090, 
4091, 4092, 4093, 4094, 4095, 4096, 4097, 4098, 4099, 4100, 
4101, 4102, 4103, 4104, 4105, 4106, 4107, 4108, 4109, 4110, 
4111, 4112, 4113, 4114, 4115, 4116, 4117, 4118, 4119, 4120, 
4121, 4122, 4123, 4124, 4125, 4126, 4127, 4128, 4129, 4130, 
4131, 4132, 4133, 4134, 4135, 4136, 4137, 4138, 4139, 4140, 
4141, 4142, 4143, 4144, 4145, 4146, 4147, 4148, 4149, 4150, 
4151, 4152, 4153, 4154, 4155, 4156, 4157, 4158, 4159, 4160, 
4161, 4162, 4163, 4164, 4165, 4166, 4167, 4168, 4169, 4170, 
4171, 4172, 4173, 4174, 4175, 4176, 4177, 4178, 4179, 4180, 
4181, 4182, 4183, 4184, 4185, 4186, 4187, 4188, 4189, 4190, 
4191, 4192, 4193, 4194, 4195, 4196, 4197, 4198, 4199, 4200, 
4201, 4202, 4203, 4204, 4205, 4206, 4207, 4208, 4209, 4210, 
4211, 4212, 4213, 4214, 4215, 4216, 4217, 4218, 4219, 4220, 
4221, 4222, 4223, 4224, 4225, 4226, 4227, 4228, 4229, 4230, 
4231, 4232, 4233, 4234, 4235, 4236, 4237, 4238, 4239, 4240, 
4241, 4242, 4243, 4244, 4245, 4246, 4247, 4248, 4249, 4250, 
4251, 4252, 4253, 4254, 4255, 4256, 4257, 4258, 4259, 4260, 
4261, 4262, 4263, 4264, 4265, 4266, 4267, 4268, 4269, 4270, 
4271, 4272, 4273, 4274, 4275, 4276, 4277, 4278, 4279, 4280, 
4281, 4282, 4283, 4284, 4285, 4286, 4287, 4288, 4289, 4290, 
4291, 4292, 4293, 4294, 4295, 4296, 4297, 4298, 4299, 4300, 
4301, 4302, 4303, 4304, 4305, 4306, 4307, 4308, 4309, 4310, 
4311, 4312, 4313, 4314, 4315, 4316, 4317, 4318, 4319, 4320, 
4321, 4322, 4323, 4324, 4325, 4326, 4327, 4328, 4329, 4330, 
4331, 4332, 4333, 
