*Heading
 /Users/juliagao/geometry-optimization-net/scripts/../runs/r0_sweep/shape_4.inp
*NODE
1, 0, -0.3, 0
2, 0.425, -0.3, 0
3, 0.575, -0.3, 0
4, 1, -0.3, 0
5, 1, 0.3, 0
6, 0.575, 0.3, 0
7, 0.425, 0.3, 0
8, 0, 0.3, 0
9, 0.71, 0.06, 0
10, 0.026033001570113, -0.3, 0
11, 0.07886042599275, -0.3, 0
12, 0.13251574392012, -0.3, 0
13, 0.18654512367697, -0.3, 0
14, 0.24154614820826, -0.3, 0
15, 0.29713961050151, -0.3, 0
16, 0.35097057714062, -0.3, 0
17, 0.40102031066787, -0.3, 0
18, 0.052066003140226, -0.3, 0
19, 0.10565484884527, -0.3, 0
20, 0.15937663899497, -0.3, 0
21, 0.21371360835897, -0.3, 0
22, 0.26937868805754, -0.3, 0
23, 0.32490053294549, -0.3, 0
24, 0.37704062133575, -0.3, 0
25, 0.44342966002443, -0.3, 0
26, 0.48005223965865, -0.3, 0
27, 0.51702364280578, -0.3, 0
28, 0.55540106317156, -0.3, 0
29, 0.46185932004885, -0.3, 0
30, 0.49824515926845, -0.3, 0
31, 0.53580212634311, -0.3, 0
32, 0.60006844162738, -0.3, 0
33, 0.65032078082813, -0.3, 0
34, 0.70179005217609, -0.3, 0
35, 0.75546130738562, -0.3, 0
36, 0.81039816881216, -0.3, 0
37, 0.86552413058435, -0.3, 0
38, 0.92023697007239, -0.3, 0
39, 0.97368741388992, -0.3, 0
40, 0.62513688325477, -0.3, 0
41, 0.67550467840149, -0.3, 0
42, 0.7280754259507, -0.3, 0
43, 0.78284718882054, -0.3, 0
44, 0.83794914880377, -0.3, 0
45, 0.89309911236493, -0.3, 0
46, 0.94737482777984, -0.3, 0
47, 1, -0.27418249706659, 0
48, 1, -0.22167838955413, 0
49, 1, -0.16718282389882, 0
50, 1, -0.11102770914244, 0
51, 1, -0.054451700957536, 0
52, 1, 0.0013369153424291, 0
53, 1, 0.056300287927239, 0
54, 1, 0.1115925876696, 0
55, 1, 0.1667696647294, 0
56, 1, 0.2206432748904, 0
57, 1, 0.27361374847217, 0
58, 1, -0.24836499413318, 0
59, 1, -0.19499178497508, 0
60, 1, -0.13937386282257, 0
61, 1, -0.082681555462312, 0
62, 1, -0.02622184645276, 0
63, 1, 0.028895677137618, 0
64, 1, 0.083704898716859, 0
65, 1, 0.13948027662234, 0
66, 1, 0.19405905283646, 0
67, 1, 0.24722749694434, 0
68, 0.97360837465048, 0.3, 0
69, 0.92013880830666, 0.3, 0
70, 0.86546445809533, 0.3, 0
71, 0.81118096532314, 0.3, 0
72, 0.76048861402499, 0.3, 0
73, 0.7163137745313, 0.3, 0
74, 0.67970326722219, 0.3, 0
75, 0.64996656527266, 0.3, 0
76, 0.62536134008673, 0.3, 0
77, 0.60397554342504, 0.3, 0
78, 0.58444960277908, 0.3, 0
79, 0.94721674930096, 0.3, 0
80, 0.89306086731237, 0.3, 0
81, 0.83786804887829, 0.3, 0
82, 0.78449388176799, 0.3, 0
83, 0.736483346282, 0.3, 0
84, 0.6961442027806, 0.3, 0
85, 0.66326233166379, 0.3, 0
86, 0.63667079888153, 0.3, 0
87, 0.61405188129193, 0.3, 0
88, 0.59389920555815, 0.3, 0
89, 0.56615725500105, 0.3, 0
90, 0.54925824530997, 0.3, 0
91, 0.53387640415007, 0.3, 0
92, 0.5194931340218, 0.3, 0
93, 0.50564443972012, 0.3, 0
94, 0.49206737922225, 0.3, 0
95, 0.47829906395035, 0.3, 0
96, 0.46417044263966, 0.3, 0
97, 0.44941327031555, 0.3, 0
98, 0.43340123194345, 0.3, 0
99, 0.5573145100021, 0.3, 0
100, 0.54120198061784, 0.3, 0
101, 0.5265508276823, 0.3, 0
102, 0.5124354403613, 0.3, 0
103, 0.49885343907894, 0.3, 0
104, 0.48528131936557, 0.3, 0
105, 0.47131680853513, 0.3, 0
106, 0.4570240767442, 0.3, 0
107, 0.44180246388689, 0.3, 0
108, 0.41554194280265, 0.3, 0
109, 0.39560452703574, 0.3, 0
110, 0.37289402763081, 0.3, 0
111, 0.34644036467254, 0.3, 0
112, 0.3158741185025, 0.3, 0
113, 0.2798940938401, 0.3, 0
114, 0.23672728030963, 0.3, 0
115, 0.18707966480952, 0.3, 0
116, 0.13373203006123, 0.3, 0
117, 0.079547863271299, 0.3, 0
118, 0.026297114322377, 0.3, 0
119, 0.4060838856053, 0.3, 0
120, 0.38512516846618, 0.3, 0
121, 0.36066288679545, 0.3, 0
122, 0.33221784254962, 0.3, 0
123, 0.29953039445537, 0.3, 0
124, 0.26025779322483, 0.3, 0
125, 0.21319676739442, 0.3, 0
126, 0.16096256222463, 0.3, 0
127, 0.10650149789784, 0.3, 0
128, 0.052594228644755, 0.3, 0
129, 0, 0.27403105537242, 0
130, 0, 0.22122088126365, 0
131, 0, 0.16695300057725, 0
132, 0, 0.11205021802721, 0
133, 0, 0.057179045365418, 0
134, 0, 0.0024688093812733, 0
135, 0, -0.052246635268399, 0
136, 0, -0.1078023409877, 0
137, 0, -0.16458982031651, 0
138, 0, -0.22062396427603, 0
139, 0, -0.27401304232178, 0
140, 0, 0.24806211074484, 0
141, 0, 0.19437965178246, 0
142, 0, 0.13952634937204, 0
143, 0, 0.084574086682392, 0
144, 0, 0.029784004048444, 0
145, 0, -0.024846385285897, 0
146, 0, -0.0796468852509, 0
147, 0, -0.13595779672451, 0
148, 0, -0.1932218439085, 0
149, 0, -0.24802608464355, 0
150, 0.70996397842308, 0.063890471246302, 0
151, 0.70967829161734, 0.048380366802585, 0
152, 0.70913652662947, 0.040976009194801, 0
153, 0.70833203555581, 0.033584798476521, 0
154, 0.70724931976703, 0.026121993633469, 0
155, 0.70589077421196, 0.018660078793197, 0
156, 0.70424734214968, 0.011183781125348, 0
157, 0.70229787389509, 0.0036478022665207, 0
158, 0.69998580001401, -0.0040755780979514, 0
159, 0.69731197288846, -0.011888700535668, 0
160, 0.69444309125098, -0.019321397691857, 0
161, 0.6914198757588, -0.026362207755673, 0
162, 0.68815243857767, -0.033266604420065, 0
163, 0.68463017863937, -0.040058466312002, 0
164, 0.68082852484752, -0.046775671778873, 0
165, 0.67670801892204, -0.053464864628428, 0
166, 0.67230483341033, -0.060046007149904, 0
167, 0.66773071402509, -0.066358248842165, 0
168, 0.66304538913008, -0.072348783990257, 0
169, 0.65815231588734, -0.078158765983692, 0
170, 0.65292216514646, -0.083926408775455, 0
171, 0.64739881127385, -0.089578040526212, 0
172, 0.6417450528788, -0.094946248378898, 0
173, 0.63602050142342, -0.09999507230075, 0
174, 0.63011131309585, -0.10483642261005, 0
175, 0.62392389239125, -0.10953721967112, 0
176, 0.61756674372388, -0.11400592131906, 0
177, 0.61119357035347, -0.11814597853782, 0
178, 0.60477754898753, -0.1219935846141, 0
179, 0.59818904295147, -0.12563111633036, 0
180, 0.59133076795684, -0.12909968346618, 0
181, 0.58430102135136, -0.13233652084599, 0
182, 0.57719845780446, -0.13529566709219, 0
183, 0.57000820974572, -0.13798699478697, 0
184, 0.5627546381132, -0.14040422912221, 0
185, 0.55547525311614, -0.14254010986048, 0
186, 0.54809003858273, -0.14441953943149, 0
187, 0.54053495492998, -0.14605076415806, 0
188, 0.5329493509788, -0.14739898809083, 0
189, 0.52542218115964, -0.1484555412137, 0
190, 0.51793274208605, -0.14923292423951, 0
191, 0.51040429802355, -0.14974210414649, 0
192, 0.5028119729113, -0.14998117145502, 0
193, 0.49523074481702, -0.14994583511533, 0
194, 0.48774712463843, -0.14964223452827, 0
195, 0.48028472660407, -0.14907249343495, 0
196, 0.47268657744661, -0.14821617742855, 0
197, 0.46503155028098, -0.14706812210714, 0
198, 0.45739413606979, -0.14563253666671, 0
199, 0.44978355175851, -0.14390759719517, 0
200, 0.44225802475566, -0.14190558251922, 0
201, 0.43483056010491, -0.13963202168388, 0
202, 0.42745094787973, -0.1370701271592, 0
203, 0.42014602901076, -0.1342249810722, 0
204, 0.41299991489857, -0.13113080623576, 0
205, 0.40604067544798, -0.12780746823974, 0
206, 0.39925095297327, -0.12425425152439, 0
207, 0.39253703244702, -0.12042092503026, 0
208, 0.38596359774355, -0.11633972459623, 0
209, 0.37964298299936, -0.11208773319228, 0
210, 0.37353178470268, -0.10764781534651, 0
211, 0.36758897285355, -0.10299484476371, 0
212, 0.36177236683281, -0.098092128365941, 0
213, 0.35610167940022, -0.0929485961777, 0
214, 0.35066303714594, -0.087643053896338, 0
215, 0.34543122327782, -0.082156580038049, 0
216, 0.34038852168483, -0.076470421640547, 0
217, 0.33557746626216, -0.070633955570608, 0
218, 0.33099768894071, -0.064652391326533, 0
219, 0.32660908402577, -0.058471895083041, 0
220, 0.32235091639831, -0.051985725316376, 0
221, 0.31826711436876, -0.045229073030741, 0
222, 0.31444654719775, -0.038335729224445, 0
223, 0.31089301481888, -0.031315648270616, 0
224, 0.30761010718452, -0.024179145830176, 0
225, 0.3045930336833, -0.016916298440659, 0
226, 0.30185273275477, -0.0095532886331061, 0
227, 0.29939542982153, -0.0021112386575746, 0
228, 0.2971836901462, 0.0055431908490552, 0
229, 0.29527251489745, 0.013238301038, 0
230, 0.29369775033366, 0.020765047007464, 0
231, 0.29241395274431, 0.028250466781173, 0
232, 0.29140815525023, 0.035721567115544, 0
233, 0.29067948578954, 0.043120357844785, 0
234, 0.29021644288242, 0.050468000899535, 0
235, 0.29001113535755, 0.057837501869456, 0
236, 0.29006877651232, 0.065374100042102, 0
237, 0.29040076227013, 0.072967614249485, 0
238, 0.29098476835576, 0.080313355583945, 0
239, 0.29181886821962, 0.087579266178278, 0
240, 0.29293316787861, 0.094976087580464, 0
241, 0.29432242911822, 0.10238793057351, 0
242, 0.29598170502243, 0.10976479940741, 0
243, 0.29791611944917, 0.11711484256289, 0
244, 0.30015038760302, 0.12449908832716, 0
245, 0.30270874728567, 0.13194554552934, 0
246, 0.30552108321397, 0.13923352052688, 0
247, 0.30851123785934, 0.14620935972053, 0
248, 0.31169777852312, 0.15296382613736, 0
249, 0.3150984899356, 0.15955617035909, 0
250, 0.31874536339174, 0.16605072448255, 0
251, 0.3226786139407, 0.17250389123027, 0
252, 0.32686855874269, 0.17885076201395, 0
253, 0.33128489143826, 0.18504084074118, 0
254, 0.33589628884406, 0.19103423920166, 0
255, 0.34071160379117, 0.19684738502176, 0
256, 0.34584172427687, 0.20260163407825, 0
257, 0.35122459541449, 0.20820890304839, 0
258, 0.35677316282897, 0.2135775798753, 0
259, 0.36247977789818, 0.21870787099971, 0
260, 0.36832040980183, 0.22358632343411, 0
261, 0.3744031160247, 0.22830158145467, 0
262, 0.38076644988611, 0.23286804228144, 0
263, 0.38735935718975, 0.23723454817802, 0
264, 0.3940031604931, 0.24128615355674, 0
265, 0.40060738779871, 0.24498948107271, 0
266, 0.40730713345844, 0.24843575040284, 0
267, 0.41422254292984, 0.25168262178585, 0
268, 0.4214728757822, 0.25476521881023, 0
269, 0.42891414121956, 0.25760263265124, 0
270, 0.43629396358776, 0.26010382498597, 0
271, 0.44359192241164, 0.26228229967693, 0
272, 0.45085596986933, 0.26416871529835, 0
273, 0.45809022178237, 0.26577553402296, 0
274, 0.4653285403641, 0.26711805719318, 0
275, 0.47269618240737, 0.26821743716857, 0
276, 0.48038482660362, 0.26908190859066, 0
277, 0.48837995638281, 0.26967826323293, 0
278, 0.49649047017267, 0.2699706709903, 0
279, 0.5045610862982, 0.26995046071626, 0
280, 0.51241956686653, 0.26963242547646, 0
281, 0.52016910093151, 0.26902920094584, 0
282, 0.52790112687864, 0.26813823922883, 0
283, 0.53549353531575, 0.26697876346068, 0
284, 0.54292443516412, 0.26556627295587, 0
285, 0.55022402550304, 0.26390573098545, 0
286, 0.55745983729969, 0.26198605667794, 0
287, 0.56468227947926, 0.25979039692859, 0
288, 0.57195385687283, 0.25728822164929, 0
289, 0.57929280654652, 0.25445475229809, 0
290, 0.58647926337504, 0.25136702118272, 0
291, 0.59342114702876, 0.24807575325812, 0
292, 0.60030600306096, 0.24449581387883, 0
293, 0.60710198260806, 0.24063544736274, 0
294, 0.61365516044419, 0.23658568450652, 0
295, 0.61992561133379, 0.23238865159147, 0
296, 0.62594111745436, 0.22804414437508, 0
297, 0.63182043478404, 0.22347284981725, 0
298, 0.63765276141337, 0.21859292873436, 0
299, 0.64342264969607, 0.21339473078314, 0
300, 0.64900191664695, 0.2079811770173, 0
301, 0.65427372141311, 0.20247673107192, 0
302, 0.65931762276117, 0.19681335840155, 0
303, 0.66425750301856, 0.19084140249499, 0
304, 0.66900582065843, 0.18464763291593, 0
305, 0.67342629395062, 0.17842010068322, 0
306, 0.67760508559326, 0.17205549133048, 0
307, 0.68159267176906, 0.16547085406604, 0
308, 0.68529074259637, 0.15882985462149, 0
309, 0.68874488687554, 0.15206175724063, 0
310, 0.69200197506289, 0.14506022034148, 0
311, 0.69499344461342, 0.13795868225155, 0
312, 0.69769672330878, 0.1308237621536, 0
313, 0.7001243381518, 0.12364156751474, 0
314, 0.70229273718124, 0.11637063472249, 0
315, 0.70419499566993, 0.10903471983363, 0
316, 0.70584681676872, 0.10155824811784, 0
317, 0.70725508193955, 0.093842738190961, 0
318, 0.70836794643131, 0.086130415266123, 0
319, 0.7091663666508, 0.07869308239944, 0
320, 0.7096892131791, 0.071420638988126, 0
321, 0.70996300857511, 0.05605969550664, 0
322, 0.70985585185963, 0.06777960627879, 0
323, 0.70945942013728, 0.075058232005667, 0
324, 0.70881023713982, 0.082322295710623, 0
325, 0.70785621212676, 0.089929826193134, 0
326, 0.70658029545296, 0.097743622804521, 0
327, 0.70504290289161, 0.10535865330438, 0
328, 0.70328118601834, 0.1126949607686, 0
329, 0.70123782951379, 0.12002778936605, 0
330, 0.69894595598545, 0.1272347097623, 0
331, 0.69638274871502, 0.13438962114478, 0
332, 0.69353928349144, 0.14150181345123, 0
333, 0.69039925014836, 0.14858964661122, 0
334, 0.68702721501581, 0.15550298863505, 0
335, 0.68349509962207, 0.16212516037976, 0
336, 0.67962924990335, 0.16878112179492, 0
337, 0.67552124245933, 0.17529220797198, 0
338, 0.67127561112475, 0.1815099364772, 0
339, 0.66667855558924, 0.18774293980717, 0
340, 0.66177885851404, 0.19389398955552, 0
341, 0.65680371151802, 0.19968749236023, 0
342, 0.65169412144757, 0.20522015349059, 0
343, 0.64625946455365, 0.21069229750372, 0
344, 0.64053591007349, 0.21604376811083, 0
345, 0.63472338228573, 0.22108882621879, 0
346, 0.628875308976, 0.2258045674017, 0
347, 0.62296801607584, 0.2302318036754, 0
348, 0.61684538598091, 0.2344911337783, 0
349, 0.61042739987205, 0.23862191714182, 0
350, 0.60373986328786, 0.24258707679774, 0
351, 0.59683703700082, 0.24633997969574, 0
352, 0.5899741565741, 0.24974891515601, 0
353, 0.58295528350039, 0.2529207622109, 0
354, 0.57560197984395, 0.25591921842032, 0
355, 0.56828096056828, 0.25858929950989, 0
356, 0.56106248694428, 0.26092628536137, 0
357, 0.55383881260115, 0.26298123503043, 0
358, 0.54659338343803, 0.26476585710165, 0
359, 0.53924176089625, 0.26630095481338, 0
360, 0.53173363275515, 0.26758847854382, 0
361, 0.52405913717838, 0.26861725214827, 0
362, 0.51627206651182, 0.26936862193848, 0
363, 0.50856286799928, 0.26982534945759, 0
364, 0.50055764675062, 0.26999925951129, 0
365, 0.49242461006203, 0.26986332079269, 0
366, 0.4843396221661, 0.26941526329498, 0
367, 0.47643703698987, 0.26867387635176, 0
368, 0.4689641208638, 0.26769394295592, 0
369, 0.46170361226128, 0.26647853703968, 0
370, 0.45448970950316, 0.26500929962803, 0
371, 0.44723773253517, 0.2632637267339, 0
372, 0.43996434654662, 0.26123548354572, 0
373, 0.43264489201834, 0.25890522619095, 0
374, 0.42520856121463, 0.25623006988249, 0
375, 0.41776586102053, 0.25322925782207, 0
376, 0.41070829787067, 0.25007101761285, 0
377, 0.403935903333, 0.24673962959475, 0
378, 0.39731074446474, 0.24318001200738, 0
379, 0.39073049127231, 0.23933258049668, 0
380, 0.38402849232925, 0.23507315423438, 0
381, 0.37754632322487, 0.23060215972689, 0
382, 0.37130311922185, 0.22594310069136, 0
383, 0.36538084989416, 0.22117594133804, 0
384, 0.35962394663902, 0.21618758976399, 0
385, 0.35397089927595, 0.21091554330083, 0
386, 0.34852845208902, 0.20545229328013, 0
387, 0.34320863837642, 0.19970135428357, 0
388, 0.33826651233639, 0.19394879050216, 0
389, 0.33357858170398, 0.1880777543775, 0
390, 0.32904661271813, 0.18196285957321, 0
391, 0.32474715072814, 0.1756997782691, 0
392, 0.32066834839813, 0.1692710332116, 0
393, 0.31688019793032, 0.16279658596872, 0
394, 0.31337411531271, 0.15628488486472, 0
395, 0.31008053409238, 0.14961359384888, 0
396, 0.30700295565642, 0.14277765675498, 0
397, 0.30410428915176, 0.13566287046061, 0
398, 0.30138374032695, 0.12820249889609, 0
399, 0.29898608458277, 0.1207733928025, 0
400, 0.29691273825526, 0.11343747374032, 0
401, 0.29511708551157, 0.10607592520166, 0
402, 0.2935941539571, 0.098686255456081, 0
403, 0.29233886673084, 0.091254655783319, 0
404, 0.29136391367568, 0.08389525970367, 0
405, 0.29066711089199, 0.076725475700218, 0
406, 0.29020186558023, 0.069205579653781, 0
407, 0.29000565330798, 0.061540829374956, 0
408, 0.29008192167683, 0.054134846907962, 0
409, 0.29041501294223, 0.046804065127614, 0
410, 0.29100870156643, 0.039441871456341, 0
411, 0.2918738320771, 0.032008970608125, 0
412, 0.2930219433205, 0.024502343381189, 0
413, 0.29444103463265, 0.017040583557584, 0
414, 0.29617432024657, 0.0094520814015353, 0
415, 0.29826801487004, 0.0016544258675587, 0
416, 0.30059312903881, -0.005855141775315, 0
417, 0.3031809127387, -0.013227363993773, 0
418, 0.30607428619653, -0.020578021255702, 0
419, 0.30921279044081, -0.02775101518559, 0
420, 0.31263983077453, -0.034848125722562, 0
421, 0.31631817430209, -0.041788932706034, 0
422, 0.32028047516032, -0.048631911696491, 0
423, 0.324483935862, -0.055300091088188, 0
424, 0.32879154376349, -0.061604540062488, 0
425, 0.33325808606674, -0.067660227505685, 0
426, 0.33794987559322, -0.073565551874631, 0
427, 0.34287923437606, -0.079330773607367, 0
428, 0.34803402828751, -0.084935651025464, 0
429, 0.35334027414213, -0.090302775716272, 0
430, 0.35891080873498, -0.095543691076848, 0
431, 0.36467994721944, -0.10058792961362, 0
432, 0.37054080031515, -0.10534907190915, 0
433, 0.37656357645662, -0.10989246405018, 0
434, 0.38276142078597, -0.11422719503763, 0
435, 0.38920382904603, -0.11839340893776, 0
436, 0.39590732600084, -0.12238616994402, 0
437, 0.40262809335435, -0.126061042253, 0
438, 0.40948456858767, -0.12949130910934, 0
439, 0.41654494378013, -0.13270509354253, 0
440, 0.42377477947996, -0.13567757971715, 0
441, 0.43115253960442, -0.13839361540553, 0
442, 0.43853083872378, -0.14080224522697, 0
443, 0.44600499460155, -0.14293974210933, 0
444, 0.45357943367337, -0.14480510395629, 0
445, 0.46122355902435, -0.1463889223887, 0
446, 0.46885140552485, -0.14767706859318, 0
447, 0.47653103903137, -0.14868446935758, 0
448, 0.48404478044863, -0.14939300595676, 0
449, 0.4914532944337, -0.14982600841765, 0
450, 0.49900973984462, -0.14999766495616, 0
451, 0.50661328412539, -0.14989584142767, 0
452, 0.51419191565866, -0.14951990163139, 0
453, 0.52166784449511, -0.14887916138405, 0
454, 0.52916828876812, -0.14796444503145, 0
455, 0.53671949230248, -0.14676478988658, 0
456, 0.54433656758015, -0.14526633494891, 0
457, 0.5518273640142, -0.14350411273321, 0
458, 0.55910523344746, -0.14151072195445, 0
459, 0.56638334885413, -0.13923165103098, 0
460, 0.57360975286349, -0.136676394546, 0
461, 0.580761281573, -0.13384946574018, 0
462, 0.58781243479012, -0.13075894814197, 0
463, 0.59481776428822, -0.12737553612115, 0
464, 0.6015282418012, -0.12382604814524, 0
465, 0.60799379359817, -0.12010369302859, 0
466, 0.61435786764903, -0.11613142158556, 0
467, 0.6207361242941, -0.11182196536053, 0
468, 0.62706843490578, -0.10719333816421, 0
469, 0.63311048241997, -0.10242413284005, 0
470, 0.63888620109136, -0.097513880805379, 0
471, 0.64455644376014, -0.092326734807322, 0
472, 0.65018892222687, -0.08677631704338, 0
473, 0.65560133857992, -0.081025611646981, 0
474, 0.66065048191557, -0.0752457853808, 0
475, 0.66538806320066, -0.06940938337722, 0
476, 0.67001708591792, -0.063264717126942, 0
477, 0.6745316555629, -0.056784850052711, 0
478, 0.67882123888194, -0.050104334604759, 0
479, 0.68277385866489, -0.043410427450071, 0
480, 0.68642503370279, -0.036673194911282, 0
481, 0.68981760088928, -0.029829160509801, 0
482, 0.6929588336781, -0.022866688561083, 0
483, 0.69586221501249, -0.015749536073857, 0
484, 0.69868563242402, -0.0080001393384337, 0
485, 0.70120845366617, -0.0001261813733032, 0
486, 0.70331651158697, 0.0074415031012285, 0
487, 0.70510929543066, 0.014942521183547, 0
488, 0.70660487639758, 0.022391164671842, 0
489, 0.70782639682951, 0.029863834659169, 0
490, 0.70877105714422, 0.037314208957419, 0
491, 0.70943777842422, 0.044643650995277, 0
492, 0.70985213167078, 0.052120777429117, 0
493, 0.42424804585865, -0.26085846763509, 0
494, 0.38360530000232, 0.26470533663833, 0
495, 0.053432560958226, -0.24879201625273, 0
496, 0.10788851423638, -0.2505353113448, 0
497, 0.16367854936852, -0.25235096021223, 0
498, 0.27687212676947, -0.25597859896463, 0
499, 0.22062571145448, -0.25415274432292, 0
500, 0.70020690919446, 0.15079391444667, 0
501, 0.56911865462927, 0.27358299740787, 0
502, 0.61606917422292, -0.2353979831092, 0
503, 0.047108243721503, 0.19066809265877, 0
504, 0.049771936472401, 0.24624989810842, 0
505, 0.1001010994018, 0.24643255161616, 0
506, 0.15072053249898, 0.2496767513968, 0
507, 0.199101968211, 0.25404687448626, 0
508, 0.24410112493976, 0.25464184421888, 0
509, 0.42010249290379, 0.28277458762902, 0
510, 0.41981102381419, 0.26744030676691, 0
511, 0.35079649278488, 0.23489569502859, 0
512, 0.47429708007797, 0.28261080095034, 0
513, 0.44350576550532, 0.26670771000267, 0
514, 0.48961415574833, 0.2806326922669, 0
515, 0.45829525589739, 0.27996737951489, 0
516, 0.34715775282923, 0.28949792382803, 0
517, 0.04449489601071, 0.13317044500033, 0
518, 0.042864365856723, 0.076329644204899, 0
519, 0.043904470815612, 0.020833742816122, 0
520, 0.053952776826866, -0.19665274163279, 0
521, 0.0535444871086, -0.14326385204156, 0
522, 0.051501231535497, -0.089022409862471, 0
523, 0.047553851782306, -0.03422686134919, 0
524, 0.49477995471883, -0.26066286190306, 0
525, 0.45960877627981, -0.26178379647526, 0
526, 0.41572569626794, -0.14579772889962, 0
527, 0.39140652167419, -0.12452699270668, 0
528, 0.94958094986248, 0.19457466381468, 0
529, 0.94848625072415, 0.24771333424186, 0
530, 0.8964952931453, 0.24914098530365, 0
531, 0.84438314281384, 0.25223346309031, 0
532, 0.79353647502745, 0.25785988144748, 0
533, 0.67382634434252, 0.20302633148355, 0
534, 0.67310435860496, 0.27128064359527, 0
535, 0.62329762803372, 0.25161718642492, 0
536, 0.4978117832274, 0.27475023013621, 0
537, 0.63743149949186, 0.2409402086072, 0
538, 0.68051328703973, 0.18504151681155, 0
539, 0.71547028350261, 0.097393089490263, 0
540, 0.72077451334575, 0.10676031176916, 0
541, 0.72416048294362, 0.11008908173447, 0
542, 0.69131570990501, 0.20151792020549, 0
543, 0.74928000857938, 0.10370163643758, 0
544, 0.71478865706993, 0.10810557952433, 0
545, 0.71953623968805, 0.12982693815851, 0
546, 0.72875408543163, 0.055218911904007, 0
547, 0.79361998784022, 0.18091430678795, 0
548, 0.95029313813294, 0.14012106001206, 0
549, 0.95164985223738, 0.084478239007831, 0
550, 0.95485711875366, 0.027981393922696, 0
551, 0.95934233781492, -0.029283419256109, 0
552, 0.96245518514391, -0.085628672585303, 0
553, 0.5354693856564, -0.25606984486564, 0
554, 0.68738511894373, -0.26287738968715, 0
555, 0.63942101383499, -0.2669046427003, 0
556, 0.96261875166163, -0.14053688730695, 0
557, 0.69073015236454, -0.12066156954546, 0
558, 0.8132737697618, -0.24054930122912, 0
559, 0.86193785745393, -0.24432394899372, 0
560, 0.90863609185875, -0.24628720016848, 0
561, 0.95978478434251, -0.19429012122514, 0
562, 0.95453439437034, -0.24725948835794, 0
563, 0.21628754922553, 0.14156793852235, 0
564, 0.25314050093019, 0.17451373462004, 0
565, 0.19476625297655, 0.18793993511852, 0
566, 0.27318476948296, 0.098259975945614, 0
567, 0.26188451200567, 0.047472384039505, 0
568, 0.21422100287502, 0.21372482905118, 0
569, 0.14605323276947, 0.19407603742888, 0
570, 0.095271665623488, 0.18891656045109, 0
571, 0.30942848487092, 0.23237524971226, 0
572, 0.37997116846874, 0.2378405872639, 0
573, 0.36839761594987, 0.25769087595817, 0
574, 0.36311439163197, 0.24922139562496, 0
575, 0.33371110006516, 0.23026225583672, 0
576, 0.3274216652246, 0.24548049094444, 0
577, 0.34213578233235, 0.23697732071202, 0
578, 0.39311803037651, 0.24263442289236, 0
579, 0.37469387179577, 0.25239617699319, 0
580, 0.37970788255265, 0.24782883272289, 0
581, 0.33398830210211, 0.28817570974158, 0
582, 0.47356159064412, 0.27754126637411, 0
583, 0.46942254936615, 0.28787778632826, 0
584, 0.52605325147048, 0.27803245938097, 0
585, 0.45556096966267, 0.27334270485945, 0
586, 0.44719775199185, 0.26699889421267, 0
587, 0.44001156312325, 0.27719196065582, 0
588, 0.4925825043227, 0.28522518172004, 0
589, 0.45044450799795, 0.26725875556685, 0
590, 0.38449506829461, 0.24854578597264, 0
591, 0.37777929439763, 0.27255398307508, 0
592, 0.39983680081513, 0.24933699091476, 0
593, 0.41024061075278, 0.2631324552603, 0
594, 0.39668121166255, 0.26060510215316, 0
595, 0.39044086477511, 0.27836688925842, 0
596, 0.41757279229712, 0.29099423550616, 0
597, 0.351853248445, 0.24397310849408, 0
598, 0.38581816691601, 0.2531848117611, 0
599, 0.3603704353897, 0.26357193146096, 0
600, 0.38643889869858, 0.27116869748844, 0
601, 0.30786604129507, 0.15439780052959, 0
602, 0.31702238983044, 0.20450368558428, 0
603, 0.3092339897567, 0.20029107789921, 0
604, 0.31411747388895, 0.16979618541558, 0
605, 0.28787267728834, 0.17227979086382, 0
606, 0.31868855952384, 0.21258974210806, 0
607, 0.33078151596821, 0.20695047056698, 0
608, 0.33692957892076, 0.21389498358329, 0
609, 0.32481151551017, 0.2223689113707, 0
610, 0.34378058207157, 0.22038411927967, 0
611, 0.32549051767576, 0.20000344281736, 0
612, 0.30913718627333, 0.17390536826962, 0
613, 0.30817275200958, 0.16983829749933, 0
614, 0.31034973797744, 0.17802454512149, 0
615, 0.29786882107252, 0.20194567464284, 0
616, 0.29713819532712, 0.15654745271257, 0
617, 0.28230897442318, 0.10553485790643, 0
618, 0.30802682668486, 0.16612719087993, 0
619, 0.2651168842312, 0.15496429951513, 0
620, 0.28845136561197, 0.10559852486093, 0
621, 0.28475527549253, 0.1240261011263, 0
622, 0.28691601296319, 0.17941328204174, 0
623, 0.29905874408131, 0.14058328825563, 0
624, 0.28833760349822, 0.18729691551845, 0
625, 0.25240433541026, 0.10255690744487, 0
626, 0.21438844329231, 0.11984254730851, 0
627, 0.23059966143513, 0.15137115224587, 0
628, 0.27935482422136, 0.10982014910565, 0
629, 0.28090826030985, 0.11223904134809, 0
630, 0.20509783403911, 0.10456855859538, 0
631, 0.27796532193697, 0.059867728129291, 0
632, 0.28411075095329, 0.14474712688267, 0
633, 0.23866498804368, 0.14160961954733, 0
634, 0.26482471682785, 0.13171763549203, 0
635, 0.27797859371915, 0.089709990879343, 0
636, 0.29589378388959, -0.017314768598179, 0
637, 0.27848198988002, 0.063318115023591, 0
638, 0.27828833533214, 0.069875289627461, 0
639, 0.27403628156363, 0.068346779149146, 0
640, 0.26809061092194, 0.06202019904232, 0
641, 0.25443993807098, 0.048486457863788, 0
642, 0.21380202124569, 0.084218748905827, 0
643, 0.27461364608446, -0.035701497908383, 0
644, 0.2771263029533, 0.07716245032791, 0
645, 0.25777589029281, -0.033918792375456, 0
646, 0.28431391669235, -0.044767099889938, 0
647, 0.1776804820908, 0.0051341909251481, 0
648, 0.20946380030804, 0.011898613138848, 0
649, 0.28107587420081, 0.10185358787142, 0
650, 0.29009881407891, 0.11289319270786, 0
651, 0.19957912895256, 0.16904325419507, 0
652, 0.26573659453156, 0.057858518025575, 0
653, 0.27701056622463, 0.10637331695523, 0
654, 0.29702450288868, 0.13669860956534, 0
655, 0.28686869446393, 0.13324323641076, 0
656, 0.15750312634203, 0.0042015502413709, 0
657, 0.22646764125889, 0.031634429594798, 0
658, 0.24859039251921, -0.048212955171928, 0
659, 0.25029713953565, 0.058523656652966, 0
660, 0.24921707961741, 0.094786639315519, 0
661, 0.28355698210051, 0.06034375739884, 0
662, 0.28445262771936, 0.086521495318842, 0
663, 0.25597218536414, 0.087468924639661, 0
664, 0.29012529002944, 0.003059444692252, 0
665, 0.27461031361028, 0.014375767428204, 0
666, 0.25264341189482, 0.018439885139415, 0
667, 0.14931960213836, 0.029328650754822, 0
668, 0.28303164946459, -0.030568269819507, 0
669, 0.13488322453227, 0.0053502123608353, 0
670, 0.277315129071, 0.030708922988083, 0
671, 0.12663746039772, 0.058587436491563, 0
672, 0.17802946326705, 0.12117497593367, 0
673, 0.08911735911039, 0.12611790975305, 0
674, 0.085494552761488, 0.067612913871247, 0
675, 0.0888681930357, 0.012258587215491, 0
676, 0.16790654941149, -0.20433114542343, 0
677, 0.22930020887912, -0.2076955514279, 0
678, 0.28607449501039, -0.21319187832015, 0
679, 0.2541185895878, -0.025190495246996, 0
680, 0.30875768243589, -0.039056500636428, 0
681, 0.10956312426279, -0.20060458485124, 0
682, 0.10984539220748, -0.14988603400973, 0
683, 0.1713995605451, -0.15567231294709, 0
684, 0.099322236080455, -0.043189164431458, 0
685, 0.10749744018321, -0.09772500548123, 0
686, 0.30801174799238, -0.15787309178826, 0
687, 0.32057234088925, -0.056209448651691, 0
688, 0.27127900066053, -0.059964946965909, 0
689, 0.27001748070066, 0.0059357180834545, 0
690, 0.27760224628199, 0.0093110836199184, 0
691, 0.28879243849584, 0.010886463276427, 0
692, 0.17437696260339, -0.053499895566258, 0
693, 0.27852851925171, 0.012887584369506, 0
694, 0.31288296370516, -0.056819789703376, 0
695, 0.20184337417718, -0.18184990593856, 0
696, 0.41509715863825, -0.1541037744134, 0
697, 0.42945361086378, -0.22478807353503, 0
698, 0.45769588600852, -0.15969472862068, 0
699, 0.46260876731137, -0.15974107872901, 0
700, 0.50223941415647, -0.16060232205241, 0
701, 0.33124408956208, -0.2558727126336, 0
702, 0.33492728236577, -0.23364879826662, 0
703, 0.42845090391502, -0.15287395780648, 0
704, 0.38352037036429, -0.25677384546996, 0
705, 0.34084871292671, -0.16336803994717, 0
706, 0.3928410837275, -0.14885519614559, 0
707, 0.23592856310918, -0.11363786824814, 0
708, 0.36453208366384, -0.10631220406158, 0
709, 0.33892096696014, -0.12419114928056, 0
710, 0.34902303654473, -0.11770826640202, 0
711, 0.40415434495189, -0.14342768814698, 0
712, 0.39673428110102, -0.14177889144365, 0
713, 0.36584830279894, -0.123135664628, 0
714, 0.36092896429462, -0.14091909474909, 0
715, 0.33612887025779, -0.21287560496362, 0
716, 0.38776075750916, -0.15792705797619, 0
717, 0.43504603987321, -0.19621627968271, 0
718, 0.41096544767579, -0.15068841610694, 0
719, 0.39500037915, -0.12595269600273, 0
720, 0.3995706286556, -0.13621948981991, 0
721, 0.39537596255041, -0.15459539269162, 0
722, 0.40004980554704, -0.13007753642812, 0
723, 0.45273044802614, -0.15930913920301, 0
724, 0.43593784973298, -0.14762172470665, 0
725, 0.40965868587557, -0.16001809178634, 0
726, 0.44688415226911, -0.16668284921143, 0
727, 0.45305174368414, -0.15188414057081, 0
728, 0.40857712002536, -0.17128879587207, 0
729, 0.40116879605235, -0.12827434507602, 0
730, 0.42398903607717, -0.15072093718305, 0
731, 0.52001405931959, -0.21111344321178, 0
732, 0.49300991456686, -0.15335167841219, 0
733, 0.3989246705901, -0.14632853897008, 0
734, 0.49761461902538, -0.18030610650469, 0
735, 0.45840186314252, -0.16723349330711, 0
736, 0.50461285589782, -0.15534513229796, 0
737, 0.48765568889739, -0.15126966575102, 0
738, 0.44421379893669, -0.21054846633616, 0
739, 0.49487040429356, -0.16371076368787, 0
740, 0.50939951871698, -0.16887174286475, 0
741, 0.47761460500095, -0.17015971211076, 0
742, 0.4843502731378, -0.15588112822281, 0
743, 0.45738701124319, -0.15253383724442, 0
744, 0.51325063329464, -0.17750088366943, 0
745, 0.41966297275269, -0.15724623789891, 0
746, 0.4743627076413, -0.15337745216785, 0
747, 0.31619547564784, -0.10331644175656, 0
748, 0.32899980994661, -0.11909414524406, 0
749, 0.22708535050494, -0.032057307301845, 0
750, 0.35488526348466, -0.10831261751258, 0
751, 0.36609457831767, -0.13279141519922, 0
752, 0.36995907800223, -0.14330060032324, 0
753, 0.351274226507, -0.10731777491008, 0
754, 0.34493371248478, -0.11082989012847, 0
755, 0.34026152509902, -0.10868592953247, 0
756, 0.33149253158284, -0.10390834589105, 0
757, 0.33943158170705, -0.093783894895369, 0
758, 0.31364685978382, -0.045065446613278, 0
759, 0.35653191020747, -0.10504467001854, 0
760, 0.34644778515189, -0.098980547119874, 0
761, 0.30428743901713, -0.054952565534475, 0
762, 0.32968799398228, -0.084103364971424, 0
763, 0.29366341117627, -0.11059948552648, 0
764, 0.3159784253441, -0.047713145452435, 0
765, 0.30423709999969, -0.085350697411643, 0
766, 0.32438689796668, -0.076519054822096, 0
767, 0.31629814756714, -0.053599743887862, 0
768, 0.29855225570606, -0.096386315651474, 0
769, 0.31628307102308, -0.074719573779285, 0
770, 0.20484439506621, -0.15771303965343, 0
771, 0.30111079657074, -0.11924832299568, 0
772, 0.31885921068293, -0.064454340712432, 0
773, 0.31762280686554, -0.092861310164997, 0
774, 0.33008315508625, -0.073619200667344, 0
775, 0.27042151804081, -0.03011779787374, 0
776, 0.30842767251038, -0.046018164708043, 0
777, 0.3087202843984, -0.056164494740286, 0
778, 0.23841076973588, 0.0090358536214518, 0
779, 0.30964120326929, -0.11068957230708, 0
780, 0.33510633201797, -0.080245434573571, 0
781, 0.29015932443426, -0.03896291999792, 0
782, 0.28819193741425, -0.064615183696286, 0
783, 0.25351586984668, -0.017151049253213, 0
784, 0.26455359428781, -0.041513122372829, 0
785, 0.26763088037813, -0.023668982673663, 0
786, 0.31322144493072, -0.053150103081598, 0
787, 0.31141134156438, -0.048312231563214, 0
788, 0.7304975929959, 0.11835460891164, 0
789, 0.68010432500075, 0.2089915368098, 0
790, 0.79678586222102, 0.21097524083045, 0
791, 0.72808664199154, 0.13735837901297, 0
792, 0.77135257914478, 0.080362196274251, 0
793, 0.84731565690243, 0.20103545430642, 0
794, 0.89862537855025, 0.19662187577722, 0
795, 0.72555730634424, 0.1677805485196, 0
796, 0.65244568470986, 0.21105355154311, 0
797, 0.65328851192687, 0.21649926447935, 0
798, 0.63560458067452, 0.23312945078211, 0
799, 0.64425281204851, 0.23903440633275, 0
800, 0.6296529784454, 0.23797950419472, 0
801, 0.64205883354298, 0.2283133559037, 0
802, 0.64825317725776, 0.22257445299636, 0
803, 0.65684313250496, 0.22941011692346, 0
804, 0.62625417950613, 0.26939969617744, 0
805, 0.67131652449869, 0.24188854065577, 0
806, 0.61009886975949, 0.27657934444719, 0
807, 0.64546687676873, 0.23226929708823, 0
808, 0.61583078588723, 0.24919652367861, 0
809, 0.62335908395027, 0.24360238489421, 0
810, 0.63540283928445, 0.2386246069548, 0
811, 0.4893780194158, 0.27261728828729, 0
812, 0.5164548416076, 0.27849101102518, 0
813, 0.49436493806979, 0.27321092118797, 0
814, 0.53073869600235, 0.27749163624843, 0
815, 0.54837703208894, 0.27297251707177, 0
816, 0.63155944952333, 0.25222876841007, 0
817, 0.5634650379777, 0.26843716267535, 0
818, 0.56893701357579, 0.2649814532496, 0
819, 0.6036329638944, 0.26904327344872, 0
820, 0.58965472040877, 0.26302784007367, 0
821, 0.58393593700686, 0.26177772657819, 0
822, 0.59025009366728, 0.25429016617412, 0
823, 0.57336125295964, 0.26389923994267, 0
824, 0.59843825578212, 0.25708475487138, 0
825, 0.59244177958921, 0.26881924951268, 0
826, 0.57262832077233, 0.26050526073949, 0
827, 0.68226337031954, 0.19646570198564, 0
828, 0.70198152886067, 0.20694252214325, 0
829, 0.68862330188983, 0.17386719006894, 0
830, 0.67168263097949, 0.22014022802865, 0
831, 0.7518876825983, 0.19483392289888, 0
832, 0.67300602224667, 0.22893727958911, 0
833, 0.71940799493307, 0.16455886594543, 0
834, 0.72341329140573, 0.26620370808327, 0
835, 0.65759608780436, 0.21605575960154, 0
836, 0.68645544495216, 0.21647971873029, 0
837, 0.66130318964916, 0.20362048375325, 0
838, 0.73593149721316, 0.18966154746666, 0
839, 0.73622097932595, 0.20095752174918, 0
840, 0.69330121649889, 0.22599977108412, 0
841, 0.71136661671139, 0.095515846577484, 0
842, 0.74774834624979, 0.11574760577525, 0
843, 0.70489803037562, 0.11259716919159, 0
844, 0.7294302285634, 0.033477705202732, 0
845, 0.71992603251826, 0.13448132721252, 0
846, 0.75402168317111, 0.15412405207806, 0
847, 0.73553683160979, 0.094763111748422, 0
848, 0.70441055016791, 0.13545739214511, 0
849, 0.79622938753556, 0.1281662334811, 0
850, 0.74157575604057, 0.15923569569833, 0
851, 0.7364568595663, 0.11422481506663, 0
852, 0.74215270033429, 0.065472999632747, 0
853, 0.71465394398544, 0.0070801510241514, 0
854, 0.76114260179012, -0.0012145520139792, 0
855, 0.73737297538107, 0.10419737219661, 0
856, 0.71883398638906, 0.14874716780002, 0
857, 0.80201905171377, 0.077575143952364, 0
858, 0.71196385800175, 0.10560376220661, 0
859, 0.70365659408339, 0.13924324874804, 0
860, 0.75571039881742, 0.047328493393638, 0
861, 0.71961848693624, 0.099616086666837, 0
862, 0.75169547393424, 0.084264426482284, 0
863, 0.72169196458564, 0.053444834307333, 0
864, 0.71635250875576, 0.052093578600353, 0
865, 0.77857774901101, 0.042804168370164, 0
866, 0.71806653554663, 0.042540638483615, 0
867, 0.71517131060511, 0.01557784681707, 0
868, 0.72455825409675, 0.042259691430206, 0
869, 0.83338778007973, 0.089979809184973, 0
870, 0.79048690453665, 0.057832996947379, 0
871, 0.80554087008622, 0.10322869690336, 0
872, 0.89889049089234, 0.14225890722906, 0
873, 0.89980229574767, 0.086341536074288, 0
874, 0.90687464681738, 0.028536964899993, 0
875, 0.92513302602259, -0.088629759717354, 0
876, 0.91835553605249, -0.032434779878251, 0
877, 0.69977515479404, -0.06975687917152, 0
878, 0.85367509332632, -0.095383822934305, 0
879, 0.8883538613514, -0.091898966563272, 0
880, 0.82009356932008, -0.096665935541723, 0
881, 0.67178431757394, -0.098507624761035, 0
882, 0.78390178326892, 0.031431219039378, 0
883, 0.81042635938255, -0.044768546983238, 0
884, 0.74036402510491, 0.031781995438668, 0
885, 0.73306276156823, 0.080182067388318, 0
886, 0.84452407921352, -0.050420183590759, 0
887, 0.76044196482588, -0.030513682240517, 0
888, 0.75456191200521, -0.024574452976675, 0
889, 0.75958781956003, 0.063402990038511, 0
890, 0.8036856400472, 0.0014905106315148, 0
891, 0.75596825096084, -0.019486300150787, 0
892, 0.73192312733167, 0.10045494743741, 0
893, 0.71206321900159, 0.13697923009797, 0
894, 0.83005893640895, -0.056317901454769, 0
895, 0.72479351161239, -0.012213688665432, 0
896, 0.72585447767284, -0.0025849713052509, 0
897, 0.71023786025907, 0.099558346152137, 0
898, 0.71496848357623, 0.011344690076757, 0
899, 0.75299296829364, -0.029728361588181, 0
900, 0.77200294601616, -0.0047349804867556, 0
901, 0.76267180297445, -0.022769818457716, 0
902, 0.71975742381493, -0.030642786342877, 0
903, 0.72274933004087, -0.021601166034274, 0
904, 0.71584578897282, -0.039249189671116, 0
905, 0.70752120495183, -0.056355486597753, 0
906, 0.71167214214244, -0.047650244751651, 0
907, 0.73270511554555, -0.04731084781617, 0
908, 0.72723022308474, -0.063535358060722, 0
909, 0.72488061573887, -0.053163351767151, 0
910, 0.75261180025381, -0.061835720949556, 0
911, 0.63176261835944, -0.12937703236315, 0
912, 0.77258421982903, -0.077950775840576, 0
913, 0.62933493361627, -0.11882024032509, 0
914, 0.63943321577286, -0.10959944971054, 0
915, 0.60984343950363, -0.16789870529642, 0
916, 0.70648417602821, -0.18122144719077, 0
917, 0.68685872850296, -0.079820099043129, 0
918, 0.63326440842017, -0.10824177188529, 0
919, 0.76971623640068, -0.035421501150941, 0
920, 0.62785912954862, -0.12429379975283, 0
921, 0.66402858125283, -0.10784380611848, 0
922, 0.61324067608314, -0.13443163485584, 0
923, 0.7256297268106, -0.08664390757693, 0
924, 0.66663755170759, -0.092157076694943, 0
925, 0.68783069911124, -0.061104056958648, 0
926, 0.62116033642531, -0.1610543738407, 0
927, 0.65506301001293, -0.12582544291759, 0
928, 0.74018221173335, -0.072832316197761, 0
929, 0.76211989305222, -0.1345841368817, 0
930, 0.69130738925159, -0.14089918522292, 0
931, 0.61919754884078, -0.11953911636855, 0
932, 0.59875074732181, -0.14493022938646, 0
933, 0.698560867754, -0.13032505390364, 0
934, 0.55612992237769, -0.15856936584839, 0
935, 0.54761799366644, -0.16015504350284, 0
936, 0.53893376430748, -0.1615712666772, 0
937, 0.62647247619566, -0.12780751049444, 0
938, 0.66175174707298, -0.18406009401159, 0
939, 0.62229794209191, -0.13526035305983, 0
940, 0.62746292365845, -0.11716328153407, 0
941, 0.60050460154027, -0.13389193549646, 0
942, 0.65221472836933, -0.12023223445197, 0
943, 0.64279660994523, -0.14158185085538, 0
944, 0.59983125753657, -0.1631995557411, 0
945, 0.64747150889727, -0.15724791178259, 0
946, 0.59050924864873, -0.14893356742175, 0
947, 0.58198462599429, -0.15217281321804, 0
948, 0.58976062421941, -0.166828591539, 0
949, 0.56467745005332, -0.15681282132076, 0
950, 0.57332079650754, -0.15473220046712, 0
951, 0.56952642073677, -0.17127520002594, 0
952, 0.59546665998412, -0.1777575992661, 0
953, 0.57956287901166, -0.16945991184615, 0
954, 0.60711204942027, -0.17702416609517, 0
955, 0.61276667399674, -0.19455720739957, 0
956, 0.58286860633731, -0.19033830440359, 0
957, 0.55112450114887, -0.17342509942914, 0
958, 0.55954906527057, -0.17178793976707, 0
959, 0.54187074636247, -0.17588226826697, 0
960, 0.52995001210546, -0.16259177155253, 0
961, 0.53165662871725, -0.17780387553932, 0
962, 0.56730373448639, -0.2084201919666, 0
963, 0.55806279857557, -0.18311851008675, 0
964, 0.54456324103247, -0.19609511650014, 0
965, 0.47205795160106, -0.17246286811707, 0
966, 0.51990372103619, -0.19833467049699, 0
967, 0.46768605725445, -0.20748664164643, 0
968, 0.50872533171814, -0.15569935731059, 0
969, 0.48538830981393, -0.15210573755378, 0
970, 0.51469433800961, -0.16982693949291, 0
971, 0.52061832204612, -0.22527386692539, 0
972, 0.50083239060297, -0.19246362086866, 0
973, 0.54545138166098, -0.22718828043959, 0
974, 0.57352346322245, -0.22892218438853, 0
975, 0.58922905176502, -0.25889718730025, 0
976, 0.61915282968186, -0.21493812976246, 0
977, 0.57882517403509, -0.24248220020174, 0
978, 0.72296751959091, -0.14172702919245, 0
979, 0.64538647352698, -0.098295632969169, 0
980, 0.66850755651363, -0.085984673969035, 0
981, 0.62860948039502, -0.20204547013975, 0
982, 0.64816520134928, -0.095513119058711, 0
983, 0.63346544622344, -0.1461234746128, 0
984, 0.68546042223191, -0.13068714647408, 0
985, 0.74721097172049, -0.21577243490029, 0
986, 0.6235834722599, -0.12230594156259, 0
987, 0.65782643004769, -0.098276614666598, 0
988, 0.6105099374327, -0.12702420943653, 0
989, 0.70532580072748, -0.060875965685296, 0
990, 0.73869491817103, -0.19833512579833, 0
991, 0.62870389101449, -0.13834200017286, 0
992, 0.65552416653609, -0.10169273617189, 0
993, 0.80343960938145, -0.079489090580195, 0
994, 0.66816025294513, -0.078192306263843, 0
995, 0.80678542987955, -0.20820521519719, 0
996, 0.73408971794977, -0.1160473471882, 0
997, 0.61943740071437, -0.13890328005293, 0
998, 0.64818156097444, -0.23651828460689, 0
999, 0.9253674496853, -0.14169154127184, 0
1000, 0.88748790616795, -0.14176885271576, 0
1001, 0.85106841366712, -0.14030240986098, 0
1002, 0.81567212202647, -0.13532371726953, 0
1003, 0.80090091791725, -0.17767108117895, 0
1004, 0.83849330873996, -0.1872452157547, 0
1005, 0.87873627648822, -0.19186965638159, 0
1006, 0.78678458160485, -0.23823335807859, 0
1007, 0.91934594800132, -0.19369013127869, 0
1008, 0.63444959086656, 0.24766158916812, 0
1009, 0.64039680967022, 0.24034778406407, 0
1010, 0.48259971454068, -0.16750565887143, 0
1011, 0.48036522091894, -0.18699602926344, 0
1012, 0.27696697952126, -0.16808568922891, 0
1013, 0.31097379130195, -0.12620362837839, 0
1014, 0.63294427687181, -0.11366744167044, 0
1015, 0.68502632006526, -0.17634450298883, 0
1016, 0.68163985276988, -0.067638302668091, 0
1017, 0.38780093140803, 0.25803830665998, 0
1018, 0.34830925613791, 0.2793974411319, 0
1019, 0.40528866319572, 0.27814511033844, 0
1020, 0.28332520513253, 0.24545245617205, 0
1021, 0.44954165602278, 0.27397991220442, 0
1022, 0.43952377616328, 0.26617669829896, 0
1023, 0.44116908859334, 0.28420385728754, 0
1024, 0.53479359600363, 0.28772420937409, 0
1025, 0.53534461344541, 0.27674502140745, 0
1026, 0.57459055769414, -0.17039525600165, 0
1027, 0.58217606730468, -0.17695747748332, 0
1028, 0.57199814494299, -0.17864969712198, 0
1029, 0.53692242245699, -0.17675435853872, 0
1030, 0.54380669923553, -0.18299096813835, 0
1031, 0.53415610329485, -0.18599243537766, 0
1032, 0.70947092740871, 0.17090307178987, 0
1033, 0.74137382519249, 0.081449999323442, 0
1034, 0.71538586658341, 0.21200659311366, 0
1035, 0.52352745496154, -0.24014180091423, 0
1036, 0.53313195127909, -0.22528378007145, 0
1037, 0.54416136142954, -0.24088257768001, 0
1038, 0.7044080572883, 0.18577468418191, 0
1039, 0.70056097120296, 0.23794676226093, 0
1040, 0.59449563385377, -0.23646527402649, 0
1041, 0.60860419665293, -0.21623823796583, 0
1042, 0.59855378111719, -0.22024315897308, 0
1043, 0.27984542607395, 0.13935922844532, 0
1044, 0.15129767245568, 0.10629793690845, 0
1045, 0.23300495336759, 0.19902526396516, 0
1046, 0.17261264600261, 0.1767852209056, 0
1047, 0.30975995596471, 0.15726454608846, 0
1048, 0.44917630393854, 0.28323222085216, 0
1049, 0.44538181314528, 0.2762565170041, 0
1050, 0.31039175249867, 0.26775582429145, 0
1051, 0.37531860279729, 0.24112862547068, 0
1052, 0.38732976529888, 0.24117443325978, 0
1053, 0.40590846683714, 0.26044179289403, 0
1054, 0.42689273992125, 0.26311684052513, 0
1055, 0.61652811205232, -0.20483603019907, 0
1056, 0.6387091582183, -0.11557615840031, 0
1057, 0.64713302128155, -0.20917033689579, 0
1058, 0.17060637255153, 0.20273497760592, 0
1059, 0.16293516575246, 0.13453005767797, 0
1060, 0.55561840451007, 0.26883632541077, 0
1061, 0.48689255352421, 0.28696374495412, 0
1062, 0.25143855032115, -0.066110272388623, 0
1063, 0.1459793366645, 0.15505664189881, 0
1064, 0.79824742610179, 0.044271964507033, 0
1065, 0.74952262765874, -0.04170275161279, 0
1066, 0.77817156934794, -0.018012509580982, 0
1067, 0.41035306595909, 0.2561449224998, 0
1068, 0.38309807993109, 0.28965439769363, 0
1069, 0.34400125369231, 0.25810058288282, 0
1070, 0.73325319298096, 0.042150684911508, 0
1071, 0.45289548852346, -0.17591959817418, 0
1072, 0.45455003405495, -0.19670184498208, 0
1073, 0.49298141224464, -0.18740408963301, 0
1074, 0.39049815020949, -0.23518303508728, 0
1075, 0.40539420291838, -0.15557944381232, 0
1076, 0.37771661553866, -0.15213399589774, 0
1077, 0.34659023557141, 0.23173428290845, 0
1078, 0.65843625324972, 0.21197516093375, 0
1079, 0.68780369594664, 0.25536449884252, 0
1080, 0.7202943286356, 0.17221831532591, 0
1081, 0.5099384283828, -0.19622385223611, 0
1082, 0.46170821368033, -0.15300977915308, 0
1083, 0.58359438452382, 0.25944787530292, 0
1084, 0.58791675463132, 0.26748887418618, 0
1085, 0.60357615305312, 0.26196284904491, 0
1086, 0.70229462230317, -0.11746041732481, 0
1087, 0.80390489849315, -0.095957638209081, 0
1088, 0.35505065320937, -0.17685672619672, 0
1089, 0.35982013017448, -0.20779129131925, 0
1090, 0.49415987360229, 0.27832034793255, 0
1091, 0.47952215786816, 0.28253375003108, 0
1092, 0.64720733543256, -0.12274023328107, 0
1093, 0.72031202712811, -0.10555696991219, 0
1094, 0.66489945781421, -0.080520341713022, 0
1095, 0.75620181568998, -0.17902965285074, 0
1096, 0.6959328237689, -0.073721001871313, 0
1097, 0.14629376377406, 0.054601786864824, 0
1098, 0.23589791278854, 0.043682730936693, 0
1099, 0.27594943724808, 0.039154341722475, 0
1100, 0.71324957848328, 0.1626815242222, 0
1101, 0.70638703640705, 0.18045768744468, 0
1102, 0.70493972211905, 0.16231609868372, 0
1103, 0.35741503063754, 0.24682690859143, 0
1104, 0.39659970061064, 0.28710502023726, 0
1105, 0.35645333683514, -0.19126158899659, 0
1106, 0.48948209491193, 0.29289641981502, 0
1107, 0.47020544347866, 0.29385610422013, 0
1108, 0.52904766351941, 0.28835193300471, 0
1109, 0.77308186871563, 0.20012393758669, 0
1110, 0.77336449564148, 0.22074613119601, 0
1111, 0.66045111463868, 0.21967712384347, 0
1112, 0.71648050269308, 0.16848284094504, 0
1113, 0.66548332668386, 0.20807389171952, 0
1114, 0.82139745089399, 0.14919965515318, 0
1115, 0.72617814491807, 0.12696056975699, 0
1116, 0.74223596885552, 0.098631638352243, 0
1117, 0.29311733463589, 0.15335926884028, 0
1118, 0.2747423457781, 0.15975375237504, 0
1119, 0.27998962994235, -0.0258533296861, 0
1120, 0.30859329296141, -0.07127595105751, 0
1121, 0.31796275339966, -0.050109828544803, 0
1122, 0.35477484043339, 0.22929608162, 0
1123, 0.32967875593966, 0.26247858654396, 0
1124, 0.70406288338888, 0.25284764869495, 0
1125, 0.27633078081172, 0.034800394704935, 0
1126, 0.23564978937388, -0.18345417968632, 0
1127, 0.25898864423176, -0.11053726114882, 0
1128, 0.35863648026161, 0.2239080627461, 0
1129, 0.67002346351947, -0.15531758074928, 0
1130, 0.68395283552312, -0.10329228189143, 0
1131, 0.33805264910645, 0.23338131852538, 0
1132, 0.32928010727723, 0.2360469095719, 0
1133, 0.33693753071975, 0.2420242237414, 0
1134, 0.55527679500951, -0.17227757037621, 0
1135, 0.56005186403961, -0.17751887527033, 0
1136, 0.55340040790616, -0.17885788944006, 0
1137, 0.45604386072072, -0.20990658701285, 0
1138, 0.48687541905709, -0.19501057655834, 0
1139, 0.48748854364914, -0.15429265386329, 0
1140, 0.41992643986928, -0.14082201102761, 0
1141, 0.39035987474181, -0.13798961544507, 0
1142, 0.39883593506047, -0.16036757266612, 0
1143, 0.29657964662393, 0.1679120733843, 0
1144, 0.28312881101784, 0.16343041893262, 0
1145, 0.31724512109465, 0.18982503566684, 0
1146, 0.33675795893927, -0.11405817777913, 0
1147, 0.32842015764761, -0.11009573004933, 0
1148, 0.33591278985742, -0.10621810496109, 0
1149, 0.72172957842451, 0.094926476549031, 0
1150, 0.68978681098546, -0.20813703430188, 0
1151, 0.59997105314456, -0.15420442299151, 0
1152, 0.65666837891351, -0.10867876153718, 0
1153, 0.38770562352282, -0.12286126446606, 0
1154, 0.4330912270196, -0.15476835489752, 0
1155, 0.4164318399898, -0.19027878314375, 0
1156, 0.28437646094635, 0.11974736221153, 0
1157, 0.2604417949921, -0.081861380919933, 0
1158, 0.28615769097351, -0.072673299687404, 0
1159, 0.28145589472397, 0.019795929175514, 0
1160, 0.31767570270771, -0.060526776847588, 0
1161, 0.24045542942725, 0.022600406944011, 0
1162, 0.79319533223319, -0.019072205714122, 0
1163, 0.77152121984952, -0.044138911091265, 0
1164, 0.4959463142944, -0.17098935440868, 0
1165, 0.46139039028147, -0.18447992790551, 0
1166, 0.72017736681655, 0.13904904461796, 0
1167, 0.71117640513813, 0.12131046313636, 0
1168, 0.74707867504538, 0.09199008107314, 0
1169, 0.39452622090831, 0.24460037865222, 0
1170, 0.29536803838518, 0.25898021218553, 0
1171, 0.38368679263757, 0.23964522018453, 0
1172, 0.7192001068923, 0.049352954216288, 0
1173, 0.77811758225388, 0.16683438469282, 0
1174, 0.33271939089563, -0.087603622952568, 0
1175, 0.23750153122751, -0.012850145538321, 0
1176, 0.71026074151205, 0.11802135088927, 0
1177, 0.7110812027899, 0.1452996638813, 0
1178, 0.29112830290137, -0.057391133989222, 0
1179, 0.24226951864196, -0.0052971958870174, 0
1180, 0.41623654474464, -0.1387771909567, 0
1181, 0.42377931722019, -0.1427205254467, 0
1182, 0.30341418244247, 0.14784027792663, 0
1183, 0.19952105874082, 0.087098350369953, 0
1184, 0.61828558365544, 0.28599135553335, 0
1185, 0.64067796728828, 0.24468974723994, 0
1186, 0.26839471488215, 0.042293927155841, 0
1187, 0.27068299369177, 0.027985985437148, 0
1188, 0.73241696448119, 0.10933972027301, 0
1189, 0.75605722674454, 0.097554938794936, 0
1190, 0.71136740931769, 0.048504934281749, 0
1191, 0.51953357371251, -0.17843102172281, 0
1192, 0.51288380084102, -0.15589731634573, 0
1193, 0.7066545339372, -0.14217468684935, 0
1194, 0.630050348643, -0.1513126856686, 0
1195, 0.63187179887883, -0.21323154583749, 0
1196, 0.71313780904771, 0.0432254559541, 0
1197, 0.71378632668648, 0.039702350113775, 0
1198, 0.75037605086824, 0.035461823171315, 0
1199, 0.74755678035221, -0.016868956533519, 0
1200, 0.74960614561328, -0.0054130618390913, 0
1201, 0.72740017181087, 0.11400414152645, 0
1202, 0.69669848043334, 0.19664837206781, 0
1203, 0.71226468511288, 0.12871021253515, 0
1204, 0.78636280736792, -0.026483150055656, 0
1205, 0.77295897894649, -0.024000169923801, 0
1206, 0.72612964661429, 0.0022677071387693, 0
1207, 0.25293928473324, 0.12623255119813, 0
1208, 0.26947236466583, 0.10417519922704, 0
1209, 0.24745670297767, 0.0015308304914581, 0
1210, 0.30221740712233, -0.048033806856032, 0
1211, 0.27323909746595, -0.093972156787328, 0
1212, 0.29143142701743, 0.1204685278709, 0
1213, 0.25800950928481, 0.12009648042876, 0
1214, 0.27247854435526, 0.10846813511252, 0
1215, 0.71178183662058, 0.12496284183268, 0
1216, 0.75985560280738, -0.044117822009286, 0
1217, 0.54591101005305, 0.2853055253118, 0
1218, 0.72813235583993, 0.10546497932511, 0
1219, 0.7112117667499, -0.19692277862344, 0
1220, 0.65858110130296, -0.090474474672616, 0
1221, 0.28456932995725, 0.11594984960309, 0
1222, 0.27262868570856, 0.07153108392448, 0
1223, 0.24291883326352, 0.11832547100139, 0
1224, 0.2459025202539, 0.033541115491625, 0
1225, 0.28405970744667, 0.082638308233682, 0
1226, 0.28371769484367, 0.074999481919043, 0
1227, 0.6457167588121, 0.24439165928817, 0
1228, 0.62709042055227, 0.24800541235003, 0
1229, 0.63273965539499, 0.26246396666178, 0
1230, 0.35003613199021, 0.26994816649127, 0
1231, 0.39853192955377, 0.25443158622084, 0
1232, 0.58463237638985, 0.2829389743011, 0
1233, 0.60557483362423, 0.24808957978865, 0
1234, 0.85071081102818, -0.27182368748887, 0
1235, 0.88556002062644, -0.24552373593887, 0
1236, 0.90153199787244, -0.27300118508861, 0
1237, 0.87621211422417, -0.27248625567062, 0
1238, 0.021400122063302, 0.080494523857634, 0
1239, 0.02220117628234, 0.1363735748236, 0
1240, 0.043323780986111, 0.10451413589608, 0
1241, 0.021746619751302, 0.10837672255397, 0
1242, 0.10679093333715, -0.27531074124606, 0
1243, 0.13556326854324, -0.25149618446031, 0
1244, 0.16151075953238, -0.27621748596228, 0
1245, 0.13407686949943, -0.27574462281522, 0
1246, 0.89490641632521, 0.27470674750423, 0
1247, 0.87051099936063, 0.25040130347174, 0
1248, 0.84162030007481, 0.2764173670385, 0
1249, 0.86816884781218, 0.27542059649654, 0
1250, 0.021777857749531, 0.025285153795949, 0
1251, 0.045358335244976, -0.0067563793606769, 0
1252, 0.023427607111492, -0.02960424724875, 0
1253, 0.022544118180868, -0.0021381763287851, 0
1254, 0.79778641430547, -0.27034570374743, 0
1255, 0.83825517206169, -0.24273772053183, 0
1256, 0.82471995292215, -0.27103897131332, 0
1257, 0.042837472483176, 0.048393915314206, 0
1258, 0.021339135880456, 0.052793889894295, 0
1259, 0.9509034928326, 0.1123799201144, 0
1260, 0.97529840710401, 0.13962856859641, 0
1261, 0.97606874348991, 0.084053664289912, 0
1262, 0.97555842638927, 0.11192309916801, 0
1263, 0.045741672149121, 0.16198872581166, 0
1264, 0.02346925579797, 0.19235983010394, 0
1265, 0.022830175216989, 0.16443996041285, 0
1266, 0.95315226191836, 0.056316149541525, 0
1267, 0.97763389436045, 0.028335991679211, 0
1268, 0.97675525350667, 0.056238201446266, 0
1269, 0.12538776627312, 0.24763288549983, 0
1270, 0.10307530900594, 0.27346288460887, 0
1271, 0.15506687911547, 0.27511101625413, 0
1272, 0.1291256797499, 0.27412279247009, 0
1273, 0.026528565195114, -0.13978955393766, 0
1274, 0.053815029495303, -0.17016455295125, 0
1275, 0.026845230342809, -0.19478863687496, 0
1276, 0.026792895680197, -0.16738682721274, 0
1277, 0.96303685975704, -0.11328606894845, 0
1278, 0.98126768399114, -0.084192916508129, 0
1279, 0.98137810510886, -0.13994265971915, 0
1280, 0.98145749209566, -0.11214181635822, 0
1281, 0.049606283673635, -0.061733275642432, 0
1282, 0.025339251081838, -0.08454980470841, 0
1283, 0.024445722878165, -0.05705804747373, 0
1284, 0.50344840641347, 0.28795274309024, 0
1285, 0.48729680987199, 0.27673546223627, 0
1286, 0.48465895653969, 0.28193839738708, 0
1287, 0.24894359383381, -0.25522813204975, 0
1288, 0.27296822384171, -0.2779716609228, 0
1289, 0.21709246321149, -0.27711301786351, 0
1290, 0.24514907129411, -0.2775523035683, 0
1291, 0.97487395979944, 0.19412525003541, 0
1292, 0.94920364446687, 0.22126921203829, 0
1293, 0.97430587508412, 0.24737813851566, 0
1294, 0.97459945857166, 0.22085882117002, 0
1295, 0.31076003463859, 0.19265687606215, 0
1296, 0.2737455920541, 0.14820687576927, 0
1297, 0.28864274926805, 0.14938930775709, 0
1298, 0.28931574108658, 0.1379985172866, 0
1299, 0.73400036502947, 0.18028619127031, 0
1300, 0.74564948739475, 0.26391046502152, 0
1301, 0.66769661113443, 0.19813225037273, 0
1302, 0.748100698159, 0.24529743844, 0
1303, 0.26381409383012, 0.088400295461824, 0
1304, 0.2771872478083, 0.085381143440969, 0
1305, 0.28383540312349, 0.071312959893417, 0
1306, 0.72930928350177, 0.092002663837172, 0
1307, 0.73347965547574, 0.023506495851551, 0
1308, 0.94781596464188, 0.27391519290707, 0
1309, 0.97394789611674, 0.27372678540103, 0
1310, 0.4834846186546, -0.16096514162762, 0
1311, 0.49608841584812, -0.20326970604985, 0
1312, 0.50425499305594, -0.16753926954525, 0
1313, 0.40125678485733, -0.13199276662011, 0
1314, 0.42774104833733, -0.14450833182643, 0
1315, 0.3945140638881, -0.13328398434191, 0
1316, 0.40635111479462, -0.13222458421284, 0
1317, 0.3048413206695, 0.18371024722347, 0
1318, 0.27768200021971, 0.17914223504034, 0
1319, 0.26925915622979, 0.16768442019525, 0
1320, 0.28080045349922, 0.199438336447, 0
1321, 0.28335777190402, -0.0032430080405719, 0
1322, 0.28248398630405, 0.016539963783759, 0
1323, 0.3934607082219, 0.25657239163886, 0
1324, 0.36682899790457, 0.2370086708689, 0
1325, 0.34670951659135, 0.24063578392897, 0
1326, 0.32407695701604, 0.27341234890576, 0
1327, 0.71398975020974, -0.043512584474694, 0
1328, 0.70003294015157, -0.04257579544311, 0
1329, 0.70385371628863, -0.034810001507072, 0
1330, 0.70186178796571, -0.038675009606046, 0
1331, 0.52004574507075, -0.17037766753523, 0
1332, 0.49797785093198, -0.15937304783976, 0
1333, 0.29842602338392, 0.16314815325015, 0
1334, 0.31303906160074, 0.16631680892244, 0
1335, 0.30247998790796, 0.17387659366253, 0
1336, 0.2350192439404, 0.10852942673161, 0
1337, 0.29334751097674, 0.16074141409118, 0
1338, 0.28500731640265, 0.090411569128937, 0
1339, 0.70984675773549, -0.05202065130032, 0
1340, 0.6957136883741, -0.050199412149567, 0
1341, 0.69783525490665, -0.046374355155563, 0
1342, 0.62166108872127, -0.17187400541677, 0
1343, 0.60998992694699, -0.13735911134334, 0
1344, 0.58562731313202, -0.14147687382686, 0
1345, 0.62392425431067, -0.19215787126932, 0
1346, 0.28501483565429, -0.012441865128272, 0
1347, 0.26174570494444, 0.036096847852084, 0
1348, 0.27587570167259, 0.047737119576822, 0
1349, 0.27005069900543, 0.052021487203159, 0
1350, 0.349890159895, -0.13580263928249, 0
1351, 0.34866304737751, -0.12501995900273, 0
1352, 0.36184677043668, -0.10385914904789, 0
1353, 0.66298599779723, -0.092412942273025, 0
1354, 0.64246810090616, -0.10098352966868, 0
1355, 0.63261018650336, 0.23546743958512, 0
1356, 0.63234477002395, 0.22948251254169, 0
1357, 0.62632440549132, 0.23421783978844, 0
1358, 0.62931222271153, 0.23181861895816, 0
1359, 0.71750590599092, 0.11094501540877, 0
1360, 0.71321279285369, 0.08725529327785, 0
1361, 0.78203370973893, 0.14705701594054, 0
1362, 0.71851627697617, 0.12565967886277, 0
1363, 0.71999094501689, 0.079224159725226, 0
1364, 0.71211266419806, 0.11177510714861, 0
1365, 0.74513076972422, 0.13414110389443, 0
1366, 0.71728929248882, 0.10404160221944, 0
1367, 0.27560756122715, -0.10604347814708, 0
1368, 0.33252043345214, -0.07697859631086, 0
1369, 0.31428598523827, -0.087762891658846, 0
1370, 0.97971853255584, -0.027825471663363, 0
1371, 0.9571527393968, -0.00068629392258091, 0
1372, 0.97862825326586, 0.00029403204025824, 0
1373, 0.48148197165715, 0.27324772602886, 0
1374, 0.49800510016921, 0.28192534133509, 0
1375, 0.34284850143644, -0.096536197385905, 0
1376, 0.34368311428835, -0.089269215892605, 0
1377, 0.34979310115508, -0.09458819159669, 0
1378, 0.34674467231943, -0.091979930798787, 0
1379, 0.48677248155094, -0.17197902810933, 0
1380, 0.44774953384623, -0.15861087115834, 0
1381, 0.66269922943618, -0.096215194394348, 0
1382, 0.70275464905269, -0.065374014990955, 0
1383, 0.64119704864703, -0.14819723284486, 0
1384, 0.64359094106446, -0.13550313377491, 0
1385, 0.61470333621049, -0.1550116248706, 0
1386, 0.61903831059571, -0.18319737991748, 0
1387, 0.65755000652065, -0.1323327674937, 0
1388, 0.62623574646413, -0.14293775119881, 0
1389, 0.65451039657013, -0.16863196075476, 0
1390, 0.65087902627998, -0.092717031972254, 0
1391, 0.34264103445103, -0.11662846912448, 0
1392, 0.37679222329555, -0.11659903198049, 0
1393, 0.36031600481933, -0.12831042756375, 0
1394, 0.34733351804026, 0.22345434175614, 0
1395, 0.35530861832247, 0.22123765325894, 0
1396, 0.34887450566406, 0.21562508530791, 0
1397, 0.35208917048565, 0.21845895458128, 0
1398, 0.71442160668965, 0.078960801389002, 0
1399, 0.72453514190971, 0.12220142631695, 0
1400, 0.76185268619978, 0.12040164573222, 0
1401, 0.96133438793644, -0.057698576533956, 0
1402, 0.98070222092986, -0.056101015321612, 0
1403, 0.28297244476031, 0.013248406903969, 0
1404, 0.28288396610222, 0.0094449295753441, 0
1405, 0.22181080295304, -0.0026409042893332, 0
1406, 0.080479491592845, -0.24964846462307, 0
1407, 0.052868087911367, -0.27447473394025, 0
1408, 0.07971607069305, -0.27487709134183, 0
1409, 0.28094672373376, -0.11818358161866, 0
1410, 0.27921022138868, -0.040707827885755, 0
1411, 0.2667235603143, -0.0047040268359891, 0
1412, 0.71403164180107, -0.15469933281003, 0
1413, 0.66878548550899, -0.11160499978991, 0
1414, 0.67999101926467, -0.1227013481254, 0
1415, 0.62990734815956, -0.11535350216177, 0
1416, 0.49610267329955, 0.29139289547284, 0
1417, 0.40109808279517, -0.17918517135147, 0
1418, 0.40177838379271, -0.15101945946496, 0
1419, 0.43179977055722, -0.14613997796107, 0
1420, 0.7199695783245, 0.14374017203815, 0
1421, 0.71926001259856, 0.083938396422887, 0
1422, 0.30235651226242, 0.16915546232725, 0
1423, 0.2982375250069, 0.15010570227044, 0
1424, 0.31742792723596, 0.17700579220174, 0
1425, 0.56042509146787, -0.15780504218225, 0
1426, 0.55398488870749, -0.15113781499984, 0
1427, 0.56194241915982, -0.14924484800828, 0
1428, 0.5579504515795, -0.15018547573506, 0
1429, 0.27958198636607, 0.015747485910554, 0
1430, 0.30211349117777, -0.040408346599473, 0
1431, 0.28668899114451, 0.021951185897866, 0
1432, 0.32184015328544, -0.097331727847466, 0
1433, 0.30812658479961, -0.065901834753298, 0
1434, 0.67579402758556, -0.092063591577987, 0
1435, 0.73916271425373, -0.27324177562715, 0
1436, 0.76950028446136, -0.27049573316715, 0
1437, 0.73537259263984, 0.12901777044309, 0
1438, 0.75198274221142, 0.12360630769816, 0
1439, 0.70998363336586, 0.10926558544482, 0
1440, 0.78751476536966, 0.11094885546663, 0
1441, 0.29523120851038, 0.14649051223441, 0
1442, 0.20291530923653, 0.128362645052, 0
1443, 0.25627953317453, 0.080796122283453, 0
1444, 0.46740720274786, -0.15952503582337, 0
1445, 0.47835712264785, -0.1531514979015, 0
1446, 0.72807212847317, 0.14291775356688, 0
1447, 0.72383093299434, 0.10231243009071, 0
1448, 0.31449869714282, 0.18608183349547, 0
1449, 0.2955697154356, 0.1792684502523, 0
1450, 0.6325702718975, -0.28316730591737, 0
1451, 0.66264392695593, -0.26621367437555, 0
1452, 0.68190260256914, -0.28191035645191, 0
1453, 0.65684858454853, -0.28308453160226, 0
1454, 0.44277946667021, -0.15765297026944, 0
1455, 0.4410978394102, -0.16574436324061, 0
1456, 0.59398884568239, 0.25305705248859, 0
1457, 0.57638589838792, 0.25909174547603, 0
1458, 0.58626189175361, 0.26245442743008, 0
1459, 0.56079882359758, 0.26432455635419, 0
1460, 0.56454286211459, 0.26518275206791, 0
1461, 0.29448229185571, -0.072725109544689, 0
1462, 0.29817699266978, -0.045433704343041, 0
1463, 0.54421485144507, 0.27452557629888, 0
1464, 0.53984803543513, 0.27576890795813, 0
1465, 0.19203598924805, -0.25326996602851, 0
1466, 0.18923190932497, -0.27665601941127, 0
1467, 0.46423077467711, 0.27623820817228, 0
1468, 0.50662792285743, 0.27771325804825, 0
1469, 0.45008423223694, 0.26973976598676, 0
1470, 0.46479907784538, 0.27153652333917, 0
1471, 0.68579316586005, 0.20565719207025, 0
1472, 0.65094218623708, 0.2194817993525, 0
1473, 0.58633488007189, -0.15073260024476, 0
1474, 0.57781765240233, -0.14449309189654, 0
1475, 0.58170838616445, -0.14299665541355, 0
1476, 0.57770245463768, -0.15359723035354, 0
1477, 0.56989823731459, -0.14705787193026, 0
1478, 0.57384659793946, -0.14579403298566, 0
1479, 0.28942870064048, 0.10928203297423, 0
1480, 0.47920200273534, -0.16290523833544, 0
1481, 0.50670585292453, -0.16156733095652, 0
1482, 0.31111740514537, -0.097947614775324, 0
1483, 0.3116594093731, -0.082348665409852, 0
1484, 0.46883335826419, -0.18241967276379, 0
1485, 0.49939066297989, -0.16577973854712, 0
1486, 0.71811922985592, -0.035052283976847, 0
1487, 0.70718230218701, -0.026848681165246, 0
1488, 0.70547076270177, -0.030833326710352, 0
1489, 0.50057509630064, -0.15484618461715, 0
1490, 0.33593855277797, -0.090859677130265, 0
1491, 0.34074426580417, -0.086386623899315, 0
1492, 0.2812816137902, 0.15352505132843, 0
1493, 0.28758175900229, 0.10192928455051, 0
1494, 0.45221359383481, 0.27136695156976, 0
1495, 0.45353020506676, 0.26828727520496, 0
1496, 0.61653777062971, -0.26529700295766, 0
1497, 0.58214077552748, -0.279936680678, 0
1498, 0.60797313027915, -0.28192878380124, 0
1499, 0.38033588115029, -0.11888409879147, 0
1500, 0.37783808018446, -0.12383962497066, 0
1501, 0.35993850686408, -0.1150860056305, 0
1502, 0.40866715632296, -0.14021997657985, 0
1503, 0.51130579688338, -0.16226568626752, 0
1504, 0.62182630659826, -0.11704058540251, 0
1505, 0.64901141772988, -0.10166633000668, 0
1506, 0.62453390485962, -0.13142646886399, 0
1507, 0.66550481876439, 0.22019399143843, 0
1508, 0.64444067169236, 0.21931140873825, 0
1509, 0.60283495599548, 0.25569023228177, 0
1510, 0.57433977302097, 0.2676648815626, 0
1511, 0.59775095312494, 0.26939459226569, 0
1512, 0.07477053319354, 0.24601530949519, 0
1513, 0.051193520085489, 0.27323992672528, 0
1514, 0.077103789373689, 0.27318899146258, 0
1515, 0.55222468909738, 0.27105427353447, 0
1516, 0.5459553400061, -0.15278748419081, 0
1517, 0.54331999285292, -0.16095816531537, 0
1518, 0.53780969640054, -0.15417879293659, 0
1519, 0.5418910396455, -0.15348785750212, 0
1520, 0.65880626396332, -0.0850548416843, 0
1521, 0.74788478285698, 0.013473159367266, 0
1522, 0.71332348616527, 0.054261098395804, 0
1523, 0.72425018075619, 0.021415193219965, 0
1524, 0.48560908852756, 0.27310488898579, 0
1525, 0.5212908719401, 0.27837321931266, 0
1526, 0.45321091638389, 0.27754263101063, 0
1527, 0.4608090123809, 0.27062066872266, 0
1528, 0.44387952970445, 0.27122000855602, 0
1529, 0.27390371887275, -0.082353321323675, 0
1530, 0.32040917091884, -0.068468662685615, 0
1531, 0.28301948117833, 0.044988849243801, 0
1532, 0.30106379590658, 0.1592838873179, 0
1533, 0.3029313756486, 0.21413854417968, 0
1534, 0.75606017223484, 0.11090072354774, 0
1535, 0.28412888011678, 0.033171181961701, 0
1536, 0.28298289477464, 0.0011692153852292, 0
1537, 0.96161265486652, -0.16754475556883, 0
1538, 0.97996425998411, -0.19454836453986, 0
1539, 0.98084575018525, -0.1673576629675, 0
1540, 0.37104197462209, 0.23919429111726, 0
1541, 0.38902206439061, 0.24868166804141, 0
1542, 0.37129225212158, 0.29033343046293, 0
1543, 0.38538460517567, -0.13250500448802, 0
1544, 0.41480731597329, -0.175969059939, 0
1545, 0.48062489289804, -0.15718348415396, 0
1546, 0.70763944399539, 0.10717162394609, 0
1547, 0.754454618036, 0.028473317053324, 0
1548, 0.71405075598474, 0.058177148149299, 0
1549, 0.74748104726185, 0.053708256721253, 0
1550, 0.28371142231112, 0.078754409028308, 0
1551, 0.31131679487387, 0.16002414368818, 0
1552, 0.52956383901708, -0.15521997727436, 0
1553, 0.52533258146118, -0.16290662826837, 0
1554, 0.52540888662318, -0.1555915536872, 0
1555, 0.33363892771897, 0.21048548103903, 0
1556, 0.34275225328616, 0.20968214723443, 0
1557, 0.3369599944139, 0.20345185969861, 0
1558, 0.33984345625019, 0.20658381268365, 0
1559, 0.42463931423231, -0.15997612528733, 0
1560, 0.55849934301769, 0.26652854215059, 0
1561, 0.35453762827477, -0.11221482434062, 0
1562, 0.35750212148064, -0.10887968244954, 0
1563, 0.72037828575237, 0.074461025375932, 0
1564, 0.72193088527377, 0.046051884154507, 0
1565, 0.951156718823, -0.27361556230011, 0
1566, 0.97732009815891, -0.24771308990088, 0
1567, 0.97561638240885, -0.27387563266332, 0
1568, 0.33549009043797, -0.13488614944291, 0
1569, 0.35836903467664, -0.11151063406523, 0
1570, 0.25262728475618, 0.007485737390631, 0
1571, 0.24849316563532, 0.025479352963585, 0
1572, 0.27802373447243, -0.051647728813955, 0
1573, 0.45971407642003, 0.27501437357255, 0
1574, 0.4394603144745, 0.27136446281203, 0
1575, 0.64898537969246, -0.12820660783692, 0
1576, 0.61627762085709, -0.14255328135321, 0
1577, 0.64240030742318, -0.11356687223023, 0
1578, 0.29597356814508, -0.033649755921662, 0
1579, 0.53448675905974, -0.1621975589169, 0
1580, 0.53369761280435, -0.15472337734459, 0
1581, 0.30408739725644, -0.25641577136525, 0
1582, 0.32778154753614, -0.2779715431754, 0
1583, 0.30053273928514, -0.27812921605294, 0
1584, 0.93175098512071, -0.24685522377428, 0
1585, 0.92646224536163, -0.27335282975755, 0
1586, 0.56903236752055, -0.15590196481027, 0
1587, 0.56589908686284, -0.14814930635393, 0
1588, 0.47824147383318, 0.2776889465489, 0
1589, 0.34022830966264, 0.21722816676349, 0
1590, 0.34576483072201, 0.21269800732906, 0
1591, 0.3586682847273, 0.23203853480608, 0
1592, 0.38783368441962, 0.24489833564429, 0
1593, 0.74841108482915, 0.18256212785178, 0
1594, 0.65816447843907, 0.20615112584147, 0
1595, 0.68735182304563, 0.27018546008534, 0
1596, 0.56871311810171, 0.2616652249094, 0
1597, 0.55108574928785, 0.28326925669756, 0
1598, 0.32573967063565, -0.06668559454943, 0
1599, 0.31409218345505, -0.050129017367808, 0
1600, 0.29017307004339, -0.12894963233724, 0
1601, 0.40941129669201, -0.13443324196869, 0
1602, 0.052704415735634, -0.11628149779691, 0
1603, 0.026046715523758, -0.11218912184911, 0
1604, 0.47697894494184, -0.26143328315122, 0
1605, 0.49693222700597, -0.28028183207697, 0
1606, 0.46060346663343, -0.28082360711982, 0
1607, 0.4786398737881, -0.28062061411926, 0
1608, 0.76140693024311, 0.0060031151748322, 0
1609, 0.47852714434587, -0.20268088372039, 0
1610, 0.32271735150729, 0.19668159718093, 0
1611, 0.33168188327079, 0.19709983747745, 0
1612, 0.32913244178249, 0.19391528208075, 0
1613, 0.3648553001801, 0.24292153494249, 0
1614, 0.42717326633653, 0.28381997884857, 0
1615, 0.7235953629632, -0.095780387283228, 0
1616, 0.72767907438622, -0.070547843233164, 0
1617, 0.61306768720969, 0.24381250091092, 0
1618, 0.61977746236897, 0.24649273337121, 0
1619, 0.62000756275688, 0.23907917497711, 0
1620, 0.61660484081163, 0.24147003699362, 0
1621, 0.40531931840724, 0.26825253054142, 0
1622, 0.39147254830501, 0.245134353607, 0
1623, 0.30009735295987, 0.19132806471797, 0
1624, 0.3043631270847, 0.15645104900506, 0
1625, 0.95007866551864, 0.16747336180954, 0
1626, 0.97509994769859, 0.16700083724675, 0
1627, 0.024835658156616, 0.24693799013771, 0
1628, 0.025577712404461, 0.27355248741622, 0
1629, 0.36889564415102, 0.25109407347408, 0
1630, 0.36545612674409, 0.2289946178537, 0
1631, 0.4378923442224, -0.15633263477552, 0
1632, 0.40154898030867, -0.13977923691014, 0
1633, 0.68152849826588, -0.092676755886228, 0
1634, 0.65038751521627, -0.13451472634619, 0
1635, 0.61165522606272, 0.25172799523289, 0
1636, 0.60936950405969, 0.24601870784092, 0
1637, 0.37611400569191, 0.26527820156642, 0
1638, 0.39066801136779, 0.24227142493144, 0
1639, 0.42263005941963, 0.26166508521225, 0
1640, 0.16809783914985, 0.027827632401795, 0
1641, 0.2702833046616, 0.079503846643405, 0
1642, 0.57734319499988, 0.26230984021592, 0
1643, 0.57990143432995, 0.25763887093178, 0
1644, 0.58961251062208, 0.27515484858999, 0
1645, 0.62665876159711, 0.24075328339865, 0
1646, 0.62322201721193, 0.2366357671886, 0
1647, 0.64533171857774, 0.22558249623445, 0
1648, 0.63843348014272, 0.22462782361925, 0
1649, 0.64147230421133, 0.22202820504633, 0
1650, 0.30977127868008, -0.051979984751035, 0
1651, 0.29443986088199, -0.051081596463978, 0
1652, 0.39691898862287, 0.24693490174877, 0
1653, 0.43469846157237, 0.27099762383629, 0
1654, 0.43538014045605, 0.2653871616509, 0
1655, 0.026635485691853, -0.24816905262295, 0
1656, 0.026376803687111, -0.27416787289726, 0
1657, 0.38209664668721, -0.12589277911925, 0
1658, 0.38399606066817, -0.12097643134849, 0
1659, 0.51073115967357, 0.2886102508724, 0
1660, 0.6608850429987, -0.11267582295138, 0
1661, 0.65329789782212, -0.1123675108184, 0
1662, 0.72011019206764, 0.11416289012628, 0
1663, 0.55190739846463, -0.15945778431166, 0
1664, 0.54997141569462, -0.15195651698205, 0
1665, 0.63874759420704, 0.23079160686332, 0
1666, 0.63534361495922, 0.22708500794549, 0
1667, 0.30202297221641, -0.072160135619045, 0
1668, 0.28563690613601, -0.091315044502599, 0
1669, 0.28511531811981, -0.081662208590425, 0
1670, 0.66688428538445, -0.097252288940761, 0
1671, 0.77246084053684, -0.091277821328281, 0
1672, 0.70331369956914, 0.16638831981052, 0
1673, 0.29788068241398, 0.23834804035784, 0
1674, 0.42846923346031, 0.27663340642571, 0
1675, 0.28383732373922, 0.067648535164231, 0
1676, 0.69947339530339, 0.17494665761128, 0
1677, 0.66587887618154, -0.1025529694745, 0
1678, 0.63639669432066, -0.17324564882745, 0
1679, 0.75016222772044, 0.22698550059072, 0
1680, 0.69688869522273, 0.17945844931145, 0
1681, 0.68334930728067, 0.18142409687283, 0
1682, 0.7137281035652, -0.0015252592932809, 0
1683, 0.71429675305345, 0.035937643058298, 0
1684, 0.61253290730795, -0.14580078730658, 0
1685, 0.25757973783975, -0.0026623279455249, 0
1686, 0.25715553031896, 0.094174213217555, 0
1687, 0.26414527023467, 0.065080972094197, 0
1688, 0.40843271741772, 0.28973188028347, 0
1689, 0.46334242785585, 0.28724668201354, 0
1690, 0.4566590166495, 0.2929744972476, 0
1691, 0.46357597185374, 0.29355686277422, 0
1692, 0.66038862264166, -0.12209652221733, 0
1693, 0.64649000024817, -0.17917583062957, 0
1694, 0.60255117448975, 0.27739074384282, 0
1695, 0.63835998685595, 0.23668371328841, 0
1696, 0.71637636939806, 0.04592373045889, 0
1697, 0.75777132562224, 0.021088926040604, 0
1698, 0.7337605362592, 0.073698677428937, 0
1699, 0.71570204835443, -0.25583924438947, 0
1700, 0.70864578529255, -0.27919250056421, 0
1701, 0.3279516641969, 0.20345111556113, 0
1702, 0.33430292440345, 0.20027728045385, 0
1703, 0.51351911358636, -0.2595682404701, 0
1704, 0.53643773810301, -0.27902415452728, 0
1705, 0.51601833214379, -0.2796866016577, 0
1706, 0.25502134525156, -0.0095372345875435, 0
1707, 0.29316591478453, -0.029833763877414, 0
1708, 0.41840855892899, 0.2600080985903, 0
1709, 0.63702838738359, -0.13527438204958, 0
1710, 0.62293082446073, -0.14724091301193, 0
1711, 0.73635442076441, 0.16696623049085, 0
1712, 0.70083975013161, 0.19132034077908, 0
1713, 0.70991925985051, -0.018625279803232, 0
1714, 0.72158284123132, -0.026212752227905, 0
1715, 0.70850119462168, -0.022749104395676, 0
1716, 0.39316947997912, 0.24816022318035, 0
1717, 0.51155399923427, 0.27831884866606, 0
1718, 0.723340764578, 0.025993771448481, 0
1719, 0.72498272617441, 0.016728101296517, 0
1720, 0.71476025168881, 0.074812453051085, 0
1721, 0.68619044088961, 0.17766996756484, 0
1722, 0.5231768886537, 0.2887039902387, 0
1723, 0.4730497124234, 0.27278163135444, 0
1724, 0.4912767375082, 0.27536853447095, 0
1725, 0.74533748030103, 0.041782979269085, 0
1726, 0.74602309540176, 0.14208603349602, 0
1727, 0.7101533233732, 0.14949800020261, 0
1728, 0.29206930620634, 0.14235562066469, 0
1729, 0.4816062157997, -0.17589628656336, 0
1730, 0.49177164109178, -0.17628244433372, 0
1731, 0.71172804938216, 0.14110770079592, 0
1732, 0.7356491967998, 0.14924991110276, 0
1733, 0.28323063360782, 0.041047294889686, 0
1734, 0.73852243546799, 0.057907474570877, 0
1735, 0.72590901131069, 0.0071310568670777, 0
1736, 0.44145945625511, 0.29208603964323, 0
1737, 0.44916900086963, 0.29213565527095, 0
1738, 0.81882209175691, 0.25471508397673, 0
1739, 0.7897528600326, 0.27931151922142, 0
1740, 0.81537292134767, 0.27773480068195, 0
1741, 0.87168492376944, -0.21775263530688, 0
1742, 0.82821502849727, -0.21265885195609, 0
1743, 0.85874453410075, -0.19010958175179, 0
1744, 0.84995392878358, -0.21570763905101, 0
1745, 0.42348387193899, -0.28033860811965, 0
1746, 0.44220184810495, -0.26171887616825, 0
1747, 0.44240921947945, -0.28072108878449, 0
1748, 0.72561063672891, -0.0074385135518547, 0
1749, 0.71206223354884, -0.010136670868392, 0
1750, 0.71297346246689, -0.0058392582570273, 0
1751, 0.17522462792382, 0.25207345267516, 0
1752, 0.20520910929774, 0.27692582938904, 0
1753, 0.18051834555573, 0.27617730702111, 0
1754, 0.37942948354111, -0.27843974956311, 0
1755, 0.40492887044638, -0.25921040928968, 0
1756, 0.40231858931853, -0.27947771059035, 0
1757, 0.25538986078328, 0.064680561196354, 0
1758, 0.21271260937091, 0.066001028951575, 0
1759, 0.92258778961761, 0.24826873501072, 0
1760, 0.9214152816231, 0.27422729183382, 0
1761, 0.72379441117391, 0.058086907466956, 0
1762, 0.71789906852016, 0.056051794819288, 0
1763, 0.72408459074481, -0.016973886766992, 0
1764, 0.71117369179687, -0.014422303468448, 0
1765, 0.60728081532504, 0.25390063490317, 0
1766, 0.59567684151974, 0.27688452935415, 0
1767, 0.5832418025422, 0.25636973515575, 0
1768, 0.58461070540856, 0.27232800037267, 0
1769, 0.38808565148306, -0.20867885276519, 0
1770, 0.3542839645357, -0.27769949683783, 0
1771, 0.95752593151401, -0.22085187348003, 0
1772, 0.97873555558847, -0.22121443041906, 0
1773, 0.56027475064063, -0.26050525888016, 0
1774, 0.55827878633795, -0.27988586753488, 0
1775, 0.37258764277983, 0.2336779028787, 0
1776, 0.395567988641, 0.25128795972034, 0
1777, 0.36199632838655, 0.22650660644521, 0
1778, 0.048329600707561, 0.21874245566328, 0
1779, 0.02416823324239, 0.21984151092674, 0
1780, 0.92275739010223, -0.061183643933426, 0
1781, 0.90698800711982, -0.090367929066105, 0
1782, 0.88527074006617, -0.066041652057297, 0
1783, 0.8979142242388, -0.034612273026166, 0
1784, 0.90400358943952, -0.063445684855596, 0
1785, 0.06405329080894, 0.071945335272577, 0
1786, 0.086119054178268, 0.039716806506062, 0
1787, 0.066097783551334, 0.016380473044252, 0
1788, 0.064436678004071, 0.044003161433903, 0
1789, 0.39418440366668, 0.26830470795678, 0
1790, 0.36271025389364, 0.23460700799916, 0
1791, 0.92658570654512, 0.08512622509402, 0
1792, 0.89900919041611, 0.11445108935887, 0
1793, 0.92495082265392, 0.14093965978311, 0
1794, 0.9254802471868, 0.113181635812, 0
1795, 0.10421252196878, -0.070880593899748, 0
1796, 0.13011881477514, -0.047614392517684, 0
1797, 0.17377959784001, -0.081884162221318, 0
1798, 0.1388583806526, -0.1022019568811, 0
1799, 0.13626690985356, -0.075707915397509, 0
1800, 0.93906771468861, -0.030834233925502, 0
1801, 0.94391692392241, -0.087171365919909, 0
1802, 0.94186707175327, -0.059301115006898, 0
1803, 0.42978002479262, 0.27019568176163, 0
1804, 0.35223587310935, 0.26137613735688, 0
1805, 0.072411434839286, -0.03883800824188, 0
1806, 0.078612371760928, -0.093405927990229, 0
1807, 0.076060898188887, -0.066222683296894, 0
1808, 0.22174896222976, 0.25501733026691, 0
1809, 0.25299043079296, 0.27629352136147, 0
1810, 0.22904080442307, 0.27708138058202, 0
1811, 0.64341236158432, 0.28414067147774, 0
1812, 0.64964161924649, 0.2709161491895, 0
1813, 0.43410349364238, 0.28430142041271, 0
1814, 0.43372233787506, 0.2920191730491, 0
1815, 0.76939093891442, 0.26118941639828, 0
1816, 0.74191639188721, 0.28222746303415, 0
1817, 0.76534036904575, 0.28087809862463, 0
1818, 0.053763495553261, -0.22288559917111, 0
1819, 0.026812747232931, -0.22162856468012, 0
1820, 0.066635092117828, 0.12974427289826, 0
1821, 0.086346676291358, 0.096142478989084, 0
1822, 0.065056256471698, 0.10054619735544, 0
1823, 0.6695212175457, 0.28552588507464, 0
1824, 0.66065719384169, 0.27180035680795, 0
1825, 0.65608329048187, 0.28527440479809, 0
1826, 0.2244616102751, -0.23117936771123, 0
1827, 0.25896367173061, -0.21053866879467, 0
1828, 0.2811837764987, -0.23428412580431, 0
1829, 0.25340356388246, -0.23285542015505, 0
1830, 0.70128510518119, 0.28446059412873, 0
1831, 0.72061155840147, 0.28336835666205, 0
1832, 0.41491608500544, 0.2654838380615, 0
1833, 0.69420784046024, 0.2124850343281, 0
1834, 0.68455115397905, 0.2851576437229, 0
1835, 0.53053230073092, -0.17017507386065, 0
1836, 0.54025284112728, -0.16892073325592, 0
1837, 0.53548280718197, -0.16953060294172, 0
1838, 0.73646246242058, 0.13553798479077, 0
1839, 0.94411040050039, -0.14120893607786, 0
1840, 0.92615425156261, -0.11543715437323, 0
1841, 0.9444125557554, -0.11431983051264, 0
1842, 0.092954981877945, -0.015451178635328, 0
1843, 0.068939076124933, -0.011150758898407, 0
1844, 0.47246296906299, -0.22361111563714, 0
1845, 0.4764843005185, -0.15823210810752, 0
1846, 0.41972689359468, -0.14836507620084, 0
1847, 0.40728403625659, -0.14713256518716, 0
1848, 0.64319981452949, -0.12968072638154, 0
1849, 0.71788351089378, -0.061025212859533, 0
1850, 0.63557097420468, -0.14054422248522, 0
1851, 0.24580513610154, 0.014055549451834, 0
1852, 0.21443019211352, 0.030254823028783, 0
1853, 0.89926640168061, -0.1930841478865, 0
1854, 0.91476939769134, -0.21991567500542, 0
1855, 0.893064061077, -0.21902045869974, 0
1856, 0.1657417490188, -0.22847968030005, 0
1857, 0.19831908402546, -0.20596759819796, 0
1858, 0.19510053477064, -0.22968624480581, 0
1859, 0.24404632131529, 0.10503276290792, 0
1860, 0.32184049778759, 0.1840492045279, 0
1861, 0.19195618439869, 0.11153797533443, 0
1862, 0.24472033621697, 0.15829500961418, 0
1863, 0.27713491743614, 0.12262959721671, 0
1864, 0.22540403287146, 0.13196346232182, 0
1865, 0.71513087724039, 0.023917828460724, 0
1866, 0.71495686020317, 0.028007506687322, 0
1867, 0.70275683158925, 0.14304552474737, 0
1868, 0.70918918037654, 0.11498124591463, 0
1869, 0.70700826372046, 0.15805033041623, 0
1870, 0.50433066192679, -0.18362671647658, 0
1871, 0.44609510138446, -0.17564294940346, 0
1872, 0.43259051389225, -0.17309116683811, 0
1873, 0.51706143427943, -0.15592404436591, 0
1874, 0.74878302917307, -0.011286485282529, 0
1875, 0.72539382447339, 0.06316186705234, 0
1876, 0.93158979659087, 0.027897446549606, 0
1877, 0.90293439389731, 0.057799041480816, 0
1878, 0.92876892502574, 0.056733452773827, 0
1879, 0.75517347764409, 0.13246580562054, 0
1880, 0.71823717895055, 0.088519940284767, 0
1881, 0.71155802086743, 0.19321695832213, 0
1882, 0.70899399521187, 0.10346064417988, 0
1883, 0.38483046738305, -0.13804175548127, 0
1884, 0.44871628652345, -0.15108710962797, 0
1885, 0.59486392614594, -0.16525308826672, 0
1886, 0.58598570060945, -0.1596194255004, 0
1887, 0.59526319323478, -0.15613769504736, 0
1888, 0.59071558843414, -0.15809261488229, 0
1889, 0.51596588366975, -0.16275276020113, 0
1890, 0.47561481244323, -0.17948308221597, 0
1891, 0.50621801565153, -0.22379620070216, 0
1892, 0.75193261343496, -0.035575914223155, 0
1893, 0.73782419307796, -0.0037463995394659, 0
1894, 0.71994931161879, 0.064986121461146, 0
1895, 0.70552133791768, 0.11469318210486, 0
1896, 0.49079542848394, -0.16134867207353, 0
1897, 0.49400173833458, -0.15790803173213, 0
1898, 0.47277683831149, -0.19159641741112, 0
1899, 0.29060619697719, -0.025757226308121, 0
1900, 0.28323794349194, 0.052868725662234, 0
1901, 0.31678748564856, -0.056846839494999, 0
1902, 0.320887277156, -0.083940993842982, 0
1903, 0.29557207761027, -0.088441189104935, 0
1904, 0.31826895231806, -0.079421833905876, 0
1905, 0.87073172039162, 0.087975000928924, 0
1906, 0.82710736698569, 0.022286638301218, 0
1907, 0.87260367772684, 0.14401391158745, 0
1908, 0.87139581124189, 0.11624179918043, 0
1909, 0.7123957835065, 0.050812283433293, 0
1910, 0.71469448126567, 0.032022402833752, 0
1911, 0.39056199420093, -0.12869621109997, 0
1912, 0.52576595869693, -0.17848719896143, 0
1913, 0.50775500261052, -0.20860389834082, 0
1914, 0.52536735002768, -0.17040766581637, 0
1915, 0.91230409517112, -0.0020402387261463, 0
1916, 0.93502891986574, -0.0014450092951578, 0
1917, 0.10614139400331, 0.062977008683037, 0
1918, 0.12847846289975, 0.031823466452606, 0
1919, 0.11152368785142, 0.0083666617443463, 0
1920, 0.10738984647358, 0.035510119244443, 0
1921, 0.29300914365468, -0.0091987712612531, 0
1922, 0.31477817254335, -0.069997375462309, 0
1923, 0.29440437614929, -0.080410803266493, 0
1924, 0.27777950063202, 0.1887768273358, 0
1925, 0.26614478299851, 0.17750075322367, 0
1926, 0.27936771561612, 0.17054936347357, 0
1927, 0.29684813532145, 0.18537755935491, 0
1928, 0.88058214535693, 0.030415403284972, 0
1929, 0.79928201012701, 0.1504131179691, 0
1930, 0.87499937376317, 0.059823346842371, 0
1931, 0.28478057974133, 0.029291240865036, 0
1932, 0.251004799153, 0.07044265497358, 0
1933, 0.37249644555702, -0.13568907688193, 0
1934, 0.36151324742579, -0.10927013996109, 0
1935, 0.35901237407197, -0.10160139032887, 0
1936, 0.50194909046913, 0.27633926704806, 0
1937, 0.61919343585926, -0.15144536472455, 0
1938, 0.60861659055359, -0.14895069952994, 0
1939, 0.66400342945254, -0.12843477350878, 0
1940, 0.27638507140601, 0.12760290400457, 0
1941, 0.730560959644, -0.034334448804514, 0
1942, 0.736996568347, -0.043074920520965, 0
1943, 0.72551616526597, -0.043237399841883, 0
1944, 0.72836974878067, -0.038965438247013, 0
1945, 0.32738539610044, -0.092173507747614, 0
1946, 0.32693596302388, -0.080376694547403, 0
1947, 0.28848614927097, -0.10109386531492, 0
1948, 0.31303928783016, -0.060948560038559, 0
1949, 0.32782442109713, -0.070178413779164, 0
1950, 0.68240683710343, 0.22859653423376, 0
1951, 0.65525617915207, 0.20858044227751, 0
1952, 0.6522491635705, 0.22586897351295, 0
1953, 0.66174100688511, 0.21011161321328, 0
1954, 0.72055403236954, -0.051379185523985, 0
1955, 0.72604698819725, -0.057544572437869, 0
1956, 0.71885406901397, -0.055830150339697, 0
1957, 0.58476981623521, -0.16845489129613, 0
1958, 0.57663058728792, -0.1623068000814, 0
1959, 0.58126308192231, -0.16098263528144, 0
1960, 0.36731407379126, -0.10887845006942, 0
1961, 0.34994202230691, -0.10124756770789, 0
1962, 0.35670624116523, -0.12255011393285, 0
1963, 0.27705452353415, 0.055987376377394, 0
1964, 0.23841349727218, 0.055428309901762, 0
1965, 0.27864100443207, 0.066554635337292, 0
1966, 0.26022531454781, 0.060462367665948, 0
1967, 0.42015966750397, -0.16764378406857, 0
1968, 0.45874497854181, -0.243249023117, 0
1969, 0.42641003466694, -0.24221550691873, 0
1970, 0.46938761118163, -0.16585084056999, 0
1971, 0.44269631358232, -0.24332223969111, 0
1972, 0.72567172360329, 0.15411734854842, 0
1973, 0.1087753353343, -0.22570534274494, 0
1974, 0.13828308818784, -0.20257735380315, 0
1975, 0.13706325239136, -0.22705894509572, 0
1976, 0.68658833404275, 0.19258080065364, 0
1977, 0.72481753595547, 0.18446083203478, 0
1978, 0.73385107985961, 0.15577410651379, 0
1979, 0.71518851877878, 0.18008973420908, 0
1980, 0.63943635847161, -0.10353469836895, 0
1981, 0.70121857617336, -0.16631334764662, 0
1982, 0.65096645450191, -0.14159763986803, 0
1983, 0.60278640398966, -0.14272627802431, 0
1984, 0.63993521053727, 0.26799117296477, 0
1985, 0.62745318667791, 0.25690892918749, 0
1986, 0.25869623885792, 0.021959572571608, 0
1987, 0.33783385595962, -0.083395626578491, 0
1988, 0.56435799275955, -0.17166031956063, 0
1989, 0.55812229820923, -0.16564682811999, 0
1990, 0.56722517916893, -0.16415086659585, 0
1991, 0.5626203589324, -0.16494249760127, 0
1992, 0.29095529572179, -0.00096871080452308, 0
1993, 0.27279918281902, 0.060289583116049, 0
1994, 0.27711829366909, 0.081249529689101, 0
1995, 0.28313137517646, 0.048993898798911, 0
1996, 0.27174969039056, 0.093712796081388, 0
1997, 0.35507515879297, -0.11694225164529, 0
1998, 0.34323868261457, -0.10369513462793, 0
1999, 0.36998847305724, -0.11846289939452, 0
2000, 0.40319501714372, -0.16607412515105, 0
2001, 0.2679403037343, 0.11143750958684, 0
2002, 0.27809038872318, 0.11824856511347, 0
2003, 0.29082374471077, 0.11664302609846, 0
2004, 0.2936410372086, 0.12856586587729, 0
2005, 0.26108597524979, -0.055581758343242, 0
2006, 0.24305974984303, -0.079508752590247, 0
2007, 0.2371319333527, 0.032694774288252, 0
2008, 0.28837553516241, -0.021442523486766, 0
2009, 0.26757767142185, 0.020714068162029, 0
2010, 0.29408042378002, -0.042453875779965, 0
2011, 0.2893818754347, -0.048259135807213, 0
2012, 0.28382855273123, 0.064049122972293, 0
2013, 0.30873511698171, 0.16054663579262, 0
2014, 0.45350032846175, -0.18561993040391, 0
2015, 0.43928058284796, -0.1747196943785, 0
2016, 0.45267076782036, -0.16720421206117, 0
2017, 0.44441075230417, -0.15009754915034, 0
2018, 0.49043714955839, -0.15622059323562, 0
2019, 0.49174442020615, -0.24113364586152, 0
2020, 0.4749830379172, -0.24237236278961, 0
2021, 0.32453782291268, 0.2101205359401, 0
2022, 0.32107196981864, 0.2175986692724, 0
2023, 0.33093635591066, 0.21810794165035, 0
2024, 0.32753579188707, 0.21415872745859, 0
2025, 0.29519112827394, 0.13266748278938, 0
2026, 0.30137952128813, 0.15348576290596, 0
2027, 0.30697658647475, -0.091898636078393, 0
2028, 0.72212791215847, -0.16837147103836, 0
2029, 0.7326648803039, 0.21422875880662, 0
2030, 0.65946617991976, 0.2245034340106, 0
2031, 0.66523129313088, 0.22677559915295, 0
2032, 0.64987976117232, 0.21371111325301, 0
2033, 0.40570928242869, -0.13732597565758, 0
2034, 0.39442261281657, -0.1295212806369, 0
2035, 0.31715106210716, 0.20801804639933, 0
2036, 0.32010476387836, 0.20257775614628, 0
2037, 0.32200723087457, 0.20618431128187, 0
2038, 0.23438340358597, 0.12436133237815, 0
2039, 0.27109561953351, 0.065675124821775, 0
2040, 0.16973353010924, -0.18015107562842, 0
2041, 0.26507005957201, -0.070001729191747, 0
2042, 0.30815902688688, -0.060837223478935, 0
2043, 0.69379188447134, 0.18399107848898, 0
2044, 0.70775239627667, 0.20027295908136, 0
2045, 0.71349482995851, 0.17144912297479, 0
2046, 0.28340135582114, 0.056656028513351, 0
2047, 0.26324506909331, 0.082675262775494, 0
2048, 0.27649012978047, 0.052018005174751, 0
2049, 0.65340979750331, -0.089961922075915, 0
2050, 0.62779698309499, -0.17899301937524, 0
2051, 0.61906369616397, -0.12843786850879, 0
2052, 0.47447287804082, -0.1645654911464, 0
2053, 0.33527028611417, -0.09863682676432, 0
2054, 0.33921505548762, -0.1013058322869, 0
2055, 0.32657873722576, -0.1010490582271, 0
2056, 0.33125807622194, -0.095630545410116, 0
2057, 0.73321038176915, 0.12337674264774, 0
2058, 0.66895239387976, -0.16820268805433, 0
2059, 0.63613165232697, -0.11175514346938, 0
2060, 0.67489052866673, -0.073248108114922, 0
2061, 0.6363590904458, -0.10595319355022, 0
2062, 0.27500874295771, 0.020441789363069, 0
2063, 0.14682193096183, -0.022430025964396, 0
2064, 0.11851179598481, -0.019177684151574, 0
2065, 0.28990982293013, 0.16589455438275, 0
2066, 0.30311099819018, 0.16493561246216, 0
2067, 0.2883888596976, 0.21129330707441, 0
2068, 0.29572772765384, 0.17340734774075, 0
2069, 0.54934548481217, -0.16721444457453, 0
2070, 0.54664751334531, -0.1747315915464, 0
2071, 0.54485108572332, -0.1680072712846, 0
2072, 0.34996604599442, -0.11195249357608, 0
2073, 0.35734598019805, -0.15169366402248, 0
2074, 0.37374852666146, -0.12134842107164, 0
2075, 0.74985443646358, 0.00073272616256805, 0
2076, 0.77065663926472, 0.053458488363747, 0
2077, 0.75591948021079, 0.07497600625368, 0
2078, 0.74901283777365, 0.007076074531272, 0
2079, 0.72876566830232, -0.050852421455847, 0
2080, 0.7225857886254, -0.047252909699026, 0
2081, 0.30458304608057, 0.19644268376145, 0
2082, 0.3012531493204, 0.14433946747965, 0
2083, 0.32671903167527, 0.19070149831807, 0
2084, 0.30835534540013, 0.16294884235926, 0
2085, 0.32414972893804, 0.18741551153735, 0
2086, 0.71490640682819, 0.07064891020835, 0
2087, 0.6323619158098, -0.12521048699772, 0
2088, 0.26453750398032, 0.18859686119324, 0
2089, 0.30505439965037, 0.20604732298947, 0
2090, 0.80566525465518, 0.014752517197778, 0
2091, 0.88731270747466, -0.0019027060423429, 0
2092, 0.41272003559798, -0.13663554255946, 0
2093, 0.67677702277324, -0.10866251625742, 0
2094, 0.71794331997441, -0.23377601393254, 0
2095, 0.368805044741, 0.27269273096717, 0
2096, 0.5193801269596, -0.18740093198627, 0
2097, 0.46399695182349, -0.16678738874794, 0
2098, 0.653135369415, 0.25052279445936, 0
2099, 0.61885291869318, 0.254984604738, 0
2100, 0.63706447920842, 0.25591087058907, 0
2101, 0.25832350198049, 0.16389989296361, 0
2102, 0.25283735474196, 0.14858270777291, 0
2103, 0.64230679255033, -0.19662926702365, 0
2104, 0.61435761137965, -0.17504261454709, 0
2105, 0.65966624992115, -0.10468492304457, 0
2106, 0.24563369718851, 0.042422125909649, 0
2107, 0.2829983516573, 0.00553280652982, 0
2108, 0.2657098058744, 0.072640660285311, 0
2109, 0.27638008501636, -0.071934616010862, 0
2110, 0.46901092619189, 0.28225116222687, 0
2111, 0.57186644001343, -0.16319656955069, 0
2112, 0.39121959986921, -0.14324875409199, 0
2113, 0.38585645346477, -0.15080052862016, 0
2114, 0.38494928498231, -0.1441196269311, 0
2115, 0.21803105797785, 0.099941572080641, 0
2116, 0.24813460190474, 0.077862532794994, 0
2117, 0.33857029657436, 0.22526632911085, 0
2118, 0.34261550754537, 0.22848217933994, 0
2119, 0.3031964720476, 0.17878172757679, 0
2120, 0.22472865451779, 0.11317642103548, 0
2121, 0.25701058920294, 0.1094188129432, 0
2122, 0.70785640837993, 0.11240423599684, 0
2123, 0.70891769335685, 0.15370274089046, 0
2124, 0.77960106856865, 0.13025934282731, 0
2125, 0.72747158183583, 0.13195364258393, 0
2126, 0.72706605174464, 0.038045748013784, 0
2127, 0.60063392706515, -0.17809088081843, 0
2128, 0.5930472684996, -0.17328443068581, 0
2129, 0.60390390378126, -0.17009213068761, 0
2130, 0.59839737986868, -0.17195669134681, 0
2131, 0.78361848222053, -0.16977383099003, 0
2132, 0.74037126543673, -0.093510997600634, 0
2133, 0.69150272174701, -0.2256226313557, 0
2134, 0.65425866789915, -0.095665833960531, 0
2135, 0.43241608258708, -0.20952776677029, 0
2136, 0.41530876481821, -0.22187091218255, 0
2137, 0.43731992222495, -0.18467820584436, 0
2138, 0.42082135368315, -0.20683716232492, 0
2139, 0.8692226913019, -0.14137776613195, 0
2140, 0.88436768115734, -0.16674555029034, 0
2141, 0.84636653541934, -0.16344860840217, 0
2142, 0.86552066142856, -0.16559202711625, 0
2143, 0.27274217050642, 0.023974771596822, 0
2144, 0.25589408846308, 0.028048544741833, 0
2145, 0.32289702968284, -0.1310504977879, 0
2146, 0.66160998863855, -0.10040197504798, 0
2147, 0.79265091262002, -0.037059783948282, 0
2148, 0.74601824576996, -0.022210210853286, 0
2149, 0.68356045488533, -0.11362783693298, 0
2150, 0.63497641165895, -0.18725049473138, 0
2151, 0.61640059605671, -0.12201535084614, 0
2152, 0.31347574642978, 0.20290934057477, 0
2153, 0.31750078916106, 0.19952702754926, 0
2154, 0.47205630592647, -0.1590036128852, 0
2155, 0.47022309225028, -0.15342320217083, 0
2156, 0.92417014326495, 0.19538182204718, 0
2157, 0.89910450770122, 0.16958415723458, 0
2158, 0.92468652929834, 0.16832492184985, 0
2159, 0.28569776842914, 0.025569150214261, 0
2160, 0.27528795761912, -0.010080923682037, 0
2161, 0.71309589479443, -0.1298848262406, 0
2162, 0.6931993837174, -0.053901122364215, 0
2163, 0.32013347865443, 0.1933385874842, 0
2164, 0.31562084940128, 0.1733934344904, 0
2165, 0.69851009990987, 0.15471625913162, 0
2166, 0.74273876279179, 0.10929753881867, 0
2167, 0.76705776011248, 0.18351478400929, 0
2168, 0.81157659641479, -0.02182940534417, 0
2169, 0.71080855294677, 0.16695881235252, 0
2170, 0.67419117368615, 0.19191086503627, 0
2171, 0.32900436272624, 0.22669819587536, 0
2172, 0.33473596076264, 0.22179929426306, 0
2173, 0.70583882851085, 0.12431236791397, 0
2174, 0.76746962041841, 0.14484973078555, 0
2175, 0.7735216379463, 0.11624619644353, 0
2176, 0.71390274577933, 0.083107065838221, 0
2177, 0.10924220191763, -0.12397508834345, 0
2178, 0.081192583715162, -0.14663097294368, 0
2179, 0.080179414307673, -0.12026273773512, 0
2180, 0.33015218812129, -0.14766358461772, 0
2181, 0.363853276797, -0.112258131212, 0
2182, 0.37025747137048, -0.11152396155536, 0
2183, 0.35291393619264, -0.097041255209379, 0
2184, 0.73443507041569, -0.024637134920525, 0
2185, 0.73243614678668, -0.029509509054067, 0
2186, 0.47666649978237, 0.29388706274032, 0
2187, 0.27146818750059, 0.056457408190563, 0
2188, 0.24029623614817, 0.095638055091814, 0
2189, 0.61353124982936, -0.12454464508291, 0
2190, 0.76856161818586, -0.16050056076051, 0
2191, 0.79287285229703, -0.14995835418033, 0
2192, 0.48307347090051, 0.29361180019985, 0
2193, 0.48286472732567, 0.27745705685226, 0
2194, 0.27989821220774, 0.023103821885929, 0
2195, 0.28944068617602, 0.007043151266801, 0
2196, 0.73877866207656, 0.088459479384141, 0
2197, 0.70512315425856, 0.13162590560602, 0
2198, 0.74602776551094, 0.019808441082024, 0
2199, 0.76789906682536, 0.030638707523809, 0
2200, 0.3560257655205, -0.099355520434812, 0
2201, 0.37030375065102, -0.12655618279754, 0
2202, 0.63184127874366, -0.11819983455178, 0
2203, 0.6528776472343, -0.10514192948269, 0
2204, 0.48209937372977, -0.15273414879067, 0
2205, 0.65312242413232, 0.23369459622937, 0
2206, 0.64914496195169, 0.2293459433325, 0
2207, 0.46599517819962, -0.15329645907638, 0
2208, 0.71778939605337, 0.15334428417162, 0
2209, 0.76629057080289, 0.13140949912317, 0
2210, 0.73786475168761, 0.0017340762555278, 0
2211, 0.7428130990027, 0.073673401285454, 0
2212, 0.70591329564693, 0.12085999995574, 0
2213, 0.30309876208744, -0.10402261033641, 0
2214, 0.3238430372249, -0.088268897100905, 0
2215, 0.12012474377841, 0.1898722679702, 0
2216, 0.097357959964926, 0.21840641440629, 0
2217, 0.14752854712038, 0.22316652805383, 0
2218, 0.12240853145309, 0.21993478891753, 0
2219, 0.55374558175354, -0.16643099726942, 0
2220, 0.31610523687864, -0.051283101430659, 0
2221, 0.67732974223209, 0.18855884281898, 0
2222, 0.65475070540504, 0.22216826696224, 0
2223, 0.25376033035167, 0.041736973354699, 0
2224, 0.26036379797999, 0.0031862807793312, 0
2225, 0.26840139949384, 0.068812178407911, 0
2226, 0.28764778786983, 0.018404922848667, 0
2227, 0.32209338443635, -0.059656078798446, 0
2228, 0.30608679735906, -0.050243211506654, 0
2229, 0.66028142401363, -0.092653933495253, 0
2230, 0.89789807402799, 0.22311495664496, 0
2231, 0.87308839986878, 0.19840554113181, 0
2232, 0.84649287623172, 0.22715362012968, 0
2233, 0.87201093575778, 0.22479341052936, 0
2234, 0.56225498962772, 0.26242840122395, 0
2235, 0.66472818900754, -0.087395694090387, 0
2236, 0.59473402761933, -0.14710519654047, 0
2237, 0.2687442100636, 0.03746098722487, 0
2238, 0.23092989509739, 0.01909377942656, 0
2239, 0.21188272512537, 0.047252180762939, 0
2240, 0.26374909048387, 0.053049031337413, 0
2241, 0.22955928554342, 0.096943551106737, 0
2242, 0.20129162045111, 0.029092811645449, 0
2243, 0.19721757873995, 0.067821636213746, 0
2244, 0.24982871989046, 0.20101796867068, 0
2245, 0.26727664503145, 0.01310563212104, 0
2246, 0.24438395173817, 0.06453900155279, 0
2247, 0.66534832847132, -0.11740754043593, 0
2248, 0.72656348773834, 0.07409351883679, 0
2249, 0.11102000572957, 0.12154212999633, 0
2250, 0.12771542681797, 0.085898895110668, 0
2251, 0.10718314330287, 0.091220073420225, 0
2252, 0.66906333162044, -0.14472612150601, 0
2253, 0.62147224351554, -0.12533992860752, 0
2254, 0.58071324039693, 0.26067330265524, 0
2255, 0.58667371655578, 0.2590612978347, 0
2256, 0.63026634101172, 0.24447209875137, 0
2257, 0.66035624652608, 0.21551136599648, 0
2258, 0.66421515797323, 0.21467985954431, 0
2259, 0.3017511843191, -0.028764266711445, 0
2260, 0.17350731990965, -0.020889943185366, 0
2261, 0.31923475821513, -0.052945933153177, 0
2262, 0.92362795875384, 0.22199048600728, 0
2263, 0.76340614297558, 0.089699422965198, 0
2264, 0.78244907156859, -0.010483373369772, 0
2265, 0.73680231147194, -0.014424273168835, 0
2266, 0.73730011572368, -0.0091213891770593, 0
2267, 0.31143822744401, -0.21435163379013, 0
2268, 0.3079446202804, -0.23487458765502, 0
2269, 0.77565537424804, 0.098204330917851, 0
2270, 0.73153200577381, 0.02861091187215, 0
2271, 0.68489438114749, -0.064490004666159, 0
2272, 0.77063952233089, -0.10508348941625, 0
2273, 0.73042161924545, 0.17300716667754, 0
2274, 0.72262612710103, 0.22942522441641, 0
2275, 0.37885612865216, -0.13730775005215, 0
2276, 0.38036591319089, -0.13123162260994, 0
2277, 0.61625122324214, 0.26517685970854, 0
2278, 0.61394289550652, 0.25792752340819, 0
2279, 0.092585293725108, 0.1575558270636, 0
2280, 0.18030334525192, 0.15538169447248, 0
2281, 0.11781383358549, 0.15591702023922, 0
2282, 0.76718057728563, -0.028309853672787, 0
2283, 0.73604055002814, -0.019630081390486, 0
2284, 0.69072347725846, -0.057593404135697, 0
2285, 0.69154956934435, -0.077182726951124, 0
2286, 0.59317980470197, -0.13788536327702, 0
2287, 0.34725040579165, -0.1057865692762, 0
2288, 0.31365438977123, -0.065388011583432, 0
2289, 0.3915625599129, -0.18782451154051, 0
2290, 0.36951550236751, -0.17368638190772, 0
2291, 0.36667313779894, -0.11536542999146, 0
2292, 0.39832377719339, -0.1271506271765, 0
2293, 0.72321620993739, 0.1775341207175, 0
2294, 0.69314723652634, 0.16615993521705, 0
2295, 0.31769052583612, 0.22708827362533, 0
2296, 0.31682879161461, 0.23993594844418, 0
2297, 0.32335449211602, 0.23231967447212, 0
2298, 0.28405788329765, -0.0077612172557637, 0
2299, 0.32224659386259, -0.072514896884723, 0
2300, 0.20655271166152, -0.11232376711681, 0
2301, 0.2867015212631, 0.098179483525763, 0
2302, 0.71484124674368, 0.066483462787162, 0
2303, 0.71450770767394, 0.048752494332527, 0
2304, 0.93974258614421, -0.1941067018482, 0
2305, 0.93607706801665, -0.22042800143827, 0
2306, 0.35096072105397, 0.22644375603034, 0
2307, 0.30738024765607, 0.24845313858285, 0
2308, 0.65140584413609, 0.24276273053934, 0
2309, 0.64571483734586, 0.2508963277292, 0
2310, 0.64878165216126, 0.23692924515072, 0
2311, 0.85161270594659, 0.035366264537168, 0
2312, 0.75594587611283, 0.14300492399358, 0
2313, 0.75997249968876, -0.0079376004383165, 0
2314, 0.77365576927865, 0.0033804093070302, 0
2315, 0.74431540417046, -0.027483257526944, 0
2316, 0.26282346440199, 0.11517162917843, 0
2317, 0.73691229650584, 0.037217710080278, 0
2318, 0.73981333058167, 0.04722554953196, 0
2319, 0.73501483380217, 0.018205445590618, 0
2320, 0.72551639530052, 0.050273502869336, 0
2321, 0.76986852758235, -0.011973945884821, 0
2322, 0.77156271724509, -0.053969057817576, 0
2323, 0.60649832013832, -0.14013866636234, 0
2324, 0.75803815886378, -0.052680925358265, 0
2325, 0.75811540911263, -0.014039059993373, 0
2326, 0.070828729947658, 0.18937547810517, 0
2327, 0.072807683854711, 0.21818375537036, 0
2328, 0.27209930093406, 0.010369995334383, 0
2329, 0.18578979741566, 0.028023259901824, 0
2330, 0.31597319607952, -0.14359561205034, 0
2331, 0.25789639659138, -0.095665324485722, 0
2332, 0.78608136061172, -0.0015769270451977, 0
2333, 0.73326496875264, 0.067178361048238, 0
2334, 0.717348335076, 0.1215815243148, 0
2335, 0.78777481032875, 0.0086491710707333, 0
2336, 0.72731888344701, 0.14853537184078, 0
2337, 0.7711964689538, 0.02143351484198, 0
2338, 0.71578381542471, 0.11799578579191, 0
2339, 0.17208346810738, -0.13147995542108, 0
2340, 0.29947055508534, -0.053269774614687, 0
2341, 0.79768591665716, -0.049681902484994, 0
2342, 0.74053542120418, -0.038198617776509, 0
2343, 0.29232130592105, 0.12444733737181, 0
2344, 0.27746530764051, 0.073314454577952, 0
2345, 0.26683029847769, 0.099263022580453, 0
2346, 0.79625767073379, 0.2353738023136, 0
2347, 0.82164475354701, 0.20488565088844, 0
2348, 0.82080015110401, 0.23063403228208, 0
2349, 0.068737429116476, 0.15961532004809, 0
2350, 0.72246524308064, 0.11794684402848, 0
2351, 0.84753802693893, 0.17376038265155, 0
2352, 0.87335503702475, 0.17135651569612, 0
2353, 0.30980551271205, -0.076786232654003, 0
2354, 0.2649633068081, 0.025316719617059, 0
2355, 0.29122798375642, -0.15106011000874, 0
2356, 0.26641293728219, -0.18856171886862, 0
2357, 0.40977647477755, -0.20224025084776, 0
2358, 0.40123746263946, -0.21679599213675, 0
2359, 0.44014562240393, -0.14894454661056, 0
2360, 0.37275457008177, -0.18552897282315, 0
2361, 0.28641563127815, -0.035015570133101, 0
2362, 0.27744075954607, 0.01763726380237, 0
2363, 0.2693802192517, 0.032561969187287, 0
2364, 0.081397196033155, -0.19868918480788, 0
2365, 0.081034665797445, -0.22429024943067, 0
2366, 0.62602195202762, -0.15646449546159, 0
2367, 0.63014256503231, -0.11038309774501, 0
2368, 0.67827602601677, -0.13890786746972, 0
2369, 0.30237524371144, -0.13747729970908, 0
2370, 0.70519272273273, 0.22053521003162, 0
2371, 0.72280027738611, 0.15963327208297, 0
2372, 0.13967167157301, -0.15307977596998, 0
2373, 0.13965493783937, -0.12788969320253, 0
2374, 0.59852319815374, 0.26291949422964, 0
2375, 0.58665325083206, 0.25535306846138, 0
2376, 0.5938202862318, 0.2632490032902, 0
2377, 0.32383170020088, -0.063165569723223, 0
2378, 0.77669241608888, -0.14261953388179, 0
2379, 0.74098562715514, -0.082873986266518, 0
2380, 0.68197672804595, -0.14960068444644, 0
2381, 0.78670097471181, -0.20192463805425, 0
2382, 0.64934270478991, -0.11547339515968, 0
2383, 0.38129667894669, -0.1696719996659, 0
2384, 0.37875705652383, -0.16072420851657, 0
2385, 0.27713131173948, 0.13334005485728, 0
2386, 0.19478110203158, 0.23142198933355, 0
2387, 0.17179961508194, 0.22766756687198, 0
2388, 0.92300646833006, -0.16768897112201, 0
2389, 0.94251774022248, -0.16775292551987, 0
2390, 0.30526263881723, -0.043378983570263, 0
2391, 0.30208850274607, -0.065995486760027, 0
2392, 0.29222389680518, -0.1928317105059, 0
2393, 0.90642273816159, -0.14189433665562, 0
2394, 0.90389962613008, -0.16750003985134, 0
2395, 0.65185318624583, -0.098694772697425, 0
2396, 0.78614310417119, -0.10960044597871, 0
2397, 0.62881251397854, -0.12118332804358, 0
2398, 0.29895721919164, -0.037190632425987, 0
2399, 0.2574816498764, 0.012449107240853, 0
2400, 0.21089225148785, -0.0092914030149169, 0
2401, 0.19563611612062, -0.01578140080212, 0
2402, 0.13263690983861, 0.11550295383288, 0
2403, 0.21732805178966, 0.17768576480301, 0
2404, 0.23447115396396, 0.18342456002989, 0
2405, 0.75024318650328, 0.16416501347408, 0
2406, 0.70392141818051, 0.26860283867635, 0
2407, 0.71416329453717, 0.18631486179337, 0
2408, 0.52066385727512, -0.16291936879976, 0
2409, 0.46398740239696, -0.19496243644798, 0
2410, 0.48700642640427, -0.16452977638594, 0
2411, 0.81963282631192, -0.11588799700259, 0
2412, 0.73782050172219, -0.10443666711259, 0
2413, 0.72984614445522, -0.18252625969786, 0
2414, 0.69216134541654, -0.10849404937007, 0
2415, 0.87081376637447, -0.093746032997922, 0
2416, 0.88927108965274, -0.11708204815261, 0
2417, 0.85364798029945, -0.11775238025517, 0
2418, 0.87162808105564, -0.11775738059615, 0
2419, 0.24567241601189, -0.15676348756173, 0
2420, 0.28541859377115, 0.12854667476118, 0
2421, 0.27985939486134, 0.097958144805437, 0
2422, 0.27253574911868, 0.11534616407653, 0
2423, 0.64604201213419, -0.11111311967535, 0
2424, 0.68896208286325, -0.094646721554392, 0
2425, 0.55922061798813, -0.22929550087473, 0
2426, 0.54521461724327, -0.21345333877688, 0
2427, 0.55863065423288, -0.20521227526133, 0
2428, 0.56977750181083, -0.2171082115422, 0
2429, 0.55821355955775, -0.21682723293721, 0
2430, 0.53082546992332, -0.19851895594993, 0
2431, 0.53231061300775, -0.21200619363789, 0
2432, 0.59229773818435, -0.20845352666523, 0
2433, 0.57369517900818, -0.20221625619092, 0
2434, 0.58049435112016, -0.21298641544806, 0
2435, 0.36898115191058, 0.23138823550141, 0
2436, 0.4006211586318, 0.26456037532192, 0
2437, 0.31803834108166, -0.11598109137888, 0
2438, 0.29538985605382, -0.065637192118311, 0
2439, 0.38381044134469, 0.24406473733084, 0
2440, 0.23326455500066, -0.058762997772919, 0
2441, 0.27569024599792, 0.00031865851035269, 0
2442, 0.27522005662841, -0.0047691492636835, 0
2443, 0.90767308432338, -0.11634497948285, 0
2444, 0.56033408667876, -0.24371064887221, 0
2445, 0.66860770295364, -0.23266332170025, 0
2446, 0.64893524859362, -0.22246929901961, 0
2447, 0.62820284596261, -0.16708936558607, 0
2448, 0.74445688035026, -0.16652426312467, 0
2449, 0.66819959326825, -0.21647503952371, 0
2450, 0.72548399486829, 0.011958136307661, 0
2451, 0.76008558259326, 0.013523541842057, 0
2452, 0.10988341361093, -0.17541282299092, 0
2453, 0.139235087612, -0.17789896357093, 0
2454, 0.56498393832251, 0.26235991789134, 0
2455, 0.47532383331929, 0.28806078926722, 0
2456, 0.46888841450557, 0.27225269010809, 0
2457, 0.081427415711836, -0.17285591523216, 0
2458, 0.64285330886465, -0.10723118471071, 0
2459, 0.6560102327026, -0.08740006019178, 0
2460, 0.60395255187216, -0.13167270869863, 0
2461, 0.67145255212622, -0.075788865274294, 0
2462, 0.29966878676028, -0.025031151913948, 0
2463, 0.26585986576762, -0.010853560220424, 0
2464, 0.63290858861624, 0.24124862295507, 0
2465, 0.6222812102903, 0.2614819542948, 0
2466, 0.28011689841881, -0.062866788827891, 0
2467, 0.26596835770869, -0.017340606291192, 0
2468, 0.27471675992976, -0.14062903940027, 0
2469, 0.46887662252348, 0.27706135513115, 0
2470, 0.55944381430375, 0.27654240816235, 0
2471, 0.49205243985179, 0.27178494930379, 0
2472, 0.72037045102017, 0.069712219111128, 0
2473, 0.81978234376478, -0.010645479144488, 0
2474, 0.82233881699125, 0.043111210149133, 0
2475, 0.84432721023707, 0.062720968510508, 0
2476, 0.63725149417658, -0.12529515110926, 0
2477, 0.65950321862055, -0.14821222732595, 0
2478, 0.61014456716667, -0.15845467486568, 0
2479, 0.639564048909, 0.24986915393372, 0
2480, 0.72425290040103, 0.24844375777655, 0
2481, 0.65659362287314, 0.21870042395257, 0
2482, 0.26327970919501, 0.14008049665069, 0
2483, 0.21477990384519, 0.19488069850533, 0
2484, 0.68180157777717, -0.081513840366117, 0
2485, 0.62549515601331, -0.11950239642745, 0
2486, 0.67422297647654, -0.11643039274459, 0
2487, 0.23831731391945, 0.16975345351689, 0
2488, 0.1929612612046, 0.2091956753917, 0
2489, 0.26341960738272, 0.10639795776389, 0
2490, 0.64512012474454, -0.25156220631479, 0
2491, 0.66674199113159, -0.24927687373577, 0
2492, 0.59023364256374, 0.25867878642677, 0
2493, 0.57874685963211, 0.26559242479665, 0
2494, 0.57594928870165, 0.27206990002922, 0
2495, 0.28641463247229, -0.017070126498073, 0
2496, 0.23759146692149, 0.23476400088937, 0
2497, 0.2164437861728, 0.23384907855678, 0
2498, 0.78037878294093, 0.069775261785667, 0
2499, 0.84649545372801, 0.14628351550084, 0
2500, 0.84226004879705, 0.11914174712267, 0
2501, 0.16461945359278, 0.074826730547465, 0
2502, 0.25439791352576, 0.034864868091656, 0
2503, 0.14655537821641, 0.079938631107828, 0
2504, 0.75496068439632, -0.23687466464097, 0
2505, 0.83704623787019, -0.096528329276996, 0
2506, 0.83352831814444, -0.13848920730626, 0
2507, 0.8363127722043, -0.11719955040521, 0
2508, 0.399778066657, -0.19580608975568, 0
2509, 0.40660680361123, 0.25397946158129, 0
2510, 0.36161433070948, 0.25604509842033, 0
2511, 0.40935454806965, -0.23957084017458, 0
2512, 0.39086295409826, -0.16521708214501, 0
2513, 0.42618346598361, -0.17069151920016, 0
2514, 0.80978065302926, -0.15583494369406, 0
2515, 0.75449066862602, -0.15016049657448, 0
2516, 0.67253041871394, -0.084571246510711, 0
2517, 0.63408941600411, -0.16152539347042, 0
2518, 0.46366454443761, 0.28142580839981, 0
2519, 0.72737750793556, -0.078403732371779, 0
2520, 0.61986814423066, -0.22511784656955, 0
2521, 0.60101839305959, -0.19529192697517, 0
2522, 0.60493805213979, -0.20652136605145, 0
2523, 0.73638241298136, 0.012776703087389, 0
2524, 0.81533351123716, -0.060779424751921, 0
2525, 0.78726547925806, 0.019838443527391, 0
2526, 0.50840534911106, -0.24141788197309, 0
2527, 0.64962568426638, -0.10830239580897, 0
2528, 0.67825256984083, -0.070558561175425, 0
2529, 0.68564979395632, 0.24109479274142, 0
2530, 0.70120005090264, 0.17065952084214, 0
2531, 0.31402779180078, 0.19631748545059, 0
2532, 0.56181056215897, 0.27222036477177, 0
2533, 0.65687797717006, -0.11686109157089, 0
2534, 0.63054566300826, -0.13379037154686, 0
2535, 0.60734353279241, -0.12943581527589, 0
2536, 0.42552682130594, -0.19384021876147, 0
2537, 0.40360800527771, -0.13010093293796, 0
2538, 0.48113725373841, 0.28780084750944, 0
2539, 0.27862158621639, 0.02683161451197, 0
2540, 0.75257690401898, 0.20996080336494, 0
2541, 0.77205899646583, 0.24105941032478, 0
2542, 0.30632646064556, -0.035781452638263, 0
2543, 0.29945018728887, -0.17440540400256, 0
2544, 0.66686543493902, -0.13584115376408, 0
2545, 0.60169952853202, 0.24995408732843, 0
2546, 0.5819756389636, 0.26340555425601, 0
2547, 0.57896402964452, 0.27747679552336, 0
2548, 0.63498771090068, -0.11705817124364, 0
2549, 0.68426206571699, -0.16198396140652, 0
2550, 0.25263278896282, 0.21670818343325, 0
2551, 0.20698035290883, 0.15355496710687, 0
2552, 0.69058230258047, 0.18837654823092, 0
2553, 0.43116003681456, 0.26436145113486, 0
2554, 0.38037235003232, 0.25311161820311, 0
2555, 0.27555673386011, 0.23028023244472, 0
2556, 0.25719617646184, 0.23366479039813, 0
2557, 0.31953142303004, 0.18057237766976, 0
2558, 0.28444728883117, 0.11244797013866, 0
2559, 0.67805944972083, 0.19994639442896, 0
2560, 0.73014837748022, 0.16224143657404, 0
2561, 0.26392118317605, -0.12620544279229, 0
2562, 0.29183243966877, -0.0051340857210515, 0
2563, 0.23067356463876, 0.0035562744931112, 0
2564, 0.6157457066462, -0.16496488098897, 0
2565, 0.78282013362922, -0.12588220702408, 0
2566, 0.70621490795878, 0.11043906969308, 0
2567, 0.80078185485901, -0.063797616060861, 0
2568, 0.27086797137008, 0.089016758519497, 0
2569, 0.24690388833234, 0.050979964040223, 0
2570, 0.30266903806027, 0.28229111847554, 0
2571, 0.27928157968995, 0.27375642804378, 0
2572, 0.26545909236527, 0.25208966743757, 0
2573, 0.24625206046846, 0.13327272761334, 0
2574, 0.22319646869322, 0.16327376066176, 0
2575, 0.5916763062283, 0.28600666488536, 0
2576, 0.48981208040052, -0.15235835418636, 0
2577, 0.50711648659838, -0.17587963132236, 0
2578, 0.67409564624428, 0.25716960741285, 0
2579, 0.6614681155487, 0.2479767666136, 0
2580, 0.66259177455412, 0.25945122145925, 0
2581, 0.6695708126396, 0.20572978946239, 0
2582, 0.45700529273656, 0.26950842941023, 0
2583, 0.71233005480872, 0.046324790022895, 0
2584, 0.72505296345813, 0.084927959072947, 0
2585, 0.23840384875716, -0.13361215859827, 0
2586, 0.67721895100604, -0.10031120603557, 0
2587, 0.67094279806591, -0.10517698154707, 0
2588, 0.45959167385264, -0.17538492767562, 0
2589, 0.72099113410055, 0.034710563131228, 0
2590, 0.71911256951285, 0.060399052466483, 0
2591, 0.31965467379669, -0.17749948676128, 0
2592, 0.32489852587208, -0.16160266999152, 0
2593, 0.43430746453542, 0.27723017174996, 0
2594, 0.25037150262842, 0.18697320252518, 0
2595, 0.18136402908508, 0.070721726468103, 0
2596, 0.85086190134223, -0.072964628829305, 0
2597, 0.80368087733965, 0.029466384941131, 0
2598, 0.8673311982855, -0.069306100148639, 0
2599, 0.66268168748309, 0.23394502741095, 0
2600, 0.7779076610966, -0.031836690546102, 0
2601, 0.742760027246, -0.032881644277464, 0
2602, 0.60841308991404, 0.28741666524275, 0
2603, 0.56901102444398, 0.26881749980851, 0
2604, 0.59419686282779, 0.25805969091899, 0
2605, 0.65256031353536, 0.25994313501789, 0
2606, 0.30397036429591, -0.032355376816991, 0
2607, 0.3786894148635, -0.19748805196897, 0
2608, 0.36619415491365, -0.22814137863744, 0
2609, 0.33673792177209, -0.19462906664365, 0
2610, 0.58104520812059, 0.26895544960793, 0
2611, 0.67097048310231, 0.19510585951689, 0
2612, 0.76516950375788, 0.10543467998871, 0
2613, 0.7260942119112, 0.07959142037761, 0
2614, 0.65553285462922, 0.2139066501749, 0
2615, 0.6950065371247, 0.16235976453614, 0
2616, 0.76078848407396, -0.036702840692021, 0
2617, 0.41072693363739, 0.2713984562378, 0
2618, 0.41659039487239, 0.27378176222564, 0
2619, 0.42589897511782, 0.29169356097235, 0
2620, 0.42940435478374, -0.18267389699663, 0
2621, 0.41458983859527, -0.16410966424205, 0
2622, 0.63633830409315, 0.24373935353818, 0
2623, 0.60988426283976, 0.26766049267183, 0
2624, 0.81877445103735, -0.078290955816849, 0
2625, 0.83432175584026, -0.075928116361653, 0
2626, 0.64601307477289, -0.10454791445529, 0
2627, 0.69671853640859, -0.1529637067603, 0
2628, 0.71695870316953, 0.093040079350995, 0
2629, 0.71233285525107, 0.13276678531767, 0
2630, 0.27583251380276, 0.11207622083704, 0
2631, 0.70143693130573, 0.14698484691325, 0
2632, 0.71432087262261, 0.0027813192297854, 0
2633, 0.73367337997776, -0.15414279401752, 0
2634, 0.26825862256933, 0.00098305588436044, 0
2635, 0.20269925188023, -0.043223104782608, 0
2636, 0.82747320150377, -0.16018904065903, 0
2637, 0.77172862723214, -0.065318837312902, 0
2638, 0.79963498585981, -0.0098553171607894, 0
2639, 0.19505050194554, 0.0080157699096576, 0
2640, 0.64320232928951, -0.16571944138289, 0
2641, 0.63833590271082, -0.15496545824942, 0
2642, 0.67424962143649, -0.13020708834713, 0
2643, 0.63070146973474, -0.23752549052525, 0
2644, 0.60720357700554, -0.24620376844154, 0
2645, 0.63263775228666, -0.22485219741941, 0
2646, 0.48905615590699, -0.21906338997476, 0
2647, 0.48665027646479, -0.18169878532965, 0
2648, 0.73726129494964, -0.063667903691542, 0
2649, 0.71555641640328, -0.21429847289979, 0
2650, 0.2916530843461, 0.1951393502917, 0
2651, 0.30474908807174, 0.16147709578168, 0
2652, 0.31216300495104, 0.16302465568581, 0
2653, 0.65008303464535, -0.14920986995718, 0
2654, 0.60991035515896, -0.18538755337233, 0
2655, 0.60506814505889, -0.16110307344261, 0
2656, 0.65896105266079, -0.13965540639773, 0
2657, 0.76534595172775, 0.15882364947044, 0
2658, 0.7156767114364, 0.15813285148153, 0
2659, 0.2323250064616, -0.021902213963275, 0
2660, 0.28827191246281, 0.014710102846431, 0
2661, 0.27624232844545, -0.015277326039876, 0
2662, 0.42182350157994, -0.17978335186553, 0
2663, 0.34462656206017, -0.1495481080966, 0
2664, 0.37787607472822, -0.14423428469619, 0
2665, 0.31163973894286, 0.21401143536755, 0
2666, 0.30431029464112, 0.22359075001744, 0
2667, 0.31366456849695, 0.22072869996404, 0
2668, 0.30689126801309, 0.15884800916922, 0
2669, 0.30292925832434, -0.060214190443858, 0
2670, 0.29722315398077, -0.059090478815409, 0
2671, 0.82250128948773, -0.037785724780478, 0
2672, 0.23913870949669, 0.073394939350626, 0
2673, 0.27114599728333, -0.047327955268121, 0
2674, 0.4120364498188, -0.14304514694621, 0
2675, 0.32232375537833, -0.10742860014029, 0
2676, 0.27447871450589, 0.063710588518845, 0
2677, 0.29437895043988, -0.013249641579562, 0
2678, 0.2787832506803, 0.093885714703147, 0
2679, 0.39774748900992, -0.12995415676936, 0
2680, 0.4032036365342, -0.13451878209196, 0
2681, 0.30728508623152, 0.1883924510317, 0
2682, 0.30567546770659, 0.15123063065697, 0
2683, 0.23770530645326, -0.095488786076256, 0
2684, 0.36834870750139, -0.15246196511341, 0
2685, 0.74313544200128, 0.17330214215432, 0
2686, 0.72129381050843, 0.20227348074276, 0
2687, 0.27064562033584, 0.21514930331362, 0
2688, 0.35334606324823, -0.10325959367593, 0
2689, 0.37341492775569, -0.11413589342838, 0
2690, 0.76614729065158, -0.017988138943074, 0
2691, 0.2836652431434, 0.037132128514654, 0
2692, 0.30266724421845, -0.078679237732646, 0
2693, 0.19724899416897, 0.047938634884497, 0
2694, 0.29769623079349, -0.021218223050278, 0
2695, 0.66607964772714, -0.20082110596141, 0
2696, 0.72355887656221, 0.090081911420063, 0
2697, 0.80211992984308, -0.030438719200215, 0
2698, 0.82150474410674, 0.1769031759252, 0
2699, 0.73147995141724, 0.086371900889494, 0
2700, 0.71402790054577, 0.11472976632083, 0
2701, 0.3123563677979, 0.18215153098568, 0
2702, 0.25959062115095, 0.1005160404371, 0
2703, 0.220860956972, 0.015521552224036, 0
2704, 0.18182522801395, 0.049313770768035, 0
2705, 0.42989509325387, -0.16237931472674, 0
2706, 0.3953271074692, -0.17234758863946, 0
2707, 0.38639150762482, -0.12749447010231, 0
2708, 0.71959344966752, 0.038771383403065, 0
2709, 0.54044487318069, 0.28674416139472, 0
2710, 0.74040813066886, -0.053131791831597, 0
2711, 0.74608422308991, -0.047926791166617, 0
2712, 0.39015964749352, -0.13315829161116, 0
2713, 0.74441293363449, 0.15103393437997, 0
2714, 0.52123996373723, -0.15580598755723, 0
2715, 0.25696802211839, 0.054958116714414, 0
2716, 0.28363794850715, 0.10909798215578, 0
2717, 0.49667479985553, -0.15417794552857, 0
2718, 0.44481231461076, -0.19712150807014, 0
2719, 0.66178104135531, -0.082790790520391, 0
2720, 0.72671426252044, 0.097347928808569, 0
2721, 0.44351891708958, -0.22610808030067, 0
2722, 0.26270233394778, 0.030368272673566, 0
2723, 0.5969281301614, -0.13599489884054, 0
2724, 0.27969831353997, 0.11481040706124, 0
2725, 0.65640035109351, -0.092835079478986, 0
2726, 0.36240116365076, -0.11907165684809, 0
2727, 0.76256222269991, 0.03940310760728, 0
2728, 0.8167992012789, 0.12427894364794, 0
2729, 0.35930265024344, 0.28074518709591, 0
2730, 0.3698069809897, 0.28119460112069, 0
2731, 0.29118924586641, 0.22608092059789, 0
2732, 0.72221909917371, 0.030437110709182, 0
2733, 0.74328240260746, 0.12641953557517, 0
2734, 0.65732417488596, 0.23939922254428, 0
2735, 0.26069514215441, 0.069289481866549, 0
2736, 0.27587104727601, 0.043531299522492, 0
2737, 0.31121928827964, -0.042161632154679, 0
2738, 0.51165890133107, -0.1861461709253, 0
2739, 0.34191282254472, 0.24671093009685, 0
2740, 0.42254619048242, 0.27549083179118, 0
2741, 0.35959321029844, 0.27179764229473, 0
2742, 0.52706269152736, -0.18734366724234, 0
2743, 0.37960024675377, 0.24277415769429, 0
2744, 0.41280735548232, 0.28101482854356, 0
2745, 0.73409705579474, 0.051654392793209, 0
2746, 0.74341482140611, 0.025943418119675, 0
2747, 0.56612459094296, -0.18705022576171, 0
2748, 0.56535904833239, -0.17836792364002, 0
2749, 0.60878117231652, 0.26028842831407, 0
2750, 0.6304969048564, 0.28155555709938, 0
2751, 0.36808085111592, -0.16272568191193, 0
2752, 0.38543776749418, -0.1789093512535, 0
2753, 0.20520597023259, -0.13447568358864, 0
2754, 0.71455897669975, 0.062285155027577, 0
2755, 0.7058424741673, 0.11757822442502, 0
2756, 0.59230705036674, -0.18253045888244, 0
2757, 0.58787297147906, -0.17543016893934, 0
2758, 0.41429370229677, 0.25815975950527, 0
2759, 0.78176884403571, -0.041475495875075, 0
2760, 0.8600380470294, -0.04378748938285, 0
2761, 0.78756054552752, -0.093987809103279, 0
2762, 0.68744631697304, -0.19199596766094, 0
2763, 0.64488217240369, -0.11785485642866, 0
2764, 0.81431555398446, 0.061744485120361, 0
2765, 0.55350132207184, -0.18935031331309, 0
2766, 0.54902199902988, -0.18129084166376, 0
2767, 0.26388622108674, 0.0085879631262387, 0
2768, 0.61144798338037, -0.22386968872311, 0
2769, 0.58678942985338, -0.2250309578245, 0
2770, 0.35550261686088, -0.16360286830751, 0
2771, 0.46601013083199, -0.17426378596313, 0
2772, 0.72387791506084, 0.19292259469914, 0
2773, 0.62534866698336, -0.25067217120986, 0
2774, 0.75916128128278, 0.17177968882982, 0
2775, 0.569721115349, 0.28028171075451, 0
2776, 0.55576815932172, 0.28049934756702, 0
2777, 0.64187774639742, 0.23471026589058, 0
2778, 0.63746794401338, -0.13008870849165, 0
2779, 0.81928923521173, -0.18329327170875, 0
2780, 0.59961814016789, 0.28738305217783, 0
2781, 0.60054136262548, -0.18525296492378, 0
2782, 0.35927168274349, -0.10683761005232, 0
2783, 0.73684757772721, 0.14214407891892, 0
2784, 0.62442850122794, -0.11467475251019, 0
2785, 0.31530229176898, -0.19498202113609, 0
2786, 0.56291148930946, -0.19587587242979, 0
2787, 0.3762511321432, 0.2358393613603, 0
2788, 0.78762682290196, 0.089342082720508, 0
2789, 0.80284102727572, -0.11334379202639, 0
2790, 0.31189474653171, 0.20780563155419, 0
2791, 0.66139670643908, -0.088844510338594, 0
2792, 0.37524985340372, -0.12928411158631, 0
2793, 0.70815177704132, 0.17542474859088, 0
2794, 0.67078636865725, -0.091986948648021, 0
2795, 0.62714528608838, -0.11247191611157, 0
2796, 0.7324771479248, -0.05612087114654, 0
2797, 0.26613416838668, 0.20124284688617, 0
2798, 0.7293785338099, 0.046517792304112, 0
2799, 0.70552660298187, 0.12795312135305, 0
2800, 0.26422763337224, 0.077455437767598, 0
2801, 0.26489293482097, 0.093946072055848, 0
2802, 0.6181731544006, 0.27408049443931, 0
2803, 0.48725997649153, -0.15873020095929, 0
2804, 0.17297198699804, -0.10700770837895, 0
2805, 0.76996710948606, -0.19137879372435, 0
2806, 0.35532001864522, 0.23783149308601, 0
2807, 0.34010775301838, 0.26695532295615, 0
2808, 0.44757792401591, 0.27054481596494, 0
2809, 0.57681277354652, -0.17622446195832, 0
2810, 0.53882888423547, -0.18261489369133, 0
2811, 0.5337368835714, -0.23587541614675, 0
2812, 0.64723074635895, 0.21650152830811, 0
2813, 0.60519571717002, -0.22944369277665, 0
2814, 0.23428020760103, 0.21627228887389, 0
2815, 0.45686470204362, 0.28597327585936, 0
2816, 0.39090732325314, 0.25258005605136, 0
2817, 0.64059901434873, -0.11971416059422, 0
2818, 0.18435795652222, 0.09168607769118, 0
2819, 0.24781480059288, 0.086433060310571, 0
2820, 0.72634386612893, 0.068571561356642, 0
2821, 0.49116289938186, -0.16790887882203, 0
2822, 0.33834998643764, -0.1780884134726, 0
2823, 0.40309364789573, 0.25170072354654, 0
2824, 0.45772973267769, -0.22565814704544, 0
2825, 0.59781973896049, 0.25162233979191, 0
2826, 0.79920230329184, -0.13128195826486, 0
2827, 0.35874208743837, -0.25454512901862, 0
2828, 0.51713612170766, 0.28880349821245, 0
2829, 0.60439178028882, -0.15174351616111, 0
2830, 0.6421804587767, -0.12443325680963, 0
2831, 0.66888697480427, 0.213426427143, 0
2832, 0.4772490802718, 0.27312086908614, 0
2833, 0.67861994027965, 0.21896869583931, 0
2834, 0.69697968712246, 0.15849541586317, 0
2835, 0.27116314518346, 0.017203455517818, 0
2836, 0.42479407321345, 0.26900558145622, 0
2837, 0.69082234322623, 0.17004561474474, 0
2838, 0.2105546189766, -0.091564129502512, 0
2839, 0.36980839054653, 0.24495469431554, 0
2840, 0.33452698753683, 0.23739131594676, 0
2841, 0.55627091996534, -0.17624890756384, 0
2842, 0.44541570736862, -0.18566063576021, 0
2843, 0.40818998891471, -0.18528838391413, 0
2844, 0.28773184180244, 0.15761778328995, 0
2845, 0.33353497358535, -0.1104179590787, 0
2846, 0.66445817801454, 0.20096663267201, 0
2847, 0.65839746647052, -0.15795179004223, 0
2848, 0.39826088322646, -0.13291847399998, 0
2849, 0.23828025910408, 0.084920454087999, 0
2850, 0.27651408576614, 0.0050191944489779, 0
2851, 0.27771778775741, -0.020679420294218, 0
2852, 0.82540451494579, 0.0038192588084438, 0
2853, 0.501292618479, -0.17369328426456, 0
2854, 0.71379354130747, 0.10162913186593, 0
2855, 0.31863817894494, 0.25612884659692, 0
2856, 0.75957720938976, -0.0260293648035, 0
2857, 0.71520327634832, 0.019771020145357, 0
2858, 0.16431589724256, 0.051235483110725, 0
2859, 0.43539963155073, -0.16433265097018, 0
2860, 0.26979887977021, 0.11973882078741, 0
2861, 0.2245895810314, 0.046008489559936, 0
2862, 0.74028604178036, 0.11970267033101, 0
2863, 0.63642857573607, -0.12094332338212, 0
2864, 0.73746176611865, 0.007263649433, 0
2865, 0.67430693960716, 0.21156220769514, 0
2866, 0.77324471294324, 0.012232642846301, 0
2867, 0.26696633931256, 0.12503836663649, 0
2868, 0.21913209191135, -0.073151991869632, 0
2869, 0.28587449649984, 0.094352891539808, 0
2870, 0.73145775818959, 0.060866562042123, 0
2871, 0.27125190021961, 0.075284193030468, 0
2872, 0.25756731576803, 0.074441012571978, 0
2873, 0.58439479190545, 0.26561127090228, 0
2874, 0.76764231654088, -0.11968163524797, 0
2875, 0.65936228314433, -0.09507644310874, 0
2876, 0.67705644706637, -0.08309090780742, 0
2877, 0.61623475052858, -0.13140596294953, 0
2878, 0.67000469220344, -0.12319486414316, 0
2879, 0.58943295166748, -0.13974223574241, 0
2880, 0.78790354456798, -0.079335222215342, 0
2881, 0.26248130978525, 0.016845976227856, 0
2882, 0.19123445634268, 0.13979227263763, 0
2883, 0.16875050151442, 0.098301064751021, 0
2884, 0.27500045498982, 0.10252048532689, 0
2885, 0.25001493413621, 0.11324773054363, 0
2886, 0.36002949605015, 0.24052010388614, 0
2887, 0.35961804901192, 0.29022409081254, 0
2888, 0.71437708757413, 0.17512366691603, 0
2889, 0.71236476877753, 0.091390424154146, 0
2890, 0.64410972493848, 0.25879334070763, 0
2891, 0.7291223350495, -0.12847748635827, 0
2892, 0.716630276202, -0.11682327704727, 0
2893, 0.74808023959382, -0.12573357306232, 0
2894, 0.75279567245928, -0.11251876044472, 0
2895, 0.75507382953082, -0.09946801090438, 0
2896, 0.75594458348129, -0.086913816022407, 0
2897, 0.75579127100145, -0.074757939132198, 0
2898, 0.71679269424418, -0.066735004745921, 0
2899, 0.71468445252345, -0.072612161882219, 0
2900, 0.71231958364103, -0.078943323176317, 0
2901, 0.70878625040181, -0.085370294135521, 0
2902, 0.70498367796246, -0.09246643318864, 0
2903, 0.63237001210041, -0.12142221349326, 0
2904, 0.69092407405517, -0.2440336093505, 0
2905, 0.74197911351422, -0.13970810551418, 0
2906, 0.7000224809339, -0.10042356905375, 0
2907, 0.3952843815713, -0.13737441834998, 0
2908, 0.83437882475037, -0.028600661500934, 0
2909, 0.8467052387051, -0.016694822287932, 0
2910, 0.78670399724304, -0.065471700715066, 0
2911, 0.87802517638661, -0.03789343584889, 0
2912, 0.78501246881399, -0.052857514924436, 0
2913, 0.85804713744043, -6.7567381128258e-05, 0
2914, 0.22709020985469, 0.083298967516357, 0
2915, 0.33665111187693, 0.27709361498088, 0
2916, 0.31930461628578, 0.28598933538328, 0
2917, 0.39054785895929, 0.26308381811358, 0
2918, 0.34811520317632, 0.25062111513174, 0
2919, 0.37510435961651, 0.25859768754003, 0
2920, 0.33567873789616, 0.25331533544741, 0
2921, 0.35480696042391, 0.25370187054546, 0
2922, 0.36835257515878, 0.26485921713457, 0
2923, 0.39898232174501, 0.27354099847025, 0
2924, 0.38013632875546, 0.28058960454871, 0
2925, 0.38163729873088, 0.25871701615236, 0
2926, 0.37477101262804, 0.24661535562958, 0
2927, 0.40199291044936, 0.25750740231115, 0
2928, 0.28477002250248, -0.054914919615391, 0
2929, 0.26131193356748, 0.04179930559029, 0
2930, 0.27548275454033, 0.066090063759035, 0
2931, 0.26900072804412, 0.04727180261418, 0
2932, 0.2702975126652, 0.084195563927628, 0
2933, 0.22802092532381, 0.064593333139579, 0
******* E L E M E N T S *************
*ELEMENT, type=CPS4, ELSET=Surface1
1, 44, 37, 1237, 1234
2, 1234, 1237, 1235, 559
3, 1237, 1236, 560, 1235
4, 37, 45, 1236, 1237
5, 518, 1240, 1241, 1238
6, 1238, 1241, 132, 143
7, 1241, 1239, 142, 132
8, 1240, 517, 1239, 1241
9, 19, 12, 1245, 1242
10, 1242, 1245, 1243, 496
11, 1245, 1244, 497, 1243
12, 12, 20, 1244, 1245
13, 80, 70, 1249, 1246
14, 1246, 1249, 1247, 530
15, 1249, 1248, 531, 1247
16, 70, 81, 1248, 1249
17, 144, 134, 1253, 1250
18, 1250, 1253, 1251, 519
19, 1253, 1252, 523, 1251
20, 134, 145, 1252, 1253
21, 559, 1255, 1256, 1234
22, 1234, 1256, 36, 44
23, 1256, 1254, 43, 36
24, 1255, 558, 1254, 1256
25, 143, 133, 1258, 1238
26, 1238, 1258, 1257, 518
27, 1258, 1250, 519, 1257
28, 133, 144, 1250, 1258
29, 549, 1261, 1262, 1259
30, 1259, 1262, 1260, 548
31, 1262, 54, 65, 1260
32, 1261, 64, 54, 1262
33, 503, 1264, 1265, 1263
34, 1263, 1265, 1239, 517
35, 1265, 131, 142, 1239
36, 1264, 141, 131, 1265
37, 550, 1267, 1268, 1266
38, 1266, 1268, 1261, 549
39, 1268, 53, 64, 1261
40, 1267, 63, 53, 1268
41, 506, 1271, 1272, 1269
42, 1269, 1272, 1270, 505
43, 1272, 116, 127, 1270
44, 1271, 126, 116, 1272
45, 147, 137, 1276, 1273
46, 1273, 1276, 1274, 521
47, 1276, 1275, 520, 1274
48, 137, 148, 1275, 1276
49, 556, 1279, 1280, 1277
50, 1277, 1280, 1278, 552
51, 1280, 50, 61, 1278
52, 1279, 60, 50, 1280
53, 523, 1252, 1283, 1281
54, 1281, 1283, 1282, 522
55, 1283, 135, 146, 1282
56, 1252, 145, 135, 1283
57, 1374, 1090, 536, 1936
58, 2832, 367, 276, 1373
59, 2192, 2186, 2455, 2538
60, 499, 1289, 1290, 1287
61, 1287, 1290, 1288, 498
62, 1290, 14, 22, 1288
63, 1289, 21, 14, 1290
64, 66, 56, 1294, 1291
65, 1291, 1294, 1292, 528
66, 1294, 1293, 529, 1292
67, 56, 67, 1293, 1294
68, 2933, 2914, 642, 1758
69, 2844, 1117, 616, 1337
70, 2860, 2422, 2002, 1863
71, 2048, 1900, 2046, 1963
72, 2208, 2658, 1869, 2123
73, 2793, 1676, 2530, 1032
74, 566, 1996, 2678, 2421
75, 638, 1965, 1675, 1305
76, 2715, 2240, 652, 1966
77, 2881, 2009, 2354, 1986
78, 2126, 2589, 2732, 844
79, 1909, 492, 151, 1190
80, 67, 57, 1309, 1293
81, 1293, 1309, 1308, 529
82, 1309, 68, 79, 1308
83, 57, 5, 68, 1309
84, 743, 1082, 445, 198
85, 1331, 1914, 1553, 2408
86, 740, 970, 1889, 1503
87, 2738, 2096, 1191, 744
88, 2292, 729, 437, 206
89, 1315, 2848, 2679, 2034
90, 2067, 1320, 2650, 615
91, 1117, 1297, 1441, 1423
92, 1319, 2101, 619, 1118
93, 1099, 1125, 2691, 1733
94, 2660, 413, 230, 2226
95, 679, 785, 2467, 783
96, 580, 2926, 1051, 2743
97, 572, 262, 380, 1171
98, 1052, 263, 379, 1638
99, 581, 122, 112, 2916
100, 904, 1329, 1330, 1327
101, 1327, 1330, 1328, 906
102, 1330, 162, 480, 1328
103, 1329, 481, 162, 1330
104, 732, 193, 449, 2576
105, 1730, 1164, 2821, 1379
106, 1845, 1545, 1445, 746
107, 1484, 2771, 2588, 1165
108, 1320, 1924, 624, 2650
109, 2701, 614, 1424, 2557
110, 2085, 1860, 390, 253
111, 1728, 623, 2082, 1441
112, 653, 617, 2716, 628
113, 1493, 241, 401, 620
114, 2102, 619, 2101, 1862
115, 906, 1328, 1341, 1339
116, 1339, 1341, 1340, 905
117, 1341, 163, 479, 1340
118, 1328, 480, 163, 1341
119, 1388, 991, 939, 997
120, 1981, 916, 2028, 1412
121, 2476, 2863, 2903, 2087
122, 915, 2655, 944, 2129
123, 657, 2007, 1098, 2861
124, 2225, 2039, 639, 1222
125, 778, 1851, 1161, 2238
126, 2800, 2108, 2871, 1641
127, 759, 2782, 1352, 1935
128, 754, 2287, 1998, 755
129, 1934, 708, 1352, 2782
130, 2191, 2131, 1003, 2514
131, 2826, 2191, 2514, 1002
132, 2051, 2253, 2151, 2189
133, 800, 1357, 1358, 1355
134, 1355, 1358, 1356, 798
135, 1358, 296, 346, 1356
136, 1357, 347, 296, 1358
137, 2799, 312, 330, 2173
138, 859, 332, 311, 848
139, 1720, 1398, 319, 323
140, 2685, 1711, 850, 2405
141, 1203, 2197, 2799, 1215
142, 2312, 1726, 1365, 1879
143, 2889, 841, 317, 325
144, 1361, 2174, 2209, 2124
145, 2214, 1945, 1174, 762
146, 1947, 1367, 1409, 763
147, 1367, 1127, 2561, 1409
148, 2242, 1852, 2239, 2693
149, 62, 52, 1372, 1370
150, 1370, 1372, 1371, 551
151, 1372, 1267, 550, 1371
152, 52, 63, 1267, 1372
153, 1659, 2828, 92, 102
154, 760, 1377, 1378, 1375
155, 1375, 1378, 1376, 757
156, 1378, 214, 428, 1376
157, 1377, 429, 214, 1378
158, 1870, 2577, 2853, 734
159, 2771, 2097, 735, 2588
160, 2620, 2662, 1155, 2536
161, 706, 733, 712, 2112
162, 1884, 199, 443, 2017
163, 727, 444, 199, 1884
164, 1313, 2537, 729, 722
165, 2528, 476, 167, 2060
166, 1505, 979, 1354, 2626
167, 2896, 2895, 2272, 1671
168, 2189, 2151, 177, 465
169, 2709, 1025, 1464, 1217
170, 930, 933, 557, 984
171, 1415, 2795, 2784, 940
172, 938, 2103, 1057, 2695
173, 937, 920, 986, 2253
174, 1194, 983, 1388, 1710
175, 2203, 1505, 2626, 2527
176, 941, 2460, 179, 463
177, 1389, 2847, 945, 2640
178, 1998, 2287, 1961, 760
179, 2072, 753, 2287, 754
180, 2688, 759, 1935, 2200
181, 2726, 2291, 2181, 1501
182, 610, 1396, 1397, 1394
183, 1621, 2436, 1053, 593
184, 1397, 258, 384, 1395
185, 1396, 385, 258, 1397
186, 855, 1188, 1218, 892
187, 1882, 1546, 327, 316
188, 1977, 2407, 1979, 2293
189, 845, 893, 2629, 545
190, 61, 51, 1402, 1278
191, 1278, 1402, 1401, 552
192, 1402, 1370, 551, 1401
193, 51, 62, 1370, 1402
194, 2109, 1529, 1669, 1158
195, 1992, 415, 228, 664
196, 2160, 2298, 1321, 2442
197, 2340, 2670, 2669, 761
198, 495, 1407, 1408, 1406
199, 1406, 1408, 1242, 496
200, 1408, 11, 19, 1242
201, 1407, 18, 11, 1408
202, 763, 1409, 1600, 771
203, 1347, 2237, 1186, 2929
204, 765, 2027, 1369, 1483
205, 761, 777, 1650, 2228
206, 980, 1094, 2719, 2235
207, 1195, 976, 2520, 2645
208, 2247, 1413, 921, 1660
209, 1724, 1285, 1524, 811
210, 2470, 2532, 501, 2775
211, 1025, 360, 283, 1464
212, 730, 1314, 1181, 1846
213, 2097, 699, 698, 735
214, 2137, 2015, 1872, 2620
215, 2612, 1534, 543, 1189
216, 2628, 539, 841, 2889
217, 2124, 2209, 1400, 2175
218, 1033, 2196, 2699, 885
219, 605, 2065, 1143, 2068
220, 2687, 2550, 2244, 2797
221, 1333, 1532, 2651, 2066
222, 949, 1427, 1428, 1425
223, 1425, 1428, 1426, 934
224, 1428, 185, 457, 1426
225, 1427, 458, 185, 1428
226, 775, 643, 668, 1119
227, 2329, 2242, 2693, 2704
228, 776, 787, 758, 2737
229, 2438, 1461, 1667, 2391
230, 749, 645, 679, 2659
231, 2399, 2881, 1986, 666
232, 985, 2094, 1699, 2504
233, 1506, 937, 2253, 2051
234, 1436, 35, 43, 1254
235, 1435, 42, 35, 1436
236, 1362, 1203, 1215, 2334
237, 2165, 334, 309, 500
238, 2003, 650, 400, 243
239, 627, 2574, 2551, 563
240, 1862, 2487, 2574, 627
241, 2576, 449, 194, 737
242, 547, 790, 1110, 1109
243, 2336, 1972, 2208, 856
244, 2197, 331, 312, 2799
245, 1731, 1867, 859, 893
246, 1334, 2652, 393, 250
247, 1318, 1925, 1319, 1926
248, 1182, 247, 395, 2682
249, 41, 1452, 1453, 33
250, 33, 1453, 1450, 40
251, 1453, 1451, 555, 1450
252, 1452, 554, 1451, 1453
253, 723, 727, 1884, 1380
254, 716, 2113, 1076, 2384
255, 2513, 2705, 1559, 1967
256, 2374, 2376, 2604, 824
257, 2098, 2308, 2734, 2579
258, 1084, 2873, 1458, 820
259, 2575, 78, 6, 1232
260, 817, 1560, 1459, 1460
261, 1560, 357, 286, 1459
262, 761, 2669, 2042, 777
263, 763, 771, 779, 2213
264, 1903, 768, 2027, 765
265, 2442, 1321, 1536, 2441
266, 1284, 1659, 102, 93
267, 2192, 104, 95, 2186
268, 1374, 588, 514, 1090
269, 497, 1244, 1466, 1465
270, 1465, 1466, 1289, 499
271, 1466, 13, 21, 1289
272, 1244, 20, 13, 1466
273, 1048, 1049, 1021, 1526
274, 1525, 812, 362, 281
275, 586, 371, 272, 589
276, 834, 1831, 1830, 2406
277, 837, 341, 302, 2846
278, 461, 182, 1475, 1344
279, 1344, 1475, 1473, 946
280, 1475, 1474, 947, 1473
281, 182, 460, 1474, 1475
282, 947, 1474, 1478, 1476
283, 1476, 1478, 1477, 950
284, 1478, 183, 459, 1477
285, 1474, 460, 183, 1478
286, 1047, 394, 249, 1551
287, 1214, 1208, 2884, 653
288, 2577, 740, 1312, 2853
289, 699, 1444, 2207, 1082
290, 2646, 1891, 1913, 1311
291, 1600, 2468, 2355, 2369
292, 1530, 1598, 2377, 772
293, 694, 1901, 767, 786
294, 1923, 1903, 765, 2692
295, 1081, 966, 2096, 2738
296, 1445, 2204, 195, 447
297, 971, 1036, 2431, 731
298, 1970, 2052, 2154, 1444
299, 902, 1487, 1488, 1486
300, 1486, 1488, 1329, 904
301, 1488, 161, 481, 1329
302, 1487, 482, 161, 1488
303, 1191, 1912, 1914, 1331
304, 1165, 2588, 1071, 2014
305, 1481, 968, 736, 700
306, 757, 1376, 1491, 1490
307, 1668, 1211, 1367, 1947
308, 1376, 428, 215, 1491
309, 2482, 1043, 632, 1296
310, 603, 2531, 2153, 2152
311, 1335, 1422, 613, 612
312, 1573, 585, 2582, 1527
313, 1467, 1573, 1527, 1470
314, 1526, 1021, 1494, 585
315, 1049, 587, 1574, 1528
316, 975, 2644, 1040, 977
317, 1496, 1498, 1450, 555
318, 1498, 32, 40, 1450
319, 1497, 3, 32, 1498
320, 2201, 2074, 1999, 713
321, 2684, 2751, 2384, 1076
322, 1350, 1568, 2180, 2663
323, 2792, 1500, 2074, 2201
324, 1142, 721, 716, 2512
325, 1601, 204, 438, 1316
326, 2875, 2725, 2134, 987
327, 2641, 1383, 983, 1194
328, 2105, 2146, 987, 992
329, 2533, 1660, 1152, 1661
330, 2480, 834, 2406, 1124
331, 1507, 2031, 2030, 1111
332, 830, 832, 2031, 1507
333, 2492, 2255, 2375, 822
334, 823, 826, 1457, 1642
335, 1694, 2780, 2575, 1766
336, 820, 1458, 2255, 2492
337, 127, 117, 1514, 1270
338, 1270, 1514, 1512, 505
339, 1514, 1513, 504, 1512
340, 117, 128, 1513, 1514
341, 1108, 584, 814, 1024
342, 1024, 2709, 90, 100
343, 456, 187, 1519, 1516
344, 1516, 1519, 1517, 935
345, 1519, 1518, 936, 1517
346, 187, 455, 1518, 1519
347, 939, 1506, 2051, 2877
348, 916, 1219, 2413, 2028
349, 2151, 931, 466, 177
350, 2649, 2133, 2904, 2094
351, 1197, 1196, 152, 490
352, 1173, 2167, 2774, 2657
353, 2456, 368, 275, 1723
354, 1284, 1416, 588, 1374
355, 1107, 105, 96, 1691
356, 1049, 1528, 2808, 1021
357, 1048, 1737, 1736, 1023
358, 1494, 1469, 589, 1495
359, 1527, 2582, 273, 369
360, 2670, 2438, 2391, 2669
361, 780, 216, 426, 1368
362, 2914, 2241, 2115, 642
363, 2121, 625, 2702, 2489
364, 1533, 2089, 2790, 2665
365, 604, 1334, 250, 392
366, 1440, 2269, 2788, 871
367, 2176, 1360, 318, 324
368, 2294, 2837, 336, 307
369, 1080, 2888, 2045, 1112
370, 1346, 1921, 2562, 2298
371, 567, 2931, 1349, 2240
372, 2722, 2363, 2237, 1347
373, 561, 1538, 1539, 1537
374, 1537, 1539, 1279, 556
375, 1539, 49, 60, 1279
376, 1538, 59, 49, 1539
377, 2816, 1541, 1716, 1776
378, 2927, 1231, 2823, 2509
379, 2510, 2921, 1103, 574
380, 1077, 2306, 1122, 511
381, 718, 526, 2674, 1847
382, 1847, 2674, 1502, 711
383, 2707, 1911, 527, 1153
384, 2335, 2866, 2314, 2332
385, 1547, 2746, 2198, 1697
386, 862, 1168, 2196, 1033
387, 892, 1218, 1447, 2720
388, 1864, 563, 1442, 626
389, 2004, 2343, 244, 398
390, 454, 189, 1554, 1552
391, 1552, 1554, 1553, 960
392, 607, 1557, 1558, 1555
393, 1555, 1558, 1556, 608
394, 1558, 256, 386, 1556
395, 1557, 387, 256, 1558
396, 725, 696, 718, 1075
397, 1480, 1310, 1545, 1845
398, 1871, 1071, 2016, 726
399, 2706, 2512, 2383, 2752
400, 1091, 512, 582, 1588
401, 1416, 103, 94, 1106
402, 1351, 710, 1391, 709
403, 1657, 1658, 1499, 1500
404, 710, 1997, 1561, 2072
405, 861, 1366, 2854, 539
406, 864, 1522, 1909, 2303
407, 1437, 2125, 1115, 2057
408, 46, 39, 1567, 1565
409, 1565, 1567, 1566, 562
410, 1567, 47, 58, 1566
411, 39, 4, 47, 1567
412, 1350, 1393, 1962, 1351
413, 1393, 713, 2726, 1962
414, 1350, 714, 751, 1393
415, 760, 1961, 2183, 1377
416, 2634, 2441, 2850, 689
417, 2239, 2861, 2933, 1758
418, 1404, 691, 2660, 1403
419, 1470, 1527, 369, 274
420, 1574, 1022, 513, 1528
421, 2815, 1689, 1691, 1690
422, 1022, 372, 271, 513
423, 927, 942, 1092, 1575
424, 1014, 2367, 2795, 1415
425, 979, 172, 470, 1354
426, 921, 1677, 2146, 2105
427, 2736, 1099, 1733, 1531
428, 2010, 2398, 1578, 781
429, 665, 693, 1429, 2362
430, 648, 2703, 1852, 2242
431, 455, 188, 1580, 1518
432, 1518, 1580, 1579, 936
433, 1580, 1552, 960, 1579
434, 188, 454, 1552, 1580
435, 22, 15, 1583, 1288
436, 1288, 1583, 1581, 498
437, 2358, 2136, 2138, 2357
438, 15, 23, 1582, 1583
439, 1867, 310, 332, 859
440, 2632, 853, 486, 157
441, 898, 867, 487, 156
442, 45, 38, 1585, 1236
443, 1236, 1585, 1584, 560
444, 1585, 1565, 562, 1584
445, 38, 46, 1565, 1585
446, 1597, 1463, 815, 2776
447, 1373, 276, 366, 1524
448, 1468, 1936, 279, 363
449, 459, 184, 1587, 1477
450, 1477, 1587, 1586, 950
451, 1587, 1427, 949, 1586
452, 184, 458, 1427, 1587
453, 1416, 1106, 1061, 588
454, 386, 257, 1590, 1556
455, 1556, 1590, 1589, 608
456, 1590, 1396, 610, 1589
457, 257, 385, 1396, 1590
458, 577, 1131, 2118, 1077
459, 516, 111, 122, 581
460, 1790, 1591, 1777, 1630
461, 590, 2439, 1592, 1541
462, 1972, 2371, 2658, 2208
463, 2123, 1869, 2834, 2165
464, 802, 1508, 2812, 1472
465, 2005, 1062, 2041, 688
466, 1368, 426, 217, 774
467, 1483, 1369, 1902, 1904
468, 972, 1081, 2738, 1870
469, 1316, 438, 205, 2537
470, 711, 1502, 2033, 1632
471, 522, 1282, 1603, 1602
472, 1602, 1603, 1273, 521
473, 1603, 136, 147, 1273
474, 1282, 146, 136, 1603
475, 525, 1606, 1607, 1604
476, 1604, 1607, 1605, 524
477, 1607, 26, 30, 1605
478, 1606, 29, 26, 1607
479, 1762, 1548, 1522, 864
480, 889, 852, 1734, 1549
481, 860, 1725, 1198, 2727
482, 1890, 1729, 741, 965
483, 2097, 1970, 1444, 699
484, 1533, 2665, 2667, 2666
485, 1612, 1611, 611, 1610
486, 254, 388, 1611, 1612
487, 2439, 1171, 1052, 1592
488, 577, 1077, 511, 1325
489, 1613, 2886, 1790, 1324
490, 2162, 1340, 479, 164
491, 924, 1353, 1381, 1670
492, 349, 294, 1620, 1617
493, 1617, 1620, 1618, 808
494, 1620, 1619, 809, 1618
495, 294, 348, 1619, 1620
496, 1123, 1326, 1050, 2855
497, 2743, 572, 1171, 2439
498, 2306, 1395, 1128, 1122
499, 2687, 2555, 2556, 2550
500, 2088, 2594, 564, 1925
501, 1144, 2844, 1337, 2065
502, 2082, 396, 247, 1182
503, 65, 55, 1626, 1260
504, 1260, 1626, 1625, 548
505, 1626, 1291, 528, 1625
506, 55, 66, 1291, 1626
507, 128, 118, 1628, 1513
508, 1513, 1628, 1627, 504
509, 1628, 129, 140, 1627
510, 118, 8, 129, 1628
511, 2887, 516, 1018, 2729
512, 2887, 121, 111, 516
513, 1688, 596, 108, 119
514, 1181, 202, 440, 1140
515, 1658, 1153, 435, 208
516, 726, 1380, 1454, 1455
517, 2202, 1415, 940, 913
518, 1342, 2564, 915, 2104
519, 1596, 355, 288, 826
520, 2610, 2494, 1510, 2493
521, 1636, 1617, 808, 1635
522, 293, 349, 1617, 1636
523, 1394, 1397, 1395, 2306
524, 509, 2740, 1674, 1614
525, 1326, 2916, 2570, 1050
526, 1062, 2006, 1157, 2041
527, 783, 2467, 2463, 1706
528, 2872, 2735, 2108, 2800
529, 631, 661, 2012, 637
530, 1644, 1768, 1084, 825
531, 2890, 2100, 2479, 2309
532, 348, 295, 1646, 1619
533, 1619, 1646, 1645, 809
534, 1646, 1357, 800, 1645
535, 295, 347, 1357, 1646
536, 801, 1648, 1649, 1647
537, 1647, 1649, 1508, 802
538, 1649, 298, 344, 1508
539, 1648, 345, 298, 1649
540, 2340, 761, 2228, 1210
541, 1599, 2220, 1121, 764
542, 1707, 2462, 2694, 1899
543, 1995, 1531, 409, 234
544, 579, 1629, 2839, 2926
545, 1023, 1736, 1814, 1813
546, 587, 2593, 1653, 1574
547, 149, 139, 1656, 1655
548, 1655, 1656, 1407, 495
549, 1656, 10, 18, 1407
550, 139, 1, 10, 1656
551, 1075, 718, 1847, 1418
552, 2859, 1631, 1154, 2705
553, 2663, 705, 2770, 2073
554, 1500, 1499, 1392, 2074
555, 514, 1286, 2193, 1285
556, 2828, 1722, 101, 92
557, 2186, 1107, 583, 2455
558, 911, 2087, 920, 937
559, 1937, 1710, 1576, 1684
560, 1384, 1848, 2778, 1709
561, 2548, 1014, 1415, 2202
562, 795, 1080, 1112, 833
563, 1115, 545, 1362, 1399
564, 2831, 1113, 2581, 2865
565, 934, 1426, 1664, 1663
566, 1663, 1664, 1516, 935
567, 1664, 186, 456, 1516
568, 1426, 457, 186, 1664
569, 798, 1356, 1666, 1665
570, 1665, 1666, 1648, 801
571, 1666, 297, 345, 1648
572, 1356, 346, 297, 1666
573, 767, 2261, 1121, 2220
574, 664, 228, 414, 2195
575, 1430, 2390, 680, 2542
576, 1945, 2056, 1490, 1174
577, 2466, 782, 1178, 2928
578, 1490, 1491, 1987, 1174
579, 917, 2528, 2060, 2484
580, 1981, 1412, 1193, 2627
581, 2894, 2893, 929, 2874
582, 2252, 2368, 2642, 2544
583, 2830, 2817, 2863, 2476
584, 877, 1382, 2284, 925
585, 1952, 802, 1472, 2222
586, 1202, 1976, 2552, 1712
587, 2729, 1018, 1230, 2741
588, 1542, 2887, 2729, 2730
589, 2301, 402, 241, 1493
590, 655, 2420, 2004, 2025
591, 1964, 2569, 659, 2246
592, 614, 612, 2164, 1424
593, 831, 1593, 2774, 2167
594, 1681, 305, 337, 1721
595, 538, 338, 305, 1681
596, 2549, 2627, 930, 2380
597, 1848, 2830, 2476, 2778
598, 1056, 2059, 1014, 2548
599, 1193, 2161, 1086, 933
600, 2273, 795, 2560, 1711
601, 2833, 2865, 789, 836
602, 2221, 304, 338, 538
603, 1833, 1471, 542, 828
604, 896, 1206, 2632, 1682
605, 2086, 320, 322, 2302
606, 1682, 2632, 157, 485
607, 884, 2270, 1307, 2746
608, 917, 2285, 1016, 2528
609, 2271, 925, 165, 477
610, 2272, 2874, 2565, 2396
611, 1963, 2046, 661, 631
612, 659, 2715, 1966, 1757
613, 2881, 2245, 2835, 2009
614, 2610, 2493, 2546, 2873
615, 2777, 1695, 798, 1665
616, 2205, 2310, 807, 2206
617, 1789, 2917, 594, 2436
618, 2617, 1832, 510, 2618
619, 1638, 379, 264, 578
620, 494, 2925, 1017, 2917
621, 106, 1690, 1691, 96
622, 813, 2471, 365, 278
623, 1722, 1525, 584, 1108
624, 2808, 586, 589, 1469
625, 1015, 1981, 2627, 2549
626, 1983, 2323, 941, 2723
627, 1660, 921, 2105, 1152
628, 2206, 807, 801, 1647
629, 2376, 820, 2492, 2604
630, 2603, 818, 823, 1510
631, 1521, 2523, 2864, 2078
632, 2754, 150, 9, 1548
633, 554, 1452, 1700, 1699
634, 2504, 1435, 1436, 1006
635, 1700, 34, 42, 1435
636, 1452, 41, 34, 1700
637, 611, 1611, 1702, 1701
638, 1701, 1702, 1557, 607
639, 1702, 255, 387, 1557
640, 1611, 388, 255, 1702
641, 524, 1605, 1705, 1703
642, 1703, 1705, 1704, 553
643, 1705, 27, 31, 1704
644, 1605, 30, 27, 1705
645, 1640, 2858, 1097, 667
646, 1966, 652, 640, 1687
647, 649, 1493, 620, 617
648, 640, 1993, 2676, 2039
649, 1640, 2329, 2704, 2858
650, 1186, 2237, 1099, 2736
651, 1775, 261, 381, 2787
652, 2787, 381, 262, 572
653, 1716, 1622, 1169, 1652
654, 2900, 2899, 1382, 877
655, 2059, 918, 2367, 1014
656, 1679, 2540, 1109, 1110
657, 1546, 2566, 315, 327
658, 483, 160, 1715, 1713
659, 1713, 1715, 1714, 903
660, 1715, 1487, 902, 1714
661, 160, 482, 1487, 1715
662, 1804, 1069, 2918, 2921
663, 2509, 2823, 266, 376
664, 1542, 110, 121, 2887
665, 2469, 1467, 1470, 2456
666, 583, 1689, 2518, 2110
667, 1060, 285, 357, 1560
668, 545, 2629, 1203, 1362
669, 2212, 313, 329, 2755
670, 2320, 863, 1172, 1564
671, 1079, 1595, 534, 2578
672, 533, 1301, 2611, 2559
673, 1111, 2030, 2222, 2481
674, 536, 813, 278, 364
675, 1284, 1468, 1717, 1659
676, 1285, 2193, 1373, 1524
677, 2186, 95, 105, 1107
678, 814, 584, 361, 282
679, 1284, 1374, 1936, 1468
680, 1524, 366, 277, 811
681, 2122, 1895, 843, 2566
682, 1070, 2126, 844, 2317
683, 2820, 2472, 1894, 1875
684, 2681, 1317, 2701, 1448
685, 1479, 242, 400, 650
686, 2646, 2019, 2526, 1891
687, 1164, 1485, 739, 2821
688, 699, 1082, 743, 698
689, 731, 2431, 2430, 966
690, 1398, 2176, 324, 319
691, 2696, 1149, 2628, 1880
692, 2755, 329, 314, 1895
693, 1986, 2354, 2722, 2144
694, 2009, 2835, 2062, 2143
695, 2005, 688, 1572, 2673
696, 844, 2732, 1718, 2270
697, 1718, 1865, 2857, 1523
698, 853, 898, 156, 486
699, 2175, 1400, 1534, 2612
700, 107, 1736, 1737, 97
701, 97, 1737, 1690, 106
702, 2582, 1495, 370, 273
703, 81, 71, 1740, 1248
704, 1248, 1740, 1738, 531
705, 1740, 1739, 532, 1738
706, 71, 82, 1739, 1740
707, 1005, 1743, 1744, 1741
708, 1741, 1744, 1255, 559
709, 1744, 1742, 558, 1255
710, 1743, 1004, 1742, 1744
711, 2, 25, 1747, 1745
712, 1745, 1747, 1746, 493
713, 1747, 1606, 525, 1746
714, 25, 29, 1606, 1747
715, 896, 1682, 1750, 1748
716, 1748, 1750, 1749, 895
717, 1750, 158, 484, 1749
718, 1682, 485, 158, 1750
719, 507, 1752, 1753, 1751
720, 1751, 1753, 1271, 506
721, 1753, 115, 126, 1271
722, 1752, 125, 115, 1753
723, 24, 17, 1756, 1754
724, 2360, 2752, 2383, 2290
725, 1756, 1745, 493, 1755
726, 17, 2, 1745, 1756
727, 1431, 2226, 230, 412
728, 2047, 2800, 1641, 2932
729, 2933, 1964, 2246, 2672
730, 1222, 639, 638, 2344
731, 529, 1308, 1760, 1759
732, 1759, 1760, 1246, 530
733, 1760, 69, 80, 1246
734, 1308, 79, 69, 1760
735, 2657, 2774, 2405, 846
736, 2302, 322, 150, 2754
737, 1727, 500, 2631, 1177
738, 849, 2124, 2175, 1440
739, 484, 159, 1764, 1749
740, 1749, 1764, 1763, 895
741, 1764, 1713, 903, 1763
742, 159, 483, 1713, 1764
743, 1766, 1644, 825, 1511
744, 1811, 1825, 75, 86
745, 1765, 1509, 2545, 1233
746, 23, 16, 1770, 1582
747, 710, 2072, 754, 1391
748, 1632, 2033, 2680, 720
749, 16, 24, 1754, 1770
750, 562, 1566, 1772, 1771
751, 1771, 1772, 1538, 561
752, 1772, 48, 59, 1538
753, 1566, 58, 48, 1772
754, 553, 1704, 1774, 1773
755, 2444, 977, 974, 2425
756, 1774, 28, 3, 1497
757, 1704, 31, 28, 1774
758, 574, 1103, 2886, 1613
759, 2836, 1054, 2553, 1803
760, 1019, 2923, 1621, 2617
761, 595, 600, 1789, 2923
762, 504, 1627, 1779, 1778
763, 1778, 1779, 1264, 503
764, 1779, 130, 141, 1264
765, 1627, 140, 130, 1779
766, 876, 1783, 1784, 1780
767, 1780, 1784, 1781, 875
768, 1784, 1782, 879, 1781
769, 2589, 1910, 1866, 2732
770, 519, 1787, 1788, 1257
771, 1257, 1788, 1785, 518
772, 1788, 1786, 674, 1785
773, 1787, 675, 1786, 1788
774, 2925, 2919, 579, 2554
775, 1622, 1638, 578, 1169
776, 1637, 2922, 573, 2919
777, 2921, 2918, 597, 1103
778, 548, 1793, 1794, 1259
779, 1259, 1794, 1791, 549
780, 1794, 1792, 873, 1791
781, 1793, 872, 1792, 1794
782, 685, 1798, 1799, 1795
783, 1795, 1799, 1796, 684
784, 1799, 1797, 692, 1796
785, 1012, 2356, 2392, 2543
786, 876, 1780, 1802, 1800
787, 1800, 1802, 1401, 551
788, 1802, 1801, 552, 1401
789, 1780, 875, 1801, 1802
790, 580, 2743, 2439, 590
791, 1054, 1639, 374, 269
792, 1639, 1708, 268, 374
793, 522, 1806, 1807, 1281
794, 1281, 1807, 1805, 523
795, 1807, 1795, 684, 1805
796, 1806, 685, 1795, 1807
797, 508, 1809, 1810, 1808
798, 1808, 1810, 1752, 507
799, 1810, 114, 125, 1752
800, 1809, 124, 114, 1810
801, 2604, 2492, 822, 1456
802, 1636, 1233, 350, 293
803, 2623, 2749, 2278, 2277
804, 804, 2465, 1985, 1229
805, 592, 1652, 265, 377
806, 98, 1814, 1736, 107
807, 1048, 2815, 1690, 1737
808, 2926, 2839, 1540, 1051
809, 82, 72, 1817, 1739
810, 1739, 1817, 1815, 532
811, 840, 1950, 2833, 836
812, 72, 83, 1816, 1817
813, 148, 138, 1819, 1275
814, 1275, 1819, 1818, 520
815, 1819, 1655, 495, 1818
816, 138, 149, 1655, 1819
817, 2554, 580, 590, 598
818, 1395, 384, 259, 1128
819, 1777, 383, 260, 1630
820, 1629, 574, 1613, 2839
821, 518, 1785, 1822, 1240
822, 1240, 1822, 1820, 517
823, 1822, 1821, 673, 1820
824, 1785, 674, 1821, 1822
825, 85, 75, 1825, 1823
826, 1823, 1825, 1824, 534
827, 2890, 2309, 2098, 2605
828, 2605, 2098, 2579, 2580
829, 498, 1828, 1829, 1287
830, 1287, 1829, 1826, 499
831, 1829, 1827, 677, 1826
832, 1828, 678, 1827, 1829
833, 83, 73, 1831, 1816
834, 73, 84, 1830, 1831
835, 591, 2095, 2922, 1637
836, 84, 74, 1834, 1830
837, 2615, 2294, 307, 335
838, 1979, 1101, 2793, 2888
839, 74, 85, 1823, 1834
840, 959, 1836, 1837, 1029
841, 1029, 1837, 1835, 961
842, 1837, 1579, 960, 1835
843, 1836, 936, 1579, 1837
844, 2472, 2086, 2302, 1894
845, 2584, 2696, 1880, 1421
846, 2629, 848, 2197, 1203
847, 1218, 541, 540, 1447
848, 552, 1801, 1841, 1277
849, 1277, 1841, 1839, 556
850, 1841, 1840, 999, 1839
851, 1801, 875, 1840, 1841
852, 684, 1842, 1843, 1805
853, 1805, 1843, 1251, 523
854, 1843, 1787, 519, 1251
855, 1842, 675, 1787, 1843
856, 744, 1191, 1331, 970
857, 1312, 1481, 700, 1485
858, 1844, 2824, 1968, 2020
859, 1889, 2408, 2714, 1873
860, 965, 741, 2052, 1970
861, 1891, 2526, 1035, 971
862, 1544, 728, 1417, 2843
863, 1057, 1195, 2645, 2446
864, 2778, 2476, 2087, 911
865, 1678, 2447, 1342, 2050
866, 2789, 2826, 1002, 2411
867, 2260, 656, 669, 2063
868, 2363, 1187, 670, 1125
869, 2159, 1431, 412, 231
870, 1005, 1741, 1855, 1853
871, 1853, 1855, 1854, 1007
872, 1855, 1235, 560, 1854
873, 1741, 559, 1235, 1855
874, 499, 1826, 1858, 1465
875, 1465, 1858, 1856, 497
876, 1858, 1857, 676, 1856
877, 1826, 677, 1857, 1858
878, 2420, 621, 2343, 2004
879, 2482, 1296, 619, 2102
880, 2884, 649, 617, 653
881, 1442, 2882, 672, 1861
882, 630, 1861, 2818, 1183
883, 2716, 1479, 650, 2558
884, 2745, 546, 2320, 2798
885, 2746, 1307, 2319, 2198
886, 1206, 1735, 853, 2632
887, 1173, 2657, 2174, 1361
888, 1439, 2122, 2566, 1546
889, 2410, 1896, 2803, 1310
890, 2017, 443, 200, 2359
891, 546, 1761, 863, 2320
892, 900, 2321, 1066, 2264
893, 2313, 2325, 2690, 2321
894, 549, 1791, 1878, 1266
895, 1266, 1878, 1876, 550
896, 1878, 1877, 874, 1876
897, 1791, 873, 1877, 1878
898, 547, 1173, 1361, 1929
899, 1880, 2628, 2889, 1360
900, 2125, 845, 545, 1115
901, 846, 2405, 850, 2713
902, 717, 2536, 2138, 2135
903, 1154, 724, 1419, 703
904, 724, 442, 201, 1419
905, 2137, 2620, 2536, 717
906, 944, 1887, 1888, 1885
907, 1885, 1888, 1886, 948
908, 1888, 1473, 947, 1886
909, 1887, 946, 1473, 1888
910, 1898, 1484, 1165, 2409
911, 2409, 1165, 2014, 1072
912, 742, 1139, 969, 2204
913, 1311, 1913, 1081, 972
914, 1726, 2783, 1838, 1365
915, 1116, 855, 892, 847
916, 2713, 850, 1978, 1732
917, 2821, 739, 1896, 2410
918, 1484, 1890, 965, 2771
919, 2767, 689, 2328, 2245
920, 2861, 1098, 1964, 2933
921, 663, 1303, 2801, 1686
922, 2213, 779, 747, 1482
923, 1178, 782, 2438, 2670
924, 779, 2437, 2675, 747
925, 872, 1907, 1908, 1792
926, 1792, 1908, 1905, 873
927, 2500, 2499, 1114, 2728
928, 1149, 861, 539, 2628
929, 2525, 2335, 890, 2090
930, 2333, 1698, 2248, 2820
931, 1523, 2857, 867, 1719
932, 1140, 440, 203, 1180
933, 527, 719, 436, 207
934, 960, 1553, 1914, 1835
935, 1835, 1914, 1912, 961
936, 2018, 732, 2576, 1139
937, 874, 1915, 1916, 1876
938, 1876, 1916, 1371, 550
939, 1916, 1800, 551, 1371
940, 1915, 876, 1800, 1916
941, 675, 1919, 1920, 1786
942, 1786, 1920, 1917, 674
943, 1920, 1918, 671, 1917
944, 1919, 669, 1918, 1920
945, 1733, 2691, 410, 233
946, 1209, 1570, 1851, 778
947, 2224, 2634, 689, 2767
948, 2083, 2085, 253, 389
949, 622, 605, 2068, 1449
950, 873, 1905, 1930, 1877
951, 1877, 1930, 1928, 874
952, 2317, 844, 2270, 884
953, 788, 1399, 2350, 1201
954, 1304, 1994, 1225, 662
955, 2401, 647, 656, 2260
956, 2301, 2869, 240, 402
957, 1568, 2145, 2330, 2180
958, 1961, 2688, 2200, 2183
959, 750, 1562, 2782, 759
960, 1717, 1468, 363, 280
961, 1414, 2149, 2093, 2486
962, 1015, 2762, 916, 1981
963, 2253, 986, 931, 2151
964, 933, 1086, 2414, 557
965, 1449, 2068, 1335, 2119
966, 2067, 2731, 2555, 2687
967, 1156, 1221, 2003, 1212
968, 902, 1486, 1944, 1941
969, 2600, 919, 1163, 2759
970, 1944, 1943, 907, 1942
971, 1486, 904, 1943, 1944
972, 2390, 776, 2737, 680
973, 1902, 2214, 762, 1946
974, 1161, 1571, 1224, 2007
975, 2006, 2868, 2838, 2683
976, 2377, 424, 219, 2227
977, 1668, 1947, 768, 1903
978, 2027, 1482, 773, 1369
979, 1594, 1951, 342, 301
980, 1112, 2045, 1032, 2169
981, 1100, 2169, 1672, 1102
982, 1472, 2812, 2032, 797
983, 906, 1339, 1956, 1954
984, 1954, 1956, 1955, 909
985, 1956, 1849, 908, 1955
986, 1339, 905, 1849, 1956
987, 948, 1886, 1959, 1957
988, 1957, 1959, 1958, 953
989, 1959, 1476, 950, 1958
990, 1886, 947, 1476, 1959
991, 1499, 434, 209, 1392
992, 714, 752, 1933, 751
993, 1561, 1569, 1562, 750
994, 1900, 408, 235, 2046
995, 652, 2187, 1993, 640
996, 2569, 641, 2715, 659
997, 1303, 2568, 1996, 2801
998, 1153, 527, 207, 435
999, 728, 2000, 2706, 1417
1000, 1631, 2359, 724, 1154
1001, 1545, 742, 2204, 1445
1002, 1968, 1971, 1746, 525
1003, 1971, 1969, 493, 1746
1004, 1485, 700, 1332, 739
1005, 1168, 1116, 847, 2196
1006, 897, 1882, 316, 326
1007, 2658, 1100, 1102, 1869
1008, 496, 1243, 1975, 1973
1009, 1973, 1975, 1974, 681
1010, 1975, 1856, 676, 1974
1011, 1243, 497, 1856, 1975
1012, 830, 2831, 2865, 2833
1013, 1101, 1680, 1676, 2793
1014, 2209, 1879, 1438, 1400
1015, 2274, 1679, 1302, 2480
1016, 1385, 1938, 2829, 2478
1017, 2485, 940, 2784, 1504
1018, 2478, 2829, 1151, 2655
1019, 1151, 2829, 932, 2236
1020, 1984, 2890, 2605, 1812
1021, 1227, 1185, 1009, 799
1022, 799, 1009, 1695, 2777
1023, 1228, 809, 1645, 2256
1024, 2858, 2704, 2595, 2501
1025, 2361, 1707, 1899, 668
1026, 777, 694, 786, 1650
1027, 951, 1990, 1991, 1988
1028, 1988, 1991, 1989, 958
1029, 1991, 1425, 934, 1989
1030, 1990, 949, 1425, 1991
1031, 1993, 631, 637, 2676
1032, 2046, 235, 407, 661
1033, 1899, 2694, 636, 2008
1034, 2931, 1348, 2048, 1349
1035, 753, 750, 759, 2688
1036, 2183, 2200, 430, 213
1037, 1569, 1934, 2782, 1562
1038, 2712, 1911, 2707, 1543
1039, 2620, 1872, 2513, 2662
1040, 1138, 1073, 2647, 1011
1041, 1142, 1075, 1418, 721
1042, 2573, 2038, 1223, 1207
1043, 1996, 2568, 635, 2678
1044, 2421, 2301, 1493, 649
1045, 2531, 2163, 1610, 2153
1046, 2328, 690, 693, 665
1047, 2502, 1347, 2929, 2223
1048, 2400, 1405, 648, 2639
1049, 2223, 2929, 567, 641
1050, 1119, 2008, 2495, 2851
1051, 2143, 2062, 2194, 2539
1052, 1462, 1430, 2398, 2010
1053, 2316, 2121, 2489, 2001
1054, 623, 654, 397, 246
1055, 601, 248, 394, 1047
1056, 1455, 1454, 1631, 2859
1057, 2359, 200, 442, 724
1058, 1454, 2017, 2359, 1631
1059, 524, 2019, 2020, 1604
1060, 1604, 2020, 1968, 525
1061, 2842, 2014, 1071, 1871
1062, 1489, 192, 450, 2717
1063, 607, 1555, 2024, 2021
1064, 2021, 2024, 2022, 606
1065, 2024, 2023, 609, 2022
1066, 1555, 608, 2023, 2024
1067, 1861, 672, 2883, 2818
1068, 2038, 2120, 1336, 1223
1069, 2421, 2678, 2869, 2301
1070, 2676, 637, 1965, 2930
1071, 764, 1121, 422, 221
1072, 2299, 1949, 1598, 1530
1073, 2563, 778, 2238, 2703
1074, 1224, 2502, 2223, 2106
1075, 2879, 2286, 462, 181
1076, 1129, 2380, 2368, 2252
1077, 1385, 1937, 1684, 1938
1078, 2686, 2044, 1881, 2772
1079, 2812, 299, 343, 2032
1080, 2222, 1472, 797, 2481
1081, 1951, 796, 300, 342
1082, 2114, 1883, 2275, 2664
1083, 736, 451, 192, 1489
1084, 2680, 1316, 2537, 1313
1085, 602, 2036, 2037, 2035
1086, 2035, 2037, 2021, 606
1087, 2037, 1701, 607, 2021
1088, 2036, 611, 1701, 2037
1089, 2928, 1178, 1651, 2011
1090, 2401, 2400, 2639, 647
1091, 2871, 1222, 2344, 644
1092, 617, 620, 1479, 2716
1093, 1208, 2345, 566, 2884
1094, 1832, 1708, 1639, 510
1095, 2731, 2666, 571, 1673
1096, 1158, 1669, 1923, 1461
1097, 2585, 2561, 1127, 707
1098, 837, 1594, 301, 341
1099, 829, 306, 336, 2837
1100, 1301, 340, 303, 2611
1101, 2047, 2932, 2568, 1303
1102, 1338, 662, 239, 403
1103, 644, 2344, 1226, 1550
1104, 2039, 2676, 2930, 639
1105, 2424, 2484, 2876, 1633
1106, 1086, 2906, 2424, 2414
1107, 2528, 1016, 166, 476
1108, 1011, 2647, 1729, 1890
1109, 1332, 1489, 2717, 1897
1110, 2803, 2018, 1139, 742
1111, 755, 1998, 2054, 1148
1112, 1148, 2054, 2053, 756
1113, 2054, 1375, 757, 2053
1114, 1998, 760, 1375, 2054
1115, 756, 2053, 2056, 2055
1116, 762, 780, 1368, 1946
1117, 1409, 2561, 2468, 1600
1118, 2053, 757, 1490, 2056
1119, 2631, 333, 310, 1867
1120, 547, 1109, 2167, 1173
1121, 2269, 2263, 792, 2788
1122, 1447, 540, 1366, 861
1123, 2898, 1849, 905, 989
1124, 1692, 2533, 942, 927
1125, 986, 2485, 1504, 931
1126, 2633, 2905, 2891, 978
1127, 774, 217, 425, 1949
1128, 2703, 2238, 657, 1852
1129, 769, 1904, 766, 2299
1130, 692, 2063, 2064, 1796
1131, 1796, 2064, 1842, 684
1132, 2064, 1919, 675, 1842
1133, 2063, 669, 1919, 2064
1134, 615, 2081, 603, 2089
1135, 1623, 1927, 1317, 2681
1136, 1144, 1118, 1492, 2844
1137, 1925, 564, 2101, 1319
1138, 935, 1517, 2071, 2069
1139, 2069, 2071, 2070, 957
1140, 2071, 1836, 959, 2070
1141, 1517, 936, 1836, 2071
1142, 1501, 2181, 1934, 1569
1143, 1350, 1351, 709, 1568
1144, 1960, 432, 211, 708
1145, 708, 211, 431, 1352
1146, 1868, 2755, 1895, 2122
1147, 2319, 1719, 2450, 2523
1148, 893, 859, 848, 2629
1149, 904, 1327, 2080, 1943
1150, 1943, 2080, 2079, 907
1151, 2080, 1954, 909, 2079
1152, 1327, 906, 1954, 2080
1153, 2651, 2668, 2013, 2084
1154, 2066, 2651, 2084, 618
1155, 1422, 2066, 618, 613
1156, 1610, 2163, 2083, 1612
1157, 2668, 1047, 1551, 2013
1158, 1295, 1145, 2163, 2531
1159, 2076, 865, 1064, 870
1160, 867, 2857, 155, 487
1161, 2653, 1982, 943, 1383
1162, 1094, 474, 169, 2719
1163, 1926, 1319, 1118, 1144
1164, 2682, 395, 248, 601
1165, 616, 2026, 1624, 1532
1166, 1118, 619, 1296, 1492
1167, 2336, 856, 1420, 1446
1168, 1928, 2091, 1915, 874
1169, 2091, 1783, 876, 1915
1170, 720, 2680, 1313, 2848
1171, 2033, 1601, 1316, 2680
1172, 712, 1632, 720, 2907
1173, 2477, 2656, 1982, 2653
1174, 2875, 2229, 1220, 2725
1175, 2311, 2475, 2764, 2474
1176, 1087, 2789, 2411, 880
1177, 1688, 2744, 509, 596
1178, 2916, 112, 123, 2570
1179, 1729, 1379, 1010, 741
1180, 970, 1331, 2408, 1889
1181, 1010, 2410, 1310, 1480
1182, 1695, 810, 1355, 798
1183, 2309, 1227, 2308, 2098
1184, 2277, 2278, 2099, 2465
1185, 816, 1228, 2256, 1008
1186, 2724, 629, 2558, 1221
1187, 2867, 2860, 1863, 1940
1188, 2885, 1859, 625, 2121
1189, 2669, 2391, 1433, 2042
1190, 689, 2850, 690, 2328
1191, 758, 764, 221, 421
1192, 991, 2534, 1506, 939
1193, 1344, 2879, 181, 461
1194, 1412, 2028, 2633, 978
1195, 981, 1345, 955, 1055
1196, 1125, 670, 1535, 2691
1197, 2694, 225, 417, 636
1198, 2932, 1641, 1994, 1304
1199, 950, 1586, 2111, 1958
1200, 1958, 2111, 1026, 953
1201, 2111, 1990, 951, 1026
1202, 1586, 949, 1990, 2111
1203, 1141, 2712, 1543, 1883
1204, 2536, 1155, 2357, 2138
1205, 2659, 679, 783, 1175
1206, 2362, 1429, 1322, 1159
1207, 642, 2115, 630, 1183
1208, 2240, 1349, 2187, 652
1209, 610, 1394, 2118, 2117
1210, 2117, 2118, 1131, 575
1211, 2741, 1230, 1804, 599
1212, 2818, 2883, 2501, 2595
1213, 2630, 1214, 653, 628
1214, 2489, 2702, 2345, 1208
1215, 1438, 2733, 2862, 842
1216, 1679, 1110, 2541, 1302
1217, 1662, 2338, 2700, 1359
1218, 2335, 2332, 2638, 890
1219, 882, 2199, 2337, 2525
1220, 863, 1762, 864, 1172
1221, 2727, 1198, 1547, 2199
1222, 954, 2129, 2130, 2127
1223, 2127, 2130, 2128, 952
1224, 2130, 1885, 948, 2128
1225, 2129, 944, 1885, 2130
1226, 2901, 2900, 877, 1096
1227, 1911, 2034, 719, 527
1228, 2135, 2138, 2136, 697
1229, 1310, 2803, 742, 1545
1230, 2408, 1553, 1554, 2714
1231, 1001, 2141, 2142, 2139
1232, 2139, 2142, 2140, 1000
1233, 2142, 1743, 1005, 2140
1234, 2141, 1004, 1743, 2142
1235, 695, 2040, 676, 1857
1236, 2419, 1126, 2356, 1012
1237, 925, 2284, 478, 165
1238, 1066, 1205, 2600, 1204
1239, 1693, 1678, 2050, 2150
1240, 1343, 922, 2535, 2460
1241, 922, 2877, 988, 2535
1242, 1386, 2104, 954, 2654
1243, 1924, 2088, 1925, 1318
1244, 1117, 1423, 2026, 616
1245, 2153, 2036, 602, 2152
1246, 1610, 611, 2036, 2153
1247, 1503, 1192, 968, 1481
1248, 727, 743, 198, 444
1249, 739, 1332, 1897, 1896
1250, 735, 698, 723, 2016
1251, 794, 2157, 2158, 2156
1252, 2156, 2158, 1625, 528
1253, 2158, 1793, 548, 1625
1254, 2157, 872, 1793, 2158
1255, 2398, 2606, 2259, 1578
1256, 1578, 2259, 2462, 1707
1257, 1209, 1685, 2224, 1570
1258, 2447, 926, 2564, 1342
1259, 1004, 2141, 2636, 2779
1260, 2535, 988, 178, 464
1261, 2133, 2445, 2491, 2904
1262, 1349, 2048, 1963, 2187
1263, 618, 2084, 2652, 1334
1264, 624, 622, 1449, 1927
1265, 1365, 1838, 1437, 2733
1266, 1359, 2700, 1364, 544
1267, 2700, 1176, 1868, 1364
1268, 541, 1662, 1359, 540
1269, 2165, 2834, 308, 334
1270, 2169, 1032, 2530, 1672
1271, 608, 1589, 2172, 2023
1272, 2023, 2172, 2171, 609
1273, 2172, 2117, 575, 2171
1274, 1589, 610, 2117, 2172
1275, 790, 2347, 2348, 2346
1276, 1363, 1398, 1720, 1563
1277, 685, 1806, 2179, 2177
1278, 2177, 2179, 2178, 682
1279, 2179, 1602, 521, 2178
1280, 1806, 522, 1602, 2179
1281, 1997, 1501, 1569, 1561
1282, 752, 2684, 1076, 2664
1283, 2074, 1392, 2689, 1999
1284, 903, 1714, 2185, 2184
1285, 1204, 2600, 2759, 2147
1286, 1714, 902, 1941, 2185
1287, 2110, 2518, 1467, 2469
1288, 1108, 1024, 100, 91
1289, 1686, 2801, 2345, 2702
1290, 637, 2012, 1675, 1965
1291, 2081, 1623, 2681, 1295
1292, 1321, 1992, 664, 1536
1293, 914, 2061, 918, 2059
1294, 2642, 1414, 2486, 2878
1295, 2863, 2548, 2202, 2903
1296, 1936, 536, 364, 279
1297, 1659, 1717, 812, 2828
1298, 1098, 2106, 2569, 1964
1299, 749, 2659, 2400, 2401
1300, 2732, 1866, 1865, 1718
1301, 709, 1391, 1146, 748
1302, 2291, 2182, 1960, 2181
1303, 1933, 2275, 2276, 2792
1304, 2689, 433, 210, 2182
1305, 1345, 1386, 2654, 955
1306, 557, 2414, 1130, 2149
1307, 2486, 2093, 2587, 1413
1308, 2626, 1354, 1980, 2458
1309, 967, 2409, 1072, 1137
1310, 2622, 2464, 810, 537
1311, 2205, 2206, 1952, 803
1312, 2206, 1647, 802, 1952
1313, 1073, 734, 1730, 2647
1314, 2721, 738, 2135, 697
1315, 1609, 1898, 2409, 967
1316, 2057, 1115, 1399, 788
1317, 854, 2313, 2321, 900
1318, 882, 2525, 2090, 2597
1319, 901, 2856, 887, 2282
1320, 1199, 2265, 2283, 2148
1321, 2864, 1735, 1206, 2210
1322, 2523, 2450, 1735, 2864
1323, 787, 1599, 764, 758
1324, 569, 2217, 2218, 2215
1325, 2215, 2218, 2216, 570
1326, 2218, 1269, 505, 2216
1327, 2217, 506, 1269, 2218
1328, 958, 1989, 2219, 1134
1329, 1134, 2219, 2069, 957
1330, 2219, 1663, 935, 2069
1331, 1989, 934, 1663, 2219
1332, 772, 2377, 2227, 1160
1333, 1598, 218, 424, 2377
1334, 1987, 427, 216, 780
1335, 2257, 835, 2614, 1078
1336, 2032, 343, 300, 796
1337, 833, 1112, 2169, 1100
1338, 782, 1158, 1461, 2438
1339, 1650, 786, 1599, 787
1340, 1901, 687, 2261, 767
1341, 2849, 2819, 660, 2188
1342, 662, 1225, 404, 239
1343, 2639, 648, 2242, 2329
1344, 2850, 2107, 1404, 690
1345, 2354, 1187, 2363, 2722
1346, 1531, 1733, 233, 409
1347, 1946, 1368, 774, 766
1348, 1939, 2878, 2247, 1692
1349, 2565, 2378, 2191, 2826
1350, 2058, 2549, 2380, 1129
1351, 1520, 473, 170, 2459
1352, 531, 2232, 2233, 1247
1353, 1247, 2233, 2230, 530
1354, 2233, 2231, 794, 2230
1355, 2232, 793, 2231, 2233
1356, 1217, 1597, 89, 99
1357, 1597, 2776, 6, 89
1358, 1596, 2454, 287, 355
1359, 2284, 2162, 164, 478
1360, 2829, 1938, 1983, 932
1361, 989, 905, 1340, 2162
1362, 2462, 418, 225, 2694
1363, 1405, 2563, 2703, 648
1364, 1535, 1931, 411, 232
1365, 827, 2170, 2221, 1976
1366, 2552, 538, 1681, 2043
1367, 2888, 2793, 1032, 2045
1368, 2241, 1336, 2120, 2115
1369, 1860, 2557, 252, 390
1370, 2344, 638, 1305, 1226
1371, 2367, 468, 175, 2795
1372, 1412, 978, 2161, 1193
1373, 2656, 1387, 1634, 1982
1374, 1875, 1894, 2590, 1761
1375, 1548, 9, 321, 1522
1376, 2173, 330, 313, 2212
1377, 674, 1917, 2251, 1821
1378, 1821, 2251, 2249, 673
1379, 1063, 2402, 1044, 1059
1380, 1917, 671, 2250, 2251
1381, 938, 1015, 2549, 2058
1382, 942, 2382, 2763, 1092
1383, 2397, 913, 940, 2485
1384, 1684, 1576, 1343, 2323
1385, 1085, 2374, 824, 1509
1386, 2825, 1456, 291, 351
1387, 1812, 2605, 2580, 1824
1388, 818, 1596, 826, 823
1389, 2846, 302, 340, 1301
1390, 1950, 832, 830, 2833
1391, 2029, 839, 831, 2540
1392, 828, 542, 1202, 2044
1393, 2353, 1483, 1904, 769
1394, 2391, 1667, 1120, 1433
1395, 770, 683, 2040, 695
1396, 528, 1292, 2262, 2156
1397, 2156, 2262, 2230, 794
1398, 2262, 1759, 530, 2230
1399, 1292, 529, 1759, 2262
1400, 889, 1549, 860, 2076
1401, 1400, 1438, 842, 1534
1402, 1549, 1734, 2745, 2318
1403, 2314, 900, 2264, 2332
1404, 2332, 2264, 1162, 2638
1405, 2266, 1748, 895, 2265
1406, 1893, 896, 1748, 2266
1407, 2268, 1828, 498, 1581
1408, 2267, 678, 1828, 2268
1409, 2583, 1190, 151, 491
1410, 1734, 2870, 546, 2745
1411, 1215, 2799, 2173, 1167
1412, 868, 1564, 866, 2708
1413, 2146, 1381, 2875, 987
1414, 1471, 2559, 827, 542
1415, 1039, 2529, 1950, 840
1416, 2274, 2370, 1034, 2029
1417, 1039, 1124, 1079, 2529
1418, 1559, 703, 730, 745
1419, 1351, 1962, 1997, 710
1420, 2200, 1935, 212, 430
1421, 1838, 791, 2125, 1437
1422, 2078, 2864, 2210, 2075
1423, 2750, 804, 1229, 1984
1424, 2100, 816, 1008, 2479
1425, 806, 1694, 819, 2623
1426, 565, 2483, 568, 2488
1427, 2249, 2281, 2279, 673
1428, 2281, 2215, 570, 2279
1429, 1063, 1046, 1058, 569
1430, 895, 1763, 2283, 2265
1431, 2184, 2185, 2601, 2315
1432, 1763, 903, 2184, 2283
1433, 1381, 1353, 2229, 2875
1434, 1633, 2876, 2516, 1434
1435, 2794, 924, 1670, 881
1436, 2874, 929, 2378, 2565
1437, 987, 2134, 2395, 992
1438, 1092, 2763, 2817, 2830
1439, 766, 774, 1949, 2299
1440, 777, 2042, 1948, 694
1441, 1419, 201, 441, 1314
1442, 702, 715, 2267, 2268
1443, 2827, 1770, 1754, 704
1444, 2659, 1175, 1405, 2400
1445, 1102, 1672, 2294, 2615
1446, 2044, 1202, 1712, 1881
1447, 1953, 1078, 1951, 1594
1448, 609, 2171, 2297, 2295
1449, 2295, 2297, 2296, 571
1450, 2297, 1132, 576, 2296
1451, 2171, 575, 1132, 2297
1452, 2227, 219, 423, 687
1453, 2145, 748, 2437, 1013
1454, 752, 2664, 2275, 1933
1455, 2288, 1922, 1530, 772
1456, 1226, 1305, 237, 405
1457, 2067, 1533, 2666, 2731
1458, 2002, 2724, 1221, 1156
1459, 865, 2727, 2199, 882
1460, 2590, 2754, 1548, 1762
1461, 1697, 2198, 1521, 2451
1462, 1307, 1523, 1719, 2319
1463, 560, 1584, 2305, 1854
1464, 1854, 2305, 2304, 1007
1465, 2305, 1771, 561, 2304
1466, 1584, 562, 1771, 2305
1467, 1122, 1128, 1777, 1591
1468, 1123, 2855, 576, 2920
1469, 1185, 2622, 537, 1009
1470, 1984, 1229, 2100, 2890
1471, 2465, 2099, 535, 1985
1472, 1887, 1151, 2236, 946
1473, 1906, 2474, 1064, 2597
1474, 2911, 1782, 1784, 1783
1475, 2283, 2184, 2315, 2148
1476, 1196, 2583, 491, 152
1477, 919, 2616, 1216, 1163
1478, 1043, 2385, 655, 1298
1479, 661, 407, 236, 2012
1480, 1348, 1995, 1900, 2048
1481, 633, 627, 563, 1864
1482, 1033, 885, 1698, 2211
1483, 1865, 1866, 154, 488
1484, 2333, 2820, 1875, 2870
1485, 1176, 2212, 2755, 1868
1486, 2148, 2315, 899, 888
1487, 2094, 2904, 554, 1699
1488, 2286, 2723, 180, 462
1489, 503, 2326, 2327, 1778
1490, 1778, 2327, 1512, 504
1491, 2327, 2216, 505, 1512
1492, 2326, 570, 2216, 2327
1493, 1126, 677, 1827, 2356
1494, 1482, 747, 1432, 773
1495, 1874, 2266, 2265, 1199
1496, 2325, 1874, 1199, 891
1497, 1162, 1204, 2147, 2697
1498, 1633, 1434, 2586, 1130
1499, 1719, 867, 898, 2450
1500, 2196, 847, 1306, 2699
1501, 2472, 1563, 1720, 2086
1502, 2270, 1718, 1523, 1307
1503, 814, 282, 360, 1025
1504, 1460, 1459, 2234, 2454
1505, 1126, 695, 1857, 677
1506, 2690, 901, 2282, 1205
1507, 543, 2166, 855, 1116
1508, 2589, 2708, 1683, 1910
1509, 1725, 2317, 884, 1198
1510, 632, 1043, 1298, 1728
1511, 654, 2025, 245, 397
1512, 1931, 2159, 231, 411
1513, 1534, 842, 2166, 543
1514, 2346, 2348, 1738, 532
1515, 2348, 2232, 531, 1738
1516, 2347, 793, 2232, 2348
1517, 517, 1820, 2349, 1263
1518, 1263, 2349, 2326, 503
1519, 2349, 2279, 570, 2326
1520, 1820, 673, 2279, 2349
1521, 1201, 2350, 1662, 541
1522, 856, 2208, 2123, 1727
1523, 2862, 2057, 788, 851
1524, 2854, 858, 1882, 897
1525, 793, 2351, 2352, 2231
1526, 2231, 2352, 2157, 794
1527, 2352, 1907, 872, 2157
1528, 1732, 2336, 1446, 2783
1529, 687, 423, 220, 2261
1530, 786, 767, 2220, 1599
1531, 1571, 2144, 2502, 1224
1532, 1157, 2331, 1211, 1529
1533, 2608, 702, 701, 2827
1534, 2608, 1769, 2607, 1089
1535, 1074, 2511, 2136, 2358
1536, 1180, 203, 439, 2092
1537, 2737, 758, 421, 222
1538, 770, 2753, 2339, 683
1539, 2929, 1186, 2931, 567
1540, 520, 1818, 2365, 2364
1541, 2364, 2365, 1973, 681
1542, 2365, 1406, 496, 1973
1543, 1818, 495, 1406, 2365
1544, 978, 2891, 2892, 2161
1545, 2903, 2202, 913, 2397
1546, 2235, 2719, 1520, 2791
1547, 1671, 2272, 2396, 2761
1548, 2355, 686, 2330, 2369
1549, 2693, 2239, 1758, 2243
1550, 1175, 1179, 2563, 1405
1551, 2713, 1732, 2783, 1726
1552, 790, 2346, 2541, 1110
1553, 1711, 2560, 1978, 850
1554, 683, 2339, 2373, 2372
1555, 2372, 2373, 2177, 682
1556, 2373, 1798, 685, 2177
1557, 747, 2675, 2055, 1432
1558, 1643, 289, 353, 1767
1559, 819, 1511, 2374, 1085
1560, 2254, 1643, 1767, 1083
1561, 1085, 1509, 1765, 2749
1562, 2419, 770, 695, 1126
1563, 2300, 2838, 1797, 2804
1564, 2419, 2585, 2753, 770
1565, 945, 2653, 1383, 2641
1566, 2516, 994, 1094, 980
1567, 985, 2504, 2381, 2805
1568, 1089, 1105, 2609, 715
1569, 2721, 697, 1969, 1971
1570, 1155, 2843, 2508, 2357
1571, 1063, 569, 2215, 2281
1572, 2404, 2487, 564, 2594
1573, 2387, 1751, 506, 2217
1574, 2386, 507, 1751, 2387
1575, 556, 1839, 2389, 1537
1576, 1537, 2389, 2304, 561
1577, 2389, 2388, 1007, 2304
1578, 1839, 999, 2388, 2389
1579, 1012, 2543, 686, 2355
1580, 658, 2440, 1062, 2005
1581, 999, 2393, 2394, 2388
1582, 2388, 2394, 1853, 1007
1583, 2394, 2140, 1005, 1853
1584, 2393, 1000, 2140, 2394
1585, 2601, 2342, 1065, 1892
1586, 2460, 2535, 464, 179
1587, 2149, 1130, 2586, 2093
1588, 1982, 1634, 1384, 943
1589, 749, 658, 784, 645
1590, 2691, 1535, 232, 410
1591, 647, 2639, 2329, 1640
1592, 2298, 2562, 1992, 1321
1593, 2814, 2496, 2497, 568
1594, 1758, 642, 1183, 2243
1595, 2280, 2882, 2551, 651
1596, 1059, 1044, 2883, 672
1597, 1306, 2720, 1149, 2696
1598, 2718, 2842, 2137, 717
1599, 2447, 2517, 2366, 926
1600, 983, 1850, 991, 1388
1601, 981, 1055, 976, 1195
1602, 2185, 1941, 2342, 2601
1603, 878, 2417, 2418, 2415
1604, 2415, 2418, 2416, 879
1605, 2418, 2139, 1000, 2416
1606, 2417, 1001, 2139, 2418
1607, 2543, 2591, 2592, 686
1608, 2804, 1797, 1799, 1798
1609, 1377, 2183, 213, 429
1610, 1221, 2558, 650, 2003
1611, 634, 1207, 1213, 2867
1612, 2103, 981, 1195, 1057
1613, 2423, 2458, 914, 1577
1614, 994, 168, 474, 1094
1615, 2587, 881, 1670, 1677
1616, 1040, 2813, 1042, 2769
1617, 2425, 2429, 2426, 973
1618, 2429, 2427, 964, 2426
1619, 2428, 962, 2427, 2429
1620, 964, 2430, 2431, 2426
1621, 2426, 2431, 1036, 973
1622, 1898, 1011, 1890, 1484
1623, 1139, 2576, 737, 969
1624, 956, 2433, 2434, 2432
1625, 975, 1496, 2773, 2644
1626, 977, 1040, 2769, 974
1627, 2433, 962, 2428, 2434
1628, 1323, 2816, 1776, 1231
1629, 1171, 380, 263, 1052
1630, 510, 1639, 1054, 2836
1631, 2730, 2729, 2741, 2095
1632, 1105, 2360, 2290, 1088
1633, 2276, 1657, 1500, 2792
1634, 511, 1122, 1591, 2806
1635, 1592, 1052, 1638, 1622
1636, 1104, 109, 120, 1068
1637, 670, 2539, 1931, 1535
1638, 658, 2005, 2673, 784
1639, 646, 2011, 2010, 781
1640, 875, 1781, 2443, 1840
1641, 1840, 2443, 2393, 999
1642, 2443, 2416, 1000, 2393
1643, 1781, 879, 2416, 2443
1644, 2813, 2768, 1041, 1042
1645, 1773, 2444, 1037, 553
1646, 2444, 2425, 973, 1037
1647, 502, 2520, 2768, 2813
1648, 1150, 2449, 2445, 2133
1649, 2445, 2449, 2446, 998
1650, 2380, 930, 984, 2368
1651, 926, 2366, 1937, 1385
1652, 1895, 314, 328, 843
1653, 1167, 2173, 2212, 1176
1654, 2126, 868, 2708, 2589
1655, 2318, 1070, 2317, 1725
1656, 2571, 2570, 123, 113
1657, 1069, 2920, 2739, 2918
1658, 1024, 814, 1025, 2709
1659, 676, 2040, 2453, 1974
1660, 1974, 2453, 2452, 681
1661, 2453, 2372, 682, 2452
1662, 2040, 683, 2372, 2453
1663, 1515, 358, 285, 1060
1664, 1724, 811, 2471, 813
1665, 1723, 275, 367, 2832
1666, 681, 2452, 2457, 2364
1667, 2364, 2457, 1274, 520
1668, 2457, 2178, 521, 1274
1669, 2452, 682, 2178, 2457
1670, 1576, 997, 922, 1343
1671, 2011, 1651, 1462, 2010
1672, 1187, 2143, 2539, 670
1673, 2851, 2495, 1346, 2661
1674, 2828, 812, 1525, 1722
1675, 2776, 2470, 2775, 6
1676, 512, 2110, 2469, 582
1677, 1090, 1724, 813, 536
1678, 1510, 823, 1642, 2493
1679, 824, 2604, 1456, 2825
1680, 804, 2802, 2277, 2465
1681, 2750, 1811, 86, 76
1682, 2914, 2849, 2188, 2241
1683, 1641, 2871, 644, 1994
1684, 1305, 1675, 406, 237
1685, 2116, 1932, 2872, 1443
1686, 2041, 1157, 1529, 2109
1687, 2470, 1515, 1060, 2532
1688, 588, 1061, 1286, 514
1689, 1588, 582, 1723, 2832
1690, 1722, 1108, 91, 101
1691, 2455, 583, 2110, 512
1692, 1732, 1978, 1972, 2336
1693, 2313, 1200, 1874, 2325
1694, 1696, 2303, 2583, 1196
1695, 857, 2498, 870, 2764
1696, 1661, 2527, 2423, 2382
1697, 2517, 2641, 1194, 2366
1698, 2103, 2150, 1345, 981
1699, 2161, 2892, 2906, 1086
1700, 535, 1618, 809, 1228
1701, 2750, 1984, 1812, 1811
1702, 839, 838, 1593, 831
1703, 842, 2862, 851, 2166
1704, 838, 1299, 2685, 1593
1705, 620, 401, 242, 1479
1706, 651, 2551, 2574, 2403
1707, 1441, 2082, 1182, 1423
1708, 928, 2897, 910, 2648
1709, 990, 2649, 2094, 985
1710, 2695, 2449, 1150, 2762
1711, 2814, 2550, 2556, 2496
1712, 1298, 655, 2025, 654
1713, 1757, 1966, 1687, 2735
1714, 1219, 1150, 2133, 2649
1715, 1451, 2491, 2490, 555
1716, 2491, 2445, 998, 2490
1717, 2904, 2491, 1451, 554
1718, 1008, 2256, 2464, 2622
1719, 822, 2375, 290, 352
1720, 1694, 1766, 1511, 819
1721, 2493, 1642, 2254, 2546
1722, 2144, 2722, 1347, 2502
1723, 691, 229, 413, 2660
1724, 2419, 1012, 2355, 2468
1725, 507, 2386, 2497, 1808
1726, 1808, 2497, 2496, 508
1727, 2483, 1045, 2814, 568
1728, 2386, 2387, 1058, 2488
1729, 1070, 2798, 868, 2126
1730, 869, 871, 2788, 857
1731, 1761, 2590, 1762, 863
1732, 1570, 2399, 666, 1851
1733, 2001, 2489, 1208, 1214
1734, 749, 2635, 2440, 658
1735, 2893, 2905, 2515, 929
1736, 2779, 2636, 2514, 1003
1737, 2627, 1193, 933, 930
1738, 2396, 2565, 2826, 2789
1739, 1002, 2506, 2507, 2411
1740, 2411, 2507, 2505, 880
1741, 2507, 2417, 878, 2505
1742, 2506, 1001, 2417, 2507
1743, 2827, 701, 1582, 1770
1744, 1967, 1559, 745, 2621
1745, 2608, 1089, 715, 702
1746, 1654, 2553, 373, 270
1747, 2743, 1051, 2787, 572
1748, 2554, 579, 2926, 580
1749, 2925, 2554, 598, 1017
1750, 493, 1969, 2511, 1755
1751, 2290, 2383, 2384, 2751
1752, 2609, 2822, 2591, 2785
1753, 1969, 697, 2136, 2511
1754, 2112, 1141, 1883, 2114
1755, 2155, 746, 196, 446
1756, 1742, 1004, 2779, 995
1757, 2093, 2586, 881, 2587
1758, 1653, 1654, 1022, 1574
1759, 1470, 274, 368, 2456
1760, 1061, 2538, 1091, 1286
1761, 1654, 270, 372, 1022
1762, 2564, 2478, 2655, 915
1763, 2448, 1095, 2190, 2515
1764, 975, 1497, 1498, 1496
1765, 975, 977, 2444, 1773
1766, 2522, 2521, 956, 2432
1767, 1055, 955, 2521, 2522
1768, 2909, 2852, 2473, 2908
1769, 2199, 1547, 1697, 2337
1770, 2913, 2311, 2474, 1906
1771, 1065, 2711, 2324, 1216
1772, 1035, 2526, 1703, 553
1773, 2526, 2019, 524, 1703
1774, 1072, 2014, 2842, 2718
1775, 1939, 1692, 927, 1387
1776, 1434, 2794, 881, 2586
1777, 1434, 2516, 980, 2794
1778, 984, 557, 2149, 1414
1779, 544, 1364, 1439, 858
1780, 1595, 1834, 1823, 534
1781, 2865, 2581, 533, 789
1782, 1337, 616, 1532, 1333
1783, 1143, 1333, 2066, 1422
1784, 1624, 601, 1047, 2668
1785, 2089, 603, 2152, 2790
1786, 1463, 359, 284, 815
1787, 1090, 514, 1285, 1724
1788, 2323, 1343, 2460, 941
1789, 1413, 2587, 1677, 921
1790, 938, 2695, 2762, 1015
1791, 1634, 1575, 1848, 1384
1792, 2663, 2180, 2592, 705
1793, 1392, 209, 433, 2689
1794, 1089, 2607, 2360, 1105
1795, 2608, 1074, 2358, 1769
1796, 582, 2469, 2456, 1723
1797, 2532, 1060, 1560, 817
1798, 817, 1460, 818, 2603
1799, 2776, 815, 1515, 2470
1800, 2709, 1217, 99, 90
1801, 2532, 817, 2603, 501
1802, 2062, 2362, 1159, 2194
1803, 2194, 1159, 1431, 2159
1804, 1175, 783, 1706, 1179
1805, 1097, 2503, 2250, 671
1806, 2274, 2480, 1124, 1039
1807, 2541, 2346, 532, 1815
1808, 1034, 828, 2044, 2686
1809, 1461, 1923, 2692, 1667
1810, 1211, 2331, 1127, 1367
1811, 2661, 1346, 2298, 2160
1812, 891, 888, 2856, 901
1813, 912, 1671, 2761, 2880
1814, 993, 1087, 880, 2624
1815, 2285, 1096, 2271, 1016
1816, 2255, 1083, 1767, 2375
1817, 1766, 2575, 1232, 1644
1818, 826, 288, 354, 1457
1819, 997, 939, 2877, 922
1820, 2104, 915, 2129, 954
1821, 2902, 2901, 1096, 2285
1822, 626, 1442, 1861, 630
1823, 2387, 2217, 569, 1058
1824, 1183, 2818, 2595, 2243
1825, 621, 1156, 1212, 2343
1826, 1053, 2927, 2509, 1067
1827, 2307, 2296, 576, 2855
1828, 1038, 2043, 1680, 1101
1829, 1111, 2481, 835, 2257
1830, 839, 2686, 2772, 838
1831, 2481, 797, 2614, 835
1832, 2618, 510, 2836, 2740
1833, 1541, 1592, 1622, 1716
1834, 2436, 594, 2927, 1053
1835, 573, 2510, 574, 1629
1836, 1728, 1298, 654, 623
1837, 1017, 598, 2816, 1323
1838, 1492, 1296, 632, 1297
1839, 2102, 1862, 627, 633
1840, 2568, 2932, 1304, 635
1841, 1924, 1318, 622, 624
1842, 1299, 2273, 1711, 2685
1843, 1078, 2614, 796, 1951
1844, 1113, 1953, 1594, 837
1845, 784, 2673, 1410, 643
1846, 1947, 763, 2213, 768
1847, 1006, 1436, 1254, 558
1848, 2504, 1006, 995, 2381
1849, 2877, 2051, 2189, 988
1850, 2087, 2903, 2397, 920
1851, 886, 894, 2625, 2596
1852, 1929, 849, 2728, 1114
1853, 1424, 2164, 251, 391
1854, 2735, 1687, 2225, 2108
1855, 2819, 663, 1686, 660
1856, 2422, 2630, 2724, 2002
1857, 2571, 113, 124, 1809
1858, 2571, 2572, 1020, 1170
1859, 1170, 1020, 1673, 2307
1860, 1046, 565, 2488, 1058
1861, 1063, 2281, 2249, 2402
1862, 2241, 2188, 1859, 1336
1863, 1457, 354, 289, 1643
1864, 1644, 1232, 2547, 1768
1865, 2546, 2254, 1083, 821
1866, 1232, 6, 2775, 2547
1867, 2500, 1908, 1907, 2499
1868, 2499, 1907, 2352, 2351
1869, 912, 2637, 910, 2897
1870, 1137, 1072, 2718, 738
1871, 2646, 1609, 967, 1844
1872, 2714, 453, 190, 1873
1873, 2824, 1137, 738, 2721
1874, 534, 1824, 2580, 2578
1875, 2578, 2580, 2579, 805
1876, 1811, 1812, 1824, 1825
1877, 1985, 535, 1228, 816
1878, 1873, 190, 452, 1192
1879, 2674, 1180, 2092, 1502
1880, 1544, 1967, 2621, 728
1881, 2577, 744, 970, 740
1882, 2876, 2461, 994, 2516
1883, 2906, 2902, 2285, 917
1884, 2529, 1079, 2578, 805
1885, 1526, 585, 1573, 515
1886, 1048, 1526, 515, 2815
1887, 2815, 515, 2518, 1689
1888, 1440, 2175, 2612, 2269
1889, 1366, 544, 858, 2854
1890, 2419, 2468, 2561, 2585
1891, 1922, 769, 2299, 1530
1892, 2413, 990, 1095, 2448
1893, 700, 736, 1489, 1332
1894, 1554, 189, 453, 2714
1895, 2015, 1871, 726, 1455
1896, 2717, 450, 193, 732
1897, 2638, 1162, 2697, 2168
1898, 2311, 1928, 1930, 2475
1899, 2699, 1306, 2696, 2584
1900, 1564, 1172, 1696, 866
1901, 1866, 1910, 489, 154
1902, 2198, 2319, 2523, 1521
1903, 1769, 2508, 2289, 2607
1904, 2007, 1224, 2106, 1098
1905, 516, 581, 2915, 1018
1906, 595, 2924, 591, 600
1907, 2923, 1789, 2436, 1621
1908, 1048, 1023, 587, 1049
1909, 1495, 589, 272, 370
1910, 2758, 1067, 267, 375
1911, 2860, 2316, 2001, 2422
1912, 565, 651, 2403, 2483
1913, 2403, 2574, 2487, 2404
1914, 1348, 2736, 1531, 1995
1915, 2402, 2250, 2503, 1044
1916, 879, 1782, 2598, 2415
1917, 2415, 2598, 2596, 878
1918, 2913, 2091, 1928, 2311
1919, 2880, 2910, 2637, 912
1920, 2739, 1133, 577, 1325
1921, 1508, 344, 299, 2812
1922, 2831, 2258, 1953, 1113
1923, 832, 805, 2599, 2031
1924, 834, 1300, 1816, 1831
1925, 2708, 866, 1197, 1683
1926, 2473, 2168, 2671, 2908
1927, 2870, 1875, 1761, 546
1928, 2780, 88, 78, 2575
1929, 1642, 1457, 1643, 2254
1930, 1511, 825, 2376, 2374
1931, 660, 1686, 2702, 625
1932, 1921, 416, 227, 2562
1933, 2801, 1996, 566, 2345
1934, 1769, 2358, 2357, 2508
1935, 2662, 1544, 2843, 1155
1936, 1417, 2706, 2752, 2289
1937, 1768, 2610, 2873, 1084
1938, 825, 1084, 820, 2376
1939, 2375, 1767, 353, 290
1940, 1458, 821, 1083, 2255
1941, 2783, 1446, 791, 1838
1942, 2566, 843, 328, 315
1943, 1593, 2685, 2405, 2774
1944, 2029, 1034, 2686, 839
1945, 2370, 1833, 828, 1034
1946, 1507, 1111, 2257, 2258
1947, 2168, 2697, 883, 2671
1948, 2264, 1066, 1204, 1162
1949, 1399, 1362, 2334, 2350
1950, 888, 899, 887, 2856
1951, 2619, 1814, 98, 7
1952, 2617, 1621, 593, 1832
1953, 599, 1804, 2921, 2510
1954, 2886, 2806, 1591, 1790
1955, 1844, 967, 1137, 2824
1956, 704, 1754, 1756, 1755
1957, 2705, 1154, 703, 1559
1958, 2034, 2679, 2292, 719
1959, 2309, 2479, 1185, 1227
1960, 807, 2777, 1665, 801
1961, 2310, 799, 2777, 807
1962, 1229, 1985, 816, 2100
1963, 1420, 1177, 1731, 1166
1964, 2596, 2625, 2505, 878
1965, 2625, 2624, 880, 2505
1966, 2366, 1194, 1710, 1937
1967, 2049, 472, 171, 1390
1968, 2759, 1163, 2322, 2912
1969, 2720, 1447, 861, 1149
1970, 1059, 672, 2882, 2280
1971, 563, 2551, 2882, 1442
1972, 1044, 2503, 2501, 2883
1973, 869, 2500, 2728, 871
1974, 891, 1199, 2148, 888
1975, 2791, 1520, 2459, 1220
1976, 2049, 2459, 170, 472
1977, 938, 1693, 2150, 2103
1978, 2678, 635, 1338, 2869
1979, 1852, 657, 2861, 2239
1980, 635, 1304, 662, 1338
1981, 856, 1727, 1177, 1420
1982, 539, 2854, 897, 841
1983, 841, 897, 326, 317
1984, 2504, 1699, 1700, 1435
1985, 2514, 2636, 2506, 1002
1986, 2636, 2141, 1001, 2506
1987, 2763, 1577, 1056, 2817
1988, 1941, 1944, 1942, 2342
1989, 2075, 2210, 1893, 1200
1990, 2637, 2322, 2324, 910
1991, 1892, 1065, 1216, 2616
1992, 1948, 2288, 772, 1160
1993, 2261, 220, 422, 1121
1994, 2635, 692, 2868, 2440
1995, 1949, 425, 218, 1598
1996, 2655, 1151, 1887, 944
1997, 1383, 943, 1850, 983
1998, 1980, 173, 469, 2061
1999, 2695, 1057, 2446, 2449
2000, 998, 2446, 2645, 2643
2001, 1042, 1041, 2522, 2432
2002, 2425, 974, 2428, 2429
2003, 1390, 171, 471, 982
2004, 2824, 2721, 1971, 1968
2005, 2771, 965, 1970, 2097
2006, 966, 2430, 2742, 2096
2007, 2137, 2842, 1871, 2015
2008, 2725, 1220, 2459, 2049
2009, 2633, 2448, 2515, 2905
2010, 938, 2058, 1389, 1693
2011, 2544, 1939, 1387, 2656
2012, 1448, 2701, 2557, 1860
2013, 2067, 615, 2089, 1533
2014, 2867, 1213, 2316, 2860
2015, 2061, 469, 174, 918
2016, 1938, 1684, 2323, 1983
2017, 2382, 2423, 1577, 2763
2018, 2723, 941, 463, 180
2019, 1680, 1721, 829, 1676
2020, 858, 1439, 1546, 1882
2021, 2334, 1215, 1167, 2338
2022, 1667, 2692, 2353, 1120
2023, 636, 417, 226, 2677
2024, 1157, 2006, 2683, 2331
2025, 1462, 1210, 2390, 1430
2026, 773, 1432, 1945, 2214
2027, 656, 667, 1918, 669
2028, 2008, 636, 2677, 2495
2029, 2180, 2330, 686, 2592
2030, 721, 706, 2113, 716
2031, 1503, 1889, 1873, 1192
2032, 2073, 2770, 2751, 2684
2033, 571, 2666, 2667, 2295
2034, 2295, 2667, 2022, 609
2035, 2667, 2665, 606, 2022
2036, 2163, 1145, 2085, 2083
2037, 2482, 2573, 1207, 634
2038, 2650, 624, 1927, 1623
2039, 1862, 2101, 564, 2487
2040, 2573, 633, 1864, 2038
2041, 2652, 1551, 249, 393
2042, 1207, 1223, 2885, 1213
2043, 2067, 2687, 2797, 1320
2044, 1927, 1449, 2119, 1317
2045, 680, 2737, 222, 420
2046, 1120, 2353, 769, 1922
2047, 2245, 2328, 665, 2835
2048, 2210, 1206, 896, 1893
2049, 2342, 1942, 2711, 1065
2050, 2321, 2690, 1205, 1066
2051, 1360, 2889, 325, 318
2052, 666, 1986, 2144, 1571
2053, 668, 1899, 2008, 1119
2054, 2237, 2363, 1125, 1099
2055, 2463, 2160, 2442, 1411
2056, 1846, 1181, 1140, 526
2057, 1657, 2707, 1153, 1658
2058, 719, 2292, 206, 436
2059, 1872, 2859, 2705, 2513
2060, 2441, 1536, 2107, 2850
2061, 2055, 2675, 1147, 756
2062, 2675, 2437, 748, 1147
2063, 2539, 2194, 2159, 1931
2064, 1995, 234, 408, 1900
2065, 2012, 236, 406, 1675
2066, 2562, 227, 415, 1992
2067, 1543, 2707, 1657, 2276
2068, 2557, 1424, 391, 252
2069, 623, 246, 396, 2082
2070, 615, 2650, 1623, 2081
2071, 643, 1410, 2361, 668
2072, 2406, 1830, 1834, 1595
2073, 542, 827, 1976, 1202
2074, 836, 789, 1471, 1833
2075, 1295, 2681, 1448, 1145
2076, 2119, 1335, 612, 614
2077, 1145, 1448, 1860, 2085
2078, 2026, 2682, 601, 1624
2079, 2072, 1561, 750, 753
2080, 2287, 753, 2688, 1961
2081, 1391, 754, 755, 1146
2082, 714, 2073, 2684, 752
2083, 2325, 891, 901, 2690
2084, 2315, 2601, 1892, 899
2085, 2704, 2693, 2243, 2595
2086, 1160, 2227, 687, 1901
2087, 1651, 1178, 2670, 2340
2088, 2195, 414, 229, 691
2089, 749, 2401, 2260, 2635
2090, 2673, 1572, 646, 1410
2091, 1685, 1411, 2634, 2224
2092, 982, 471, 172, 979
2093, 1693, 1389, 2640, 1678
2094, 1575, 1092, 2830, 1848
2095, 2395, 982, 979, 1505
2096, 1172, 864, 2303, 1696
2097, 1421, 1880, 1360, 2176
2098, 1910, 1683, 153, 489
2099, 793, 2347, 2698, 2351
2100, 1205, 2282, 919, 2600
2101, 1712, 2552, 2043, 1038
2102, 848, 311, 331, 2197
2103, 2338, 1167, 1176, 2700
2104, 547, 2698, 2347, 790
2105, 1317, 2119, 614, 2701
2106, 2038, 1864, 626, 2120
2107, 2343, 1212, 399, 244
2108, 1223, 1336, 1859, 2885
2109, 2677, 226, 416, 1921
2110, 2107, 2195, 691, 1404
2111, 2467, 2661, 2160, 2463
2112, 526, 1140, 1180, 2674
2113, 721, 1418, 733, 706
2114, 728, 2621, 725, 2000
2115, 1883, 1543, 2276, 2275
2116, 726, 2016, 723, 1380
2117, 2112, 712, 2907, 1141
2118, 1082, 2207, 197, 445
2119, 2078, 2075, 854, 1608
2120, 2733, 1437, 2057, 2862
2121, 889, 2498, 792, 2077
2122, 1464, 283, 359, 1463
2123, 1286, 1091, 1588, 2193
2124, 584, 1525, 281, 361
2125, 907, 2710, 2711, 1942
2126, 2076, 860, 2727, 865
2127, 2710, 910, 2324, 2711
2128, 703, 1419, 1314, 730
2129, 1418, 1847, 711, 733
2130, 2000, 725, 1075, 1142
2131, 847, 892, 2720, 1306
2132, 2559, 2611, 2170, 827
2133, 795, 833, 2371, 2560
2134, 1446, 1420, 1166, 791
2135, 2646, 1844, 2020, 2019
2136, 746, 1445, 447, 196
2137, 628, 2716, 2558, 629
2138, 1423, 1182, 2682, 2026
2139, 2482, 634, 2385, 1043
2140, 2154, 1845, 746, 2155
2141, 2853, 1312, 1485, 1164
2142, 2712, 1315, 2034, 1911
2143, 2897, 2896, 1671, 912
2144, 2534, 911, 937, 1506
2145, 988, 2189, 465, 178
2146, 1016, 2271, 477, 166
2147, 2075, 1200, 2313, 854
2148, 889, 2076, 870, 2498
2149, 1200, 1893, 2266, 1874
2150, 2030, 803, 1952, 2222
2151, 2834, 2615, 335, 308
2152, 830, 1507, 2258, 2831
2153, 838, 2772, 1977, 1299
2154, 2843, 1417, 2289, 2508
2155, 2096, 2742, 1912, 1191
2156, 1403, 2660, 2226, 1322
2157, 2635, 2260, 2063, 692
2158, 1529, 1211, 1668, 1669
2159, 2542, 680, 420, 223
2160, 943, 1384, 1709, 1850
2161, 1152, 2105, 992, 2203
2162, 2794, 980, 2235, 924
2163, 1661, 1152, 2203, 2527
2164, 2869, 1338, 403, 240
2165, 1687, 640, 2039, 2225
2166, 2025, 2004, 398, 245
2167, 2817, 1056, 2548, 2863
2168, 1710, 1388, 997, 1576
2169, 2461, 475, 168, 994
2170, 1568, 709, 748, 2145
2171, 751, 1933, 2792, 2201
2172, 2337, 1697, 2451, 2866
2173, 2166, 851, 1188, 855
2174, 852, 2211, 1698, 2333
2175, 2435, 382, 261, 1775
2176, 2919, 573, 1629, 579
2177, 1068, 1542, 2730, 2924
2178, 1067, 2509, 376, 267
2179, 1612, 2083, 389, 254
2180, 2823, 592, 377, 266
2181, 2263, 862, 2077, 792
2182, 851, 788, 1201, 1188
2183, 2303, 1909, 1190, 2583
2184, 2613, 1363, 1563, 2248
2185, 1124, 2406, 1595, 1079
2186, 2613, 2584, 1421, 1363
2187, 1976, 2221, 538, 2552
2188, 2802, 806, 2623, 2277
2189, 1227, 799, 2310, 2308
2190, 2734, 2599, 805, 2579
2191, 2205, 803, 2599, 2734
2192, 1721, 337, 306, 829
2193, 2274, 1039, 840, 2370
2194, 2274, 2029, 2540, 1679
2195, 2672, 2246, 1932, 2116
2196, 2246, 659, 1757, 1932
2197, 2115, 2120, 626, 630
2198, 694, 1948, 1160, 1901
2199, 2356, 1827, 678, 2392
2200, 2009, 2143, 1187, 2354
2201, 2330, 2145, 1013, 2369
2202, 738, 2718, 717, 2135
2203, 1379, 2821, 2410, 1010
2204, 2647, 1730, 1379, 1729
2205, 2740, 2836, 1803, 1674
2206, 2553, 1054, 269, 373
2207, 2924, 2730, 2095, 591
2208, 594, 1323, 1231, 2927
2209, 964, 1031, 2742, 2430
2210, 2588, 735, 2016, 1071
2211, 969, 737, 194, 448
2212, 1031, 961, 1912, 2742
2213, 2922, 599, 2510, 573
2214, 1674, 1803, 1653, 2593
2215, 2744, 2618, 2740, 509
2216, 2847, 2477, 2653, 945
2217, 918, 174, 468, 2367
2218, 2134, 1390, 982, 2395
2219, 2499, 2351, 2698, 1114
2220, 2820, 2248, 1563, 2472
2221, 1906, 2597, 2090, 2852
2222, 2798, 2320, 1564, 868
2223, 956, 1028, 2748, 2747
2224, 2747, 2748, 1135, 963
2225, 2748, 1988, 958, 1135
2226, 1028, 951, 1988, 2748
2227, 1233, 2545, 292, 350
2228, 2494, 501, 2603, 1510
2229, 701, 1581, 1583, 1582
2230, 1074, 704, 1755, 2511
2231, 2591, 2822, 705, 2592
2232, 1706, 2463, 1411, 1685
2233, 707, 1127, 2331, 2683
2234, 645, 784, 643, 775
2235, 1904, 1902, 1946, 766
2236, 865, 882, 2597, 1064
2237, 1188, 1201, 541, 1218
2238, 2866, 2451, 1608, 2314
2239, 953, 1027, 2757, 1957
2240, 1957, 2757, 2128, 948
2241, 2757, 2756, 952, 2128
2242, 1027, 956, 2756, 2757
2243, 1019, 2617, 2618, 2744
2244, 1104, 1068, 2924, 595
2245, 2697, 2147, 2341, 883
2246, 2174, 2312, 1879, 2209
2247, 2913, 1906, 2852, 2909
2248, 494, 1637, 2919, 2925
2249, 990, 985, 2805, 1095
2250, 1577, 914, 2059, 1056
2251, 869, 857, 2764, 2475
2252, 890, 2638, 2168, 2473
2253, 540, 1359, 544, 1366
2254, 889, 2077, 2211, 852
2255, 869, 2475, 1930, 1905
2256, 547, 1929, 1114, 2698
2257, 959, 1030, 2766, 2070
2258, 2070, 2766, 1136, 957
2259, 2766, 2765, 963, 1136
2260, 1030, 964, 2765, 2766
2261, 2542, 223, 419, 2606
2262, 775, 1119, 2851, 785
2263, 781, 1578, 1707, 2361
2264, 1411, 2442, 2441, 2634
2265, 2368, 984, 1414, 2642
2266, 2644, 2773, 2643, 502
2267, 2769, 1042, 2432, 2434
2268, 975, 1773, 1774, 1497
2269, 1393, 751, 2201, 713
2270, 2822, 1088, 2770, 705
2271, 2607, 2289, 2752, 2360
2272, 2204, 969, 448, 195
2273, 1609, 1138, 1011, 1898
2274, 971, 1035, 2811, 1036
2275, 1672, 2530, 2837, 2294
2276, 1869, 1102, 2615, 2834
2277, 2371, 833, 1100, 2658
2278, 2273, 2293, 1080, 795
2279, 976, 1055, 2522, 1041
2280, 2643, 2773, 2490, 998
2281, 2773, 1496, 555, 2490
2282, 2520, 976, 1041, 2768
2283, 791, 1166, 845, 2125
2284, 2529, 805, 832, 1950
2285, 1459, 286, 356, 2234
2286, 1106, 2192, 2538, 1061
2287, 2308, 2310, 2205, 2734
2288, 2479, 1008, 2622, 1185
2289, 2750, 76, 87, 1184
2290, 819, 1085, 2749, 2623
2291, 992, 2395, 1505, 2203
2292, 2050, 1342, 2104, 1386
2293, 1006, 558, 1742, 995
2294, 2378, 2190, 2131, 2191
2295, 995, 2779, 1003, 2381
2296, 1456, 822, 352, 291
2297, 2545, 2825, 351, 292
2298, 1768, 2547, 2494, 2610
2299, 952, 2756, 2781, 2127
2300, 2127, 2781, 2654, 954
2301, 2781, 2521, 955, 2654
2302, 2756, 956, 2521, 2781
2303, 2753, 2300, 2804, 2339
2304, 2838, 2868, 692, 1797
2305, 1999, 2689, 2182, 2291
2306, 1962, 2726, 1501, 1997
2307, 500, 309, 333, 2631
2308, 920, 2397, 2485, 986
2309, 946, 2236, 2879, 1344
2310, 2150, 2050, 1386, 1345
2311, 1850, 1709, 2534, 991
2312, 2543, 2392, 2785, 2591
2313, 2182, 210, 432, 1960
2314, 1651, 2340, 1210, 1462
2315, 2512, 716, 2384, 2383
2316, 962, 2433, 2786, 2427
2317, 2427, 2786, 2765, 964
2318, 2786, 2747, 963, 2765
2319, 2433, 956, 2747, 2786
2320, 1325, 511, 2806, 597
2321, 1018, 2915, 2807, 1230
2322, 1540, 1324, 2435, 1775
2323, 2525, 2337, 2866, 2335
2324, 1522, 321, 492, 1909
2325, 1095, 2805, 2131, 2190
2326, 2060, 167, 475, 2461
2327, 2899, 2898, 989, 1382
2328, 2906, 917, 2484, 2424
2329, 602, 2035, 2790, 2152
2330, 2081, 1295, 2531, 603
2331, 1926, 1144, 2065, 605
2332, 2035, 606, 2665, 2790
2333, 768, 2213, 1482, 2027
2334, 2692, 765, 1483, 2353
2335, 1536, 664, 2195, 2107
2336, 2042, 1433, 2288, 1948
2337, 713, 1999, 2291, 2726
2338, 1658, 208, 434, 1499
2339, 1935, 1352, 431, 212
2340, 1350, 2663, 2073, 714
2341, 1113, 837, 2846, 2581
2342, 2407, 1038, 1101, 1979
2343, 2170, 339, 304, 2221
2344, 1683, 1197, 490, 153
2345, 2524, 2567, 993, 2624
2346, 2474, 2764, 870, 1064
2347, 2910, 2912, 2322, 2637
2348, 2527, 2626, 2458, 2423
2349, 924, 2235, 2791, 1353
2350, 1382, 989, 2162, 2284
2351, 2484, 2060, 2461, 2876
2352, 1129, 2252, 2477, 2847
2353, 1692, 2247, 1660, 2533
2354, 931, 1504, 176, 466
2355, 2458, 1980, 2061, 914
2356, 909, 1955, 2796, 2079
2357, 2079, 2796, 2710, 907
2358, 2796, 2648, 910, 2710
2359, 1955, 908, 2648, 2796
2360, 696, 1846, 526, 718
2361, 2621, 745, 696, 725
2362, 706, 2112, 2114, 2113
2363, 613, 618, 1334, 604
2364, 566, 2421, 649, 2884
2365, 1297, 632, 1728, 1441
2366, 2068, 1143, 1422, 1335
2367, 1851, 666, 1571, 1161
2368, 690, 1404, 1403, 693
2369, 1410, 646, 781, 2361
2370, 1166, 1731, 893, 845
2371, 1198, 884, 2746, 1547
2372, 2646, 1311, 1138, 1609
2373, 1897, 2717, 732, 2018
2374, 1141, 2907, 1315, 2712
2375, 2662, 2513, 1967, 1544
2376, 866, 1696, 1196, 1197
2377, 862, 1033, 2211, 2077
2378, 2450, 898, 853, 1735
2379, 1549, 2318, 1725, 860
2380, 1159, 1322, 2226, 1431
2381, 1430, 2542, 2606, 2398
2382, 639, 2930, 1965, 638
2383, 1932, 1757, 2735, 2872
2384, 785, 2851, 2661, 2467
2385, 2108, 2225, 1222, 2871
2386, 1225, 1550, 238, 404
2387, 641, 567, 2240, 2715
2388, 1184, 87, 77, 2602
2389, 2278, 1635, 808, 2099
2390, 1870, 2738, 744, 2577
2391, 2207, 2155, 446, 197
2392, 1896, 1897, 2018, 2803
2393, 1669, 1668, 1903, 1923
2394, 1491, 215, 427, 1987
2395, 1179, 1209, 778, 2563
2396, 2762, 1150, 1219, 916
2397, 2571, 1809, 508, 2572
2398, 2807, 1123, 2920, 1069
2399, 2572, 2556, 2555, 1020
2400, 2807, 2915, 1326, 1123
2401, 1021, 2808, 1469, 1494
2402, 1023, 1813, 2593, 587
2403, 585, 1494, 1495, 2582
2404, 815, 284, 358, 1515
2405, 812, 1717, 280, 362
2406, 951, 1028, 2809, 1026
2407, 1026, 2809, 1027, 953
2408, 1028, 956, 1027, 2809
2409, 961, 1031, 2810, 1029
2410, 1029, 2810, 1030, 959
2411, 1031, 964, 1030, 2810
2412, 1189, 543, 1116, 1168
2413, 2043, 1681, 1721, 1680
2414, 553, 1037, 2811, 1035
2415, 972, 1870, 734, 1073
2416, 1037, 973, 1036, 2811
2417, 1881, 1712, 1038, 2407
2418, 2293, 1979, 2888, 1080
2419, 2772, 1881, 2407, 1977
2420, 974, 2769, 2434, 2428
2421, 2644, 502, 2813, 1040
2422, 502, 2643, 2645, 2520
2423, 1550, 1226, 405, 238
2424, 2164, 604, 392, 251
2425, 2422, 2001, 1214, 2630
2426, 2482, 2102, 633, 2573
2427, 2402, 2249, 2251, 2250
2428, 1045, 2244, 2550, 2814
2429, 515, 1573, 1467, 2518
2430, 513, 271, 371, 586
2431, 1528, 513, 586, 2808
2432, 1673, 571, 2296, 2307
2433, 2572, 508, 2496, 2556
2434, 2571, 1170, 1050, 2570
2435, 1170, 2307, 2855, 1050
2436, 1104, 1688, 119, 109
2437, 2236, 932, 2286, 2879
2438, 1678, 2640, 2517, 2447
2439, 2878, 2486, 1413, 2247
2440, 568, 2497, 2386, 2488
2441, 2065, 1337, 1333, 1143
2442, 2454, 2234, 356, 287
2443, 2483, 2403, 2404, 1045
2444, 2187, 1963, 631, 1993
2445, 1046, 2280, 651, 565
2446, 2147, 2759, 2912, 2341
2447, 2567, 2910, 2880, 993
2448, 2839, 1613, 1324, 1540
2449, 1708, 2758, 375, 268
2450, 1068, 120, 110, 1542
2451, 2852, 2090, 890, 2473
2452, 698, 743, 727, 723
2453, 1192, 452, 191, 968
2454, 968, 191, 451, 736
2455, 2113, 2114, 2664, 1076
2456, 702, 2268, 1581, 701
2457, 1088, 2290, 2751, 2770
2458, 2118, 1394, 2306, 1077
2459, 577, 1133, 2840, 1131
2460, 1676, 829, 2837, 2530
2461, 2540, 831, 2167, 1109
2462, 1302, 2541, 1815, 1300
2463, 1913, 731, 966, 1081
2464, 2907, 720, 2848, 1315
2465, 2873, 2546, 821, 1458
2466, 1635, 1765, 1233, 1636
2467, 2719, 169, 473, 1520
2468, 1504, 2784, 467, 176
2469, 2880, 2761, 1087, 993
2470, 715, 2609, 2785, 2267
2471, 2608, 2827, 704, 1074
2472, 2193, 1588, 2832, 1373
2473, 2538, 2455, 512, 1091
2474, 1107, 1691, 1689, 583
2475, 2761, 2396, 2789, 1087
2476, 2533, 1661, 2382, 942
2477, 2805, 2381, 1003, 2131
2478, 2252, 2544, 2656, 2477
2479, 2895, 2894, 2874, 2272
2480, 688, 2466, 2928, 1572
2481, 2858, 2501, 2503, 1097
2482, 645, 775, 785, 679
2483, 2370, 840, 836, 1833
2484, 1300, 1815, 1817, 1816
2485, 2031, 2599, 803, 2030
2486, 1020, 2555, 2731, 1673
2487, 596, 509, 1614, 2619
2488, 1502, 2092, 1601, 2033
2489, 1105, 1088, 2822, 2609
2490, 745, 730, 1846, 696
2491, 811, 277, 365, 2471
2492, 1284, 93, 103, 1416
2493, 2350, 2334, 2338, 1662
2494, 2560, 2371, 1972, 1978
2495, 1299, 1977, 2293, 2273
2496, 2258, 2257, 1078, 1953
2497, 2857, 1865, 488, 155
2498, 2480, 1302, 1300, 834
2499, 885, 2699, 2584, 2613
2500, 1320, 2797, 2088, 1924
2501, 2084, 2013, 1551, 2652
2502, 2797, 2244, 2594, 2088
2503, 2228, 1650, 787, 776
2504, 2931, 1186, 2736, 1348
2505, 1776, 1716, 1652, 592
2506, 1128, 259, 383, 1777
2507, 2920, 576, 1133, 2739
2508, 2581, 2846, 1301, 533
2509, 789, 533, 2559, 1471
2510, 797, 2032, 796, 2614
2511, 2181, 1960, 708, 1934
2512, 2106, 2223, 641, 2569
2513, 2392, 678, 2267, 2785
2514, 707, 2683, 2838, 2300
2515, 1179, 1706, 1685, 1209
2516, 1432, 2055, 2056, 1945
2517, 1103, 597, 2806, 2886
2518, 2414, 2424, 1633, 1130
2519, 1387, 927, 1575, 1634
2520, 1354, 470, 173, 1980
2521, 1231, 1776, 592, 2823
2522, 1131, 2840, 1132, 575
2523, 1133, 576, 1132, 2840
2524, 957, 1136, 2841, 1134
2525, 1134, 2841, 1135, 958
2526, 1136, 963, 1135, 2841
2527, 741, 1010, 1480, 2052
2528, 740, 1503, 1481, 1312
2529, 2848, 1313, 722, 2679
2530, 1314, 441, 202, 1181
2531, 1532, 1624, 2668, 2651
2532, 1318, 1926, 605, 622
2533, 755, 1148, 2845, 1146
2534, 1146, 2845, 1147, 748
2535, 1148, 756, 1147, 2845
2536, 1727, 2123, 2165, 500
2537, 2657, 846, 2312, 2174
2538, 1096, 877, 925, 2271
2539, 1353, 2791, 1220, 2229
2540, 1380, 1884, 2017, 1454
2541, 2092, 439, 204, 1601
2542, 2015, 1455, 2859, 1872
2543, 1443, 2872, 2800, 2047
2544, 1174, 1987, 780, 762
2545, 2399, 2767, 2245, 2881
2546, 693, 1403, 1322, 1429
2547, 688, 2041, 2109, 2466
2548, 1369, 773, 2214, 1902
2549, 1163, 1216, 2324, 2322
2550, 852, 2333, 2870, 1734
2551, 2269, 2612, 1189, 2263
2552, 1891, 971, 731, 1913
2553, 1444, 2154, 2155, 2207
2554, 1177, 2631, 1867, 1731
2555, 1929, 1361, 2124, 849
2556, 1363, 1421, 2176, 1398
2557, 596, 2619, 7, 108
2558, 2619, 1614, 1813, 1814
2559, 2918, 2739, 1325, 597
2560, 1720, 323, 320, 2086
2561, 2282, 887, 2616, 919
2562, 2913, 2911, 1783, 2091
2563, 2238, 1161, 2007, 657
2564, 2835, 665, 2362, 2062
2565, 1433, 1120, 1922, 2288
2566, 1879, 1365, 2733, 1438
2567, 2606, 419, 224, 2259
2568, 733, 711, 1632, 712
2569, 2537, 205, 437, 729
2570, 2385, 1940, 2420, 655
2571, 2259, 224, 418, 2462
2572, 1213, 2885, 2121, 2316
2573, 2256, 1645, 800, 2464
2574, 2464, 800, 1355, 810
2575, 2602, 77, 88, 2780
2576, 2585, 707, 2300, 2753
2577, 771, 1013, 2437, 779
2578, 1572, 2928, 2011, 646
2579, 2263, 1189, 1168, 862
2580, 885, 2613, 2248, 1698
2581, 1894, 2302, 2754, 2590
2582, 2052, 1480, 1845, 2154
2583, 1311, 972, 1073, 1138
2584, 734, 2853, 1164, 1730
2585, 926, 1385, 2478, 2564
2586, 2028, 2413, 2448, 2633
2587, 2725, 2049, 1390, 2134
2588, 1608, 854, 900, 2314
2589, 899, 1892, 2616, 887
2590, 1364, 1868, 2122, 1439
2591, 849, 1440, 871, 2728
2592, 894, 2524, 2624, 2625
2593, 2440, 2868, 2006, 1062
2594, 647, 1640, 667, 656
2595, 634, 2867, 1940, 2385
2596, 667, 1097, 671, 1918
2597, 771, 1600, 2369, 1013
2598, 2495, 2677, 1921, 1346
2599, 1863, 2002, 1156, 621
2600, 1994, 644, 1550, 1225
2601, 857, 2788, 792, 2498
2602, 2318, 2745, 2798, 1070
2603, 869, 1905, 1908, 2500
2604, 1106, 94, 104, 2192
2605, 1217, 1464, 1463, 1597
2606, 1460, 2454, 1596, 818
2607, 2451, 1521, 2078, 1608
2608, 2795, 175, 467, 2784
2609, 2058, 1129, 2847, 1389
2610, 1212, 2003, 243, 399
2611, 1940, 1863, 621, 2420
2612, 2630, 628, 629, 2724
2613, 2466, 2109, 1158, 782
2614, 2188, 660, 625, 1859
2615, 1570, 2224, 2767, 2399
2616, 2750, 1184, 2802, 804
2617, 2602, 2780, 1694, 806
2618, 2749, 1765, 1635, 2278
2619, 2917, 1017, 1323, 594
2620, 1324, 1790, 1630, 2435
2621, 598, 590, 1541, 2816
2622, 2547, 2775, 501, 2494
2623, 1184, 2602, 806, 2802
2624, 1509, 824, 2825, 2545
2625, 1709, 2778, 911, 2534
2626, 932, 1983, 2723, 2286
2627, 1616, 928, 2648, 908
2628, 2640, 945, 2641, 2517
2629, 929, 2515, 2190, 2378
2630, 2544, 2642, 2878, 1939
2631, 1677, 1670, 1381, 2146
2632, 2413, 1219, 2649, 990
2633, 2804, 1798, 2373, 2339
2634, 1210, 2228, 776, 2390
2635, 1063, 1059, 2280, 1046
2636, 1045, 2404, 2594, 2244
2637, 2844, 1492, 1297, 1117
2638, 1614, 1674, 2593, 1813
2639, 1104, 1019, 2744, 1688
2640, 2611, 303, 339, 2170
2641, 846, 2713, 1726, 2312
2642, 1009, 537, 810, 1695
2643, 2099, 808, 1618, 535
2644, 2898, 1616, 908, 1849
2645, 2379, 2896, 2897, 928
2646, 2519, 2379, 928, 1616
2647, 2899, 2519, 1616, 2898
2648, 2132, 2895, 2896, 2379
2649, 923, 2132, 2379, 2519
2650, 2900, 923, 2519, 2899
2651, 2412, 2894, 2895, 2132
2652, 1615, 2412, 2132, 923
2653, 2901, 1615, 923, 2900
2654, 996, 2893, 2894, 2412
2655, 1093, 996, 2412, 1615
2656, 2902, 1093, 1615, 2901
2657, 2891, 2905, 2893, 996
2658, 2892, 2891, 996, 1093
2659, 2906, 2892, 1093, 2902
2660, 2000, 1142, 2512, 2706
2661, 2679, 722, 729, 2292
2662, 2760, 886, 2596, 2598
2663, 2911, 2760, 2598, 1782
2664, 2341, 2912, 2910, 2567
2665, 883, 2341, 2567, 2524
2666, 2671, 883, 2524, 894
2667, 2908, 2671, 894, 886
2668, 2909, 2908, 886, 2760
2669, 2913, 2909, 2760, 2911
2670, 612, 613, 604, 2164
2671, 1169, 578, 264, 378
2672, 2915, 581, 2916, 1326
2673, 1051, 1540, 1775, 2787
2674, 600, 591, 1637, 494
2675, 1803, 2553, 1654, 1653
2676, 600, 494, 2917, 1789
2677, 1230, 2807, 1069, 1804
2678, 1630, 260, 382, 2435
2679, 2095, 2741, 599, 2922
2680, 1652, 1169, 378, 265
2681, 593, 1053, 1067, 2758
2682, 1832, 593, 2758, 1708
2683, 1104, 595, 2923, 1019
2684, 1443, 2047, 1303, 663
2685, 2116, 1443, 663, 2819
2686, 2672, 2116, 2819, 2849
2687, 2933, 2672, 2849, 2914
*ELSET,ELSET=contact_source
127, 128, 129, 130, 131, 132, 133, 134, 135, 136, 
137, 138, 139, 140, 141, 142, 143, 144, 145, 146, 
147, 148, 
*ELSET,ELSET=contact_drain
41, 42, 43, 44, 45, 46, 47, 48, 49, 50, 
51, 52, 53, 54, 55, 56, 57, 58, 59, 60, 
61, 62, 
*ELSET,ELSET=probe_A
85, 86, 87, 88, 89, 90, 91, 92, 93, 94, 
95, 96, 97, 98, 99, 100, 101, 102, 103, 104, 
*ELSET,ELSET=probe_B
17, 18, 19, 20, 21, 22, 23, 24, 
*ELSET,ELSET=walls
1, 2, 3, 4, 5, 6, 7, 8, 9, 10, 
11, 12, 13, 14, 15, 16, 25, 26, 27, 28, 
29, 30, 31, 32, 33, 34, 35, 36, 37, 38, 
39, 40, 63, 64, 65, 66, 67, 68, 69, 70, 
71, 72, 73, 74, 75, 76, 77, 78, 79, 80, 
81, 82, 83, 84, 105, 106, 107, 108, 109, 110, 
111, 112, 113, 114, 115, 116, 117, 118, 119, 120, 
121, 122, 123, 124, 125, 126, 149, 150, 151, 152, 
153, 154, 155, 156, 157, 158, 159, 160, 161, 162, 
163, 164, 165, 166, 167, 168, 169, 170, 171, 172, 
173, 174, 175, 176, 177, 178, 179, 180, 181, 182, 
183, 184, 185, 186, 187, 188, 189, 190, 191, 192, 
193, 194, 195, 196, 197, 198, 199, 200, 201, 202, 
203, 204, 205, 206, 207, 208, 209, 210, 211, 212, 
213, 214, 215, 216, 217, 218, 219, 220, 221, 222, 
223, 224, 225, 226, 227, 228, 229, 230, 231, 232, 
233, 234, 235, 236, 237, 238, 239, 240, 241, 242, 
243, 244, 245, 246, 247, 248, 249, 250, 251, 252, 
253, 254, 255, 256, 257, 258, 259, 260, 261, 262, 
263, 264, 265, 266, 267, 268, 269, 270, 271, 272, 
273, 274, 275, 276, 277, 278, 279, 280, 281, 282, 
283, 284, 285, 286, 287, 288, 289, 290, 291, 292, 
293, 294, 295, 296, 297, 298, 299, 300, 301, 302, 
303, 304, 305, 306, 307, 308, 309, 310, 311, 312, 
313, 314, 315, 316, 317, 318, 319, 320, 321, 322, 
323, 324, 325, 326, 327, 328, 329, 330, 331, 332, 
333, 334, 335, 336, 337, 338, 339, 340, 341, 342, 
343, 344, 345, 346, 347, 348, 349, 350, 351, 352, 
353, 354, 355, 356, 357, 358, 359, 360, 361, 362, 
363, 364, 365, 366, 367, 368, 369, 370, 371, 372, 
373, 374, 375, 376, 377, 378, 379, 380, 381, 382, 
383, 384, 385, 386, 387, 388, 389, 390, 391, 392, 
393, 394, 395, 396, 397, 398, 399, 400, 401, 402, 
403, 404, 405, 406, 407, 408, 409, 410, 411, 412, 
413, 414, 415, 416, 417, 418, 419, 420, 421, 422, 
423, 424, 425, 426, 427, 428, 429, 430, 431, 432, 
433, 434, 435, 436, 437, 438, 439, 440, 441, 442, 
443, 444, 445, 446, 447, 448, 449, 450, 451, 452, 
453, 454, 455, 456, 457, 458, 459, 460, 461, 462, 
463, 464, 465, 466, 467, 468, 469, 470, 471, 472, 
473, 474, 475, 476, 477, 478, 479, 480, 481, 482, 
483, 484, 485, 486, 487, 488, 489, 490, 491, 492, 
*ELSET,ELSET=domain
493, 494, 495, 496, 497, 498, 499, 500, 501, 502, 
503, 504, 505, 506, 507, 508, 509, 510, 511, 512, 
513, 514, 515, 516, 517, 518, 519, 520, 521, 522, 
523, 524, 525, 526, 527, 528, 529, 530, 531, 532, 
533, 534, 535, 536, 537, 538, 539, 540, 541, 542, 
543, 544, 545, 546, 547, 548, 549, 550, 551, 552, 
553, 554, 555, 556, 557, 558, 559, 560, 561, 562, 
563, 564, 565, 566, 567, 568, 569, 570, 571, 572, 
573, 574, 575, 576, 577, 578, 579, 580, 581, 582, 
583, 584, 585, 586, 587, 588, 589, 590, 591, 592, 
593, 594, 595, 596, 597, 598, 599, 600, 601, 602, 
603, 604, 605, 606, 607, 608, 609, 610, 611, 612, 
613, 614, 615, 616, 617, 618, 619, 620, 621, 622, 
623, 624, 625, 626, 627, 628, 629, 630, 631, 632, 
633, 634, 635, 636, 637, 638, 639, 640, 641, 642, 
643, 644, 645, 646, 647, 648, 649, 650, 651, 652, 
653, 654, 655, 656, 657, 658, 659, 660, 661, 662, 
663, 664, 665, 666, 667, 668, 669, 670, 671, 672, 
673, 674, 675, 676, 677, 678, 679, 680, 681, 682, 
683, 684, 685, 686, 687, 688, 689, 690, 691, 692, 
693, 694, 695, 696, 697, 698, 699, 700, 701, 702, 
703, 704, 705, 706, 707, 708, 709, 710, 711, 712, 
713, 714, 715, 716, 717, 718, 719, 720, 721, 722, 
723, 724, 725, 726, 727, 728, 729, 730, 731, 732, 
733, 734, 735, 736, 737, 738, 739, 740, 741, 742, 
743, 744, 745, 746, 747, 748, 749, 750, 751, 752, 
753, 754, 755, 756, 757, 758, 759, 760, 761, 762, 
763, 764, 765, 766, 767, 768, 769, 770, 771, 772, 
773, 774, 775, 776, 777, 778, 779, 780, 781, 782, 
783, 784, 785, 786, 787, 788, 789, 790, 791, 792, 
793, 794, 795, 796, 797, 798, 799, 800, 801, 802, 
803, 804, 805, 806, 807, 808, 809, 810, 811, 812, 
813, 814, 815, 816, 817, 818, 819, 820, 821, 822, 
823, 824, 825, 826, 827, 828, 829, 830, 831, 832, 
833, 834, 835, 836, 837, 838, 839, 840, 841, 842, 
843, 844, 845, 846, 847, 848, 849, 850, 851, 852, 
853, 854, 855, 856, 857, 858, 859, 860, 861, 862, 
863, 864, 865, 866, 867, 868, 869, 870, 871, 872, 
873, 874, 875, 876, 877, 878, 879, 880, 881, 882, 
883, 884, 885, 886, 887, 888, 889, 890, 891, 892, 
893, 894, 895, 896, 897, 898, 899, 900, 901, 902, 
903, 904, 905, 906, 907, 908, 909, 910, 911, 912, 
913, 914, 915, 916, 917, 918, 919, 920, 921, 922, 
923, 924, 925, 926, 927, 928, 929, 930, 931, 932, 
933, 934, 935, 936, 937, 938, 939, 940, 941, 942, 
943, 944, 945, 946, 947, 948, 949, 950, 951, 952, 
953, 954, 955, 956, 957, 958, 959, 960, 961, 962, 
963, 964, 965, 966, 967, 968, 969, 970, 971, 972, 
973, 974, 975, 976, 977, 978, 979, 980, 981, 982, 
983, 984, 985, 986, 987, 988, 989, 990, 991, 992, 
993, 994, 995, 996, 997, 998, 999, 1000, 1001, 1002, 
1003, 1004, 1005, 1006, 1007, 1008, 1009, 1010, 1011, 1012, 
1013, 1014, 1015, 1016, 1017, 1018, 1019, 1020, 1021, 1022, 
1023, 1024, 1025, 1026, 1027, 1028, 1029, 1030, 1031, 1032, 
1033, 1034, 1035, 1036, 1037, 1038, 1039, 1040, 1041, 1042, 
1043, 1044, 1045, 1046, 1047, 1048, 1049, 1050, 1051, 1052, 
1053, 1054, 1055, 1056, 1057, 1058, 1059, 1060, 1061, 1062, 
1063, 1064, 1065, 1066, 1067, 1068, 1069, 1070, 1071, 1072, 
1073, 1074, 1075, 1076, 1077, 1078, 1079, 1080, 1081, 1082, 
1083, 1084, 1085, 1086, 1087, 1088, 1089, 1090, 1091, 1092, 
1093, 1094, 1095, 1096, 1097, 1098, 1099, 1100, 1101, 1102, 
1103, 1104, 1105, 1106, 1107, 1108, 1109, 1110, 1111, 1112, 
1113, 1114, 1115, 1116, 1117, 1118, 1119, 1120, 1121, 1122, 
1123, 1124, 1125, 1126, 1127, 1128, 1129, 1130, 1131, 1132, 
1133, 1134, 1135, 1136, 1137, 1138, 1139, 1140, 1141, 1142, 
1143, 1144, 1145, 1146, 1147, 1148, 1149, 1150, 1151, 1152, 
1153, 1154, 1155, 1156, 1157, 1158, 1159, 1160, 1161, 1162, 
1163, 1164, 1165, 1166, 1167, 1168, 1169, 1170, 1171, 1172, 
1173, 1174, 1175, 1176, 1177, 1178, 1179, 1180, 1181, 1182, 
1183, 1184, 1185, 1186, 1187, 1188, 1189, 1190, 1191, 1192, 
1193, 1194, 1195, 1196, 1197, 1198, 1199, 1200, 1201, 1202, 
1203, 1204, 1205, 1206, 1207, 1208, 1209, 1210, 1211, 1212, 
1213, 1214, 1215, 1216, 1217, 1218, 1219, 1220, 1221, 1222, 
1223, 1224, 1225, 1226, 1227, 1228, 1229, 1230, 1231, 1232, 
1233, 1234, 1235, 1236, 1237, 1238, 1239, 1240, 1241, 1242, 
1243, 1244, 1245, 1246, 1247, 1248, 1249, 1250, 1251, 1252, 
1253, 1254, 1255, 1256, 1257, 1258, 1259, 1260, 1261, 1262, 
1263, 1264, 1265, 1266, 1267, 1268, 1269, 1270, 1271, 1272, 
1273, 1274, 1275, 1276, 1277, 1278, 1279, 1280, 1281, 1282, 
1283, 1284, 1285, 1286, 1287, 1288, 1289, 1290, 1291, 1292, 
1293, 1294, 1295, 1296, 1297, 1298, 1299, 1300, 1301, 1302, 
1303, 1304, 1305, 1306, 1307, 1308, 1309, 1310, 1311, 1312, 
1313, 1314, 1315, 1316, 1317, 1318, 1319, 1320, 1321, 1322, 
1323, 1324, 1325, 1326, 1327, 1328, 1329, 1330, 1331, 1332, 
1333, 1334, 1335, 1336, 1337, 1338, 1339, 1340, 1341, 1342, 
1343, 1344, 1345, 1346, 1347, 1348, 1349, 1350, 1351, 1352, 
1353, 1354, 1355, 1356, 1357, 1358, 1359, 1360, 1361, 1362, 
1363, 1364, 1365, 1366, 1367, 1368, 1369, 1370, 1371, 1372, 
1373, 1374, 1375, 1376, 1377, 1378, 1379, 1380, 1381, 1382, 
1383, 1384, 1385, 1386, 1387, 1388, 1389, 1390, 1391, 1392, 
1393, 1394, 1395, 1396, 1397, 1398, 1399, 1400, 1401, 1402, 
1403, 1404, 1405, 1406, 1407, 1408, 1409, 1410, 1411, 1412, 
1413, 1414, 1415, 1416, 1417, 1418, 1419, 1420, 1421, 1422, 
1423, 1424, 1425, 1426, 1427, 1428, 1429, 1430, 1431, 1432, 
1433, 1434, 1435, 1436, 1437, 1438, 1439, 1440, 1441, 1442, 
1443, 1444, 1445, 1446, 1447, 1448, 1449, 1450, 1451, 1452, 
1453, 1454, 1455, 1456, 1457, 1458, 1459, 1460, 1461, 1462, 
1463, 1464, 1465, 1466, 1467, 1468, 1469, 1470, 1471, 1472, 
1473, 1474, 1475, 1476, 1477, 1478, 1479, 1480, 1481, 1482, 
1483, 1484, 1485, 1486, 1487, 1488, 1489, 1490, 1491, 1492, 
1493, 1494, 1495, 1496, 1497, 1498, 1499, 1500, 1501, 1502, 
1503, 1504, 1505, 1506, 1507, 1508, 1509, 1510, 1511, 1512, 
1513, 1514, 1515, 1516, 1517, 1518, 1519, 1520, 1521, 1522, 
1523, 1524, 1525, 1526, 1527, 1528, 1529, 1530, 1531, 1532, 
1533, 1534, 1535, 1536, 1537, 1538, 1539, 1540, 1541, 1542, 
1543, 1544, 1545, 1546, 1547, 1548, 1549, 1550, 1551, 1552, 
1553, 1554, 1555, 1556, 1557, 1558, 1559, 1560, 1561, 1562, 
1563, 1564, 1565, 1566, 1567, 1568, 1569, 1570, 1571, 1572, 
1573, 1574, 1575, 1576, 1577, 1578, 1579, 1580, 1581, 1582, 
1583, 1584, 1585, 1586, 1587, 1588, 1589, 1590, 1591, 1592, 
1593, 1594, 1595, 1596, 1597, 1598, 1599, 1600, 1601, 1602, 
1603, 1604, 1605, 1606, 1607, 1608, 1609, 1610, 1611, 1612, 
1613, 1614, 1615, 1616, 1617, 1618, 1619, 1620, 1621, 1622, 
1623, 1624, 1625, 1626, 1627, 1628, 1629, 1630, 1631, 1632, 
1633, 1634, 1635, 1636, 1637, 1638, 1639, 1640, 1641, 1642, 
1643, 1644, 1645, 1646, 1647, 1648, 1649, 1650, 1651, 1652, 
1653, 1654, 1655, 1656, 1657, 1658, 1659, 1660, 1661, 1662, 
1663, 1664, 1665, 1666, 1667, 1668, 1669, 1670, 1671, 1672, 
1673, 1674, 1675, 1676, 1677, 1678, 1679, 1680, 1681, 1682, 
1683, 1684, 1685, 1686, 1687, 1688, 1689, 1690, 1691, 1692, 
1693, 1694, 1695, 1696, 1697, 1698, 1699, 1700, 1701, 1702, 
1703, 1704, 1705, 1706, 1707, 1708, 1709, 1710, 1711, 1712, 
1713, 1714, 1715, 1716, 1717, 1718, 1719, 1720, 1721, 1722, 
1723, 1724, 1725, 1726, 1727, 1728, 1729, 1730, 1731, 1732, 
1733, 1734, 1735, 1736, 1737, 1738, 1739, 1740, 1741, 1742, 
1743, 1744, 1745, 1746, 1747, 1748, 1749, 1750, 1751, 1752, 
1753, 1754, 1755, 1756, 1757, 1758, 1759, 1760, 1761, 1762, 
1763, 1764, 1765, 1766, 1767, 1768, 1769, 1770, 1771, 1772, 
1773, 1774, 1775, 1776, 1777, 1778, 1779, 1780, 1781, 1782, 
1783, 1784, 1785, 1786, 1787, 1788, 1789, 1790, 1791, 1792, 
1793, 1794, 1795, 1796, 1797, 1798, 1799, 1800, 1801, 1802, 
1803, 1804, 1805, 1806, 1807, 1808, 1809, 1810, 1811, 1812, 
1813, 1814, 1815, 1816, 1817, 1818, 1819, 1820, 1821, 1822, 
1823, 1824, 1825, 1826, 1827, 1828, 1829, 1830, 1831, 1832, 
1833, 1834, 1835, 1836, 1837, 1838, 1839, 1840, 1841, 1842, 
1843, 1844, 1845, 1846, 1847, 1848, 1849, 1850, 1851, 1852, 
1853, 1854, 1855, 1856, 1857, 1858, 1859, 1860, 1861, 1862, 
1863, 1864, 1865, 1866, 1867, 1868, 1869, 1870, 1871, 1872, 
1873, 1874, 1875, 1876, 1877, 1878, 1879, 1880, 1881, 1882, 
1883, 1884, 1885, 1886, 1887, 1888, 1889, 1890, 1891, 1892, 
1893, 1894, 1895, 1896, 1897, 1898, 1899, 1900, 1901, 1902, 
1903, 1904, 1905, 1906, 1907, 1908, 1909, 1910, 1911, 1912, 
1913, 1914, 1915, 1916, 1917, 1918, 1919, 1920, 1921, 1922, 
1923, 1924, 1925, 1926, 1927, 1928, 1929, 1930, 1931, 1932, 
1933, 1934, 1935, 1936, 1937, 1938, 1939, 1940, 1941, 1942, 
1943, 1944, 1945, 1946, 1947, 1948, 1949, 1950, 1951, 1952, 
1953, 1954, 1955, 1956, 1957, 1958, 1959, 1960, 1961, 1962, 
1963, 1964, 1965, 1966, 1967, 1968, 1969, 1970, 1971, 1972, 
1973, 1974, 1975, 1976, 1977, 1978, 1979, 1980, 1981, 1982, 
1983, 1984, 1985, 1986, 1987, 1988, 1989, 1990, 1991, 1992, 
1993, 1994, 1995, 1996, 1997, 1998, 1999, 2000, 2001, 2002, 
2003, 2004, 2005, 2006, 2007, 2008, 2009, 2010, 2011, 2012, 
2013, 2014, 2015, 2016, 2017, 2018, 2019, 2020, 2021, 2022, 
2023, 2024, 2025, 2026, 2027, 2028, 2029, 2030, 2031, 2032, 
2033, 2034, 2035, 2036, 2037, 2038, 2039, 2040, 2041, 2042, 
2043, 2044, 2045, 2046, 2047, 2048, 2049, 2050, 2051, 2052, 
2053, 2054, 2055, 2056, 2057, 2058, 2059, 2060, 2061, 2062, 
2063, 2064, 2065, 2066, 2067, 2068, 2069, 2070, 2071, 2072, 
2073, 2074, 2075, 2076, 2077, 2078, 2079, 2080, 2081, 2082, 
2083, 2084, 2085, 2086, 2087, 2088, 2089, 2090, 2091, 2092, 
2093, 2094, 2095, 2096, 2097, 2098, 2099, 2100, 2101, 2102, 
2103, 2104, 2105, 2106, 2107, 2108, 2109, 2110, 2111, 2112, 
2113, 2114, 2115, 2116, 2117, 2118, 2119, 2120, 2121, 2122, 
2123, 2124, 2125, 2126, 2127, 2128, 2129, 2130, 2131, 2132, 
2133, 2134, 2135, 2136, 2137, 2138, 2139, 2140, 2141, 2142, 
2143, 2144, 2145, 2146, 2147, 2148, 2149, 2150, 2151, 2152, 
2153, 2154, 2155, 2156, 2157, 2158, 2159, 2160, 2161, 2162, 
2163, 2164, 2165, 2166, 2167, 2168, 2169, 2170, 2171, 2172, 
2173, 2174, 2175, 2176, 2177, 2178, 2179, 2180, 2181, 2182, 
2183, 2184, 2185, 2186, 2187, 2188, 2189, 2190, 2191, 2192, 
2193, 2194, 2195, 2196, 2197, 2198, 2199, 2200, 2201, 2202, 
2203, 2204, 2205, 2206, 2207, 2208, 2209, 2210, 2211, 2212, 
2213, 2214, 2215, 2216, 2217, 2218, 2219, 2220, 2221, 2222, 
2223, 2224, 2225, 2226, 2227, 2228, 2229, 2230, 2231, 2232, 
2233, 2234, 2235, 2236, 2237, 2238, 2239, 2240, 2241, 2242, 
2243, 2244, 2245, 2246, 2247, 2248, 2249, 2250, 2251, 2252, 
2253, 2254, 2255, 2256, 2257, 2258, 2259, 2260, 2261, 2262, 
2263, 2264, 2265, 2266, 2267, 2268, 2269, 2270, 2271, 2272, 
2273, 2274, 2275, 2276, 2277, 2278, 2279, 2280, 2281, 2282, 
2283, 2284, 2285, 2286, 2287, 2288, 2289, 2290, 2291, 2292, 
2293, 2294, 2295, 2296, 2297, 2298, 2299, 2300, 2301, 2302, 
2303, 2304, 2305, 2306, 2307, 2308, 2309, 2310, 2311, 2312, 
2313, 2314, 2315, 2316, 2317, 2318, 2319, 2320, 2321, 2322, 
2323, 2324, 2325, 2326, 2327, 2328, 2329, 2330, 2331, 2332, 
2333, 2334, 2335, 2336, 2337, 2338, 2339, 2340, 2341, 2342, 
2343, 2344, 2345, 2346, 2347, 2348, 2349, 2350, 2351, 2352, 
2353, 2354, 2355, 2356, 2357, 2358, 2359, 2360, 2361, 2362, 
2363, 2364, 2365, 2366, 2367, 2368, 2369, 2370, 2371, 2372, 
2373, 2374, 2375, 2376, 2377, 2378, 2379, 2380, 2381, 2382, 
2383, 2384, 2385, 2386, 2387, 2388, 2389, 2390, 2391, 2392, 
2393, 2394, 2395, 2396, 2397, 2398, 2399, 2400, 2401, 2402, 
2403, 2404, 2405, 2406, 2407, 2408, 2409, 2410, 2411, 2412, 
2413, 2414, 2415, 2416, 2417, 2418, 2419, 2420, 2421, 2422, 
2423, 2424, 2425, 2426, 2427, 2428, 2429, 2430, 2431, 2432, 
2433, 2434, 2435, 2436, 2437, 2438, 2439, 2440, 2441, 2442, 
2443, 2444, 2445, 2446, 2447, 2448, 2449, 2450, 2451, 2452, 
2453, 2454, 2455, 2456, 2457, 2458, 2459, 2460, 2461, 2462, 
2463, 2464, 2465, 2466, 2467, 2468, 2469, 2470, 2471, 2472, 
2473, 2474, 2475, 2476, 2477, 2478, 2479, 2480, 2481, 2482, 
2483, 2484, 2485, 2486, 2487, 2488, 2489, 2490, 2491, 2492, 
2493, 2494, 2495, 2496, 2497, 2498, 2499, 2500, 2501, 2502, 
2503, 2504, 2505, 2506, 2507, 2508, 2509, 2510, 2511, 2512, 
2513, 2514, 2515, 2516, 2517, 2518, 2519, 2520, 2521, 2522, 
2523, 2524, 2525, 2526, 2527, 2528, 2529, 2530, 2531, 2532, 
2533, 2534, 2535, 2536, 2537, 2538, 2539, 2540, 2541, 2542, 
2543, 2544, 2545, 2546, 2547, 2548, 2549, 2550, 2551, 2552, 
2553, 2554, 2555, 2556, 2557, 2558, 2559, 2560, 2561, 2562, 
2563, 2564, 2565, 2566, 2567, 2568, 2569, 2570, 2571, 2572, 
2573, 2574, 2575, 2576, 2577, 2578, 2579, 2580, 2581, 2582, 
2583, 2584, 2585, 2586, 2587, 2588, 2589, 2590, 2591, 2592, 
2593, 2594, 2595, 2596, 2597, 2598, 2599, 2600, 2601, 2602, 
2603, 2604, 2605, 2606, 2607, 2608, 2609, 2610, 2611, 2612, 
2613, 2614, 2615, 2616, 2617, 2618, 2619, 2620, 2621, 2622, 
2623, 2624, 2625, 2626, 2627, 2628, 2629, 2630, 2631, 2632, 
2633, 2634, 2635, 2636, 2637, 2638, 2639, 2640, 2641, 2642, 
2643, 2644, 2645, 2646, 2647, 2648, 2649, 2650, 2651, 2652, 
2653, 2654, 2655, 2656, 2657, 2658, 2659, 2660, 2661, 2662, 
2663, 2664, 2665, 2666, 2667, 2668, 2669, 2670, 2671, 2672, 
2673, 2674, 2675, 2676, 2677, 2678, 2679, 2680, 2681, 2682, 
2683, 2684, 2685, 2686, 2687, 2688, 2689, 2690, 2691, 2692, 
2693, 2694, 2695, 2696, 2697, 2698, 2699, 2700, 2701, 2702, 
2703, 2704, 2705, 2706, 2707, 2708, 2709, 2710, 2711, 2712, 
2713, 2714, 2715, 2716, 2717, 2718, 2719, 2720, 2721, 2722, 
2723, 2724, 2725, 2726, 2727, 2728, 2729, 2730, 2731, 2732, 
2733, 2734, 2735, 2736, 2737, 2738, 2739, 2740, 2741, 2742, 
2743, 2744, 2745, 2746, 2747, 2748, 2749, 2750, 2751, 2752, 
2753, 2754, 2755, 2756, 2757, 2758, 2759, 2760, 2761, 2762, 
2763, 2764, 2765, 2766, 2767, 2768, 2769, 2770, 2771, 2772, 
2773, 2774, 2775, 2776, 2777, 2778, 2779, 2780, 2781, 2782, 
2783, 2784, 2785, 2786, 2787, 2788, 2789, 2790, 2791, 2792, 
2793, 2794, 2795, 2796, 2797, 2798, 2799, 2800, 2801, 2802, 
2803, 2804, 2805, 2806, 2807, 2808, 2809, 2810, 2811, 2812, 
2813, 2814, 2815, 2816, 2817, 2818, 2819, 2820, 2821, 2822, 
2823, 2824, 2825, 2826, 2827, 2828, 2829, 2830, 2831, 2832, 
2833, 2834, 2835, 2836, 2837, 2838, 2839, 2840, 2841, 2842, 
2843, 2844, 2845, 2846, 2847, 2848, 2849, 2850, 2851, 2852, 
2853, 2854, 2855, 2856, 2857, 2858, 2859, 2860, 2861, 2862, 
2863, 2864, 2865, 2866, 2867, 2868, 2869, 2870, 2871, 2872, 
2873, 2874, 2875, 2876, 2877, 2878, 2879, 2880, 2881, 2882, 
2883, 2884, 2885, 2886, 2887, 2888, 2889, 2890, 2891, 2892, 
2893, 2894, 2895, 2896, 2897, 2898, 2899, 2900, 2901, 2902, 
2903, 2904, 2905, 2906, 2907, 2908, 2909, 2910, 2911, 2912, 
2913, 2914, 2915, 2916, 2917, 2918, 2919, 2920, 2921, 2922, 
2923, 2924, 2925, 2926, 2927, 2928, 2929, 2930, 2931, 2932, 
2933, 2934, 2935, 2936, 2937, 2938, 2939, 2940, 2941, 2942, 
2943, 2944, 2945, 2946, 2947, 2948, 2949, 2950, 2951, 2952, 
2953, 2954, 2955, 2956, 2957, 2958, 2959, 2960, 2961, 2962, 
2963, 2964, 2965, 2966, 2967, 2968, 2969, 2970, 2971, 2972, 
2973, 2974, 2975, 2976, 2977, 2978, 2979, 2980, 2981, 2982, 
2983, 2984, 2985, 2986, 2987, 2988, 2989, 2990, 2991, 2992, 
2993, 2994, 2995, 2996, 2997, 2998, 2999, 3000, 3001, 3002, 
3003, 3004, 3005, 3006, 3007, 3008, 3009, 3010, 3011, 3012, 
3013, 3014, 3015, 3016, 3017, 3018, 3019, 3020, 3021, 3022, 
3023, 3024, 3025, 3026, 3027, 3028, 3029, 3030, 3031, 3032, 
3033, 3034, 3035, 3036, 3037, 3038, 3039, 3040, 3041, 3042, 
3043, 3044, 3045, 3046, 3047, 3048, 3049, 3050, 3051, 3052, 
3053, 3054, 3055, 3056, 3057, 3058, 3059, 3060, 3061, 3062, 
3063, 3064, 3065, 3066, 3067, 3068, 3069, 3070, 3071, 3072, 
3073, 3074, 3075, 3076, 3077, 3078, 3079, 3080, 3081, 3082, 
3083, 3084, 3085, 3086, 3087, 3088, 3089, 3090, 3091, 3092, 
3093, 3094, 3095, 3096, 3097, 3098, 3099, 3100, 3101, 3102, 
3103, 3104, 3105, 3106, 3107, 3108, 3109, 3110, 3111, 3112, 
3113, 3114, 3115, 3116, 3117, 3118, 3119, 3120, 3121, 3122, 
3123, 3124, 3125, 3126, 3127, 3128, 3129, 3130, 3131, 3132, 
3133, 3134, 3135, 3136, 3137, 3138, 3139, 3140, 3141, 3142, 
3143, 3144, 3145, 3146, 3147, 3148, 3149, 3150, 3151, 3152, 
3153, 3154, 3155, 3156, 3157, 3158, 3159, 3160, 3161, 3162, 
3163, 3164, 3165, 3166, 3167, 3168, 3169, 3170, 3171, 3172, 
3173, 3174, 3175, 3176, 3177, 3178, 3179, 
*NSET,NSET=contact_source
1, 8, 129, 130, 131, 132, 133, 134, 135, 136, 
137, 138, 139, 140, 141, 142, 143, 144, 145, 146, 
147, 148, 149, 
*NSET,NSET=contact_drain
4, 5, 47, 48, 49, 50, 51, 52, 53, 54, 
55, 56, 57, 58, 59, 60, 61, 62, 63, 64, 
65, 66, 67, 
*NSET,NSET=probe_A
6, 7, 89, 90, 91, 92, 93, 94, 95, 96, 
97, 98, 99, 100, 101, 102, 103, 104, 105, 106, 
107, 
*NSET,NSET=probe_B
2, 3, 25, 26, 27, 28, 29, 30, 31, 
*NSET,NSET=walls
1, 2, 3, 4, 5, 6, 7, 8, 9, 10, 
11, 12, 13, 14, 15, 16, 17, 18, 19, 20, 
21, 22, 23, 24, 32, 33, 34, 35, 36, 37, 
38, 39, 40, 41, 42, 43, 44, 45, 46, 68, 
69, 70, 71, 72, 73, 74, 75, 76, 77, 78, 
79, 80, 81, 82, 83, 84, 85, 86, 87, 88, 
108, 109, 110, 111, 112, 113, 114, 115, 116, 117, 
118, 119, 120, 121, 122, 123, 124, 125, 126, 127, 
128, 150, 151, 152, 153, 154, 155, 156, 157, 158, 
159, 160, 161, 162, 163, 164, 165, 166, 167, 168, 
169, 170, 171, 172, 173, 174, 175, 176, 177, 178, 
179, 180, 181, 182, 183, 184, 185, 186, 187, 188, 
189, 190, 191, 192, 193, 194, 195, 196, 197, 198, 
199, 200, 201, 202, 203, 204, 205, 206, 207, 208, 
209, 210, 211, 212, 213, 214, 215, 216, 217, 218, 
219, 220, 221, 222, 223, 224, 225, 226, 227, 228, 
229, 230, 231, 232, 233, 234, 235, 236, 237, 238, 
239, 240, 241, 242, 243, 244, 245, 246, 247, 248, 
249, 250, 251, 252, 253, 254, 255, 256, 257, 258, 
259, 260, 261, 262, 263, 264, 265, 266, 267, 268, 
269, 270, 271, 272, 273, 274, 275, 276, 277, 278, 
279, 280, 281, 282, 283, 284, 285, 286, 287, 288, 
289, 290, 291, 292, 293, 294, 295, 296, 297, 298, 
299, 300, 301, 302, 303, 304, 305, 306, 307, 308, 
309, 310, 311, 312, 313, 314, 315, 316, 317, 318, 
319, 320, 321, 322, 323, 324, 325, 326, 327, 328, 
329, 330, 331, 332, 333, 334, 335, 336, 337, 338, 
339, 340, 341, 342, 343, 344, 345, 346, 347, 348, 
349, 350, 351, 352, 353, 354, 355, 356, 357, 358, 
359, 360, 361, 362, 363, 364, 365, 366, 367, 368, 
369, 370, 371, 372, 373, 374, 375, 376, 377, 378, 
379, 380, 381, 382, 383, 384, 385, 386, 387, 388, 
389, 390, 391, 392, 393, 394, 395, 396, 397, 398, 
399, 400, 401, 402, 403, 404, 405, 406, 407, 408, 
409, 410, 411, 412, 413, 414, 415, 416, 417, 418, 
419, 420, 421, 422, 423, 424, 425, 426, 427, 428, 
429, 430, 431, 432, 433, 434, 435, 436, 437, 438, 
439, 440, 441, 442, 443, 444, 445, 446, 447, 448, 
449, 450, 451, 452, 453, 454, 455, 456, 457, 458, 
459, 460, 461, 462, 463, 464, 465, 466, 467, 468, 
469, 470, 471, 472, 473, 474, 475, 476, 477, 478, 
479, 480, 481, 482, 483, 484, 485, 486, 487, 488, 
489, 490, 491, 492, 
*NSET,NSET=domain
1, 2, 3, 4, 5, 6, 7, 8, 9, 10, 
11, 12, 13, 14, 15, 16, 17, 18, 19, 20, 
21, 22, 23, 24, 25, 26, 27, 28, 29, 30, 
31, 32, 33, 34, 35, 36, 37, 38, 39, 40, 
41, 42, 43, 44, 45, 46, 47, 48, 49, 50, 
51, 52, 53, 54, 55, 56, 57, 58, 59, 60, 
61, 62, 63, 64, 65, 66, 67, 68, 69, 70, 
71, 72, 73, 74, 75, 76, 77, 78, 79, 80, 
81, 82, 83, 84, 85, 86, 87, 88, 89, 90, 
91, 92, 93, 94, 95, 96, 97, 98, 99, 100, 
101, 102, 103, 104, 105, 106, 107, 108, 109, 110, 
111, 112, 113, 114, 115, 116, 117, 118, 119, 120, 
121, 122, 123, 124, 125, 126, 127, 128, 129, 130, 
131, 132, 133, 134, 135, 136, 137, 138, 139, 140, 
141, 142, 143, 144, 145, 146, 147, 148, 149, 150, 
151, 152, 153, 154, 155, 156, 157, 158, 159, 160, 
161, 162, 163, 164, 165, 166, 167, 168, 169, 170, 
171, 172, 173, 174, 175, 176, 177, 178, 179, 180, 
181, 182, 183, 184, 185, 186, 187, 188, 189, 190, 
191, 192, 193, 194, 195, 196, 197, 198, 199, 200, 
201, 202, 203, 204, 205, 206, 207, 208, 209, 210, 
211, 212, 213, 214, 215, 216, 217, 218, 219, 220, 
221, 222, 223, 224, 225, 226, 227, 228, 229, 230, 
231, 232, 233, 234, 235, 236, 237, 238, 239, 240, 
241, 242, 243, 244, 245, 246, 247, 248, 249, 250, 
251, 252, 253, 254, 255, 256, 257, 258, 259, 260, 
261, 262, 263, 264, 265, 266, 267, 268, 269, 270, 
271, 272, 273, 274, 275, 276, 277, 278, 279, 280, 
281, 282, 283, 284, 285, 286, 287, 288, 289, 290, 
291, 292, 293, 294, 295, 296, 297, 298, 299, 300, 
301, 302, 303, 304, 305, 306, 307, 308, 309, 310, 
311, 312, 313, 314, 315, 316, 317, 318, 319, 320, 
321, 322, 323, 324, 325, 326, 327, 328, 329, 330, 
331, 332, 333, 334, 335, 336, 337, 338, 339, 340, 
341, 342, 343, 344, 345, 346, 347, 348, 349, 350, 
351, 352, 353, 354, 355, 356, 357, 358, 359, 360, 
361, 362, 363, 364, 365, 366, 367, 368, 369, 370, 
371, 372, 373, 374, 375, 376, 377, 378, 379, 380, 
381, 382, 383, 384, 385, 386, 387, 388, 389, 390, 
391, 392, 393, 394, 395, 396, 397, 398, 399, 400, 
401, 402, 403, 404, 405, 406, 407, 408, 409, 410, 
411, 412, 413, 414, 415, 416, 417, 418, 419, 420, 
421, 422, 423, 424, 425, 426, 427, 428, 429, 430, 
431, 432, 433, 434, 435, 436, 437, 438, 439, 440, 
441, 442, 443, 444, 445, 446, 447, 448, 449, 450, 
451, 452, 453, 454, 455, 456, 457, 458, 459, 460, 
461, 462, 463, 464, 465, 466, 467, 468, 469, 470, 
471, 472, 473, 474, 475, 476, 477, 478, 479, 480, 
481, 482, 483, 484, 485, 486, 487, 488, 489, 490, 
491, 492, 493, 494, 495, 496, 497, 498, 499, 500, 
501, 502, 503, 504, 505, 506, 507, 508, 509, 510, 
511, 512, 513, 514, 515, 516, 517, 518, 519, 520, 
521, 522, 523, 524, 525, 526, 527, 528, 529, 530, 
531, 532, 533, 534, 535, 536, 537, 538, 539, 540, 
541, 542, 543, 544, 545, 546, 547, 548, 549, 550, 
551, 552, 553, 554, 555, 556, 557, 558, 559, 560, 
561, 562, 563, 564, 565, 566, 567, 568, 569, 570, 
571, 572, 573, 574, 575, 576, 577, 578, 579, 580, 
581, 582, 583, 584, 585, 586, 587, 588, 589, 590, 
591, 592, 593, 594, 595, 596, 597, 598, 599, 600, 
601, 602, 603, 604, 605, 606, 607, 608, 609, 610, 
611, 612, 613, 614, 615, 616, 617, 618, 619, 620, 
621, 622, 623, 624, 625, 626, 627, 628, 629, 630, 
631, 632, 633, 634, 635, 636, 637, 638, 639, 640, 
641, 642, 643, 644, 645, 646, 647, 648, 649, 650, 
651, 652, 653, 654, 655, 656, 657, 658, 659, 660, 
661, 662, 663, 664, 665, 666, 667, 668, 669, 670, 
671, 672, 673, 674, 675, 676, 677, 678, 679, 680, 
681, 682, 683, 684, 685, 686, 687, 688, 689, 690, 
691, 692, 693, 694, 695, 696, 697, 698, 699, 700, 
701, 702, 703, 704, 705, 706, 707, 708, 709, 710, 
711, 712, 713, 714, 715, 716, 717, 718, 719, 720, 
721, 722, 723, 724, 725, 726, 727, 728, 729, 730, 
731, 732, 733, 734, 735, 736, 737, 738, 739, 740, 
741, 742, 743, 744, 745, 746, 747, 748, 749, 750, 
751, 752, 753, 754, 755, 756, 757, 758, 759, 760, 
761, 762, 763, 764, 765, 766, 767, 768, 769, 770, 
771, 772, 773, 774, 775, 776, 777, 778, 779, 780, 
781, 782, 783, 784, 785, 786, 787, 788, 789, 790, 
791, 792, 793, 794, 795, 796, 797, 798, 799, 800, 
801, 802, 803, 804, 805, 806, 807, 808, 809, 810, 
811, 812, 813, 814, 815, 816, 817, 818, 819, 820, 
821, 822, 823, 824, 825, 826, 827, 828, 829, 830, 
831, 832, 833, 834, 835, 836, 837, 838, 839, 840, 
841, 842, 843, 844, 845, 846, 847, 848, 849, 850, 
851, 852, 853, 854, 855, 856, 857, 858, 859, 860, 
861, 862, 863, 864, 865, 866, 867, 868, 869, 870, 
871, 872, 873, 874, 875, 876, 877, 878, 879, 880, 
881, 882, 883, 884, 885, 886, 887, 888, 889, 890, 
891, 892, 893, 894, 895, 896, 897, 898, 899, 900, 
901, 902, 903, 904, 905, 906, 907, 908, 909, 910, 
911, 912, 913, 914, 915, 916, 917, 918, 919, 920, 
921, 922, 923, 924, 925, 926, 927, 928, 929, 930, 
931, 932, 933, 934, 935, 936, 937, 938, 939, 940, 
941, 942, 943, 944, 945, 946, 947, 948, 949, 950, 
951, 952, 953, 954, 955, 956, 957, 958, 959, 960, 
961, 962, 963, 964, 965, 966, 967, 968, 969, 970, 
971, 972, 973, 974, 975, 976, 977, 978, 979, 980, 
981, 982, 983, 984, 985, 986, 987, 988, 989, 990, 
991, 992, 993, 994, 995, 996, 997, 998, 999, 1000, 
1001, 1002, 1003, 1004, 1005, 1006, 1007, 1008, 1009, 1010, 
1011, 1012, 1013, 1014, 1015, 1016, 1017, 1018, 1019, 1020, 
1021, 1022, 1023, 1024, 1025, 1026, 1027, 1028, 1029, 1030, 
1031, 1032, 1033, 1034, 1035, 1036, 1037, 1038, 1039, 1040, 
1041, 1042, 1043, 1044, 1045, 1046, 1047, 1048, 1049, 1050, 
1051, 1052, 1053, 1054, 1055, 1056, 1057, 1058, 1059, 1060, 
1061, 1062, 1063, 1064, 1065, 1066, 1067, 1068, 1069, 1070, 
1071, 1072, 1073, 1074, 1075, 1076, 1077, 1078, 1079, 1080, 
1081, 1082, 1083, 1084, 1085, 1086, 1087, 1088, 1089, 1090, 
1091, 1092, 1093, 1094, 1095, 1096, 1097, 1098, 1099, 1100, 
1101, 1102, 1103, 1104, 1105, 1106, 1107, 1108, 1109, 1110, 
1111, 1112, 1113, 1114, 1115, 1116, 1117, 1118, 1119, 1120, 
1121, 1122, 1123, 1124, 1125, 1126, 1127, 1128, 1129, 1130, 
1131, 1132, 1133, 1134, 1135, 1136, 1137, 1138, 1139, 1140, 
1141, 1142, 1143, 1144, 1145, 1146, 1147, 1148, 1149, 1150, 
1151, 1152, 1153, 1154, 1155, 1156, 1157, 1158, 1159, 1160, 
1161, 1162, 1163, 1164, 1165, 1166, 1167, 1168, 1169, 1170, 
1171, 1172, 1173, 1174, 1175, 1176, 1177, 1178, 1179, 1180, 
1181, 1182, 1183, 1184, 1185, 1186, 1187, 1188, 1189, 1190, 
1191, 1192, 1193, 1194, 1195, 1196, 1197, 1198, 1199, 1200, 
1201, 1202, 1203, 1204, 1205, 1206, 1207, 1208, 1209, 1210, 
1211, 1212, 1213, 1214, 1215, 1216, 1217, 1218, 1219, 1220, 
1221, 1222, 1223, 1224, 1225, 1226, 1227, 1228, 1229, 1230, 
1231, 1232, 1233, 1234, 1235, 1236, 1237, 1238, 1239, 1240, 
1241, 1242, 1243, 1244, 1245, 1246, 1247, 1248, 1249, 1250, 
1251, 1252, 1253, 1254, 1255, 1256, 1257, 1258, 1259, 1260, 
1261, 1262, 1263, 1264, 1265, 1266, 1267, 1268, 1269, 1270, 
1271, 1272, 1273, 1274, 1275, 1276, 1277, 1278, 1279, 1280, 
1281, 1282, 1283, 1284, 1285, 1286, 1287, 1288, 1289, 1290, 
1291, 1292, 1293, 1294, 1295, 1296, 1297, 1298, 1299, 1300, 
1301, 1302, 1303, 1304, 1305, 1306, 1307, 1308, 1309, 1310, 
1311, 1312, 1313, 1314, 1315, 1316, 1317, 1318, 1319, 1320, 
1321, 1322, 1323, 1324, 1325, 1326, 1327, 1328, 1329, 1330, 
1331, 1332, 1333, 1334, 1335, 1336, 1337, 1338, 1339, 1340, 
1341, 1342, 1343, 1344, 1345, 1346, 1347, 1348, 1349, 1350, 
1351, 1352, 1353, 1354, 1355, 1356, 1357, 1358, 1359, 1360, 
1361, 1362, 1363, 1364, 1365, 1366, 1367, 1368, 1369, 1370, 
1371, 1372, 1373, 1374, 1375, 1376, 1377, 1378, 1379, 1380, 
1381, 1382, 1383, 1384, 1385, 1386, 1387, 1388, 1389, 1390, 
1391, 1392, 1393, 1394, 1395, 1396, 1397, 1398, 1399, 1400, 
1401, 1402, 1403, 1404, 1405, 1406, 1407, 1408, 1409, 1410, 
1411, 1412, 1413, 1414, 1415, 1416, 1417, 1418, 1419, 1420, 
1421, 1422, 1423, 1424, 1425, 1426, 1427, 1428, 1429, 1430, 
1431, 1432, 1433, 1434, 1435, 1436, 1437, 1438, 1439, 1440, 
1441, 1442, 1443, 1444, 1445, 1446, 1447, 1448, 1449, 1450, 
1451, 1452, 1453, 1454, 1455, 1456, 1457, 1458, 1459, 1460, 
1461, 1462, 1463, 1464, 1465, 1466, 1467, 1468, 1469, 1470, 
1471, 1472, 1473, 1474, 1475, 1476, 1477, 1478, 1479, 1480, 
1481, 1482, 1483, 1484, 1485, 1486, 1487, 1488, 1489, 1490, 
1491, 1492, 1493, 1494, 1495, 1496, 1497, 1498, 1499, 1500, 
1501, 1502, 1503, 1504, 1505, 1506, 1507, 1508, 1509, 1510, 
1511, 1512, 1513, 1514, 1515, 1516, 1517, 1518, 1519, 1520, 
1521, 1522, 1523, 1524, 1525, 1526, 1527, 1528, 1529, 1530, 
1531, 1532, 1533, 1534, 1535, 1536, 1537, 1538, 1539, 1540, 
1541, 1542, 1543, 1544, 1545, 1546, 1547, 1548, 1549, 1550, 
1551, 1552, 1553, 1554, 1555, 1556, 1557, 1558, 1559, 1560, 
1561, 1562, 1563, 1564, 1565, 1566, 1567, 1568, 1569, 1570, 
1571, 1572, 1573, 1574, 1575, 1576, 1577, 1578, 1579, 1580, 
1581, 1582, 1583, 1584, 1585, 1586, 1587, 1588, 1589, 1590, 
1591, 1592, 1593, 1594, 1595, 1596, 1597, 1598, 1599, 1600, 
1601, 1602, 1603, 1604, 1605, 1606, 1607, 1608, 1609, 1610, 
1611, 1612, 1613, 1614, 1615, 1616, 1617, 1618, 1619, 1620, 
1621, 1622, 1623, 1624, 1625, 1626, 1627, 1628, 1629, 1630, 
1631, 1632, 1633, 1634, 1635, 1636, 1637, 1638, 1639, 1640, 
1641, 1642, 1643, 1644, 1645, 1646, 1647, 1648, 1649, 1650, 
1651, 1652, 1653, 1654, 1655, 1656, 1657, 1658, 1659, 1660, 
1661, 1662, 1663, 1664, 1665, 1666, 1667, 1668, 1669, 1670, 
1671, 1672, 1673, 1674, 1675, 1676, 1677, 1678, 1679, 1680, 
1681, 1682, 1683, 1684, 1685, 1686, 1687, 1688, 1689, 1690, 
1691, 1692, 1693, 1694, 1695, 1696, 1697, 1698, 1699, 1700, 
1701, 1702, 1703, 1704, 1705, 1706, 1707, 1708, 1709, 1710, 
1711, 1712, 1713, 1714, 1715, 1716, 1717, 1718, 1719, 1720, 
1721, 1722, 1723, 1724, 1725, 1726, 1727, 1728, 1729, 1730, 
1731, 1732, 1733, 1734, 1735, 1736, 1737, 1738, 1739, 1740, 
1741, 1742, 1743, 1744, 1745, 1746, 1747, 1748, 1749, 1750, 
1751, 1752, 1753, 1754, 1755, 1756, 1757, 1758, 1759, 1760, 
1761, 1762, 1763, 1764, 1765, 1766, 1767, 1768, 1769, 1770, 
1771, 1772, 1773, 1774, 1775, 1776, 1777, 1778, 1779, 1780, 
1781, 1782, 1783, 1784, 1785, 1786, 1787, 1788, 1789, 1790, 
1791, 1792, 1793, 1794, 1795, 1796, 1797, 1798, 1799, 1800, 
1801, 1802, 1803, 1804, 1805, 1806, 1807, 1808, 1809, 1810, 
1811, 1812, 1813, 1814, 1815, 1816, 1817, 1818, 1819, 1820, 
1821, 1822, 1823, 1824, 1825, 1826, 1827, 1828, 1829, 1830, 
1831, 1832, 1833, 1834, 1835, 1836, 1837, 1838, 1839, 1840, 
1841, 1842, 1843, 1844, 1845, 1846, 1847, 1848, 1849, 1850, 
1851, 1852, 1853, 1854, 1855, 1856, 1857, 1858, 1859, 1860, 
1861, 1862, 1863, 1864, 1865, 1866, 1867, 1868, 1869, 1870, 
1871, 1872, 1873, 1874, 1875, 1876, 1877, 1878, 1879, 1880, 
1881, 1882, 1883, 1884, 1885, 1886, 1887, 1888, 1889, 1890, 
1891, 1892, 1893, 1894, 1895, 1896, 1897, 1898, 1899, 1900, 
1901, 1902, 1903, 1904, 1905, 1906, 1907, 1908, 1909, 1910, 
1911, 1912, 1913, 1914, 1915, 1916, 1917, 1918, 1919, 1920, 
1921, 1922, 1923, 1924, 1925, 1926, 1927, 1928, 1929, 1930, 
1931, 1932, 1933, 1934, 1935, 1936, 1937, 1938, 1939, 1940, 
1941, 1942, 1943, 1944, 1945, 1946, 1947, 1948, 1949, 1950, 
1951, 1952, 1953, 1954, 1955, 1956, 1957, 1958, 1959, 1960, 
1961, 1962, 1963, 1964, 1965, 1966, 1967, 1968, 1969, 1970, 
1971, 1972, 1973, 1974, 1975, 1976, 1977, 1978, 1979, 1980, 
1981, 1982, 1983, 1984, 1985, 1986, 1987, 1988, 1989, 1990, 
1991, 1992, 1993, 1994, 1995, 1996, 1997, 1998, 1999, 2000, 
2001, 2002, 2003, 2004, 2005, 2006, 2007, 2008, 2009, 2010, 
2011, 2012, 2013, 2014, 2015, 2016, 2017, 2018, 2019, 2020, 
2021, 2022, 2023, 2024, 2025, 2026, 2027, 2028, 2029, 2030, 
2031, 2032, 2033, 2034, 2035, 2036, 2037, 2038, 2039, 2040, 
2041, 2042, 2043, 2044, 2045, 2046, 2047, 2048, 2049, 2050, 
2051, 2052, 2053, 2054, 2055, 2056, 2057, 2058, 2059, 2060, 
2061, 2062, 2063, 2064, 2065, 2066, 2067, 2068, 2069, 2070, 
2071, 2072, 2073, 2074, 2075, 2076, 2077, 2078, 2079, 2080, 
2081, 2082, 2083, 2084, 2085, 2086, 2087, 2088, 2089, 2090, 
2091, 2092, 2093, 2094, 2095, 2096, 2097, 2098, 2099, 2100, 
2101, 2102, 2103, 2104, 2105, 2106, 2107, 2108, 2109, 2110, 
2111, 2112, 2113, 2114, 2115, 2116, 2117, 2118, 2119, 2120, 
2121, 2122, 2123, 2124, 2125, 2126, 2127, 2128, 2129, 2130, 
2131, 2132, 2133, 2134, 2135, 2136, 2137, 2138, 2139, 2140, 
2141, 2142, 2143, 2144, 2145, 2146, 2147, 2148, 2149, 2150, 
2151, 2152, 2153, 2154, 2155, 2156, 2157, 2158, 2159, 2160, 
2161, 2162, 2163, 2164, 2165, 2166, 2167, 2168, 2169, 2170, 
2171, 2172, 2173, 2174, 2175, 2176, 2177, 2178, 2179, 2180, 
2181, 2182, 2183, 2184, 2185, 2186, 2187, 2188, 2189, 2190, 
2191, 2192, 2193, 2194, 2195, 2196, 2197, 2198, 2199, 2200, 
2201, 2202, 2203, 2204, 2205, 2206, 2207, 2208, 2209, 2210, 
2211, 2212, 2213, 2214, 2215, 2216, 2217, 2218, 2219, 2220, 
2221, 2222, 2223, 2224, 2225, 2226, 2227, 2228, 2229, 2230, 
2231, 2232, 2233, 2234, 2235, 2236, 2237, 2238, 2239, 2240, 
2241, 2242, 2243, 2244, 2245, 2246, 2247, 2248, 2249, 2250, 
2251, 2252, 2253, 2254, 2255, 2256, 2257, 2258, 2259, 2260, 
2261, 2262, 2263, 2264, 2265, 2266, 2267, 2268, 2269, 2270, 
2271, 2272, 2273, 2274, 2275, 2276, 2277, 2278, 2279, 2280, 
2281, 2282, 2283, 2284, 2285, 2286, 2287, 2288, 2289, 2290, 
2291, 2292, 2293, 2294, 2295, 2296, 2297, 2298, 2299, 2300, 
2301, 2302, 2303, 2304, 2305, 2306, 2307, 2308, 2309, 2310, 
2311, 2312, 2313, 2314, 2315, 2316, 2317, 2318, 2319, 2320, 
2321, 2322, 2323, 2324, 2325, 2326, 2327, 2328, 2329, 2330, 
2331, 2332, 2333, 2334, 2335, 2336, 2337, 2338, 2339, 2340, 
2341, 2342, 2343, 2344, 2345, 2346, 2347, 2348, 2349, 2350, 
2351, 2352, 2353, 2354, 2355, 2356, 2357, 2358, 2359, 2360, 
2361, 2362, 2363, 2364, 2365, 2366, 2367, 2368, 2369, 2370, 
2371, 2372, 2373, 2374, 2375, 2376, 2377, 2378, 2379, 2380, 
2381, 2382, 2383, 2384, 2385, 2386, 2387, 2388, 2389, 2390, 
2391, 2392, 2393, 2394, 2395, 2396, 2397, 2398, 2399, 2400, 
2401, 2402, 2403, 2404, 2405, 2406, 2407, 2408, 2409, 2410, 
2411, 2412, 2413, 2414, 2415, 2416, 2417, 2418, 2419, 2420, 
2421, 2422, 2423, 2424, 2425, 2426, 2427, 2428, 2429, 2430, 
2431, 2432, 2433, 2434, 2435, 2436, 2437, 2438, 2439, 2440, 
2441, 2442, 2443, 2444, 2445, 2446, 2447, 2448, 2449, 2450, 
2451, 2452, 2453, 2454, 2455, 2456, 2457, 2458, 2459, 2460, 
2461, 2462, 2463, 2464, 2465, 2466, 2467, 2468, 2469, 2470, 
2471, 2472, 2473, 2474, 2475, 2476, 2477, 2478, 2479, 2480, 
2481, 2482, 2483, 2484, 2485, 2486, 2487, 2488, 2489, 2490, 
2491, 2492, 2493, 2494, 2495, 2496, 2497, 2498, 2499, 2500, 
2501, 2502, 2503, 2504, 2505, 2506, 2507, 2508, 2509, 2510, 
2511, 2512, 2513, 2514, 2515, 2516, 2517, 2518, 2519, 2520, 
2521, 2522, 2523, 2524, 2525, 2526, 2527, 2528, 2529, 2530, 
2531, 2532, 2533, 2534, 2535, 2536, 2537, 2538, 2539, 2540, 
2541, 2542, 2543, 2544, 2545, 2546, 2547, 2548, 2549, 2550, 
2551, 2552, 2553, 2554, 2555, 2556, 2557, 2558, 2559, 2560, 
2561, 2562, 2563, 2564, 2565, 2566, 2567, 2568, 2569, 2570, 
2571, 2572, 2573, 2574, 2575, 2576, 2577, 2578, 2579, 2580, 
2581, 2582, 2583, 2584, 2585, 2586, 2587, 2588, 2589, 2590, 
2591, 2592, 2593, 2594, 2595, 2596, 2597, 2598, 2599, 2600, 
2601, 2602, 2603, 2604, 2605, 2606, 2607, 2608, 2609, 2610, 
2611, 2612, 2613, 2614, 2615, 2616, 2617, 2618, 2619, 2620, 
2621, 2622, 2623, 2624, 2625, 2626, 2627, 2628, 2629, 2630, 
2631, 2632, 2633, 2634, 2635, 2636, 2637, 2638, 2639, 2640, 
2641, 2642, 2643, 2644, 2645, 2646, 2647, 2648, 2649, 2650, 
2651, 2652, 2653, 2654, 2655, 2656, 2657, 2658, 2659, 2660, 
2661, 2662, 2663, 2664, 2665, 2666, 2667, 2668, 2669, 2670, 
2671, 2672, 2673, 2674, 2675, 2676, 2677, 2678, 2679, 2680, 
2681, 2682, 2683, 2684, 2685, 2686, 2687, 2688, 2689, 2690, 
2691, 2692, 2693, 2694, 2695, 2696, 2697, 2698, 2699, 2700, 
2701, 2702, 2703, 2704, 2705, 2706, 2707, 2708, 2709, 2710, 
2711, 2712, 2713, 2714, 2715, 2716, 2717, 2718, 2719, 2720, 
2721, 2722, 2723, 2724, 2725, 2726, 2727, 2728, 2729, 2730, 
2731, 2732, 2733, 2734, 2735, 2736, 2737, 2738, 2739, 2740, 
2741, 2742, 2743, 2744, 2745, 2746, 2747, 2748, 2749, 2750, 
2751, 2752, 2753, 2754, 2755, 2756, 2757, 2758, 2759, 2760, 
2761, 2762, 2763, 2764, 2765, 2766, 2767, 2768, 2769, 2770, 
2771, 2772, 2773, 2774, 2775, 2776, 2777, 2778, 2779, 2780, 
2781, 2782, 2783, 2784, 2785, 2786, 2787, 2788, 2789, 2790, 
2791, 2792, 2793, 2794, 2795, 2796, 2797, 2798, 2799, 2800, 
2801, 2802, 2803, 2804, 2805, 2806, 2807, 2808, 2809, 2810, 
2811, 2812, 2813, 2814, 2815, 2816, 2817, 2818, 2819, 2820, 
2821, 2822, 2823, 2824, 2825, 2826, 2827, 2828, 2829, 2830, 
2831, 2832, 2833, 2834, 2835, 2836, 2837, 2838, 2839, 2840, 
2841, 2842, 2843, 2844, 2845, 2846, 2847, 2848, 2849, 2850, 
2851, 2852, 2853, 2854, 2855, 2856, 2857, 2858, 2859, 2860, 
2861, 2862, 2863, 2864, 2865, 2866, 2867, 2868, 2869, 2870, 
2871, 2872, 2873, 2874, 2875, 2876, 2877, 2878, 2879, 2880, 
2881, 2882, 2883, 2884, 2885, 2886, 2887, 2888, 2889, 2890, 
2891, 2892, 2893, 2894, 2895, 2896, 2897, 2898, 2899, 2900, 
2901, 2902, 2903, 2904, 2905, 2906, 2907, 2908, 2909, 2910, 
2911, 2912, 2913, 2914, 2915, 2916, 2917, 2918, 2919, 2920, 
2921, 2922, 2923, 2924, 2925, 2926, 2927, 2928, 2929, 2930, 
2931, 2932, 2933, 
