*Heading
 /Users/juliagao/geometry-optimization-net/scripts/../runs/r0_sweep/shape_1.inp
*NODE
1, 0, -0.3, 0
2, 0.425, -0.3, 0
3, 0.575, -0.3, 0
4, 1, -0.3, 0
5, 1, 0.3, 0
6, 0.575, 0.3, 0
7, 0.425, 0.3, 0
8, 0, 0.3, 0
9, 0.62, 0.15, 0
10, 0.024637697775238, -0.3, 0
11, 0.075426989839191, -0.3, 0
12, 0.12916174940664, -0.3, 0
13, 0.1846391026199, -0.3, 0
14, 0.24018916696322, -0.3, 0
15, 0.29494486466903, -0.3, 0
16, 0.34843023781531, -0.3, 0
17, 0.39990789483228, -0.3, 0
18, 0.049275395550475, -0.3, 0
19, 0.10157858412791, -0.3, 0
20, 0.15674491468537, -0.3, 0
21, 0.21253329055444, -0.3, 0
22, 0.26784504337201, -0.3, 0
23, 0.32204468596605, -0.3, 0
24, 0.37481578966456, -0.3, 0
25, 0.44967711551976, -0.3, 0
26, 0.49917558482154, -0.3, 0
27, 0.54949846930178, -0.3, 0
28, 0.47435423103953, -0.3, 0
29, 0.52399693860355, -0.3, 0
30, 0.60156413857929, -0.3, 0
31, 0.6545195111858, -0.3, 0
32, 0.70727735130943, -0.3, 0
33, 0.76041339006, -0.3, 0
34, 0.81371906427575, -0.3, 0
35, 0.86748816898517, -0.3, 0
36, 0.92154412980369, -0.3, 0
37, 0.97418361373719, -0.3, 0
38, 0.62812827715858, -0.3, 0
39, 0.68091074521302, -0.3, 0
40, 0.73364395740583, -0.3, 0
41, 0.78718282271418, -0.3, 0
42, 0.84025530583733, -0.3, 0
43, 0.894721032133, -0.3, 0
44, 0.94836722747438, -0.3, 0
45, 1, -0.27433061666695, 0
46, 1, -0.22275812136055, 0
47, 1, -0.17012387002289, 0
48, 1, -0.11507529618798, 0
49, 1, -0.058328055669654, 0
50, 1, -0.0026594854361884, 0
51, 1, 0.051042588142758, 0
52, 1, 0.10511993683853, 0
53, 1, 0.16193070372115, 0
54, 1, 0.21922495149789, 0
55, 1, 0.2736612358473, 0
56, 1, -0.24866123333391, 0
57, 1, -0.1968550093872, 0
58, 1, -0.14339273065857, 0
59, 1, -0.086757861717381, 0
60, 1, -0.029898249621928, 0
61, 1, 0.024579278749551, 0
62, 1, 0.077505897535965, 0
63, 1, 0.1327339761411, 0
64, 1, 0.1911274313012, 0
65, 1, 0.24732247169459, 0
66, 0.97387959475283, 0.3, 0
67, 0.92099804281376, 0.3, 0
68, 0.86700807718941, 0.3, 0
69, 0.81245200078253, 0.3, 0
70, 0.75905207485706, 0.3, 0
71, 0.71015897098961, 0.3, 0
72, 0.66849688096931, 0.3, 0
73, 0.6345774302019, 0.3, 0
74, 0.60745615648525, 0.3, 0
75, 0.58520633946606, 0.3, 0
76, 0.94775918950566, 0.3, 0
77, 0.89423689612186, 0.3, 0
78, 0.83977925825696, 0.3, 0
79, 0.7851247433081, 0.3, 0
80, 0.73297940640602, 0.3, 0
81, 0.68733853557319, 0.3, 0
82, 0.64965522636542, 0.3, 0
83, 0.61949963403838, 0.3, 0
84, 0.59541267893213, 0.3, 0
85, 0.56648918303495, 0.3, 0
86, 0.55014348108294, 0.3, 0
87, 0.53503902872176, 0.3, 0
88, 0.52084269121296, 0.3, 0
89, 0.50704648480853, 0.3, 0
90, 0.49322833436297, 0.3, 0
91, 0.47918971149521, 0.3, 0
92, 0.46472555132874, 0.3, 0
93, 0.449536974465, 0.3, 0
94, 0.43336132453784, 0.3, 0
95, 0.5579783660699, 0.3, 0
96, 0.54230859609598, 0.3, 0
97, 0.52776946134754, 0.3, 0
98, 0.51391592107837, 0.3, 0
99, 0.50017704853869, 0.3, 0
100, 0.48627962018725, 0.3, 0
101, 0.47209980280316, 0.3, 0
102, 0.45735129985432, 0.3, 0
103, 0.44172264907569, 0.3, 0
104, 0.41509798139037, 0.3, 0
105, 0.39313507935815, 0.3, 0
106, 0.36622756765279, 0.3, 0
107, 0.33290263920199, 0.3, 0
108, 0.29164270769171, 0.3, 0
109, 0.24264792264141, 0.3, 0
110, 0.18860199946756, 0.3, 0
111, 0.13288174931709, 0.3, 0
112, 0.078156589257781, 0.3, 0
113, 0.025659454941565, 0.3, 0
114, 0.40519596278074, 0.3, 0
115, 0.38107419593556, 0.3, 0
116, 0.35138093937001, 0.3, 0
117, 0.31442433903397, 0.3, 0
118, 0.26886107634945, 0.3, 0
119, 0.21643476893337, 0.3, 0
120, 0.16076923000175, 0.3, 0
121, 0.10499426863243, 0.3, 0
122, 0.05131890988313, 0.3, 0
123, 0, 0.27411303361171, 0
124, 0, 0.22186392355136, 0
125, 0, 0.16840627078125, 0
126, 0, 0.11348267122039, 0
127, 0, 0.057471659094806, 0
128, 0, 0.00080601435341737, 0
129, 0, -0.055644846998345, 0
130, 0, -0.11120582570867, 0
131, 0, -0.16631883899583, 0
132, 0, -0.22081788299439, 0
133, 0, -0.27389837707148, 0
134, 0, 0.24822606722342, 0
135, 0, 0.19550177987929, 0
136, 0, 0.1413107616832, 0
137, 0, 0.085654580757574, 0
138, 0, 0.029288737432039, 0
139, 0, -0.027676708725204, 0
140, 0, -0.083612985271487, 0
141, 0, -0.13879866614586, 0
142, 0, -0.1938390118458, 0
143, 0, -0.24779675414297, 0
144, 0.61993981356391, 0.15380028101154, 0
145, 0.61944850456221, 0.13850850879131, 0
146, 0.6184831409901, 0.1309803970598, 0
147, 0.61703736486517, 0.12349990424653, 0
148, 0.61507192698283, 0.11596396771032, 0
149, 0.61257258828291, 0.10843784942239, 0
150, 0.60965190667036, 0.10125105925067, 0
151, 0.60640795538441, 0.094526159885, 0
152, 0.60279953236159, 0.088094781547614, 0
153, 0.59876644149693, 0.081844370137037, 0
154, 0.59432830899616, 0.075823385655995, 0
155, 0.58957549253381, 0.070148694648756, 0
156, 0.58453535077605, 0.064830906815416, 0
157, 0.57921039703511, 0.059857263984456, 0
158, 0.57359867799595, 0.055220073185541, 0
159, 0.56762133585639, 0.050866984065602, 0
160, 0.56132580295153, 0.046853765247284, 0
161, 0.55478173858147, 0.043234082651997, 0
162, 0.54804051056239, 0.040035873245804, 0
163, 0.54117376448111, 0.037284778771631, 0
164, 0.53411862157415, 0.034952533589305, 0
165, 0.52689532842363, 0.033052827313296, 0
166, 0.51953358452614, 0.031600510866245, 0
167, 0.51205458938426, 0.030607007363524, 0
168, 0.50469903857197, 0.030092039359919, 0
169, 0.49754817058159, 0.03002505115806, 0
170, 0.49042037694229, 0.030382982784179, 0
171, 0.48318034915574, 0.031184600411953, 0
172, 0.47581119045551, 0.032463191205092, 0
173, 0.4684497544333, 0.034221841776313, 0
174, 0.46126281473728, 0.036424340965059, 0
175, 0.45432311359508, 0.03903323902726, 0
176, 0.44755006182998, 0.042069449110979, 0
177, 0.44082215991545, 0.045606594090836, 0
178, 0.43421778565039, 0.049637157287231, 0
179, 0.42800234159265, 0.053998244707806, 0
180, 0.42225971611511, 0.058586389093746, 0
181, 0.41679106582704, 0.063534555536593, 0
182, 0.41156158858937, 0.068891138797038, 0
183, 0.40667862672477, 0.074560480134242, 0
184, 0.40214058851484, 0.080548322779836, 0
185, 0.39797034130191, 0.086833959145673, 0
186, 0.39422815502764, 0.093322697401775, 0
187, 0.39092447471115, 0.099974708547169, 0
188, 0.38802143839443, 0.10686299057807, 0
189, 0.38551612833054, 0.11403553089405, 0
190, 0.38346973934859, 0.12135216753253, 0
191, 0.38191215480838, 0.12866316236919, 0
192, 0.38081878755627, 0.13600576581186, 0
193, 0.38017917734895, 0.14344482767327, 0
194, 0.38000368613819, 0.15094052421386, 0
195, 0.38029920208809, 0.15846870082525, 0
196, 0.38106134579862, 0.16592470956126, 0
197, 0.38226402428983, 0.1732000001194, 0
198, 0.38388062287978, 0.18027028374797, 0
199, 0.38589293060073, 0.18714265365806, 0
200, 0.38832576919085, 0.19391885691532, 0
201, 0.39122432047806, 0.2006739728977, 0
202, 0.39457869541354, 0.2073266813955, 0
203, 0.39834713014743, 0.21377063544279, 0
204, 0.40247330079394, 0.21991811560985, 0
205, 0.40690368571812, 0.22571707935487, 0
206, 0.41167165993465, 0.2312287161769, 0
207, 0.41680650851503, 0.23648030288429, 0
208, 0.42229046229278, 0.24143974925781, 0
209, 0.42812063893019, 0.24609036007051, 0
210, 0.43419562298848, 0.25034831284764, 0
211, 0.44037691147165, 0.25413974846815, 0
212, 0.44672038320855, 0.25752340360052, 0
213, 0.45334169559073, 0.26055768890637, 0
214, 0.46016762846739, 0.26319621025684, 0
215, 0.46709635635386, 0.26540082421515, 0
216, 0.47428037290746, 0.26721135008504, 0
217, 0.48191048012357, 0.26862870323979, 0
218, 0.48987672718192, 0.26957223460936, 0
219, 0.4978831449822, 0.26998132665586, 0
220, 0.50569849416402, 0.26986461977189, 0
221, 0.51328859398982, 0.26926195202443, 0
222, 0.52064465821275, 0.26821081981975, 0
223, 0.52774635228429, 0.26674819020593, 0
224, 0.53466827877748, 0.26488302868837, 0
225, 0.54150188747476, 0.26259481928322, 0
226, 0.54826613142094, 0.25986528290657, 0
227, 0.55486766402461, 0.25672178515192, 0
228, 0.56129885207477, 0.25316225367294, 0
229, 0.56759656515553, 0.24914990818919, 0
230, 0.57361708312723, 0.24476563197826, 0
231, 0.57926574963686, 0.24009406630716, 0
232, 0.58462319001921, 0.23508181759336, 0
233, 0.58967937811131, 0.22973461587354, 0
234, 0.59437528445728, 0.22411683799212, 0
235, 0.59882138438338, 0.21807594174028, 0
236, 0.60308176246787, 0.21143411193902, 0
237, 0.60691869103478, 0.20448296532168, 0
238, 0.61016996750485, 0.19756656501273, 0
239, 0.6129115060849, 0.19063239734503, 0
240, 0.61523643731993, 0.18347481814741, 0
241, 0.61712724254837, 0.17609997828866, 0
242, 0.6185330525365, 0.16870602740253, 0
243, 0.61946570092338, 0.16131133652918, 0
244, 0.61993808987977, 0.14614597547028, 0
245, 0.61975929457646, 0.15759674868975, 0
246, 0.61905691548782, 0.16501501766591, 0
247, 0.61789478795236, 0.17237898311975, 0
248, 0.61624228626554, 0.17979481030215, 0
249, 0.61411411793706, 0.18712099265185, 0
250, 0.6116008736495, 0.19410492974888, 0
251, 0.6086317193334, 0.20098185465683, 0
252, 0.60509286127385, 0.20792659531284, 0
253, 0.60095364312939, 0.21487188736617, 0
254, 0.59658747370763, 0.22120997022031, 0
255, 0.59207564247715, 0.22695502552589, 0
256, 0.58719923768803, 0.23243963138377, 0
257, 0.58196711922073, 0.23764354693204, 0
258, 0.57649115610357, 0.24246135882329, 0
259, 0.5706736363873, 0.24698060174339, 0
260, 0.56445295698507, 0.2512216190777, 0
261, 0.55808636687486, 0.25500463769795, 0
262, 0.55159825156417, 0.2583402986387, 0
263, 0.54488900130125, 0.26128781365038, 0
264, 0.53807678534593, 0.26379876246031, 0
265, 0.53122897163675, 0.26586522864707, 0
266, 0.52423886078368, 0.26752649722898, 0
267, 0.51703126390952, 0.26878525117637, 0
268, 0.50953278794987, 0.26962075882132, 0
269, 0.50185835885689, 0.26998560887174, 0
270, 0.49391025412672, 0.26984537896744, 0
271, 0.48585469018568, 0.26916337609377, 0
272, 0.47798617186758, 0.26796351655102, 0
273, 0.47060011253539, 0.26634279730942, 0
274, 0.46362267893326, 0.26435335793821, 0
275, 0.45674930205679, 0.26193469953582, 0
276, 0.44997785715461, 0.25907696927837, 0
277, 0.44351110019014, 0.25587258387804, 0
278, 0.4372958281084, 0.25231415751045, 0
279, 0.43115699896221, 0.24828856006294, 0
280, 0.42515441881372, 0.24379839512441, 0
281, 0.41950079138166, 0.23899369248417, 0
282, 0.41419065990221, 0.23388538024712, 0
283, 0.4092348746791, 0.22849644565841, 0
284, 0.40465757165799, 0.22286851990986, 0
285, 0.40038029838878, 0.21690227986758, 0
286, 0.39641237425234, 0.21057725322248, 0
287, 0.39284698651856, 0.20402065974217, 0
288, 0.38970615021274, 0.19727860585937, 0
289, 0.38704770421737, 0.19051886948152, 0
290, 0.38483905011072, 0.18373359640375, 0
291, 0.38302632446798, 0.17677982653639, 0
292, 0.38161125397783, 0.16959859074596, 0
293, 0.38062541847527, 0.16223556743846, 0
294, 0.38009181957741, 0.15469342690321, 0
295, 0.38003298295958, 0.14718670105507, 0
296, 0.38044205507112, 0.13970933784799, 0
297, 0.38131021908732, 0.13231566170061, 0
298, 0.38262646278063, 0.12503096713432, 0
299, 0.38442828953988, 0.11770170688255, 0
300, 0.38672023376964, 0.11040587936398, 0
301, 0.38943341739256, 0.10336277495719, 0
302, 0.39251932289128, 0.096634243696782, 0
303, 0.39603898638682, 0.090065806861736, 0
304, 0.4000021317586, 0.083664290614185, 0
305, 0.40437610439329, 0.077501238587351, 0
306, 0.40907155176028, 0.071692801854665, 0
307, 0.41413791221145, 0.066168611246955, 0
308, 0.41952498649995, 0.060984427829383, 0
309, 0.4250658664678, 0.056272332951149, 0
310, 0.43100778605125, 0.051816120195404, 0
311, 0.43749654580639, 0.047563101341917, 0
312, 0.44420895596313, 0.043758015493542, 0
313, 0.4509422123872, 0.040485921596749, 0
314, 0.45774696644998, 0.037684902635848, 0
315, 0.46481619014425, 0.03527380698039, 0
316, 0.47211467045628, 0.033284926489158, 0
317, 0.47953179772681, 0.031758499063706, 0
318, 0.48684483395526, 0.030723256577213, 0
319, 0.49400450194772, 0.030149869095428, 0
320, 0.50109397998089, 0.030004987120879, 0
321, 0.50829985363399, 0.030287376086416, 0
322, 0.51579743786253, 0.031044374646156, 0
323, 0.52325037645026, 0.032273962188026, 0
324, 0.53051433338555, 0.033944516359513, 0
325, 0.53768972234656, 0.036072458129545, 0
326, 0.54461889649885, 0.038603617889158, 0
327, 0.55141622344042, 0.041573195834668, 0
328, 0.55809366915725, 0.044999402099372, 0
329, 0.56449880290967, 0.048807587960417, 0
330, 0.57067816653948, 0.053022699722593, 0
331, 0.5764509172513, 0.057505367258684, 0
332, 0.58189756373248, 0.062291454138404, 0
333, 0.58709443312234, 0.067449654276142, 0
334, 0.59197294553871, 0.072922265221858, 0
335, 0.59659219817404, 0.078796438369785, 0
336, 0.60084454406261, 0.084958645673184, 0
337, 0.60465702286245, 0.091289629904378, 0
338, 0.60805882834869, 0.097814854147343, 0
339, 0.61113574904062, 0.10473582832332, 0
340, 0.61388614875272, 0.11218538543367, 0
341, 0.61613237478481, 0.11977962033635, 0
342, 0.61782320856197, 0.12724716573748, 0
343, 0.61902481591552, 0.13473261180027, 0
344, 0.61975244317433, 0.14229592628603, 0
345, 0.36099001464847, 0.25129274128153, 0
346, 0.15308016932239, -0.27895988176127, 0
347, 0.12945486547325, -0.097041088576712, 0
348, 0.41906805326696, -0.25931055137749, 0
349, 0.56829732149448, 0.25263729382032, 0
350, 0.57634987632028, -0.2592948595468, 0
351, 0.045263046443227, 0.18706380393847, 0
352, 0.048408589701964, 0.24382210703127, 0
353, 0.096889553130035, 0.23988891591204, 0
354, 0.14532112943778, 0.23701846568187, 0
355, 0.19382182903918, 0.23637201968561, 0
356, 0.24384367026255, 0.23939764558596, 0
357, 0.29854425294449, 0.24824796352956, 0
358, 0.36138053187975, 0.28982128327339, 0
359, 0.41746368378894, 0.28979292410953, 0
360, 0.46272309546451, 0.29380275618943, 0
361, 0.5004373598715, 0.27242351870624, 0
362, 0.50034801384195, 0.283897316711, 0
363, 0.37914492897154, 0.26436426300542, 0
364, 0.39039065301834, 0.25290845938584, 0
365, 0.043468570224531, 0.12941054719159, 0
366, 0.042099555281697, 0.070907571935431, 0
367, 0.23715963811295, -0.15440334345589, 0
368, 0.097554245589609, -0.25504496936401, 0
369, 0.17185372027793, -0.23805830796555, 0
370, 0.47098038019278, -0.25990357626514, 0
371, 0.36657418949526, -0.25899898357482, 0
372, 0.31281093294601, -0.25922069948814, 0
373, 0.9488500502902, 0.19050735761516, 0
374, 0.89466864666123, 0.24643037550536, 0
375, 0.83929826079795, 0.24882399655424, 0
376, 0.94782973993149, 0.24595262860657, 0
377, 0.62251105687355, 0.14735857853317, 0
378, 0.78265560319247, 0.25328977684215, 0
379, 0.64072317587199, 0.18151394524666, 0
380, 0.61862751546413, 0.27937063859783, 0
381, 0.64195240460876, 0.26846029330087, 0
382, 0.50914328686882, 0.2820435550017, 0
383, 0.52020216953267, 0.28283430972164, 0
384, 0.5260663948536, 0.2881702824593, 0
385, 0.58499458458508, 0.25122845901958, 0
386, 0.57823897331305, 0.26194289550511, 0
387, 0.53783231776786, 0.28724083654168, 0
388, 0.95052005988172, 0.13394491164894, 0
389, 0.95308047468909, 0.077306034485786, 0
390, 0.95474186504913, 0.021832028163462, 0
391, 0.95508462369429, -0.033479441176248, 0
392, 0.95497145747384, -0.089582221582986, 0
393, 0.52318828827159, -0.26013189239605, 0
394, 0.63071256348143, -0.25792603388365, 0
395, 0.68547108410938, -0.25577800810856, 0
396, 0.95361606530821, -0.14444500138995, 0
397, 0.74015103582701, -0.2537501998227, 0
398, 0.79419656743967, -0.2523014590837, 0
399, 0.84713969026067, -0.25117795959931, 0
400, 0.89916675252984, -0.25018664273366, 0
401, 0.95206150505047, -0.19771942728629, 0
402, 0.94992569202328, -0.24918154632627, 0
403, 0.33253777056654, 0.15662868932006, 0
404, 0.17992304383013, 0.16934159142438, 0
405, 0.13484818765677, 0.17239173400295, 0
406, 0.090352913058913, 0.17918046177156, 0
407, 0.34510243286942, 0.22057782430817, 0
408, 0.32295467138699, 0.23167173614872, 0
409, 0.44932833258511, 0.2930824111535, 0
410, 0.51224962495633, 0.27346684317934, 0
411, 0.48269125663448, 0.27786787179632, 0
412, 0.47279220755575, 0.28826873307925, 0
413, 0.50401833991926, 0.27306597903736, 0
414, 0.51377909704732, 0.28788590214117, 0
415, 0.44624527777939, 0.27158328872658, 0
416, 0.37063725673643, 0.24795977531935, 0
417, 0.37797607818634, 0.25719692119225, 0
418, 0.43688237472148, 0.26840127296788, 0
419, 0.4272151730476, 0.26422722639414, 0
420, 0.35927018383256, 0.27922014202406, 0
421, 0.38955885624548, 0.24851831084643, 0
422, 0.33594551752328, 0.24543690987069, 0
423, 0.38129694340316, 0.24516982614513, 0
424, 0.39544527518134, 0.24729828774415, 0
425, 0.38939904572269, 0.24320362579522, 0
426, 0.36269226071805, 0.22078613085107, 0
427, 0.38642029912808, 0.22525637752106, 0
428, 0.38146517423315, 0.23807999157994, 0
429, 0.37080987604485, 0.2304395593045, 0
430, 0.39362157874449, 0.23198517883505, 0
431, 0.39918680945842, 0.23780932711153, 0
432, 0.41725831497399, 0.25860635407807, 0
433, 0.40627857368029, 0.25108871004012, 0
434, 0.40396125170071, 0.2437102818684, 0
435, 0.22457883426783, 0.17060821792188, 0
436, 0.37527537012323, 0.21004548377225, 0
437, 0.38040134367767, 0.21799729319585, 0
438, 0.34464862953409, 0.2002066296746, 0
439, 0.2410106832059, 0.13950922540645, 0
440, 0.35629338270792, 0.2105889562473, 0
441, 0.35413708280678, 0.14415378288544, 0
442, 0.36331980803796, 0.18733142830203, 0
443, 0.37333434377115, 0.15638188806341, 0
444, 0.38322280267087, 0.20644078409154, 0
445, 0.35467728135399, 0.20055106911485, 0
446, 0.314703051789, 0.21527294812976, 0
447, 0.32058638930392, 0.13000586494453, 0
448, 0.32735050291516, 0.14861463627025, 0
449, 0.34022708821306, 0.15263250050166, 0
450, 0.3667356076398, 0.17493288394125, 0
451, 0.36188260004804, 0.17019979368443, 0
452, 0.36285799826741, 0.19649280477359, 0
453, 0.35942263679868, 0.17442512739482, 0
454, 0.30820844930534, 0.16153359867969, 0
455, 0.231979342044, 0.20521460381236, 0
456, 0.36911748976441, 0.17209819340301, 0
457, 0.33197511738426, 0.16933898506823, 0
458, 0.36780837693906, 0.15961417101688, 0
459, 0.24876664733791, 0.17283599098338, 0
460, 0.34341110818648, 0.14227817927901, 0
461, 0.27821298761049, 0.099742912573127, 0
462, 0.34866188355892, 0.076993233317712, 0
463, 0.23189807188596, 0.069068431294028, 0
464, 0.37372337003037, 0.068062210547619, 0
465, 0.36560083923717, 0.063436346132482, 0
466, 0.32709280532931, 0.060492585786664, 0
467, 0.39284057877415, 0.030472616516649, 0
468, 0.36064199369013, 0.097052877368363, 0
469, 0.35571277645543, 0.10611267808903, 0
470, 0.31384757570824, -0.034179131544927, 0
471, 0.35194941131735, 0.084291617396501, 0
472, 0.19520264959399, -0.010177225434752, 0
473, 0.3797346643801, 0.059503246891019, 0
474, 0.36080364236312, 0.12041055189269, 0
475, 0.36682429017489, 0.091470828185935, 0
476, 0.34389267537873, 0.11226571552819, 0
477, 0.36970337479556, 0.10049176253402, 0
478, 0.36467714143709, -0.0093251695401263, 0
479, 0.32244691666429, 0.10050813093036, 0
480, 0.36610234456833, 0.15513842469078, 0
481, 0.37245127541645, 0.15216106420983, 0
482, 0.37029498994349, 0.18560251979558, 0
483, 0.3614960936324, 0.15999520467949, 0
484, 0.37142620776887, 0.2016525917961, 0
485, 0.33720638129306, 0.21040252531788, 0
486, 0.35756157204629, 0.16525299263466, 0
487, 0.36771094903929, 0.10423747585922, 0
488, 0.46618571120086, 0.010874236131202, 0
489, 0.49492901937579, -0.073009263388611, 0
490, 0.44985059967669, 0.014589312680309, 0
491, 0.41577514314351, 0.048560138825281, 0
492, 0.45888288616424, -0.0092485925920744, 0
493, 0.5072694472874, 0.026413297134347, 0
494, 0.42873829794157, 0.046760996742067, 0
495, 0.45276157995344, 0.023367828097075, 0
496, 0.34592668938013, 0.087650548003909, 0
497, 0.37003170177877, 0.037579415849248, 0
498, 0.35639892523811, 0.075191063773924, 0
499, 0.40238698703193, 0.035669543094094, 0
500, 0.40794419158904, 0.051435011907776, 0
501, 0.38673751949481, 0.067375599040846, 0
502, 0.38976427502915, 0.063988131674656, 0
503, 0.3870379009477, 0.013990050673021, 0
504, 0.41466117432027, 0.042170095091189, 0
505, 0.42137756575805, 0.004622422578561, 0
506, 0.43002838487486, 0.044683088199455, 0
507, 0.42776231476593, 0.025845282671623, 0
508, 0.40806476193558, 0.034662033029602, 0
509, 0.44096515397174, 0.039574899095941, 0
510, 0.41380871447084, 0.03480020019365, 0
511, 0.43447684149828, 0.038658195089761, 0
512, 0.41928912691248, 0.035972819577742, 0
513, 0.25206770383648, 0.054527648200159, 0
514, 0.35623629411395, 0.091307038011143, 0
515, 0.3573955440703, 0.081143574991338, 0
516, 0.29405997442538, 0.029351694920108, 0
517, 0.40067771401896, 0.045497614195924, 0
518, 0.28319288669675, -0.086448492066357, 0
519, 0.37703630915078, 0.04753263040811, 0
520, 0.22293149552316, -0.037482611989217, 0
521, 0.18086096423874, 0.088665605421423, 0
522, 0.22046243916632, 0.13814883019643, 0
523, 0.13101953912891, 0.10427554197305, 0
524, 0.19881802292887, 0.061334316115842, 0
525, 0.17282544873759, -0.030343566438088, 0
526, 0.17197329997773, 0.022112134476023, 0
527, 0.12601205092202, -0.018809479941258, 0
528, 0.12740469678927, 0.038941562322982, 0
529, 0.086757774072898, 0.11715961643047, 0
530, 0.084236208093673, 0.055347993658736, 0
531, 0.083234409830154, -0.0030425874226101, 0
532, 0.041546245261154, 0.013237235425185, 0
533, 0.087101997620002, -0.1362421613882, 0
534, 0.095057838022537, -0.23242411494212, 0
535, 0.16469285476915, -0.19454268276057, 0
536, 0.25313674496284, -0.2398228415308, 0
537, 0.1942643784233, -0.21829934950234, 0
538, 0.085534403944334, -0.11101267388353, 0
539, 0.07082151938699, -0.22965187138041, 0
540, 0.15121393222806, -0.077066818706964, 0
541, 0.18026675612636, -0.27951487645479, 0
542, 0.13155405997511, -0.12158541054838, 0
543, 0.067529624003931, -0.18101204325811, 0
544, 0.062130399772829, -0.051208930342629, 0
545, 0.02159864695714, -0.14500536952384, 0
546, 0.020811407601381, -0.09098983490801, 0
547, 0.2029242715609, -0.25977600883483, 0
548, 0.24848309147639, -0.21954197011583, 0
549, 0.15346077336054, -0.10150330608492, 0
550, 0.024343130890091, -0.2748521869048, 0
551, 0.11008054063541, -0.14134072072816, 0
552, 0.41331032043369, -0.21747482515314, 0
553, 0.46724387034356, -0.21827395802122, 0
554, 0.35887566169806, -0.21772965161496, 0
555, 0.30406550514974, -0.21827260000739, 0
556, 0.29574829425381, -0.17654593146739, 0
557, 0.35109984418205, -0.17621106488951, 0
558, 0.46327231673072, -0.17504740304634, 0
559, 0.40766764705741, -0.1743302178445, 0
560, 0.38695714354534, -0.070264150768656, 0
561, 0.34458543012937, -0.12999750867914, 0
562, 0.28882819346903, -0.13209647351227, 0
563, 0.33874514000517, -0.081159690540558, 0
564, 0.46603137786306, 0.0017167039036602, 0
565, 0.42751441215558, -0.056256800239499, 0
566, 0.40211741450072, -0.09447123684151, 0
567, 0.42501222575472, -0.023083817045504, 0
568, 0.4478566600503, 0.034859178227465, 0
569, 0.48002536118311, -0.0050370574187002, 0
570, 0.41790022039607, -0.072811269117524, 0
571, 0.42421843693317, 0.037634477609037, 0
572, 0.51855482577082, 0.025169068774696, 0
573, 0.4584096215712, -0.031858882160708, 0
574, 0.50713632478974, 0.017330515743785, 0
575, 0.47811635647294, 0.0035520398338399, 0
576, 0.49108162445449, -0.035020476817358, 0
577, 0.4865766934104, 0.013944700890307, 0
578, 0.5304676602754, 0.016473035181487, 0
579, 0.77788811403789, 0.2056776658678, 0
580, 0.84039501836642, 0.19544613797429, 0
581, 0.89625182373152, 0.19166211320637, 0
582, 0.61991322019779, 0.23092040535244, 0
583, 0.62296510082573, 0.24167793436055, 0
584, 0.63073276745385, 0.16356310110468, 0
585, 0.61666298169494, 0.25882937920675, 0
586, 0.50362231848161, 0.29193457709891, 0
587, 0.47595980582868, 0.27248599495901, 0
588, 0.49243326368178, 0.27308584307841, 0
589, 0.52505313910658, 0.27735402053387, 0
590, 0.53659067883511, 0.26978860783074, 0
591, 0.57686765106131, 0.24965387032954, 0
592, 0.57466055676798, 0.25722108892155, 0
593, 0.54829112801357, 0.26577143907437, 0
594, 0.59406179960217, 0.24671075826169, 0
595, 0.59263182578908, 0.23408500521659, 0
596, 0.57342519502345, 0.25032907765098, 0
597, 0.56227945184487, 0.29083267156455, 0
598, 0.56300300588834, 0.28096402217948, 0
599, 0.55576810461532, 0.26210277375936, 0
600, 0.55631807850009, 0.28351487711231, 0
601, 0.58304281476668, 0.26767887687499, 0
602, 0.58826576314919, 0.24423042785242, 0
603, 0.61317287437757, 0.23709460122089, 0
604, 0.60512872744639, 0.22906483126698, 0
605, 0.60598159013137, 0.24540344406503, 0
606, 0.5988788013437, 0.23560932453038, 0
607, 0.56862385108728, 0.27685390640985, 0
608, 0.58966371279709, 0.23688850543379, 0
609, 0.6110751895478, 0.22231374124796, 0
610, 0.65753283652947, 0.13712456743992, 0
611, 0.64857207733978, 0.20185660403818, 0
612, 0.62798615267568, 0.23412843641873, 0
613, 0.71215346845842, 0.20231125837923, 0
614, 0.64634746272734, 0.14042781711034, 0
615, 0.67404278455901, 0.14673305605818, 0
616, 0.62757041057165, 0.14192561370616, 0
617, 0.69962926173948, 0.17321978147743, 0
618, 0.64678924769209, 0.11828143682487, 0
619, 0.62939934136948, 0.13298183282553, 0
620, 0.68085119735044, 0.1807854379914, 0
621, 0.60848653997712, 0.21496756339432, 0
622, 0.63916837732771, 0.24068702871318, 0
623, 0.69315803832009, 0.12410311387801, 0
624, 0.63698220986783, 0.19970929134701, 0
625, 0.63035381738339, 0.11849834201285, 0
626, 0.62822043431893, 0.15552158602225, 0
627, 0.62759629569092, 0.1977079797721, 0
628, 0.65612467618673, 0.11897568126134, 0
629, 0.666954227002, 0.11981657776198, 0
630, 0.62203398089317, 0.18762801826566, 0
631, 0.68951931324691, 0.028158141894816, 0
632, 0.64817959548709, 0.066920780848191, 0
633, 0.58319707655712, 0.048921978577259, 0
634, 0.63168527324361, 0.049116418849724, 0
635, 0.68327888250874, -0.063068093286449, 0
636, 0.60805932925361, 0.029491527011303, 0
637, 0.64183667064697, 0.06269782813622, 0
638, 0.64858330477517, 0.096287756870255, 0
639, 0.6291299337273, 0.14856247564418, 0
640, 0.64208927626601, 0.15517317500308, 0
641, 0.64982594405856, 0.17237206114766, 0
642, 0.65865715715829, 0.14893179220461, 0
643, 0.66323034412003, 0.2324531296433, 0
644, 0.72311618082763, 0.23896736275381, 0
645, 0.64194501070751, 0.2275910059805, 0
646, 0.65836298360897, 0.21409830895216, 0
647, 0.48135256254165, -0.041070260253511, 0
648, 0.48062651475542, 0.019161900383801, 0
649, 0.51443198879569, -0.0040896214465403, 0
650, 0.49918277569795, -0.028468720926837, 0
651, 0.55490576526266, -0.0053509106354685, 0
652, 0.47273384973128, -0.060341929037773, 0
653, 0.46831347956924, -0.03058172469939, 0
654, 0.55905194517577, 0.01905646023483, 0
655, 0.5496851177789, 0.016620683478729, 0
656, 0.60042614707106, 0.070662348142963, 0
657, 0.62050749989784, 0.10595664629225, 0
658, 0.61051127106699, 0.059184422850217, 0
659, 0.66079798462072, 0.091200946663657, 0
660, 0.61567837212213, 0.093848835777473, 0
661, 0.60669859461423, 0.009573528484788, 0
662, 0.60271350090421, 0.058997203135509, 0
663, 0.70326792832453, 0.047140368338077, 0
664, 0.61375678732385, 0.067960464794411, 0
665, 0.58394716221746, 0.032906686025416, 0
666, 0.59654334656293, 0.013723316054657, 0
667, 0.57630869202876, 0.02717846181049, 0
668, 0.56828503642983, 0.021814147739301, 0
669, 0.57826975940773, 0.0015086391152644, 0
670, 0.56718510819727, -0.0017231166993743, 0
671, 0.58791881624629, 0.0053389914794881, 0
672, 0.60437006978104, -0.0051437800485064, 0
673, 0.60479079387684, 0.076861356195892, 0
674, 0.6297710627177, 0.020628480043534, 0
675, 0.62239474126302, 0.11465422187385, 0
676, 0.63178108875894, 0.15181027464359, 0
677, 0.65426967552266, 0.072669194725056, 0
678, 0.60935145745108, 0.083230953455715, 0
679, 0.71843227844661, 0.066258169816086, 0
680, 0.63393438722857, 0.002787896576722, 0
681, 0.61200580107108, -0.00068470062296561, 0
682, 0.61927229463992, 0.10169964879007, 0
683, 0.67640191732656, 0.17046168402653, 0
684, 0.60070368853882, 0.018747319911799, 0
685, 0.62157796719944, 0.11026679475545, 0
686, 0.76753762049208, 0.030696584472164, 0
687, 0.61372835454117, 0.090124703397347, 0
688, 0.77172648550767, 0.15077916927713, 0
689, 0.84490878439086, 0.13885259855025, 0
690, 0.81563464041251, 0.023011431499422, 0
691, 0.80211575618359, 0.084281113710741, 0
692, 0.86273791061188, 0.020245245597727, 0
693, 0.85500089989317, 0.079532833094441, 0
694, 0.90006530383452, 0.13491584694754, 0
695, 0.90535648912568, 0.077213847752323, 0
696, 0.90889370674997, 0.020372662816832, 0
697, 0.90871215383934, -0.09146593492332, 0
698, 0.9101830625055, -0.036064498987248, 0
699, 0.8617034658716, -0.092773965167449, 0
700, 0.81269073962163, -0.092396584452665, 0
701, 0.7610008654022, -0.090352430742634, 0
702, 0.81730774796693, -0.034920147701551, 0
703, 0.86460862683797, -0.037143346311111, 0
704, 0.77024677890205, -0.028804609165392, 0
705, 0.54485117987441, -0.12827632471909, 0
706, 0.60152147046903, -0.0412951265337, 0
707, 0.50111980167, 0.025190251283938, 0
708, 0.4751580070039, -0.016978934575293, 0
709, 0.53534347017142, 0.0054163459654532, 0
710, 0.49656735442814, 0.004918767454008, 0
711, 0.55850442594669, -0.047120233989754, 0
712, 0.56463876522895, -0.031263817121934, 0
713, 0.46708891483362, -0.018844079524823, 0
714, 0.51085889499122, 0.025891695715652, 0
715, 0.48667873120617, -0.12712866074657, 0
716, 0.52279833328028, 0.00072829951752505, 0
717, 0.62921924626329, -0.097340923203498, 0
718, 0.51744284171674, 0.0037081225863956, 0
719, 0.55070635148052, -0.019341917223021, 0
720, 0.64782123348926, 0.0078948591056711, 0
721, 0.56958722639826, -0.083986581415119, 0
722, 0.58052715992363, -0.018851382923035, 0
723, 0.59502589264834, -0.015975337190102, 0
724, 0.63890239471004, 0.013935768221991, 0
725, 0.62266050403833, 0.035282086477147, 0
726, 0.67078227362033, -0.045057598914848, 0
727, 0.47773002973489, -0.028278516656798, 0
728, 0.72695400804692, -0.016657746369431, 0
729, 0.69895423806919, -0.087668771370604, 0
730, 0.63178865094996, -0.11983650758629, 0
731, 0.45959774534544, -0.12760715411744, 0
732, 0.51308221713754, 0.020247860638427, 0
733, 0.51909063425165, -0.17543413917381, 0
734, 0.57577207465721, -0.17324560995525, 0
735, 0.5214826902187, -0.2182368386685, 0
736, 0.57661045210269, -0.21715180499752, 0
737, 0.63354030255311, -0.16770622175737, 0
738, 0.69388632250016, -0.15778852798655, 0
739, 0.6328706408266, -0.21436608807746, 0
740, 0.68992021503395, -0.20937076563146, 0
741, 0.90685552629773, -0.14660549659613, 0
742, 0.85870079071426, -0.14865665145283, 0
743, 0.80763533351473, -0.14981392108473, 0
744, 0.75317656620827, -0.15167255717725, 0
745, 0.74655225625927, -0.2051477241462, 0
746, 0.80107697330421, -0.20268559346652, 0
747, 0.85295404032461, -0.20071817081249, 0
748, 0.90308362384563, -0.19905005384646, 0
749, 0.59059512767858, 0.26735136010792, 0
750, 0.59845133940929, 0.26593426323658, 0
751, 0.56183262992021, 0.27249854586573, 0
752, 0.43216333415738, -0.12839241808852, 0
753, 0.44233463009575, -0.060395521088403, 0
754, 0.47059931601723, 0.28248047944413, 0
755, 0.49904144423769, 0.27850579615071, 0
756, 0.49581453383727, 0.27246077877322, 0
757, 0.39708036829194, -0.038437672924146, 0
758, 0.37606544641619, 0.063057684003454, 0
759, 0.62977249974701, 0.27682412818838, 0
760, 0.62861076498756, 0.26126814943011, 0
761, 0.61699697945649, 0.26992687682694, 0
762, 0.35410571742792, 0.16974732190143, 0
763, 0.3722653003332, 0.17051619822254, 0
764, 0.34481537345844, 0.15908810659689, 0
765, 0.39286668152094, 0.25763584477545, 0
766, 0.37652099128043, 0.23468372489369, 0
767, 0.35623507206076, 0.23884128796385, 0
768, 0.37234701870164, 0.28057436631473, 0
769, 0.40427872746314, 0.25955634174044, 0
770, 0.31175629948231, 0.2391383004177, 0
771, 0.63787906349492, 0.14269176093727, 0
772, 0.62074418919535, 0.19181354068553, 0
773, 0.62394621808394, 0.13181029099747, 0
774, 0.51518782932963, 0.012949663637851, 0
775, 0.60136881168746, 0.0042156872187424, 0
776, 0.52980134341036, 0.0073190176776245, 0
777, 0.022716752672092, -0.19796026980363, 0
778, 0.12032245351639, -0.23436138115622, 0
779, 0.17570303646857, -0.081194037623154, 0
780, 0.63938722150032, 0.21537811863737, 0
781, 0.22129698864418, -0.21899733748823, 0
782, 0.11739485799534, -0.21195301007663, 0
783, 0.023889538757327, -0.24957164602594, 0
784, 0.44030337340638, 0.021433577403543, 0
785, 0.63414468375036, 0.22052175911582, 0
786, 0.68277483333571, 0.1535991984384, 0
787, 0.62961822483992, 0.1593634350986, 0
788, 0.36946083838969, 0.26280275099944, 0
789, 0.37776393753345, 0.25060771483667, 0
790, 0.40706691998385, 0.27359204331689, 0
791, 0.20131500644897, 0.10188622361809, 0
792, 0.31154552747584, 0.095784282326029, 0
793, 0.21659598449805, 0.0097998483394706, 0
794, 0.43000503576194, 0.28284266413819, 0
795, 0.43912865577205, 0.27693605238278, 0
796, 0.39684547267671, 0.27860237339847, 0
797, 0.44945596565501, 0.28620459349835, 0
798, 0.37034054077137, 0.27138625511197, 0
799, 0.41644936548168, -0.045200217130589, 0
800, 0.35496001294723, 0.16129437236434, 0
801, 0.36231427121507, 0.1448000258808, 0
802, 0.62307991077552, 0.18337892972648, 0
803, 0.61324518155841, 0.2076650156862, 0
804, 0.63648802243813, 0.15979625453306, 0
805, 0.6802778381044, 0.26424024177607, 0
806, 0.66525415146566, 0.1844720840735, 0
807, 0.74561521804904, 0.1415027487342, 0
808, 0.62319222669832, 0.14390407284999, 0
809, 0.60891949595006, 0.049159503173619, 0
810, 0.63280556234932, 0.039688686896278, 0
811, 0.39293418156493, 0.060587153340596, 0
812, 0.28758493874132, -0.0037297511413175, 0
813, 0.32107000830496, -0.0096485402977431, 0
814, 0.59206085248242, 0.0095600248194306, 0
815, 0.60641146725333, -0.017058782257717, 0
816, 0.58585459525194, -0.013075675114714, 0
817, 0.66078782581633, 0.035903089672759, 0
818, 0.2516992398637, -0.037017122011083, 0
819, 0.21478364929208, 0.03192893276927, 0
820, 0.35689489597734, 0.048765472565753, 0
821, 0.33792778684723, -0.056272815916149, 0
822, 0.26981841593839, 0.01674948625479, 0
823, 0.67706807298435, 0.081128050492102, 0
824, 0.59453335959922, 0.026948539411201, 0
825, 0.62266859469337, 0.23572240630075, 0
826, 0.61614268386722, 0.23360097429516, 0
827, 0.61745606494436, 0.24028508947657, 0
828, 0.63590582529879, 0.059349839861958, 0
829, 0.57282257942414, 0.28855275374388, 0
830, 0.54995243595713, 0.28520847723419, 0
831, 0.48079053377866, 0.28290891931736, 0
832, 0.4599136932057, 0.27510912592749, 0
833, 0.65002856472514, 0.03748904179162, 0
834, 0.6251950899423, 0.075163813353806, 0
835, 0.48722752162392, 0.27771362252489, 0
836, 0.46706679438386, 0.28798133598206, 0
837, 0.45591779156512, 0.26790139990505, 0
838, 0.34050362790087, 0.079896923601748, 0
839, 0.36419812440213, 0.076234135683154, 0
840, 0.36556335130962, 0.087340168726446, 0
841, 0.59688091656318, -0.08041506708568, 0
842, 0.65041364686526, 0.022812736538207, 0
843, 0.64203240660709, -0.0065240666605147, 0
844, 0.63791660092836, -0.030442222232029, 0
845, 0.71967175038091, -0.047259723843597, 0
846, 0.64761709018315, 0.088602922008713, 0
847, 0.27656134091853, 0.11677148461928, 0
848, 0.37965695076016, 0.19562231222795, 0
849, 0.44485807253513, 0.017648063238419, 0
850, 0.42337259957998, 0.042610630317427, 0
851, 0.44181841083981, -0.017986801739585, 0
852, 0.4470245228931, 0.0052622068507779, 0
853, 0.44432119860673, 0.037150088226123, 0
854, 0.3519924123422, 0.095167216346813, 0
855, 0.39639639471417, 0.05764099651766, 0
856, 0.5004232787176, -0.0006521158565625, 0
857, 0.45857641285132, -0.020142734268879, 0
858, 0.5009688409358, 0.016443517483948, 0
859, 0.48366910260815, 0.0049865590136238, 0
860, 0.39914019953702, 0.24986139473643, 0
861, 0.40573740420841, 0.24703873270962, 0
862, 0.39948806549102, 0.24510156956706, 0
863, 0.62279866662534, 0.20690877674676, 0
864, 0.69562101608307, 0.2423530222765, 0
865, 0.61737183587665, 0.19994855565971, 0
866, 0.6154265323023, 0.203845930721, 0
867, 0.68393272085721, 0.19282045010406, 0
868, 0.66559868720013, 0.19422957454236, 0
869, 0.38821678881797, 0.26439466296094, 0
870, 0.4222814741917, 0.2616171629144, 0
871, 0.34535428875121, 0.26439418661579, 0
872, 0.34199884092715, 0.13108166211687, 0
873, 0.34657045716351, 0.18683954570988, 0
874, 0.30701211309427, 0.12968692268368, 0
875, 0.31160049376597, -0.058883859741854, 0
876, 0.31447804460698, 0.019471682570073, 0
877, 0.38424014105676, 0.033330788075269, 0
878, 0.39839303047039, 0.027100741740487, 0
879, 0.39987653220073, 0.054580889527826, 0
880, 0.28387247614794, -0.033758456849446, 0
881, 0.41731057664049, -0.014139366009454, 0
882, 0.35403236639004, 0.22205634247903, 0
883, 0.35907518592657, 0.21532916134614, 0
884, 0.3488661699482, 0.21304132936921, 0
885, 0.61036767413792, 0.071878702777604, 0
886, 0.66104648780256, 0.26675974064425, 0
887, 0.67452175120191, 0.011549083977736, 0
888, 0.6175243023577, 0.097713531713922, 0
889, 0.53901205447873, 0.025933600766511, 0
890, 0.52253119409118, 0.025088691581269, 0
891, 0.53493578785159, -0.0043575308872112, 0
892, 0.37090332689706, 0.13515521254854, 0
893, 0.37732299301263, 0.18448246030779, 0
894, 0.35761787418574, 0.17931328459143, 0
895, 0.59325062402693, 0.043984591171781, 0
896, 0.61166521058304, 0.015440516558909, 0
897, 0.5131829183965, 0.293631317649, 0
898, 0.50806421233564, 0.27340849326899, 0
899, 0.51568728956848, 0.27788206765273, 0
900, 0.65166849698911, 0.18658646407026, 0
901, 0.647234134782, 0.15023358049766, 0
902, 0.45808365560757, -0.045419155814734, 0
903, 0.6061303729277, -0.029448900502418, 0
904, 0.49148681343283, 0.025927395490569, 0
905, 0.36069487522231, 0.088513518260946, 0
906, 0.36433280365951, 0.081646062607015, 0
907, 0.15588841915845, -0.12552659412802, 0
908, 0.10631644626966, -0.091676601599056, 0
909, 0.047981498666121, -0.25149077575819, 0
910, 0.66143408757171, 0.018070729746987, 0
911, 0.60705254997604, 0.08001111037727, 0
912, 0.62765089160626, 0.098295871541889, 0
913, 0.70056825520133, -0.03494219714053, 0
914, 0.7096724034079, 0.018584025886538, 0
915, 0.63857945558209, 0.1123600444984, 0
916, 0.62383202066244, 0.12759412031693, 0
917, 0.59111581435205, -0.024891774745098, 0
918, 0.59241913222775, -0.057797146854055, 0
919, 0.54475659442705, -0.080774271194401, 0
920, 0.088645350449639, -0.16124576328106, 0
921, 0.045617658046695, -0.20202540283518, 0
922, 0.23020054464208, -0.26023850437821, 0
923, 0.041030423184351, -0.043678097384471, 0
924, 0.26283311829932, -0.27990494128638, 0
925, 0.25793743750173, -0.25987210573886, 0
926, 0.046821246147667, -0.22693619718453, 0
927, 0.95391619261093, 0.049598396103341, 0
928, 0.9766228358528, 0.077497073466835, 0
929, 0.97734379474907, 0.023108955002944, 0
930, 0.97696493804715, 0.050318861417117, 0
931, 0.23518232439945, -0.28009715637573, 0
932, 0.04886995602316, -0.27583337647155, 0
933, 0.10791207069136, -0.11696453424684, 0
934, 0.099778204581143, -0.2775674705612, 0
935, 0.020821833747232, 0.021315845411508, 0
936, 0.041342249738889, -0.015285197527126, 0
937, 0.020545190874594, -0.035594205613655, 0
938, 0.020698199049937, -0.0072038180728495, 0
939, 0.50620527992002, 0.27704928363344, 0
940, 0.51090124912942, 0.27768931671164, 0
941, 0.4953258058397, 0.28060012777165, 0
942, 0.83945730931722, 0.27453438074501, 0
943, 0.81095940865768, 0.25081141367544, 0
944, 0.78415161760199, 0.27668803598014, 0
945, 0.81175437317888, 0.27549799651535, 0
946, 0.8207176158419, -0.25163722299491, 0
947, 0.84380065683983, -0.27565886620673, 0
948, 0.79060153067926, -0.27620650858205, 0
949, 0.8172129196471, -0.27589227791434, 0
950, 0.73690266583742, -0.27700691781302, 0
951, 0.76722930381109, -0.2528727889597, 0
952, 0.76378952540933, -0.27654978929055, 0
953, 0.15812682290744, -0.14958050012833, 0
954, 0.20127446292284, -0.084099445626084, 0
955, 0.074088854406528, -0.27674048698999, 0
956, 0.94952055513139, 0.16235143213103, 0
957, 0.97445669384794, 0.1906221063307, 0
958, 0.97532458584963, 0.13352076352211, 0
959, 0.9748314401174, 0.16210858290357, 0
960, 0.86721668260411, 0.24739417482173, 0
961, 0.89426636434108, 0.2733298171329, 0
962, 0.86698931825051, 0.27381750078951, 0
963, 0.041895338553047, 0.042062671833242, 0
964, 0.021120573090811, 0.078390480587531, 0
965, 0.020979306056811, 0.049853531385413, 0
966, 0.60336342707044, -0.25841295246318, 0
967, 0.62940683226117, -0.27900743111553, 0
968, 0.57583897410781, -0.27977838605573, 0
969, 0.60253204491002, -0.27936965874026, 0
970, 0.65802788793266, -0.25678010365759, 0
971, 0.68313024404053, -0.27793310883316, 0
972, 0.65624747492357, -0.27844840552194, 0
973, 0.042614142235829, 0.10007222757239, 0
974, 0.021759350840549, 0.13536237263594, 0
975, 0.021350459476294, 0.10687608039393, 0
976, 0.023314136522268, -0.2239149020616, 0
977, 0.063387913484745, -0.10490549270979, 0
978, 0.17828780981124, -0.10509641382788, 0
979, 0.71274413079366, -0.25450520900602, 0
980, 0.70998037702713, -0.27737817979724, 0
981, 0.87317676944768, -0.25057444707451, 0
982, 0.89686184174665, -0.27510736473765, 0
983, 0.87036985580995, -0.27534753005164, 0
984, 0.15229074297945, 0.26854087685655, 0
985, 0.12118675010226, 0.23829085739201, 0
986, 0.10058950419975, 0.26979381802746, 0
987, 0.12639352369686, 0.26903829849996, 0
988, 0.54963410563172, -0.2597709313161, 0
989, 0.52371082166043, -0.28006356937442, 0
990, 0.54964246802448, -0.27992237541943, 0
991, 0.23409917094647, -0.13155489911217, 0
992, 0.24083339603377, -0.17628866765671, 0
993, 0.16957747233313, 0.23636113081567, 0
994, 0.20397552110607, 0.26864107496317, 0
995, 0.1781051048912, 0.26835346468787, 0
996, 0.28551056632806, -0.25944983167551, 0
997, 0.31733540533371, -0.27962564371724, 0
998, 0.29019283048831, -0.27972248164489, 0
999, 0.38525671040092, 0.089375987759887, 0
1000, 0.38200200186774, 0.096486045881348, 0
1001, 0.38361101580338, 0.092955146339997, 0
1002, 0.39645893780664, -0.002509087688597, 0
1003, 0.41741503831676, 0.054799642780347, 0
1004, 0.45538024921285, 0.030945918009135, 0
1005, 0.3375370529695, 0.18322189949212, 0
1006, 0.26023805221331, 0.11696120881981, 0
1007, 0.34510547681956, 0.2069426452931, 0
1008, 0.45520557739668, 0.28044961010099, 0
1009, 0.52683574948938, 0.29399217231752, 0
1010, 0.49834467904146, 0.27441345841689, 0
1011, 0.4908156780708, 0.28199968825079, 0
1012, 0.49699769925349, -0.2603423930977, 0
1013, 0.47273998510858, -0.27996215382839, 0
1014, 0.49815059283049, -0.28015801689495, 0
1015, 0.044209394258285, 0.15835236257962, 0
1016, 0.02271809487412, 0.1912481230511, 0
1017, 0.02199409387782, 0.16332214960211, 0
1018, 0.70828325903692, -0.0080193955168725, 0
1019, 0.52458261354176, -0.023142047564075, 0
1020, 0.67043070126792, -0.010242549562632, 0
1021, 0.5903568908281, 0.040221786800269, 0
1022, 0.58442612467824, 0.24648129887296, 0
1023, 0.57969425991497, 0.25715463142178, 0
1024, 0.53999194779541, 0.29343047860925, 0
1025, 0.59550502961649, 0.23871144637408, 0
1026, 0.53590140083145, 0.28142565415906, 0
1027, 0.58955919874928, 0.24923463248039, 0
1028, 0.56415149564714, 0.26280795149575, 0
1029, 0.56535120991473, -0.063125848308076, 0
1030, 0.52876257422671, -0.056409659950673, 0
1031, 0.50557979717063, -0.020758378638029, 0
1032, 0.57168914671782, -0.10526625680015, 0
1033, 0.3858136115937, 0.21031130115233, 0
1034, 0.37769977353669, 0.21408876731514, 0
1035, 0.39055736022448, 0.21737636013871, 0
1036, 0.38821800632011, 0.21393448717095, 0
1037, 0.37206986447652, 0.051505900745012, 0
1038, 0.39342080202663, 0.075476973031321, 0
1039, 0.39833638478962, 0.068545773235797, 0
1040, 0.39583861482472, 0.072062273942708, 0
1041, 0.9071224711669, 0.048939226692169, 0
1042, 0.92948887332441, 0.077040527673765, 0
1043, 0.931767215844, 0.021044736583221, 0
1044, 0.93057012668095, 0.049171419786512, 0
1045, 0.60803924412988, 0.28105024263196, 0
1046, 0.54324217066514, 0.27372624558035, 0
1047, 0.97756698555564, -0.088224365052262, 0
1048, 0.95496727716363, -0.061403523863087, 0
1049, 0.97756292963281, -0.031886312841829, 0
1050, 0.97757802119471, -0.059998419276685, 0
1051, 0.42203355577914, -0.27965818630105, 0
1052, 0.44508764429615, -0.25936470908367, 0
1053, 0.44742100357993, -0.27974138565292, 0
1054, 0.36449046500791, 0.15046626663503, 0
1055, 0.38195796990459, 0.20291504903116, 0
1056, 0.35513206643244, 0.18970530305544, 0
1057, 0.34206308592385, 0.124976702961, 0
1058, 0.3701419615788, 0.1895333070479, 0
1059, 0.37248350682241, 0.205620922652, 0
1060, 0.45083404051724, 0.27291110381443, 0
1061, 0.5037263911782, 0.28058487271697, 0
1062, 0.44805696578208, 0.2651884805475, 0
1063, 0.45198188194172, 0.26660793419197, 0
1064, 0.13612010094127, -0.16955765210628, 0
1065, 0.064393341662685, -0.13096206286845, 0
1066, 0.12623614393058, -0.27830229529793, 0
1067, 0.56371741740641, 0.020307052152136, 0
1068, 0.55543792768712, 0.029827006260577, 0
1069, 0.56368858627319, 0.032189559668123, 0
1070, 0.55963762858206, 0.030789450552763, 0
1071, 0.27864635437216, 0.13589499272981, 0
1072, 0.33229795382396, 0.13064820930721, 0
1073, 0.37050472984607, 0.19754988760519, 0
1074, 0.6403340781193, 0.18755548585648, 0
1075, 0.62911324166213, 0.10315059176655, 0
1076, 0.6248713076818, 0.17051116502147, 0
1077, 0.67344521338795, 0.24728804310305, 0
1078, 0.62976068854607, 0.10832684200216, 0
1079, 0.67262550962248, 0.1321209492127, 0
1080, 0.37888229800812, 0.10367654486291, 0
1081, 0.37615387764823, 0.086166504728913, 0
1082, 0.37592494119962, 0.11114052893903, 0
1083, 0.37730678173249, 0.10730473198718, 0
1084, 0.43223441704149, 0.046921236947035, 0
1085, 0.42703277848393, 0.043413376856663, 0
1086, 0.4195679528936, 0.047526990024309, 0
1087, 0.5231804687425, -0.073542998894763, 0
1088, 0.52712477885905, -0.013132863865857, 0
1089, 0.52461758751973, 0.0091053884737329, 0
1090, 0.58021850409933, 0.029908868754579, 0
1091, 0.57052615606446, 0.03771575717283, 0
1092, 0.5770425820464, 0.04327645322045, 0
1093, 0.57381790785364, 0.040503693530846, 0
1094, 0.39052888828199, 0.22886721162743, 0
1095, 0.40146947071512, 0.23018944455953, 0
1096, 0.39598771596277, 0.22404026757977, 0
1097, 0.39885966881978, 0.22720564139171, 0
1098, 0.53070033735247, 0.025175586455382, 0
1099, 0.46675663775723, 0.019493508811031, 0
1100, 0.54220129078158, -0.017538566114012, 0
1101, 0.47611447184137, 0.018946823087951, 0
1102, 0.55691293645375, 0.27537831877517, 0
1103, 0.41218950235202, 0.25510904500167, 0
1104, 0.42476878637815, 0.25347350392431, 0
1105, 0.41711730592437, 0.24795031201839, 0
1106, 0.4209579182521, 0.25082494944229, 0
1107, 0.38895012113968, 0.08224865578802, 0
1108, 0.38696968559061, 0.08571575262111, 0
1109, 0.37336858760883, 0.11883541880907, 0
1110, 0.36263490219597, 0.11659006327367, 0
1111, 0.37151560716328, 0.12676161382357, 0
1112, 0.37221043854476, 0.12265818387416, 0
1113, 0.39620418833954, 0.23487307046943, 0
1114, 0.40656635799984, 0.23598025962174, 0
1115, 0.40399327554864, 0.23309121081562, 0
1116, 0.64796557695478, 0.11131636200208, 0
1117, 0.40195319758325, 0.24072342248621, 0
1118, 0.41148140461447, 0.24182477698398, 0
1119, 0.40901262760372, 0.23886851626738, 0
1120, 0.47579694463115, 0.025821046012747, 0
1121, 0.49748339127001, 0.013324858424734, 0
1122, 0.50822807365146, 0.009622864461906, 0
1123, 0.33853918191671, 0.16372306775499, 0
1124, 0.31116839591929, 0.14204022702486, 0
1125, 0.37790081845099, 0.18817035334971, 0
1126, 0.56998807387793, 0.25654332510626, 0
1127, 0.53264368231599, 0.27078811259927, 0
1128, 0.59047248093475, 0.25471268566924, 0
1129, 0.58441347482748, 0.26181650747783, 0
1130, 0.37913094506781, 0.078009049500622, 0
1131, 0.39111388581485, 0.078855160331678, 0
1132, 0.33981383398386, -0.25910056570206, 0
1133, 0.3705593984318, -0.27953123945765, 0
1134, 0.34405869659997, -0.27962049765147, 0
1135, 0.57233778123681, 0.024481006904752, 0
1136, 0.56720475657786, 0.034809360027467, 0
1137, 0.43255290391518, 0.25807380415001, 0
1138, 0.43211560919657, 0.26644797904322, 0
1139, 0.44027960196743, 0.26194167902757, 0
1140, 0.43641412128704, 0.2600939970848, 0
1141, 0.14233156168035, -0.21464029995517, 0
1142, 0.14584442012027, -0.23634999474167, 0
1143, 0.16815558711978, -0.21652898121581, 0
1144, 0.68520684449617, 0.20671501917294, 0
1145, 0.68337843524188, 0.13682622092777, 0
1146, 0.64707974366622, 0.051011027283508, 0
1147, 0.59605356003773, 0.04761552197714, 0
1148, 0.48495877224856, 0.019635289888436, 0
1149, 0.50924414517353, 0.00018959449053997, 0
1150, 0.54428928771478, -0.045642289201873, 0
1151, 0.31172281187556, 0.19837570244762, 0
1152, 0.37150890442074, 0.1476595156438, 0
1153, 0.33368305113883, 0.13814148606358, 0
1154, 0.66029357191343, 0.10099956481277, 0
1155, 0.63149295071156, 0.18276957679282, 0
1156, 0.41399311513729, 0.24487310350655, 0
1157, 0.63841841102935, 0.16449660435042, 0
1158, 0.62411749510025, 0.22809292403181, 0
1159, 0.61097096812146, 0.21135582366321, 0
1160, 0.48850490309401, 0.27335353415682, 0
1161, 0.49152664604106, 0.27711652011014, 0
1162, 0.52007963717211, 0.28823881819805, 0
1163, 0.45986136127902, 0.26906869814255, 0
1164, 0.47810244339377, 0.27770608847952, 0
1165, 0.47351828017698, 0.27731032942532, 0
1166, 0.5202511713487, 0.29399241052674, 0
1167, 0.48013071785918, 0.2729890732645, 0
1168, 0.41084843453366, 0.058831047676632, 0
1169, 0.38754510721404, 0.052537976955175, 0
1170, 0.40440256851309, 0.063355819619423, 0
1171, 0.40760142142729, 0.061033962269624, 0
1172, 0.58502968534737, 0.25633190876766, 0
1173, 0.59546739098227, 0.23115524933233, 0
1174, 0.54051576271287, 0.2686282399223, 0
1175, 0.72071797969034, 0.16136936921595, 0
1176, 0.62320137559231, 0.21938438274222, 0
1177, 0.60597045211803, 0.21844310826892, 0
1178, 0.62201629920899, 0.071531405906493, 0
1179, 0.64452553823613, 0.20908041599609, 0
1180, 0.55927362541639, 0.25995579881878, 0
1181, 0.58083923218927, 0.27395394029117, 0
1182, 0.70662281986172, 0.18660234001699, 0
1183, 0.63031075340533, 0.12341355958602, 0
1184, 0.53489982544961, 0.025264269157162, 0
1185, 0.54725802367832, 0.027577929060056, 0
1186, 0.51056397442801, -0.012426077888414, 0
1187, 0.60454354716433, 0.024073871423158, 0
1188, 0.62856728070742, 0.079137075025292, 0
1189, 0.54775245285195, 0.27223301603704, 0
1190, 0.59195751604536, 0.24160761742148, 0
1191, 0.92464774102923, -0.24963261450222, 0
1192, 0.94898489455997, -0.27462601826692, 0
1193, 0.92303795626825, -0.27484956318105, 0
1194, 0.45538624054776, 0.274082861212, 0
1195, 0.46037227326049, 0.28128130820577, 0
1196, 0.37655836946492, 0.17406138883251, 0
1197, 0.34729037427979, 0.14947520845609, 0
1198, 0.37038102609929, 0.16686898259302, 0
1199, 0.36004904758825, 0.12498200588823, 0
1200, 0.37102644747166, 0.13088977993581, 0
1201, 0.95440381903491, -0.11722444144919, 0
1202, 0.97692057301451, -0.14376067916922, 0
1203, 0.97722849942476, -0.11609915051288, 0
1204, 0.61598551493266, 0.058177672381339, 0
1205, 0.69508879057163, 0.14293061344607, 0
1206, 0.31665968973519, 0.152486005921, 0
1207, 0.36918356432833, 0.16346182739595, 0
1208, 0.49542576811076, 0.29318648027338, 0
1209, 0.46443215980865, 0.27599443781866, 0
1210, 0.45612997053556, 0.29349024800128, 0
1211, 0.97502059743411, -0.24886111234769, 0
1212, 0.97455567260233, -0.27445949909973, 0
1213, 0.52464979376737, 0.27234213678929, 0
1214, 0.52963706669572, 0.27675280040761, 0
1215, 0.52866582258805, 0.27163852468144, 0
1216, 0.954951054616, -0.0056989887029374, 0
1217, 0.97761194520612, -0.0043781851893969, 0
1218, 0.50506035501202, -0.0064582276482863, 0
1219, 0.5203464319918, -0.0084908898206979, 0
1220, 0.60202502616474, 0.23236517334697, 0
1221, 0.60083153732341, 0.2250117917181, 0
1222, 0.59818863460799, 0.22812779932358, 0
1223, 0.3835642353797, 0.055972963951131, 0
1224, 0.40135756397458, 0.065964692600411, 0
1225, 0.33463006483015, 0.071251799171916, 0
1226, 0.37461185512624, 0.11499389963923, 0
1227, 0.63900657475726, 0.049762064290908, 0
1228, 0.48388025730185, 0.025444154964961, 0
1229, 0.50472907744876, 0.0042618903322991, 0
1230, 0.36536024157059, 0.16747701678596, 0
1231, 0.062351167059991, 0.0051340386483611, 0
1232, 0.082878908259753, -0.031451206218328, 0
1233, 0.1123062067376, -0.1653936334239, 0
1234, 0.062059778908838, -0.023366698345727, 0
1235, 0.52057585334214, 0.27289633158945, 0
1236, 0.51476004581835, 0.28270203014549, 0
1237, 0.50682527349204, 0.28669128926539, 0
1238, 0.62448472735475, 0.1748018388708, 0
1239, 0.59386868467646, 0.061061178262036, 0
1240, 0.64052168685887, 0.13734193624142, 0
1241, 0.95289840017286, -0.17130942724403, 0
1242, 0.97603557297576, -0.19709448727637, 0
1243, 0.97646990691453, -0.17059093383493, 0
1244, 0.45734083250871, 0.021655815552898, 0
1245, 0.45933773681951, 0.029350404992102, 0
1246, 0.62363952131733, 0.13999009747126, 0
1247, 0.62685673003547, 0.21528390823569, 0
1248, 0.072596740731056, 0.24174908685684, 0
1249, 0.050009278601713, 0.27191204551838, 0
1250, 0.075298236772401, 0.27083626144666, 0
1251, 0.38354251994223, 0.22179138308235, 0
1252, 0.39331790752714, 0.22080013244493, 0
1253, 0.44160413204318, 0.27008642110136, 0
1254, 0.44416352178295, 0.26363213066192, 0
1255, 0.60620981315532, 0.045268533382897, 0
1256, 0.83326864312382, -0.14902773965711, 0
1257, 0.85584816391749, -0.17492040572101, 0
1258, 0.82728424269543, -0.20165464341511, 0
1259, 0.80420727282953, -0.17652135864791, 0
1260, 0.83016862813392, -0.1755259825442, 0
1261, 0.55438309601635, 0.017803640005301, 0
1262, 0.55133005170827, 0.028727766533692, 0
1263, 0.02422145457111, 0.24597891546752, 0
1264, 0.024969945526982, 0.2730059580793, 0
1265, 0.42979373490021, 0.048884542573445, 0
1266, 0.43379530810547, -0.016129295728638, 0
1267, 0.43068654112923, 0.018314817895895, 0
1268, 0.42939858205945, -8.7542492585156e-05, 0
1269, 0.42867372087868, 0.25586891161842, 0
1270, 0.57695173343202, 0.24610785435923, 0
1271, 0.59753014595439, 0.25874687563148, 0
1272, 0.40912992681641, 0.00051034571196738, 0
1273, 0.41119535554967, 0.015635954547816, 0
1274, 0.42036524004519, 0.019524389539066, 0
1275, 0.61604716679989, 0.021783251497528, 0
1276, 0.60110781612284, 0.054786082607598, 0
1277, 0.6034989346866, 0.040998699451716, 0
1278, 0.47849047239447, 0.28836138893887, 0
1279, 0.4858463963379, 0.28268578948887, 0
1280, 0.36407185567883, 0.18291952304565, 0
1281, 0.43636959887179, 0.026037390875629, 0
1282, 0.43199632069499, 0.041847646056615, 0
1283, 0.43487843330305, 0.044583052042409, 0
1284, 0.41296771210819, 0.026555271826573, 0
1285, 0.57599701316996, 0.26690573350403, 0
1286, 0.56732673459469, 0.25973242560366, 0
1287, 0.020501912851587, -0.063568967054442, 0
1288, 0.21327839490091, -0.17629412707622, 0
1289, 0.22561948648159, -0.23981547256445, 0
1290, 0.46201453050844, 0.020315119114702, 0
1291, 0.48316817300019, -0.10184137534004, 0
1292, 0.45543987097586, 0.28693913220609, 0
1293, 0.48205047425744, 0.2940453939106, 0
1294, 0.52040871083717, 0.27774447530991, 0
1295, 0.48879347259089, 0.0076766425066175, 0
1296, 0.70865461071876, 0.12805153539635, 0
1297, 0.65654019693742, 0.25101026965653, 0
1298, 0.64290892894806, 0.13144796846716, 0
1299, 0.62163088409979, 0.14973717809259, 0
1300, 0.3847531612374, 0.25234577863879, 0
1301, 0.39656701225625, 0.2627607720899, 0
1302, 0.97396336827945, 0.24631465326277, 0
1303, 0.94767894981496, 0.2730545764805, 0
1304, 0.97387939806193, 0.2732618651522, 0
1305, 0.36402384341015, 0.094278633742172, 0
1306, 0.38043171191755, 0.10005191741465, 0
1307, 0.51258690464421, 0.0066978517228903, 0
1308, 0.47167238815325, 0.026380332050052, 0
1309, 0.49170314101587, 0.00089908852297197, 0
1310, 0.49531985036824, 0.27600365628373, 0
1311, 0.45751915463437, -0.081015655872114, 0
1312, 0.49367996498441, -0.01911608526702, 0
1313, 0.43511688502778, 0.011990146370882, 0
1314, 0.42391714236858, 0.051517138654898, 0
1315, 0.043441508490272, -0.15092768080104, 0
1316, 0.18715209993765, -0.17438533069768, 0
1317, 0.19049400467322, -0.19668607133595, 0
1318, 0.084168885743703, -0.085292280653135, 0
1319, 0.39296696598916, -0.25902258849253, 0
1320, 0.39642947250892, -0.27955110954361, 0
1321, 0.9517388988799, 0.10558653873893, 0
1322, 0.97593160382696, 0.10540781111665, 0
1323, 0.94823442689814, 0.21842292869925, 0
1324, 0.97415939478165, 0.2186585018223, 0
1325, 0.84998407511584, -0.22604452839786, 0
1326, 0.79756192451137, -0.22770406598018, 0
1327, 0.8239129953793, -0.22677263308584, 0
1328, 0.57252276795188, 0.26120930784697, 0
1329, 0.53194811476668, 0.28782250101186, 0
1330, 0.53338478695888, 0.29379225642083, 0
1331, 0.619273304991, 0.22311607975068, 0
1332, 0.10425594429798, -0.011233070762426, 0
1333, 0.12699460058646, -0.045290952736319, 0
1334, 0.10481388264525, -0.038462166577594, 0
1335, 0.022157443261986, -0.17158911923151, 0
1336, 0.2310751129969, -0.10860347984847, 0
1337, 0.49804120919473, 0.27151858864519, 0
1338, 0.47184579435796, 0.27182509694411, 0
1339, 0.55220955113907, 0.27042169434562, 0
1340, 0.57161520535949, 0.2481582854559, 0
1341, 0.59089567632046, 0.26076585672497, 0
1342, 0.61911393610505, 0.0050947395932986, 0
1343, 0.42258385565355, 0.28098485593864, 0
1344, 0.3462795396831, 0.28860625171811, 0
1345, 0.4269048740765, 0.29107563736141, 0
1346, 0.48417361287127, 0.28818792917686, 0
1347, 0.95098135471568, -0.22357321262955, 0
1348, 0.97557596378665, -0.22312794316325, 0
1349, 0.73112323326504, 0.27936301438607, 0
1350, 0.75720881078065, 0.27803052325245, 0
1351, 0.74325689109478, -0.22974913022083, 0
1352, 0.77397781224804, -0.20358122006104, 0
1353, 0.77050471903354, -0.22847661294564, 0
1354, 0.58589741691877, 0.29054601990533, 0
1355, 0.57758468252409, 0.28072451981329, 0
1356, 0.21883955546871, 0.23746860647054, 0
1357, 0.2559920961394, 0.27135339569969, 0
1358, 0.23015283810661, 0.26966881163706, 0
1359, 0.6080491493349, 0.22571734799149, 0
1360, 0.60341732275099, 0.22178133195471, 0
1361, 0.92146027981419, 0.24598556928215, 0
1362, 0.92111556067984, 0.27308567767593, 0
1363, 0.083917448245296, 0.026071289882318, 0
1364, 0.1056796278937, 0.047291425546021, 0
1365, 0.12644130472732, 0.0095120120590613, 0
1366, 0.10511551466652, 0.017855063092424, 0
1367, 0.04673840340744, 0.21554803735419, 0
1368, 0.023453498232572, 0.21871977564332, 0
1369, 0.56561145466268, 0.25517132833396, 0
1370, 0.55208973018569, 0.2640422249833, 0
1371, 0.54635539223068, 0.27919723512167, 0
1372, 0.88086582562253, 0.077742981042359, 0
1373, 0.8858792694324, 0.020076781414307, 0
1374, 0.85982175611049, 0.04944380120541, 0
1375, 0.88358772837821, 0.048960884721082, 0
1376, 0.06306223984587, 0.063199516965134, 0
1377, 0.06284370515455, 0.034128484858856, 0
1378, 0.042631383869309, -0.12468023948829, 0
1379, 0.18404935181196, -0.1516305607938, 0
1380, 0.14942165265168, -0.2577851874106, 0
1381, 0.82866292772831, 0.081815691363764, 0
1382, 0.83890636381319, 0.021514092630555, 0
1383, 0.80950509687597, 0.054073799923715, 0
1384, 0.83448944374722, 0.051658153129808, 0
1385, 0.68766443512706, -0.23283020719327, 0
1386, 0.63183328535351, -0.23621757916558, 0
1387, 0.6612221688326, -0.21173775642364, 0
1388, 0.65963721175214, -0.2344090609892, 0
1389, 0.64254630416576, 0.14612815116262, 0
1390, 0.68502199106826, 0.28194048327426, 0
1391, 0.70710416838996, 0.28058843111981, 0
1392, 0.3636905288879, 0.24418477801563, 0
1393, 0.41503952240441, 0.26770587774558, 0
1394, 0.44231355369471, 0.29257567055205, 0
1395, 0.57629588624835, -0.19517117355085, 0
1396, 0.54888320663228, -0.21753221712393, 0
1397, 0.52038094535908, -0.19702338116027, 0
1398, 0.54726370738126, -0.17390910311487, 0
1399, 0.54817448006021, -0.19586266159625, 0
1400, 0.26954916645679, 0.24263495691574, 0
1401, 0.30632322479028, 0.27918548407299, 0
1402, 0.28108534163899, 0.27412242229047, 0
1403, 0.20996758046322, -0.15384053922648, 0
1404, 0.090774509800223, -0.18529095573584, 0
1405, 0.61963684383679, 0.28949244727024, 0
1406, 0.59780268240335, 0.28201628133228, 0
1407, 0.59593447318203, 0.25234986869531, 0
1408, 0.87843335120767, -0.20006977438684, 0
1409, 0.90107461403561, -0.22470631886437, 0
1410, 0.87583068667878, -0.22548096999261, 0
1411, 0.57661784446199, -0.23851054427609, 0
1412, 0.52241718034382, -0.23919198175465, 0
1413, 0.54935771309029, -0.23872687629889, 0
1414, 0.81011384647046, -0.12135449970256, 0
1415, 0.78072842454813, -0.15029379651009, 0
1416, 0.75678280837182, -0.12199643359633, 0
1417, 0.78734163858707, -0.091596041122392, 0
1418, 0.784014118219, -0.12152699709741, 0
1419, 0.64737653390524, 0.2847593785108, 0
1420, 0.66542404827721, 0.28329020803619, 0
1421, 0.41412413128163, 0.27831230428269, 0
1422, 0.32834222081048, 0.28609453534755, 0
1423, 0.40400362480607, 0.28723797574718, 0
1424, 0.35186070504026, 0.24570031419684, 0
1425, 0.37017137862235, 0.23892845300741, 0
1426, 0.3892029778465, 0.2896453286093, 0
1427, 0.74959515358861, -0.1789630286257, 0
1428, 0.77713254074844, -0.17731996114148, 0
1429, 0.44462330804173, 0.27829851542731, 0
1430, 0.63271851870418, 0.28784088398859, 0
1431, 0.51738755652375, -0.1508560074595, 0
1432, 0.49099682433523, -0.17555968133048, 0
1433, 0.46136617456771, -0.15152477671059, 0
1434, 0.48906811611639, -0.15125369793298, 0
1435, 0.49426981427959, -0.21875931727846, 0
1436, 0.46525068398586, -0.19712706330902, 0
1437, 0.49271067122947, -0.19751694202896, 0
1438, 0.50079701784127, 0.0087480027898394, 0
1439, 0.5040124643132, 0.026928095366694, 0
1440, 0.4982877430815, 0.019667157022579, 0
1441, 0.46917602784163, -0.23908022237721, 0
1442, 0.49569975409681, -0.23946986698197, 0
1443, 0.041328091577921, -0.071174753678886, 0
1444, 0.3554248281661, 0.059018716049652, 0
1445, 0.27938257667665, 0.043242848103412, 0
1446, 0.89771021839176, 0.16361921999289, 0
1447, 0.92300584753287, 0.19071830918949, 0
1448, 0.92544563945368, 0.13437415820521, 0
1449, 0.92391290207227, 0.16278274343569, 0
1450, 0.11460725343849, -0.1890979474481, 0
1451, 0.12763699312393, -0.071941599793876, 0
1452, 0.16129610307458, -0.17229987010482, 0
1453, 0.093345794549224, 0.20969857373831, 0
1454, 0.13975647224586, 0.20520045986964, 0
1455, 0.11270535421486, 0.17557805953196, 0
1456, 0.11658544633494, 0.20720624427365, 0
1457, 0.71830366540512, -0.20682382314595, 0
1458, 0.71545576006483, -0.23097738134895, 0
1459, 0.62658238771585, 0.15210118094242, 0
1460, 0.63824409919066, 0.11819181267595, 0
1461, 0.65243159364974, 0.14420210248998, 0
1462, 0.75127478667247, 0.23458953060869, 0
1463, 0.75472080903953, 0.25618110088202, 0
1464, 0.63053667936021, 0.21064202177149, 0
1465, 0.7532197628429, 0.086501236460347, 0
1466, 0.65876540498059, 0.080942184746963, 0
1467, 0.63399146687129, 0.20543553008292, 0
1468, 0.74724409167293, 0.21328326144504, 0
1469, 0.60445775538771, -0.21543672245973, 0
1470, 0.60403137574161, -0.23718238739137, 0
1471, 0.77655803254964, 0.085910375704047, 0
1472, 0.79074495334304, 0.026929449088717, 0
1473, 0.7615117118353, 0.059483113531332, 0
1474, 0.78482120441221, 0.056866591941809, 0
1475, 0.5539015552953, -0.032706895794304, 0
1476, 0.5011235782521, 0.027295960823308, 0
1477, 0.5214231369158, 0.018004540280016, 0
1478, 0.54153976351418, -0.006014021818255, 0
1479, 0.084844407056958, 0.08552292341556, 0
1480, 0.065065168986178, 0.12332410568195, 0
1481, 0.063529322973748, 0.092816073249802, 0
1482, 0.34595538366478, 0.10620319849005, 0
1483, 0.35274209177763, 0.11666364590233, 0
1484, 0.35420805939138, 0.11151044332374, 0
1485, 0.60435990783388, -0.17079038563059, 0
1486, 0.63344587959362, -0.19140963535984, 0
1487, 0.6045870895301, -0.19326368561572, 0
1488, 0.62535501229606, 0.065764013195929, 0
1489, 0.63235007199066, -0.01769910449938, 0
1490, 0.72150764587971, 0.10916272292025, 0
1491, 0.611000888592, 0.066710877566124, 0
1492, 0.93181837672892, -0.090490478685708, 0
1493, 0.90948143621076, -0.063692428588349, 0
1494, 0.93272667178134, -0.034948164839414, 0
1495, 0.93225479887773, -0.062622576490517, 0
1496, 0.88748043174973, -0.036823455232306, 0
1497, 0.88545788336193, -0.09233335148956, 0
1498, 0.86373153297209, -0.065283218539866, 0
1499, 0.88672104501456, -0.06466274162341, 0
1500, 0.27647478043741, -0.21862627826216, 0
1501, 0.30839562677461, -0.23878533048085, 0
1502, 0.2809271099122, -0.23912014556071, 0
1503, 0.37398457014554, 0.16015791021942, 0
1504, 0.36391503652067, 0.20563605703629, 0
1505, 0.35234931346588, 0.13837339428451, 0
1506, 0.27451394351934, 0.17490717319824, 0
1507, 0.57488821080946, -0.15092781972411, 0
1508, 0.50761188312701, -0.060176409596178, 0
1509, 0.5461422646319, -0.15142021530661, 0
1510, 0.35527726539228, 0.2057659412923, 0
1511, 0.29942128783991, 0.14823192552958, 0
1512, 0.41619052371764, -0.2384741978119, 0
1513, 0.44030301228154, -0.21781449699879, 0
1514, 0.44272152486138, -0.23866499432287, 0
1515, 0.41412310381589, 0.056737990393261, 0
1516, 0.44439790395176, 0.028683947695682, 0
1517, 0.44091034620457, 0.0081439607252718, 0
1518, 0.4909291294895, 0.015667606041371, 0
1519, 0.49781844841135, -0.047208933427878, 0
1520, 0.50379943389682, 0.019593858239728, 0
1521, 0.51528254264239, -0.12543857643338, 0
1522, 0.35608717406977, 0.18435777414303, 0
1523, 0.31349057774944, 0.18345149028436, 0
1524, 0.30684454128728, 0.11841087697469, 0
1525, 0.4331266962397, 0.03082349929523, 0
1526, 0.44425585433347, -0.0058350601835457, 0
1527, 0.6560882681225, 0.16109822805438, 0
1528, 0.63046864343707, 0.2511409530175, 0
1529, 0.65322120442718, 0.12682875282633, 0
1530, 0.4606694303147, 0.011333605737024, 0
1531, 0.540012643947, 0.015744876805015, 0
1532, 0.33147379090046, -0.21810251914178, 0
1533, 0.36270763535155, -0.23839118325118, 0
1534, 0.33563338342078, -0.23859035027499, 0
1535, 0.83956790185451, 0.22253832118518, 0
1536, 0.80983902131744, 0.19955901495947, 0
1537, 0.78041833034713, 0.22978273373593, 0
1538, 0.81021806183628, 0.22563955180862, 0
1539, 0.3706376254563, 0.17781257728045, 0
1540, 0.35465266053867, 0.19514587328767, 0
1541, 0.3486417652135, 0.18070618861777, 0
1542, 0.53324676206805, -0.02715319061497, 0
1543, 0.50108691576376, 0.02182893063271, 0
1544, 0.4355608581332, -0.17492749239697, 0
1545, 0.40505483684284, -0.1515739111624, 0
1546, 0.43351226604776, -0.15234403794649, 0
1547, 0.6518478989108, 0.15514975708575, 0
1548, 0.64047097275294, 0.1756111012614, 0
1549, 0.38718813780339, 0.040948755218786, 0
1550, 0.36953283254711, 0.090017210838523, 0
1551, 0.36446330376181, 0.07002702340658, 0
1552, 0.12326605193069, -0.25647634944826, 0
1553, 0.10530043223514, -0.065487440147627, 0
1554, 0.083426346919107, -0.058614405506763, 0
1555, 0.47695579240647, -0.079794514472694, 0
1556, 0.61059919368185, 0.063725044889937, 0
1557, 0.19856885324272, -0.23910210230974, 0
1558, 0.13897990023217, -0.19251307501689, 0
1559, 0.092834480640361, -0.20911880526495, 0
1560, 0.41044205688874, -0.19619934880903, 0
1561, 0.43788363017723, -0.19665936351448, 0
1562, 0.59881263486703, 0.051062588785341, 0
1563, 0.69743960453669, 0.072280251347673, 0
1564, 0.57281055302586, -0.011130364398502, 0
1565, 0.57350392938028, -0.024836230507236, 0
1566, 0.55875159238108, -0.017233216368599, 0
1567, 0.56122237927949, -0.0036509464126166, 0
1568, 0.56617947902682, -0.014313323443725, 0
1569, 0.342701966183, 0.11867955031882, 0
1570, 0.35167781213161, 0.12187889867009, 0
1571, 0.43739306987096, 0.035309528928021, 0
1572, 0.40047501767309, 0.013797267434766, 0
1573, 0.35502554193511, -0.19700110213216, 0
1574, 0.29981493866306, -0.19762987803332, 0
1575, 0.32332802247947, -0.17647765666289, 0
1576, 0.3273316815957, -0.19752862546337, 0
1577, 0.56284518442785, 0.0084389350969312, 0
1578, 0.55230245744231, 0.0047601916845758, 0
1579, 0.55766862441859, 0.0065220865742888, 0
1580, 0.37157838417288, 0.072477429055167, 0
1581, 0.3485715280639, 0.10031497240236, 0
1582, 0.37152198770284, 0.096751205135537, 0
1583, 0.72389427159231, -0.15353821688836, 0
1584, 0.69169035404029, -0.18400945910197, 0
1585, 0.72085476034056, -0.18088528545289, 0
1586, 0.72775939435668, 0.25896107649872, 0
1587, 0.26819900239898, -0.17658421599537, 0
1588, 0.27226226500309, -0.19775309273569, 0
1589, 0.35080754882059, 0.13223898525926, 0
1590, 0.36321173549217, 0.20110432791011, 0
1591, 0.31805018361597, 0.17135020092686, 0
1592, 0.64509257291522, 0.16031405377857, 0
1593, 0.67341008506905, 0.033510243442508, 0
1594, 0.48616995219777, -0.0024603358446838, 0
1595, 0.50591633076075, 0.022820680018871, 0
1596, 0.54494684377576, 0.015593826476605, 0
1597, 0.37002175167837, 0.087197906066947, 0
1598, 0.38107919240886, 0.073939269549727, 0
1599, 0.34734901268449, -0.1544746656642, 0
1600, 0.29196000285139, -0.15488066290473, 0
1601, 0.31660487901521, -0.13133453267973, 0
1602, 0.31959755850027, -0.15467191421213, 0
1603, 0.60238566759941, -0.12551661673611, 0
1604, 0.63325762381324, -0.1442056915449, 0
1605, 0.60369465695239, -0.14816558074568, 0
1606, 0.47147019854503, 0.019022661717009, 0
1607, 0.53519099035171, 0.015995614814545, 0
1608, 0.48186298998168, 0.012522540374328, 0
1609, 0.63498458570769, 0.14749522479354, 0
1610, 0.90965158843278, -0.0077333312911184, 0
1611, 0.93231218213226, -0.0068355248235996, 0
1612, 0.4953634360537, -0.0058361308712869, 0
1613, 0.50309648882398, 0.024068084746972, 0
1614, 0.49630437530916, 0.022875032710661, 0
1615, 0.51585613063687, -0.048044487252597, 0
1616, 0.39621774162213, 0.047496658714111, 0
1617, 0.4052917216557, 0.043933495587946, 0
1618, 0.38951868949769, 0.033891878017207, 0
1619, 0.3422783096432, 0.13676381041255, 0
1620, 0.34532997835713, 0.19345497830195, 0
1621, 0.36122430302325, 0.13570345534364, 0
1622, 0.60442076016495, 0.062711047083535, 0
1623, 0.58294055917749, 0.0036425482904794, 0
1624, 0.57282183803571, 0.012106063274062, 0
1625, 0.58214419910064, 0.016556588348662, 0
1626, 0.57757149145587, 0.014135770470477, 0
1627, 0.86396508689826, -0.008311687139754, 0
1628, 0.88687080415922, -0.0082585858538251, 0
1629, 0.38740704954085, 0.23465730073347, 0
1630, 0.38578636504993, 0.24087464595461, 0
1631, 0.39407191096719, 0.24016862051263, 0
1632, 0.39092448930824, 0.23754099937604, 0
1633, 0.31440262852089, 0.067504545094654, 0
1634, 0.3553743758955, 0.06749855554902, 0
1635, 0.15779530842975, 0.17050221528447, 0
1636, 0.18601834413341, 0.20346394554394, 0
1637, 0.16309036971462, 0.2040015361305, 0
1638, 0.57284787891018, 8.2752013979261e-05, 0
1639, 0.567904392124, 0.010254703274414, 0
1640, 0.66331755237438, -0.16319545646604, 0
1641, 0.66235604194456, -0.18772936906656, 0
1642, 0.40561942991464, 0.025558939721544, 0
1643, 0.44842012251756, 0.025670436520173, 0
1644, 0.4270065822974, 0.050175346762461, 0
1645, 0.33489133193983, 0.19121209107789, 0
1646, 0.36619860665166, 0.21034040205661, 0
1647, 0.37872552036552, 0.19191401159702, 0
1648, 0.62388643932488, 0.13595775071618, 0
1649, 0.63011165996116, 0.24178775016506, 0
1650, 0.62533984014952, 0.20243652620389, 0
1651, 0.61565687900523, 0.2265014977018, 0
1652, 0.63739624873387, 0.12401659454237, 0
1653, 0.84069575886187, -0.03612652819478, 0
1654, 0.81730351705065, -0.005883745060829, 0
1655, 0.84037265200891, -0.0072457343812084, 0
1656, 0.90812389373372, -0.11940972515143, 0
1657, 0.93022414058805, -0.14538134488086, 0
1658, 0.93120062367811, -0.11818402160733, 0
1659, 0.62355309446362, 0.12329411338665, 0
1660, 0.65985217672526, 0.16801135457413, 0
1661, 0.48945069135907, -0.01076457991101, 0
1662, 0.46341126265126, 0.028136405774824, 0
1663, 0.54110794192549, 0.28045984215905, 0
1664, 0.60228003350503, 0.24031973787125, 0
1665, 0.59838001003417, 0.24371736221954, 0
1666, 0.35919121139512, 0.1553882034003, 0
1667, 0.27896261300685, 0.21276013453567, 0
1668, 0.28736755254859, 0.1581269163513, 0
1669, 0.63967805637582, 0.16991868256448, 0
1670, 0.67967032054051, 0.12108981634054, 0
1671, 0.67107686539366, 0.10919548340478, 0
1672, 0.6382336057904, 0.10008900913804, 0
1673, 0.37162474746666, 0.21933672395639, 0
1674, 0.36884792125383, 0.21491737941795, 0
1675, 0.62905708980786, 0.22468944244671, 0
1676, 0.61990537823374, 0.21115647649088, 0
1677, 0.37800036163291, 0.2273570172075, 0
1678, 0.38322423312702, 0.23135485240632, 0
1679, 0.49340509134817, 0.010459575507923, 0
1680, 0.69566953087895, -0.12723374113734, 0
1681, 0.73258402550104, -0.088709151030972, 0
1682, 0.72762957583917, -0.12339917073108, 0
1683, 0.63997838977026, 0.076533769553193, 0
1684, 0.60626859935514, 0.065962911630723, 0
1685, 0.62356281799313, 0.04302541890889, 0
1686, 0.39185463812723, 0.049857162008124, 0
1687, 0.28309312931729, -0.06019196741198, 0
1688, 0.32432156544203, 0.076473841784076, 0
1689, 0.6348981280307, 0.13486667817132, 0
1690, 0.63152468890119, 0.16806077684143, 0
1691, 0.32613056930903, 0.091257913390213, 0
1692, 0.33413428046222, 0.10720060315667, 0
1693, 0.3368549490073, 0.099695479727249, 0
1694, 0.37300618769435, 0.17279080961898, 0
1695, 0.33402609708731, 0.20034665634509, 0
1696, 0.34058056069744, 0.092619361050953, 0
1697, 0.62467218079826, 0.14934134502843, 0
1698, 0.6191512303833, 0.19593694738545, 0
1699, 0.36995397662744, 0.19342752533583, 0
1700, 0.52658401131802, 0.025088438314961, 0
1701, 0.50430331279059, 0.013102051962482, 0
1702, 0.51098112363781, 0.015026067222569, 0
1703, 0.458198587833, -0.10344894997819, 0
1704, 0.32500764395571, 0.18849156588917, 0
1705, 0.33609575412787, 0.14528287845501, 0
1706, 0.072476786326002, -0.25339011102075, 0
1707, 0.021106204577532, -0.11817869466562, 0
1708, 0.18107158301151, -0.12857529639072, 0
1709, 0.63146588585593, 0.030853435712175, 0
1710, 0.70285554537245, 0.1081142417144, 0
1711, 0.61397053581868, 0.2188148017536, 0
1712, 0.37084843903749, 0.010179907940853, 0
1713, 0.39232161069262, 0.039522116093383, 0
1714, 0.38215552225471, 0.044016622096358, 0
1715, 0.26110333654752, -0.1324546876527, 0
1716, 0.2645380756402, -0.15469539431904, 0
1717, 0.62461825190096, 0.1624611345841, 0
1718, 0.61906586287195, 0.080977496043838, 0
1719, 0.90237888549959, 0.10634398872835, 0
1720, 0.92726119569663, 0.10584448322764, 0
1721, 0.21731290958979, -0.19764463922307, 0
1722, 0.06914741811173, -0.20554058706943, 0
1723, 0.044544980348096, -0.17660021375852, 0
1724, 0.51717047052153, 0.018975736297458, 0
1725, 0.48268530497018, -0.014562679547512, 0
1726, 0.56611873723671, 0.26901949306465, 0
1727, 0.54442344563774, 0.26729414774652, 0
1728, 0.59838958525263, 0.27372110652965, 0
1729, 0.59678175398082, 0.29081603220143, 0
1730, 0.57392160065926, 0.24754087788413, 0
1731, 0.5728660083237, 0.27195730416906, 0
1732, 0.57611337495794, 0.25334974868115, 0
1733, 0.36653926024498, 0.22588249634346, 0
1734, 0.37433112828467, 0.22341049188986, 0
1735, 0.30459251373048, 0.077529664701676, 0
1736, 0.37776551877395, 0.082477226732169, 0
1737, 0.59155600272961, 0.021376653596141, 0
1738, 0.58672590157334, 0.019082173338615, 0
1739, 0.46129217741003, 0.2875320123715, 0
1740, 0.37114781512963, 0.14355102128622, 0
1741, 0.37673833331427, 0.18075500899124, 0
1742, 0.37514563465836, 0.16714727698625, 0
1743, 0.64992857602428, 0.13398444538293, 0
1744, 0.61160723904495, 0.086585692987044, 0
1745, 0.64382233150991, -0.045854389424284, 0
1746, 0.58880255460292, 0.054892841218571, 0
1747, 0.58658057560045, 0.23953963093747, 0
1748, 0.56052432159951, 0.26567424759177, 0
1749, 0.40397006441105, 0.053065459742342, 0
1750, 0.38490806437875, 0.025880195087237, 0
1751, 0.45327629511549, 0.0031001611823268, 0
1752, 0.45524494690124, 0.01281577306731, 0
1753, 0.58616070900569, 0.05173794650782, 0
1754, 0.59822434085983, 0.067584697822682, 0
1755, 0.54827126001828, -0.0063862729081241, 0
1756, 0.61595266238151, 0.077787967910088, 0
1757, 0.38614727215303, -0.21753295439923, 0
1758, 0.38955363693939, -0.23832794393583, 0
1759, 0.63189822476213, 0.17284117159315, 0
1760, 0.8499849159493, 0.10922992073047, 0
1761, 0.87395146320237, 0.13588271462145, 0
1762, 0.87683125854355, 0.10731838127572, 0
1763, 0.46753111082604, 0.027135567016156, 0
1764, 0.74142065935662, 0.1932057814588, 0
1765, 0.69144051706677, 0.16232531778425, 0
1766, 0.43780116826893, 0.042083652106377, 0
1767, 0.42068936390305, 0.053045501532734, 0
1768, 0.37945020718398, -0.17475647829839, 0
1769, 0.38269020963684, -0.19670193625138, 0
1770, 0.22666011478085, 0.086823355870937, 0
1771, 0.33522680053417, 0.040579301031498, 0
1772, 0.19363833757493, 0.013978644698802, 0
1773, 0.66241812908236, -0.10899183041649, 0
1774, 0.66367867587648, -0.13747531557742, 0
1775, 0.61970531558813, 0.028475684446724, 0
1776, 0.41978318321098, 0.028955762304661, 0
1777, 0.37285306537627, -0.12884810161659, 0
1778, 0.3761931787232, -0.15225439611528, 0
1779, 0.58552507320885, -0.0010510256555268, 0
1780, 0.58287864768718, -0.0044513628709914, 0
1781, 0.59026432650829, -0.0013530127786426, 0
1782, 0.34162688140696, -0.10547507749556, 0
1783, 0.28564556884709, -0.1096411272745, 0
1784, 0.3138017439654, -0.10788882248213, 0
1785, 0.65850476152606, 0.1104224469196, 0
1786, 0.65812927400005, 8.86107315623e-05, 0
1787, 0.43892905357527, -0.030251814551559, 0
1788, 0.37952420545415, -0.025360077960484, 0
1789, 0.42566767993029, 0.03204420557577, 0
1790, 0.43078495435764, -0.027163370430616, 0
1791, 0.74774731382672, -0.023571699422193, 0
1792, 0.76744399732355, -0.059850706993783, 0
1793, 0.74285643109671, -0.055011187970903, 0
1794, 0.59651024915939, -0.0075822887990287, 0
1795, 0.5888896231624, -0.0068363434784059, 0
1796, 0.61005008898771, 0.24118616021196, 0
1797, 0.60912569016046, 0.23317890323219, 0
1798, 0.60584729641694, 0.23674528683341, 0
1799, 0.15507129413152, 0.097599907730933, 0
1800, 0.13211288705772, 0.13896647701215, 0
1801, 0.17733708596673, 0.13385816430774, 0
1802, 0.15501679001543, 0.13576176868052, 0
1803, 0.68416667583808, 0.22305580527749, 0
1804, 0.48776542861127, 0.025608249520871, 0
1805, 0.40129265503405, 0.26817132410012, 0
1806, 0.38473595877411, 0.28050785430005, 0
1807, 0.34473160640188, 0.27615267513835, 0
1808, 0.35851007008651, 0.26899332257759, 0
1809, 0.7418596719958, 0.11148004038498, 0
1810, 0.6408200154207, 0.038660401812099, 0
1811, 0.61631385678194, 0.052213591914113, 0
1812, 0.51254736631089, -0.028343937696261, 0
1813, 0.61715366222952, -0.013556867883986, 0
1814, 0.54303673745823, -0.030457218331784, 0
1815, 0.45768008125692, -0.061572433312982, 0
1816, 0.519760795833, 0.01088365269096, 0
1817, 0.60072301402431, 0.036410038591674, 0
1818, 0.59138417580045, 0.057983566933379, 0
1819, 0.71177641106373, 0.088607091078146, 0
1820, 0.25535453841743, -0.086444256760546, 0
1821, 0.25810465125419, -0.10959034306614, 0
1822, 0.45154605103683, 0.032774754113527, 0
1823, 0.67907674776236, 0.058091775277526, 0
1824, 0.61522540376166, 0.063407947931578, 0
1825, 0.60828867766681, 0.068851689829515, 0
1826, 0.62398269989284, 0.050048126465775, 0
1827, 0.65129430116152, 0.17919435610118, 0
1828, 0.33169897211342, 0.083527753559926, 0
1829, 0.29383276335232, 0.10296870488672, 0
1830, 0.26199959319823, 0.096937721358038, 0
1831, 0.65025131585379, -0.063234207688608, 0
1832, 0.62585650857891, -0.076539281597885, 0
1833, 0.37739707235885, 0.034428442916751, 0
1834, 0.41186825830171, 0.049848086044502, 0
1835, 0.33964821471069, -0.032932858407018, 0
1836, 0.39285092618861, 0.24527908340229, 0
1837, 0.39704648818121, 0.24268302296021, 0
1838, 0.37436507972536, 0.024372008282235, 0
1839, 0.35704344508666, 0.10017463241387, 0
1840, 0.92761734778351, -0.19826396532572, 0
1841, 0.92610399955327, -0.22405655931747, 0
1842, 0.63854413918918, 0.15111751979125, 0
1843, 0.63136237221112, 0.14431977925344, 0
1844, 0.38075263526778, 0.19930198178011, 0
1845, 0.29569103747552, 0.19235453609826, 0
1846, 0.34071310958941, 0.17596355871123, 0
1847, 0.31990947751446, 0.12040347865773, 0
1848, 0.59574408998869, 0.00043095572740048, 0
1849, 0.63862068820021, 0.10628129122938, 0
1850, 0.54090047760149, 0.0047852474022419, 0
1851, 0.61769970367037, 0.069451589490465, 0
1852, 0.62014575694226, -0.025839180166771, 0
1853, 0.81330217115504, 0.14283767786775, 0
1854, 0.79159725893181, 0.11514596953252, 0
1855, 0.82174271981611, 0.11194717982957, 0
1856, 0.61227117397495, 0.22976655580453, 0
1857, 0.2817056010477, 0.083192373159078, 0
1858, 0.32051184320026, 0.11049379612968, 0
1859, 0.29812213149277, 0.089926640472007, 0
1860, 0.28665691986088, 0.066117176973464, 0
1861, 0.61117602988741, 0.034975189367884, 0
1862, 0.73216653520709, 0.086813082636654, 0
1863, 0.63188571527997, 0.17777055723636, 0
1864, 0.69270528185384, 0.091755863937733, 0
1865, 0.63180592228416, 0.083608288911992, 0
1866, 0.35089124285697, 0.12700246790255, 0
1867, 0.34462714609275, 0.1696765782624, 0
1868, 0.37074686752725, 0.13917904716099, 0
1869, 0.20252819863917, 0.16985032354521, 0
1870, 0.32381263382114, 0.16161373765703, 0
1871, 0.20907373500745, 0.20393156429069, 0
1872, 0.067420446267133, 0.18281391959218, 0
1873, 0.069774815439323, 0.21238176538194, 0
1874, 0.66655600096818, 0.05530505159483, 0
1875, 0.62580548181021, 0.093630265942016, 0
1876, 0.41868797331359, -0.025844690139595, 0
1877, 0.50929748719282, 0.021535631171971, 0
1878, 0.7076025218402, 0.15094136156881, 0
1879, 0.62147770300044, 0.084934391665874, 0
1880, 0.62884784803012, 0.058153221734419, 0
1881, 0.432557320398, -0.10300671177511, 0
1882, 0.45004948072257, -0.0197938949565, 0
1883, 0.448477766753, -0.031563777975263, 0
1884, 0.77498393799001, 0.18015955946552, 0
1885, 0.84162247647771, 0.1677972104123, 0
1886, 0.81046276058214, 0.17195078937116, 0
1887, 0.64096069416878, 0.026418457250291, 0
1888, 0.62419161467732, 0.15862699474979, 0
1889, 0.89523428439473, 0.21928336794777, 0
1890, 0.92211561507801, 0.21852424176638, 0
1891, 0.49824243205469, 0.026914243248898, 0
1892, 0.48907561882105, 0.020592042497145, 0
1893, 0.36111013118195, -0.052318889841039, 0
1894, 0.36267974589909, 0.026245497289721, 0
1895, 0.38179341279709, -0.0056265535987499, 0
1896, 0.44329181057217, 0.28530942876014, 0
1897, 0.58016987248528, 0.046081450617529, 0
1898, 0.72445925962873, 0.040192542973609, 0
1899, 0.6247486110217, 0.012839126521902, 0
1900, 0.63517549126351, 0.072089752739362, 0
1901, 0.4663296987183, -0.008188739553039, 0
1902, 0.47222147737353, 0.0024083599883856, 0
1903, 0.43050626389245, 0.035330486328664, 0
1904, 0.41916690684789, 0.042046360519239, 0
1905, 0.42320820217045, 0.047086062310589, 0
1906, 0.23657615095864, 0.031905009119694, 0
1907, 0.36132181757667, -0.029835820442894, 0
1908, 0.30832787829427, 0.10700217285898, 0
1909, 0.905027019523, -0.17303337027302, 0
1910, 0.92913918887957, -0.17217279129882, 0
1911, 0.21919229627041, 0.066051652779539, 0
1912, 0.31678820615815, 0.085334749908553, 0
1913, 0.39693204279692, 0.03692836431864, 0
1914, 0.20406579736764, -0.10762431344809, 0
1915, 0.065887968213255, -0.15620804817983, 0
1916, 0.51705454018614, -0.01826495681334, 0
1917, 0.48626794356194, -0.024252257901835, 0
1918, 0.49287886319143, 0.021583483599958, 0
1919, 0.35118522460665, 0.17500514455931, 0
1920, 0.36186026327994, 0.14050569738979, 0
1921, 0.37150770500137, 0.1747374183826, 0
1922, 0.21498315584502, 0.051178285826175, 0
1923, 0.34290963412047, 0.23751217465038, 0
1924, 0.35020091907785, 0.23160642086607, 0
1925, 0.86904621393524, 0.19298790951112, 0
1926, 0.86790080870677, 0.22047975447362, 0
1927, 0.63016145701303, 0.11346713400815, 0
1928, 0.64470085429383, 0.081851830105423, 0
1929, 0.59605758420344, 0.064377820237592, 0
1930, 0.52870046365174, -0.0023085968817343, 0
1931, 0.55164136184485, 0.27755043034872, 0
1932, 0.54381497768718, 0.28639436268155, 0
1933, 0.55412516502585, 0.29207510536522, 0
1934, 0.60415817172881, 0.2556191202174, 0
1935, 0.55651061137161, 0.26823625216021, 0
1936, 0.088251739768583, 0.14836695907838, 0
1937, 0.066146561188944, 0.15326610509026, 0
1938, 0.65003724471165, 0.23769872844957, 0
1939, 0.63073018481752, 0.18776513253994, 0
1940, 0.66587096014184, 0.14098256096547, 0
1941, 0.31123110833608, -0.08495513635873, 0
1942, 0.38083002805637, -0.047064397844728, 0
1943, 0.87058956008341, 0.16507753351343, 0
1944, 0.622576375193, 0.057385005531448, 0
1945, 0.63927875938805, 0.19359910867164, 0
1946, 0.64212880767649, 0.25259575385786, 0
1947, 0.34797592251675, 0.25418315107113, 0
1948, 0.37532901353571, 0.29020551256837, 0
1949, 0.40444430710236, -0.05693417734537, 0
1950, 0.88307147262154, -0.14773437909338, 0
1951, 0.88085519539793, -0.17416669399373, 0
1952, 0.17397055776297, 0.050634877374332, 0
1953, 0.23381657978007, 0.051695652592655, 0
1954, 0.63630218798129, 0.12950161445255, 0
1955, 0.63324989956415, 0.13982875509799, 0
1956, 0.50189808405203, 0.27594308638931, 0
1957, 0.4956614803042, 0.28642397953756, 0
1958, 0.22825543180352, -0.085279102698477, 0
1959, 0.57044703450907, 0.25017494844316, 0
1960, 0.54687358317033, 0.29287923197779, 0
1961, 0.58059168826815, 0.24832215475301, 0
1962, 0.7329912480021, 0.17523398563645, 0
1963, 0.62964566359027, 0.1926779198847, 0
1964, 0.72592517829164, 0.13377266962289, 0
1965, 0.65108020306442, 0.19412618960563, 0
1966, 0.62152260933136, 0.24922942992241, 0
1967, 0.64499104006603, 0.1251307671242, 0
1968, 0.62995265789455, 0.12831065683131, 0
1969, 0.67110902373393, 0.16166420844876, 0
1970, 0.62306053130788, 0.11900354147948, 0
1971, 0.14924725960064, 0.030158274127596, 0
1972, 0.17211352141152, -0.0042442799943617, 0
1973, 0.14890872687863, -0.0251956642403, 0
1974, 0.14907350657023, 0.002342027551883, 0
1975, 0.12861799277915, 0.069959789764076, 0
1976, 0.15162232813952, 0.061438892518358, 0
1977, 0.19972408865837, 0.13622695273599, 0
1978, 0.47569914523979, 0.28281184929428, 0
1979, 0.48854643766755, 0.29377906315691, 0
1980, 0.37604212839321, 0.24247449133896, 0
1981, 0.35749133188628, 0.22836071968847, 0
1982, 0.43344769633307, 0.27530701101941, 0
1983, 0.6503168016417, -0.016684262515102, 0
1984, 0.69030857078776, 0.002475357302625, 0
1985, 0.62371390323131, 0.089174499910046, 0
1986, 0.62389302402361, 0.17909611166216, 0
1987, 0.17395753028812, -0.056137375193459, 0
1988, 0.19721103051758, -0.034747106233899, 0
1989, 0.22564309444172, -0.061491370692183, 0
1990, 0.19945182052774, -0.059203751339654, 0
1991, 0.29119895318815, 0.11618809821957, 0
1992, 0.33366687238549, 0.22567691844943, 0
1993, 0.37456200144214, 0.16370508735593, 0
1994, 0.30038989125419, 0.17412470274105, 0
1995, 0.36417023611536, -0.076546589663241, 0
1996, 0.66016281863951, -0.030168621856619, 0
1997, 0.7710264525575, 0.00069218216130951, 0
1998, 0.74571627699645, 0.034808574076751, 0
1999, 0.74948502757381, 0.0053244557753681, 0
2000, 0.62483696680587, 0.16644435185615, 0
2001, 0.24900392034606, -0.011783667122473, 0
2002, 0.36066228470166, 0.1305893352707, 0
2003, 0.32343437455939, 0.13982304749788, 0
2004, 0.17596777149598, -0.25893779001516, 0
2005, 0.24465627333227, -0.19792684602618, 0
2006, 0.10865585825889, 0.11085801460161, 0
2007, 0.10993966412809, 0.14336416952773, 0
2008, 0.46382104579762, 0.27011284188676, 0
2009, 0.5804584013452, 0.25261405572277, 0
2010, 0.58016528470995, 0.24420391760927, 0
2011, 0.56967789306587, 0.26518534002535, 0
2012, 0.46922914054116, 0.29400914703785, 0
2013, 0.63427940529333, 0.15551439431678, 0
2014, 0.52549794912113, 0.28261830307679, 0
2015, 0.5164457218431, 0.27327965192689, 0
2016, 0.63492347732225, 0.088517929627931, 0
2017, 0.26542785939883, 0.07827252451485, 0
2018, 0.34978735152498, 0.031025226391363, 0
2019, 0.27004045976336, 0.059547451479676, 0
2020, 0.38385173986885, 0.070712826918374, 0
2021, 0.44996248065336, 0.27946582528078, 0
2022, 0.36963170539039, 0.25496992070143, 0
2023, 0.32703948503546, 0.26963065374261, 0
2024, 0.62617314275704, -0.0060379373174002, 0
2025, 0.24812532100578, 0.073239480587946, 0
2026, 0.35419962258996, 0.0098670864973602, 0
2027, 0.24452951778096, 0.092838461253107, 0
2028, 0.36290429490367, 0.19187931767233, 0
2029, 0.24177980914055, 0.11475454566874, 0
2030, 0.47564145735296, 0.29410173813524, 0
2031, 0.43750991744722, -0.079569362213126, 0
2032, 0.61033682535818, 0.25114438864818, 0
2033, 0.61483351064327, 0.24546382552975, 0
2034, 0.42751098157742, 0.27333589684387, 0
2035, 0.4213064466132, 0.27086132534235, 0
2036, 0.39379767858304, 0.24934985258912, 0
2037, 0.63483777728276, 0.23150791773202, 0
2038, 0.25373352833936, -0.061668006022331, 0
2039, 0.57359035022499, -0.1283469673466, 0
2040, 0.34531898126935, 0.068347490473839, 0
2041, 0.6745737222767, 0.096633202545739, 0
2042, 0.48658909795606, -0.055646986769947, 0
2043, 0.86016323883534, -0.12078532818444, 0
2044, 0.88482199386936, -0.12060062950213, 0
2045, 0.53434685556271, -0.015426114461463, 0
2046, 0.24252861303565, 0.011286853800447, 0
2047, 0.62039731423482, 0.063959294345158, 0
2048, 0.65710305684921, -0.083998789068588, 0
2049, 0.66296275528313, 0.17582420320341, 0
2050, 0.34865965236368, 0.16389055965138, 0
2051, 0.29777138447434, 0.21563096132162, 0
2052, 0.50633829640624, -0.038192530918402, 0
2053, 0.35664558210838, 0.15003824285298, 0
2054, 0.36750682313803, 0.055940509828874, 0
2055, 0.54524501257831, -0.061476914217163, 0
2056, 0.44588007517716, -0.045008127564885, 0
2057, 0.37055220285562, 0.083240458675622, 0
2058, 0.57206327498108, 0.25336624755061, 0
2059, 0.60756231778352, 0.27208210715764, 0
2060, 0.25796457955758, 0.034836410745934, 0
2061, 0.32723199701853, 0.21312405269342, 0
2062, 0.33240749748436, 0.11493412024164, 0
2063, 0.36383144112819, 0.23429627552333, 0
2064, 0.19385165899511, 0.037570978717059, 0
2065, 0.54355994650386, -0.10346236691594, 0
2066, 0.49915693081228, 0.024106192885048, 0
2067, 0.54654613486731, 0.0047409705095459, 0
2068, 0.49485978396307, 0.017568404622027, 0
2069, 0.65658802333042, 0.052547437207275, 0
2070, 0.58339772401629, 0.24199315150433, 0
2071, 0.53071254093634, 0.28213939950442, 0
2072, 0.1065210766675, 0.077985356289693, 0
2073, 0.71713337084685, 0.21990000057278, 0
2074, 0.60023646321907, -0.10320489159216, 0
2075, 0.40999742210674, 0.042849457720715, 0
2076, 0.44070807107295, 0.031937680768734, 0
2077, 0.35164907262249, 0.15627051904767, 0
2078, 0.33175263927814, 0.12278346512985, 0
2079, 0.33547241721895, 0.012232320640673, 0
2080, 0.45155289876158, -0.0078099105075772, 0
2081, 0.47156786481914, 0.010634197650931, 0
2082, 0.47685376476652, 0.011486378424447, 0
2083, 0.062343520555331, -0.078642863722366, 0
2084, 0.39939553925187, 0.25555412788095, 0
2085, 0.36265595014805, 0.04203936005001, 0
2086, 0.22222265786046, 0.11029694614964, 0
2087, 0.62627375676315, 0.1459345380338, 0
2088, 0.40705789145433, -0.016410417007859, 0
2089, 0.40954438744249, 0.26373984418903, 0
2090, 0.58949795712216, 0.27442266937775, 0
2091, 0.60801346310488, 0.29042798549491, 0
2092, 0.39540033042021, 0.25223350282493, 0
2093, 0.38138677315047, 0.27212867437191, 0
2094, 0.58740860022632, 0.036250220687191, 0
2095, 0.36952557781498, -0.10260192091587, 0
2096, 0.47987146774168, 0.025418910569497, 0
2097, 0.76442651356517, 0.11444251741242, 0
2098, 0.31483833934674, 0.045940132220698, 0
2099, 0.68548007757127, -0.023508025891225, 0
2100, 0.45957612685635, 0.0014013365321419, 0
2101, 0.79423874737886, -0.03304317972545, 0
2102, 0.79374872208854, -0.0029924670682799, 0
2103, 0.73970089381611, 0.0622087109741, 0
2104, 0.8374906489329, -0.092824113708259, 0
2105, 0.83539198354736, -0.12110179490854, 0
2106, 0.81568368731557, -0.063874663938565, 0
2107, 0.8402662253527, -0.065260654708307, 0
2108, 0.58782362493339, 0.2820913759776, 0
2109, 0.61362830395803, 0.040668790216974, 0
2110, 0.68618096045155, 0.10809614528683, 0
2111, 0.60262805781701, 0.073718996804099, 0
2112, 0.15007057788188, -0.051172700705013, 0
2113, 0.39470442799809, -0.020375009615605, 0
2114, 0.79171853504501, -0.062493889148732, 0
2115, 0.5625712968886, 0.25763387411995, 0
2116, 0.36430660031666, 0.11253326234173, 0
2117, 0.60955651563106, 0.054749163692688, 0
2118, 0.43691298139698, -0.0033936540942246, 0
2119, 0.38577889016165, 0.25812497032131, 0
2120, 0.60670159798277, 0.26330489907697, 0
2121, 0.54313116084292, 0.026712029047292, 0
2122, 0.5341853486674, 0.2759548030693, 0
2123, 0.62355022950346, 0.15503209732769, 0
2124, 0.32781275505688, 0.17815030422524, 0
2125, 0.49993424653821, -0.013264106955172, 0
2126, 0.53871708270164, 0.27495339625054, 0
2127, 0.40309371193584, -0.12573500099167, 0
2128, 0.46549612149742, 0.28196064685803, 0
2129, 0.22032461290052, -0.01300725076826, 0
2130, 0.62543720282787, 0.26911325328287, 0
2131, 0.38533700788644, 0.24715456973401, 0
2132, 0.35915041038408, 0.25959211922907, 0
2133, 0.64780428730737, 0.16595810995543, 0
2134, 0.51209743843642, -0.095344551506855, 0
2135, 0.13358384203072, -0.1459897448492, 0
2136, 0.62860142293377, 0.13757711899499, 0
2137, 0.20766232060997, -0.2799353484703, 0
2138, 0.42636584685938, 0.046755408710787, 0
2139, 0.39184270659524, 0.27118138253234, 0
2140, 0.20918559240183, 0.07651197780629, 0
2141, 0.43684593875049, 0.28421781350978, 0
2142, 0.33000697464713, 0.25578242151485, 0
2143, 0.42575234409201, -0.014959385441743, 0
2144, 0.64982257390881, 0.22200027285034, 0
2145, 0.66357428658369, 0.20447173498113, 0
2146, 0.66484453790834, 0.15478263173199, 0
2147, 0.63705713362375, 0.094099764295473, 0
2148, 0.34437023944108, -0.011913240697801, 0
2149, 0.57862993034692, -0.0081259635126534, 0
2150, 0.6154972233281, 0.046338442808575, 0
2151, 0.58425790971105, -0.033966009387739, 0
2152, 0.61871975957981, 0.23655023683193, 0
2153, 0.52109368780458, -0.034836048828975, 0
2154, 0.60125253669173, 0.24924791028047, 0
2155, 0.46780609326551, 0.27103382154943, 0
2156, 0.66245271395586, 0.12897840627262, 0
2157, 0.46896245325818, 0.2767309748799, 0
2158, 0.3729417783018, 0.092902487933246, 0
2159, 0.51462701267996, 0.025504717726379, 0
2160, 0.57331025172976, -0.04253871254982, 0
2161, 0.61299135845382, 0.074803105162056, 0
2162, 0.37633089428503, 0.17091266499652, 0
2163, 0.42845729976196, 0.039473085134062, 0
2164, 0.47006949591197, -0.044086589216347, 0
2165, 0.49500606297303, 0.026366099048266, 0
2166, 0.40142238606378, 0.2473431324051, 0
2167, 0.62268022646135, 0.15189567179293, 0
2168, 0.43489727263018, 0.29192422735336, 0
2169, 0.25460581910223, 0.20749976513638, 0
2170, 0.29927487483314, 0.055225286280988, 0
2171, 0.43435995251043, -0.042065710412487, 0
2172, 0.35431602572854, 0.21705672452675, 0
2173, 0.61698683133594, 0.21509931845798, 0
2174, 0.63032637828322, 0.068480097288939, 0
2175, 0.53165907829474, -0.041201866309001, 0
2176, 0.36515122490028, 0.17870805310097, 0
2177, 0.36357309137933, 0.16400882498857, 0
2178, 0.62158870039444, -0.039514876235085, 0
2179, 0.37443299193612, 0.089431391275632, 0
2180, 0.4898622443427, 0.28762218928627, 0
2181, 0.70253375775505, 0.26139695597928, 0
2182, 0.52589992391044, 0.01701439638554, 0
2183, 0.37096535095464, 0.078225148279803, 0
2184, 0.20709619127846, -0.13068939517421, 0
2185, 0.64884970397112, 0.10375147018216, 0
2186, 0.59763171747467, 0.031863033840358, 0
2187, 0.62275681095111, -0.057029848535283, 0
2188, 0.72921216695355, 0.011145879643868, 0
2189, 0.041812469879382, -0.098235446121385, 0
2190, 0.32431155455275, 0.20029117916748, 0
2191, 0.26192745241568, 0.14033450667849, 0
2192, 0.29191373168715, 0.13045235917722, 0
2193, 0.37043063203729, 0.18165759770806, 0
2194, 0.37607345519243, 0.17701253936705, 0
2195, 0.47338225061739, -0.006833837271592, 0
2196, 0.42503300597932, -0.034752633439172, 0
2197, 0.409401014963, -0.031187147852103, 0
2198, 0.4843512955622, 0.27330015644164, 0
2199, 0.36592249297245, 0.108314051057, 0
2200, 0.3415638774501, 0.057456887788365, 0
******* E L E M E N T S *************
*ELEMENT, type=CPS4, ELSET=Surface1
1, 10, 18, 932, 550
2, 1557, 1289, 781, 537
3, 1379, 1403, 2184, 1708
4, 1403, 367, 991, 2184
5, 390, 929, 930, 927
6, 927, 930, 928, 389
7, 930, 51, 62, 928
8, 929, 61, 51, 930
9, 22, 15, 998, 924
10, 21, 14, 931, 2137
11, 1722, 1559, 1404, 543
12, 533, 551, 933, 538
13, 138, 128, 938, 935
14, 935, 938, 936, 532
15, 778, 1142, 1141, 782
16, 131, 1335, 545, 141
17, 413, 361, 269, 220
18, 1978, 754, 2157, 1165
19, 1957, 1011, 941, 362
20, 1208, 99, 90, 1979
21, 78, 69, 945, 942
22, 942, 945, 943, 375
23, 945, 944, 378, 943
24, 69, 79, 944, 945
25, 398, 948, 949, 946
26, 946, 949, 947, 399
27, 949, 34, 42, 947
28, 948, 41, 34, 949
29, 40, 33, 952, 950
30, 950, 952, 951, 397
31, 952, 948, 398, 951
32, 33, 41, 948, 952
33, 543, 1404, 920, 1915
34, 536, 1502, 1500, 548
35, 535, 1317, 1316, 1452
36, 1066, 346, 1380, 1552
37, 388, 958, 959, 956
38, 956, 959, 957, 373
39, 959, 53, 64, 957
40, 958, 63, 53, 959
41, 374, 961, 962, 960
42, 960, 962, 942, 375
43, 962, 68, 78, 942
44, 961, 77, 68, 962
45, 366, 964, 965, 963
46, 963, 965, 935, 532
47, 965, 127, 138, 935
48, 964, 137, 127, 965
49, 350, 968, 969, 966
50, 966, 969, 967, 394
51, 969, 30, 38, 967
52, 968, 3, 30, 969
53, 38, 31, 972, 967
54, 967, 972, 970, 394
55, 972, 971, 395, 970
56, 31, 39, 971, 972
57, 365, 974, 975, 973
58, 973, 975, 964, 366
59, 975, 126, 137, 964
60, 974, 136, 126, 975
61, 908, 347, 1451, 1553
62, 924, 998, 996, 925
63, 1143, 537, 1317, 535
64, 976, 926, 921, 777
65, 395, 971, 980, 979
66, 979, 980, 950, 397
67, 980, 32, 40, 950
68, 971, 39, 32, 980
69, 399, 947, 983, 981
70, 981, 983, 982, 400
71, 983, 35, 43, 982
72, 947, 42, 35, 983
73, 120, 111, 987, 984
74, 984, 987, 985, 354
75, 987, 986, 353, 985
76, 111, 121, 986, 987
77, 393, 989, 990, 988
78, 988, 990, 968, 350
79, 990, 27, 3, 968
80, 989, 29, 27, 990
81, 1706, 368, 534, 539
82, 955, 934, 368, 1706
83, 368, 1552, 778, 534
84, 551, 2135, 542, 933
85, 355, 994, 995, 993
86, 993, 995, 984, 354
87, 995, 110, 120, 984
88, 994, 119, 110, 995
89, 934, 1066, 1552, 368
90, 1142, 369, 1143, 1141
91, 998, 997, 372, 996
92, 15, 23, 997, 998
93, 302, 187, 1001, 999
94, 187, 301, 1000, 1001
95, 500, 1834, 1515, 1168
96, 1086, 1905, 1314, 1767
97, 849, 490, 495, 1643
98, 1776, 1789, 571, 512
99, 1503, 293, 196, 1993
100, 1056, 1522, 442, 2028
101, 2003, 1153, 1705, 448
102, 1668, 1511, 454, 1994
103, 1063, 213, 275, 837
104, 898, 413, 220, 268
105, 361, 1337, 219, 269
106, 835, 411, 1167, 2198
107, 1161, 1160, 588, 1310
108, 383, 1294, 589, 2014
109, 586, 89, 99, 1208
110, 410, 898, 268, 221
111, 370, 1013, 1014, 1012
112, 1012, 1014, 989, 393
113, 1014, 26, 29, 989
114, 1013, 28, 26, 1014
115, 351, 1016, 1017, 1015
116, 1015, 1017, 974, 365
117, 1017, 125, 136, 974
118, 1016, 135, 125, 1017
119, 706, 2178, 1852, 903
120, 1622, 1684, 656, 1754
121, 833, 1810, 1887, 842
122, 1022, 2070, 1747, 602
123, 1181, 1731, 1285, 601
124, 2010, 1270, 258, 231
125, 1126, 1369, 349, 2058
126, 2115, 261, 228, 1369
127, 1732, 2058, 596, 591
128, 751, 1935, 1748, 1726
129, 1028, 1180, 2115, 1286
130, 575, 859, 1608, 2082
131, 1228, 1804, 318, 171
132, 1614, 2066, 1891, 2165
133, 1701, 574, 1520, 858
134, 286, 203, 1036, 1033
135, 1033, 1036, 1034, 436
136, 1036, 1035, 437, 1034
137, 203, 285, 1035, 1036
138, 1771, 2018, 2085, 820
139, 469, 1839, 2199, 2116
140, 1040, 184, 304, 1038
141, 1039, 305, 184, 1040
142, 696, 1043, 1044, 1041
143, 1041, 1044, 1042, 695
144, 1044, 927, 389, 1042
145, 1043, 390, 927, 1044
146, 1371, 1663, 2126, 1046
147, 2009, 1732, 591, 1961
148, 1663, 1026, 2122, 2126
149, 2058, 349, 1959, 596
150, 59, 49, 1050, 1047
151, 1047, 1050, 1048, 392
152, 1050, 1049, 391, 1048
153, 49, 60, 1049, 1050
154, 2, 25, 1053, 1051
155, 1051, 1053, 1052, 348
156, 1053, 1013, 370, 1052
157, 25, 28, 1013, 1053
158, 1590, 484, 1059, 1504
159, 2191, 1006, 847, 1071
160, 1621, 1868, 1740, 1920
161, 1153, 1619, 460, 1705
162, 872, 1057, 1866, 1589
163, 1590, 452, 1073, 484
164, 1198, 1742, 2162, 763
165, 415, 1062, 1063, 1060
166, 836, 1739, 1195, 2128
167, 414, 1236, 383, 1162
168, 1062, 276, 213, 1063
169, 777, 921, 1723, 1335
170, 932, 955, 1706, 909
171, 1141, 1143, 535, 1558
172, 937, 923, 936, 938
173, 668, 1069, 1070, 1067
174, 1067, 1070, 1068, 654
175, 1070, 161, 327, 1068
176, 1069, 328, 161, 1070
177, 1921, 1694, 1196, 2194
178, 2051, 446, 408, 770
179, 894, 453, 2176, 1280
180, 484, 1073, 1844, 1055
181, 1898, 2188, 1999, 1998
182, 780, 1464, 1467, 1179
183, 1675, 1176, 1247, 785
184, 1697, 2167, 1299, 377
185, 2186, 1187, 636, 1817
186, 1276, 662, 1929, 1239
187, 636, 1275, 1775, 1861
188, 300, 189, 1083, 1080
189, 475, 1550, 2158, 1582
190, 1225, 2040, 462, 838
191, 189, 299, 1082, 1083
192, 568, 313, 176, 853
193, 1776, 512, 510, 1284
194, 1084, 178, 310, 1265
195, 1267, 1281, 1525, 507
196, 2068, 1440, 1614, 1918
197, 1149, 1307, 1122, 1229
198, 1475, 712, 1566, 719
199, 488, 1099, 1290, 1530
200, 665, 1092, 1093, 1090
201, 1090, 1093, 1091, 667
202, 1093, 159, 329, 1091
203, 1092, 330, 159, 1093
204, 427, 1096, 1097, 1094
205, 1094, 1097, 1095, 430
206, 1097, 205, 283, 1095
207, 1096, 284, 205, 1097
208, 489, 2042, 652, 1555
209, 1148, 1892, 1804, 1228
210, 708, 2195, 1901, 713
211, 1019, 1088, 1219, 1916
212, 1748, 599, 1180, 1028
213, 1747, 2070, 257, 232
214, 1172, 385, 1027, 1128
215, 1271, 1407, 2154, 1934
216, 433, 1105, 1106, 1103
217, 1103, 1106, 1104, 432
218, 1106, 209, 279, 1104
219, 1105, 280, 209, 1106
220, 303, 186, 1108, 1107
221, 1771, 2200, 466, 2098
222, 186, 302, 999, 1108
223, 298, 191, 1112, 1109
224, 1771, 2098, 516, 876
225, 1112, 1111, 474, 1110
226, 191, 297, 1111, 1112
227, 430, 1095, 1115, 1113
228, 1113, 1115, 1114, 431
229, 1115, 206, 282, 1114
230, 1095, 283, 206, 1115
231, 1116, 618, 1460, 915
232, 1648, 1246, 145, 343
233, 642, 1547, 901, 1461
234, 431, 1114, 1119, 1117
235, 1117, 1119, 1118, 434
236, 1119, 207, 281, 1118
237, 1114, 282, 207, 1119
238, 1725, 1661, 1594, 569
239, 2052, 1812, 1031, 650
240, 889, 325, 164, 1184
241, 486, 2177, 1230, 451
242, 459, 435, 522, 439
243, 1860, 1735, 1859, 1857
244, 1933, 1960, 1932, 830
245, 601, 1129, 1341, 749
246, 1369, 228, 260, 349
247, 304, 185, 1131, 1038
248, 468, 1305, 477, 487
249, 1633, 466, 1225, 1688
250, 185, 303, 1107, 1131
251, 23, 16, 1134, 997
252, 997, 1134, 1132, 372
253, 1134, 1133, 371, 1132
254, 16, 24, 1133, 1134
255, 329, 160, 1136, 1091
256, 1091, 1136, 1135, 667
257, 1136, 1069, 668, 1135
258, 160, 328, 1069, 1136
259, 278, 211, 1140, 1137
260, 1137, 1140, 1138, 419
261, 1140, 1139, 418, 1138
262, 211, 277, 1139, 1140
263, 346, 541, 2004, 1380
264, 142, 777, 1335, 131
265, 1559, 782, 1450, 1404
266, 1915, 920, 533, 1065
267, 1759, 1238, 1076, 1690
268, 1938, 622, 2037, 645
269, 638, 2185, 1849, 1672
270, 1969, 683, 2049, 1660
271, 1609, 676, 639, 1843
272, 679, 2103, 1862, 1819
273, 2134, 1087, 1508, 489
274, 1227, 828, 1880, 634
275, 652, 2164, 902, 1815
276, 2164, 653, 573, 902
277, 2066, 707, 1476, 1891
278, 859, 1295, 577, 1608
279, 1511, 2192, 874, 1124
280, 1124, 2003, 448, 1206
281, 1123, 764, 2050, 1867
282, 454, 1206, 1870, 1591
283, 1556, 1491, 1825, 1684
284, 824, 684, 1187, 2186
285, 434, 1118, 1156, 861
286, 861, 1156, 1105, 433
287, 1156, 208, 280, 1105
288, 1118, 281, 208, 1156
289, 618, 1967, 1652, 1460
290, 772, 239, 249, 630
291, 1460, 1652, 1183, 625
292, 1297, 886, 381, 1946
293, 1165, 2157, 2155, 1338
294, 940, 939, 898, 410
295, 1210, 409, 797, 1292
296, 1294, 1235, 1213, 589
297, 2030, 91, 101, 2012
298, 2012, 360, 1739, 836
299, 1237, 362, 1061, 382
300, 1310, 588, 756, 1010
301, 307, 182, 1171, 1168
302, 2098, 466, 1633, 2170
303, 182, 306, 1170, 1171
304, 2070, 2010, 231, 257
305, 1045, 2059, 761, 380
306, 387, 1329, 2071, 1026
307, 627, 1698, 772, 1963
308, 379, 1074, 1939, 1155
309, 1389, 1842, 1609, 771
310, 596, 1959, 1340, 1730
311, 1180, 227, 261, 2115
312, 829, 1355, 2108, 1354
313, 1652, 1954, 1968, 1183
314, 1955, 1843, 616, 2136
315, 646, 2144, 780, 1179
316, 1031, 1186, 1218, 2125
317, 1606, 1101, 1120, 1308
318, 714, 167, 321, 493
319, 1032, 2039, 1603, 2074
320, 1745, 1831, 726, 1996
321, 591, 596, 1730, 1270
322, 1959, 229, 259, 1340
323, 1270, 1730, 230, 258
324, 43, 36, 1193, 982
325, 982, 1193, 1191, 400
326, 1193, 1192, 402, 1191
327, 36, 44, 1192, 1193
328, 1237, 382, 1236, 414
329, 837, 275, 214, 1163
330, 832, 1163, 2008, 1209
331, 1195, 1008, 1194, 832
332, 812, 880, 470, 813
333, 403, 449, 764, 1123
334, 445, 1590, 1504, 1510
335, 474, 1111, 1200, 1199
336, 451, 1230, 456, 450
337, 448, 1705, 449, 403
338, 1111, 297, 192, 1200
339, 396, 1202, 1203, 1201
340, 1201, 1203, 1047, 392
341, 1203, 48, 59, 1047
342, 1202, 58, 48, 1203
343, 2150, 809, 1255, 2109
344, 1927, 675, 685, 1078
345, 661, 681, 1342, 896
346, 2110, 1670, 629, 1671
347, 1073, 1699, 848, 1844
348, 2053, 1054, 480, 1666
349, 1741, 2194, 198, 290
350, 1125, 893, 199, 289
351, 1739, 1292, 1008, 1195
352, 360, 1210, 1292, 1739
353, 1061, 755, 1956, 939
354, 44, 37, 1212, 1192
355, 1192, 1212, 1211, 402
356, 1212, 45, 56, 1211
357, 37, 4, 45, 1212
358, 266, 223, 1215, 1213
359, 1213, 1215, 1214, 589
360, 597, 85, 95, 1933
361, 386, 1328, 592, 1023
362, 60, 50, 1217, 1049
363, 1049, 1217, 1216, 391
364, 1217, 929, 390, 1216
365, 50, 61, 929, 1217
366, 1477, 890, 572, 1724
367, 606, 1173, 1222, 1220
368, 1220, 1222, 1221, 604
369, 1222, 234, 254, 1221
370, 1173, 255, 234, 1222
371, 2098, 2170, 1445, 516
372, 1224, 183, 305, 1039
373, 1170, 306, 183, 1224
374, 299, 190, 1226, 1082
375, 1907, 1788, 1895, 478
376, 524, 2140, 791, 521
377, 190, 298, 1109, 1226
378, 1897, 2094, 1021, 633
379, 676, 626, 1459, 639
380, 1683, 1865, 1188, 1900
381, 817, 833, 842, 910
382, 1703, 1311, 2031, 1881
383, 1307, 774, 1702, 1122
384, 2096, 1228, 171, 317
385, 2082, 1608, 648, 1101
386, 1207, 1993, 1742, 1198
387, 2077, 1666, 483, 800
388, 2050, 800, 486, 762
389, 532, 936, 1234, 1231
390, 1231, 1234, 1232, 531
391, 369, 1557, 537, 1143
392, 20, 13, 541, 346
393, 1164, 1165, 1338, 587
394, 2015, 410, 221, 267
395, 1010, 756, 1337, 361
396, 1710, 1490, 1296, 623
397, 643, 1938, 645, 2144
398, 1158, 612, 825, 582
399, 615, 786, 1969, 2146
400, 634, 1880, 1944, 1826
401, 2133, 641, 1548, 1669
402, 1718, 1744, 678, 1756
403, 1548, 379, 1155, 1863
404, 1465, 1473, 1474, 1471
405, 1182, 617, 1175, 1962
406, 401, 1242, 1243, 1241
407, 1241, 1243, 1202, 396
408, 1243, 47, 58, 1202
409, 1242, 57, 47, 1243
410, 1530, 1290, 1244, 1752
411, 776, 578, 2182, 1089
412, 1245, 1004, 495, 1244
413, 174, 314, 1004, 1245
414, 867, 620, 617, 1182
415, 1205, 1878, 1765, 786
416, 121, 112, 1250, 986
417, 986, 1250, 1248, 353
418, 1250, 1249, 352, 1248
419, 112, 122, 1249, 1250
420, 285, 204, 1252, 1035
421, 1035, 1252, 1251, 437
422, 1252, 1096, 427, 1251
423, 204, 284, 1096, 1252
424, 418, 1139, 1254, 1253
425, 1253, 1254, 1062, 415
426, 1254, 212, 276, 1062
427, 1139, 277, 212, 1254
428, 1700, 165, 323, 890
429, 1811, 2117, 809, 2150
430, 743, 1259, 1260, 1256
431, 1256, 1260, 1257, 742
432, 1260, 1258, 747, 1257
433, 1259, 746, 1258, 1260
434, 327, 162, 1262, 1068
435, 1068, 1262, 1261, 654
436, 1262, 1185, 655, 1261
437, 162, 326, 1185, 1262
438, 122, 113, 1264, 1249
439, 1249, 1264, 1263, 352
440, 1264, 123, 134, 1263
441, 113, 8, 123, 1264
442, 505, 1274, 1273, 1272
443, 1314, 1644, 179, 309
444, 505, 1268, 1313, 1267
445, 279, 210, 1269, 1104
446, 1104, 1269, 870, 432
447, 1269, 1137, 419, 870
448, 210, 278, 1137, 1269
449, 1173, 595, 233, 255
450, 1354, 1729, 84, 75
451, 1026, 2071, 1214, 2122
452, 2091, 1045, 380, 1405
453, 2113, 2088, 1272, 1002
454, 1168, 1515, 181, 307
455, 332, 1746, 1818, 156
456, 1785, 628, 618, 1116
457, 1964, 807, 1175, 1878
458, 2128, 1195, 832, 1209
459, 1166, 1009, 97, 88
460, 1011, 835, 1161, 941
461, 586, 1957, 362, 1237
462, 2003, 447, 1072, 1153
463, 1704, 2124, 1005, 1645
464, 1571, 509, 1766, 511
465, 1515, 1003, 308, 181
466, 2143, 567, 1790, 1266
467, 512, 571, 850, 1904
468, 511, 1766, 1283, 1282
469, 1284, 510, 508, 1642
470, 505, 1267, 507, 1274
471, 607, 751, 1726, 1731
472, 1172, 1023, 2009, 385
473, 977, 538, 1318, 2083
474, 933, 542, 347, 908
475, 143, 783, 976, 132
476, 542, 907, 549, 347
477, 1184, 164, 324, 1098
478, 1439, 168, 320, 1476
479, 1542, 1814, 1100, 2045
480, 1011, 1279, 411, 835
481, 835, 2198, 1160, 1161
482, 1020, 2099, 1984, 887
483, 1823, 823, 659, 1466
484, 331, 633, 1753, 157
485, 1246, 808, 344, 145
486, 1671, 629, 628, 1785
487, 864, 644, 1586, 2181
488, 2037, 622, 1649, 612
489, 359, 1345, 7, 104
490, 1982, 2034, 1138, 418
491, 1392, 767, 2063, 1425
492, 359, 1343, 794, 1345
493, 65, 55, 1304, 1302
494, 1302, 1304, 1303, 376
495, 1304, 66, 76, 1303
496, 55, 5, 66, 1304
497, 497, 1833, 1714, 519
498, 1714, 1549, 1686, 1169
499, 1306, 188, 300, 1080
500, 1000, 301, 188, 1306
501, 719, 1566, 651, 1755
502, 710, 1438, 1121, 1679
503, 902, 573, 1883, 2056
504, 1099, 1606, 1308, 1763
505, 1166, 1162, 384, 1009
506, 587, 216, 272, 1167
507, 1293, 100, 91, 2030
508, 1160, 271, 218, 588
509, 1815, 902, 2056, 753
510, 1877, 714, 493, 1595
511, 1121, 858, 1440, 2068
512, 1030, 2175, 2153, 1615
513, 1516, 568, 853, 2076
514, 1766, 177, 311, 1283
515, 1274, 507, 1789, 1776
516, 510, 504, 2075, 508
517, 132, 976, 777, 142
518, 140, 546, 1287, 129
519, 920, 1233, 551, 533
520, 909, 1706, 539, 926
521, 24, 17, 1320, 1133
522, 1133, 1320, 1319, 371
523, 1320, 1051, 348, 1319
524, 17, 2, 1051, 1320
525, 389, 928, 1322, 1321
526, 1321, 1322, 958, 388
527, 1322, 52, 63, 958
528, 928, 62, 52, 1322
529, 64, 54, 1324, 957
530, 957, 1324, 1323, 373
531, 1324, 1302, 376, 1323
532, 54, 65, 1302, 1324
533, 746, 1326, 1327, 1258
534, 1258, 1327, 1325, 747
535, 1327, 946, 399, 1325
536, 1326, 398, 946, 1327
537, 384, 1329, 1330, 1009
538, 1009, 1330, 87, 97
539, 385, 1022, 602, 1027
540, 1726, 1748, 1028, 2011
541, 584, 2000, 1717, 787
542, 1968, 619, 773, 916
543, 13, 21, 2137, 541
544, 2135, 953, 907, 542
545, 1334, 1332, 531, 1232
546, 1333, 527, 1332, 1334
547, 1721, 2005, 992, 1288
548, 541, 2137, 547, 2004
549, 1289, 536, 548, 781
550, 1064, 1452, 953, 2135
551, 940, 410, 2015, 899
552, 831, 1978, 1165, 1164
553, 897, 1166, 88, 98
554, 1128, 1027, 594, 1407
555, 1730, 1340, 259, 230
556, 1174, 264, 225, 1727
557, 1960, 1024, 387, 1932
558, 1669, 1759, 1690, 1157
559, 660, 338, 151, 687
560, 1985, 660, 687, 1879
561, 1423, 1421, 1343, 359
562, 871, 2142, 422, 1947
563, 2132, 1947, 1424, 345
564, 1425, 766, 428, 1980
565, 1236, 899, 1294, 383
566, 2008, 274, 215, 2155
567, 1213, 1235, 222, 266
568, 402, 1211, 1348, 1347
569, 1347, 1348, 1242, 401
570, 1348, 46, 57, 1242
571, 1211, 56, 46, 1348
572, 79, 70, 1350, 944
573, 70, 80, 1349, 1350
574, 397, 951, 1353, 1351
575, 1351, 1353, 1352, 745
576, 1353, 1326, 746, 1352
577, 951, 398, 1326, 1353
578, 1181, 601, 749, 2090
579, 830, 1932, 1663, 1371
580, 602, 1747, 608, 1190
581, 1407, 594, 1665, 2154
582, 356, 1357, 1358, 1356
583, 1356, 1358, 994, 355
584, 1358, 109, 119, 994
585, 1357, 118, 109, 1358
586, 604, 1221, 1360, 1359
587, 1359, 1360, 1177, 609
588, 1360, 235, 253, 1177
589, 1221, 254, 235, 1360
590, 376, 1303, 1362, 1361
591, 1361, 1362, 961, 374
592, 1362, 67, 77, 961
593, 1303, 76, 67, 1362
594, 531, 1332, 1366, 1363
595, 1363, 1366, 1364, 530
596, 1366, 1365, 528, 1364
597, 1332, 527, 1365, 1366
598, 352, 1263, 1368, 1367
599, 1367, 1368, 1016, 351
600, 1368, 124, 135, 1016
601, 1263, 134, 124, 1368
602, 1931, 1371, 1046, 1189
603, 1355, 1181, 2090, 2108
604, 1729, 1406, 1045, 2091
605, 1102, 1339, 1935, 751
606, 693, 1374, 1375, 1372
607, 1372, 1375, 1041, 695
608, 1375, 1373, 696, 1041
609, 1374, 692, 1373, 1375
610, 530, 1376, 1377, 1363
611, 1363, 1377, 1231, 531
612, 1377, 963, 532, 1231
613, 1376, 366, 963, 1377
614, 367, 1716, 1715, 991
615, 19, 12, 1066, 934
616, 781, 548, 2005, 1721
617, 1317, 1721, 1288, 1316
618, 691, 1383, 1384, 1381
619, 1381, 1384, 1374, 693
620, 1384, 1382, 692, 1374
621, 1383, 690, 1382, 1384
622, 740, 1387, 1388, 1385
623, 1385, 1388, 970, 395
624, 1388, 1386, 394, 970
625, 1387, 739, 1386, 1388
626, 80, 71, 1391, 1349
627, 644, 1462, 1463, 1586
628, 71, 81, 1390, 1391
629, 1345, 2168, 94, 7
630, 882, 426, 1733, 1981
631, 2092, 2036, 424, 860
632, 897, 414, 1162, 1166
633, 734, 1398, 1399, 1395
634, 1395, 1399, 1396, 736
635, 1399, 1397, 735, 1396
636, 1398, 733, 1397, 1399
637, 357, 1401, 1402, 1400
638, 1400, 1402, 1357, 356
639, 1402, 108, 118, 1357
640, 1401, 117, 108, 1402
641, 1723, 543, 1915, 1315
642, 546, 2189, 1443, 1287
643, 779, 954, 1990, 1987
644, 534, 778, 782, 1559
645, 1354, 2108, 1406, 1729
646, 1127, 265, 224, 590
647, 2059, 2120, 585, 761
648, 594, 1190, 1025, 1665
649, 747, 1325, 1410, 1408
650, 1408, 1410, 1409, 748
651, 1410, 981, 400, 1409
652, 1325, 399, 981, 1410
653, 735, 1412, 1413, 1396
654, 1396, 1413, 1411, 736
655, 1413, 988, 350, 1411
656, 1412, 393, 988, 1413
657, 700, 1417, 1418, 1414
658, 1414, 1418, 1415, 743
659, 1418, 1416, 744, 1415
660, 1417, 701, 1416, 1418
661, 81, 72, 1420, 1390
662, 2167, 144, 9, 1299
663, 1878, 1175, 617, 1765
664, 72, 82, 1419, 1420
665, 756, 270, 219, 1337
666, 2168, 2141, 1896, 1394
667, 2021, 1429, 415, 1060
668, 1343, 2034, 1982, 794
669, 423, 1630, 425, 2131
670, 1422, 1401, 357, 2023
671, 1429, 795, 1253, 415
672, 1981, 1733, 429, 2063
673, 743, 1415, 1428, 1259
674, 1259, 1428, 1352, 746
675, 1428, 1427, 745, 1352
676, 1415, 744, 1427, 1428
677, 1424, 1923, 1924, 767
678, 1301, 765, 2084, 769
679, 2022, 345, 1392, 416
680, 1300, 2131, 421, 364
681, 82, 73, 1430, 1419
682, 1419, 1430, 759, 381
683, 1430, 1405, 380, 759
684, 73, 83, 1405, 1430
685, 2113, 757, 2197, 2088
686, 1431, 1434, 1432, 733
687, 1434, 1433, 558, 1432
688, 735, 1397, 1437, 1435
689, 1435, 1437, 1436, 553
690, 1437, 1432, 558, 1436
691, 1397, 733, 1432, 1437
692, 727, 1917, 1725, 708
693, 1595, 493, 1439, 1613
694, 553, 1441, 1442, 1435
695, 1435, 1442, 1412, 735
696, 1442, 1012, 393, 1412
697, 1441, 370, 1012, 1442
698, 347, 549, 540, 1451
699, 139, 937, 938, 128
700, 549, 978, 779, 540
701, 1233, 1064, 2135, 551
702, 1634, 1551, 839, 498
703, 1839, 468, 487, 2199
704, 1772, 2064, 1952, 526
705, 1828, 1696, 1693, 1691
706, 694, 1448, 1449, 1446
707, 1446, 1449, 1447, 581
708, 1449, 956, 373, 1447
709, 1448, 388, 956, 1449
710, 1958, 1820, 2038, 1989
711, 2004, 547, 1557, 369
712, 1336, 1821, 1820, 1958
713, 1380, 2004, 369, 1142
714, 406, 1455, 1456, 1453
715, 1453, 1456, 985, 353
716, 1456, 1454, 354, 985
717, 1455, 405, 1454, 1456
718, 740, 1385, 1458, 1457
719, 1457, 1458, 1351, 745
720, 1458, 979, 397, 1351
721, 1385, 395, 979, 1458
722, 1527, 1660, 641, 2133
723, 630, 249, 240, 802
724, 1962, 1175, 807, 688
725, 1809, 2097, 807, 1964
726, 2144, 645, 785, 780
727, 1463, 378, 944, 1350
728, 625, 1183, 1659, 1970
729, 1076, 247, 242, 2000
730, 736, 1411, 1470, 1469
731, 1469, 1470, 1386, 739
732, 1470, 966, 394, 1386
733, 1411, 350, 966, 1470
734, 629, 2156, 1529, 628
735, 1471, 1474, 1383, 691
736, 1474, 1472, 690, 1383
737, 1473, 686, 1472, 1474
738, 1902, 2081, 488, 564
739, 2055, 1029, 711, 1150
740, 721, 841, 918, 1029
741, 1218, 1149, 1229, 856
742, 529, 1480, 1481, 1479
743, 1479, 1481, 1376, 530
744, 1481, 973, 366, 1376
745, 1480, 365, 973, 1481
746, 1750, 503, 878, 467
747, 1482, 1484, 1483, 476
748, 1484, 1110, 474, 1483
749, 739, 1486, 1487, 1469
750, 1469, 1487, 1395, 736
751, 1487, 1485, 734, 1395
752, 1486, 737, 1485, 1487
753, 1669, 1548, 1863, 1759
754, 1864, 1819, 1710, 2110
755, 1795, 1780, 2149, 816
756, 392, 1048, 1495, 1492
757, 1492, 1495, 1493, 697
758, 1495, 1494, 698, 1493
759, 1048, 391, 1494, 1495
760, 703, 1498, 1499, 1496
761, 1496, 1499, 1493, 698
762, 1499, 1497, 697, 1493
763, 1498, 699, 1497, 1499
764, 133, 550, 783, 143
765, 1316, 1288, 1403, 1379
766, 1502, 1501, 555, 1500
767, 996, 372, 1501, 1502
768, 438, 1620, 1540, 445
769, 1522, 894, 1280, 442
770, 1866, 1570, 1199, 2002
771, 1619, 1505, 441, 460
772, 1623, 1779, 1781, 671
773, 1507, 1509, 1398, 734
774, 1509, 1431, 733, 1398
775, 1845, 1994, 1523, 1151
776, 1540, 1056, 2028, 452
777, 449, 1197, 2077, 764
778, 348, 1052, 1514, 1512
779, 1512, 1514, 1513, 552
780, 1514, 1441, 553, 1513
781, 1052, 370, 1441, 1514
782, 504, 491, 1834, 2075
783, 851, 1787, 1883, 1882
784, 853, 176, 312, 509
785, 1519, 2052, 650, 576
786, 2165, 1891, 169, 319
787, 2081, 2082, 1101, 1606
788, 1615, 2153, 1812, 2052
789, 1506, 1668, 1994, 1845
790, 1668, 1071, 2192, 1511
791, 1645, 1005, 873, 1620
792, 453, 451, 450, 2176
793, 491, 1086, 1767, 1003
794, 507, 1525, 1903, 1789
795, 1752, 1244, 495, 490
796, 1717, 246, 243, 1888
797, 1888, 243, 245, 2123
798, 610, 1461, 614, 1743
799, 1661, 1612, 1309, 1594
800, 856, 1229, 1438, 710
801, 2121, 163, 325, 889
802, 372, 1132, 1534, 1501
803, 1501, 1534, 1532, 555
804, 1534, 1533, 554, 1532
805, 1132, 371, 1533, 1534
806, 375, 943, 1538, 1535
807, 1535, 1538, 1536, 580
808, 1538, 1537, 579, 1536
809, 943, 378, 1537, 1538
810, 1695, 1645, 1620, 438
811, 763, 2162, 1196, 1694
812, 1309, 710, 1679, 1295
813, 492, 2100, 1751, 2080
814, 2175, 1542, 1019, 2153
815, 857, 492, 2080, 1882
816, 1613, 1439, 1476, 707
817, 1433, 1546, 1544, 558
818, 1546, 1545, 559, 1544
819, 566, 1881, 2031, 570
820, 1810, 810, 1709, 1887
821, 677, 1928, 1683, 632
822, 2049, 806, 900, 1827
823, 2057, 1081, 2179, 1597
824, 1580, 1130, 1736, 2183
825, 1860, 1857, 2017, 2019
826, 520, 2129, 472, 1988
827, 1558, 535, 1452, 1064
828, 12, 20, 346, 1066
829, 907, 1708, 978, 549
830, 922, 925, 536, 1289
831, 2178, 844, 1489, 1852
832, 663, 1898, 679, 1563
833, 659, 1154, 2185, 638
834, 1754, 656, 154, 334
835, 923, 544, 1234, 936
836, 1708, 2184, 1914, 978
837, 18, 11, 955, 932
838, 538, 933, 908, 1318
839, 558, 1544, 1561, 1436
840, 1436, 1561, 1513, 553
841, 1561, 1560, 552, 1513
842, 1544, 559, 1560, 1561
843, 657, 149, 339, 682
844, 2123, 245, 144, 2167
845, 1929, 1754, 334, 155
846, 670, 1567, 1568, 1564
847, 1564, 1568, 1565, 722
848, 1568, 1566, 712, 1565
849, 1567, 651, 1566, 1568
850, 476, 1483, 1570, 1569
851, 2176, 450, 1539, 2193
852, 2193, 1539, 1741, 893
853, 1483, 474, 1199, 1570
854, 784, 849, 1643, 1516
855, 1904, 850, 1905, 1086
856, 1643, 1822, 568, 1516
857, 851, 1882, 2080, 1526
858, 557, 1575, 1576, 1573
859, 1573, 1576, 1532, 554
860, 1576, 1574, 555, 1532
861, 1575, 556, 1574, 1576
862, 654, 1261, 1579, 1577
863, 1577, 1579, 1567, 670
864, 1579, 1578, 651, 1567
865, 1261, 655, 1578, 1579
866, 2116, 2199, 1226, 1109
867, 464, 1598, 1130, 1580
868, 2183, 1736, 1081, 2057
869, 854, 514, 468, 1839
870, 1506, 459, 439, 2191
871, 435, 1869, 1977, 522
872, 1059, 484, 1055, 444
873, 442, 1280, 482, 1058
874, 738, 1584, 1585, 1583
875, 1583, 1585, 1427, 744
876, 1585, 1457, 745, 1427
877, 1584, 740, 1457, 1585
878, 1586, 1463, 1350, 1349
879, 2000, 242, 246, 1717
880, 1764, 1962, 688, 1884
881, 915, 1460, 625, 1927
882, 556, 1587, 1588, 1574
883, 1574, 1588, 1500, 555
884, 931, 924, 925, 922
885, 1553, 1451, 1333, 1334
886, 1591, 1870, 457, 2124
887, 1620, 873, 1056, 1540
888, 2078, 2062, 1569, 1057
889, 1511, 1124, 1206, 454
890, 823, 2041, 1154, 659
891, 804, 584, 787, 2013
892, 1775, 674, 1709, 725
893, 1804, 904, 170, 318
894, 1229, 1122, 1701, 1438
895, 2195, 569, 575, 1902
896, 577, 1518, 1892, 1148
897, 515, 906, 840, 905
898, 820, 2085, 1037, 2054
899, 819, 1922, 524, 2064
900, 1037, 519, 1223, 473
901, 561, 1601, 1602, 1599
902, 1599, 1602, 1575, 557
903, 1602, 1600, 556, 1575
904, 1601, 562, 1600, 1602
905, 866, 251, 238, 865
906, 1468, 579, 1537, 1462
907, 634, 1826, 1685, 810
908, 737, 1604, 1605, 1485
909, 1485, 1605, 1507, 734
910, 1781, 1779, 1780, 1795
911, 1604, 730, 1603, 1605
912, 890, 323, 166, 572
913, 2195, 1902, 564, 1901
914, 2125, 1218, 856, 1612
915, 727, 708, 713, 653
916, 2041, 1671, 1785, 1154
917, 1461, 901, 1389, 614
918, 391, 1216, 1611, 1494
919, 1494, 1611, 1610, 698
920, 1611, 1043, 696, 1610
921, 1216, 390, 1043, 1611
922, 1029, 918, 2160, 711
923, 2042, 1519, 576, 647
924, 653, 713, 857, 573
925, 2018, 2079, 2026, 1894
926, 2170, 1860, 2019, 1445
927, 2190, 1704, 1645, 1695
928, 1057, 1569, 1570, 1866
929, 1868, 193, 295, 1740
930, 1819, 1862, 1490, 1710
931, 671, 1625, 1626, 1623
932, 1623, 1626, 1624, 669
933, 1626, 1135, 668, 1624
934, 1625, 667, 1135, 1626
935, 692, 1627, 1628, 1373
936, 1373, 1628, 1610, 696
937, 1628, 1496, 698, 1610
938, 1627, 703, 1496, 1628
939, 1521, 715, 1434, 1431
940, 2153, 1019, 1916, 1812
941, 430, 1113, 1632, 1629
942, 1629, 1632, 1630, 428
943, 1632, 1631, 425, 1630
944, 1113, 431, 1631, 1632
945, 514, 905, 1305, 468
946, 467, 1913, 1713, 1618
947, 462, 498, 515, 471
948, 404, 1636, 1637, 1635
949, 1635, 1637, 1454, 405
950, 1637, 993, 354, 1454
951, 1636, 355, 993, 1637
952, 669, 1624, 1639, 1638
953, 1638, 1639, 1577, 670
954, 1639, 1067, 654, 1577
955, 1624, 668, 1067, 1639
956, 737, 1486, 1641, 1640
957, 1640, 1641, 1584, 738
958, 1641, 1387, 740, 1584
959, 1486, 739, 1387, 1641
960, 1268, 2118, 1517, 1313
961, 2076, 853, 509, 1571
962, 508, 2075, 1617, 499
963, 2002, 892, 1868, 1621
964, 1919, 762, 453, 894
965, 457, 1123, 1867, 1846
966, 444, 1055, 287, 202
967, 1176, 1675, 1158, 1331
968, 2181, 1391, 1390, 805
969, 626, 1888, 2123, 1459
970, 1077, 805, 886, 1297
971, 865, 238, 250, 1698
972, 1965, 1945, 1074, 900
973, 1946, 381, 760, 1528
974, 690, 1654, 1655, 1382
975, 1382, 1655, 1627, 692
976, 1655, 1653, 703, 1627
977, 1654, 702, 1653, 1655
978, 741, 1657, 1658, 1656
979, 1656, 1658, 1492, 697
980, 1658, 1201, 392, 1492
981, 1657, 396, 1201, 1658
982, 2136, 616, 1246, 1648
983, 911, 336, 153, 673
984, 2013, 787, 626, 676
985, 2146, 1527, 1547, 642
986, 1245, 1662, 315, 174
987, 1902, 575, 2082, 2081
988, 1129, 386, 1023, 1172
989, 1933, 95, 86, 1960
990, 1339, 593, 1370, 1935
991, 2194, 1196, 291, 198
992, 446, 2061, 1992, 408
993, 801, 1152, 481, 1054
994, 1938, 1297, 1946, 622
995, 2117, 658, 1622, 662
996, 621, 1711, 609, 1177
997, 1803, 646, 2145, 1144
998, 619, 2136, 1648, 773
999, 685, 340, 149, 657
1000, 1277, 1861, 2109, 1255
1001, 1879, 687, 1744, 1718
1002, 436, 1034, 1674, 1646
1003, 1646, 1674, 883, 440
1004, 1674, 1673, 426, 883
1005, 1034, 437, 1673, 1674
1006, 612, 1649, 583, 825
1007, 645, 2037, 1675, 785
1008, 1711, 1331, 1651, 609
1009, 427, 1094, 1678, 1677
1010, 1677, 1678, 766, 429
1011, 1678, 1629, 428, 766
1012, 1094, 430, 1629, 1678
1013, 1508, 1615, 2052, 1519
1014, 1312, 2125, 1612, 1661
1015, 1295, 1679, 1518, 577
1016, 2065, 705, 2039, 1032
1017, 744, 1416, 1682, 1583
1018, 1583, 1682, 1680, 738
1019, 1682, 1681, 729, 1680
1020, 1416, 701, 1681, 1682
1021, 1562, 1276, 1239, 1818
1022, 665, 1737, 824, 2094
1023, 1857, 461, 1830, 2017
1024, 881, 2143, 1268, 505
1025, 1838, 1750, 877, 1833
1026, 1749, 1171, 1170, 879
1027, 675, 1970, 341, 148
1028, 2073, 1468, 1462, 644
1029, 2019, 2017, 2025, 513
1030, 1691, 1693, 1692, 479
1031, 1693, 1482, 476, 1692
1032, 1847, 1858, 2062, 2078
1033, 1200, 192, 296, 892
1034, 2169, 1400, 356, 455
1035, 485, 1007, 884, 407
1036, 2018, 1894, 497, 2085
1037, 1223, 1169, 811, 502
1038, 496, 471, 514, 854
1039, 1675, 2037, 612, 1158
1040, 673, 153, 335, 2111
1041, 803, 237, 251, 866
1042, 1058, 482, 1125, 1647
1043, 1072, 2078, 1057, 872
1044, 1071, 847, 1991, 2192
1045, 2162, 197, 291, 1196
1046, 2134, 1291, 715, 1521
1047, 493, 321, 168, 1439
1048, 891, 709, 776, 1930
1049, 715, 731, 1433, 1434
1050, 1197, 2053, 1666, 2077
1051, 1504, 1059, 436, 1646
1052, 1619, 872, 1589, 1505
1053, 481, 294, 195, 443
1054, 1404, 1450, 1233, 920
1055, 953, 1379, 1708, 907
1056, 544, 1554, 1232, 1234
1057, 14, 22, 924, 931
1058, 1465, 1471, 2097, 1809
1059, 1298, 1240, 1689, 1954
1060, 1710, 623, 1670, 2110
1061, 1227, 634, 810, 1810
1062, 802, 240, 248, 1986
1063, 1081, 1001, 1000, 2179
1064, 487, 477, 1083, 1082
1065, 855, 879, 1170, 1224
1066, 1549, 1713, 1616, 1686
1067, 2054, 1037, 473, 758
1068, 1894, 2026, 1712, 1838
1069, 1452, 1316, 1379, 953
1070, 2137, 931, 922, 547
1071, 1716, 1600, 562, 1715
1072, 1587, 556, 1600, 1716
1073, 814, 1848, 775, 666
1074, 2094, 824, 2186, 1021
1075, 656, 2111, 335, 154
1076, 2173, 1176, 1331, 1711
1077, 1145, 615, 1940, 1079
1078, 805, 1390, 1420, 886
1079, 695, 1042, 1720, 1719
1080, 1719, 1720, 1448, 694
1081, 1720, 1321, 388, 1448
1082, 1042, 389, 1321, 1720
1083, 1065, 533, 538, 977
1084, 925, 996, 1502, 536
1085, 1552, 1380, 1142, 778
1086, 1554, 1553, 1334, 1232
1087, 1244, 1290, 1662, 1245
1088, 1814, 1475, 719, 1100
1089, 1703, 1881, 752, 731
1090, 1612, 856, 710, 1309
1091, 1027, 602, 1190, 594
1092, 1024, 1330, 1329, 387
1093, 1728, 750, 2120, 2059
1094, 1025, 595, 1173, 606
1095, 1934, 2154, 605, 2032
1096, 1102, 1931, 1189, 1339
1097, 437, 1251, 1734, 1673
1098, 1673, 1734, 1733, 426
1099, 1734, 1677, 429, 1733
1100, 1251, 427, 1677, 1734
1101, 520, 1988, 1990, 1989
1102, 472, 1772, 526, 1972
1103, 1770, 2086, 791, 2140
1104, 1696, 496, 854, 1581
1105, 666, 1737, 1738, 814
1106, 814, 1738, 1625, 671
1107, 1738, 1090, 667, 1625
1108, 1737, 665, 1090, 1738
1109, 586, 897, 98, 89
1110, 1210, 102, 93, 409
1111, 588, 218, 270, 756
1112, 360, 92, 102, 1210
1113, 1695, 438, 1007, 485
1114, 452, 2028, 1699, 1073
1115, 1033, 444, 202, 286
1116, 658, 1556, 1684, 1622
1117, 663, 914, 2188, 1898
1118, 901, 640, 1842, 1389
1119, 1370, 226, 262, 599
1120, 2154, 1665, 1664, 605
1121, 1935, 1370, 599, 1748
1122, 1215, 223, 265, 1127
1123, 498, 839, 906, 515
1124, 473, 1223, 502, 501
1125, 2085, 497, 519, 1037
1126, 904, 2165, 319, 170
1127, 1032, 2074, 841, 721
1128, 571, 2163, 1085, 850
1129, 1904, 1086, 491, 504
1130, 1823, 663, 1563, 823
1131, 1275, 1899, 674, 1775
1132, 1563, 679, 1819, 1864
1133, 637, 1900, 2174, 828
1134, 371, 1319, 1758, 1533
1135, 1533, 1758, 1757, 554
1136, 1758, 1512, 552, 1757
1137, 1319, 348, 1512, 1758
1138, 886, 1420, 1419, 381
1139, 1862, 2103, 1473, 1465
1140, 1940, 642, 1461, 610
1141, 694, 1761, 1762, 1719
1142, 1719, 1762, 1372, 695
1143, 1762, 1760, 693, 1372
1144, 1761, 689, 1760, 1762
1145, 1308, 1120, 172, 316
1146, 2134, 489, 1555, 1291
1147, 1150, 711, 1475, 1814
1148, 1812, 1916, 1186, 1031
1149, 2073, 613, 1764, 1468
1150, 1670, 1079, 2156, 629
1151, 1157, 1690, 584, 804
1152, 1874, 677, 632, 2069
1153, 1296, 1964, 1878, 1205
1154, 1826, 1944, 1204, 1811
1155, 1880, 1488, 2047, 1944
1156, 1823, 1466, 677, 1874
1157, 1282, 1283, 1084, 506
1158, 509, 312, 177, 1766
1159, 502, 811, 1039, 1040
1160, 1266, 1790, 1787, 851
1161, 559, 1768, 1769, 1560
1162, 1560, 1769, 1757, 552
1163, 1769, 1573, 554, 1757
1164, 1768, 557, 1573, 1769
1165, 513, 2025, 463, 1953
1166, 1828, 838, 496, 1696
1167, 501, 502, 1040, 1038
1168, 738, 1680, 1774, 1640
1169, 1640, 1774, 1604, 737
1170, 1774, 1773, 730, 1604
1171, 1680, 729, 1773, 1774
1172, 885, 673, 2111, 1825
1173, 1146, 1227, 1810, 833
1174, 1851, 2161, 885, 664
1175, 1531, 889, 1184, 1607
1176, 2163, 1282, 506, 1085
1177, 1834, 491, 1003, 1515
1178, 2127, 1545, 1546, 752
1179, 1545, 1778, 1768, 559
1180, 1778, 1599, 557, 1768
1181, 1777, 561, 1599, 1778
1182, 671, 1781, 1848, 814
1183, 816, 2149, 1564, 722
1184, 1794, 1795, 816, 723
1185, 670, 1564, 2149, 1638
1186, 1268, 2143, 1266, 2118
1187, 1782, 1784, 1601, 561
1188, 1784, 1783, 562, 1601
1189, 1765, 617, 620, 683
1190, 1085, 506, 494, 2138
1191, 566, 570, 1949, 560
1192, 709, 1850, 1531, 1607
1193, 1004, 314, 175, 1822
1194, 701, 1792, 1793, 1681
1195, 1681, 1793, 845, 729
1196, 1793, 1791, 728, 845
1197, 1792, 704, 1791, 1793
1198, 1598, 1107, 1108, 1130
1199, 465, 464, 1580, 1551
1200, 813, 2148, 2026, 2079
1201, 1444, 465, 1551, 1634
1202, 815, 723, 917, 903
1203, 666, 775, 661, 684
1204, 681, 672, 815, 1813
1205, 775, 1848, 1794, 672
1206, 605, 1664, 1798, 1796
1207, 1796, 1798, 1797, 603
1208, 1798, 1220, 604, 1797
1209, 1664, 606, 1220, 1798
1210, 521, 1801, 1802, 1799
1211, 1799, 1802, 1800, 523
1212, 1802, 1635, 405, 1800
1213, 1801, 404, 1635, 1802
1214, 1803, 1144, 613, 2073
1215, 1650, 865, 1698, 627
1216, 1159, 252, 237, 803
1217, 1945, 1963, 1939, 1074
1218, 858, 1520, 1543, 1440
1219, 2134, 1521, 705, 2065
1220, 1030, 2055, 1150, 2175
1221, 919, 721, 1029, 2055
1222, 769, 2084, 433, 1103
1223, 358, 106, 116, 1344
1224, 1808, 871, 1947, 2132
1225, 157, 1753, 1746, 332
1226, 1187, 896, 1275, 636
1227, 680, 843, 720, 724
1228, 647, 576, 1917, 727
1229, 1724, 572, 2159, 732
1230, 1901, 564, 2100, 492
1231, 2187, 1745, 844, 2178
1232, 564, 488, 1530, 2100
1233, 2067, 1578, 655, 1596
1234, 573, 857, 1882, 1883
1235, 1689, 1955, 2136, 619
1236, 1737, 666, 684, 824
1237, 1445, 2019, 513, 2060
1238, 1783, 1821, 1715, 562
1239, 2184, 991, 1336, 1914
1240, 1318, 908, 1553, 1554
1241, 1272, 1273, 1572, 1002
1242, 2075, 1834, 500, 1617
1243, 1525, 1571, 511, 1903
1244, 1003, 1767, 180, 308
1245, 1813, 815, 903, 1852
1246, 2047, 1851, 664, 1824
1247, 2133, 1669, 1157, 1592
1248, 918, 706, 2151, 2160
1249, 1918, 1614, 2165, 904
1250, 158, 1897, 633, 331
1251, 1970, 1659, 147, 341
1252, 2024, 1489, 843, 680
1253, 2179, 1000, 1306, 2158
1254, 1551, 1580, 2183, 839
1255, 2175, 1150, 1814, 1542
1256, 2024, 680, 1899, 1342
1257, 2161, 911, 673, 885
1258, 2171, 1787, 1790, 2196
1259, 881, 1876, 567, 2143
1260, 1267, 1313, 784, 1281
1261, 1822, 175, 313, 568
1262, 431, 1117, 1837, 1631
1263, 1631, 1837, 1836, 425
1264, 1837, 862, 424, 1836
1265, 1117, 434, 862, 1837
1266, 1743, 614, 1240, 1298
1267, 1649, 1528, 1966, 583
1268, 1906, 1953, 1922, 819
1269, 1912, 1691, 479, 792
1270, 499, 1617, 517, 1913
1271, 1688, 1828, 1691, 1912
1272, 400, 1191, 1841, 1409
1273, 1409, 1841, 1840, 748
1274, 1841, 1347, 401, 1840
1275, 1191, 402, 1347, 1841
1276, 1803, 864, 1077, 643
1277, 1468, 1764, 1884, 579
1278, 864, 2181, 805, 1077
1279, 455, 1871, 1869, 435
1280, 522, 2086, 2029, 439
1281, 1506, 1667, 2169, 459
1282, 720, 1786, 910, 842
1283, 1786, 1020, 887, 910
1284, 732, 2159, 714, 1877
1285, 2187, 1832, 1831, 1745
1286, 688, 1854, 1855, 1853
1287, 1853, 1855, 1760, 689
1288, 1855, 1381, 693, 1760
1289, 1854, 691, 1381, 1855
1290, 603, 1797, 1856, 826
1291, 826, 1856, 1651, 582
1292, 1856, 1359, 609, 1651
1293, 1797, 604, 1359, 1856
1294, 1735, 1912, 792, 1859
1295, 2177, 1207, 1198, 1230
1296, 455, 356, 1356, 1871
1297, 1988, 472, 1972, 525
1298, 1826, 1811, 2150, 1685
1299, 1078, 685, 657, 1075
1300, 1865, 1985, 1879, 1188
1301, 1811, 1204, 658, 2117
1302, 895, 1817, 1277, 1147
1303, 1145, 1205, 786, 615
1304, 1510, 1504, 1646, 440
1305, 1740, 295, 194, 1152
1306, 1686, 1616, 879, 855
1307, 443, 195, 293, 1503
1308, 1280, 2176, 2193, 482
1309, 1869, 1871, 1636, 404
1310, 1871, 1356, 355, 1636
1311, 1151, 2190, 2061, 446
1312, 351, 1872, 1873, 1367
1313, 1367, 1873, 1248, 352
1314, 1873, 1453, 353, 1248
1315, 1872, 406, 1453, 1873
1316, 1817, 636, 1861, 1277
1317, 1788, 2113, 1002, 1895
1318, 566, 2127, 752, 1881
1319, 1903, 511, 1282, 2163
1320, 576, 650, 1312, 1917
1321, 1543, 1613, 707, 2066
1322, 628, 1529, 1967, 618
1323, 1996, 726, 2099, 1020
1324, 2039, 1507, 1605, 1603
1325, 1520, 1595, 1613, 1543
1326, 570, 565, 799, 1949
1327, 1517, 852, 490, 849
1328, 689, 1885, 1886, 1853
1329, 1853, 1886, 1884, 688
1330, 1886, 1536, 579, 1884
1331, 1885, 580, 1536, 1886
1332, 330, 1092, 1897, 158
1333, 1438, 1701, 858, 1121
1334, 1147, 1277, 1255, 1562
1335, 374, 1889, 1890, 1361
1336, 1361, 1890, 1323, 376
1337, 1890, 1447, 373, 1323
1338, 1889, 581, 1447, 1890
1339, 1185, 326, 163, 2121
1340, 2134, 2065, 919, 1087
1341, 648, 1148, 1228, 2096
1342, 758, 473, 501, 2020
1343, 875, 1941, 563, 821
1344, 1169, 1686, 855, 811
1345, 1344, 116, 107, 1422
1346, 417, 2022, 416, 789
1347, 2119, 417, 789, 1300
1348, 796, 1806, 2093, 2139
1349, 2069, 632, 637, 1146
1350, 716, 1089, 1816, 718
1351, 2074, 1603, 730, 717
1352, 1002, 1572, 503, 1895
1353, 506, 1084, 1265, 494
1354, 1767, 1314, 309, 180
1355, 464, 758, 2020, 1598
1356, 1598, 2020, 1131, 1107
1357, 2025, 2027, 1770, 463
1358, 811, 855, 1224, 1039
1359, 1906, 819, 793, 2046
1360, 748, 1840, 1910, 1909
1361, 1909, 1910, 1657, 741
1362, 1910, 1241, 396, 1657
1363, 1840, 401, 1241, 1910
1364, 1687, 2038, 1820, 518
1365, 1633, 1688, 1912, 1735
1366, 1920, 1740, 1152, 801
1367, 550, 932, 909, 783
1368, 1914, 1336, 1958, 954
1369, 926, 539, 1722, 921
1370, 1451, 540, 2112, 1333
1371, 1440, 1543, 2066, 1614
1372, 1478, 1755, 2067, 1850
1373, 1153, 1072, 872, 1619
1374, 1054, 481, 443, 480
1375, 480, 443, 1503, 458
1376, 2191, 439, 2029, 1006
1377, 2064, 524, 521, 1952
1378, 1581, 469, 1484, 1482
1379, 2168, 1394, 103, 94
1380, 1423, 114, 105, 1426
1381, 1344, 1422, 2023, 1807
1382, 765, 364, 2092, 2084
1383, 581, 1889, 1926, 1925
1384, 1925, 1926, 1535, 580
1385, 1926, 960, 375, 1535
1386, 1889, 374, 960, 1926
1387, 1944, 2047, 1824, 1204
1388, 1756, 678, 911, 2161
1389, 1967, 1298, 1954, 1652
1390, 711, 2160, 712, 1475
1391, 1291, 1555, 1311, 1703
1392, 1702, 732, 1877, 574
1393, 2090, 749, 750, 1728
1394, 1339, 1189, 1727, 593
1395, 1731, 1726, 2011, 1285
1396, 595, 608, 256, 233
1397, 2011, 1028, 1286, 1328
1398, 592, 1126, 2058, 1732
1399, 829, 1354, 75, 6
1400, 406, 1872, 1937, 1936
1401, 1936, 1937, 1480, 529
1402, 1937, 1015, 365, 1480
1403, 1872, 351, 1015, 1937
1404, 1183, 1968, 916, 1659
1405, 1803, 2073, 644, 864
1406, 2181, 1586, 1349, 1391
1407, 1893, 1942, 1788, 1907
1408, 1876, 2196, 1790, 567
1409, 580, 1885, 1943, 1925
1410, 1925, 1943, 1446, 581
1411, 1943, 1761, 694, 1446
1412, 1885, 689, 1761, 1943
1413, 1843, 639, 2087, 616
1414, 1464, 863, 1650, 1467
1415, 2084, 2092, 860, 433
1416, 1423, 1426, 1806, 796
1417, 422, 408, 1992, 1923
1418, 768, 420, 1808, 798
1419, 1101, 648, 2096, 1120
1420, 565, 2171, 2196, 799
1421, 741, 1950, 1951, 1909
1422, 1909, 1951, 1408, 748
1423, 1951, 1257, 747, 1408
1424, 1950, 742, 1257, 1951
1425, 463, 1770, 2140, 1911
1426, 1484, 469, 2116, 1110
1427, 2001, 2129, 520, 818
1428, 461, 847, 1006, 1830
1429, 1863, 1155, 802, 1986
1430, 785, 1247, 1464, 780
1431, 867, 868, 806, 620
1432, 2145, 611, 1965, 868
1433, 755, 1310, 1010, 1956
1434, 586, 1237, 414, 897
1435, 1956, 1010, 361, 413
1436, 382, 940, 899, 1236
1437, 1450, 1558, 1064, 1233
1438, 2189, 977, 2083, 1443
1439, 545, 1315, 1378, 1707
1440, 978, 1914, 954, 779
1441, 750, 1271, 1934, 2120
1442, 1355, 607, 1731, 1181
1443, 829, 598, 607, 1355
1444, 2122, 1214, 1215, 1127
1445, 1467, 1650, 627, 624
1446, 1247, 1676, 863, 1464
1447, 377, 1299, 9, 244
1448, 2041, 1864, 2110, 1671
1449, 624, 627, 1963, 1945
1450, 1462, 1537, 378, 1463
1451, 1592, 1157, 804, 640
1452, 646, 1179, 611, 2145
1453, 643, 1077, 1297, 1938
1454, 1176, 2173, 1676, 1247
1455, 622, 1946, 1528, 1649
1456, 1803, 643, 2144, 646
1457, 1527, 2133, 1592, 1547
1458, 527, 1973, 1974, 1365
1459, 1365, 1974, 1971, 528
1460, 1974, 1972, 526, 1971
1461, 1973, 525, 1972, 1974
1462, 528, 1971, 1976, 1975
1463, 1975, 1976, 1799, 523
1464, 1976, 1952, 521, 1799
1465, 1971, 526, 1952, 1976
1466, 791, 1977, 1801, 521
1467, 1977, 1869, 404, 1801
1468, 1541, 1919, 894, 1522
1469, 1194, 837, 1163, 832
1470, 2155, 215, 273, 1338
1471, 1163, 214, 274, 2008
1472, 1346, 1278, 1978, 831
1473, 1423, 359, 104, 114
1474, 2093, 798, 788, 363
1475, 421, 1836, 424, 2036
1476, 345, 1424, 767, 1392
1477, 1685, 2150, 2109, 725
1478, 888, 150, 338, 660
1479, 683, 620, 806, 2049
1480, 786, 1765, 683, 1969
1481, 1238, 241, 247, 1076
1482, 1443, 2083, 544, 923
1483, 1287, 1443, 923, 937
1484, 1990, 1988, 525, 1987
1485, 1687, 518, 1941, 875
1486, 458, 1503, 1993, 1207
1487, 1867, 2050, 762, 1919
1488, 1589, 1866, 2002, 1621
1489, 753, 2056, 2171, 565
1490, 724, 720, 842, 1887
1491, 810, 1685, 725, 1709
1492, 2174, 834, 1178, 1488
1493, 913, 845, 728, 1018
1494, 686, 1998, 1999, 1997
1495, 1997, 1999, 1791, 704
1496, 678, 152, 336, 911
1497, 1824, 664, 1491, 1556
1498, 773, 1648, 343, 146
1499, 1823, 631, 914, 663
1500, 2200, 1444, 1634, 2040
1501, 1788, 1942, 757, 2113
1502, 1953, 463, 1911, 1922
1503, 1870, 403, 1123, 457
1504, 874, 1524, 1847, 447
1505, 522, 1977, 791, 2086
1506, 539, 534, 1559, 1722
1507, 921, 1722, 543, 1723
1508, 1707, 1378, 2189, 546
1509, 11, 19, 934, 955
1510, 529, 2006, 2007, 1936
1511, 1936, 2007, 1455, 406
1512, 2007, 1800, 405, 1455
1513, 2006, 523, 1800, 2007
1514, 1993, 196, 292, 1742
1515, 456, 763, 1694, 1921
1516, 873, 1541, 1522, 1056
1517, 1206, 448, 403, 1870
1518, 1167, 272, 217, 2198
1519, 1209, 2008, 2155, 2157
1520, 1060, 1063, 837, 1194
1521, 1190, 608, 595, 1025
1522, 598, 1102, 751, 607
1523, 385, 2009, 1961, 1022
1524, 1338, 273, 216, 587
1525, 2012, 101, 92, 360
1526, 412, 836, 2128, 754
1527, 586, 1208, 2180, 1957
1528, 2156, 610, 1743, 1529
1529, 844, 1745, 1996, 1983
1530, 684, 661, 896, 1187
1531, 362, 941, 755, 1061
1532, 382, 1061, 939, 940
1533, 2198, 217, 271, 1160
1534, 1979, 90, 100, 1293
1535, 682, 339, 150, 888
1536, 1255, 809, 1276, 1562
1537, 915, 1927, 1078, 1849
1538, 1736, 999, 1001, 1081
1539, 905, 840, 475, 1305
1540, 1922, 1911, 2140, 524
1541, 767, 1924, 1981, 2063
1542, 1980, 428, 1630, 423
1543, 796, 2139, 1805, 790
1544, 2089, 769, 1103, 432
1545, 1219, 716, 718, 649
1546, 726, 635, 913, 2099
1547, 1178, 1756, 2161, 1851
1548, 1908, 1524, 1991, 1829
1549, 1130, 1108, 999, 1736
1550, 2129, 793, 1772, 472
1551, 1505, 1920, 801, 441
1552, 1845, 1151, 446, 2051
1553, 1539, 1921, 2194, 1741
1554, 1844, 848, 288, 201
1555, 1005, 1846, 1541, 873
1556, 483, 458, 1207, 2177
1557, 436, 1059, 444, 1033
1558, 482, 2193, 893, 1125
1559, 1957, 2180, 1279, 1011
1560, 411, 1164, 587, 1167
1561, 2127, 1777, 1778, 1545
1562, 1755, 651, 1578, 2067
1563, 1542, 2045, 1088, 1019
1564, 1942, 560, 1949, 757
1565, 585, 2032, 2033, 1966
1566, 1966, 2033, 827, 583
1567, 2033, 1796, 603, 827
1568, 2032, 605, 1796, 2033
1569, 1948, 115, 106, 358
1570, 798, 1808, 2132, 788
1571, 795, 1982, 418, 1253
1572, 1300, 789, 423, 2131
1573, 771, 1609, 1843, 1955
1574, 631, 1984, 1018, 914
1575, 1927, 625, 1970, 675
1576, 252, 1159, 621, 236
1577, 2173, 1159, 803, 1676
1578, 1818, 1239, 333, 156
1579, 540, 779, 1987, 2112
1580, 520, 1989, 2038, 818
1581, 841, 2074, 717, 1832
1582, 1489, 844, 1983, 843
1583, 664, 885, 1825, 1491
1584, 793, 819, 2064, 1772
1585, 1829, 1991, 847, 461
1586, 1110, 2116, 1109, 1112
1587, 680, 724, 674, 1899
1588, 1466, 659, 638, 846
1589, 828, 2174, 1488, 1880
1590, 697, 1497, 2044, 1656
1591, 1656, 2044, 1950, 741
1592, 2044, 2043, 742, 1950
1593, 1497, 699, 2043, 2044
1594, 1852, 1489, 2024, 1813
1595, 1662, 1763, 173, 315
1596, 1098, 324, 165, 1700
1597, 1617, 500, 1749, 517
1598, 477, 1582, 1080, 1083
1599, 1849, 1078, 1075, 1672
1600, 1608, 577, 1148, 648
1601, 846, 638, 1672, 2147
1602, 1900, 1188, 834, 2174
1603, 613, 1182, 1962, 1764
1604, 1144, 2145, 868, 867
1605, 1751, 1752, 490, 852
1606, 1905, 2138, 1644, 1314
1607, 2148, 478, 1712, 2026
1608, 1789, 1903, 2163, 571
1609, 1146, 637, 828, 1227
1610, 2069, 1146, 833, 817
1611, 1152, 194, 294, 481
1612, 2192, 1991, 1524, 874
1613, 1151, 1523, 1704, 2190
1614, 1124, 874, 447, 2003
1615, 1892, 1918, 904, 1804
1616, 574, 1877, 1595, 1520
1617, 1547, 1592, 640, 901
1618, 2087, 1697, 377, 808
1619, 1994, 454, 1591, 1523
1620, 848, 1647, 200, 288
1621, 1506, 2191, 1071, 1668
1622, 880, 1687, 875, 470
1623, 2088, 881, 505, 1272
1624, 877, 1618, 1713, 1549
1625, 1813, 2024, 1342, 681
1626, 1638, 2149, 1780, 669
1627, 821, 1893, 1907, 1835
1628, 757, 1949, 799, 2197
1629, 2056, 1883, 1787, 2171
1630, 2020, 501, 1038, 1131
1631, 1913, 517, 1616, 1713
1632, 519, 1714, 1169, 1223
1633, 1833, 877, 1549, 1714
1634, 2017, 1830, 2027, 2025
1635, 1285, 2011, 1328, 386
1636, 590, 224, 264, 1174
1637, 600, 830, 1371, 1931
1638, 2126, 2122, 1127, 590
1639, 1830, 1006, 2029, 2027
1640, 479, 1858, 1908, 792
1641, 1581, 854, 1839, 469
1642, 445, 1540, 452, 1590
1643, 1569, 2062, 1692, 476
1644, 2062, 1858, 479, 1692
1645, 1742, 292, 197, 2162
1646, 1394, 409, 93, 103
1647, 2119, 1300, 364, 765
1648, 1924, 407, 882, 1981
1649, 762, 486, 451, 453
1650, 774, 1724, 732, 1702
1651, 718, 1816, 774, 1307
1652, 2182, 1700, 890, 1477
1653, 647, 727, 653, 2164
1654, 2081, 1606, 1099, 488
1655, 1594, 1309, 1295, 859
1656, 1521, 1431, 1509, 705
1657, 1850, 2067, 1596, 1531
1658, 1816, 1477, 1724, 774
1659, 713, 1901, 492, 857
1660, 1679, 1121, 2068, 1518
1661, 2045, 1100, 1478, 891
1662, 614, 1389, 771, 1240
1663, 640, 804, 2013, 1842
1664, 1129, 1172, 1128, 1341
1665, 1214, 2071, 2014, 589
1666, 2071, 1329, 384, 2014
1667, 1286, 2115, 1369, 1126
1668, 523, 2006, 2072, 1975
1669, 1975, 2072, 1364, 528
1670, 2072, 1479, 530, 1364
1671, 2006, 529, 1479, 2072
1672, 1672, 1075, 912, 2147
1673, 1144, 867, 1182, 613
1674, 2146, 1969, 1660, 1527
1675, 868, 1965, 900, 806
1676, 1290, 1099, 1763, 1662
1677, 918, 2187, 2178, 706
1678, 1832, 717, 2048, 1831
1679, 2016, 1875, 1985, 1865
1680, 2138, 494, 1265, 1644
1681, 1273, 1284, 1642, 1572
1682, 450, 456, 1921, 1539
1683, 2061, 485, 407, 1992
1684, 2046, 793, 2129, 2001
1685, 1230, 1198, 763, 456
1686, 839, 2183, 2057, 906
1687, 1771, 820, 1444, 2200
1688, 1750, 467, 1618, 877
1689, 2199, 487, 1082, 1226
1690, 850, 1085, 2138, 1905
1691, 1555, 652, 1815, 1311
1692, 2065, 1032, 721, 919
1693, 1122, 1702, 574, 1701
1694, 1891, 1476, 320, 169
1695, 896, 1342, 1899, 1275
1696, 1204, 1824, 1556, 658
1697, 1240, 771, 1955, 1689
1698, 2188, 728, 1791, 1999
1699, 1335, 1723, 1315, 545
1700, 2083, 1318, 1554, 544
1701, 1315, 1915, 1065, 1378
1702, 537, 781, 1721, 1317
1703, 358, 1344, 1807, 420
1704, 1394, 1896, 797, 409
1705, 2034, 2035, 419, 1138
1706, 790, 1805, 2089, 1393
1707, 512, 1904, 504, 510
1708, 1283, 311, 178, 1084
1709, 1642, 508, 499, 878
1710, 500, 1168, 1171, 1749
1711, 1835, 1907, 478, 2148
1712, 478, 1895, 503, 1712
1713, 2170, 1633, 1735, 1860
1714, 764, 2077, 800, 2050
1715, 800, 483, 2177, 486
1716, 1846, 1867, 1919, 1541
1717, 1874, 2069, 817, 1593
1718, 633, 1021, 895, 1753
1719, 1898, 1998, 2103, 679
1720, 1331, 1158, 582, 1651
1721, 1079, 1940, 610, 2156
1722, 863, 866, 865, 1650
1723, 470, 875, 821, 1835
1724, 566, 2095, 1777, 2127
1725, 2139, 869, 1301, 1805
1726, 1423, 796, 790, 1421
1727, 869, 2119, 765, 1301
1728, 869, 363, 417, 2119
1729, 597, 1933, 830, 600
1730, 1406, 1728, 2059, 1045
1731, 1023, 592, 1732, 2009
1732, 1960, 86, 96, 1024
1733, 1665, 1025, 606, 1664
1734, 608, 1747, 232, 256
1735, 1024, 96, 87, 1330
1736, 363, 788, 2022, 417
1737, 2023, 357, 770, 2142
1738, 1947, 422, 1923, 1424
1739, 1393, 2089, 432, 870
1740, 1948, 358, 420, 768
1741, 2030, 2012, 836, 412
1742, 1426, 1948, 768, 1806
1743, 1923, 1992, 407, 1924
1744, 1529, 1743, 1298, 1967
1745, 631, 1593, 887, 1984
1746, 1842, 2013, 676, 1609
1747, 561, 1777, 2095, 1782
1748, 1782, 2095, 1995, 563
1749, 822, 516, 1445, 2060
1750, 2160, 2151, 1565, 712
1751, 717, 730, 1773, 2048
1752, 691, 1854, 2097, 1471
1753, 1986, 248, 241, 1238
1754, 1490, 1809, 1964, 1296
1755, 1854, 688, 807, 2097
1756, 563, 1995, 1893, 821
1757, 812, 822, 2046, 2001
1758, 1995, 560, 1942, 1893
1759, 1763, 1308, 316, 173
1760, 650, 1031, 2125, 1312
1761, 724, 1887, 1709, 674
1762, 846, 2147, 2016, 1928
1763, 2147, 912, 1875, 2016
1764, 2099, 913, 1018, 1984
1765, 690, 1472, 2102, 1654
1766, 1654, 2102, 2101, 702
1767, 2102, 1997, 704, 2101
1768, 1472, 686, 1997, 2102
1769, 686, 1473, 2103, 1998
1770, 687, 151, 337, 1744
1771, 639, 1459, 1697, 2087
1772, 699, 2104, 2105, 2043
1773, 2043, 2105, 1256, 742
1774, 2105, 1414, 743, 1256
1775, 2104, 700, 1414, 2105
1776, 703, 1653, 2107, 1498
1777, 1498, 2107, 2104, 699
1778, 2107, 2106, 700, 2104
1779, 1653, 702, 2106, 2107
1780, 2091, 1405, 83, 74
1781, 1022, 1961, 2010, 2070
1782, 2120, 1934, 2032, 585
1783, 1341, 1128, 1407, 1271
1784, 635, 729, 845, 913
1785, 1154, 1785, 1116, 2185
1786, 1075, 657, 682, 912
1787, 1954, 1689, 619, 1968
1788, 1861, 1775, 725, 2109
1789, 130, 1707, 546, 140
1790, 782, 1141, 1558, 1450
1791, 2112, 1973, 527, 1333
1792, 1987, 525, 1973, 2112
1793, 517, 1749, 879, 1616
1794, 1941, 1784, 1782, 563
1795, 518, 1820, 1821, 1783
1796, 1771, 876, 2079, 2018
1797, 623, 1145, 1079, 1670
1798, 1593, 817, 910, 887
1799, 1928, 2016, 1865, 1683
1800, 702, 2101, 2114, 2106
1801, 2106, 2114, 1417, 700
1802, 2114, 1792, 701, 1417
1803, 2101, 704, 1792, 2114
1804, 1727, 225, 263, 593
1805, 1961, 591, 1270, 2010
1806, 829, 6, 85, 597
1807, 593, 263, 226, 1370
1808, 466, 2200, 2040, 1225
1809, 1858, 1847, 1524, 1908
1810, 823, 1563, 1864, 2041
1811, 2185, 1116, 915, 1849
1812, 1092, 665, 2094, 1897
1813, 1644, 1265, 310, 179
1814, 2118, 1266, 851, 1526
1815, 1572, 1642, 878, 503
1816, 1806, 768, 798, 2093
1817, 1421, 790, 1393, 2035
1818, 364, 421, 2036, 2092
1819, 420, 1807, 871, 1808
1820, 1189, 1046, 1174, 1727
1821, 1328, 1286, 1126, 592
1822, 1932, 387, 1026, 1663
1823, 914, 1018, 728, 2188
1824, 1518, 2068, 1918, 1892
1825, 2151, 917, 722, 1565
1826, 1831, 2048, 635, 726
1827, 601, 1285, 386, 1129
1828, 598, 600, 1931, 1102
1829, 599, 262, 227, 1180
1830, 641, 1827, 379, 1548
1831, 1690, 1076, 2000, 584
1832, 1744, 337, 152, 678
1833, 1823, 1874, 1593, 631
1834, 2124, 457, 1846, 1005
1835, 1199, 1200, 892, 2002
1836, 1089, 2182, 1477, 1816
1837, 709, 1607, 578, 776
1838, 572, 166, 322, 2159
1839, 829, 597, 600, 598
1840, 749, 1341, 1271, 750
1841, 1046, 2126, 590, 1174
1842, 1120, 2096, 317, 172
1843, 2180, 1346, 831, 1279
1844, 1279, 831, 1164, 411
1845, 380, 761, 2130, 759
1846, 759, 2130, 760, 381
1847, 761, 585, 760, 2130
1848, 447, 1847, 2078, 1072
1849, 1667, 2051, 770, 357
1850, 1667, 357, 1400, 2169
1851, 1805, 1301, 769, 2089
1852, 1422, 107, 117, 1401
1853, 2131, 425, 1836, 421
1854, 1807, 2023, 2142, 871
1855, 416, 1392, 1425, 1980
1856, 2142, 770, 408, 422
1857, 1155, 1939, 630, 802
1858, 1159, 2173, 1711, 621
1859, 2159, 322, 167, 714
1860, 918, 841, 1832, 2187
1861, 548, 1500, 1588, 2005
1862, 1288, 992, 367, 1403
1863, 1, 10, 550, 133
1864, 1179, 1467, 624, 611
1865, 129, 1287, 937, 139
1866, 547, 922, 1289, 1557
1867, 992, 1587, 1716, 367
1868, 1274, 1776, 1284, 1273
1869, 1281, 2076, 1571, 1525
1870, 1676, 803, 866, 863
1871, 916, 773, 146, 342
1872, 789, 416, 1980, 423
1873, 1426, 105, 115, 1948
1874, 1345, 794, 2141, 2168
1875, 1506, 1845, 2051, 1667
1876, 2027, 2029, 2086, 1770
1877, 518, 1783, 1784, 1941
1878, 788, 2132, 345, 2022
1879, 1896, 1429, 2021, 797
1880, 2139, 2093, 363, 869
1881, 1421, 2035, 2034, 1343
1882, 2063, 429, 766, 1425
1883, 1292, 797, 2021, 1008
1884, 752, 1546, 1433, 731
1885, 1100, 719, 1755, 1478
1886, 566, 560, 1995, 2095
1887, 1007, 1510, 440, 884
1888, 1705, 460, 1197, 449
1889, 460, 441, 2053, 1197
1890, 1659, 916, 342, 147
1891, 1698, 250, 239, 772
1892, 808, 377, 244, 344
1893, 787, 1717, 1888, 626
1894, 615, 2146, 642, 1940
1895, 1684, 1825, 2111, 656
1896, 672, 1794, 723, 815
1897, 465, 2054, 758, 464
1898, 812, 876, 516, 822
1899, 822, 2060, 1906, 2046
1900, 669, 1780, 1779, 1623
1901, 661, 775, 672, 681
1902, 723, 816, 722, 917
1903, 1875, 888, 660, 1985
1904, 611, 624, 1945, 1965
1905, 2060, 513, 1953, 1906
1906, 471, 515, 905, 514
1907, 843, 1983, 1786, 720
1908, 1021, 2186, 1817, 895
1909, 662, 1622, 1754, 1929
1910, 583, 827, 2152, 825
1911, 825, 2152, 826, 582
1912, 827, 603, 826, 2152
1913, 1088, 1930, 716, 1219
1914, 2108, 2090, 1728, 1406
1915, 349, 260, 229, 1959
1916, 1729, 2091, 74, 84
1917, 754, 2128, 1209, 2157
1918, 939, 1956, 413, 898
1919, 1162, 383, 2014, 384
1920, 1459, 2123, 2167, 1697
1921, 1862, 1465, 1809, 1490
1922, 1466, 846, 1928, 677
1923, 941, 1161, 1310, 755
1924, 1008, 2021, 1060, 1194
1925, 1235, 2015, 267, 222
1926, 1582, 2158, 1306, 1080
1927, 1688, 1225, 838, 1828
1928, 1305, 475, 1582, 477
1929, 1087, 1030, 1615, 1508
1930, 706, 903, 917, 2151
1931, 2045, 891, 1930, 1088
1932, 1848, 1781, 1795, 1794
1933, 1087, 919, 2055, 1030
1934, 1239, 1929, 155, 333
1935, 2040, 1634, 498, 462
1936, 1281, 784, 1516, 2076
1937, 2118, 1526, 852, 1517
1938, 1526, 2080, 1751, 852
1939, 495, 1004, 1822, 1643
1940, 1313, 1517, 849, 784
1941, 1859, 1829, 461, 1857
1942, 1597, 2179, 2158, 1550
1943, 655, 1185, 2121, 1596
1944, 489, 1508, 1519, 2042
1945, 1291, 1703, 731, 715
1946, 891, 1478, 1850, 709
1947, 2042, 647, 2164, 652
1948, 1930, 776, 1089, 716
1949, 424, 862, 2166, 860
1950, 860, 2166, 861, 433
1951, 862, 434, 861, 2166
1952, 675, 148, 340, 685
1953, 1759, 1863, 1986, 1238
1954, 632, 1683, 1900, 637
1955, 1827, 900, 1074, 379
1956, 834, 1718, 1756, 1178
1957, 2141, 795, 1429, 1896
1958, 2035, 1393, 870, 419
1959, 794, 1982, 795, 2141
1960, 906, 2057, 1597, 840
1961, 438, 445, 1510, 1007
1962, 1699, 1058, 1647, 848
1963, 813, 470, 1835, 2148
1964, 880, 818, 2038, 1687
1965, 812, 813, 2079, 876
1966, 1894, 1838, 1833, 497
1967, 1838, 1712, 503, 1750
1968, 878, 499, 1913, 467
1969, 2031, 753, 565, 570
1970, 2088, 2197, 1876, 881
1971, 407, 884, 2172, 882
1972, 882, 2172, 883, 426
1973, 884, 440, 883, 2172
1974, 1528, 760, 585, 1966
1975, 1963, 772, 630, 1939
1976, 809, 2117, 662, 1276
1977, 649, 718, 1307, 1149
1978, 2100, 1530, 1752, 1751
1979, 1505, 1589, 1621, 1920
1980, 1523, 1591, 2124, 1704
1981, 441, 801, 1054, 2053
1982, 892, 296, 193, 1868
1983, 1666, 480, 458, 483
1984, 1746, 1147, 1562, 1818
1985, 1488, 1178, 1851, 2047
1986, 792, 1908, 1829, 1859
1987, 812, 2001, 818, 880
1988, 1278, 412, 754, 1978
1989, 899, 2015, 1235, 1294
1990, 1979, 1293, 1278, 1346
1991, 616, 2087, 808, 1246
1992, 236, 621, 1177, 253
1993, 1660, 2049, 1827, 641
1994, 578, 1098, 1700, 2182
1995, 1917, 1312, 1661, 1725
1996, 1916, 1219, 649, 1186
1997, 1444, 820, 2054, 465
1998, 840, 1597, 1550, 475
1999, 1696, 1581, 1482, 1693
2000, 2005, 1588, 1587, 992
2001, 954, 1958, 1989, 1990
2002, 991, 1715, 1821, 1336
2003, 2048, 1773, 729, 635
2004, 1983, 1996, 1020, 1786
2005, 1186, 649, 1149, 1218
2006, 1188, 1879, 1718, 834
2007, 1753, 895, 1147, 1746
2008, 1596, 2121, 889, 1531
2009, 705, 1509, 1507, 2039
2010, 912, 682, 888, 1875
2011, 623, 1296, 1205, 1145
2012, 1311, 1815, 753, 2031
2013, 708, 1725, 569, 2195
2014, 1378, 1065, 977, 2189
2015, 783, 909, 926, 976
2016, 141, 545, 1707, 130
2017, 2169, 455, 435, 459
2018, 2028, 442, 1058, 1699
2019, 1055, 1844, 201, 287
2020, 893, 1741, 290, 199
2021, 2190, 1695, 485, 2061
2022, 1647, 1125, 289, 200
2023, 569, 1594, 859, 575
2024, 2197, 799, 2196, 1876
2025, 1607, 1184, 1098, 578
2026, 1293, 2030, 412, 1278
2027, 1208, 1979, 1346, 2180
2028, 838, 462, 471, 496
*ELSET,ELSET=contact_source
121, 122, 123, 124, 125, 126, 127, 128, 129, 130, 
131, 132, 133, 134, 135, 136, 137, 138, 139, 140, 
141, 142, 
*ELSET,ELSET=contact_drain
39, 40, 41, 42, 43, 44, 45, 46, 47, 48, 
49, 50, 51, 52, 53, 54, 55, 56, 57, 58, 
59, 60, 
*ELSET,ELSET=probe_A
81, 82, 83, 84, 85, 86, 87, 88, 89, 90, 
91, 92, 93, 94, 95, 96, 97, 98, 99, 100, 
*ELSET,ELSET=probe_B
17, 18, 19, 20, 21, 22, 
*ELSET,ELSET=walls
1, 2, 3, 4, 5, 6, 7, 8, 9, 10, 
11, 12, 13, 14, 15, 16, 23, 24, 25, 26, 
27, 28, 29, 30, 31, 32, 33, 34, 35, 36, 
37, 38, 61, 62, 63, 64, 65, 66, 67, 68, 
69, 70, 71, 72, 73, 74, 75, 76, 77, 78, 
79, 80, 101, 102, 103, 104, 105, 106, 107, 108, 
109, 110, 111, 112, 113, 114, 115, 116, 117, 118, 
119, 120, 143, 144, 145, 146, 147, 148, 149, 150, 
151, 152, 153, 154, 155, 156, 157, 158, 159, 160, 
161, 162, 163, 164, 165, 166, 167, 168, 169, 170, 
171, 172, 173, 174, 175, 176, 177, 178, 179, 180, 
181, 182, 183, 184, 185, 186, 187, 188, 189, 190, 
191, 192, 193, 194, 195, 196, 197, 198, 199, 200, 
201, 202, 203, 204, 205, 206, 207, 208, 209, 210, 
211, 212, 213, 214, 215, 216, 217, 218, 219, 220, 
221, 222, 223, 224, 225, 226, 227, 228, 229, 230, 
231, 232, 233, 234, 235, 236, 237, 238, 239, 240, 
241, 242, 243, 244, 245, 246, 247, 248, 249, 250, 
251, 252, 253, 254, 255, 256, 257, 258, 259, 260, 
261, 262, 263, 264, 265, 266, 267, 268, 269, 270, 
271, 272, 273, 274, 275, 276, 277, 278, 279, 280, 
281, 282, 283, 284, 285, 286, 287, 288, 289, 290, 
291, 292, 293, 294, 295, 296, 297, 298, 299, 300, 
301, 302, 303, 304, 305, 306, 307, 308, 309, 310, 
311, 312, 313, 314, 315, 316, 317, 318, 319, 320, 
321, 322, 323, 324, 325, 326, 327, 328, 329, 330, 
331, 332, 333, 334, 335, 336, 337, 338, 339, 340, 
341, 342, 343, 344, 
*ELSET,ELSET=domain
345, 346, 347, 348, 349, 350, 351, 352, 353, 354, 
355, 356, 357, 358, 359, 360, 361, 362, 363, 364, 
365, 366, 367, 368, 369, 370, 371, 372, 373, 374, 
375, 376, 377, 378, 379, 380, 381, 382, 383, 384, 
385, 386, 387, 388, 389, 390, 391, 392, 393, 394, 
395, 396, 397, 398, 399, 400, 401, 402, 403, 404, 
405, 406, 407, 408, 409, 410, 411, 412, 413, 414, 
415, 416, 417, 418, 419, 420, 421, 422, 423, 424, 
425, 426, 427, 428, 429, 430, 431, 432, 433, 434, 
435, 436, 437, 438, 439, 440, 441, 442, 443, 444, 
445, 446, 447, 448, 449, 450, 451, 452, 453, 454, 
455, 456, 457, 458, 459, 460, 461, 462, 463, 464, 
465, 466, 467, 468, 469, 470, 471, 472, 473, 474, 
475, 476, 477, 478, 479, 480, 481, 482, 483, 484, 
485, 486, 487, 488, 489, 490, 491, 492, 493, 494, 
495, 496, 497, 498, 499, 500, 501, 502, 503, 504, 
505, 506, 507, 508, 509, 510, 511, 512, 513, 514, 
515, 516, 517, 518, 519, 520, 521, 522, 523, 524, 
525, 526, 527, 528, 529, 530, 531, 532, 533, 534, 
535, 536, 537, 538, 539, 540, 541, 542, 543, 544, 
545, 546, 547, 548, 549, 550, 551, 552, 553, 554, 
555, 556, 557, 558, 559, 560, 561, 562, 563, 564, 
565, 566, 567, 568, 569, 570, 571, 572, 573, 574, 
575, 576, 577, 578, 579, 580, 581, 582, 583, 584, 
585, 586, 587, 588, 589, 590, 591, 592, 593, 594, 
595, 596, 597, 598, 599, 600, 601, 602, 603, 604, 
605, 606, 607, 608, 609, 610, 611, 612, 613, 614, 
615, 616, 617, 618, 619, 620, 621, 622, 623, 624, 
625, 626, 627, 628, 629, 630, 631, 632, 633, 634, 
635, 636, 637, 638, 639, 640, 641, 642, 643, 644, 
645, 646, 647, 648, 649, 650, 651, 652, 653, 654, 
655, 656, 657, 658, 659, 660, 661, 662, 663, 664, 
665, 666, 667, 668, 669, 670, 671, 672, 673, 674, 
675, 676, 677, 678, 679, 680, 681, 682, 683, 684, 
685, 686, 687, 688, 689, 690, 691, 692, 693, 694, 
695, 696, 697, 698, 699, 700, 701, 702, 703, 704, 
705, 706, 707, 708, 709, 710, 711, 712, 713, 714, 
715, 716, 717, 718, 719, 720, 721, 722, 723, 724, 
725, 726, 727, 728, 729, 730, 731, 732, 733, 734, 
735, 736, 737, 738, 739, 740, 741, 742, 743, 744, 
745, 746, 747, 748, 749, 750, 751, 752, 753, 754, 
755, 756, 757, 758, 759, 760, 761, 762, 763, 764, 
765, 766, 767, 768, 769, 770, 771, 772, 773, 774, 
775, 776, 777, 778, 779, 780, 781, 782, 783, 784, 
785, 786, 787, 788, 789, 790, 791, 792, 793, 794, 
795, 796, 797, 798, 799, 800, 801, 802, 803, 804, 
805, 806, 807, 808, 809, 810, 811, 812, 813, 814, 
815, 816, 817, 818, 819, 820, 821, 822, 823, 824, 
825, 826, 827, 828, 829, 830, 831, 832, 833, 834, 
835, 836, 837, 838, 839, 840, 841, 842, 843, 844, 
845, 846, 847, 848, 849, 850, 851, 852, 853, 854, 
855, 856, 857, 858, 859, 860, 861, 862, 863, 864, 
865, 866, 867, 868, 869, 870, 871, 872, 873, 874, 
875, 876, 877, 878, 879, 880, 881, 882, 883, 884, 
885, 886, 887, 888, 889, 890, 891, 892, 893, 894, 
895, 896, 897, 898, 899, 900, 901, 902, 903, 904, 
905, 906, 907, 908, 909, 910, 911, 912, 913, 914, 
915, 916, 917, 918, 919, 920, 921, 922, 923, 924, 
925, 926, 927, 928, 929, 930, 931, 932, 933, 934, 
935, 936, 937, 938, 939, 940, 941, 942, 943, 944, 
945, 946, 947, 948, 949, 950, 951, 952, 953, 954, 
955, 956, 957, 958, 959, 960, 961, 962, 963, 964, 
965, 966, 967, 968, 969, 970, 971, 972, 973, 974, 
975, 976, 977, 978, 979, 980, 981, 982, 983, 984, 
985, 986, 987, 988, 989, 990, 991, 992, 993, 994, 
995, 996, 997, 998, 999, 1000, 1001, 1002, 1003, 1004, 
1005, 1006, 1007, 1008, 1009, 1010, 1011, 1012, 1013, 1014, 
1015, 1016, 1017, 1018, 1019, 1020, 1021, 1022, 1023, 1024, 
1025, 1026, 1027, 1028, 1029, 1030, 1031, 1032, 1033, 1034, 
1035, 1036, 1037, 1038, 1039, 1040, 1041, 1042, 1043, 1044, 
1045, 1046, 1047, 1048, 1049, 1050, 1051, 1052, 1053, 1054, 
1055, 1056, 1057, 1058, 1059, 1060, 1061, 1062, 1063, 1064, 
1065, 1066, 1067, 1068, 1069, 1070, 1071, 1072, 1073, 1074, 
1075, 1076, 1077, 1078, 1079, 1080, 1081, 1082, 1083, 1084, 
1085, 1086, 1087, 1088, 1089, 1090, 1091, 1092, 1093, 1094, 
1095, 1096, 1097, 1098, 1099, 1100, 1101, 1102, 1103, 1104, 
1105, 1106, 1107, 1108, 1109, 1110, 1111, 1112, 1113, 1114, 
1115, 1116, 1117, 1118, 1119, 1120, 1121, 1122, 1123, 1124, 
1125, 1126, 1127, 1128, 1129, 1130, 1131, 1132, 1133, 1134, 
1135, 1136, 1137, 1138, 1139, 1140, 1141, 1142, 1143, 1144, 
1145, 1146, 1147, 1148, 1149, 1150, 1151, 1152, 1153, 1154, 
1155, 1156, 1157, 1158, 1159, 1160, 1161, 1162, 1163, 1164, 
1165, 1166, 1167, 1168, 1169, 1170, 1171, 1172, 1173, 1174, 
1175, 1176, 1177, 1178, 1179, 1180, 1181, 1182, 1183, 1184, 
1185, 1186, 1187, 1188, 1189, 1190, 1191, 1192, 1193, 1194, 
1195, 1196, 1197, 1198, 1199, 1200, 1201, 1202, 1203, 1204, 
1205, 1206, 1207, 1208, 1209, 1210, 1211, 1212, 1213, 1214, 
1215, 1216, 1217, 1218, 1219, 1220, 1221, 1222, 1223, 1224, 
1225, 1226, 1227, 1228, 1229, 1230, 1231, 1232, 1233, 1234, 
1235, 1236, 1237, 1238, 1239, 1240, 1241, 1242, 1243, 1244, 
1245, 1246, 1247, 1248, 1249, 1250, 1251, 1252, 1253, 1254, 
1255, 1256, 1257, 1258, 1259, 1260, 1261, 1262, 1263, 1264, 
1265, 1266, 1267, 1268, 1269, 1270, 1271, 1272, 1273, 1274, 
1275, 1276, 1277, 1278, 1279, 1280, 1281, 1282, 1283, 1284, 
1285, 1286, 1287, 1288, 1289, 1290, 1291, 1292, 1293, 1294, 
1295, 1296, 1297, 1298, 1299, 1300, 1301, 1302, 1303, 1304, 
1305, 1306, 1307, 1308, 1309, 1310, 1311, 1312, 1313, 1314, 
1315, 1316, 1317, 1318, 1319, 1320, 1321, 1322, 1323, 1324, 
1325, 1326, 1327, 1328, 1329, 1330, 1331, 1332, 1333, 1334, 
1335, 1336, 1337, 1338, 1339, 1340, 1341, 1342, 1343, 1344, 
1345, 1346, 1347, 1348, 1349, 1350, 1351, 1352, 1353, 1354, 
1355, 1356, 1357, 1358, 1359, 1360, 1361, 1362, 1363, 1364, 
1365, 1366, 1367, 1368, 1369, 1370, 1371, 1372, 1373, 1374, 
1375, 1376, 1377, 1378, 1379, 1380, 1381, 1382, 1383, 1384, 
1385, 1386, 1387, 1388, 1389, 1390, 1391, 1392, 1393, 1394, 
1395, 1396, 1397, 1398, 1399, 1400, 1401, 1402, 1403, 1404, 
1405, 1406, 1407, 1408, 1409, 1410, 1411, 1412, 1413, 1414, 
1415, 1416, 1417, 1418, 1419, 1420, 1421, 1422, 1423, 1424, 
1425, 1426, 1427, 1428, 1429, 1430, 1431, 1432, 1433, 1434, 
1435, 1436, 1437, 1438, 1439, 1440, 1441, 1442, 1443, 1444, 
1445, 1446, 1447, 1448, 1449, 1450, 1451, 1452, 1453, 1454, 
1455, 1456, 1457, 1458, 1459, 1460, 1461, 1462, 1463, 1464, 
1465, 1466, 1467, 1468, 1469, 1470, 1471, 1472, 1473, 1474, 
1475, 1476, 1477, 1478, 1479, 1480, 1481, 1482, 1483, 1484, 
1485, 1486, 1487, 1488, 1489, 1490, 1491, 1492, 1493, 1494, 
1495, 1496, 1497, 1498, 1499, 1500, 1501, 1502, 1503, 1504, 
1505, 1506, 1507, 1508, 1509, 1510, 1511, 1512, 1513, 1514, 
1515, 1516, 1517, 1518, 1519, 1520, 1521, 1522, 1523, 1524, 
1525, 1526, 1527, 1528, 1529, 1530, 1531, 1532, 1533, 1534, 
1535, 1536, 1537, 1538, 1539, 1540, 1541, 1542, 1543, 1544, 
1545, 1546, 1547, 1548, 1549, 1550, 1551, 1552, 1553, 1554, 
1555, 1556, 1557, 1558, 1559, 1560, 1561, 1562, 1563, 1564, 
1565, 1566, 1567, 1568, 1569, 1570, 1571, 1572, 1573, 1574, 
1575, 1576, 1577, 1578, 1579, 1580, 1581, 1582, 1583, 1584, 
1585, 1586, 1587, 1588, 1589, 1590, 1591, 1592, 1593, 1594, 
1595, 1596, 1597, 1598, 1599, 1600, 1601, 1602, 1603, 1604, 
1605, 1606, 1607, 1608, 1609, 1610, 1611, 1612, 1613, 1614, 
1615, 1616, 1617, 1618, 1619, 1620, 1621, 1622, 1623, 1624, 
1625, 1626, 1627, 1628, 1629, 1630, 1631, 1632, 1633, 1634, 
1635, 1636, 1637, 1638, 1639, 1640, 1641, 1642, 1643, 1644, 
1645, 1646, 1647, 1648, 1649, 1650, 1651, 1652, 1653, 1654, 
1655, 1656, 1657, 1658, 1659, 1660, 1661, 1662, 1663, 1664, 
1665, 1666, 1667, 1668, 1669, 1670, 1671, 1672, 1673, 1674, 
1675, 1676, 1677, 1678, 1679, 1680, 1681, 1682, 1683, 1684, 
1685, 1686, 1687, 1688, 1689, 1690, 1691, 1692, 1693, 1694, 
1695, 1696, 1697, 1698, 1699, 1700, 1701, 1702, 1703, 1704, 
1705, 1706, 1707, 1708, 1709, 1710, 1711, 1712, 1713, 1714, 
1715, 1716, 1717, 1718, 1719, 1720, 1721, 1722, 1723, 1724, 
1725, 1726, 1727, 1728, 1729, 1730, 1731, 1732, 1733, 1734, 
1735, 1736, 1737, 1738, 1739, 1740, 1741, 1742, 1743, 1744, 
1745, 1746, 1747, 1748, 1749, 1750, 1751, 1752, 1753, 1754, 
1755, 1756, 1757, 1758, 1759, 1760, 1761, 1762, 1763, 1764, 
1765, 1766, 1767, 1768, 1769, 1770, 1771, 1772, 1773, 1774, 
1775, 1776, 1777, 1778, 1779, 1780, 1781, 1782, 1783, 1784, 
1785, 1786, 1787, 1788, 1789, 1790, 1791, 1792, 1793, 1794, 
1795, 1796, 1797, 1798, 1799, 1800, 1801, 1802, 1803, 1804, 
1805, 1806, 1807, 1808, 1809, 1810, 1811, 1812, 1813, 1814, 
1815, 1816, 1817, 1818, 1819, 1820, 1821, 1822, 1823, 1824, 
1825, 1826, 1827, 1828, 1829, 1830, 1831, 1832, 1833, 1834, 
1835, 1836, 1837, 1838, 1839, 1840, 1841, 1842, 1843, 1844, 
1845, 1846, 1847, 1848, 1849, 1850, 1851, 1852, 1853, 1854, 
1855, 1856, 1857, 1858, 1859, 1860, 1861, 1862, 1863, 1864, 
1865, 1866, 1867, 1868, 1869, 1870, 1871, 1872, 1873, 1874, 
1875, 1876, 1877, 1878, 1879, 1880, 1881, 1882, 1883, 1884, 
1885, 1886, 1887, 1888, 1889, 1890, 1891, 1892, 1893, 1894, 
1895, 1896, 1897, 1898, 1899, 1900, 1901, 1902, 1903, 1904, 
1905, 1906, 1907, 1908, 1909, 1910, 1911, 1912, 1913, 1914, 
1915, 1916, 1917, 1918, 1919, 1920, 1921, 1922, 1923, 1924, 
1925, 1926, 1927, 1928, 1929, 1930, 1931, 1932, 1933, 1934, 
1935, 1936, 1937, 1938, 1939, 1940, 1941, 1942, 1943, 1944, 
1945, 1946, 1947, 1948, 1949, 1950, 1951, 1952, 1953, 1954, 
1955, 1956, 1957, 1958, 1959, 1960, 1961, 1962, 1963, 1964, 
1965, 1966, 1967, 1968, 1969, 1970, 1971, 1972, 1973, 1974, 
1975, 1976, 1977, 1978, 1979, 1980, 1981, 1982, 1983, 1984, 
1985, 1986, 1987, 1988, 1989, 1990, 1991, 1992, 1993, 1994, 
1995, 1996, 1997, 1998, 1999, 2000, 2001, 2002, 2003, 2004, 
2005, 2006, 2007, 2008, 2009, 2010, 2011, 2012, 2013, 2014, 
2015, 2016, 2017, 2018, 2019, 2020, 2021, 2022, 2023, 2024, 
2025, 2026, 2027, 2028, 2029, 2030, 2031, 2032, 2033, 2034, 
2035, 2036, 2037, 2038, 2039, 2040, 2041, 2042, 2043, 2044, 
2045, 2046, 2047, 2048, 2049, 2050, 2051, 2052, 2053, 2054, 
2055, 2056, 2057, 2058, 2059, 2060, 2061, 2062, 2063, 2064, 
2065, 2066, 2067, 2068, 2069, 2070, 2071, 2072, 2073, 2074, 
2075, 2076, 2077, 2078, 2079, 2080, 2081, 2082, 2083, 2084, 
2085, 2086, 2087, 2088, 2089, 2090, 2091, 2092, 2093, 2094, 
2095, 2096, 2097, 2098, 2099, 2100, 2101, 2102, 2103, 2104, 
2105, 2106, 2107, 2108, 2109, 2110, 2111, 2112, 2113, 2114, 
2115, 2116, 2117, 2118, 2119, 2120, 2121, 2122, 2123, 2124, 
2125, 2126, 2127, 2128, 2129, 2130, 2131, 2132, 2133, 2134, 
2135, 2136, 2137, 2138, 2139, 2140, 2141, 2142, 2143, 2144, 
2145, 2146, 2147, 2148, 2149, 2150, 2151, 2152, 2153, 2154, 
2155, 2156, 2157, 2158, 2159, 2160, 2161, 2162, 2163, 2164, 
2165, 2166, 2167, 2168, 2169, 2170, 2171, 2172, 2173, 2174, 
2175, 2176, 2177, 2178, 2179, 2180, 2181, 2182, 2183, 2184, 
2185, 2186, 2187, 2188, 2189, 2190, 2191, 2192, 2193, 2194, 
2195, 2196, 2197, 2198, 2199, 2200, 2201, 2202, 2203, 2204, 
2205, 2206, 2207, 2208, 2209, 2210, 2211, 2212, 2213, 2214, 
2215, 2216, 2217, 2218, 2219, 2220, 2221, 2222, 2223, 2224, 
2225, 2226, 2227, 2228, 2229, 2230, 2231, 2232, 2233, 2234, 
2235, 2236, 2237, 2238, 2239, 2240, 2241, 2242, 2243, 2244, 
2245, 2246, 2247, 2248, 2249, 2250, 2251, 2252, 2253, 2254, 
2255, 2256, 2257, 2258, 2259, 2260, 2261, 2262, 2263, 2264, 
2265, 2266, 2267, 2268, 2269, 2270, 2271, 2272, 2273, 2274, 
2275, 2276, 2277, 2278, 2279, 2280, 2281, 2282, 2283, 2284, 
2285, 2286, 2287, 2288, 2289, 2290, 2291, 2292, 2293, 2294, 
2295, 2296, 2297, 2298, 2299, 2300, 2301, 2302, 2303, 2304, 
2305, 2306, 2307, 2308, 2309, 2310, 2311, 2312, 2313, 2314, 
2315, 2316, 2317, 2318, 2319, 2320, 2321, 2322, 2323, 2324, 
2325, 2326, 2327, 2328, 2329, 2330, 2331, 2332, 2333, 2334, 
2335, 2336, 2337, 2338, 2339, 2340, 2341, 2342, 2343, 2344, 
2345, 2346, 2347, 2348, 2349, 2350, 2351, 2352, 2353, 2354, 
2355, 2356, 2357, 2358, 2359, 2360, 2361, 2362, 2363, 2364, 
2365, 2366, 2367, 2368, 2369, 2370, 2371, 2372, 
*NSET,NSET=contact_source
1, 8, 123, 124, 125, 126, 127, 128, 129, 130, 
131, 132, 133, 134, 135, 136, 137, 138, 139, 140, 
141, 142, 143, 
*NSET,NSET=contact_drain
4, 5, 45, 46, 47, 48, 49, 50, 51, 52, 
53, 54, 55, 56, 57, 58, 59, 60, 61, 62, 
63, 64, 65, 
*NSET,NSET=probe_A
6, 7, 85, 86, 87, 88, 89, 90, 91, 92, 
93, 94, 95, 96, 97, 98, 99, 100, 101, 102, 
103, 
*NSET,NSET=probe_B
2, 3, 25, 26, 27, 28, 29, 
*NSET,NSET=walls
1, 2, 3, 4, 5, 6, 7, 8, 9, 10, 
11, 12, 13, 14, 15, 16, 17, 18, 19, 20, 
21, 22, 23, 24, 30, 31, 32, 33, 34, 35, 
36, 37, 38, 39, 40, 41, 42, 43, 44, 66, 
67, 68, 69, 70, 71, 72, 73, 74, 75, 76, 
77, 78, 79, 80, 81, 82, 83, 84, 104, 105, 
106, 107, 108, 109, 110, 111, 112, 113, 114, 115, 
116, 117, 118, 119, 120, 121, 122, 144, 145, 146, 
147, 148, 149, 150, 151, 152, 153, 154, 155, 156, 
157, 158, 159, 160, 161, 162, 163, 164, 165, 166, 
167, 168, 169, 170, 171, 172, 173, 174, 175, 176, 
177, 178, 179, 180, 181, 182, 183, 184, 185, 186, 
187, 188, 189, 190, 191, 192, 193, 194, 195, 196, 
197, 198, 199, 200, 201, 202, 203, 204, 205, 206, 
207, 208, 209, 210, 211, 212, 213, 214, 215, 216, 
217, 218, 219, 220, 221, 222, 223, 224, 225, 226, 
227, 228, 229, 230, 231, 232, 233, 234, 235, 236, 
237, 238, 239, 240, 241, 242, 243, 244, 245, 246, 
247, 248, 249, 250, 251, 252, 253, 254, 255, 256, 
257, 258, 259, 260, 261, 262, 263, 264, 265, 266, 
267, 268, 269, 270, 271, 272, 273, 274, 275, 276, 
277, 278, 279, 280, 281, 282, 283, 284, 285, 286, 
287, 288, 289, 290, 291, 292, 293, 294, 295, 296, 
297, 298, 299, 300, 301, 302, 303, 304, 305, 306, 
307, 308, 309, 310, 311, 312, 313, 314, 315, 316, 
317, 318, 319, 320, 321, 322, 323, 324, 325, 326, 
327, 328, 329, 330, 331, 332, 333, 334, 335, 336, 
337, 338, 339, 340, 341, 342, 343, 344, 
*NSET,NSET=domain
1, 2, 3, 4, 5, 6, 7, 8, 9, 10, 
11, 12, 13, 14, 15, 16, 17, 18, 19, 20, 
21, 22, 23, 24, 25, 26, 27, 28, 29, 30, 
31, 32, 33, 34, 35, 36, 37, 38, 39, 40, 
41, 42, 43, 44, 45, 46, 47, 48, 49, 50, 
51, 52, 53, 54, 55, 56, 57, 58, 59, 60, 
61, 62, 63, 64, 65, 66, 67, 68, 69, 70, 
71, 72, 73, 74, 75, 76, 77, 78, 79, 80, 
81, 82, 83, 84, 85, 86, 87, 88, 89, 90, 
91, 92, 93, 94, 95, 96, 97, 98, 99, 100, 
101, 102, 103, 104, 105, 106, 107, 108, 109, 110, 
111, 112, 113, 114, 115, 116, 117, 118, 119, 120, 
121, 122, 123, 124, 125, 126, 127, 128, 129, 130, 
131, 132, 133, 134, 135, 136, 137, 138, 139, 140, 
141, 142, 143, 144, 145, 146, 147, 148, 149, 150, 
151, 152, 153, 154, 155, 156, 157, 158, 159, 160, 
161, 162, 163, 164, 165, 166, 167, 168, 169, 170, 
171, 172, 173, 174, 175, 176, 177, 178, 179, 180, 
181, 182, 183, 184, 185, 186, 187, 188, 189, 190, 
191, 192, 193, 194, 195, 196, 197, 198, 199, 200, 
201, 202, 203, 204, 205, 206, 207, 208, 209, 210, 
211, 212, 213, 214, 215, 216, 217, 218, 219, 220, 
221, 222, 223, 224, 225, 226, 227, 228, 229, 230, 
231, 232, 233, 234, 235, 236, 237, 238, 239, 240, 
241, 242, 243, 244, 245, 246, 247, 248, 249, 250, 
251, 252, 253, 254, 255, 256, 257, 258, 259, 260, 
261, 262, 263, 264, 265, 266, 267, 268, 269, 270, 
271, 272, 273, 274, 275, 276, 277, 278, 279, 280, 
281, 282, 283, 284, 285, 286, 287, 288, 289, 290, 
291, 292, 293, 294, 295, 296, 297, 298, 299, 300, 
301, 302, 303, 304, 305, 306, 307, 308, 309, 310, 
311, 312, 313, 314, 315, 316, 317, 318, 319, 320, 
321, 322, 323, 324, 325, 326, 327, 328, 329, 330, 
331, 332, 333, 334, 335, 336, 337, 338, 339, 340, 
341, 342, 343, 344, 345, 346, 347, 348, 349, 350, 
351, 352, 353, 354, 355, 356, 357, 358, 359, 360, 
361, 362, 363, 364, 365, 366, 367, 368, 369, 370, 
371, 372, 373, 374, 375, 376, 377, 378, 379, 380, 
381, 382, 383, 384, 385, 386, 387, 388, 389, 390, 
391, 392, 393, 394, 395, 396, 397, 398, 399, 400, 
401, 402, 403, 404, 405, 406, 407, 408, 409, 410, 
411, 412, 413, 414, 415, 416, 417, 418, 419, 420, 
421, 422, 423, 424, 425, 426, 427, 428, 429, 430, 
431, 432, 433, 434, 435, 436, 437, 438, 439, 440, 
441, 442, 443, 444, 445, 446, 447, 448, 449, 450, 
451, 452, 453, 454, 455, 456, 457, 458, 459, 460, 
461, 462, 463, 464, 465, 466, 467, 468, 469, 470, 
471, 472, 473, 474, 475, 476, 477, 478, 479, 480, 
481, 482, 483, 484, 485, 486, 487, 488, 489, 490, 
491, 492, 493, 494, 495, 496, 497, 498, 499, 500, 
501, 502, 503, 504, 505, 506, 507, 508, 509, 510, 
511, 512, 513, 514, 515, 516, 517, 518, 519, 520, 
521, 522, 523, 524, 525, 526, 527, 528, 529, 530, 
531, 532, 533, 534, 535, 536, 537, 538, 539, 540, 
541, 542, 543, 544, 545, 546, 547, 548, 549, 550, 
551, 552, 553, 554, 555, 556, 557, 558, 559, 560, 
561, 562, 563, 564, 565, 566, 567, 568, 569, 570, 
571, 572, 573, 574, 575, 576, 577, 578, 579, 580, 
581, 582, 583, 584, 585, 586, 587, 588, 589, 590, 
591, 592, 593, 594, 595, 596, 597, 598, 599, 600, 
601, 602, 603, 604, 605, 606, 607, 608, 609, 610, 
611, 612, 613, 614, 615, 616, 617, 618, 619, 620, 
621, 622, 623, 624, 625, 626, 627, 628, 629, 630, 
631, 632, 633, 634, 635, 636, 637, 638, 639, 640, 
641, 642, 643, 644, 645, 646, 647, 648, 649, 650, 
651, 652, 653, 654, 655, 656, 657, 658, 659, 660, 
661, 662, 663, 664, 665, 666, 667, 668, 669, 670, 
671, 672, 673, 674, 675, 676, 677, 678, 679, 680, 
681, 682, 683, 684, 685, 686, 687, 688, 689, 690, 
691, 692, 693, 694, 695, 696, 697, 698, 699, 700, 
701, 702, 703, 704, 705, 706, 707, 708, 709, 710, 
711, 712, 713, 714, 715, 716, 717, 718, 719, 720, 
721, 722, 723, 724, 725, 726, 727, 728, 729, 730, 
731, 732, 733, 734, 735, 736, 737, 738, 739, 740, 
741, 742, 743, 744, 745, 746, 747, 748, 749, 750, 
751, 752, 753, 754, 755, 756, 757, 758, 759, 760, 
761, 762, 763, 764, 765, 766, 767, 768, 769, 770, 
771, 772, 773, 774, 775, 776, 777, 778, 779, 780, 
781, 782, 783, 784, 785, 786, 787, 788, 789, 790, 
791, 792, 793, 794, 795, 796, 797, 798, 799, 800, 
801, 802, 803, 804, 805, 806, 807, 808, 809, 810, 
811, 812, 813, 814, 815, 816, 817, 818, 819, 820, 
821, 822, 823, 824, 825, 826, 827, 828, 829, 830, 
831, 832, 833, 834, 835, 836, 837, 838, 839, 840, 
841, 842, 843, 844, 845, 846, 847, 848, 849, 850, 
851, 852, 853, 854, 855, 856, 857, 858, 859, 860, 
861, 862, 863, 864, 865, 866, 867, 868, 869, 870, 
871, 872, 873, 874, 875, 876, 877, 878, 879, 880, 
881, 882, 883, 884, 885, 886, 887, 888, 889, 890, 
891, 892, 893, 894, 895, 896, 897, 898, 899, 900, 
901, 902, 903, 904, 905, 906, 907, 908, 909, 910, 
911, 912, 913, 914, 915, 916, 917, 918, 919, 920, 
921, 922, 923, 924, 925, 926, 927, 928, 929, 930, 
931, 932, 933, 934, 935, 936, 937, 938, 939, 940, 
941, 942, 943, 944, 945, 946, 947, 948, 949, 950, 
951, 952, 953, 954, 955, 956, 957, 958, 959, 960, 
961, 962, 963, 964, 965, 966, 967, 968, 969, 970, 
971, 972, 973, 974, 975, 976, 977, 978, 979, 980, 
981, 982, 983, 984, 985, 986, 987, 988, 989, 990, 
991, 992, 993, 994, 995, 996, 997, 998, 999, 1000, 
1001, 1002, 1003, 1004, 1005, 1006, 1007, 1008, 1009, 1010, 
1011, 1012, 1013, 1014, 1015, 1016, 1017, 1018, 1019, 1020, 
1021, 1022, 1023, 1024, 1025, 1026, 1027, 1028, 1029, 1030, 
1031, 1032, 1033, 1034, 1035, 1036, 1037, 1038, 1039, 1040, 
1041, 1042, 1043, 1044, 1045, 1046, 1047, 1048, 1049, 1050, 
1051, 1052, 1053, 1054, 1055, 1056, 1057, 1058, 1059, 1060, 
1061, 1062, 1063, 1064, 1065, 1066, 1067, 1068, 1069, 1070, 
1071, 1072, 1073, 1074, 1075, 1076, 1077, 1078, 1079, 1080, 
1081, 1082, 1083, 1084, 1085, 1086, 1087, 1088, 1089, 1090, 
1091, 1092, 1093, 1094, 1095, 1096, 1097, 1098, 1099, 1100, 
1101, 1102, 1103, 1104, 1105, 1106, 1107, 1108, 1109, 1110, 
1111, 1112, 1113, 1114, 1115, 1116, 1117, 1118, 1119, 1120, 
1121, 1122, 1123, 1124, 1125, 1126, 1127, 1128, 1129, 1130, 
1131, 1132, 1133, 1134, 1135, 1136, 1137, 1138, 1139, 1140, 
1141, 1142, 1143, 1144, 1145, 1146, 1147, 1148, 1149, 1150, 
1151, 1152, 1153, 1154, 1155, 1156, 1157, 1158, 1159, 1160, 
1161, 1162, 1163, 1164, 1165, 1166, 1167, 1168, 1169, 1170, 
1171, 1172, 1173, 1174, 1175, 1176, 1177, 1178, 1179, 1180, 
1181, 1182, 1183, 1184, 1185, 1186, 1187, 1188, 1189, 1190, 
1191, 1192, 1193, 1194, 1195, 1196, 1197, 1198, 1199, 1200, 
1201, 1202, 1203, 1204, 1205, 1206, 1207, 1208, 1209, 1210, 
1211, 1212, 1213, 1214, 1215, 1216, 1217, 1218, 1219, 1220, 
1221, 1222, 1223, 1224, 1225, 1226, 1227, 1228, 1229, 1230, 
1231, 1232, 1233, 1234, 1235, 1236, 1237, 1238, 1239, 1240, 
1241, 1242, 1243, 1244, 1245, 1246, 1247, 1248, 1249, 1250, 
1251, 1252, 1253, 1254, 1255, 1256, 1257, 1258, 1259, 1260, 
1261, 1262, 1263, 1264, 1265, 1266, 1267, 1268, 1269, 1270, 
1271, 1272, 1273, 1274, 1275, 1276, 1277, 1278, 1279, 1280, 
1281, 1282, 1283, 1284, 1285, 1286, 1287, 1288, 1289, 1290, 
1291, 1292, 1293, 1294, 1295, 1296, 1297, 1298, 1299, 1300, 
1301, 1302, 1303, 1304, 1305, 1306, 1307, 1308, 1309, 1310, 
1311, 1312, 1313, 1314, 1315, 1316, 1317, 1318, 1319, 1320, 
1321, 1322, 1323, 1324, 1325, 1326, 1327, 1328, 1329, 1330, 
1331, 1332, 1333, 1334, 1335, 1336, 1337, 1338, 1339, 1340, 
1341, 1342, 1343, 1344, 1345, 1346, 1347, 1348, 1349, 1350, 
1351, 1352, 1353, 1354, 1355, 1356, 1357, 1358, 1359, 1360, 
1361, 1362, 1363, 1364, 1365, 1366, 1367, 1368, 1369, 1370, 
1371, 1372, 1373, 1374, 1375, 1376, 1377, 1378, 1379, 1380, 
1381, 1382, 1383, 1384, 1385, 1386, 1387, 1388, 1389, 1390, 
1391, 1392, 1393, 1394, 1395, 1396, 1397, 1398, 1399, 1400, 
1401, 1402, 1403, 1404, 1405, 1406, 1407, 1408, 1409, 1410, 
1411, 1412, 1413, 1414, 1415, 1416, 1417, 1418, 1419, 1420, 
1421, 1422, 1423, 1424, 1425, 1426, 1427, 1428, 1429, 1430, 
1431, 1432, 1433, 1434, 1435, 1436, 1437, 1438, 1439, 1440, 
1441, 1442, 1443, 1444, 1445, 1446, 1447, 1448, 1449, 1450, 
1451, 1452, 1453, 1454, 1455, 1456, 1457, 1458, 1459, 1460, 
1461, 1462, 1463, 1464, 1465, 1466, 1467, 1468, 1469, 1470, 
1471, 1472, 1473, 1474, 1475, 1476, 1477, 1478, 1479, 1480, 
1481, 1482, 1483, 1484, 1485, 1486, 1487, 1488, 1489, 1490, 
1491, 1492, 1493, 1494, 1495, 1496, 1497, 1498, 1499, 1500, 
1501, 1502, 1503, 1504, 1505, 1506, 1507, 1508, 1509, 1510, 
1511, 1512, 1513, 1514, 1515, 1516, 1517, 1518, 1519, 1520, 
1521, 1522, 1523, 1524, 1525, 1526, 1527, 1528, 1529, 1530, 
1531, 1532, 1533, 1534, 1535, 1536, 1537, 1538, 1539, 1540, 
1541, 1542, 1543, 1544, 1545, 1546, 1547, 1548, 1549, 1550, 
1551, 1552, 1553, 1554, 1555, 1556, 1557, 1558, 1559, 1560, 
1561, 1562, 1563, 1564, 1565, 1566, 1567, 1568, 1569, 1570, 
1571, 1572, 1573, 1574, 1575, 1576, 1577, 1578, 1579, 1580, 
1581, 1582, 1583, 1584, 1585, 1586, 1587, 1588, 1589, 1590, 
1591, 1592, 1593, 1594, 1595, 1596, 1597, 1598, 1599, 1600, 
1601, 1602, 1603, 1604, 1605, 1606, 1607, 1608, 1609, 1610, 
1611, 1612, 1613, 1614, 1615, 1616, 1617, 1618, 1619, 1620, 
1621, 1622, 1623, 1624, 1625, 1626, 1627, 1628, 1629, 1630, 
1631, 1632, 1633, 1634, 1635, 1636, 1637, 1638, 1639, 1640, 
1641, 1642, 1643, 1644, 1645, 1646, 1647, 1648, 1649, 1650, 
1651, 1652, 1653, 1654, 1655, 1656, 1657, 1658, 1659, 1660, 
1661, 1662, 1663, 1664, 1665, 1666, 1667, 1668, 1669, 1670, 
1671, 1672, 1673, 1674, 1675, 1676, 1677, 1678, 1679, 1680, 
1681, 1682, 1683, 1684, 1685, 1686, 1687, 1688, 1689, 1690, 
1691, 1692, 1693, 1694, 1695, 1696, 1697, 1698, 1699, 1700, 
1701, 1702, 1703, 1704, 1705, 1706, 1707, 1708, 1709, 1710, 
1711, 1712, 1713, 1714, 1715, 1716, 1717, 1718, 1719, 1720, 
1721, 1722, 1723, 1724, 1725, 1726, 1727, 1728, 1729, 1730, 
1731, 1732, 1733, 1734, 1735, 1736, 1737, 1738, 1739, 1740, 
1741, 1742, 1743, 1744, 1745, 1746, 1747, 1748, 1749, 1750, 
1751, 1752, 1753, 1754, 1755, 1756, 1757, 1758, 1759, 1760, 
1761, 1762, 1763, 1764, 1765, 1766, 1767, 1768, 1769, 1770, 
1771, 1772, 1773, 1774, 1775, 1776, 1777, 1778, 1779, 1780, 
1781, 1782, 1783, 1784, 1785, 1786, 1787, 1788, 1789, 1790, 
1791, 1792, 1793, 1794, 1795, 1796, 1797, 1798, 1799, 1800, 
1801, 1802, 1803, 1804, 1805, 1806, 1807, 1808, 1809, 1810, 
1811, 1812, 1813, 1814, 1815, 1816, 1817, 1818, 1819, 1820, 
1821, 1822, 1823, 1824, 1825, 1826, 1827, 1828, 1829, 1830, 
1831, 1832, 1833, 1834, 1835, 1836, 1837, 1838, 1839, 1840, 
1841, 1842, 1843, 1844, 1845, 1846, 1847, 1848, 1849, 1850, 
1851, 1852, 1853, 1854, 1855, 1856, 1857, 1858, 1859, 1860, 
1861, 1862, 1863, 1864, 1865, 1866, 1867, 1868, 1869, 1870, 
1871, 1872, 1873, 1874, 1875, 1876, 1877, 1878, 1879, 1880, 
1881, 1882, 1883, 1884, 1885, 1886, 1887, 1888, 1889, 1890, 
1891, 1892, 1893, 1894, 1895, 1896, 1897, 1898, 1899, 1900, 
1901, 1902, 1903, 1904, 1905, 1906, 1907, 1908, 1909, 1910, 
1911, 1912, 1913, 1914, 1915, 1916, 1917, 1918, 1919, 1920, 
1921, 1922, 1923, 1924, 1925, 1926, 1927, 1928, 1929, 1930, 
1931, 1932, 1933, 1934, 1935, 1936, 1937, 1938, 1939, 1940, 
1941, 1942, 1943, 1944, 1945, 1946, 1947, 1948, 1949, 1950, 
1951, 1952, 1953, 1954, 1955, 1956, 1957, 1958, 1959, 1960, 
1961, 1962, 1963, 1964, 1965, 1966, 1967, 1968, 1969, 1970, 
1971, 1972, 1973, 1974, 1975, 1976, 1977, 1978, 1979, 1980, 
1981, 1982, 1983, 1984, 1985, 1986, 1987, 1988, 1989, 1990, 
1991, 1992, 1993, 1994, 1995, 1996, 1997, 1998, 1999, 2000, 
2001, 2002, 2003, 2004, 2005, 2006, 2007, 2008, 2009, 2010, 
2011, 2012, 2013, 2014, 2015, 2016, 2017, 2018, 2019, 2020, 
2021, 2022, 2023, 2024, 2025, 2026, 2027, 2028, 2029, 2030, 
2031, 2032, 2033, 2034, 2035, 2036, 2037, 2038, 2039, 2040, 
2041, 2042, 2043, 2044, 2045, 2046, 2047, 2048, 2049, 2050, 
2051, 2052, 2053, 2054, 2055, 2056, 2057, 2058, 2059, 2060, 
2061, 2062, 2063, 2064, 2065, 2066, 2067, 2068, 2069, 2070, 
2071, 2072, 2073, 2074, 2075, 2076, 2077, 2078, 2079, 2080, 
2081, 2082, 2083, 2084, 2085, 2086, 2087, 2088, 2089, 2090, 
2091, 2092, 2093, 2094, 2095, 2096, 2097, 2098, 2099, 2100, 
2101, 2102, 2103, 2104, 2105, 2106, 2107, 2108, 2109, 2110, 
2111, 2112, 2113, 2114, 2115, 2116, 2117, 2118, 2119, 2120, 
2121, 2122, 2123, 2124, 2125, 2126, 2127, 2128, 2129, 2130, 
2131, 2132, 2133, 2134, 2135, 2136, 2137, 2138, 2139, 2140, 
2141, 2142, 2143, 2144, 2145, 2146, 2147, 2148, 2149, 2150, 
2151, 2152, 2153, 2154, 2155, 2156, 2157, 2158, 2159, 2160, 
2161, 2162, 2163, 2164, 2165, 2166, 2167, 2168, 2169, 2170, 
2171, 2172, 2173, 2174, 2175, 2176, 2177, 2178, 2179, 2180, 
2181, 2182, 2183, 2184, 2185, 2186, 2187, 2188, 2189, 2190, 
2191, 2192, 2193, 2194, 2195, 2196, 2197, 2198, 2199, 2200, 
