*Heading
 /Users/juliagao/geometry-optimization-net/scripts/../runs/r0_sweep/shape_6.inp
*NODE
1, 0, -0.3, 0
2, 0.425, -0.3, 0
3, 0.575, -0.3, 0
4, 1, -0.3, 0
5, 1, 0.3, 0
6, 0.575, 0.3, 0
7, 0.425, 0.3, 0
8, 0, 0.3, 0
9, 0.77, -1.6518152554751e-19, 0
10, 0.026305746293018, -0.3, 0
11, 0.079718855267928, -0.3, 0
12, 0.13346870446987, -0.3, 0
13, 0.18484221707063, -0.3, 0
14, 0.23116574887291, -0.3, 0
15, 0.27048738231426, -0.3, 0
16, 0.30318988494706, -0.3, 0
17, 0.33136391570534, -0.3, 0
18, 0.35627503664508, -0.3, 0
19, 0.37830435552214, -0.3, 0
20, 0.39810191548681, -0.3, 0
21, 0.41629031083446, -0.3, 0
22, 0.052611492586036, -0.3, 0
23, 0.10682621794982, -0.3, 0
24, 0.16011119098993, -0.3, 0
25, 0.20957324315132, -0.3, 0
26, 0.25275825459449, -0.3, 0
27, 0.28821651003402, -0.3, 0
28, 0.3181632598601, -0.3, 0
29, 0.34456457155059, -0.3, 0
30, 0.36798550173957, -0.3, 0
31, 0.3886232093047, -0.3, 0
32, 0.40758062166893, -0.3, 0
33, 0.43256029548648, -0.3, 0
34, 0.4471877244921, -0.3, 0
35, 0.46101865686528, -0.3, 0
36, 0.47434997837162, -0.3, 0
37, 0.48738736143063, -0.3, 0
38, 0.50027086054634, -0.3, 0
39, 0.51307693667993, -0.3, 0
40, 0.52603505808382, -0.3, 0
41, 0.53932102429646, -0.3, 0
42, 0.55301581959269, -0.3, 0
43, 0.56749516632779, -0.3, 0
44, 0.44012059097296, -0.3, 0
45, 0.45425485801123, -0.3, 0
46, 0.46778245571933, -0.3, 0
47, 0.4809175010239, -0.3, 0
48, 0.49385722183735, -0.3, 0
49, 0.50668449925533, -0.3, 0
50, 0.51946937410454, -0.3, 0
51, 0.53260074206311, -0.3, 0
52, 0.54604130652981, -0.3, 0
53, 0.55999033265558, -0.3, 0
54, 0.5837686401092, -0.3, 0
55, 0.60212841410579, -0.3, 0
56, 0.62220148528093, -0.3, 0
57, 0.6448194859068, -0.3, 0
58, 0.6708467738373, -0.3, 0
59, 0.70030492374167, -0.3, 0
60, 0.73400558909387, -0.3, 0
61, 0.77348175715992, -0.3, 0
62, 0.81901197385382, -0.3, 0
63, 0.86928906589733, -0.3, 0
64, 0.921789440565, -0.3, 0
65, 0.97410025592861, -0.3, 0
66, 0.59253728021839, -0.3, 0
67, 0.61171954799318, -0.3, 0
68, 0.63268342256869, -0.3, 0
69, 0.6569555492449, -0.3, 0
70, 0.6847379984297, -0.3, 0
71, 0.71587184905364, -0.3, 0
72, 0.7521393291341, -0.3, 0
73, 0.79482418518575, -0.3, 0
74, 0.84319976252188, -0.3, 0
75, 0.89537836927278, -0.3, 0
76, 0.94820051185722, -0.3, 0
77, 1, -0.27423152372027, 0
78, 1, -0.22143936840415, 0
79, 1, -0.16640772721042, 0
80, 1, -0.11033110233741, 0
81, 1, -0.054332781149906, 0
82, 1, 0.0014664338305865, 0
83, 1, 0.057063004429297, 0
84, 1, 0.11206718742129, 0
85, 1, 0.16643224491261, 0
86, 1, 0.22053295546382, 0
87, 1, 0.27377288871282, 0
88, 1, -0.24846304744054, 0
89, 1, -0.19441568936776, 0
90, 1, -0.13839976505308, 0
91, 1, -0.08226243962174, 0
92, 1, -0.026403122678072, 0
93, 1, 0.029335990339245, 0
94, 1, 0.084790018519348, 0
95, 1, 0.13934435632323, 0
96, 1, 0.19352013350198, 0
97, 1, 0.24754577742565, 0
98, 0.97397149803127, 0.3, 0
99, 0.92162265401703, 0.3, 0
100, 0.8686900402567, 0.3, 0
101, 0.81707614046053, 0.3, 0
102, 0.77043558278782, 0.3, 0
103, 0.73051407304066, 0.3, 0
104, 0.69656065262826, 0.3, 0
105, 0.667700490712, 0.3, 0
106, 0.64310179667303, 0.3, 0
107, 0.62151437566791, 0.3, 0
108, 0.60187614016397, 0.3, 0
109, 0.58370797664292, 0.3, 0
110, 0.94794299606254, 0.3, 0
111, 0.89530231197151, 0.3, 0
112, 0.84207776854189, 0.3, 0
113, 0.79207451237917, 0.3, 0
114, 0.74879665319646, 0.3, 0
115, 0.71223149288486, 0.3, 0
116, 0.68088981237165, 0.3, 0
117, 0.65451116905234, 0.3, 0
118, 0.63169242429372, 0.3, 0
119, 0.6113363270421, 0.3, 0
120, 0.59241595328583, 0.3, 0
121, 0.56750018872388, 0.3, 0
122, 0.55300189912301, 0.3, 0
123, 0.53929436575642, 0.3, 0
124, 0.52607119104177, 0.3, 0
125, 0.51324630124161, 0.3, 0
126, 0.50058731077078, 0.3, 0
127, 0.48775864439924, 0.3, 0
128, 0.47465678171982, 0.3, 0
129, 0.46123777742373, 0.3, 0
130, 0.44735697601198, 0.3, 0
131, 0.43263688112247, 0.3, 0
132, 0.56000037744776, 0.3, 0
133, 0.54600342079826, 0.3, 0
134, 0.53258531071459, 0.3, 0
135, 0.51955707136895, 0.3, 0
136, 0.50693553111427, 0.3, 0
137, 0.49423909042729, 0.3, 0
138, 0.48127819837119, 0.3, 0
139, 0.46803536506844, 0.3, 0
140, 0.45444018977903, 0.3, 0
141, 0.44027376224494, 0.3, 0
142, 0.41645092197827, 0.3, 0
143, 0.39887531249626, 0.3, 0
144, 0.37970631984243, 0.3, 0
145, 0.35824711603835, 0.3, 0
146, 0.33425732487907, 0.3, 0
147, 0.30625028339744, 0.3, 0
148, 0.2724645737988, 0.3, 0
149, 0.23233975173573, 0.3, 0
150, 0.18567182281113, 0.3, 0
151, 0.13340433691532, 0.3, 0
152, 0.07905646257656, 0.3, 0
153, 0.025990625303156, 0.3, 0
154, 0.40790184395654, 0.3, 0
155, 0.38984878103599, 0.3, 0
156, 0.36956385864888, 0.3, 0
157, 0.34693037342782, 0.3, 0
158, 0.32158427633033, 0.3, 0
159, 0.29091629046456, 0.3, 0
160, 0.25401285713304, 0.3, 0
161, 0.21066664633842, 0.3, 0
162, 0.16067699928383, 0.3, 0
163, 0.10613167454681, 0.3, 0
164, 0.051981250606311, 0.3, 0
165, 0, 0.27369477327225, 0
166, 0, 0.22041402831921, 0
167, 0, 0.16598974902994, 0
168, 0, 0.11067401413545, 0
169, 0, 0.055091029201716, 0
170, 0, 0.00022334282715625, 0
171, 0, -0.054387306119481, 0
172, 0, -0.10963134180118, 0
173, 0, -0.16517422733459, 0
174, 0, -0.22008358531609, 0
175, 0, -0.27361755988529, 0
176, 0, 0.24738954654449, 0
177, 0, 0.19343851009392, 0
178, 0, 0.13854098796596, 0
179, 0, 0.082807040304936, 0
180, 0, 0.027375018098496, 0
181, 0, -0.026928332444184, 0
182, 0, -0.081846279794779, 0
183, 0, -0.13741640380758, 0
184, 0, -0.1929320508616, 0
185, 0, -0.24723511977058, 0
186, 0.76996797464863, 0.0041601170142862, 0
187, 0.76973393691331, -0.011983550166642, 0
188, 0.76928520449043, -0.019633631720407, 0
189, 0.76862055890068, -0.027257908979139, 0
190, 0.76773426615302, -0.034905047996613, 0
191, 0.76662843743296, -0.04253558925038, 0
192, 0.76532133980243, -0.05004583990059, 0
193, 0.76383724420578, -0.057357716928355, 0
194, 0.76216055950999, -0.064589788554203, 0
195, 0.76026506968721, -0.071847708870105, 0
196, 0.75814523811389, -0.079126703273839, 0
197, 0.75578994922199, -0.086437846148474, 0
198, 0.75322424290878, -0.093688221212416, 0
199, 0.75050863465718, -0.10072449264365, 0
200, 0.7475496368905, -0.10779228347373, 0
201, 0.74421768994112, -0.11514217068715, 0
202, 0.7405984800807, -0.12252498259634, 0
203, 0.73683891978858, -0.12964306986237, 0
204, 0.73300155306295, -0.13641948313732, 0
205, 0.72906344892241, -0.14293332709614, 0
206, 0.72497317334597, -0.14928855006791, 0
207, 0.72070148828963, -0.15553408720226, 0
208, 0.71622348931473, -0.16170158290976, 0
209, 0.71151264884489, -0.16781656437654, 0
210, 0.70657591845771, -0.17385738282332, 0
211, 0.70144867225421, -0.17977327817517, 0
212, 0.6961695137641, -0.18551959799901, 0
213, 0.69068498694635, -0.19115238874923, 0
214, 0.68491727193085, -0.19673739381051, 0
215, 0.67895058359554, -0.20217984005931, 0
216, 0.67298045672954, -0.20731078347807, 0
217, 0.66703867963417, -0.21212750760573, 0
218, 0.66094064382874, -0.21679047170846, 0
219, 0.65457551451349, -0.22137391311079, 0
220, 0.6480809279489, -0.22576987919066, 0
221, 0.64157749471919, -0.22990392116497, 0
222, 0.6349434208385, -0.23385951440547, 0
223, 0.62803535984135, -0.23771189654449, 0
224, 0.62087212454907, -0.24143307388917, 0
225, 0.61363888689606, -0.24492081028464, 0
226, 0.60642137666086, -0.2481420760536, 0
227, 0.59901214273062, -0.25119035554423, 0
228, 0.59135646903937, -0.25407478262374, 0
229, 0.5837171244787, -0.2566932859695, 0
230, 0.57617017600275, -0.25903301658457, 0
231, 0.56868645112982, -0.26111715863031, 0
232, 0.56129127644513, -0.26295128662674, 0
233, 0.55394656231924, -0.26455579418334, 0
234, 0.54660607335984, -0.26594712459823, 0
235, 0.53918970226637, -0.26714072442718, 0
236, 0.53148776215278, -0.26815764176574, 0
237, 0.52345381642503, -0.26897940084342, 0
238, 0.51528252742381, -0.26956714094829, 0
239, 0.50712282302587, -0.26990602938239, 0
240, 0.4991381196529, -0.26999862422216, 0
241, 0.49119786651374, -0.26985648439118, 0
242, 0.48302656181557, -0.26946595622789, 0
243, 0.4746700760388, -0.26880921510753, 0
244, 0.46641039508105, -0.26790247881056, 0
245, 0.45854750673554, -0.26679897068403, 0
246, 0.45102765044731, -0.26552157769655, 0
247, 0.44362465409931, -0.26404889623347, 0
248, 0.43624215770249, -0.26236413145476, 0
249, 0.42882314968891, -0.26044933398678, 0
250, 0.4213439842444, -0.25828904405988, 0
251, 0.41406564349331, -0.25595953952168, 0
252, 0.40717078861975, -0.2535404059777, 0
253, 0.40032399357468, -0.2509276647938, 0
254, 0.3932982648952, -0.24802165022683, 0
255, 0.38625142475343, -0.24486988695347, 0
256, 0.37931044995344, -0.24152439238486, 0
257, 0.37251632409722, -0.23800821721621, 0
258, 0.36584775705846, -0.23431426596054, 0
259, 0.35915781718357, -0.23035511617818, 0
260, 0.3525057750135, -0.22615360486172, 0
261, 0.34606686047659, -0.22182107127874, 0
262, 0.33981133138589, -0.21734670494636, 0
263, 0.33365280160885, -0.21267018939757, 0
264, 0.32763546661503, -0.20782316238665, 0
265, 0.3217059809905, -0.2027590737433, 0
266, 0.31581005103955, -0.19741849591662, 0
267, 0.31014557159391, -0.19197733143676, 0
268, 0.30479548293896, -0.18653470359044, 0
269, 0.29965108838153, -0.18099810214514, 0
270, 0.2946036707971, -0.17524938780343, 0
271, 0.28964007033949, -0.1692592669577, 0
272, 0.28481268524825, -0.16307795271403, 0
273, 0.28015770760861, -0.15674618346082, 0
274, 0.27573725147653, -0.15035364840629, 0
275, 0.27148935379457, -0.14381545095518, 0
276, 0.26733638947942, -0.13699504906555, 0
277, 0.26336814458371, -0.13002063146039, 0
278, 0.25963300364588, -0.1229784819313, 0
279, 0.25614806693707, -0.1159147707507, 0
280, 0.25293058608611, -0.10888849263634, 0
281, 0.24995450703867, -0.10186879415642, 0
282, 0.24714531596599, -0.094681088877683, 0
283, 0.24447738712217, -0.08722495923879, 0
284, 0.24203978370375, -0.079727824661791, 0
285, 0.23987795623655, -0.072363818535655, 0
286, 0.23795073682628, -0.06503985934306, 0
287, 0.23622306216865, -0.05763441816307, 0
288, 0.23470212167523, -0.050170063498723, 0
289, 0.23340021021464, -0.042714775926095, 0
290, 0.23231186747202, -0.035257098673973, 0
291, 0.23142887651467, -0.027740779190163, 0
292, 0.23075564853445, -0.020186111383202, 0
293, 0.2302985422246, -0.012693436007305, 0
294, 0.23005019033488, -0.0052057049358513, 0
295, 0.23001106321594, 0.0024440869189369, 0
296, 0.23019403077578, 0.01023420558932, 0
297, 0.23059940469419, 0.017981062319787, 0
298, 0.23122238497726, 0.02566306290027, 0
299, 0.23206988435005, 0.033368441599827, 0
300, 0.23315890715836, 0.041180469615379, 0
301, 0.23449811663367, 0.049079009686836, 0
302, 0.2360683848341, 0.056921890863144, 0
303, 0.23786038753974, 0.064674750166553, 0
304, 0.23983531781515, 0.072210373198855, 0
305, 0.24195802485091, 0.079462810387213, 0
306, 0.24430135969309, 0.086707581286293, 0
307, 0.24690222531235, 0.09402933799309, 0
308, 0.24975446661309, 0.10137639102886, 0
309, 0.25288011123531, 0.10877389248718, 0
310, 0.25618085159698, 0.11598371519923, 0
311, 0.25957968276744, 0.12287420814239, 0
312, 0.26316179204438, 0.12964437027004, 0
313, 0.26698273582249, 0.13639264534753, 0
314, 0.27099597003385, 0.14302850714624, 0
315, 0.27517075140585, 0.14950521369485, 0
316, 0.27954371696248, 0.15588145035732, 0
317, 0.28423286172397, 0.16231001563362, 0
318, 0.28917621962962, 0.16868115864462, 0
319, 0.29413806046202, 0.17470220876672, 0
320, 0.29913352434517, 0.18042355213578, 0
321, 0.30433723651067, 0.18605397658283, 0
322, 0.30986851025168, 0.1917029380665, 0
323, 0.3156185978976, 0.19723969764519, 0
324, 0.32146856719792, 0.20255005962404, 0
325, 0.32740213807089, 0.20762942302632, 0
326, 0.33343054859839, 0.21249615944543, 0
327, 0.33959499398045, 0.21718709371709, 0
328, 0.34583907718081, 0.22166282721401, 0
329, 0.35228029342484, 0.2260063887396, 0
330, 0.35898393356566, 0.23024871123553, 0
331, 0.36581983654011, 0.23429827836449, 0
332, 0.37268971945483, 0.23810101122828, 0
333, 0.37948103617696, 0.24160955882615, 0
334, 0.38623708450871, 0.24486322501266, 0
335, 0.39318699177077, 0.24797374963074, 0
336, 0.40033591373586, 0.25093239950792, 0
337, 0.4074906460994, 0.25365728716784, 0
338, 0.41467921301786, 0.25616471844877, 0
339, 0.4220494619297, 0.25850282922227, 0
340, 0.42953293122555, 0.26064226753245, 0
341, 0.43696248383784, 0.26253813351025, 0
342, 0.44433252665947, 0.26419903821117, 0
343, 0.45173080192801, 0.26565030333358, 0
344, 0.45926099022502, 0.2669088475329, 0
345, 0.46709963846406, 0.26798799615823, 0
346, 0.47522234285919, 0.26886068320601, 0
347, 0.48340783459444, 0.26948970142681, 0
348, 0.4915028327452, 0.26986625908308, 0
349, 0.499424547625, 0.26999938669667, 0
350, 0.50741094528095, 0.26989827205443, 0
351, 0.51564224452409, 0.26954650672772, 0
352, 0.52388671423986, 0.26894130280339, 0
353, 0.53189671980478, 0.26810930471331, 0
354, 0.53954976181809, 0.26708765572494, 0
355, 0.54695545436589, 0.26588566044244, 0
356, 0.55431373470109, 0.26448065705487, 0
357, 0.56170224221138, 0.262855156151, 0
358, 0.56913601192044, 0.260998488501, 0
359, 0.57659475837416, 0.25890778722114, 0
360, 0.5839900152475, 0.25660412565518, 0
361, 0.59125534935467, 0.25411111897495, 0
362, 0.59846831131489, 0.25140403888193, 0
363, 0.605655500716, 0.24846914232989, 0
364, 0.6127733953042, 0.24532052763223, 0
365, 0.61982134991161, 0.24195628420284, 0
366, 0.6267994463706, 0.2383734454557, 0
367, 0.63371408133885, 0.2345645840716, 0
368, 0.64058851258721, 0.2305100217135, 0
369, 0.64737495340188, 0.22623134723795, 0
370, 0.65397328689983, 0.2217932055427, 0
371, 0.66028613160364, 0.21727483905789, 0
372, 0.66646097384662, 0.21258114705477, 0
373, 0.67260215898059, 0.20762585090754, 0
374, 0.67853357105974, 0.20254817490252, 0
375, 0.68432292990074, 0.1972943417841, 0
376, 0.68998929635065, 0.19184386121755, 0
377, 0.69541299743814, 0.18631628912563, 0
378, 0.70069461120118, 0.18061470673656, 0
379, 0.70586703321413, 0.17469620640581, 0
380, 0.71088738841368, 0.16860162836018, 0
381, 0.71572829037585, 0.16236164528546, 0
382, 0.72032294609201, 0.15606985222023, 0
383, 0.72465313431835, 0.14976972062895, 0
384, 0.7287338042612, 0.14346026018557, 0
385, 0.73264687895685, 0.13702346092189, 0
386, 0.73644559429002, 0.13035904512095, 0
387, 0.74009812730702, 0.12350258754208, 0
388, 0.74357590560586, 0.1164936797166, 0
389, 0.74682485510353, 0.10944172010694, 0
390, 0.74983594449233, 0.10238164256468, 0
391, 0.75268529762531, 0.095132224180898, 0
392, 0.75535435254579, 0.087716325589999, 0
393, 0.75779379505941, 0.080264304367893, 0
394, 0.75999591950475, 0.072815669989593, 0
395, 0.76196270626054, 0.065387614058981, 0
396, 0.76372569025999, 0.057868466054251, 0
397, 0.76529209180916, 0.050200653202945, 0
398, 0.76663821390367, 0.042474261767704, 0
399, 0.7677553491049, 0.03474294423077, 0
400, 0.76864066130804, 0.027059104206558, 0
401, 0.76928626404355, 0.019619038215007, 0
402, 0.76972624346421, 0.012155277473651, 0
403, 0.76996934616456, -0.0040665231460747, 0
404, 0.7698718139769, 0.0083192456877929, 0
405, 0.76952616208567, 0.0159888525704, 0
406, 0.76899747152455, 0.023245661711625, 0
407, 0.76822979348626, 0.030867101687328, 0
408, 0.76722490449997, 0.03861152036422, 0
409, 0.76599568720086, 0.046328108729707, 0
410, 0.76453212027669, 0.054062529766064, 0
411, 0.762864508191, 0.061662388278949, 0
412, 0.7610081142579, 0.069099663062765, 0
413, 0.75893081977306, 0.076516860112853, 0
414, 0.75660253868007, 0.08399486357479, 0
415, 0.75405220014033, 0.091419249734933, 0
416, 0.75126413207847, 0.098824769380337, 0
417, 0.74835740696739, 0.10591788259211, 0
418, 0.74524230975085, 0.11294339061172, 0
419, 0.74185811006972, 0.12001939012905, 0
420, 0.73828798143914, 0.12695998184371, 0
421, 0.73455472326264, 0.13373137791497, 0
422, 0.7306928338943, 0.14028833279414, 0
423, 0.72673116515672, 0.14660483598965, 0
424, 0.72253092647414, 0.15290515374911, 0
425, 0.71806996353728, 0.15920267259475, 0
426, 0.71334086186165, 0.16548618152315, 0
427, 0.70838842270612, 0.1716807047126, 0
428, 0.70330200971502, 0.1776746808465, 0
429, 0.69804470102635, 0.18351647437188, 0
430, 0.69274171734849, 0.18907836969191, 0
431, 0.68719719837806, 0.19456928843191, 0
432, 0.68140899574488, 0.19997693808982, 0
433, 0.67562170802043, 0.20507807204777, 0
434, 0.66954565453596, 0.21012917549683, 0
435, 0.66334083611386, 0.21498783770568, 0
436, 0.65719940971908, 0.21951843950716, 0
437, 0.65071425364731, 0.22402056524645, 0
438, 0.64400323020881, 0.22839235758435, 0
439, 0.63714265809049, 0.23257663355316, 0
440, 0.63025669399068, 0.23650199437739, 0
441, 0.62331531830518, 0.24019436332885, 0
442, 0.61630221418193, 0.24366738440235, 0
443, 0.6092210839739, 0.24692256676324, 0
444, 0.60206802499121, 0.24996423363756, 0
445, 0.59484829578155, 0.25279201050547, 0
446, 0.58764406498804, 0.25537916324372, 0
447, 0.58031885257706, 0.25777680512631, 0
448, 0.57285474878658, 0.25998497175467, 0
449, 0.56540318647736, 0.26195881877397, 0
450, 0.55798902446246, 0.26369920767478, 0
451, 0.5506279257907, 0.26521088357285, 0
452, 0.54327400296296, 0.2665095881477, 0
453, 0.53581781469067, 0.26761368305242, 0
454, 0.527968789911, 0.26854747444349, 0
455, 0.51979912775671, 0.26927308507853, 0
456, 0.51148163768762, 0.26975576346105, 0
457, 0.50333856631701, 0.26997935718252, 0
458, 0.49551064988318, 0.26996267311975, 0
459, 0.48749688893199, 0.26971034816484, 0
460, 0.47932259675223, 0.26920706706716, 0
461, 0.4711278438053, 0.26845185422012, 0
462, 0.46307885364315, 0.26746369486714, 0
463, 0.45545144468841, 0.26629950396164, 0
464, 0.44801960378127, 0.26494912406925, 0
465, 0.4406562600188, 0.26339764568629, 0
466, 0.433281145252, 0.26162682134033, 0
467, 0.42579923426579, 0.25960401817554, 0
468, 0.41831602041333, 0.25734748334249, 0
469, 0.41105952312791, 0.25493056052286, 0
470, 0.40393999011528, 0.25233405231679, 0
471, 0.39675228075692, 0.2494792746368, 0
472, 0.38964364770629, 0.24641727802593, 0
473, 0.38285240064059, 0.24326207898205, 0
474, 0.37613297704324, 0.2399103174144, 0
475, 0.36927288250354, 0.23624229206026, 0
476, 0.3623956931147, 0.23230379664616, 0
477, 0.35560286151124, 0.22814351978559, 0
478, 0.34898934973301, 0.22382087334073, 0
479, 0.34271963827979, 0.21946044641869, 0
480, 0.33650320466716, 0.21486925567281, 0
481, 0.33039233397884, 0.21007912551021, 0
482, 0.32444731856267, 0.20513716389181, 0
483, 0.31852793554269, 0.19991970725446, 0
484, 0.31274883565381, 0.19451735278299, 0
485, 0.30703048274104, 0.18884587583195, 0
486, 0.301684378388, 0.18322367261717, 0
487, 0.29662220174352, 0.17758792349684, 0
488, 0.29169486272756, 0.17178174781997, 0
489, 0.28670372494821, 0.16554364585454, 0
490, 0.28181101479834, 0.15903951307212, 0
491, 0.27732212416372, 0.15269107029823, 0
492, 0.2730649575995, 0.14628904836852, 0
493, 0.26897382609117, 0.13973870888078, 0
494, 0.26504010251695, 0.1330182183628, 0
495, 0.26133192421946, 0.126244004879, 0
496, 0.2578750195534, 0.11948009507331, 0
497, 0.2545371685543, 0.11246331984415, 0
498, 0.25127850169547, 0.10506005888555, 0
499, 0.24828498546251, 0.097670622985403, 0
500, 0.24557213899855, 0.0903684839245, 0
501, 0.24308325196716, 0.083028817657156, 0
502, 0.24088228938718, 0.075881562410292, 0
503, 0.23884035903808, 0.068524747524255, 0
504, 0.23693717058867, 0.060810750371626, 0
505, 0.23525708252761, 0.053020633938506, 0
506, 0.23379783061817, 0.045126538262608, 0
507, 0.23257847756083, 0.037225373876873, 0
508, 0.23161691694732, 0.029504581570898, 0
509, 0.23088283362759, 0.021816294633735, 0
510, 0.23037062850988, 0.014142182247308, 0
511, 0.23007407465041, 0.0063240804263329, 0
512, 0.23000382127824, -0.0014364114711369, 0
513, 0.23014917569031, -0.0089739837481996, 0
514, 0.23049917363934, -0.016410475471805, 0
515, 0.23106501872304, -0.023957781583554, 0
516, 0.23184594357144, -0.031518280814017, 0
517, 0.23282991697933, -0.038989051071277, 0
518, 0.23402245926658, -0.046432176378419, 0
519, 0.2354343114344, -0.053898017280282, 0
520, 0.23706457599471, -0.061359290475848, 0
521, 0.23888841635153, -0.068707641394908, 0
522, 0.24091869070362, -0.076005753782473, 0
523, 0.24321434474674, -0.083433370179097, 0
524, 0.2457964091949, -0.090997439103226, 0
525, 0.2485476009205, -0.098344751239717, 0
526, 0.2514108003598, -0.10537271670104, 0
527, 0.25450009000665, -0.11238235676696, 0
528, 0.25784686648948, -0.11942302622578, 0
529, 0.26147134333549, -0.1265072293477, 0
530, 0.26531669335024, -0.13350560021954, 0
531, 0.2694079632776, -0.14045395174393, 0
532, 0.27361974273015, -0.14714611249461, 0
533, 0.27790020607972, -0.15353071580258, 0
534, 0.28246175790912, -0.15992846216941, 0
535, 0.28720920465238, -0.16619289168592, 0
536, 0.29211511943963, -0.17229009145067, 0
537, 0.2971343469868, -0.17817274217926, 0
538, 0.30220717522529, -0.18378791689491, 0
539, 0.30742193065743, -0.1892450442173, 0
540, 0.31290797528582, -0.1946704224312, 0
541, 0.31875248819632, -0.20012330927228, 0
542, 0.32469779811191, -0.20535125514701, 0
543, 0.33060798565104, -0.21025304965623, 0
544, 0.33673210569, -0.21504323701648, 0
545, 0.34292305171291, -0.21960608365294, 0
546, 0.34924189725879, -0.22399105864859, 0
547, 0.35580066764483, -0.22826859576984, 0
548, 0.36254515370732, -0.23239226410344, 0
549, 0.36917723006071, -0.23618933654354, 0
550, 0.37588070010216, -0.23977989720196, 0
551, 0.38276471292334, -0.24321983176069, 0
552, 0.38976135521749, -0.24646995875214, 0
553, 0.39685700826561, -0.24952259066966, 0
554, 0.40381011245843, -0.25228457138345, 0
555, 0.41054785557912, -0.25475147305903, 0
556, 0.41759973919393, -0.2571190325487, 0
557, 0.4251048318482, -0.2594045364256, 0
558, 0.43255603255131, -0.26144083532291, 0
559, 0.43994091258137, -0.2632354562009, 0
560, 0.44731940095042, -0.26481078995084, 0
561, 0.45474547666012, -0.26618044166463, 0
562, 0.4623579743895, -0.2673631931593, 0
563, 0.47047051665624, -0.26838034432987, 0
564, 0.47887582705936, -0.26917237843229, 0
565, 0.48718132784201, -0.26969553436224, 0
566, 0.49521635621782, -0.2699576186557, 0
567, 0.50306006497064, -0.26998265758224, 0
568, 0.51118396781952, -0.26976826876671, 0
569, 0.51937755716818, -0.26930375040757, 0
570, 0.52752469599699, -0.26859335486731, 0
571, 0.53544396211549, -0.26766345439182, 0
572, 0.54292775308215, -0.26656557914222, 0
573, 0.55027549952146, -0.26527791783421, 0
574, 0.55760726597192, -0.26378286903586, 0
575, 0.56496329453682, -0.26206825450022, 0
576, 0.5723956953723, -0.26011317379617, 0
577, 0.57992855193097, -0.25789809196899, 0
578, 0.58748754611135, -0.2554328256934, 0
579, 0.59520432234148, -0.25265814196573, 0
580, 0.60279734491182, -0.24966518749153, 0
581, 0.61002284946338, -0.24656636411627, 0
582, 0.61723031924847, -0.24322222626028, 0
583, 0.62448663147481, -0.2395893949805, 0
584, 0.63155578025952, -0.23578184122606, 0
585, 0.6383029785706, -0.23188851951967, 0
586, 0.64482353648519, -0.22787308404387, 0
587, 0.6513077806616, -0.2236201137342, 0
588, 0.65780991014179, -0.21907996744842, 0
589, 0.66403816675183, -0.21445624040668, 0
590, 0.67000613574507, -0.20975679499821, 0
591, 0.67591959000271, -0.204822600729, 0
592, 0.68194188305296, -0.19949223264043, 0
593, 0.68785095359855, -0.19393818184135, 0
594, 0.69347771002464, -0.18832518411717, 0
595, 0.69882063881541, -0.18267554157867, 0
596, 0.70403434617058, -0.17683321304255, 0
597, 0.7090740915592, -0.17084502723594, 0
598, 0.71390734029674, -0.16475329783847, 0
599, 0.71849610574466, -0.15861731234383, 0
600, 0.7228633678124, -0.15242020436842, 0
601, 0.72703897431394, -0.14612769507092, 0
602, 0.73104298230824, -0.13971091621213, 0
603, 0.73491323956353, -0.13310059991899, 0
604, 0.7387137145626, -0.12615768569047, 0
605, 0.74242796509767, -0.1188641278616, 0
606, 0.74595027586831, -0.11139327399351, 0
607, 0.74909628108801, -0.10416833808837, 0
608, 0.75187337880051, -0.097261504430232, 0
609, 0.75452441374375, -0.090096182427701, 0
610, 0.75700290650068, -0.08276174235047, 0
611, 0.75923616092934, -0.075475906378058, 0
612, 0.76124320028762, -0.068205493776123, 0
613, 0.76302787711332, -0.060961754307844, 0
614, 0.76459723308974, -0.053742944813518, 0
615, 0.76599379123033, -0.046338991613385, 0
616, 0.76720869970126, -0.03872351093461, 0
617, 0.76820526896548, -0.031079471467852, 0
618, 0.76898140327936, -0.023430821727196, 0
619, 0.76953540336575, -0.015832533504296, 0
620, 0.76987749318365, -0.0081321244437875, 0
621, 0.45148547532478, -0.2757915298257, 0
622, 0.42362279073104, 0.28056815803674, 0
623, 0.21798237020949, -0.16412455216332, 0
624, 0.32588006872632, -0.2136043728195, 0
625, 0.058694916435617, -0.2191947223863, 0
626, 0.25970828808942, -0.12947391247175, 0
627, 0.28099138080206, -0.21630449587063, 0
628, 0.5690668189179, 0.26710227961506, 0
629, 0.77373681483695, -0.04148396071404, 0
630, 0.61705671020454, -0.26461366557311, 0
631, 0.062029168191228, 0.1820021374967, 0
632, 0.16230299832118, 0.27251716325647, 0
633, 0.054258549220834, 0.27194819455254, 0
634, 0.23940119785609, 0.1530565835325, 0
635, 0.24125678587034, 0.11828111914171, 0
636, 0.27439118324905, 0.17979667553584, 0
637, 0.31080359377704, 0.28828733750558, 0
638, 0.37652602696378, 0.25832443885342, 0
639, 0.35688838186037, 0.26011231600784, 0
640, 0.51004416943411, 0.27728237719267, 0
641, 0.46832265677317, 0.28801455021773, 0
642, 0.46506412436098, 0.27650674390744, 0
643, 0.39866438209441, 0.26020876368122, 0
644, 0.39414666341436, 0.26372279975979, 0
645, 0.45492132702085, 0.27172087608115, 0
646, 0.058201495245793, 0.12325115410926, 0
647, 0.054422370730394, 0.071533311977897, 0
648, 0.053628945759819, 0.021288519751203, 0
649, 0.059483900242344, -0.19175648142576, 0
650, 0.055053254402214, -0.031131975330158, 0
651, 0.057255466874251, -0.13782722192533, 0
652, 0.055418720988992, -0.084959878430573, 0
653, 0.50646203782291, -0.27442642769991, 0
654, 0.46889874149757, -0.29406417300998, 0
655, 0.47019885949544, -0.28277406479381, 0
656, 0.4121723084086, -0.29001043614221, 0
657, 0.41122821591196, -0.2674823946058, 0
658, 0.37011682627282, -0.25168021773111, 0
659, 0.38515943161518, -0.27978624110662, 0
660, 0.2587162141689, -0.18557096935955, 0
661, 0.38562241326277, -0.28995233077958, 0
662, 0.086391748932268, -0.2465797589754, 0
663, 0.95488493665886, 0.18595628108259, 0
664, 0.90694559985026, 0.24121238745103, 0
665, 0.86338708823435, 0.2419900131274, 0
666, 0.95285942459947, 0.2436733874247, 0
667, 0.77629409319845, 0.24906145619157, 0
668, 0.82188916503335, 0.24565545941918, 0
669, 0.69363499187094, 0.27037034905341, 0
670, 0.73079740495708, 0.26935165248432, 0
671, 0.64925268794225, 0.23105271623292, 0
672, 0.61773677155952, 0.27531611503751, 0
673, 0.47935884521036, 0.27382883606367, 0
674, 0.51939954122757, 0.29389793240854, 0
675, 0.54549698788643, 0.2872321128608, 0
676, 0.53234965105134, 0.28607177043896, 0
677, 0.61242926884021, 0.25104028482314, 0
678, 0.5914697217165, 0.28683587148511, 0
679, 0.56288432671778, 0.27137327676392, 0
680, 0.77907561323467, 0.0044688946069274, 0
681, 0.94860434312854, 0.068350676648865, 0
682, 0.95406470610208, 0.12747663579636, 0
683, 0.94013236983908, 0.0078480278379974, 0
684, 0.94394702998468, -0.10285298379334, 0
685, 0.94880635254869, -0.14908088193013, 0
686, 0.92782946274444, -0.055238860956876, 0
687, 0.49563346248027, -0.29421899413895, 0
688, 0.54220504120725, -0.27080926314669, 0
689, 0.53440559287351, -0.28538324433149, 0
690, 0.55378671833854, -0.28711222225479, 0
691, 0.59541489127893, -0.25745628829536, 0
692, 0.59888790077364, -0.25531323671499, 0
693, 0.54969874475536, -0.2755133576625, 0
694, 0.64931961511838, -0.2388063471882, 0
695, 0.60496763285464, -0.25418576796482, 0
696, 0.68586663576249, -0.26988616717888, 0
697, 0.73861760735285, -0.21962987429942, 0
698, 0.94924946475482, -0.19801633912797, 0
699, 0.79926708569343, -0.25378681995384, 0
700, 0.72405413517606, -0.23742022419894, 0
701, 0.89690578085514, -0.2493817238199, 0
702, 0.84531910460519, -0.25014593292028, 0
703, 0.94872690921155, -0.24884825940845, 0
704, 0.1846589407156, 0.16505240398991, 0
705, 0.21008289968259, 0.22264970330954, 0
706, 0.26356712675114, 0.13917794250484, 0
707, 0.26174789328409, 0.13250974966932, 0
708, 0.24541360389764, 0.13039086999332, 0
709, 0.26952730628859, 0.20283980666115, 0
710, 0.2291268976942, 0.12170210229251, 0
711, 0.25886942346295, 0.20254054084919, 0
712, 0.25757106056508, 0.12576916775117, 0
713, 0.17627938846271, 0.094104124428399, 0
714, 0.18872946728637, -0.02387412809945, 0
715, 0.17077359014322, 0.15578107685038, 0
716, 0.2130920649715, 0.12594308754738, 0
717, 0.21018637313083, 0.20512693733474, 0
718, 0.22808160035886, 0.16760541106159, 0
719, 0.2553247663828, 0.12257473264149, 0
720, 0.30635246291227, 0.2267621796496, 0
721, 0.31586289106822, 0.23489633975547, 0
722, 0.29853486089819, 0.21774208184565, 0
723, 0.29608952239096, 0.28681691424588, 0
724, 0.24272016509535, 0.27745742844941, 0
725, 0.26610231060207, 0.24964890274513, 0
726, 0.27908145669916, 0.19633710378112, 0
727, 0.32709082773104, 0.22454660013638, 0
728, 0.33570603798771, 0.22962269510415, 0
729, 0.32763778761795, 0.24141123019845, 0
730, 0.36620561649267, 0.23928183670076, 0
731, 0.36111004777916, 0.24875705948442, 0
732, 0.33180570685552, 0.26945419311579, 0
733, 0.34461143511879, 0.23357144146857, 0
734, 0.35445411379766, 0.25186021352457, 0
735, 0.36651783935922, 0.26341065136241, 0
736, 0.3382966260974, 0.25240924666246, 0
737, 0.35423120219009, 0.23205909468138, 0
738, 0.35081272888725, 0.28052895370074, 0
739, 0.37869754883992, 0.25265819498693, 0
740, 0.39536178335963, 0.25246380120986, 0
741, 0.37105864338269, 0.28181007528728, 0
742, 0.37689716698954, 0.2460162082154, 0
743, 0.34707304669653, 0.24596285351707, 0
744, 0.49537980204359, 0.28287516163191, 0
745, 0.49162867365986, 0.28867879518609, 0
746, 0.50622602330521, 0.27621402755709, 0
747, 0.4583890204832, 0.27017679364233, 0
748, 0.46980099274367, 0.27753193165131, 0
749, 0.4486957408855, 0.27323787043577, 0
750, 0.43917743079147, 0.28481564273738, 0
751, 0.43046567334407, 0.26958838365803, 0
752, 0.46194365734843, 0.28686118721208, 0
753, 0.4179643357098, 0.26688455001316, 0
754, 0.42473741413887, 0.26556745656805, 0
755, 0.41468735297632, 0.28158899784108, 0
756, 0.4132182786255, 0.27336394147686, 0
757, 0.39803105127992, 0.27093308917631, 0
758, 0.39588415973994, 0.25709269531918, 0
759, 0.29193156691928, 0.2026868797062, 0
760, 0.29671360389794, 0.18303771510529, 0
761, 0.30623538786415, 0.20467783107046, 0
762, 0.30234067231145, 0.2107180530389, 0
763, 0.29544640159249, 0.21283853183354, 0
764, 0.301666368065, 0.18738802675166, 0
765, 0.30328078891883, 0.19000986717798, 0
766, 0.29110927094467, 0.18385330754871, 0
767, 0.27161155683054, 0.21989717285895, 0
768, 0.31915160742218, 0.21856889172219, 0
769, 0.29070851474667, 0.17784704102369, 0
770, 0.24023253179503, 0.14638615260839, 0
771, 0.27171593349753, 0.19498200965598, 0
772, 0.26176146293845, 0.1506125183384, 0
773, 0.28763613828025, 0.17497426583979, 0
774, 0.26864684405267, 0.18525350879985, 0
775, 0.27207126125301, 0.16806672871495, 0
776, 0.21885742405509, 0.15438194326225, 0
777, 0.22781596304987, 0.1782505446772, 0
778, 0.23070725658825, 0.15003974368621, 0
779, 0.23827464721814, 0.13128393717742, 0
780, 0.27577230530908, 0.17198002807264, 0
781, 0.082620041984102, 0.089549259278363, 0
782, 0.25887804421457, 0.13112141644937, 0
783, 0.20371943852017, 0.15921541136135, 0
784, 0.19470525309315, 0.11439519955614, 0
785, 0.19979470243602, -0.073841202415635, 0
786, 0.23836752784577, 0.11380953631633, 0
787, 0.22722294937938, -0.058816202383969, 0
788, 0.23714639311329, 0.097337381130988, 0
789, 0.23354787839769, 0.063400279315352, 0
790, 0.21323064405032, -0.052453598828324, 0
791, 0.23400885517016, 0.072379600831225, 0
792, 0.2222321467681, 0.071312883439342, 0
793, 0.22829323959093, 0.063051957729321, 0
794, 0.22893270714833, 0.052156954196547, 0
795, 0.21032587972344, -0.071194406031661, 0
796, 0.19528090196975, 0.012594190323675, 0
797, 0.21823136426936, 0.096345082734742, 0
798, 0.226073202819, 0.10098919075041, 0
799, 0.23683871756326, 0.072427345187947, 0
800, 0.21441772202909, 0.074600467073913, 0
801, 0.23376981310556, 0.075693304667468, 0
802, 0.21533086326754, 0.0319991561871, 0
803, 0.21777694023728, 0.089435731263921, 0
804, 0.20929731401581, -0.055873334924719, 0
805, 0.19919944567834, -0.052541440177603, 0
806, 0.19446848616645, 0.027413346952047, 0
807, 0.22128523549634, -0.096744130981761, 0
808, 0.21081053405602, 0.097880779372939, 0
809, 0.22532133179452, 0.039486258994269, 0
810, 0.20016705728246, 0.049240530489539, 0
811, 0.22758168428284, 0.048042299068826, 0
812, 0.21054619358892, 0.089661849581256, 0
813, 0.22592022707647, 0.059541985837313, 0
814, 0.22636442344524, 0.043807230931012, 0
815, 0.23581807537185, 0.09278239275248, 0
816, 0.26855577057805, 0.15038942191834, 0
817, 0.25484463869343, 0.13224969614287, 0
818, 0.26165666722069, 0.13017033034006, 0
819, 0.21320030482816, -0.033039227254422, 0
820, 0.10554782737742, 0.018909653494411, 0
821, 0.29249320988335, -0.27392957278156, 0
822, 0.21399804300867, -0.23729450148463, 0
823, 0.29630173187874, -0.18101252392953, 0
824, 0.20012248639029, -0.12983211056808, 0
825, 0.2797862807272, -0.18662080931485, 0
826, 0.22601502166132, -0.10810761789669, 0
827, 0.24334263261672, -0.10536175011561, 0
828, 0.23660360649386, -0.12321071279923, 0
829, 0.31081811546003, -0.21719754565909, 0
830, 0.3096017466324, -0.22420472168189, 0
831, 0.19124400167538, -0.21028826204245, 0
832, 0.29311309130035, -0.21925600872925, 0
833, 0.26873014693402, -0.24351217482913, 0
834, 0.40355894694358, -0.2737855929589, 0
835, 0.27543355967725, -0.1793152594484, 0
836, 0.22842811382659, -0.02094704023966, 0
837, 0.22927140539228, -0.038862339768269, 0
838, 0.11635979680443, -0.033729679484071, 0
839, 0.20913951329537, -0.084180989837559, 0
840, 0.26884028102411, -0.16768987355937, 0
841, 0.18169028272492, -0.016337078307682, 0
842, 0.23287640915132, -0.071929808990525, 0
843, 0.10924868001984, -0.089421830335302, 0
844, 0.22359384246224, 0.05563091112311, 0
845, 0.21875999432174, -0.017798390992022, 0
846, 0.21775842797091, 0.042055234645483, 0
847, 0.18719024991531, -0.099265287412201, 0
848, 0.19515698821806, -0.040842206950604, 0
849, 0.20849001299229, 0.06075779043057, 0
850, 0.22367922620363, -0.017389541650271, 0
851, 0.12767907056943, 0.039274533700181, 0
852, 0.20997019790006, -0.046478450048358, 0
853, 0.20923995147172, -0.0017734444219644, 0
854, 0.22470139741493, -0.054180555067576, 0
855, 0.21753338606233, -0.033702616176169, 0
856, 0.22199566861757, -0.014348329633072, 0
857, 0.15872317341762, 0.10178065810269, 0
858, 0.15649006300824, -0.0052202811595422, 0
859, 0.20604067230481, 0.033399449196565, 0
860, 0.22234228774184, -0.05164287691019, 0
861, 0.1309097492785, 0.075381507429963, 0
862, 0.23442907127039, -0.080251774614535, 0
863, 0.20655885938497, -0.1159818102654, 0
864, 0.2001836270053, -0.099146194969193, 0
865, 0.229124968735, -0.11346955114689, 0
866, 0.20490514940164, -0.048902175144042, 0
867, 0.19857170704887, -0.081941362505484, 0
868, 0.28036480902234, -0.18178417761173, 0
869, 0.25462586582945, -0.17405469619575, 0
870, 0.22783229000643, -0.049725609275688, 0
871, 0.25454330581223, -0.16253349733532, 0
872, 0.18138845287141, -0.18302367649941, 0
873, 0.22336074376987, -0.10251355412488, 0
874, 0.26318444148871, -0.13728413491352, 0
875, 0.25719721479842, -0.12693007034769, 0
876, 0.221819433838, -0.038745775507467, 0
877, 0.24540564304122, -0.13100238029079, 0
878, 0.21387535594397, -0.10515972775639, 0
879, 0.2555586369789, -0.13107146383453, 0
880, 0.25204962860079, -0.12851805479722, 0
881, 0.48920367185508, -0.29384966294283, 0
882, 0.49146320191005, -0.28794721767146, 0
883, 0.49381967466817, -0.2737721907489, 0
884, 0.44366410795175, -0.29282376285829, 0
885, 0.46069966152528, -0.27717696631113, 0
886, 0.42865831135276, -0.26684996117769, 0
887, 0.49790357398441, -0.2741751847291, 0
888, 0.42854752004612, -0.26373599038026, 0
889, 0.37756207479428, -0.25721643167632, 0
890, 0.43712515615389, -0.29184218243597, 0
891, 0.45630244870382, -0.29383574142196, 0
892, 0.33650322039629, -0.23725375922046, 0
893, 0.43125830775599, -0.2802428053493, 0
894, 0.33642364252215, -0.22094686625221, 0
895, 0.28876751683436, -0.25486373140071, 0
896, 0.33926700638557, -0.2480439214694, 0
897, 0.35203726692122, -0.24426200056607, 0
898, 0.34038975780674, -0.2432171217398, 0
899, 0.33413873586369, -0.23101986429587, 0
900, 0.029050852250312, -0.21953504881374, 0
901, 0.33111348536437, -0.23537357723117, 0
902, 0.35931830704967, -0.23732943941509, 0
903, 0.36079195829545, -0.26635850862546, 0
904, 0.32823988243049, -0.27100422992501, 0
905, 0.37446621117524, -0.26535376963407, 0
906, 0.30876092732619, -0.26139703422864, 0
907, 0.11651999164197, -0.2475264760982, 0
908, 0.24091919506082, -0.17716976571217, 0
909, 0.31522647430497, -0.22048182863473, 0
910, 0.30611176797507, -0.20427973468168, 0
911, 0.28795114772558, -0.17267743569925, 0
912, 0.37020363280211, -0.2749769005299, 0
913, 0.40333747622862, -0.29052244811543, 0
914, 0.34686753406814, -0.25846318973425, 0
915, 0.35433374287349, -0.23098726992627, 0
916, 0.30319386392706, -0.29190351561286, 0
917, 0.3553156773415, -0.2571254485568, 0
918, 0.3754616068192, -0.28919547930189, 0
919, 0.36228978816027, -0.24270142900731, 0
920, 0.31127475341596, -0.24018309192541, 0
921, 0.43554288813457, -0.26987555444639, 0
922, 0.28660189018609, -0.17614647093196, 0
923, 0.27976581030775, -0.19169823859629, 0
924, 0.28851889882374, -0.21399231518923, 0
925, 0.23874510564641, -0.15863642452895, 0
926, 0.28992202479785, -0.18545956408784, 0
927, 0.26502242564785, -0.17248454227325, 0
928, 0.27400073704661, -0.18447014883827, 0
929, 0.29131448679446, -0.23757583451506, 0
930, 0.31681316371965, -0.21405947107757, 0
931, 0.26876259584779, -0.22992784815489, 0
932, 0.77441835207648, 0.15939326282924, 0
933, 0.73000673787137, 0.1799559893009, 0
934, 0.67520459725474, 0.2144667960164, 0
935, 0.72272728913832, 0.18763706023901, 0
936, 0.77968965571822, 0.14066302974043, 0
937, 0.76226373281424, 0.16608192958591, 0
938, 0.76640823932755, 0.12257805208056, 0
939, 0.75685917678758, 0.15416990957302, 0
940, 0.71363386718295, 0.18235921585458, 0
941, 0.72616251198101, 0.16846796584088, 0
942, 0.79807017978539, 0.1128123869336, 0
943, 0.80958543853501, 0.16124052583208, 0
944, 0.79157718737718, 0.17249930467625, 0
945, 0.77386145136834, 0.12991927280303, 0
946, 0.86816911236379, 0.21003868766382, 0
947, 0.76519446258338, 0.12646813236278, 0
948, 0.76611630934222, 0.17944631690174, 0
949, 0.91002147646402, 0.17782496969342, 0
950, 0.80446156437457, 0.19967933863751, 0
951, 0.66448268217855, 0.22218093058308, 0
952, 0.70033465297974, 0.2043510473757, 0
953, 0.68113106774448, 0.21872480439472, 0
954, 0.74897696907454, 0.21190519473422, 0
955, 0.6787157282761, 0.21176812640506, 0
956, 0.79109904203886, 0.10981457691943, 0
957, 0.70023369995807, 0.23591654745025, 0
958, 0.79365592394435, 0.1853068828573, 0
959, 0.67726756425607, 0.22165436151708, 0
960, 0.69675550050201, 0.22906601638102, 0
961, 0.68952730937119, 0.24859921525128, 0
962, 0.68817314114842, 0.23011165648056, 0
963, 0.61619369996613, 0.24908466080768, 0
964, 0.66290818418064, 0.23766022610446, 0
965, 0.66019022228366, 0.27776551018951, 0
966, 0.66178524703495, 0.26823841915498, 0
967, 0.61989355085205, 0.25931055903445, 0
968, 0.67128879927627, 0.25779994644722, 0
969, 0.64674377713289, 0.25343876702775, 0
970, 0.62437407303334, 0.2722088848436, 0
971, 0.60460272480547, 0.25453699688589, 0
972, 0.62240626520014, 0.28194257451382, 0
973, 0.60530509905911, 0.26606748969084, 0
974, 0.63488970314313, 0.2630846287999, 0
975, 0.52400207703165, 0.27757730299037, 0
976, 0.48428950981015, 0.27878599328396, 0
977, 0.49366663128278, 0.27834313432351, 0
978, 0.57638503357475, 0.2861759400928, 0
979, 0.54466056811693, 0.27612121327528, 0
980, 0.53590755798953, 0.2764204134176, 0
981, 0.52828828555853, 0.27696887169986, 0
982, 0.59051286600829, 0.27493691958303, 0
983, 0.57003317533247, 0.26345184171438, 0
984, 0.5697098729485, 0.27179692779889, 0
985, 0.56718937511673, 0.26470949463659, 0
986, 0.58051479527358, 0.26588593697691, 0
987, 0.56715281130607, 0.2842399721318, 0
988, 0.60423190462331, 0.2790851963761, 0
989, 0.62771670110143, 0.2530220657465, 0
990, 0.58930216718421, 0.26465342229711, 0
991, 0.65322157997492, 0.24705109341766, 0
992, 0.6245527606044, 0.26358990005336, 0
993, 0.63273068321536, 0.24032906147286, 0
994, 0.68355907727013, 0.23402197584097, 0
995, 0.78237248479176, 0.13507608187201, 0
996, 0.77995836043213, 0.16637620407904, 0
997, 0.68540811977146, 0.20632155365282, 0
998, 0.75625839823927, 0.21822081432747, 0
999, 0.76355053436414, 0.22583581831763, 0
1000, 0.70416525403327, 0.24516336437268, 0
1001, 0.77087541763004, 0.19814798815404, 0
1002, 0.69060850835045, 0.2195952834691, 0
1003, 0.71634162839425, 0.23691602907636, 0
1004, 0.72209192016581, 0.25719036591459, 0
1005, 0.74681807830502, 0.22581701075059, 0
1006, 0.70921385079961, 0.19815873336091, 0
1007, 0.66077664383338, 0.22455850689559, 0
1008, 0.80711181513586, 0.14249097805542, 0
1009, 0.76405309657192, 0.14704212874253, 0
1010, 0.77940651030253, 0.1071672432187, 0
1011, 0.77366022828169, 0.060137152238727, 0
1012, 0.77992074127094, 0.098421779330285, 0
1013, 0.76646721293757, 0.08581726166161, 0
1014, 0.76769167888026, 0.10841775245118, 0
1015, 0.76728720684917, 0.11534089800804, 0
1016, 0.7502884273299, 0.1703833620221, 0
1017, 0.7838417851634, 0.12915641460724, 0
1018, 0.80674490754955, 0.11696729733957, 0
1019, 0.7534114639009, 0.15723384202672, 0
1020, 0.77720252911804, 0.11359066847893, 0
1021, 0.74937103359972, 0.16027085991421, 0
1022, 0.74831715706443, 0.16630119810095, 0
1023, 0.82353446001581, 0.068315745146843, 0
1024, 0.80598391733386, 0.076800136573292, 0
1025, 0.79114094413654, 0.033872689281892, 0
1026, 0.80123182204148, 0.017031632358546, 0
1027, 0.77126351433532, 0.051128253926938, 0
1028, 0.76232228410684, 0.083050589877821, 0
1029, 0.78520609369321, 0.091236294953563, 0
1030, 0.78631890382956, 0.097122472048924, 0
1031, 0.7743336967917, 0.038756209903284, 0
1032, 0.78224610149054, 0.085068276969111, 0
1033, 0.77572484396386, 0.08362713464945, 0
1034, 0.78879818842211, 0.075707791477362, 0
1035, 0.78032338717461, 0.012064344276244, 0
1036, 0.77554535437907, 0.065529934355284, 0
1037, 0.8257662663288, 0.0052302346261671, 0
1038, 0.79647025609829, 0.04734449343254, 0
1039, 0.81260768510619, -0.0034677897494633, 0
1040, 0.77000692433616, 0.055040593817666, 0
1041, 0.77918484775655, 0.048134127478759, 0
1042, 0.77571007728638, 0.02601728951885, 0
1043, 0.80182097149488, 0.026171313551433, 0
1044, 0.78742181510124, 0.0016589531389595, 0
1045, 0.77567431647746, 0.021906200983978, 0
1046, 0.78743690946841, 0.0086805413761501, 0
1047, 0.76868599583207, 0.072470581528257, 0
1048, 0.82734952751991, 0.017555943465844, 0
1049, 0.8096056295313, 0.044219198962025, 0
1050, 0.78854854046673, 0.01739690424898, 0
1051, 0.8145408820775, 0.0063262898570997, 0
1052, 0.78307364014947, 0.029306684087897, 0
1053, 0.90804310118932, 0.11415626306776, 0
1054, 0.88700044898756, 0.047852752781708, 0
1055, 0.84595359291644, 0.054995732614411, 0
1056, 0.84268285444947, 0.020177204040045, 0
1057, 0.83281939069115, -0.0097692702153381, 0
1058, 0.77715826957202, -0.023588106766923, 0
1059, 0.86966520908696, -0.015509369128597, 0
1060, 0.88652153033711, -0.074223075436105, 0
1061, 0.88137220109432, -0.1025090043883, 0
1062, 0.85375996620789, -0.1494798587901, 0
1063, 0.78082340903836, -0.021082975047968, 0
1064, 0.7782479634126, -0.02730258441231, 0
1065, 0.86879964968902, -0.057332761598016, 0
1066, 0.79404501038938, -0.012175545131036, 0
1067, 0.76173082498781, -0.11601074657638, 0
1068, 0.81382059975243, -0.13339139589761, 0
1069, 0.77355653237137, -0.13177144442739, 0
1070, 0.79547269323345, -0.1227131662967, 0
1071, 0.74220247286849, -0.12769560595156, 0
1072, 0.76367264907198, -0.16105526571919, 0
1073, 0.72995129920397, -0.15305419893849, 0
1074, 0.7136080514293, -0.17842568562036, 0
1075, 0.74105873833075, -0.13747871714721, 0
1076, 0.77276392927067, -0.10252795717001, 0
1077, 0.78772538056684, -0.15156446920646, 0
1078, 0.90021048820841, -0.11664929965974, 0
1079, 0.7653470879058, -0.083288703823485, 0
1080, 0.80401747752295, -0.01943572173484, 0
1081, 0.78146917277274, -0.015004022016229, 0
1082, 0.76732141052126, -0.096264097754612, 0
1083, 0.78993472837454, -0.10122135716679, 0
1084, 0.80257106729674, -0.11177427074684, 0
1085, 0.76961045414638, -0.070962036774442, 0
1086, 0.81491557229265, -0.030089203289851, 0
1087, 0.81381343949517, -0.057528279416734, 0
1088, 0.74954671470949, -0.10959270766926, 0
1089, 0.79756435134111, -0.087598308209873, 0
1090, 0.77484829335181, -0.013695044561287, 0
1091, 0.83793301454053, -0.12718025730425, 0
1092, 0.80193241131369, -0.065995529670363, 0
1093, 0.78980956509034, -0.071138794263632, 0
1094, 0.758361142863, -0.10572329823717, 0
1095, 0.77067772328189, -0.066760781275294, 0
1096, 0.7723127896724, -0.058319917159161, 0
1097, 0.84764372987389, -0.074465363553855, 0
1098, 0.81475116871057, -0.065888853541444, 0
1099, 0.78126016999219, -0.044582676477667, 0
1100, 0.77272502414278, -0.088032123552714, 0
1101, 0.77598987583067, -0.010784021233245, 0
1102, 0.77438279693128, 0.002274386202025, 0
1103, 0.78697723238282, -0.021360604731899, 0
1104, 0.84722153878874, -0.061697098006457, 0
1105, 0.77227207054365, -0.01858499046988, 0
1106, 0.79072328003492, -0.053628850952981, 0
1107, 0.77359207777666, -0.045666336441977, 0
1108, 0.84450176222697, -0.0998789967904, 0
1109, 0.77357610492575, -0.0056389259959426, 0
1110, 0.79131959115034, -0.0044607338955601, 0
1111, 0.86294151532787, -0.10176184974992, 0
1112, 0.54695382556931, -0.293430439263, 0
1113, 0.54170865894126, -0.28654468794774, 0
1114, 0.47925338861288, -0.27303647796593, 0
1115, 0.47539696330038, -0.29391030329605, 0
1116, 0.53766485381982, -0.27409017045418, 0
1117, 0.55829114284988, -0.2692181140711, 0
1118, 0.55424492521202, -0.27528873961463, 0
1119, 0.64385073106149, -0.27832183284157, 0
1120, 0.51519974492918, -0.27877424470957, 0
1121, 0.60176292330766, -0.25315269208317, 0
1122, 0.6325299497119, -0.24764408667922, 0
1123, 0.64193204639765, -0.26823536234668, 0
1124, 0.58755484026087, -0.26127852175391, 0
1125, 0.58451608358205, -0.28379400856708, 0
1126, 0.60616349508188, -0.25123182163187, 0
1127, 0.73087514204921, -0.14527417705334, 0
1128, 0.70345326653245, -0.20102982997493, 0
1129, 0.74409993949739, -0.12377874160806, 0
1130, 0.68008311505203, -0.21881808515281, 0
1131, 0.68801077520891, -0.21322950339198, 0
1132, 0.70842725013061, -0.21541256442702, 0
1133, 0.69565228977915, -0.2073016490967, 0
1134, 0.76552636350485, -0.1485958954864, 0
1135, 0.73834761147516, -0.23188584548215, 0
1136, 0.71394349451962, -0.21948979901706, 0
1137, 0.72209787673428, -0.16452470953947, 0
1138, 0.73935588779849, -0.15088264721891, 0
1139, 0.75105259858394, -0.13810569311344, 0
1140, 0.72033075328068, -0.16801137989026, 0
1141, 0.71998219572599, -0.21979256077037, 0
1142, 0.70880694169413, -0.23096563289545, 0
1143, 0.69270505128272, -0.24674387161663, 0
1144, 0.68044922289921, -0.23439992475795, 0
1145, 0.69853801835881, -0.23494377340871, 0
1146, 0.69953653629377, -0.22180160118417, 0
1147, 0.69049570758166, -0.2279827099025, 0
1148, 0.67189177416659, -0.22390847242472, 0
1149, 0.66350305375126, -0.22818086953801, 0
1150, 0.64655925820427, -0.23633716043394, 0
1151, 0.66526507684892, -0.25406280368152, 0
1152, 0.66875105246765, -0.23886565818938, 0
1153, 0.65057322253164, -0.23640262868416, 0
1154, 0.67402810513413, -0.25260884268495, 0
1155, 0.65357012180977, -0.22748460968013, 0
1156, 0.65556637057472, -0.23145690594503, 0
1157, 0.66951175412341, -0.2744395725114, 0
1158, 0.58734208516877, -0.26790905731479, 0
1159, 0.61054460764641, -0.26397550919788, 0
1160, 0.60136874856833, -0.26643071211449, 0
1161, 0.59741967698157, -0.28991018924178, 0
1162, 0.89779298282347, -0.19940223992151, 0
1163, 0.79982170122142, -0.080357738325394, 0
1164, 0.70796044500227, -0.18512189259248, 0
1165, 0.76435670891905, -0.1084693874291, 0
1166, 0.72654765485113, -0.14965046184557, 0
1167, 0.75921930602435, -0.18287330244469, 0
1168, 0.71832094382044, -0.17151293063449, 0
1169, 0.75531779046855, -0.14093535377966, 0
1170, 0.75973228490847, -0.21673665990893, 0
1171, 0.77429620327349, -0.17894502140702, 0
1172, 0.7248892549569, -0.15776789068333, 0
1173, 0.79111773722167, -0.21000200391873, 0
1174, 0.72071660998223, -0.26717411004439, 0
1175, 0.70975786763287, -0.22293860581248, 0
1176, 0.63761028375648, -0.23793372144449, 0
1177, 0.65770041798117, -0.24048517196766, 0
1178, 0.66148532510051, -0.23471090454639, 0
1179, 0.77203675385409, 0.15033735177631, 0
1180, 0.83835923137262, 0.15641870146191, 0
1181, 0.091477173337444, 0.1401587771754, 0
1182, 0.11804091864293, 0.21419134564236, 0
1183, 0.27968647234965, 0.17553435813764, 0
1184, 0.25034076054552, -0.18202880336286, 0
1185, 0.24020541229654, -0.14622338056118, 0
1186, 0.23007078660564, -0.17053286785222, 0
1187, 0.89436591907175, -0.05493037841461, 0
1188, 0.83004473574337, -0.075064755152144, 0
1189, 0.92045325893952, -0.11151455583491, 0
1190, 0.75012894482808, 0.26439621318022, 0
1191, 0.69937967988051, 0.19492432492224, 0
1192, 0.76486367478561, 0.20863698167924, 0
1193, 0.652999567405, -0.24001147466273, 0
1194, 0.65204424253806, -0.23277298962289, 0
1195, 0.65019526602361, -0.22929742439295, 0
1196, 0.6028663211541, 0.2609430200556, 0
1197, 0.41448191221823, -0.28105769609146, 0
1198, 0.41681360996057, -0.26233977568534, 0
1199, 0.41268597620006, -0.26155784376311, 0
1200, 0.70699416444321, -0.19782775626708, 0
1201, 0.81147812288207, -0.20381370610766, 0
1202, 0.74967195832735, -0.13103324862736, 0
1203, 0.77356935536722, -0.21362743606989, 0
1204, 0.75114731348609, -0.14621036053971, 0
1205, 0.34526285661486, -0.23087145158745, 0
1206, 0.083001524664517, -0.27342732364174, 0
1207, 0.23156299520424, -0.053181088498609, 0
1208, 0.2282607715689, -0.052632619956963, 0
1209, 0.23406507141155, -0.10459121729783, 0
1210, 0.36065711769002, -0.25106746770167, 0
1211, 0.21741766980773, -0.19748186019196, 0
1212, 0.16633953323623, -0.27681946107312, 0
1213, 0.54386249911091, -0.28057865183322, 0
1214, 0.52406009284815, -0.27308929110662, 0
1215, 0.55011515625351, -0.27033237413347, 0
1216, 0.70443285260742, 0.28565673682086, 0
1217, 0.60733985440987, 0.25925544060258, 0
1218, 0.66582675447596, 0.24369802468307, 0
1219, 0.72706438224269, -0.19007776299421, 0
1220, 0.78152527348649, -0.19238313314363, 0
1221, 0.63707828927432, 0.2472857831277, 0
1222, 0.68694604811563, 0.2863878496481, 0
1223, 0.29032505823002, -0.28234186524451, 0
1224, 0.26603716567677, -0.26656956454203, 0
1225, 0.57072262453511, 0.26546116654013, 0
1226, 0.5766687408574, 0.26247982517147, 0
1227, 0.57188716677899, 0.26868928589112, 0
1228, 0.81057930679748, 0.1065438204976, 0
1229, 0.81868713342748, 0.19622193131834, 0
1230, 0.82725589046642, 0.1684145276114, 0
1231, 0.45324702648778, -0.27091353894198, 0
1232, 0.33234537760191, -0.24693732657055, 0
1233, 0.1126524711691, 0.24321435911769, 0
1234, 0.22880884521754, -0.034973419801227, 0
1235, 0.27945828428809, 0.18299839677854, 0
1236, 0.15494004547746, -0.2257440353604, 0
1237, 0.16982318789909, -0.14414708706482, 0
1238, 0.21139908968694, -0.12374678969914, 0
1239, 0.31664574162609, 0.25571287954417, 0
1240, 0.30889741512015, 0.26421903219332, 0
1241, 0.32141500824721, 0.23847882536173, 0
1242, 0.39259264487785, -0.28095140087252, 0
1243, 0.40713114125358, -0.2817190289305, 0
1244, 0.44143424720239, -0.26794709138272, 0
1245, 0.69277358040737, -0.25800712929876, 0
1246, 0.67743203599707, -0.26094469324368, 0
1247, 0.68224531370455, -0.2497793611055, 0
1248, 0.44685102024609, 0.29248348722257, 0
1249, 0.45422939810908, 0.29258974248834, 0
1250, 0.83260442067913, -0.14215551573776, 0
1251, 0.78128154844692, -0.059058979305726, 0
1252, 0.78076843650638, -0.039984636635418, 0
1253, 0.44004998787672, 0.26784480061816, 0
1254, 0.46357234334255, 0.28127116994657, 0
1255, 0.72847694889868, -0.14799725060843, 0
1256, 0.73583415630978, -0.17076840258844, 0
1257, 0.77198563829979, -0.11318854190001, 0
1258, 0.21842971733648, 0.082814149235943, 0
1259, 0.25032032394499, 0.12248214797929, 0
1260, 0.18578808747, -0.04205838552638, 0
1261, 0.20015853632933, -0.018724538705686, 0
1262, 0.8669070218249, 0.054381556832964, 0
1263, 0.86126001799829, 0.025125863451313, 0
1264, 0.84333111309501, 0.035525402999255, 0
1265, 0.64158849661441, 0.23465443707767, 0
1266, 0.63150290706053, 0.24221254912874, 0
1267, 0.80503077674488, 0.1817233409341, 0
1268, 0.74906906708149, 0.18088281347098, 0
1269, 0.81143110178681, 0.095989414488621, 0
1270, 0.86656735389198, 0.10196531348661, 0
1271, 0.42803328926651, -0.27596596342284, 0
1272, 0.35306295962346, -0.23384071273522, 0
1273, 0.32532547698302, -0.24525391154531, 0
1274, 0.28517174380928, -0.18383478593669, 0
1275, 0.29380762103671, -0.19751976566662, 0
1276, 0.33548669890408, 0.2605028707441, 0
1277, 0.67829738892301, 0.2293247842084, 0
1278, 0.67214418352999, 0.24102151472689, 0
1279, 0.66881033428487, 0.22721660794933, 0
1280, 0.42607846623516, -0.2715569232578, 0
1281, 0.44707048320834, -0.27475085490644, 0
1282, 0.39987113691125, -0.28161373900113, 0
1283, 0.7279874947572, -0.21204294231648, 0
1284, 0.30971852860675, -0.23194808482241, 0
1285, 0.27203795618935, -0.25760890334708, 0
1286, 0.28422230166782, 0.18556629513431, 0
1287, 0.21541838728548, 0.11350603272334, 0
1288, 0.21912816104557, -0.068893256274447, 0
1289, 0.20542398455834, -0.060479124474626, 0
1290, 0.20527609091481, 0.015003458332598, 0
1291, 0.22924231133255, 0.21950528739978, 0
1292, 0.099590900841989, 0.17269549301828, 0
1293, 0.73616158339575, 0.23148935289968, 0
1294, 0.68671961819054, 0.22275704373543, 0
1295, 0.71320442777455, 0.22179585761118, 0
1296, 0.29876421772836, -0.25861513990335, 0
1297, 0.32049086214037, -0.25686798535878, 0
1298, 0.35084459893447, -0.22925933181371, 0
1299, 0.22792992273333, 0.20435788684918, 0
1300, 0.28814859246913, 0.22964704861489, 0
1301, 0.32596822772269, 0.2587241078364, 0
1302, 0.30748125162918, 0.25117243383075, 0
1303, 0.30205553401792, 0.27480296387036, 0
1304, 0.16384048384847, 0.11712427568059, 0
1305, 0.085067166907914, 0.24240398253629, 0
1306, 0.24036196099231, 0.16895997196277, 0
1307, 0.29943943109733, 0.18529009520102, 0
1308, 0.27566973368717, 0.16156549272134, 0
1309, 0.10530138323156, 0.061320254367372, 0
1310, 0.14312487904411, 0.16102147726339, 0
1311, 0.16024028973405, 0.17263233947332, 0
1312, 0.61036352543912, 0.26420703631653, 0
1313, 0.62798650735265, 0.28999093033323, 0
1314, 0.63068559434934, 0.24961865795882, 0
1315, 0.84693422093503, -0.013819137699418, 0
1316, 0.2183018979346, -0.079396374518781, 0
1317, 0.17249922664105, 0.062986881183366, 0
1318, 0.29341835735485, 0.207786172231, 0
1319, 0.16419209799263, 0.24622488865168, 0
1320, 0.24969864885877, 0.13357025270734, 0
1321, 0.3066636836433, -0.2136575664871, 0
1322, 0.30944866736808, -0.20768793562995, 0
1323, 0.25462543474359, -0.12384688692358, 0
1324, 0.28253680907688, -0.20299388763644, 0
1325, 0.17948986820869, -0.12459508715854, 0
1326, 0.24258363030375, -0.13773029384519, 0
1327, 0.74271687923284, 0.17603959555794, 0
1328, 0.84940420193018, 0.097881870356685, 0
1329, 0.82245551199177, 0.095846215359583, 0
1330, 0.74633851167327, -0.15081010711798, 0
1331, 0.60376585026191, -0.27452918635212, 0
1332, 0.6089223283299, -0.25446878651735, 0
1333, 0.63307499622686, -0.2796859500328, 0
1334, 0.68477890828439, 0.21579794771276, 0
1335, 0.73667233930691, 0.25448600241152, 0
1336, 0.7079946391604, 0.25716701097794, 0
1337, 0.7261383153513, 0.23507508113123, 0
1338, 0.71455426526359, 0.21331817454245, 0
1339, 0.75345809897136, 0.24780937919231, 0
1340, 0.53539525132482, 0.28090270088127, 0
1341, 0.53208088041366, 0.27632678881972, 0
1342, 0.52909830437532, 0.2812498312139, 0
1343, 0.20631292880751, -0.15644769489925, 0
1344, 0.23178152589159, -0.14245116739505, 0
1345, 0.37968763741545, -0.26814818145633, 0
1346, 0.77854908339659, -0.073906726713983, 0
1347, 0.75119489762196, -0.11084553794761, 0
1348, 0.76849873332395, -0.10582702507521, 0
1349, 0.77179568532474, -0.15409915592477, 0
1350, 0.75497816147204, -0.15018860136266, 0
1351, 0.36130515282258, 0.28122189777304, 0
1352, 0.36285795428896, 0.24203814942372, 0
1353, 0.3724753697018, 0.27312815453511, 0
1354, 0.71507962251323, -0.20145371455068, 0
1355, 0.74098168400429, -0.14400408284666, 0
1356, 0.52483494131325, -0.27738881573679, 0
1357, 0.54035489752439, -0.2932522001891, 0
1358, 0.52583886491024, -0.28211104694682, 0
1359, 0.24857928380048, -0.12537637197789, 0
1360, 0.25879840506027, -0.21220385446023, 0
1361, 0.34257731690386, 0.23905512807958, 0
1362, 0.37428905955475, 0.26515925981811, 0
1363, 0.36509372917119, 0.25322182130974, 0
1364, 0.8145548650348, 0.072911384148831, 0
1365, 0.7909954287839, 0.066563030433187, 0
1366, 0.26357626403148, -0.15106387540559, 0
1367, 0.28601023411973, -0.1928142150677, 0
1368, 0.2856508732083, -0.17983556299375, 0
1369, 0.28380324438556, -0.23207153569407, 0
1370, 0.26214234414037, -0.13367968232527, 0
1371, 0.20255705360698, -0.030626618484448, 0
1372, 0.13317276320922, -0.093133210161014, 0
1373, 0.12881782425378, 0.021035098261507, 0
1374, 0.20139896352984, 0.067927988968409, 0
1375, 0.22852023777524, -0.031090496312424, 0
1376, 0.77480504878427, 0.12540495251067, 0
1377, 0.72857441049556, 0.19425629818879, 0
1378, 0.73377527721073, 0.1580918239716, 0
1379, 0.75295107238924, 0.16400190581678, 0
1380, 0.79019348813224, 0.14411436224523, 0
1381, 0.77485210338459, -0.017495711893997, 0
1382, 0.78162951754735, -0.0052208343723582, 0
1383, 0.75309143844131, -0.10975251048254, 0
1384, 0.77226824905519, 0.079061743753744, 0
1385, 0.76089854184697, 0.093123562472196, 0
1386, 0.7749920056954, -0.083487208793111, 0
1387, 0.75134150595144, -0.10715192531207, 0
1388, 0.79841229423724, -0.18514785003826, 0
1389, 0.73962634672937, -0.25666310637787, 0
1390, 0.24402615351162, -0.27207877483889, 0
1391, 0.23306105283367, -0.21496408062318, 0
1392, 0.30345152795682, -0.22814058201477, 0
1393, 0.72450856048308, -0.21975602203204, 0
1394, 0.75015311781524, -0.20250242296357, 0
1395, 0.81111739360886, -0.092647710509209, 0
1396, 0.86479160109757, -0.087715551601148, 0
1397, 0.90094514043227, -0.13445155731167, 0
1398, 0.78091540181985, 0.058678429427851, 0
1399, 0.77242245070855, 0.075415637192269, 0
1400, 0.79735032470666, 0.006587115137881, 0
1401, 0.12853800996054, 0.057307757044847, 0
1402, 0.21393647103006, 0.13992577838526, 0
1403, 0.27306126930817, 0.15788799929136, 0
1404, 0.78192320409932, 0.038945893290221, 0
1405, 0.77388432294245, -0.015629185695716, 0
1406, 0.80228843741369, -0.0088667054609199, 0
1407, 0.17569528141083, -0.0072131176079929, 0
1408, 0.21874680357997, -0.043750662895559, 0
1409, 0.21979430365828, -0.053953702384338, 0
1410, 0.77789949497735, -0.0034454622993788, 0
1411, 0.80596280418822, -0.036006307783498, 0
1412, 0.79245752997942, -0.029732611665802, 0
1413, 0.3013036814364, 0.24509523875954, 0
1414, 0.29258086644729, 0.24826725190928, 0
1415, 0.29524506332085, 0.22585841283563, 0
1416, 0.36349106360016, 0.27207731861255, 0
1417, 0.34641799046381, 0.25289158258409, 0
1418, 0.3694871689629, 0.24171228095115, 0
1419, 0.21784888601926, 0.068567898107247, 0
1420, 0.23195634944622, 0.059880358379984, 0
1421, 0.22983664244058, -0.042656644471502, 0
1422, 0.49434113591554, -0.28286320512858, 0
1423, 0.50454950565507, -0.2839384375049, 0
1424, 0.48592492237582, -0.2788622142333, 0
1425, 0.20904906148491, -0.015924334660365, 0
1426, 0.22248259880333, -0.025737395330663, 0
1427, 0.22841699857319, -0.027325754419888, 0
1428, 0.2250469310888, 0.066789582499565, 0
1429, 0.23273773095238, 0.068511468079743, 0
1430, 0.50380415351056, 0.27513931278477, 0
1431, 0.51463100800794, 0.2778398980622, 0
1432, 0.51289832129419, 0.28779183396943, 0
1433, 0.46256171952473, -0.29403359602373, 0
1434, 0.48234933738182, -0.29353801416303, 0
1435, 0.49940853501444, -0.28360783035049, 0
1436, 0.50834841964661, 0.28139093380445, 0
1437, 0.50408889809372, 0.27904035984758, 0
1438, 0.48816014542074, 0.27415379495861, 0
1439, 0.62375793078019, -0.27156522035646, 0
1440, 0.62373227431102, -0.25766965823688, 0
1441, 0.57298604900783, -0.2724058537851, 0
1442, 0.76003326682694, 0.10328269164199, 0
1443, 0.76890587041488, 0.088334844653728, 0
1444, 0.77631436374603, 0.09027123277966, 0
1445, 0.73939535218504, 0.16457907732493, 0
1446, 0.7384205976329, 0.15151750210837, 0
1447, 0.76275978948427, 0.15804489103722, 0
1448, 0.24705094424433, 0.10774517627634, 0
1449, 0.57151170908002, 0.2784140592731, 0
1450, 0.55630479024479, 0.26880830990092, 0
1451, 0.58012322053623, 0.27017261026471, 0
1452, 0.30965493829803, 0.19935401822237, 0
1453, 0.28453850518603, 0.17189383030315, 0
1454, 0.24897703047973, 0.11166726899831, 0
1455, 0.29912273976285, -0.24210218570045, 0
1456, 0.33707188377418, -0.22697063863966, 0
1457, 0.63293552753138, 0.24625182593749, 0
1458, 0.60855353476377, 0.25285688352232, 0
1459, 0.35753979850117, -0.23252450986702, 0
1460, 0.35739018477659, -0.24384086833591, 0
1461, 0.38024600789985, -0.24994704638195, 0
1462, 0.38851978074702, 0.25047279135362, 0
1463, 0.38330724111595, 0.25395991541434, 0
1464, 0.39423212791532, 0.25484145464467, 0
1465, 0.95500905970815, 0.15663997408588, 0
1466, 0.97744788279642, 0.18979613646133, 0
1467, 0.97714626370594, 0.13356769415424, 0
1468, 0.97753912089983, 0.16168321978792, 0
1469, 0.97119271948933, 0.019085176439688, 0
1470, 0.96705807640524, -0.039165256750539, 0
1471, 0.93509774197864, -0.022621859229327, 0
1472, 0.9692009218561, -0.009910339996251, 0
1473, 0.97107226276303, -0.09299069919575, 0
1474, 0.93815825613948, -0.079963668720608, 0
1475, 0.96857193157006, -0.066832873224457, 0
1476, 0.027690870368896, -0.083418592814332, 0
1477, 0.056028287551744, -0.11140306776799, 0
1478, 0.028545894637509, -0.13767315509748, 0
1479, 0.028057019627066, -0.11054803977518, 0
1480, 0.02734890167297, -0.02918101735856, 0
1481, 0.026857670717602, 0.0241735688734, 0
1482, 0.054180580493768, -0.0044790107516804, 0
1483, 0.027079909707594, -0.0023420579202631, 0
1484, 0.97412400818851, -0.14424476927439, 0
1485, 0.94730377964395, -0.12569351963385, 0
1486, 0.97295632245498, -0.11861059660366, 0
1487, 0.4832727059024, -0.27276530432891, 0
1488, 0.50974249390741, -0.28397198231068, 0
1489, 0.47995566026983, -0.27697485496462, 0
1490, 0.46479509774924, -0.28274439983573, 0
1491, 0.48904174947502, 0.2787138926779, 0
1492, 0.51381031313089, 0.28246433666911, 0
1493, 0.50699726353709, 0.2731208612785, 0
1494, 0.47971205425382, 0.28363456995198, 0
1495, 0.02935766060241, -0.19226916138447, 0
1496, 0.058572822353868, -0.16451545435118, 0
1497, 0.029080081505434, -0.16490456816223, 0
1498, 0.53531695651511, -0.27308229391193, 0
1499, 0.52674127299825, -0.28759266654133, 0
1500, 0.5588562295878, -0.27484256930233, 0
1501, 0.55991326544528, -0.29340577668485, 0
1502, 0.9749154233906, 0.076819201584925, 0
1503, 0.94479292853435, 0.038083547379241, 0
1504, 0.97316021863594, 0.047999697833489, 0
1505, 0.53122538346787, -0.28020109262823, 0
1506, 0.53900779665046, -0.27944805657318, 0
1507, 0.52655275043266, -0.29380196553283, 0
1508, 0.030193312287391, 0.18813206225816, 0
1509, 0.060720979305466, 0.15134011835117, 0
1510, 0.029216520092111, 0.13122506858553, 0
1511, 0.030068196352379, 0.15930565413173, 0
1512, 0.79326397761254, 0.052914179066189, 0
1513, 0.7914522798678, 0.027999485356116, 0
1514, 0.29998485337786, -0.21637043376483, 0
1515, 0.26872198030501, -0.2110478795402, 0
1516, 0.27611755644035, -0.23716896123912, 0
1517, 0.24762900493059, 0.1187472123602, 0
1518, 0.25144378132961, 0.16802462994055, 0
1519, 0.25871571652379, 0.13800658863413, 0
1520, 0.24853880877574, 0.13813466317964, 0
1521, 0.74598249876226, 0.15521087750377, 0
1522, 0.75768689353039, 0.14155776568789, 0
1523, 0.74080953819724, 0.1614871459537, 0
1524, 0.72021778592591, 0.17553858015136, 0
1525, 0.055918774501908, 0.096905239513825, 0
1526, 0.027412476128822, 0.077075910019875, 0
1527, 0.028230132366968, 0.10386958624739, 0
1528, 0.53250504141864, 0.29332939258319, 0
1529, 0.54580697952639, 0.29352064755581, 0
1530, 0.5393042311349, 0.28709260240539, 0
1531, 0.53922963465487, 0.29349049417507, 0
1532, 0.51969480832754, -0.27367579134448, 0
1533, 0.55930532152029, -0.28074160692556, 0
1534, 0.5320435367324, -0.27138823483031, 0
1535, 0.54527611887874, -0.27544795405024, 0
1536, 0.54931038383847, 0.27554383409292, 0
1537, 0.58052182540897, 0.26181017145277, 0
1538, 0.54398706385664, 0.27121064202181, 0
1539, 0.54809864282557, 0.27059659356785, 0
1540, 0.42508550543249, -0.2674058699527, 0
1541, 0.45439531414456, -0.28182581744648, 0
1542, 0.4324201834754, -0.27289766135443, 0
1543, 0.21210710876854, 0.05057259928737, 0
1544, 0.15104807716557, -0.032639720346073, 0
1545, 0.22526282793692, -0.019817835370101, 0
1546, 0.22358596347891, 0.00015394584866035, 0
1547, 0.76623101531858, 0.065858381041042, 0
1548, 0.8126436077109, 0.035950981127687, 0
1549, 0.60060755149169, 0.25608732925762, 0
1550, 0.64510132103088, 0.25955361746276, 0
1551, 0.60889965189099, 0.29251770129032, 0
1552, 0.65996620296173, 0.23208581017426, 0
1553, 0.66862898620115, 0.25033235800514, 0
1554, 0.65311286507516, 0.22900934390413, 0
1555, 0.61799530089493, 0.29157903087717, 0
1556, 0.61939167320001, 0.26686487060707, 0
1557, 0.8963846950131, -0.27468751224228, 0
1558, 0.92296343495091, -0.24916666671066, 0
1559, 0.94843716397861, -0.2744202530287, 0
1560, 0.92239706202761, -0.27457076901782, 0
1561, 0.4705146845239, 0.27289308799617, 0
1562, 0.47463654734607, 0.27820877100869, 0
1563, 0.52543760924648, 0.28758536374394, 0
1564, 0.47492535590348, 0.27344177821401, 0
1565, 0.76993290220745, 0.08604896193951, 0
1566, 0.76174162711697, 0.086419758976265, 0
1567, 0.77029814376484, 0.090314850467461, 0
1568, 0.79302874591387, 0.089277722307052, 0
1569, 0.82919452018065, -0.08583476828234, 0
1570, 0.82019569138314, -0.037050838418336, 0
1571, 0.77702049246158, -0.0072644753409038, 0
1572, 0.64403369402744, -0.2332499677889, 0
1573, 0.64930241168859, -0.2499763326306, 0
1574, 0.66068202898472, -0.2235306050476, 0
1575, 0.6340263311997, -0.24028033224808, 0
1576, 0.90209859644941, 0.27084483595184, 0
1577, 0.88497330109865, 0.241019149064, 0
1578, 0.85468031299667, 0.27157306939106, 0
1579, 0.87834004157034, 0.27092747648918, 0
1580, 0.94936565212404, -0.17319755199457, 0
1581, 0.97465610275623, -0.19627365585917, 0
1582, 0.97453310635251, -0.17013553944989, 0
1583, 0.2115697872975, 0.18968132047434, 0
1584, 0.43785474537856, -0.26665049744652, 0
1585, 0.33934535541359, -0.27085177976341, 0
1586, 0.055206993430881, -0.05818540477419, 0
1587, 0.027494656673867, -0.056292620287167, 0
1588, 0.34724296116542, -0.22736106023729, 0
1589, 0.32814841943581, -0.24010622695441, 0
1590, 0.32569176873874, -0.2331352336552, 0
1591, 0.95227734577509, 0.098174144402753, 0
1592, 0.97635089340703, 0.10531959533282, 0
1593, 0.22421246729577, 0.083504891524565, 0
1594, 0.22614546676296, -0.07544139342552, 0
1595, 0.21184714002732, 0.081763320885501, 0
1596, 0.21250964842085, 0.10594047786481, 0
1597, 0.50179268776379, -0.29444293927305, 0
1598, 0.53855541956214, -0.27075164527083, 0
1599, 0.52825262464213, -0.27230270059554, 0
1600, 0.54610116321282, -0.27066636069377, 0
1601, 0.89433234082222, -0.090086493181293, 0
1602, 0.44423679933826, 0.27326647506328, 0
1603, 0.45448882736603, 0.2758477163066, 0
1604, 0.44816663098516, 0.26902482187373, 0
1605, 0.77018902586889, 0.13882068769671, 0
1606, 0.74054202310404, 0.1483027760313, 0
1607, 0.75504216478673, 0.12405329772508, 0
1608, 0.42490414611603, -0.26341442468968, 0
1609, 0.4573977231102, -0.27161386370687, 0
1610, 0.43105749794618, -0.26629221692261, 0
1611, 0.32935008076324, -0.25821985973962, 0
1612, 0.1486161178835, -0.15267059881025, 0
1613, 0.11128144772387, -0.27392650481339, 0
1614, 0.29330559445404, -0.18018341720715, 0
1615, 0.63808439869155, 0.24336749873382, 0
1616, 0.60018627462874, 0.2675800434807, 0
1617, 0.65938179197579, 0.24569819162285, 0
1618, 0.63525863405975, 0.25141824187822, 0
1619, 0.14859708653108, 0.03876357723856, 0
1620, 0.18923688607732, -0.067695302286491, 0
1621, 0.20980659180504, -0.025174791791195, 0
1622, 0.65696212073883, 0.22683916990288, 0
1623, 0.62406632454294, 0.2562860583342, 0
1624, 0.20404156201625, 0.080308215373863, 0
1625, 0.48009101272962, 0.28891261720707, 0
1626, 0.47947807068734, 0.2786147680276, 0
1627, 0.48676637590491, 0.29439526761262, 0
1628, 0.77914274425027, -0.16141300068136, 0
1629, 0.71384241622356, -0.19112955522741, 0
1630, 0.95431620724366, 0.21502687737895, 0
1631, 0.97636037896628, 0.24547517991131, 0
1632, 0.97707721451813, 0.21775654044554, 0
1633, 0.2254970557084, -0.1242175542652, 0
1634, 0.26471578510973, -0.14121209252256, 0
1635, 0.26660572774072, -0.14519264641985, 0
1636, 0.77317319036709, 0.068116431849398, 0
1637, 0.79002386554314, 0.039572277110115, 0
1638, 0.82187733921237, -0.0062937229138803, 0
1639, 0.21512191000449, 0.055480860676151, 0
1640, 0.14921261416435, 0.023816730455323, 0
1641, 0.23071823473391, -0.12955406682276, 0
1642, 0.21706616006277, -0.11189914797577, 0
1643, 0.29749245436382, -0.23258397218504, 0
1644, 0.19995440804498, -0.19180914623607, 0
1645, 0.28469353499675, -0.24322680499908, 0
1646, 0.29109557504233, -0.22773736138202, 0
1647, 0.73244577601763, -0.19874719934454, 0
1648, 0.72713598782951, -0.20268858827927, 0
1649, 0.71109763347141, -0.2047547343526, 0
1650, 0.26032130201499, 0.14622363114114, 0
1651, 0.25883541138636, 0.21319083880393, 0
1652, 0.26359107693267, 0.15503852427919, 0
1653, 0.47488205994229, -0.27310468909749, 0
1654, 0.50562116947106, -0.27907887470161, 0
1655, 0.49002826254835, -0.27316323819076, 0
1656, 0.48390923516771, -0.27593698199469, 0
1657, 0.49751249418056, -0.28870444378542, 0
1658, 0.46547209766436, -0.27755929699046, 0
1659, 0.46979359085652, -0.28825238246249, 0
1660, 0.48670713919676, -0.27255542999217, 0
1661, 0.63834276617919, 0.2396928530313, 0
1662, 0.59658430672357, 0.25750752280493, 0
1663, 0.61170923452014, 0.25731893815503, 0
1664, 0.57566384070205, 0.26972034162101, 0
1665, 0.55850141317367, 0.28604212327704, 0
1666, 0.57407597517583, 0.27377143761704, 0
1667, 0.25599050452011, 0.12881564315299, 0
1668, 0.26875769006044, 0.16387231609816, 0
1669, 0.4849762730222, 0.28372645051535, 0
1670, 0.51520730391885, 0.27361181149536, 0
1671, 0.48583212779025, 0.28893784580562, 0
1672, 0.50510708707755, 0.28643714289178, 0
1673, 0.52004218463032, -0.27825075921157, 0
1674, 0.80136057426814, -0.073163630389266, 0
1675, 0.80173774131747, -0.059015895038944, 0
1676, 0.29288767278842, 0.1892825695357, 0
1677, 0.31526371568185, 0.2056312635377, 0
1678, 0.26596643070891, 0.1595333259913, 0
1679, 0.45518836449938, 0.26928787032781, 0
1680, 0.43957729336446, 0.29228459329478, 0
1681, 0.45028733572613, 0.27795982642089, 0
1682, 0.4979916716275, 0.27757749871753, 0
1683, 0.51925221118761, 0.28802237963808, 0
1684, 0.50152966345911, 0.27636667032811, 0
1685, 0.52387932920143, 0.27318922563754, 0
1686, 0.69412825042166, 0.23358059083197, 0
1687, 0.688612482905, 0.21291106392611, 0
1688, 0.66830451974933, 0.23523112107443, 0
1689, 0.68274671762262, 0.2260509907998, 0
1690, 0.24746361637299, -0.11313922482393, 0
1691, 0.74404171539937, -0.16365166734137, 0
1692, 0.7475855216128, -0.14288586422056, 0
1693, 0.76009574488265, -0.14433585222195, 0
1694, 0.72274107111547, -0.22591114529663, 0
1695, 0.61431333711717, 0.28414356382083, 0
1696, 0.63257776753195, 0.255644595408, 0
1697, 0.23185668344836, 0.099088831847727, 0
1698, 0.22474569602465, 0.095101289531825, 0
1699, 0.24213064216098, 0.095673657289432, 0
1700, 0.23060891471397, 0.066077466268065, 0
1701, 0.67609286614867, -0.22145816002389, 0
1702, 0.66791068164726, -0.21909641118609, 0
1703, 0.67497199622225, -0.21423284416545, 0
1704, 0.67143566029984, -0.21671100419681, 0
1705, 0.19693913884229, 0.0056096966244977, 0
1706, 0.21807701569195, -0.028693616480727, 0
1707, 0.19342752305712, -0.058586591721999, 0
1708, 0.7807193709875, -0.064017732505279, 0
1709, 0.7357864214703, 0.15488172513021, 0
1710, 0.75584727480185, 0.18727090690414, 0
1711, 0.72899125071299, 0.16489568314699, 0
1712, 0.20552211067581, -0.011736491226601, 0
1713, 0.7715794221949, -0.062543363500384, 0
1714, 0.77240886754237, -0.012769566079023, 0
1715, 0.48142818328003, -0.28122233403561, 0
1716, 0.43895148885605, -0.27178670902548, 0
1717, 0.46384619253406, -0.28824908011117, 0
1718, 0.34787261941833, 0.24011217066233, 0
1719, 0.36584780233545, 0.24526542578907, 0
1720, 0.78225689399225, 0.020034513208364, 0
1721, 0.80099135144317, 0.034028019585174, 0
1722, 0.73544382654176, -0.14473355050277, 0
1723, 0.76869750369066, -0.16872771930908, 0
1724, 0.7173506133116, -0.18743821295322, 0
1725, 0.56643438588875, 0.27509699818628, 0
1726, 0.57310252276604, 0.26297135643414, 0
1727, 0.56639918807891, 0.26920479862031, 0
1728, 0.75758017549816, 0.11696637887157, 0
1729, 0.76779432939237, 0.11179078499137, 0
1730, 0.75902342923401, 0.11010006704123, 0
1731, 0.75818341925657, 0.11357442246947, 0
1732, 0.41542081083373, -0.27384869001683, 0
1733, 0.43990329316794, -0.27799699826186, 0
1734, 0.4412970672929, -0.28520828278457, 0
1735, 0.3453478659977, 0.26115739672895, 0
1736, 0.36069644220402, 0.23906491682811, 0
1737, 0.26664202097673, 0.14660456047302, 0
1738, 0.26936418545542, 0.17600586631643, 0
1739, 0.21621635980575, -0.014617434652473, 0
1740, 0.18681440460017, 0.00042771666146274, 0
1741, 0.32295166792858, 0.22167620098398, 0
1742, 0.33193723574106, 0.21964201801136, 0
1743, 0.32492693933056, 0.2143669227853, 0
1744, 0.32840677029001, 0.21705506557692, 0
1745, 0.82624335732956, 0.1412488977676, 0
1746, 0.76409288031886, 0.13024026718116, 0
1747, 0.76730468444707, 0.15451641131652, 0
1748, 0.7608118871353, 0.15064131187141, 0
1749, 0.38767627732996, 0.25471577612926, 0
1750, 0.38022879504091, 0.28203509557927, 0
1751, 0.4137478475806, 0.26116574579561, 0
1752, 0.38805856064683, 0.26549440317771, 0
1753, 0.22366308013594, -0.022335338050766, 0
1754, 0.2082391763822, -0.032063256562359, 0
1755, 0.22264757253078, 0.013026372613223, 0
1756, 0.28153369436199, -0.17745568943233, 0
1757, 0.29797866886757, -0.19352571664942, 0
1758, 0.31571166381681, -0.20530724647825, 0
1759, 0.59381888269689, 0.26364542410119, 0
1760, 0.67381655454593, 0.27656557078896, 0
1761, 0.5885221303065, 0.25994724042367, 0
1762, 0.59255352393347, 0.25879224688087, 0
1763, 0.72836481951733, -0.16747682812623, 0
1764, 0.78092468743829, 0.19977632640853, 0
1765, 0.70276293886865, 0.21135423636909, 0
1766, 0.72687321813334, 0.21598695789646, 0
1767, 0.69581177410232, 0.1978610192609, 0
1768, 0.26276194752718, -0.22145870219846, 0
1769, 0.28559977355798, -0.22230389972197, 0
1770, 0.22496198927156, -0.050150220334618, 0
1771, 0.22562867609553, -0.038768363715921, 0
1772, 0.63790313397421, 0.23616045033532, 0
1773, 0.16879649094675, 0.050297831369799, 0
1774, 0.21332768187036, -0.039085142386348, 0
1775, 0.79644794937135, -0.0063940454177842, 0
1776, 0.77302390654337, -0.0093885365483248, 0
1777, 0.84034842837643, -0.037511715017269, 0
1778, 0.76837169611614, -0.07513343991683, 0
1779, 0.35876098650235, -0.24738419389502, 0
1780, 0.32475903011738, -0.21974531949091, 0
1781, 0.28400616490253, -0.26245078469131, 0
1782, 0.73560730989657, -0.15761529218321, 0
1783, 0.73029437979971, -0.18564180797683, 0
1784, 0.21938530163733, -0.024197575589124, 0
1785, 0.23646820099103, -0.13415207340484, 0
1786, 0.35365916162485, -0.25263760305271, 0
1787, 0.45807961178815, -0.28796614864795, 0
1788, 0.36445656431529, -0.24567780170568, 0
1789, 0.57778385094349, -0.27119253180386, 0
1790, 0.63252744116346, -0.27062833151974, 0
1791, 0.61816557739622, -0.25324358045299, 0
1792, 0.053581892943415, 0.046479088972111, 0
1793, 0.026982110712868, 0.050606243493645, 0
1794, 0.19479050540689, 0.18657410149504, 0
1795, 0.27842453904648, 0.21006086190305, 0
1796, 0.27580141282016, 0.22774115507712, 0
1797, 0.312020302249, 0.21190511074233, 0
1798, 0.85802743711631, -0.13218109358971, 0
1799, 0.79842202476689, -0.025247290542949, 0
1800, 0.77375275827808, -0.03735393519383, 0
1801, 0.66645934855365, -0.26351173474199, 0
1802, 0.66428733933942, -0.24642919783669, 0
1803, 0.65757991978767, -0.24622510257311, 0
1804, 0.55222031326038, 0.26980589570722, 0
1805, 0.57648268356851, 0.26602707872763, 0
1806, 0.4493717926914, -0.28094452233602, 0
1807, 0.3227394047616, -0.25083917211285, 0
1808, 0.35636479195826, -0.23482272718015, 0
1809, 0.31672101927105, -0.27734940041122, 0
1810, 0.74015441949872, -0.13149746450082, 0
1811, 0.72928559229723, -0.16353834296673, 0
1812, 0.39469758280648, -0.29042836528581, 0
1813, 0.4500053045576, -0.2934510369858, 0
1814, 0.43282822901334, -0.26790629266483, 0
1815, 0.76722162113092, 0.11882227796177, 0
1816, 0.75641115403123, 0.12049763617978, 0
1817, 0.46598673132385, -0.27264558581179, 0
1818, 0.49214024367956, -0.27753885944427, 0
1819, 0.75036059228736, -0.11666172647608, 0
1820, 0.76653701219111, -0.11489280889232, 0
1821, 0.79423212931228, -0.094609219155121, 0
1822, 0.75302356101098, -0.12141360581139, 0
1823, 0.54113520916484, -0.27499454093263, 0
1824, 0.47578059945128, -0.28237351210699, 0
1825, 0.51459327820241, -0.28898447880509, 0
1826, 0.21451258381192, -0.060886474397174, 0
1827, 0.21431049504604, 0.021660306835648, 0
1828, 0.20826424734877, 0.071802489502803, 0
1829, 0.34014063901406, 0.23175789494676, 0
1830, 0.36330138538016, 0.23688512048989, 0
1831, 0.33926768526002, 0.22440834736814, 0
1832, 0.34299909099484, 0.22657499345396, 0
1833, 0.52444069339267, 0.28226872104633, 0
1834, 0.49657452256634, 0.27378111603278, 0
1835, 0.75188283199865, 0.19428684312117, 0
1836, 0.77119605742606, 0.23532913239612, 0
1837, 0.79200287178201, 0.20056559034626, 0
1838, 0.71843700399824, 0.20193494688187, 0
1839, 0.23647126860876, -0.10920022946881, 0
1840, 0.24209638307776, -0.11783025567974, 0
1841, 0.73796995615246, -0.13519496509708, 0
1842, 0.027043314760258, 0.27274104589884, 0
1843, 0.3467569959595, 0.22858499080553, 0
1844, 0.13589142387062, 0.27222376168375, 0
1845, 0.23052517266779, 0.093931345035506, 0
1846, 0.23436715695266, 0.070091831017452, 0
1847, 0.20201119045069, 0.099950784187868, 0
1848, 0.76600088105778, 0.088821411876147, 0
1849, 0.82584657314705, 0.04095156429655, 0
1850, 0.77692452236701, 0.078862515538776, 0
1851, 0.23757124909893, -0.22973028449181, 0
1852, 0.23722305188575, -0.28532333311281, 0
1853, 0.23040570414344, 0.056119460403292, 0
1854, 0.17316899230514, -0.070811060734347, 0
1855, 0.23364380772243, 0.10417669490478, 0
1856, 0.6995612083554, -0.20420946989625, 0
1857, 0.68871226115265, -0.20337863267249, 0
1858, 0.69211567208811, -0.20047401017942, 0
1859, 0.57926849374497, 0.27485254404679, 0
1860, 0.55612609235835, 0.27990928315523, 0
1861, 0.75342576182533, 0.12762920174089, 0
1862, 0.75188264087453, 0.14864580526553, 0
1863, 0.57168800992568, -0.28595260384315, 0
1864, 0.56351752798146, -0.27421032247781, 0
1865, 0.56242349238953, -0.26847726168846, 0
1866, 0.42201006829556, 0.266336391431, 0
1867, 0.42522066591932, 0.26291082838306, 0
1868, 0.41790185443235, 0.26199319473615, 0
1869, 0.42179170001947, 0.262490988438, 0
1870, 0.42403171589351, 0.29090156797888, 0
1871, 0.40702834542038, 0.29081438701793, 0
1872, 0.41554819540615, 0.29081617636942, 0
1873, 0.76410372731165, -0.13750171747363, 0
1874, 0.77013535247629, -0.092309788604582, 0
1875, 0.77288727552049, -0.054095719814253, 0
1876, 0.77600271525941, -0.020260634423227, 0
1877, 0.7900976042655, -0.048093204434352, 0
1878, 0.19470678198906, -0.16835069431769, 0
1879, 0.26139966681977, -0.14630294593033, 0
1880, 0.72036809803384, -0.18365364388036, 0
1881, 0.72943567358711, -0.15027952145927, 0
1882, 0.77418586715037, 0.21322061505826, 0
1883, 0.73432238154412, 0.21173458727815, 0
1884, 0.20906575535095, -0.1767743744959, 0
1885, 0.34691851276173, -0.23984637017887, 0
1886, 0.7812840533219, 0.015902403368297, 0
1887, 0.77519747552194, 0.014037558915479, 0
1888, 0.77547631343514, 0.017925862121699, 0
1889, 0.29533792033554, -0.26598635750169, 0
1890, 0.45953618432758, -0.28241711642548, 0
1891, 0.32003248231887, -0.22355580362397, 0
1892, 0.31545614870042, 0.21531873742168, 0
1893, 0.32160424605899, 0.21155639633262, 0
1894, 0.43204663472655, 0.2655330863726, 0
1895, 0.43481524429204, 0.27142057350528, 0
1896, 0.43596689340183, 0.2668148312336, 0
1897, 0.57076603233791, -0.26665006770359, 0
1898, 0.59204820000511, -0.27317161460705, 0
1899, 0.6084009783358, -0.28732166131146, 0
1900, 0.63086527344154, 0.27834148420599, 0
1901, 0.62896539878817, 0.25975952630513, 0
1902, 0.58484258032905, 0.26541555468093, 0
1903, 0.58449741894352, 0.26095888987799, 0
1904, 0.28577307861351, 0.19734287235, 0
1905, 0.23543762377537, 0.13666811337812, 0
1906, 0.26245834895355, 0.13566706943166, 0
1907, 0.24781488018365, 0.14321157202947, 0
1908, 0.24916602787671, 0.16124507247927, 0
1909, 0.35231535721001, -0.23699702014562, 0
1910, 0.30264746557192, -0.25186602301359, 0
1911, 0.62207018109529, -0.24650129663981, 0
1912, 0.60977938698041, -0.25058610000024, 0
1913, 0.62619630743203, -0.24462061734625, 0
1914, 0.97441487983643, -0.24849658822656, 0
1915, 0.97424930414064, -0.27428591043666, 0
1916, 0.72336396832621, 0.19832371436485, 0
1917, 0.77419037314121, 0.18760091957738, 0
1918, 0.70734084268086, 0.23711212398923, 0
1919, 0.16687799209741, 0.038030594665511, 0
1920, 0.22319231195197, 0.026287977327354, 0
1921, 0.77135750590255, 0.082769893784364, 0
1922, 0.76656083635926, 0.091704202334255, 0
1923, 0.51923766139077, 0.2826803605927, 0
1924, 0.51937962976885, 0.27790522884042, 0
1925, 0.1624228488829, -0.17026736793931, 0
1926, 0.33129781705752, 0.22722561897314, 0
1927, 0.33558604032222, 0.22208775759079, 0
1928, 0.5699317721585, -0.27949042042848, 0
1929, 0.59710155768284, -0.27010655314001, 0
1930, 0.63304749358837, -0.28957295248516, 0
1931, 0.75336596659413, -0.10443796837751, 0
1932, 0.73485619926492, -0.17569318139776, 0
1933, 0.7619303307341, -0.12214562891459, 0
1934, 0.2220440237056, 0.10978329975582, 0
1935, 0.21998317016014, 0.07669923391164, 0
1936, 0.23866965279625, 0.083543754168716, 0
1937, 0.23122615925946, 0.071277755640072, 0
1938, 0.81407529405052, 0.026767199626728, 0
1939, 0.39623393257926, -0.25700593195626, 0
1940, 0.36056617749295, -0.23986790512704, 0
1941, 0.31156746246713, -0.25476075422693, 0
1942, 0.39156338854357, -0.27189728789089, 0
1943, 0.76792737490769, 0.10492434227227, 0
1944, 0.77186662389486, 0.09305521158648, 0
1945, 0.7594354349547, 0.10672622396773, 0
1946, 0.76848228255531, 0.075725427164033, 0
1947, 0.79507340140229, 0.072586132426714, 0
1948, 0.42695680832935, 0.26738682755212, 0
1949, 0.42843737225181, 0.26411743939248, 0
1950, 0.62956755315684, -0.25588254206156, 0
1951, 0.38903310694193, 0.27300400227426, 0
1952, 0.39827710344578, 0.25422872613533, 0
1953, 0.39794619724468, 0.28136038896852, 0
1954, 0.1575952993385, -0.062016542307237, 0
1955, 0.21966764112655, 0.10318922330924, 0
1956, 0.71045601208026, -0.19454376414253, 0
1957, 0.51958016434489, 0.27349974336519, 0
1958, 0.52802551362343, 0.27274959573601, 0
1959, 0.51294107994623, 0.29382588207964, 0
1960, 0.76114666420228, 0.089791499497465, 0
1961, 0.79064151321895, 0.022276464066527, 0
1962, 0.44285351445031, -0.27342558863226, 0
1963, 0.26182788170349, -0.13100738776059, 0
1964, 0.40630172962565, 0.27289199158688, 0
1965, 0.30012936616078, 0.19082363355781, 0
1966, 0.3050975615609, 0.19299664970457, 0
1967, 0.19420278542065, 0.062524891381155, 0
1968, 0.22279203093275, 0.0086614590930208, 0
1969, 0.13434929635967, -0.07229934257322, 0
1970, 0.71702997650091, 0.17898270437541, 0
1971, 0.7428581259324, 0.15847384937573, 0
1972, 0.65943394970654, -0.22994856504454, 0
1973, 0.63682440674778, -0.24494559977319, 0
1974, 0.64495755381079, -0.25567541311121, 0
1975, 0.25312609209542, 0.11911088764637, 0
1976, 0.2541441861202, 0.13614685464725, 0
1977, 0.75626072223876, 0.20440862044533, 0
1978, 0.73115107241349, 0.16152585576201, 0
1979, 0.2850769215678, -0.20856432515658, 0
1980, 0.30291207669145, -0.2006912695928, 0
1981, 0.31304896784202, -0.21096050539493, 0
1982, 0.27373576887367, -0.15651867254528, 0
1983, 0.41310121956621, 0.26669361612555, 0
1984, 0.39214171328302, 0.25148592164004, 0
1985, 0.38469850244975, 0.24924688365274, 0
1986, 0.53591160980995, 0.27201178824992, 0
1987, 0.5401534121039, 0.27639945832752, 0
1988, 0.53991290699029, 0.27167232753657, 0
1989, 0.76770323703451, 0.1429190624829, 0
1990, 0.7545201333762, 0.14528217333234, 0
1991, 0.081787600535699, 0.27152322985822, 0
1992, 0.056481560653504, 0.24337894001886, 0
1993, 0.2785866196445, 0.25577845536088, 0
1994, 0.059013150125059, 0.21367249232869, 0
1995, 0.23012386060066, -0.094957988691966, 0
1996, 0.20418830958128, 0.10944780948199, 0
1997, 0.38079419108298, 0.24776598756914, 0
1998, 0.35195018953605, -0.24047182386367, 0
1999, 0.37405753096638, 0.25079047872253, 0
2000, 0.35941372414268, 0.23684265068772, 0
2001, 0.47428986183243, 0.28862586413356, 0
2002, 0.46803901899899, 0.29392810019591, 0
2003, 0.4743947063434, 0.29425467081308, 0
2004, 0.52934141667129, -0.2760979709088, 0
2005, 0.55418725448446, -0.26984085669753, 0
2006, 0.60277499866985, -0.25722123229897, 0
2007, 0.61789987029153, -0.24814624047739, 0
2008, 0.47523554849309, -0.27755182718469, 0
2009, 0.48866113353661, -0.27623603549698, 0
2010, 0.21880591287209, -0.0069974782908797, 0
2011, 0.21526818530827, 0.0065231128671574, 0
2012, 0.21274382659318, 0.24297038210473, 0
2013, 0.28683820248079, 0.27124694095672, 0
2014, 0.23964981427856, 0.087554412895561, 0
2015, 0.79886131733295, -0.015445630226811, 0
2016, 0.81931829314648, -0.12032558125881, 0
2017, 0.87097524376807, -0.24953773898873, 0
2018, 0.84514800263745, -0.2752643157435, 0
2019, 0.87053487621986, -0.27485821110852, 0
2020, 0.47041222762632, -0.27296059401808, 0
2021, 0.50889216012164, -0.28914548599502, 0
2022, 0.64093697716856, -0.2355505289028, 0
2023, 0.64060357762554, -0.24199712487559, 0
2024, 0.35286475531366, 0.24049715335544, 0
2025, 0.35651964388202, -0.24051543928048, 0
2026, 0.38406012899606, -0.25196429068212, 0
2027, 0.21913513261649, 0.13270655558044, 0
2028, 0.23736490253267, 0.12221518451465, 0
2029, 0.30214231892266, 0.19731245821465, 0
2030, 0.66771243244769, -0.22616846395815, 0
2031, 0.66430733878152, -0.22137289277015, 0
2032, 0.49772593901589, 0.2880066918116, 0
2033, 0.4837787300905, 0.27406709417933, 0
2034, 0.6133999582061, -0.25413004403241, 0
2035, 0.59976322707037, -0.26024917364254, 0
2036, 0.56822704701913, -0.27340192214666, 0
2037, 0.56657918384963, -0.26762300447809, 0
2038, 0.6077606133834, -0.26924825322607, 0
2039, 0.30442489140616, -0.23675167422806, 0
2040, 0.2474039957962, -0.19157919591415, 0
2041, 0.30155961603956, -0.18990517491368, 0
2042, 0.7083065768268, 0.2298732753418, 0
2043, 0.67170935502865, 0.21711903819943, 0
2044, 0.75207127168997, 0.1310381323412, 0
2045, 0.52045936876203, -0.28853108436901, 0
2046, 0.554097624278, -0.28102269383278, 0
2047, 0.53530239232125, -0.27066634284515, 0
2048, 0.69197996079034, -0.21030022002436, 0
2049, 0.68193576829974, -0.20898062772781, 0
2050, 0.68534165573398, -0.2062142897768, 0
2051, 0.24773932052341, 0.12619313433539, 0
2052, 0.27847405662085, 0.16514229602138, 0
2053, 0.84182765291999, -0.11316252206744, 0
2054, 0.79503515092654, -0.034666511369173, 0
2055, 0.75547516123432, -0.10145453324395, 0
2056, 0.2278090430486, -0.055535013154038, 0
2057, 0.35770792015697, 0.23347749894634, 0
2058, 0.6841569035362, -0.21607757283829, 0
2059, 0.67842620670875, -0.21164977894971, 0
2060, 0.77364859194403, -0.033298868991259, 0
2061, 0.78152816821782, -0.049312984954604, 0
2062, 0.77465465203881, 0.006268983214042, 0
2063, 0.64226133540141, 0.23881325379221, 0
2064, 0.66087864400456, 0.25233701056551, 0
2065, 0.24064676528993, 0.10630407921106, 0
2066, 0.24526639626611, 0.10376282187434, 0
2067, 0.47617025010835, -0.28784239546872, 0
2068, 0.48945941134346, -0.28143827001073, 0
2069, 0.49020376508469, 0.28351179070634, 0
2070, 0.5061261046881, 0.29353919983437, 0
2071, 0.72559644504334, 0.24530928544709, 0
2072, 0.70468042297313, 0.20133122025211, 0
2073, 0.75165578976634, -0.12620001070791, 0
2074, 0.46208136102731, 0.27123000501812, 0
2075, 0.50093497865619, -0.27888506347332, 0
2076, 0.69899165176992, 0.22062115657059, 0
2077, 0.74652833411039, 0.20094070908899, 0
2078, 0.59126744423728, -0.28192617660252, 0
2079, 0.31906750466811, -0.20819747323022, 0
2080, 0.44619295396164, 0.28508394412381, 0
2081, 0.45190122453573, 0.26918443693514, 0
2082, 0.24533397937357, -0.10929849360928, 0
2083, 0.22598462984204, -0.052311149116512, 0
2084, 0.24126003322981, 0.12655182060286, 0
2085, 0.30000332821707, 0.20640771397093, 0
2086, 0.28310763149311, -0.17347608878569, 0
2087, 0.24087515153077, -0.12741517728992, 0
2088, 0.40136896530773, -0.26598881890676, 0
2089, 0.44523844826437, -0.26909521295652, 0
2090, 0.95072899504321, 0.27188719355844, 0
2091, 0.97527873303726, 0.27278581060027, 0
2092, 0.23944382312315, 0.16064086405839, 0
2093, 0.31741717911767, -0.27017405166047, 0
2094, 0.32470816217613, -0.22630554048313, 0
2095, 0.16373117319684, -0.018364497597252, 0
2096, 0.23636351751184, 0.069403054316706, 0
2097, 0.723619519577, -0.16109491293844, 0
2098, 0.5003946098656, 0.28153824967862, 0
2099, 0.77859293154786, 0.068622326066925, 0
2100, 0.53344347453683, -0.29315766408276, 0
2101, 0.53197645295793, 0.27230632552729, 0
2102, 0.28136393361748, 0.19051265121024, 0
2103, 0.29759848862386, 0.18753247614565, 0
2104, 0.41608496484631, -0.26778603788184, 0
2105, 0.435765744228, -0.27572910619285, 0
2106, 0.43169308573005, -0.26412064100469, 0
2107, 0.42106432672089, -0.27299846854509, 0
2108, 0.78549553041675, -0.0072082872212914, 0
2109, 0.78259039132731, -0.0011453378862495, 0
2110, 0.51392459105008, -0.29445038282891, 0
2111, 0.54894116142729, -0.28101310638387, 0
2112, 0.54788337367281, -0.28701464186753, 0
2113, 0.50212800213441, -0.27438246474392, 0
2114, 0.51038404592491, -0.27903865904094, 0
2115, 0.55961136725302, 0.29296741237875, 0
2116, 0.57568425768678, 0.29300604490925, 0
2117, 0.56024274634908, 0.26757933926907, 0
2118, 0.56749326432169, 0.29254621521891, 0
2119, 0.59198503033524, 0.29332952908562, 0
2120, 0.59891155382426, 0.28640653751325, 0
2121, 0.6003358076598, 0.2930667557915, 0
2122, 0.46163087847283, -0.27218993671445, 0
2123, 0.42093112046736, -0.2629635997522, 0
2124, 0.55173874844314, 0.28688588825972, 0
2125, 0.55252504759109, 0.29334152125183, 0
2126, 0.45421075132163, 0.28432125513377, 0
2127, 0.46137732519873, 0.29336962884281, 0
2128, 0.45242918956283, 0.27257681394738, 0
2129, 0.34832352420983, -0.26380957324165, 0
2130, 0.3385790842295, -0.26464818819156, 0
2131, 0.3383185991549, -0.25877363757193, 0
2132, 0.33855593627275, -0.25323548732059, 0
2133, 0.62304230624999, -0.25184092401875, 0
2134, 0.57919650180198, -0.26430094369616, 0
2135, 0.58864107327067, -0.29132580394129, 0
2136, 0.5865254137383, -0.27547603657948, 0
2137, 0.43200932785643, 0.28359863541606, 0
2138, 0.43205475968567, 0.29175984156485, 0
2139, 0.38190418529171, -0.25961935944496, 0
2140, 0.30686516972437, -0.24573622028863, 0
2141, 0.29725686481373, 0.23940085298486, 0
2142, 0.31519347572416, 0.24468715256925, 0
2143, 0.56560242469886, -0.28656190411552, 0
2144, 0.57343982885148, -0.29280834604302, 0
2145, 0.56657757443753, -0.2931831715983, 0
2146, 0.38926374854727, 0.29088450789259, 0
2147, 0.39826783099051, 0.29076805429901, 0
2148, 0.76663816061139, -0.13001167563385, 0
2149, 0.78449852654323, -0.10687700346131, 0
2150, 0.36488656408433, -0.27087055317507, 0
2151, 0.37322646646526, -0.24550927043615, 0
2152, 0.35028634696485, -0.26943465126625, 0
2153, 0.30368380488524, -0.28387443914458, 0
2154, 0.58407450316804, 0.2868159380529, 0
2155, 0.58387222648261, 0.29331399374613, 0
2156, 0.9298235160481, 0.24214909321645, 0
2157, 0.92627995720877, 0.2712004409525, 0
2158, 0.3224473560294, -0.21095623446384, 0
2159, 0.29223400435672, -0.2072176594732, 0
2160, 0.37006824662841, 0.29082982778012, 0
2161, 0.35684458591154, 0.23664895307485, 0
2162, 0.34862921371784, 0.29022439803636, 0
2163, 0.35962138059885, 0.2905575727203, 0
2164, 0.40036294154587, -0.25835824311811, 0
2165, 0.2161842291752, -0.28215435200104, 0
2166, 0.60475417314571, -0.26245602612321, 0
2167, 0.58080464794667, -0.29221835087158, 0
2168, 0.82145255608878, -0.25182338079892, 0
2169, 0.79838949069194, -0.2769348152342, 0
2170, 0.82122443369089, -0.27601817163204, 0
2171, 0.84284882589605, 0.24373310071417, 0
2172, 0.8084215091028, 0.27379865983376, 0
2173, 0.8316271748382, 0.27254967273019, 0
2174, 0.57497267231377, -0.26554929906857, 0
2175, 0.61792989623138, -0.25868170276426, 0
2176, 0.7796806831735, 0.0082753714358798, 0
2177, 0.77493513058154, 0.010159974782332, 0
2178, 0.6472785788016, -0.2421795443129, 0
2179, 0.68585595725997, -0.28555150023086, 0
2180, 0.65701528785922, -0.28806406516056, 0
2181, 0.67072042045115, -0.28706536516217, 0
2182, 0.70396279955184, -0.27036258721629, 0
2183, 0.71897845650028, -0.28363526892571, 0
2184, 0.702181221985, -0.28498039266066, 0
2185, 0.079944087713137, 0.019272320361823, 0
2186, 0.10862055509182, -0.0044477298805566, 0
2187, 0.083602580608249, -0.032677958870689, 0
2188, 0.081394006031812, -0.0056203806940696, 0
2189, 0.32450162627424, 0.28927150095061, 0
2190, 0.10905499515174, 0.27170127454795, 0
2191, 0.29298074047609, 0.23470527021146, 0
2192, 0.38911854378961, 0.2818315586498, 0
2193, 0.37983090215651, 0.29094583752108, 0
2194, 0.94908340292373, -0.22329287297461, 0
2195, 0.97459945983681, -0.22238300198517, 0
2196, 0.35258103153747, -0.24833357569668, 0
2197, 0.44450566487562, -0.27970232278163, 0
2198, 0.77938891322675, -0.25528075846202, 0
2199, 0.7568618667058, -0.27868714416934, 0
2200, 0.77714787330785, -0.27778859989165, 0
2201, 0.6035207780084, -0.25126153798967, 0
2202, 0.62181229949065, -0.28936531849889, 0
2203, 0.33961350490299, 0.28000109871171, 0
2204, 0.1887080940927, 0.27182920040442, 0
2205, 0.33684923802834, 0.28985269117786, 0
2206, 0.31566850446461, 0.27737634768397, 0
2207, 0.28328650118352, 0.24615392627703, 0
2208, 0.19199155314139, 0.15196137825299, 0
2209, 0.72202940977459, 0.28514385061575, 0
2210, 0.71338987217574, 0.27082947186333, 0
2211, 0.60648919724115, 0.28553835541081, 0
2212, 0.76219273874329, 0.27897570013138, 0
2213, 0.7407058836152, 0.28368959180314, 0
2214, 0.30377084004701, 0.23547890772198, 0
2215, 0.32083059385782, 0.26749495457537, 0
2216, 0.28711797530111, 0.2392545316682, 0
2217, 0.80064640598861, 0.24720575301555, 0
2218, 0.78550465032036, 0.27555449634628, 0
2219, 0.25461561627235, -0.1412046122172, 0
2220, 0.25018769768179, -0.15535287293831, 0
2221, 0.37713611485395, -0.27805958174339, 0
2222, 0.76015637665254, -0.2563052756465, 0
2223, 0.73734121425888, -0.28028001494177, 0
2224, 0.11048226116716, -0.064231599652121, 0
2225, 0.082723047297183, -0.086760876229084, 0
2226, 0.083065275325151, -0.060415042060037, 0
2227, 0.86995846138145, -0.03874629162215, 0
2228, 0.90704107372491, -0.0031654898686324, 0
2229, 0.90096740824808, -0.03089631350816, 0
2230, 0.77014331833928, 0.066646164199195, 0
2231, 0.81471474695513, 0.058026138851637, 0
2232, 0.08596829118307, -0.13759754027268, 0
2233, 0.11041172614532, -0.11300698996119, 0
2234, 0.083713339640492, -0.11223802085739, 0
2235, 0.23415145451768, 0.083829298061291, 0
2236, 0.21740094342154, -0.0027597036144555, 0
2237, 0.22026500858723, -0.064311345109068, 0
2238, 0.21839944076141, -0.073962766629493, 0
2239, 0.2265567927145, -0.080218340815434, 0
2240, 0.21730752591433, -0.13085869246294, 0
2241, 0.21264443970346, -0.019367952827321, 0
2242, 0.22670376856277, -0.015011565943796, 0
2243, 0.22312046568406, 0.0043512034728409, 0
2244, 0.22497242518891, 0.078171580872196, 0
2245, 0.20797675416662, 0.11814169378456, 0
2246, 0.20745811672725, -0.13851956320164, 0
2247, 0.028312642226089, -0.24663152652051, 0
2248, 0.21216381353541, -0.06562068618786, 0
2249, 0.19054369336185, -0.0071043987534844, 0
2250, 0.18246847108083, 0.036603453206317, 0
2251, 0.9325972817679, 0.18194101972147, 0
2252, 0.93110337916526, 0.12095600114355, 0
2253, 0.91011403597275, 0.14517301726152, 0
2254, 0.93251050318805, 0.15120895450567, 0
2255, 0.22140666512688, 0.051381590210842, 0
2256, 0.20396250358167, 0.055471438736588, 0
2257, 0.19730859227469, 0.042297260267989, 0
2258, 0.75760543161866, -0.098207939689911, 0
2259, 0.7604782718615, -0.11049983056018, 0
2260, 0.77691420120146, -0.098495369913415, 0
2261, 0.30541343305235, 0.21490859801125, 0
2262, 0.29157733410058, 0.19781997006839, 0
2263, 0.31832167434366, 0.20865617701912, 0
2264, 0.82700280859414, -0.096837272722997, 0
2265, 0.81464561353949, -0.07458985701766, 0
2266, 0.7977537933701, -6.9414599309106e-05, 0
2267, 0.76312362052722, 0.079569252793348, 0
2268, 0.79434976340249, 0.012990299545374, 0
2269, 0.76456760367271, 0.072585842575547, 0
2270, 0.80226995981173, -0.030264542777937, 0
2271, 0.77343325612971, -0.029344731089694, 0
2272, 0.77403059640299, -0.0017209753580336, 0
2273, 0.78008276001719, -0.035549208599448, 0
2274, 0.78960161980375, -0.0094817184332967, 0
2275, 0.81205386028834, -0.049724227400674, 0
2276, 0.8074876115752, -0.10197356074854, 0
2277, 0.78381969423624, -0.088477644641248, 0
2278, 0.76744623688295, -0.12227648231172, 0
2279, 0.77859920783291, 0.11078491614028, 0
2280, 0.77430804559473, 0.10731386178095, 0
2281, 0.77401296950563, 0.11412898967789, 0
2282, 0.77431142577717, 0.11073974443224, 0
2283, 0.22545745232863, -0.026752658192076, 0
2284, 0.22265328971114, 0.017432684234772, 0
2285, 0.73723151010525, 0.18535685189526, 0
2286, 0.74768273218812, 0.1381299009534, 0
2287, 0.75817028977535, 0.1611328993734, 0
2288, 0.79936130915721, -0.04599318957855, 0
2289, 0.78273292291757, -0.024673394978142, 0
2290, 0.83241884993689, -0.028540215485812, 0
2291, 0.19513979172372, -0.013616737532436, 0
2292, 0.18170653107647, 0.027135782107571, 0
2293, 0.78780725372579, -0.037770940252073, 0
2294, 0.77887117889774, -0.017977009655901, 0
2295, 0.78154392690816, -0.054147885276534, 0
2296, 0.9203688778574, 0.059046812915708, 0
2297, 0.88243586388422, 0.01439126573606, 0
2298, 0.91445669198577, 0.027252406975883, 0
2299, 0.20204371226714, -0.066510088951692, 0
2300, 0.22763208836707, -0.01816603108633, 0
2301, 0.1908521124479, 0.090967316193446, 0
2302, 0.25471919368966, 0.15005922201317, 0
2303, 0.25100963213534, 0.1154711291888, 0
2304, 0.24276536176337, 0.11062400784948, 0
2305, 0.78256481690298, -0.12210156842915, 0
2306, 0.78627417339007, -0.033056125289394, 0
2307, 0.79073545554268, 0.082445204846497, 0
2308, 0.76703064032947, 0.082656255615037, 0
2309, 0.77405460291675, 0.099933706136534, 0
2310, 0.76741701468338, 0.062410863798236, 0
2311, 0.78070203173863, 0.043635131469115, 0
2312, 0.76535827524662, 0.069167668201274, 0
2313, 0.77818725227731, 0.062357262789698, 0
2314, 0.23070651069, 0.11227278000442, 0
2315, 0.26498981796025, 0.14286309421468, 0
2316, 0.2358197842817, 0.10909907425494, 0
2317, 0.080521450623394, 0.066180181975641, 0
2318, 0.10452664882431, 0.040447978832086, 0
2319, 0.079523811070677, 0.04294741929543, 0
2320, 0.20515885036079, -0.022482682944949, 0
2321, 0.20189599023736, 0.090041120921189, 0
2322, 0.18682194866192, -0.077788408693609, 0
2323, 0.74363189794001, -0.14720744983381, 0
2324, 0.16453602109633, -0.045611268942465, 0
2325, 0.23111169026793, -0.049807824930873, 0
2326, 0.23204713075352, -0.063978891807608, 0
2327, 0.24756872418341, 0.18891045812498, 0
2328, 0.20881572636063, 0.14874407476113, 0
2329, 0.24438230217337, 0.12240603630734, 0
2330, 0.19909566001346, 0.171854011215, 0
2331, 0.2261600653037, -0.15281192862879, 0
2332, 0.90071227581989, -0.15425887958189, 0
2333, 0.75693256060949, -0.11200633361974, 0
2334, 0.77977585474075, -0.068962737275079, 0
2335, 0.79374615935919, 0.096397237604307, 0
2336, 0.79598724900857, 0.062348276921853, 0
2337, 0.77242757576985, 0.047094374434665, 0
2338, 0.30646578438655, -0.26851158217718, 0
2339, 0.39210449625088, -0.25550488387532, 0
2340, 0.32853103074907, -0.26443931220557, 0
2341, 0.3631201316678, -0.25481091087761, 0
2342, 0.25468494452734, -0.13582639887599, 0
2343, 0.23266205536688, -0.11852890414016, 0
2344, 0.30945707297944, -0.19927313429948, 0
2345, 0.27608989247462, -0.16715191305946, 0
2346, 0.14343137680933, 0.21847012983976, 0
2347, 0.23350506321422, 0.23538801569126, 0
2348, 0.28811914315973, 0.21487836870196, 0
2349, 0.73244203572044, -0.14782836831245, 0
2350, 0.73609257567792, -0.16165385537159, 0
2351, 0.75687100265135, -0.17364651736861, 0
2352, 0.33183663530652, 0.23527556823304, 0
2353, 0.32175378562037, 0.22964893107887, 0
2354, 0.32667203310919, 0.23266122679158, 0
2355, 0.72243115402474, -0.21407050333877, 0
2356, 0.70483236979843, -0.18836410232268, 0
2357, 0.73481523453699, -0.15396296019344, 0
2358, 0.24973105323469, -0.11686894530649, 0
2359, 0.22093438696034, -0.11829648964777, 0
2360, 0.29629641058942, -0.201733676376, 0
2361, 0.28066500637171, -0.19723757454777, 0
2362, 0.26629175211513, -0.15556170668381, 0
2363, 0.2372956839425, 0.07590918837564, 0
2364, 0.13225678964475, 0.0023827625381866, 0
2365, 0.2281099788453, 0.10676839346812, 0
2366, 0.22376209404868, -0.046976754221593, 0
2367, 0.6734459274927, 0.23242382165987, 0
2368, 0.69711051830826, 0.25367531482807, 0
2369, 0.67816056979658, 0.2377453527343, 0
2370, 0.72407170630348, 0.22642750451777, 0
2371, 0.29086901966365, -0.17535046449939, 0
2372, 0.31661848157807, -0.28477292883026, 0
2373, 0.34594918414122, -0.24853517025779, 0
2374, 0.78178788776209, 0.11912088013448, 0
2375, 0.78333146189398, 0.12364834113156, 0
2376, 0.76533038717941, 0.17210791190828, 0
2377, 0.72984187322574, -0.15978500126023, 0
2378, 0.25933084662692, 0.14201882201207, 0
2379, 0.23295074380069, 0.14296356165354, 0
2380, 0.26973744925047, 0.21144738265485, 0
2381, 0.71275157001536, -0.21218595831024, 0
2382, 0.70246680168943, -0.21128306048377, 0
2383, 0.70679561319475, -0.20804700525791, 0
2384, 0.23917125900044, -0.11362210653177, 0
2385, 0.26635410669959, -0.18830099943368, 0
2386, 0.28680399207169, 0.19212743916405, 0
2387, 0.28362245026571, 0.22375486564287, 0
2388, 0.28872816676334, 0.18765965205329, 0
2389, 0.3123843111725, 0.20252172322301, 0
2390, 0.64651311373119, 0.2375792092048, 0
2391, 0.61593366482432, 0.255150639718, 0
2392, 0.59818662652637, -0.27908013199235, 0
2393, 0.58259160462757, -0.26971424352856, 0
2394, 0.57538627474565, -0.27850279793234, 0
2395, 0.6955036071596, -0.19750576213771, 0
2396, 0.77547172415341, 0.030239697983798, 0
2397, 0.8009025019721, 0.057303168800463, 0
2398, 0.64717717390202, 0.24246945543457, 0
2399, 0.61981016715384, 0.24700619460292, 0
2400, 0.4217460734251, -0.27921257871282, 0
2401, 0.31578289802034, -0.23514332350314, 0
2402, 0.31498879803876, -0.22759037583123, 0
2403, 0.33291882191724, -0.22472944737872, 0
2404, 0.7445548182409, -0.18176972109244, 0
2405, 0.29453685939023, 0.18589040736129, 0
2406, 0.3022479320194, 0.22237855844749, 0
2407, 0.31288273107187, 0.22272116519383, 0
2408, 0.30892672257761, 0.21892012725582, 0
2409, 0.75718787132899, -0.12189370870286, 0
2410, 0.63834038072864, 0.25789949555345, 0
2411, 0.64771190150636, 0.27660396792258, 0
2412, 0.25311624060819, 0.12586788733445, 0
2413, 0.26250037157245, 0.19291339839696, 0
2414, 0.76905767553882, 0.069462983922567, 0
2415, 0.79014541218589, 0.010354056122455, 0
2416, 0.78465697768845, 0.01012575471381, 0
2417, 0.786425949244, 0.013438447215639, 0
2418, 0.79928715718005, -0.16085466232865, 0
2419, 0.80930269257389, -0.042499594737962, 0
2420, 0.77271577193799, -0.021908066673947, 0
2421, 0.26465601169403, 0.17131606792422, 0
2422, 0.77941906003537, 0.11582172573845, 0
2423, 0.78307486830798, 0.1756866600094, 0
2424, 0.77428231810631, 0.1175628532882, 0
2425, 0.2613166669645, 0.18106391900011, 0
2426, 0.28147816595971, 0.16862632222923, 0
2427, 0.19924899331861, -0.00085375495515227, 0
2428, 0.22124573396109, -0.02037371796162, 0
2429, 0.23508643677969, 0.066594512666531, 0
2430, 0.22035020946693, -0.010867153915564, 0
2431, 0.22938310348861, 0.083828497720867, 0
2432, 0.21594967694207, 0.16449960055211, 0
2433, 0.18373116495854, 0.12129725856019, 0
2434, 0.22910389810708, 0.15828266562185, 0
2435, 0.18854652128668, 0.054839718852162, 0
2436, 0.22656843393171, -0.021442891648251, 0
2437, 0.2196650914675, -0.090912906637349, 0
2438, 0.7358829658678, 0.17192794527331, 0
2439, 0.70670700107778, 0.18878649035161, 0
2440, 0.2863488671296, 0.20895137558348, 0
2441, 0.25856152998314, 0.13434780570791, 0
2442, 0.90237644962077, 0.083189200880202, 0
2443, 0.9278249124747, 0.090700558638967, 0
2444, 0.34901340081148, 0.23502745729982, 0
2445, 0.34057030891358, 0.24526270473986, 0
2446, 0.35326831416216, 0.24563979224434, 0
2447, 0.35862402374973, 0.24422207499151, 0
2448, 0.80448259635881, -0.0012919837988173, 0
2449, 0.78296507729919, 0.024518337753278, 0
2450, 0.17768425563915, -0.056977185623511, 0
2451, 0.18475524737111, 0.045953165117333, 0
2452, 0.77213661202007, 0.16979595883557, 0
2453, 0.74588762776198, 0.16293202242537, 0
2454, 0.79806568518062, 0.1269886136648, 0
2455, 0.26470510926304, -0.16351716696028, 0
2456, 0.27117667306443, -0.15288621341055, 0
2457, 0.29576324390108, -0.17885753903764, 0
2458, 0.78456490480719, -0.028679355982976, 0
2459, 0.78327153637982, 0.0028853476923012, 0
2460, 0.77311695175668, -0.025528566121991, 0
2461, 0.63502573518938, 0.24019259015003, 0
2462, 0.67096746724496, 0.28822743239666, 0
2463, 0.719090323877, -0.19799800173299, 0
2464, 0.72527904890484, -0.17563146007863, 0
2465, 0.6953298108, 0.22297991699006, 0
2466, 0.69622773464144, 0.24231385870502, 0
2467, 0.7375970017221, -0.19399149428673, 0
2468, 0.75443927494474, -0.16616134238365, 0
2469, 0.45713115679788, 0.27325031495815, 0
2470, 0.21615578787016, -0.14620895027855, 0
2471, 0.26878452256866, -0.14912080430125, 0
2472, 0.77501983983466, 0.12120035925571, 0
2473, 0.74581038732347, 0.14142659462924, 0
2474, 0.64540660740993, 0.23294065710846, 0
2475, 0.63023229864318, 0.26801647152089, 0
2476, 0.65750645339396, 0.2396953786768, 0
2477, 0.62638941881672, 0.24261146249204, 0
2478, 0.65227961681976, 0.24131242589839, 0
2479, 0.71927741256015, -0.25385856935503, 0
2480, 0.73005711909626, -0.15627930272786, 0
2481, 0.78038912751722, 0.1550280166615, 0
2482, 0.86822920042139, 0.12850826052867, 0
2483, 0.80199134163391, 0.096114253739699, 0
2484, 0.7930269985776, 0.10341947080457, 0
2485, 0.80101658938183, 0.10471134345419, 0
2486, 0.2244328453055, 0.035118040997697, 0
2487, 0.24361444915656, 0.099723578035973, 0
2488, 0.25896215064424, -0.13286402064962, 0
2489, 0.26800109612144, -0.18194023046164, 0
2490, 0.30720208441708, 0.19615620102884, 0
2491, 0.27786083642871, 0.20293101840678, 0
2492, 0.28539581282649, 0.20297222739475, 0
2493, 0.65646936079601, -0.25337167921715, 0
2494, 0.6470499127252, -0.23115669586625, 0
2495, 0.66625047372328, -0.23324786520439, 0
2496, 0.65708272195129, -0.22557026741444, 0
2497, 0.72352437159525, 0.17195590390876, 0
2498, 0.74998177047584, 0.13459722042567, 0
2499, 0.45603746528234, -0.27659003291225, 0
2500, 0.276081324625, -0.28002226845081, 0
2501, 0.34347878215332, -0.23466005909002, 0
2502, 0.70866557576016, 0.21607255785907, 0
2503, 0.67639140773215, 0.24726948064082, 0
2504, 0.68875244466638, 0.20356768503757, 0
2505, 0.7137895590704, 0.19482996828693, 0
2506, 0.76360780519645, -0.087243956935759, 0
2507, 0.74527793437804, -0.17519583709631, 0
2508, 0.7477404693811, -0.12501297595477, 0
2509, 0.21772814496579, -0.038822771741567, 0
2510, 0.29362800422129, -0.17759247948269, 0
2511, 0.5899660273769, 0.26962021835799, 0
2512, 0.59630023409283, 0.27423679861119, 0
2513, 0.65090911359412, 0.23602566248365, 0
2514, 0.59505757906771, 0.2687615845733, 0
2515, 0.29004730666802, -0.17847597815875, 0
2516, 0.27266450219655, -0.16359052193795, 0
2517, 0.32931942327467, -0.21614196945855, 0
2518, 0.3479760832708, -0.2360141580371, 0
2519, 0.29601376921441, -0.18990639543588, 0
2520, 0.18117292876603, -0.15755732974732, 0
2521, 0.2895247804923, -0.20245851457698, 0
2522, 0.15556378207349, 0.085253309032654, 0
2523, 0.22172681688702, 0.063600034666077, 0
2524, 0.21712362722431, -0.057014013285706, 0
2525, 0.72720536907077, 0.20631947580247, 0
2526, 0.68096218745739, 0.25406807025225, 0
2527, 0.78010523137574, 0.10289321750742, 0
2528, 0.77413582496221, 0.10372379081421, 0
2529, 0.74581395837184, -0.12932370068136, 0
2530, 0.31069569934899, 0.23097624066382, 0
2531, 0.31708544586745, 0.22632871077029, 0
2532, 0.11794039713506, 0.12418935851773, 0
2533, 0.17128540621035, 0.19986746299976, 0
2534, 0.22578382509312, -0.011531473179592, 0
2535, 0.21943218477536, 0.12050104864949, 0
2536, 0.23875110314264, 0.10185159569418, 0
2537, 0.70429089194142, -0.21864096352412, 0
2538, 0.69417178445813, -0.2175072984409, 0
2539, 0.69832306971282, -0.21442989040796, 0
2540, 0.76434171316682, -0.099835701237377, 0
2541, 0.72300658943485, -0.19430061892051, 0
2542, 0.18390908969521, 0.0088409144523775, 0
2543, 0.14968751600224, 0.053871363947571, 0
2544, 0.76392529790781, 0.076042485868642, 0
2545, 0.76027704163973, 0.099912888633466, 0
2546, 0.79826382981844, 0.079841728784972, 0
2547, 0.78257403092185, 0.078054910228106, 0
2548, 0.80942272363263, -0.024267446288132, 0
2549, 0.32261441337713, 0.24822219578971, 0
2550, 0.2745254366468, 0.24084226823357, 0
2551, 0.29935869377054, 0.23074745439291, 0
2552, 0.68592384567427, -0.23131262747947, 0
2553, 0.67614366507564, -0.22902506371842, 0
2554, 0.68540474206102, -0.22347085065545, 0
2555, 0.6808709886397, -0.22635087895449, 0
2556, 0.39640688646394, -0.26484988245441, 0
2557, 0.44680100004832, -0.28653938953224, 0
2558, 0.29978742385225, 0.18857087754416, 0
2559, 0.27959447346774, -0.17050103697429, 0
2560, 0.24524226246895, -0.12177331203048, 0
2561, 0.64059919440209, 0.25273303149088, 0
2562, 0.61378059058025, 0.26950268195903, 0
2563, 0.76131985452723, -0.10299957741614, 0
2564, 0.33402200520074, 0.24371642111794, 0
2565, 0.3372220881624, 0.23740230776986, 0
2566, 0.74294129510603, 0.19208278365079, 0
2567, 0.1860169179756, -0.0884356581062, 0
2568, 0.20523806985413, 0.027240342469644, 0
2569, 0.23016387754616, 0.074872818575781, 0
2570, 0.40538680121205, 0.25830813307415, 0
2571, 0.39223211179765, 0.25881553257263, 0
2572, 0.40951135497863, 0.25994360367232, 0
2573, 0.13446372702633, 0.09353869145298, 0
2574, 0.16804386375948, 0.014309711622101, 0
2575, 0.77842620180109, 0.094169758963057, 0
2576, 0.77329024252339, 0.087559432551187, 0
2577, 0.78828601397603, 0.044956689309862, 0
2578, 0.24080709675263, 0.091609622546461, 0
2579, 0.22969033809715, 0.088802909095788, 0
2580, 0.091822541349551, -0.19097646128147, 0
2581, 0.19599439845115, -0.028270305086103, 0
2582, 0.056996344830889, -0.24640869681567, 0
2583, 0.69517313649856, -0.22488155462903, 0
2584, 0.68995340340049, -0.22052522970811, 0
2585, 0.69816012825502, 0.21408616581743, 0
2586, 0.75084861549098, 0.23553026479195, 0
2587, 0.74403511891739, 0.16792371901808, 0
2588, 0.88634489986755, 0.10768030878008, 0
2589, 0.85995397443911, 0.078152383957457, 0
2590, 0.87947711720221, 0.079764736798173, 0
2591, 0.75999799924688, 0.13793367383482, 0
2592, 0.78697617625655, 0.11538647746569, 0
2593, 0.69425665233263, 0.21675032185479, 0
2594, 0.71597302498071, 0.22871221963833, 0
2595, 0.32847401186556, -0.27787695791742, 0
2596, 0.43459278373255, -0.26529464935937, 0
2597, 0.76801480019092, 0.10143947716002, 0
2598, 0.76693995904993, -0.079243703874173, 0
2599, 0.27241825540697, -0.218685632688, 0
2600, 0.25987954254945, -0.14152722357403, 0
2601, 0.25123777325255, 0.12950165015128, 0
2602, 0.23352502358598, 0.12683479142398, 0
2603, 0.11164007009582, 0.10303278199677, 0
2604, 0.20822757047093, -0.039442578273817, 0
2605, 0.24510430970771, 0.11478711000713, 0
2606, 0.88747445585175, 0.17306932128563, 0
2607, 0.88847755774062, 0.13792679943053, 0
2608, 0.24755468550866, 0.14873547923509, 0
2609, 0.29693035796815, 0.1978391995446, 0
2610, 0.75749040505723, -0.11666621762833, 0
2611, 0.74927127959537, -0.12073244072255, 0
2612, 0.7937070445699, -0.13895856909049, 0
2613, 0.77052324927305, -0.14074619543467, 0
2614, 0.77689056932527, -0.015461781102289, 0
2615, 0.74579367326464, -0.11984319793974, 0
2616, 0.31254316803879, -0.20234194154025, 0
2617, 0.26153426299714, -0.17851323893184, 0
2618, 0.22412001464683, -0.13716991079662, 0
2619, 0.74357040284139, -0.13348827521535, 0
2620, 0.78779144064317, -0.17150945864807, 0
2621, 0.29201655274312, -0.1934220643129, 0
2622, 0.27480052800446, -0.20311691763369, 0
2623, 0.76509527962992, 0.18756634938403, 0
2624, 0.73281409234224, 0.20213912917604, 0
2625, 0.74085650821834, 0.18055273157932, 0
2626, 0.6918483040817, 0.22632071674353, 0
2627, 0.43951627830894, 0.27265544094812, 0
2628, 0.46901009962651, 0.28252803500439, 0
2629, 0.43914765590921, 0.27819836153053, 0
2630, 0.77696763150914, -0.078773130475585, 0
2631, 0.75863872460395, -0.13502076696697, 0
2632, 0.35766498166611, -0.26172602573591, 0
2633, 0.31827677134197, -0.24300693252813, 0
2634, 0.67466148777801, -0.23695435025923, 0
2635, 0.67116538581551, -0.23132925123584, 0
2636, 0.29934743247944, -0.20589122815421, 0
2637, 0.7684545262962, 0.16299141154304, 0
2638, 0.76198295741119, 0.1342063175054, 0
2639, 0.90983153628523, 0.21040730687378, 0
2640, 0.88823184869831, 0.2093188285834, 0
2641, 0.2361440574219, -0.18813240344853, 0
2642, 0.089050858299763, -0.16357893154548, 0
2643, 0.74904994155284, -0.23480852345109, 0
2644, 0.73090420043353, -0.21979031949077, 0
2645, 0.23546351944665, -0.084499747102446, 0
2646, 0.21691540802685, -0.049923440391236, 0
2647, 0.20497696237917, 0.021076946656855, 0
2648, 0.2141524770331, -0.027216128863723, 0
2649, 0.22169619165063, -0.060295584212202, 0
2650, 0.70320926718371, -0.23358428399641, 0
2651, 0.69535717587822, -0.23203554161451, 0
2652, 0.69960158164371, -0.22912237484449, 0
2653, 0.93196994026168, 0.21246270652096, 0
2654, 0.72704179984009, -0.17153339617386, 0
2655, 0.17335892511152, -0.030253071979189, 0
2656, 0.22037793054864, -0.04811619303592, 0
2657, 0.19932834387679, 0.14136306036835, 0
2658, 0.24924458278704, 0.2287204302288, 0
2659, 0.21620743183042, 0.0017645415751905, 0
2660, 0.089828537025857, 0.21124844285596, 0
2661, 0.17147911575174, 0.13088906120761, 0
2662, 0.72076369847987, 0.2100996461385, 0
2663, 0.30026145834196, -0.19712042542142, 0
2664, 0.89731553687205, -0.22413625224998, 0
2665, 0.92385826356307, -0.19917264053158, 0
2666, 0.92335954102481, -0.2239416148949, 0
2667, 0.38082377621812, 0.27351255358786, 0
2668, 0.38220183985683, 0.25937539180628, 0
2669, 0.23381854276321, 0.11744070148735, 0
2670, 0.29653230684795, 0.19390816518013, 0
2671, 0.029174052444542, 0.2169682934638, 0
2672, 0.77874308295037, -0.012614139885609, 0
2673, 0.80554454253863, 0.051310459839227, 0
2674, 0.22599502269058, -0.070860087995575, 0
2675, 0.17179043788617, -0.098298554841934, 0
2676, 0.13968092280868, 0.11166244325682, 0
2677, 0.19440580878183, 0.019920552300514, 0
2678, 0.74716964333558, -0.13567703457094, 0
2679, 0.74271122722117, -0.15883216785663, 0
2680, 0.7835925742767, 0.054536580273601, 0
2681, 0.839332964648, 0.0045166753438777, 0
2682, 0.78971755268882, 0.057806533397603, 0
2683, 0.81438672384439, 0.016780419664287, 0
2684, 0.30394610729419, -0.19303347944828, 0
2685, 0.28209654925132, -0.16665371437053, 0
2686, 0.29762511258941, -0.18378516916039, 0
2687, 0.22633235794499, 0.07340515219088, 0
2688, 0.1890105238749, 0.22339334495685, 0
2689, 0.27308608386885, -0.17141252266366, 0
2690, 0.28970137177484, -0.18180034346362, 0
2691, 0.16672463765144, 0.026001178526109, 0
2692, 0.2146194058256, 0.011460375328177, 0
2693, 0.2305164612083, -0.046326979489036, 0
2694, 0.19865208288466, -0.090477844000199, 0
2695, 0.87048306370562, -0.19808630118591, 0
2696, 0.84358679594026, -0.2238565110037, 0
2697, 0.87078152684469, -0.22386860613171, 0
2698, 0.38656839054701, -0.26170058000928, 0
2699, 0.40952440195024, -0.27408179247184, 0
2700, 0.34180622335337, -0.23875784692834, 0
2701, 0.15162155459841, 0.0090860009510059, 0
2702, 0.23186322562887, -0.060206320426263, 0
2703, 0.13965511913421, -0.050831387738541, 0
2704, 0.25636672510565, -0.28792948928383, 0
2705, 0.78603391003553, 0.070021119954846, 0
2706, 0.78609332643571, 0.049955903994713, 0
2707, 0.77501475488203, 0.034500200520586, 0
2708, 0.46066706284634, 0.27505101809417, 0
2709, 0.458319455099, 0.27913527343375, 0
2710, 0.78764967727847, 0.0056346492916967, 0
2711, 0.78386545214995, 0.0066606291317802, 0
2712, 0.7945641219447, -0.020905117486047, 0
2713, 0.88071979922351, -0.1177850714139, 0
2714, 0.92451127648346, -0.1526092541336, 0
2715, 0.88196995622943, -0.088546899493334, 0
2716, 0.77923289433808, -0.031308687003715, 0
2717, 0.82477862294128, -0.045236979335727, 0
2718, 0.78033324641956, -0.0091153466509183, 0
2719, 0.7836958199902, -0.011350938971519, 0
2720, 0.23789214656996, 0.079650527118338, 0
2721, 0.1579831305038, 0.14372024995738, 0
2722, 0.22625582645013, -0.042739977269016, 0
2723, 0.23357469002842, -0.076049622359059, 0
2724, 0.1898578778094, -0.10995892791898, 0
2725, 0.91464806037963, -0.093844114263181, 0
2726, 0.82964137614708, -0.06455779121483, 0
2727, 0.80085822754652, -0.052324421072469, 0
2728, 0.77856190401047, 0.00051479775855488, 0
2729, 0.26028411772308, -0.25108801105252, 0
2730, 0.15640588981597, -0.11290502860019, 0
2731, 0.2022732240587, -0.039991372992108, 0
2732, 0.21608082660237, -0.02206882212058, 0
2733, 0.17465675545305, -0.11172459103761, 0
2734, 0.34115124382997, -0.22901139647733, 0
2735, 0.36718108163734, -0.24075193863617, 0
2736, 0.35616535858341, -0.23748747001216, 0
2737, 0.65354647373398, 0.25335313773059, 0
2738, 0.64239557706253, 0.24315837359333, 0
2739, 0.89926948874587, -0.17593785326999, 0
2740, 0.92442597609918, -0.17528608560296, 0
2741, 0.77194068573371, -0.015682148579932, 0
2742, 0.81612980914339, -0.016304869697944, 0
2743, 0.81422005620253, -0.17356659593662, 0
2744, 0.71607423746933, -0.1749944672211, 0
2745, 0.73568752112516, -0.13874498320592, 0
2746, 0.66812582862263, 0.21970069695623, 0
2747, 0.73290864997374, 0.17600710527289, 0
2748, 0.77484465379861, 0.17781361780155, 0
2749, 0.74059611010228, 0.21818455135917, 0
2750, 0.69778007867533, 0.22564164545622, 0
2751, 0.20744479286105, 0.0034992278304035, 0
2752, 0.20642710929276, 0.13282827402413, 0
2753, 0.79737654947144, -0.040093158136983, 0
2754, 0.75556992410656, -0.10800364810848, 0
2755, 0.71956368842935, 0.21933795242959, 0
2756, 0.69219735565975, 0.21010783699582, 0
2757, 0.70330751694373, 0.21846122624703, 0
2758, 0.81603191035266, 0.17643821364277, 0
2759, 0.76147682041529, 0.19620612418735, 0
2760, 0.22735094626056, -0.085108223139658, 0
2761, 0.23240363026657, -0.067891981474746, 0
2762, 0.80961664866701, 0.085957085724723, 0
2763, 0.76050295365849, 0.096535422006524, 0
2764, 0.80091657436165, 0.08771233046819, 0
2765, 0.21319392206882, 0.065070798060997, 0
2766, 0.21147988706769, -0.098197343629678, 0
2767, 0.21428075430917, 0.016526565200818, 0
2768, 0.24333959616599, 0.13510353388198, 0
2769, 0.15035303083016, 0.1937358739719, 0
2770, 0.10764324923853, 0.082086045072951, 0
2771, 0.49935728682856, 0.29389730975838, 0
2772, 0.50034778063046, 0.27328982037614, 0
2773, 0.78674820036665, 0.16247139051664, 0
2774, 0.85002620059255, 0.11795417888831, 0
2775, 0.78366362758896, 0.18697133163794, 0
2776, 0.16162926529103, -0.12902180063621, 0
2777, 0.24720139201653, -0.16816675218626, 0
2778, 0.089704359454409, -0.21914420809558, 0
2779, 0.79729387396332, -0.2310571058567, 0
2780, 0.81869525383674, -0.2275019873301, 0
2781, 0.21387349050513, -0.21506715380292, 0
2782, 0.13994593433538, -0.13324050516594, 0
2783, 0.7947500596571, 0.13655503860376, 0
2784, 0.73746348351569, 0.16822639369744, 0
2785, 0.81825354015768, 0.15255716323684, 0
2786, 0.25949558405137, -0.23530057873095, 0
2787, 0.16616952824286, -0.20215620888571, 0
2788, 0.42793281890292, 0.27413085963791, 0
2789, 0.43338086831408, 0.27678827355882, 0
2790, 0.76261496674247, -0.23501965241342, 0
2791, 0.73112105283579, -0.24493839817336, 0
2792, 0.71590269198469, -0.2440550056129, 0
2793, 0.74814000757329, -0.21883337272625, 0
2794, 0.40446805559974, -0.25956046837263, 0
2795, 0.40630912430436, -0.26687415395114, 0
2796, 0.52036456064058, -0.28317151084609, 0
2797, 0.51500383165117, -0.28373475860836, 0
2798, 0.84922984210907, 0.21408395359912, 0
2799, 0.81502837179164, 0.21972515705633, 0
2800, 0.80809314087421, 0.063934796213044, 0
2801, 0.77180112256013, 0.063548187083245, 0
2802, 0.77515674907934, 0.070839413396008, 0
2803, 0.77137151143882, 0.069962248744117, 0
2804, 0.83198933458839, 0.21741210183531, 0
2805, 0.84822376841619, 0.18159402116332, 0
2806, 0.37309477552106, 0.24399369212339, 0
2807, 0.36072926914713, 0.23481410451211, 0
2808, 0.47439555516942, 0.28325627703442, 0
2809, 0.64189656378125, 0.24779312868784, 0
2810, 0.65129347939392, 0.26803790151949, 0
2811, 0.64732095538189, 0.24773232560093, 0
2812, 0.32194888607541, -0.2378560871779, 0
2813, 0.34060747285094, -0.27739436149718, 0
2814, 0.3186904102145, -0.26332619489151, 0
2815, 0.3291733173702, -0.28502203766573, 0
2816, 0.84520667099684, -0.049144498256631, 0
2817, 0.78645333670647, -0.082886585601741, 0
2818, 0.51085006773272, -0.27432474679816, 0
2819, 0.4864172180048, -0.27491995096207, 0
2820, 0.1231835195016, -0.21996623931953, 0
2821, 0.30476211271476, -0.27603734202589, 0
2822, 0.51092341809653, 0.27347996121799, 0
2823, 0.50363529142542, 0.27280375612426, 0
2824, 0.19214569561459, -0.27896219014382, 0
2825, 0.26936734125408, -0.1597575980117, 0
2826, 0.49638930968982, -0.27840315655069, 0
2827, 0.50785620711931, -0.29451758268491, 0
2828, 0.67333736610644, 0.26637528259792, 0
2829, 0.65686525854777, 0.28832967569552, 0
2830, 0.65542573484388, 0.23418327669002, 0
2831, 0.35343812532864, 0.27077424352857, 0
2832, 0.36964231236203, 0.24831039695092, 0
2833, 0.79912638081081, 0.041059779763754, 0
2834, 0.76789418543491, 0.07919786870856, 0
2835, 0.77201213947635, 0.072237917569297, 0
2836, 0.74112364739895, -0.1545934583741, 0
2837, 0.72305650044195, -0.17969112048087, 0
2838, 0.73745754246719, -0.14762106456031, 0
2839, 0.027362898462574, -0.27339038679792, 0
2840, 0.24620200518883, -0.2022346882146, 0
2841, 0.74904872394191, -0.15510551583062, 0
2842, 0.74498326870016, -0.16909695535939, 0
2843, 0.7017908750396, -0.19146885322562, 0
2844, 0.25156399231272, -0.2605385617756, 0
2845, 0.18348205335818, -0.23183107768802, 0
2846, 0.18651943529665, -0.13656291406877, 0
2847, 0.65302070946171, 0.26031333120487, 0
2848, 0.64224296486004, 0.26604338913284, 0
2849, 0.63440986588734, 0.24307861791024, 0
2850, 0.71293944237062, 0.20536299600607, 0
2851, 0.72664225864896, 0.18383756189409, 0
2852, 0.4441575340946, 0.2685856818163, 0
2853, 0.68626268027883, 0.26162845469767, 0
2854, 0.62354071917991, 0.25012932246268, 0
2855, 0.7855749431489, 0.21747125903121, 0
2856, 0.70519499142276, -0.24739307229626, 0
2857, 0.70549379974698, -0.25762981368544, 0
2858, 0.34223500337502, -0.28432857579283, 0
2859, 0.38802867433987, -0.25381977630806, 0
2860, 0.84648079622415, -0.087095556035585, 0
2861, 0.92336338246239, -0.13128856589563, 0
2862, 0.27070211622618, 0.15416530261495, 0
2863, 0.18869674547616, 0.24602649663051, 0
2864, 0.19145789997997, 0.10321757865153, 0
2865, 0.2215339390526, -0.034240907138089, 0
2866, 0.18222984628948, 0.017803604821927, 0
2867, 0.6532541404535, -0.23619599272792, 0
2868, 0.61236985388672, -0.25892314126477, 0
2869, 0.63519271705078, -0.25329758551277, 0
2870, 0.23170156195623, -0.056606647852592, 0
2871, 0.20987956515193, -0.091153732929219, 0
2872, 0.22598625756211, -0.023547067007608, 0
2873, 0.59835081123997, 0.26240862307299, 0
2874, 0.6079846417528, 0.27155728987372, 0
2875, 0.40271993783999, 0.26350846260084, 0
2876, 0.33040251524819, 0.25077459559858, 0
2877, 0.82784514664127, -0.05448374178664, 0
2878, 0.82372709350781, -0.10825935692285, 0
2879, 0.8977775154345, -0.10139513548132, 0
2880, 0.82406426251278, -0.021645039240703, 0
2881, 0.27029115998973, -0.17620537810256, 0
2882, 0.27073618094796, 0.26772214141603, 0
2883, 0.22706503749957, -0.046435006668279, 0
2884, 0.22494497928887, -0.0078287878375377, 0
2885, 0.36222242380473, -0.23606232171487, 0
2886, 0.74292744890417, 0.16515873192789, 0
2887, 0.74324641313465, 0.14487219303688, 0
2888, 0.1391240075159, -0.01651639556359, 0
2889, 0.71244941803027, -0.2367037974185, 0
2890, 0.77851209915434, -0.23360306465965, 0
2891, 0.20938313959677, -0.077454774512028, 0
2892, 0.21944679166097, 0.046841302533581, 0
2893, 0.84756004537484, -0.16913105630158, 0
2894, 0.82511813057814, -0.15811301558714, 0
2895, 0.25405373958347, 0.14510715821561, 0
2896, 0.19081765676623, 0.13222538827915, 0
2897, 0.81335170548691, -0.08349029744258, 0
2898, 0.75969762027227, -0.094740126461528, 0
2899, 0.75372786711923, -0.11689735750892, 0
2900, 0.22518976689286, -0.030565424203303, 0
2901, 0.65590897746405, -0.27607706771176, 0
2902, 0.65176785841714, -0.24461295519536, 0
2903, 0.7362024850784, -0.16605492549391, 0
2904, 0.73833657501998, -0.14123867505587, 0
2905, 0.70460952668128, -0.22620307139914, 0
2906, 0.85688442139996, 0.0050862974601614, 0
2907, 0.78676343030498, -0.0027805251721578, 0
2908, 0.75390085467597, -0.13287834951433, 0
2909, 0.78062385722343, -0.093741091287, 0
2910, 0.32940992132173, -0.22879038939394, 0
2911, 0.29789221777473, -0.22389276225529, 0
2912, 0.33883438251695, -0.2329812047669, 0
2913, 0.80794655115156, -0.14755174570578, 0
2914, 0.75376649050073, -0.11292554732607, 0
2915, 0.73331167226953, -0.14211860299048, 0
2916, 0.77809001870521, -0.11067398476246, 0
2917, 0.56182315392985, 0.27812244086453, 0
2918, 0.57305395629134, 0.26583719902053, 0
2919, 0.32029706262603, -0.23054304137822, 0
2920, 0.43024176116009, -0.29035090480002, 0
2921, 0.25709904174227, -0.19380160464805, 0
2922, 0.28748227337485, -0.19765660122062, 0
2923, 0.30655163649816, -0.1961485655706, 0
2924, 0.71764619489737, -0.21630359786687, 0
2925, 0.73461762064722, -0.20962885540446, 0
2926, 0.58340308438045, -0.26288625739065, 0
2927, 0.63120162779507, -0.26267813479438, 0
2928, 0.61264137737563, -0.27848260308923, 0
2929, 0.62286489377026, -0.27989266933686, 0
2930, 0.17757219609064, 0.18093136147124, 0
2931, 0.028109089921305, 0.24518360035671, 0
2932, 0.32805930474262, 0.2790291001998, 0
2933, 0.79850483715103, 0.2204578797632, 0
2934, 0.73264587699348, 0.22290541580119, 0
2935, 0.60726447277881, -0.25842543861002, 0
2936, 0.6383681003004, -0.2599235047559, 0
2937, 0.58093208414548, -0.27720085728954, 0
2938, 0.613772351232, -0.24952385692885, 0
2939, 0.56457724721944, -0.28022751680373, 0
2940, 0.3813864793599, 0.26585873161871, 0
2941, 0.84676779704639, 0.13921104121365, 0
2942, 0.52010265771209, -0.29422649732657, 0
2943, 0.55965441805171, -0.28694735259305, 0
2944, 0.24191553421141, 0.25056232459816, 0
2945, 0.58481343434251, 0.27518308494267, 0
2946, 0.58495397559303, 0.27011023613909, 0
2947, 0.31477943874783, -0.2486321759359, 0
2948, 0.32885918213482, -0.22233363200114, 0
2949, 0.87690887934026, -0.15341430585527, 0
2950, 0.53301630634593, -0.27445401396044, 0
2951, 0.57799080507805, -0.28506570508347, 0
2952, 0.62402516599976, -0.26419151945506, 0
2953, 0.3914958958659, 0.25496205099098, 0
2954, 0.38752915694581, 0.25955960385376, 0
2955, 0.49297100025631, 0.29422925170794, 0
2956, 0.78716856678846, -0.014019767079669, 0
2957, 0.41935750974498, 0.27256973421801, 0
2958, 0.40786327486686, 0.26562866244509, 0
2959, 0.27848296042151, -0.24989450981115, 0
2960, 0.24854638844216, -0.14729745577709, 0
2961, 0.19566147134591, -0.14727916136947, 0
2962, 0.6302026234243, -0.24253852016179, 0
2963, 0.61537075931634, -0.27114957644948, 0
2964, 0.25698892740893, -0.20279283965703, 0
2965, 0.71870208737546, -0.23189773246675, 0
2966, 0.34622717263941, -0.25334834367876, 0
2967, 0.27734465904729, -0.17468369299171, 0
2968, 0.24837809856051, -0.24213399653333, 0
2969, 0.13504912260977, -0.11337323756902, 0
2970, 0.21836540855857, 0.059821944855033, 0
2971, 0.15404527432194, -0.096246042735975, 0
2972, 0.74724403293421, -0.11600497814979, 0
2973, 0.74844126393107, -0.11247743935484, 0
2974, 0.83278205624046, 0.19072929013688, 0
2975, 0.23379226462675, 0.079589134295072, 0
2976, 0.19119490915498, 0.20367218077776, 0
2977, 0.54518744541512, 0.28140968008828, 0
2978, 0.54005026598316, 0.28142994324206, 0
2979, 0.29594631800384, -0.21198949198806, 0
2980, 0.174084617001, -0.25411582323077, 0
2981, 0.27755005764499, -0.22578185101232, 0
2982, 0.47033558383877, -0.27770851110822, 0
2983, 0.77662296180709, 0.074435535209151, 0
2984, 0.48061510963181, 0.29440232514413, 0
2985, 0.30088921116598, 0.19385608541682, 0
2986, 0.27543794730833, 0.18836379041398, 0
2987, 0.24501552913357, 0.20264939212157, 0
2988, 0.13899087111919, 0.24492030315019, 0
2989, 0.7492176958247, 0.15188537599454, 0
2990, 0.80033195802057, 0.15087105848309, 0
2991, 0.29382330653761, -0.24810034444618, 0
2992, 0.8737250273664, -0.17435689707123, 0
2993, 0.23193533752734, -0.099831542804112, 0
2994, 0.24148942809703, -0.10133120681563, 0
2995, 0.22325359325118, -0.056898473991998, 0
2996, 0.22840517358819, 0.19057919904109, 0
2997, 0.22963038320568, 0.13212966136657, 0
2998, 0.71427344905749, 0.24637696381816, 0
2999, 0.68950412611507, 0.23846837571382, 0
3000, 0.29197621199941, 0.19332817154115, 0
3001, 0.7906306054521, -0.065212579235827, 0
3002, 0.80886591446743, -0.012132681736212, 0
3003, 0.78277440791338, 0.034121982820524, 0
3004, 0.81864447616148, 0.12124334177359, 0
3005, 0.79407071011729, 0.15716881818756, 0
3006, 0.55055997819354, 0.28092071554753, 0
3007, 0.29364457513692, -0.18315263267238, 0
3008, 0.61990413705499, 0.25273714205528, 0
3009, 0.61526021963355, 0.26195123608836, 0
3010, 0.35053756712595, 0.23042462149919, 0
3011, 0.40160244558879, 0.25630225622571, 0
3012, 0.40646427104715, 0.281667911535, 0
3013, 0.22420537252875, -0.0039245948236325, 0
3014, 0.25552649081274, -0.14709485920532, 0
3015, 0.26084849539554, -0.15867977132172, 0
3016, 0.79151284143946, 0.11994725581027, 0
3017, 0.69616703144658, 0.20726341450804, 0
3018, 0.82189998982564, 0.1087463607344, 0
3019, 0.83465484902282, 0.096386844876618, 0
3020, 0.2187420285619, -0.085081522000371, 0
3021, 0.19536513596479, 0.034949452577993, 0
3022, 0.20751419305608, 0.039414483482709, 0
3023, 0.59099310272461, 0.28067876050356, 0
3024, 0.59757153170754, 0.2801126321201, 0
3025, 0.57795500895562, 0.2801127865696, 0
3026, 0.55402062686191, 0.27461869217343, 0
3027, 0.24794582352391, 0.15476778821898, 0
3028, 0.25801141233528, 0.16070016865998, 0
3029, 0.83395428363374, 0.062327704305624, 0
3030, 0.82102053111907, 0.050533774964195, 0
3031, 0.80148496956286, 0.068721744018973, 0
3032, 0.77557855699561, 0.056414867818545, 0
3033, 0.25604668775657, 0.15533401284495, 0
3034, 0.26092253770642, 0.16617667680304, 0
3035, 0.22216531350072, 0.14570272476036, 0
3036, 0.77302792672623, 0.096388018455357, 0
3037, 0.25385309396912, 0.14042357805766, 0
3038, 0.26124530996852, 0.22359755627051, 0
3039, 0.20279309121181, -0.10771992028877, 0
3040, 0.15426879376937, -0.079205379576932, 0
3041, 0.75182997743393, -0.16001421769691, 0
3042, 0.80472387547902, 0.0072268740003057, 0
3043, 0.7860007385517, 0.062054204024536, 0
3044, 0.77744983732919, 0.052404357573745, 0
3045, 0.2282377638624, 0.069370456757714, 0
3046, 0.77331144712737, -0.049872969502756, 0
3047, 0.2252293838457, 0.11597441299409, 0
3048, 0.82738395770263, 0.029481746827716, 0
3049, 0.22522664711438, -0.034635021494186, 0
3050, 0.22857162828956, -0.090036391994006, 0
3051, 0.24158617978418, 0.14042053958727, 0
3052, 0.75913010543333, -0.15504234337196, 0
3053, 0.19410085523605, 0.078502322721564, 0
3054, 0.23673243801269, -0.088761632765042, 0
3055, 0.23817526090906, -0.093008565168034, 0
3056, 0.17839621146952, 0.076802120744433, 0
3057, 0.51527243765083, -0.27407907828475, 0
3058, 0.72203115463745, -0.20605706398477, 0
3059, 0.32070818301163, -0.21698187410794, 0
3060, 0.25761831843935, -0.15310152059413, 0
3061, 0.22408487739065, 0.089190599338829, 0
3062, 0.22616203318764, -0.066523134458628, 0
3063, 0.76753137458654, 0.098104078030029, 0
3064, 0.27323400135721, -0.19016722100978, 0
3065, 0.30447767851118, -0.22043039800471, 0
3066, 0.25212221548156, -0.1204586455417, 0
3067, 0.64465956218499, -0.28902743026832, 0
3068, 0.59609031971932, -0.26312577169236, 0
3069, 0.59158519553727, -0.25946526228185, 0
3070, 0.77825992237456, -0.14516331019185, 0
3071, 0.20112915476262, -0.25845785899006, 0
3072, 0.25536847372446, 0.17496051510185, 0
3073, 0.17108656784719, 0.0031216313330826, 0
3074, 0.69727447679738, -0.2395299058969, 0
3075, 0.68558356763029, -0.24019204343507, 0
3076, 0.69111013019966, -0.23596577582602, 0
3077, 0.77268683804799, 0.13430102215602, 0
3078, 0.7573501927892, 0.18058350160106, 0
3079, 0.34630280224974, -0.24402592901716, 0
3080, 0.45240267120271, -0.28741542372149, 0
3081, 0.72587700412129, -0.15461790174327, 0
3082, 0.58446912718536, 0.28073719236972, 0
3083, 0.64906510382514, -0.23415909030587, 0
3084, 0.64431017355426, -0.24605580402722, 0
3085, 0.70772482703951, 0.20847233918305, 0
3086, 0.80111927912925, 0.16750547163094, 0
3087, 0.81310102289128, 0.13247311980356, 0
3088, 0.73357027738321, 0.18982907894538, 0
3089, 0.29072332928607, -0.18938501915084, 0
3090, 0.74347139875875, 0.171823143901, 0
3091, 0.25008171630247, -0.13383685739579, 0
3092, 0.21461996726009, -0.044865422191591, 0
3093, 0.774083199442, -0.12220878467366, 0
3094, 0.78505182573601, 0.1079562102315, 0
3095, 0.7865040570913, 0.10267399628625, 0
3096, 0.69225913130215, 0.20074218661204, 0
3097, 0.24750061174518, -0.21373448728716, 0
3098, 0.22468812869277, -0.26580972567661, 0
3099, 0.27922942081302, -0.16338856892691, 0
3100, 0.26568325744796, -0.19536148770277, 0
3101, 0.29454168858231, -0.18640639743985, 0
3102, 0.30388700037724, 0.20096888912731, 0
3103, 0.2979905385921, 0.20205644340244, 0
3104, 0.30901788116619, 0.20833654366134, 0
3105, 0.2850089641954, -0.16973464117033, 0
3106, 0.266287249721, -0.20296303768243, 0
3107, 0.8306788291656, 0.081461441329007, 0
3108, 0.81969688635329, 0.083724775090339, 0
3109, 0.28738429706622, 0.18140373020851, 0
3110, 0.30905342897015, 0.24020315770519, 0
3111, 0.29674938769297, 0.1904258712211, 0
3112, 0.25978714993266, 0.12849100757789, 0
3113, 0.78420957637178, -0.017926165099672, 0
3114, 0.21635844888877, 0.037090665191275, 0
3115, 0.79211762613043, 0.00079595550130914, 0
3116, 0.78910352753262, -0.042794178805584, 0
3117, 0.66182124042912, 0.25979201030442, 0
3118, 0.26674155931419, 0.23313312065295, 0
3119, 0.67134373529443, -0.24530691761378, 0
3120, 0.67842373491963, -0.2431479733109, 0
3121, 0.86101777192769, -0.11643156747487, 0
3122, 0.29128999000981, 0.22058709075945, 0
3123, 0.28128250897936, 0.2343278210777, 0
3124, 0.27358410101015, -0.19660959594231, 0
3125, 0.66304110767154, -0.24008718420256, 0
3126, 0.74071697027551, 0.20676390263692, 0
3127, 0.68207117999381, 0.20904904666403, 0
3128, 0.70693574995584, 0.22362643432387, 0
3129, 0.37071240305467, 0.25634129321168, 0
3130, 0.79091850415553, -0.059353595914162, 0
3131, 0.12764460108944, 0.18511425056848, 0
3132, 0.6832942201009, 0.24314949905937, 0
3133, 0.75647865322079, 0.16842894479216, 0
3134, 0.22585001443461, 0.13840047356023, 0
3135, 0.7046754784502, -0.23942475827392, 0
3136, 0.90370478145833, -0.080000730025516, 0
3137, 0.71725767417746, -0.2091242815031, 0
3138, 0.35724401589384, 0.24014523576948, 0
3139, 0.13919123751919, -0.27509928499037, 0
3140, 0.69868839937702, -0.194510140278, 0
3141, 0.27746592663886, -0.20991887441913, 0
3142, 0.78227528589148, -0.13425618644785, 0
3143, 0.84364824137334, 0.07924962703452, 0
3144, 0.74710170705507, 0.18637691723705, 0
3145, 0.65705813243569, -0.23568454733888, 0
3146, 0.74159732078076, -0.20670934740074, 0
3147, 0.28011702404531, 0.21709202466382, 0
3148, 0.33067198055802, -0.25237976519955, 0
3149, 0.42400765968296, 0.27016033532509, 0
3150, 0.19986303679758, 0.12429317402039, 0
3151, 0.25971506537697, -0.16808896063542, 0
3152, 0.76183192378421, -0.19582471309513, 0
3153, 0.75824483401176, 0.17395993248236, 0
3154, 0.78259019345087, 0.11250578159653, 0
3155, 0.22420420668869, 0.12669726770524, 0
3156, 0.29939854319221, -0.18678377015909, 0
3157, 0.75598667377126, -0.12736571368843, 0
3158, 0.20952315131111, 0.045183569893479, 0
3159, 0.22284828703056, 0.021852343535672, 0
3160, 0.78842899032148, -0.077061344295744, 0
3161, 0.20611903021888, 0.0091103379940976, 0
3162, 0.79187798826369, 0.0058697117815195, 0
3163, 0.16687005435175, 0.22183614999246, 0
3164, 0.87922485345209, -0.13468234274161, 0
3165, 0.70183204791974, 0.23000140349835, 0
3166, 0.64382339286462, -0.23904046608422, 0
3167, 0.61097121586909, 0.27753212119565, 0
3168, 0.43601712000397, -0.28321159477097, 0
3169, 0.7264977911487, -0.15178954949845, 0
3170, 0.25905372956768, -0.1369558273642, 0
3171, 0.054937118670675, -0.27330273829087, 0
3172, 0.53531855106492, -0.27714235164364, 0
3173, 0.62945509650245, 0.24469935594164, 0
3174, 0.63766184352959, 0.27261049458796, 0
3175, 0.36620631417645, -0.25852167934079, 0
3176, 0.55866480579742, 0.27325721584597, 0
3177, 0.12775887782105, 0.14487665839768, 0
3178, 0.23974922381324, -0.097208485862501, 0
3179, 0.27947967568083, 0.28487936265075, 0
3180, 0.39756077755073, -0.27305880120534, 0
3181, 0.68427543954841, -0.25636888303752, 0
3182, 0.46619740446437, 0.27216045930791, 0
3183, 0.44484459837096, 0.27860689583009, 0
3184, 0.7421579896672, -0.18822430651857, 0
3185, 0.086109261320344, 0.11375746181693, 0
3186, 0.17117575400906, -0.084589911394308, 0
3187, 0.8580131156274, 0.039588828127653, 0
3188, 0.83481023233593, 0.1122052124287, 0
3189, 0.44919137566859, -0.27008005558051, 0
3190, 0.34256057712582, 0.27043810714988, 0
3191, 0.67304177421246, 0.22449766770007, 0
3192, 0.43002505780225, -0.2698457669488, 0
3193, 0.23535082723922, -0.25185456039689, 0
3194, 0.24563506715945, 0.21586494151945, 0
3195, 0.2113676549402, -0.0065929984232161, 0
3196, 0.14725809593717, 0.12876196052377, 0
3197, 0.7019231569786, 0.22486066255373, 0
3198, 0.34001756347802, -0.22319468203801, 0
3199, 0.28355981413402, 0.17863613424142, 0
3200, 0.2620144522113, 0.28223154294901, 0
3201, 0.29377521106673, 0.18056335869012, 0
3202, 0.17860794168891, 0.10859250564085, 0
3203, 0.62323325420185, 0.24483155439103, 0
3204, 0.79079437656884, -0.017183026056465, 0
3205, 0.20220760571339, -0.0067086160453478, 0
3206, 0.24275408713484, 0.17829326153713, 0
3207, 0.28523867380949, -0.18814799835952, 0
3208, 0.22314555798889, -0.18308194634768, 0
3209, 0.75031403271583, 0.17540531725251, 0
3210, 0.71080759979491, -0.18183972733884, 0
3211, 0.6278810917564, -0.24996385612506, 0
3212, 0.70303682864378, 0.19189704228537, 0
3213, 0.73808229141531, 0.24184580555858, 0
3214, 0.53218665576502, 0.27965679530778, 0
3215, 0.36455915498445, -0.2383624294231, 0
3216, 0.7509819721977, -0.11317309754087, 0
3217, 0.73314548661364, -0.18065136166076, 0
3218, 0.55343468779197, -0.29348847548001, 0
3219, 0.22176349527429, -0.0298115556272, 0
3220, 0.35320244248469, 0.23606111919246, 0
3221, 0.76870519387091, 0.058804579811455, 0
3222, 0.27643407498501, -0.16002967762756, 0
3223, 0.71850168879424, 0.1912790531063, 0
3224, 0.78119017352697, 0.07269625947499, 0
3225, 0.744240272374, -0.1400282221346, 0
3226, 0.71797906653902, -0.22323944143684, 0
3227, 0.86692113801855, -0.073375715361078, 0
3228, 0.78225060235786, 0.065669168234171, 0
3229, 0.1810652879234, 0.14254009563905, 0
3230, 0.7734613997931, 0.042963843270444, 0
3231, 0.76089901844586, -0.12861284057091, 0
3232, 0.22665000601883, -0.06248770330014, 0
3233, 0.78974511029118, -0.025297010401393, 0
3234, 0.25582608050297, 0.26114275040495, 0
3235, 0.22953889405466, 0.079123017472607, 0
3236, 0.5032369671921, -0.28906242005356, 0
3237, 0.62919719400695, 0.24045354693593, 0
3238, 0.49244800394444, 0.27406904207813, 0
3239, 0.48415165856754, -0.28638492472642, 0
3240, 0.52584825146299, 0.29370675774122, 0
3241, 0.59189877857051, -0.26571035022399, 0
3242, 0.7669004888662, 0.094868251362757, 0
3243, 0.78547282951901, 0.1501182969606, 0
3244, 0.21344917037384, 0.17615582129118, 0
3245, 0.5639124233334, 0.26616696291075, 0
3246, 0.28889549021023, -0.29108144221953, 0
3247, 0.63165116558377, 0.23859187531828, 0
3248, 0.37662477093307, -0.24778626763917, 0
3249, 0.714201967361, -0.22732118431325, 0
3250, 0.72956238998471, -0.22871321778226, 0
3251, 0.83201942201032, 0.12763699697746, 0
3252, 0.73792142913629, 0.19742925049936, 0
3253, 0.71016707142058, 0.18563265118186, 0
3254, 0.66443804282742, 0.22975571726915, 0
3255, 0.86356094785191, 0.1667117090334, 0
3256, 0.1523164133422, 0.069303653283484, 0
3257, 0.21370354311818, -0.01086058552468, 0
3258, 0.76170878892912, -0.091072859860714, 0
3259, 0.83769293703106, -0.1936112761882, 0
3260, 0.2284682207946, -0.023880399872382, 0
3261, 0.77623493600975, 0.14573382994318, 0
3262, 0.19421701336074, -0.12023649840129, 0
3263, 0.60213535368814, 0.27311497966543, 0
3264, 0.63452111154349, 0.23743507353086, 0
3265, 0.64133356049112, 0.28657868681576, 0
3266, 0.62675450353004, 0.24740665299299, 0
3267, 0.14611181451478, -0.25036585708591, 0
3268, 0.36997174945136, -0.26208559837, 0
3269, 0.73375567830879, -0.15070359080238, 0
3270, 0.25627719288047, 0.24042567338401, 0
3271, 0.21906052524715, 0.26852347044273, 0
3272, 0.1141260060549, -0.13640971519797, 0
3273, 0.12080631704231, -0.16081600528133, 0
3274, 0.25183354437292, -0.22510531615607, 0
3275, 0.13272415965373, -0.18880135848071, 0
3276, 0.30293636500264, -0.20992607337792, 0
3277, 0.23325622559879, -0.20082861264814, 0
3278, 0.26067700728062, -0.27674342680165, 0
3279, 0.31710450921831, -0.29235434232878, 0
3280, 0.35683710774935, -0.28146340715725, 0
3281, 0.33286442393761, -0.2185986972953, 0
3282, 0.37362020093372, -0.25454568550916, 0
3283, 0.40856329123467, -0.26062864011006, 0
3284, 0.37007292241161, -0.24315037885394, 0
3285, 0.35307222886477, -0.27530741851184, 0
3286, 0.33431628728441, -0.24189815477032, 0
3287, 0.27305422379956, -0.28978028099073, 0
3288, 0.36706342639784, -0.2486980767855, 0
3289, 0.38549489604971, -0.270325253135, 0
3290, 0.34362984839345, -0.22533620634958, 0
3291, 0.24879551085662, -0.14002643968561, 0
3292, 0.27973510910434, -0.27086428739804, 0
3293, 0.36014677895803, -0.23400151235078, 0
3294, 0.64026386506676, -0.2499658954831, 0
3295, 0.65322889316812, -0.26338628860882, 0
3296, 0.29203851128809, 0.24221209624818, 0
3297, 0.29476164348556, 0.2580331926085, 0
3298, 0.33030155071032, -0.2923985625645, 0
3299, 0.34387025480549, -0.29177912151041, 0
3300, 0.35858152361843, -0.2353717137566, 0
3301, 0.39146046525384, -0.26342034734356, 0
3302, 0.34930105178722, -0.23250599313391, 0
3303, 0.36191042591798, -0.28798182159988, 0
3304, 0.23482545208515, 0.08826016691503, 0
3305, 0.22371486233174, 0.030714967911186, 0
3306, 0.42077852310048, -0.26775568522815, 0
3307, 0.42228217047419, -0.28800519792896, 0
3308, 0.21464697904564, 0.026838774269897, 0
3309, 0.22264494327967, -0.043094090255792, 0
******* E L E M E N T S *************
*ELEMENT, type=CPS4, ELSET=Surface1
1, 682, 1467, 1468, 1465
2, 1465, 1468, 1466, 663
3, 1468, 85, 96, 1466
4, 1467, 95, 85, 1468
5, 683, 1471, 1472, 1469
6, 1469, 1472, 82, 93
7, 1472, 1470, 92, 82
8, 1471, 686, 1470, 1472
9, 686, 1474, 1475, 1470
10, 1470, 1475, 81, 92
11, 1475, 1473, 91, 81
12, 1474, 684, 1473, 1475
13, 183, 1478, 1479, 172
14, 172, 1479, 1476, 182
15, 1479, 1477, 652, 1476
16, 1478, 651, 1477, 1479
17, 650, 1482, 1483, 1480
18, 1480, 1483, 170, 181
19, 1483, 1481, 180, 170
20, 1482, 648, 1481, 1483
21, 90, 80, 1486, 1484
22, 1484, 1486, 1485, 685
23, 1486, 1473, 684, 1485
24, 80, 91, 1473, 1486
25, 890, 33, 44, 884
26, 1423, 1488, 2114, 1654
27, 2982, 2008, 1653, 2020
28, 2021, 2827, 2110, 1825
29, 1671, 1627, 2984, 1625
30, 981, 975, 1685, 1958
31, 1562, 1564, 673, 1626
32, 640, 746, 1493, 2822
33, 649, 1496, 1497, 1495
34, 1495, 1497, 173, 184
35, 1497, 1478, 183, 173
36, 1496, 651, 1478, 1497
37, 2045, 1825, 2110, 2942
38, 1673, 1356, 1214, 1532
39, 1112, 52, 42, 3218
40, 1505, 3172, 2950, 2004
41, 681, 1503, 1504, 1502
42, 1502, 1504, 83, 94
43, 1504, 1469, 93, 83
44, 1503, 683, 1469, 1504
45, 1214, 1599, 570, 237
46, 2796, 1673, 1120, 2797
47, 655, 2982, 1658, 1490
48, 2005, 233, 573, 1215
49, 178, 1510, 1511, 167
50, 167, 1511, 1508, 177
51, 1511, 1509, 631, 1508
52, 1510, 646, 1509, 1511
53, 1048, 1037, 2681, 1056
54, 1547, 2312, 412, 395
55, 2682, 3043, 1398, 2680
56, 3141, 2622, 3106, 1515
57, 929, 1369, 1516, 1645
58, 2981, 2599, 1768, 931
59, 2412, 719, 712, 1667
60, 2302, 2895, 1650, 772
61, 718, 2432, 776, 2434
62, 1019, 1021, 1971, 1521
63, 179, 1526, 1527, 168
64, 168, 1527, 1510, 178
65, 1527, 1525, 646, 1510
66, 1526, 647, 1525, 1527
67, 676, 1530, 1531, 1528
68, 1528, 1531, 123, 134
69, 1531, 1529, 133, 123
70, 1530, 675, 1529, 1531
71, 1500, 1117, 2005, 1118
72, 2943, 2143, 2939, 1533
73, 2943, 1501, 2145, 2143
74, 1118, 2005, 1215, 693
75, 979, 1538, 1539, 1536
76, 679, 2117, 3245, 1727
77, 978, 3025, 3082, 2154
78, 1538, 452, 355, 1539
79, 2122, 562, 245, 1609
80, 1584, 559, 248, 2596
81, 884, 44, 34, 1813
82, 2104, 3306, 2123, 1198
83, 851, 2318, 820, 1373
84, 3020, 2760, 2239, 1316
85, 2802, 2835, 2803, 1636
86, 2448, 2266, 1775, 1406
87, 1384, 2834, 1946, 1399
88, 2810, 2848, 1550, 2847
89, 1218, 964, 1688, 1278
90, 2211, 2120, 3024, 988
91, 966, 3117, 968, 2828
92, 3265, 106, 118, 1313
93, 3265, 1313, 972, 1900
94, 1556, 2562, 1312, 3009
95, 970, 1556, 992, 2475
96, 75, 64, 1560, 1557
97, 1557, 1560, 1558, 701
98, 1560, 1559, 703, 1558
99, 64, 76, 1559, 1560
100, 461, 346, 1564, 1561
101, 1561, 1564, 1562, 748
102, 1684, 2772, 2823, 1430
103, 1683, 1563, 3240, 674
104, 2307, 2546, 2764, 1568
105, 1938, 3048, 1849, 1548
106, 1013, 1848, 1960, 1566
107, 1032, 1444, 2576, 1033
108, 1819, 3216, 2973, 2972
109, 2288, 2753, 3116, 1877
110, 1105, 2741, 619, 188
111, 1098, 2726, 2877, 1087
112, 2901, 1119, 3067, 2180
113, 2495, 1149, 1972, 1178
114, 1149, 1574, 2496, 1972
115, 1157, 2181, 2179, 696
116, 111, 100, 1579, 1576
117, 1576, 1579, 1577, 664
118, 1579, 1578, 665, 1577
119, 100, 112, 1578, 1579
120, 698, 1581, 1582, 1580
121, 1580, 1582, 1484, 685
122, 1582, 79, 90, 1484
123, 1581, 89, 79, 1582
124, 719, 496, 311, 712
125, 1518, 1908, 3028, 3034
126, 3033, 2302, 772, 1652
127, 3027, 2608, 2302, 3033
128, 2221, 659, 1942, 3289
129, 1223, 821, 3292, 2500
130, 2373, 2196, 897, 3079
131, 182, 1476, 1587, 171
132, 171, 1587, 1480, 181
133, 1587, 1586, 650, 1480
134, 1476, 652, 1586, 1587
135, 1941, 2947, 2140, 1910
136, 2140, 920, 2039, 1455
137, 3298, 3279, 28, 17
138, 893, 2105, 1542, 1271
139, 94, 84, 1592, 1502
140, 1502, 1592, 1591, 681
141, 1592, 1467, 682, 1591
142, 84, 95, 1467, 1592
143, 1595, 800, 1935, 1258
144, 2971, 1372, 2969, 2730
145, 1919, 2691, 2292, 2250
146, 800, 1419, 792, 1935
147, 1532, 1214, 237, 569
148, 689, 2100, 1357, 1113
149, 1215, 573, 234, 1600
150, 1865, 232, 574, 1117
151, 3221, 2310, 411, 396
152, 3116, 2293, 1252, 1099
153, 1082, 3258, 2898, 2540
154, 1252, 2273, 1800, 629
155, 1248, 130, 141, 1680
156, 1602, 2852, 1604, 749
157, 2074, 747, 344, 462
158, 642, 2708, 2074, 3182
159, 943, 2758, 1267, 3086
160, 940, 378, 428, 1970
161, 3153, 3078, 1268, 3209
162, 933, 1970, 1524, 2747
163, 657, 2104, 1198, 1199
164, 1609, 245, 561, 1231
165, 2794, 3283, 555, 252
166, 3189, 246, 560, 2089
167, 3139, 1613, 23, 12
168, 880, 879, 875, 1323
169, 3039, 2724, 3262, 863
170, 535, 3105, 911, 271
171, 1313, 1555, 1695, 972
172, 989, 2854, 3266, 1314
173, 2475, 992, 1901, 974
174, 3009, 1663, 2391, 967
175, 2702, 520, 287, 2870
176, 1409, 2995, 854, 860
177, 3161, 2751, 2011, 2692
178, 2283, 2900, 1375, 1427
179, 1760, 2828, 2853, 669
180, 1555, 1551, 2211, 1695
181, 988, 3024, 2512, 3263
182, 1314, 3266, 3173, 1457
183, 864, 3039, 878, 2766
184, 714, 2291, 2249, 841
185, 2243, 1546, 295, 511
186, 1626, 673, 2033, 976
187, 1436, 1437, 746, 640
188, 1670, 2822, 456, 351
189, 2771, 126, 137, 2955
190, 2404, 2507, 1932, 3217
191, 1168, 1140, 209, 597
192, 3093, 2278, 2148, 1069
193, 2305, 2916, 1257, 3093
194, 96, 86, 1632, 1466
195, 1466, 1632, 1630, 663
196, 1632, 1631, 666, 1630
197, 86, 97, 1631, 1632
198, 1392, 2911, 1646, 1643
199, 1211, 2781, 1391, 3277
200, 2331, 2470, 1343, 623
201, 1186, 3208, 2641, 908
202, 1039, 3002, 2742, 1638
203, 2683, 1048, 3048, 1938
204, 1041, 3044, 1027, 2337
205, 787, 2702, 2870, 2056
206, 3021, 806, 2568, 859
207, 2656, 860, 1770, 2366
208, 1317, 3256, 2543, 1773
209, 2087, 877, 1359, 2560
210, 543, 624, 2517, 263
211, 827, 2082, 526, 281
212, 2994, 827, 281, 525
213, 2351, 2468, 2842, 2507
214, 2744, 1168, 597, 210
215, 2350, 1782, 2377, 1811
216, 2790, 2890, 1203, 1170
217, 1796, 3123, 2550, 3118
218, 1517, 2605, 1454, 2303
219, 1650, 2378, 2315, 1737
220, 2608, 1907, 2895, 2302
221, 1434, 47, 37, 881
222, 1653, 1114, 564, 243
223, 1659, 655, 1490, 1717
224, 1120, 3057, 2818, 2114
225, 1817, 2020, 563, 244
226, 2068, 1818, 2009, 1424
227, 1282, 834, 3180, 1242
228, 2067, 1659, 654, 1115
229, 1556, 3009, 967, 992
230, 3254, 1552, 1622, 1007
231, 2063, 1661, 1772, 1265
232, 1549, 362, 444, 971
233, 1664, 1227, 2918, 1805
234, 1226, 1726, 448, 359
235, 987, 1449, 3025, 978
236, 1665, 2124, 3006, 1860
237, 2379, 3134, 2997, 1905
238, 1454, 309, 497, 2303
239, 1678, 1652, 2862, 1403
240, 1906, 707, 494, 313
241, 1492, 1431, 1924, 1923
242, 1564, 346, 460, 673
243, 1672, 2032, 744, 2098
244, 1432, 1683, 674, 1959
245, 1113, 1357, 1112, 2112
246, 2004, 2950, 1534, 1599
247, 1823, 688, 1598, 1116
248, 1535, 1600, 688, 1823
249, 2909, 2277, 1386, 1100
250, 1513, 1025, 3003, 1052
251, 1102, 186, 9, 2272
252, 1795, 2440, 2348, 3147
253, 2051, 1259, 2412, 2601
254, 2327, 3206, 3072, 2425
255, 2328, 2657, 2752, 1402
256, 750, 1680, 2138, 2137
257, 752, 1254, 2628, 641
258, 748, 642, 3182, 1561
259, 1603, 2128, 645, 2469
260, 674, 3240, 124, 135
261, 977, 3238, 1834, 1682
262, 2098, 744, 977, 1682
263, 1685, 1957, 455, 352
264, 1265, 1772, 439, 368
265, 1279, 3191, 1277, 2367
266, 1277, 1689, 962, 994
267, 372, 434, 934, 2043
268, 3066, 1323, 528, 279
269, 623, 1343, 1878, 1884
270, 3178, 2994, 525, 282
271, 2343, 828, 1840, 2384
272, 968, 1553, 2503, 2526
273, 2849, 1266, 993, 2461
274, 3008, 963, 2399, 2854
275, 2391, 677, 963, 3008
276, 2429, 303, 503, 2096
277, 1287, 1934, 3047, 2535
278, 1698, 1845, 1697, 798
279, 1996, 2245, 3150, 784
280, 1130, 1703, 1704, 1701
281, 1701, 1704, 1702, 1148
282, 1704, 217, 589, 1702
283, 1703, 590, 217, 1704
284, 2509, 876, 2865, 855
285, 3056, 3053, 2301, 713
286, 1371, 1754, 1621, 2320
287, 1853, 794, 301, 505
288, 1571, 1109, 1776, 1101
289, 2420, 1105, 188, 618
290, 2672, 2718, 1571, 1101
291, 1378, 1978, 381, 425
292, 2638, 2591, 2286, 2498
293, 1977, 1192, 998, 954
294, 3212, 430, 377, 2439
295, 2872, 2283, 1427, 3260
296, 2900, 3049, 1234, 1375
297, 1366, 2362, 2456, 2471
298, 2054, 1412, 2306, 2293
299, 1346, 2334, 1095, 1085
300, 2818, 568, 239, 653
301, 653, 239, 567, 2113
302, 1715, 1489, 2008, 1824
303, 1812, 1282, 1242, 661
304, 736, 2876, 2564, 2445
305, 2161, 2057, 2807, 2000
306, 731, 2447, 1352, 1719
307, 1047, 2269, 2312, 2414
308, 2351, 1723, 1072, 2468
309, 1665, 2115, 2125, 2124
310, 1903, 1537, 447, 360
311, 1537, 1226, 359, 447
312, 2917, 3176, 679, 1725
313, 419, 388, 1731, 1728
314, 1728, 1731, 1729, 1015
315, 1731, 1730, 1014, 1729
316, 388, 418, 1730, 1731
317, 1321, 3276, 2979, 1514
318, 1324, 2361, 3124, 2622
319, 3079, 897, 1998, 1885
320, 3307, 893, 1271, 2400
321, 1829, 1832, 1843, 733
322, 733, 1843, 3010, 2444
323, 2024, 1718, 2444, 3220
324, 2432, 783, 2328, 776
325, 708, 2051, 2601, 1320
326, 712, 311, 495, 3112
327, 2601, 2412, 1667, 817
328, 1707, 1620, 785, 2299
329, 3170, 874, 1370, 2488
330, 875, 626, 529, 278
331, 2663, 1757, 2621, 1275
332, 768, 1743, 1744, 1741
333, 1741, 1744, 1742, 727
334, 1744, 326, 480, 1742
335, 1743, 481, 326, 1744
336, 941, 380, 426, 1711
337, 1521, 1971, 1378, 1709
338, 1017, 995, 3077, 945
339, 2454, 1017, 2375, 3016
340, 1953, 3012, 1871, 2147
341, 2940, 1362, 638, 2668
342, 1463, 1985, 1462, 1749
343, 758, 1464, 740, 1952
344, 1234, 837, 517, 290
345, 2731, 866, 852, 2604
346, 3022, 859, 802, 3114
347, 3232, 2326, 2702, 787
348, 1756, 2086, 2559, 2967
349, 1891, 909, 830, 2402
350, 990, 1761, 1762, 1759
351, 671, 2474, 438, 369
352, 3174, 2475, 974, 2848
353, 1761, 446, 361, 1762
354, 1763, 1811, 1137, 1140
355, 3058, 1354, 1649, 3137
356, 1629, 2356, 2843, 1956
357, 2836, 1138, 2357, 1782
358, 3128, 3197, 2076, 2757
359, 1337, 1003, 2594, 2370
360, 3096, 2504, 432, 375
361, 2039, 1643, 929, 1455
362, 2331, 1344, 2618, 2470
363, 2581, 1371, 2320, 1261
364, 866, 804, 790, 852
365, 3205, 853, 2751, 2427
366, 2604, 1774, 819, 1754
367, 1740, 1705, 796, 2542
368, 2693, 2325, 288, 518
369, 2737, 969, 2811, 991
370, 2830, 2513, 671, 1554
371, 3237, 366, 440, 3247
372, 2411, 3174, 2848, 2810
373, 3309, 2366, 2883, 2722
374, 801, 791, 799, 2363
375, 3195, 3257, 2010, 2236
376, 1038, 2673, 2397, 1512
377, 2458, 2289, 1064, 2716
378, 2548, 2742, 3002, 1080
379, 1092, 1098, 1087, 1675
380, 899, 1456, 2403, 2910
381, 2858, 2813, 2595, 2815
382, 903, 3268, 3175, 2632
383, 1644, 872, 2787, 831
384, 2357, 3269, 1073, 2480
385, 2467, 1219, 2541, 1647
386, 1880, 3210, 1164, 1724
387, 865, 1839, 1209, 826
388, 1359, 880, 1323, 3066
389, 1209, 2994, 3178, 2993
390, 910, 1980, 2360, 2636
391, 2153, 2821, 821, 1223
392, 3287, 2704, 26, 15
393, 1998, 2025, 2736, 1909
394, 2400, 1271, 1280, 2107
395, 2938, 225, 581, 1912
396, 2136, 2393, 1789, 2937
397, 1899, 1161, 55, 67
398, 3068, 2035, 691, 3069
399, 648, 1792, 1793, 1481
400, 1481, 1793, 169, 180
401, 1793, 1526, 179, 169
402, 1792, 647, 1526, 1793
403, 2348, 763, 722, 3122
404, 634, 778, 2379, 770
405, 3104, 761, 2389, 1677
406, 780, 775, 2052, 2426
407, 1188, 1097, 1104, 2726
408, 1064, 1058, 2460, 2271
409, 1085, 1095, 194, 612
410, 2419, 1570, 1086, 1411
411, 1575, 1176, 222, 584
412, 1574, 588, 219, 2496
413, 1193, 2867, 1153, 694
414, 2022, 1572, 221, 585
415, 1449, 1666, 1859, 3025
416, 628, 985, 983, 1225
417, 3245, 357, 449, 985
418, 987, 2118, 2115, 1665
419, 2131, 2132, 3148, 1611
420, 1939, 253, 553, 2339
421, 897, 1460, 2025, 1998
422, 919, 2735, 3215, 1940
423, 3210, 1074, 596, 211
424, 2479, 2792, 2856, 2857
425, 1722, 2915, 1127, 2349
426, 2745, 204, 602, 2915
427, 834, 2795, 2088, 3180
428, 2920, 2, 33, 890
429, 656, 1197, 1243, 913
430, 621, 1231, 3189, 1281
431, 1016, 3209, 1327, 3090
432, 1815, 1816, 1728, 1015
433, 1816, 387, 419, 1728
434, 1327, 2747, 2438, 3090
435, 687, 48, 38, 1597
436, 2113, 567, 240, 887
437, 1655, 241, 565, 1660
438, 1715, 1424, 1656, 1489
439, 2916, 1076, 1348, 1257
440, 1873, 2631, 1169, 1693
441, 2898, 609, 198, 2258
442, 2149, 2260, 1076, 2916
443, 690, 2943, 1533, 2046
444, 3080, 1787, 1890, 1541
445, 1356, 2004, 1599, 1214
446, 1659, 1717, 1433, 654
447, 3178, 282, 524, 3055
448, 3260, 515, 292, 836
449, 814, 809, 507, 300
450, 807, 1995, 3050, 2437
451, 728, 1831, 1832, 1829
452, 2445, 2564, 2565, 1361
453, 1831, 479, 328, 1832
454, 1563, 676, 1528, 3240
455, 975, 1924, 1957, 1685
456, 1437, 1684, 1430, 746
457, 1431, 640, 2822, 1670
458, 2783, 1008, 2990, 1380
459, 1191, 1767, 431, 376
460, 3212, 1191, 376, 430
461, 3133, 3153, 3209, 1016
462, 804, 1826, 2524, 790
463, 830, 3065, 2911, 1392
464, 2837, 2464, 2744, 1074
465, 1172, 3081, 207, 599
466, 1292, 2660, 1994, 631
467, 1700, 789, 2429, 1429
468, 1415, 2406, 720, 2551
469, 2533, 2976, 2688, 3163
470, 2536, 788, 1699, 2487
471, 1922, 1385, 1960, 1848
472, 2528, 1943, 2597, 2309
473, 1030, 3095, 2527, 1012
474, 2309, 2597, 3063, 3036
475, 2698, 2339, 2859, 2139
476, 2129, 2632, 917, 914
477, 1979, 1324, 2622, 3141
478, 1540, 886, 888, 1608
479, 2522, 2573, 861, 3256
480, 1968, 2243, 511, 296
481, 1074, 2744, 210, 596
482, 1856, 1858, 1857, 1133
483, 1858, 214, 592, 1857
484, 1094, 2055, 1931, 2754
485, 1664, 1805, 986, 1451
486, 1727, 3245, 985, 628
487, 1859, 1451, 2946, 2945
488, 3025, 1859, 2945, 3082
489, 1816, 1607, 420, 387
490, 1710, 2623, 2759, 1835
491, 2286, 2473, 384, 422
492, 1899, 2202, 2929, 2928
493, 2112, 1112, 3218, 690
494, 2046, 1533, 1500, 1118
495, 753, 1868, 1869, 1866
496, 1866, 1869, 1867, 754
497, 1869, 339, 467, 1867
498, 1868, 468, 339, 1869
499, 154, 1871, 1872, 142
500, 142, 1872, 1870, 7
501, 1752, 2940, 2668, 2954
502, 757, 1964, 3012, 1953
503, 3157, 2073, 1202, 2908
504, 2055, 608, 199, 1931
505, 1931, 199, 607, 1387
506, 1070, 2305, 3142, 2612
507, 1084, 2276, 1821, 1083
508, 1071, 1129, 202, 604
509, 1070, 2612, 2913, 1068
510, 1089, 1163, 3160, 2817
511, 2456, 1982, 533, 274
512, 2333, 2754, 1383, 2914
513, 1135, 697, 2644, 3250
514, 935, 3253, 940, 2851
515, 1766, 2755, 1338, 2662
516, 2755, 1295, 2502, 1338
517, 2810, 2847, 3117, 966
518, 2622, 3124, 3100, 3106
519, 537, 2457, 823, 269
520, 2616, 2344, 1980, 910
521, 2814, 1297, 1941, 906
522, 885, 2122, 1609, 2499
523, 2448, 1406, 3002, 1039
524, 1888, 1887, 1035, 1886
525, 401, 405, 1887, 1888
526, 2812, 1590, 2919, 2401
527, 894, 3198, 545, 262
528, 2517, 3281, 544, 263
529, 3118, 2550, 725, 3270
530, 2263, 1677, 324, 482
531, 1893, 1743, 768, 1892
532, 325, 481, 1743, 1893
533, 466, 341, 1896, 1894
534, 1894, 1896, 1895, 751
535, 749, 1604, 2081, 2128
536, 1896, 341, 465, 1253
537, 2202, 1930, 1333, 2929
538, 2392, 1331, 1929, 1898
539, 1440, 1950, 3211, 2133
540, 692, 1121, 227, 579
541, 3203, 365, 441, 2477
542, 2411, 2810, 966, 965
543, 1552, 2830, 1554, 1622
544, 970, 672, 2562, 1556
545, 1804, 451, 356, 1450
546, 987, 2917, 1725, 1449
547, 1903, 1761, 990, 1902
548, 360, 446, 1761, 1903
549, 1737, 2315, 314, 492
550, 786, 2316, 2065, 2304
551, 2425, 1738, 636, 774
552, 921, 1584, 2596, 1814
553, 3288, 2151, 3284, 1788
554, 2633, 2812, 2401, 920
555, 2038, 1159, 2166, 1160
556, 2928, 2929, 1439, 2963
557, 2963, 630, 1159, 2038
558, 2867, 1194, 3083, 1153
559, 76, 65, 1915, 1559
560, 1559, 1915, 1914, 703
561, 1915, 77, 88, 1914
562, 65, 4, 77, 1915
563, 1836, 1339, 2586, 999
564, 3213, 2071, 1337, 1293
565, 3191, 959, 1689, 1277
566, 1294, 1002, 2465, 2626
567, 2300, 836, 292, 514
568, 1967, 2256, 849, 1374
569, 3219, 2865, 3049, 2900
570, 1012, 2527, 2528, 2309
571, 2099, 3224, 2983, 2802
572, 2396, 2707, 399, 407
573, 2070, 1959, 125, 136
574, 2098, 1682, 1684, 1437
575, 1625, 2001, 2808, 1494
576, 673, 460, 347, 2033
577, 1367, 3207, 825, 923
578, 2600, 1879, 1635, 1634
579, 2520, 1237, 1612, 1925
580, 480, 327, 1927, 1742
581, 1742, 1927, 1926, 727
582, 1927, 1831, 728, 1926
583, 327, 479, 1831, 1927
584, 2951, 1863, 2144, 2167
585, 2926, 1124, 229, 577
586, 2394, 1441, 2036, 1928
587, 1076, 1082, 2540, 1348
588, 2305, 3093, 1069, 3142
589, 2349, 1127, 1255, 1881
590, 2245, 1287, 2535, 716
591, 1845, 815, 788, 1697
592, 805, 1289, 804, 866
593, 3043, 1365, 2705, 3228
594, 1051, 1039, 1638, 1037
595, 1037, 1638, 1057, 2681
596, 2266, 3115, 1110, 1775
597, 3307, 21, 2, 2920
598, 3286, 892, 901, 1589
599, 2813, 1585, 904, 2595
600, 2026, 552, 255, 1461
601, 418, 389, 1945, 1730
602, 1730, 1945, 1943, 1014
603, 1944, 3242, 1922, 1567
604, 1026, 1961, 1050, 2268
605, 2545, 390, 416, 2763
606, 1946, 2544, 2269, 1047
607, 467, 340, 1949, 1867
608, 1867, 1949, 1948, 754
609, 1949, 1894, 751, 1948
610, 340, 466, 1894, 1949
611, 1865, 2037, 575, 232
612, 2175, 1440, 2133, 1791
613, 1898, 1929, 3241, 1158
614, 2572, 2570, 337, 469
615, 753, 1983, 1751, 1868
616, 2958, 2875, 2570, 2572
617, 2365, 1855, 2316, 2314
618, 803, 3061, 1698, 797
619, 2014, 1936, 501, 306
620, 1934, 2365, 2314, 3047
621, 2541, 1629, 1956, 2463
622, 1174, 2182, 2184, 2183
623, 1625, 2984, 2003, 2001
624, 1494, 2808, 1562, 1626
625, 1923, 1924, 975, 1833
626, 1958, 1685, 352, 454
627, 1565, 1443, 1848, 1013
628, 3048, 1264, 1055, 1849
629, 2575, 1012, 2309, 3036
630, 1032, 1029, 2575, 1444
631, 3307, 2920, 3168, 893
632, 2795, 657, 1199, 3283
633, 888, 2106, 558, 249
634, 884, 1813, 3080, 2557
635, 266, 2344, 2616, 541
636, 542, 2079, 2158, 264
637, 1964, 756, 755, 3012
638, 757, 1953, 2192, 1951
639, 756, 2957, 622, 755
640, 2670, 3111, 1965, 2985
641, 1677, 2389, 483, 324
642, 2413, 774, 2986, 771
643, 2534, 2242, 293, 513
644, 2722, 2883, 2693, 1421
645, 857, 1304, 3196, 2676
646, 3056, 713, 857, 2522
647, 938, 947, 1861, 1607
648, 2990, 943, 3086, 3005
649, 2454, 3087, 1008, 2783
650, 2287, 1379, 1021, 1019
651, 3295, 2493, 1573, 1974
652, 3295, 1801, 1151, 2493
653, 3084, 2178, 3166, 2023
654, 1122, 1973, 1575, 2962
655, 2027, 716, 2535, 3155
656, 1259, 1975, 719, 2412
657, 1453, 2426, 489, 318
658, 2505, 3212, 2439, 3223
659, 1970, 428, 379, 1524
660, 3253, 429, 378, 940
661, 3223, 2439, 3253, 935
662, 2344, 2923, 2663, 1980
663, 2517, 624, 3059, 1780
664, 2571, 2954, 1749, 2953
665, 1964, 2958, 1983, 756
666, 2875, 643, 3011, 2570
667, 453, 354, 1988, 1986
668, 1986, 1988, 1987, 980
669, 1988, 1538, 979, 1987
670, 354, 452, 1538, 1988
671, 939, 1019, 1521, 2989
672, 1978, 1711, 426, 381
673, 1523, 1445, 1711, 1978
674, 1179, 1747, 1748, 1009
675, 3297, 1993, 2207, 1414
676, 2095, 858, 2888, 1544
677, 2051, 2329, 1517, 1259
678, 2013, 3179, 3200, 2882
679, 1419, 2523, 1428, 792
680, 797, 1698, 798, 1955
681, 811, 814, 300, 506
682, 2242, 2300, 514, 293
683, 2953, 1984, 740, 1464
684, 1749, 1462, 1984, 2953
685, 2824, 1212, 24, 13
686, 891, 1433, 1717, 1787
687, 3301, 1939, 2339, 2698
688, 1613, 1206, 11, 23
689, 639, 734, 731, 1363
690, 1363, 2832, 1999, 3129
691, 737, 477, 330, 2057
692, 139, 2002, 2003, 128
693, 2984, 138, 128, 2003
694, 1563, 1833, 1342, 676
695, 2002, 641, 2001, 2003
696, 2111, 2046, 1118, 693
697, 1357, 41, 52, 1112
698, 1598, 235, 571, 2047
699, 2021, 1825, 2797, 1488
700, 2493, 1803, 2902, 1573
701, 1161, 2135, 66, 55
702, 2007, 582, 225, 2938
703, 1818, 883, 1655, 2009
704, 2827, 49, 39, 2110
705, 2826, 887, 883, 1818
706, 1597, 38, 49, 2827
707, 1773, 1919, 2250, 2451
708, 3056, 2522, 3256, 1317
709, 1401, 1309, 2318, 851
710, 2661, 2433, 2896, 3229
711, 1240, 1239, 1301, 2215
712, 2191, 2551, 2214, 2141
713, 2671, 1508, 631, 1994
714, 2427, 2751, 3161, 1705
715, 813, 1853, 1420, 793
716, 3257, 1739, 2430, 2010
717, 2529, 2508, 1129, 1071
718, 702, 2018, 2019, 2017
719, 2017, 2019, 1557, 701
720, 2019, 63, 75, 1557
721, 2018, 74, 63, 2019
722, 2009, 1655, 1660, 2819
723, 1654, 653, 2113, 2075
724, 882, 1657, 1435, 1422
725, 1489, 1656, 1487, 1114
726, 1151, 1154, 3119, 1802
727, 2962, 1575, 584, 223
728, 1177, 3145, 2867, 1193
729, 1178, 1972, 1156, 3145
730, 925, 2777, 871, 2220
731, 868, 1756, 2967, 835
732, 1768, 1360, 3097, 3274
733, 2686, 823, 1614, 3007
734, 639, 1735, 1417, 734
735, 2806, 1418, 332, 474
736, 734, 2446, 2447, 731
737, 1590, 2910, 2094, 2919
738, 2093, 2814, 906, 2338
739, 3299, 3298, 17, 29
740, 902, 2885, 3293, 3300
741, 1893, 2263, 482, 325
742, 2490, 1966, 322, 484
743, 780, 2426, 1453, 1183
744, 1148, 1702, 2031, 2030
745, 2030, 2031, 1574, 1149
746, 2031, 218, 588, 1574
747, 1702, 589, 218, 2031
748, 1432, 1492, 1923, 1683
749, 1671, 1625, 1494, 1669
750, 1833, 975, 981, 1342
751, 2392, 1898, 2136, 2078
752, 1911, 224, 582, 2007
753, 1159, 2868, 2935, 2166
754, 1930, 68, 57, 3067
755, 1177, 3125, 1178, 3145
756, 1929, 1160, 3068, 3241
757, 1863, 1928, 2939, 2143
758, 927, 840, 2455, 3151
759, 2372, 1809, 2821, 2153
760, 3079, 1885, 2700, 898
761, 1390, 1852, 2704, 3278
762, 1689, 1294, 2626, 962
763, 2043, 934, 953, 959
764, 436, 371, 951, 1007
765, 1499, 2045, 2942, 1507
766, 690, 3218, 1501, 2943
767, 689, 1505, 1358, 1499
768, 592, 215, 2050, 1857
769, 1857, 2050, 2048, 1133
770, 2050, 2049, 1131, 2048
771, 215, 591, 2049, 2050
772, 1652, 772, 816, 2862
773, 707, 818, 312, 494
774, 1675, 1087, 2275, 2727
775, 2719, 2108, 1382, 2718
776, 3040, 1969, 1372, 2971
777, 2324, 1544, 2703, 1954
778, 2057, 330, 476, 2807
779, 1736, 2000, 2807, 1830
780, 3190, 2203, 2932, 732
781, 735, 1362, 1353, 1416
782, 591, 216, 2059, 2049
783, 2049, 2059, 2058, 1131
784, 2059, 1703, 1130, 2058
785, 216, 590, 1703, 2059
786, 1087, 2877, 2717, 2275
787, 2714, 685, 1485, 2861
788, 1799, 1080, 2015, 2712
789, 1103, 3113, 1063, 2289
790, 1695, 2211, 988, 3167
791, 2873, 1662, 1549, 1196
792, 1686, 960, 3165, 957
793, 951, 2746, 3191, 1279
794, 1596, 1955, 1934, 1287
795, 1519, 2441, 1906, 706
796, 2413, 771, 709, 711
797, 2720, 2363, 502, 305
798, 882, 881, 687, 1657
799, 1657, 3236, 1423, 1435
800, 1656, 2819, 1660, 1487
801, 1487, 1660, 565, 242
802, 1627, 127, 138, 2984
803, 744, 2069, 1491, 977
804, 2032, 745, 2069, 744
805, 1957, 1670, 351, 455
806, 2662, 1338, 3085, 2850
807, 2855, 1836, 999, 1882
808, 2526, 961, 2368, 2853
809, 1663, 1458, 677, 2391
810, 2054, 2270, 1799, 1412
811, 1250, 2894, 2893, 1062
812, 2409, 1822, 2073, 3157
813, 2899, 2914, 3216, 1819
814, 3182, 2074, 462, 345
815, 3183, 2629, 2627, 1602
816, 750, 2137, 2789, 2629
817, 1604, 464, 343, 2081
818, 3057, 238, 568, 2818
819, 3239, 1715, 1824, 2067
820, 2920, 890, 1734, 3168
821, 2020, 1653, 243, 563
822, 1837, 2855, 1882, 1764
823, 3243, 2481, 1179, 3261
824, 2998, 1000, 1918, 1003
825, 1803, 1177, 1193, 2902
826, 1899, 67, 56, 2202
827, 2035, 2006, 692, 691
828, 2951, 2394, 1928, 1863
829, 2684, 2041, 2519, 1757
830, 3207, 1274, 868, 825
831, 2599, 1515, 1360, 1768
832, 2777, 908, 1184, 869
833, 1681, 749, 2128, 1603
834, 1680, 141, 131, 2138
835, 826, 1209, 2993, 873
836, 2760, 2645, 862, 2239
837, 2646, 1409, 860, 2656
838, 762, 3104, 1797, 2261
839, 2387, 3122, 1415, 1300
840, 2985, 1965, 765, 1966
841, 1839, 827, 2994, 1209
842, 268, 3156, 2041, 539
843, 3283, 1199, 251, 555
844, 2088, 2795, 3283, 2794
845, 1962, 2089, 1244, 1716
846, 2164, 2794, 252, 554
847, 97, 87, 2091, 1631
848, 1631, 2091, 2090, 666
849, 2091, 98, 110, 2090
850, 87, 5, 98, 2091
851, 2426, 2052, 317, 489
852, 1583, 1794, 2330, 3244
853, 2669, 2314, 2316, 786
854, 3035, 1402, 2027, 3134
855, 913, 1812, 31, 20
856, 2912, 2734, 1456, 899
857, 3282, 1461, 3248, 658
858, 1588, 1298, 260, 546
859, 2363, 799, 304, 502
860, 1754, 819, 2648, 1621
861, 2970, 844, 813, 2523
862, 1881, 1255, 1166, 3169
863, 1127, 205, 601, 1255
864, 1171, 2620, 1628, 1723
865, 2033, 347, 459, 1438
866, 1438, 459, 348, 3238
867, 1682, 1834, 2772, 1684
868, 976, 2033, 1438, 1491
869, 1512, 2682, 2680, 2706
870, 2833, 1049, 2673, 1038
871, 3003, 1404, 1031, 2707
872, 2045, 2796, 2797, 1825
873, 1358, 1356, 1673, 2796
874, 1599, 1534, 236, 570
875, 1507, 2942, 50, 40
876, 454, 353, 2101, 1958
877, 1958, 2101, 1341, 981
878, 2101, 1986, 980, 1341
879, 353, 453, 1986, 2101
880, 2440, 2492, 759, 1318
881, 759, 2262, 2609, 3103
882, 1651, 3038, 2658, 3194
883, 1231, 561, 246, 3189
884, 1198, 2123, 250, 556
885, 1716, 1244, 1584, 921
886, 661, 1242, 659, 918
887, 2717, 1777, 2290, 1570
888, 2726, 1104, 2816, 2877
889, 1776, 620, 187, 1714
890, 2715, 1601, 3136, 1060
891, 1657, 687, 1597, 3236
892, 1114, 1487, 242, 564
893, 1506, 1823, 1116, 3172
894, 688, 572, 235, 1598
895, 1732, 2104, 657, 2699
896, 2008, 1489, 1114, 1653
897, 2075, 2113, 887, 2826
898, 1424, 2009, 2819, 1656
899, 3026, 1804, 1450, 3176
900, 2115, 2118, 121, 132
901, 2118, 2116, 6, 121
902, 1450, 356, 450, 2117
903, 678, 2120, 2121, 2119
904, 2119, 2121, 108, 120
905, 2738, 1615, 1661, 2063
906, 967, 2391, 3008, 1623
907, 2557, 3080, 1541, 1806
908, 661, 918, 30, 19
909, 1734, 2557, 1806, 2197
910, 2596, 248, 558, 2106
911, 675, 2124, 2125, 1529
912, 1529, 2125, 122, 133
913, 2125, 2115, 132, 122
914, 987, 978, 2116, 2118
915, 2629, 2789, 1895, 2627
916, 1254, 642, 748, 2628
917, 2126, 1249, 1248, 2080
918, 1895, 1896, 1253, 2627
919, 1243, 2699, 834, 1282
920, 1812, 661, 19, 31
921, 2196, 1779, 1460, 897
922, 3064, 928, 2489, 2385
923, 3067, 57, 69, 2180
924, 630, 2175, 2868, 1159
925, 2963, 1439, 2952, 630
926, 7, 1870, 2138, 131
927, 2709, 1603, 2469, 2708
928, 2128, 2081, 1679, 645
929, 1870, 622, 2137, 2138
930, 2471, 2456, 274, 532
931, 2079, 1758, 1322, 1981
932, 3193, 3098, 1390, 2844
933, 534, 3099, 2685, 272
934, 2721, 2661, 3229, 715
935, 3271, 161, 150, 2204
936, 2769, 1311, 2930, 2533
937, 3103, 2609, 2029, 3102
938, 3, 2144, 2145, 43
939, 3218, 42, 53, 1501
940, 2100, 1507, 40, 51
941, 2175, 1791, 2034, 2868
942, 155, 2146, 2147, 143
943, 143, 2147, 1871, 154
944, 2570, 3011, 470, 337
945, 757, 2875, 2958, 1964
946, 2611, 1819, 2972, 2615
947, 3093, 1257, 1820, 2278
948, 1810, 1071, 604, 203
949, 1778, 195, 611, 2598
950, 3299, 2858, 2815, 3298
951, 2105, 1733, 1962, 1716
952, 1806, 1541, 2499, 621
953, 906, 1941, 1910, 1296
954, 2911, 832, 1769, 1646
955, 889, 2026, 1461, 3282
956, 892, 2912, 899, 901
957, 2734, 1205, 1588, 3290
958, 120, 109, 2155, 2119
959, 2119, 2155, 2154, 678
960, 978, 2154, 2155, 2116
961, 109, 6, 2116, 2155
962, 666, 2090, 2157, 2156
963, 2156, 2157, 1576, 664
964, 2157, 99, 111, 1576
965, 2090, 110, 99, 2157
966, 1769, 627, 2599, 2981
967, 627, 3141, 1515, 2599
968, 157, 2162, 2163, 145
969, 145, 2163, 2160, 156
970, 1363, 731, 1719, 2832
971, 1351, 2163, 2162, 738
972, 1643, 1646, 1369, 929
973, 2699, 657, 2795, 834
974, 2922, 1367, 923, 2361
975, 3069, 691, 228, 578
976, 1124, 3069, 578, 229
977, 1790, 1123, 2936, 2927
978, 2144, 3, 54, 2167
979, 699, 2169, 2170, 2168
980, 2168, 2170, 2018, 702
981, 2170, 62, 74, 2018
982, 2169, 73, 62, 2170
983, 112, 101, 2173, 1578
984, 1578, 2173, 2171, 665
985, 2173, 2172, 668, 2171
986, 101, 113, 2172, 2173
987, 2928, 2963, 2038, 1331
988, 2034, 2938, 1912, 1332
989, 1573, 2902, 2178, 3084
990, 1035, 1887, 2177, 2176
991, 2176, 2177, 2062, 680
992, 2177, 402, 404, 2062
993, 1887, 405, 402, 2177
994, 1194, 1195, 2494, 3083
995, 3294, 3084, 2023, 1973
996, 2181, 58, 70, 2179
997, 2180, 69, 58, 2181
998, 696, 2179, 2184, 2182
999, 1142, 3249, 1175, 2905
1000, 2184, 59, 71, 2183
1001, 2179, 70, 59, 2184
1002, 650, 2187, 2188, 1482
1003, 1482, 2188, 2185, 648
1004, 2188, 2186, 820, 2185
1005, 2187, 838, 2186, 2188
1006, 723, 637, 147, 159
1007, 2207, 2550, 3123, 2216
1008, 637, 2189, 158, 147
1009, 732, 2932, 2206, 2215
1010, 2193, 144, 156, 2160
1011, 2146, 155, 144, 2193
1012, 703, 1914, 2195, 2194
1013, 2194, 2195, 1581, 698
1014, 2195, 78, 89, 1581
1015, 1914, 88, 78, 2195
1016, 1274, 1368, 1756, 868
1017, 3279, 2372, 2153, 916
1018, 1733, 2197, 1281, 1962
1019, 1389, 2791, 2479, 1174
1020, 2198, 2200, 2169, 699
1021, 2200, 61, 73, 2169
1022, 2199, 72, 61, 2200
1023, 2927, 2936, 2869, 1950
1024, 2935, 1332, 695, 2006
1025, 1972, 2496, 1155, 1156
1026, 2868, 2034, 1332, 2935
1027, 2189, 2932, 2203, 2205
1028, 146, 2205, 2162, 157
1029, 1417, 736, 2445, 743
1030, 1292, 631, 1509, 1181
1031, 2012, 2347, 2944, 3271
1032, 2347, 2658, 3270, 2944
1033, 632, 162, 151, 1844
1034, 1240, 2215, 2206, 1303
1035, 1616, 2514, 1759, 2873
1036, 114, 103, 2213, 2212
1037, 2212, 2213, 1190, 667
1038, 2213, 2209, 670, 1190
1039, 103, 115, 2209, 2213
1040, 1844, 151, 163, 2190
1041, 1352, 1736, 1830, 730
1042, 2189, 2205, 146, 158
1043, 113, 102, 2218, 2172
1044, 2172, 2218, 2217, 668
1045, 2218, 2212, 667, 2217
1046, 102, 114, 2212, 2218
1047, 2776, 1325, 2733, 2730
1048, 819, 855, 1706, 2648
1049, 2703, 838, 2224, 1969
1050, 2965, 3249, 1142, 2889
1051, 2793, 3146, 2925, 697
1052, 2223, 60, 72, 2199
1053, 2183, 71, 60, 2223
1054, 652, 2225, 2226, 1586
1055, 1586, 2226, 2187, 650
1056, 2226, 2224, 838, 2187
1057, 2225, 843, 2224, 2226
1058, 683, 2228, 2229, 1471
1059, 1471, 2229, 1187, 686
1060, 2229, 2227, 1065, 1187
1061, 2228, 1059, 2227, 2229
1062, 1512, 2397, 2336, 2682
1063, 2311, 1041, 2337, 3230
1064, 1850, 1033, 1921, 1384
1065, 2232, 2234, 1477, 651
1066, 2234, 2225, 652, 1477
1067, 2233, 843, 2225, 2234
1068, 717, 1299, 1291, 705
1069, 1414, 3296, 2141, 1413
1070, 2831, 1416, 1351, 738
1071, 769, 319, 487, 3201
1072, 1954, 2703, 1969, 3040
1073, 2326, 286, 520, 2702
1074, 2674, 842, 2761, 3062
1075, 3256, 861, 1401, 2543
1076, 2321, 812, 808, 1847
1077, 3305, 1920, 298, 508
1078, 2975, 801, 2363, 2720
1079, 1258, 1935, 2244, 1593
1080, 1936, 2720, 305, 501
1081, 2578, 2014, 306, 500
1082, 3170, 2600, 1634, 874
1083, 925, 2220, 2960, 1185
1084, 2165, 2824, 13, 25
1085, 2675, 2971, 2730, 2733
1086, 785, 867, 839, 2891
1087, 949, 2253, 2254, 2251
1088, 2251, 2254, 1465, 663
1089, 2254, 2252, 682, 1465
1090, 2253, 1053, 2252, 2254
1091, 854, 2056, 1208, 2083
1092, 2095, 1407, 3073, 858
1093, 1373, 820, 2186, 2364
1094, 2612, 3142, 3070, 1077
1095, 2973, 1088, 200, 606
1096, 1796, 2387, 1300, 3123
1097, 3051, 2768, 1520, 1907
1098, 1651, 3194, 2987, 711
1099, 3121, 1798, 3164, 2713
1100, 3142, 1069, 2613, 3070
1101, 2879, 2725, 3136, 1601
1102, 3121, 2713, 1061, 1111
1103, 1921, 2308, 2834, 1384
1104, 1052, 3003, 2707, 2396
1105, 2544, 413, 394, 2269
1106, 3031, 1024, 2546, 1947
1107, 2230, 2414, 2312, 1547
1108, 1026, 3042, 1051, 2683
1109, 1109, 403, 620, 1776
1110, 1822, 2611, 2508, 2073
1111, 1084, 2016, 2878, 2276
1112, 2753, 1411, 2270, 2054
1113, 1674, 2265, 1098, 1092
1114, 2563, 2258, 2055, 1094
1115, 1348, 2540, 2563, 1165
1116, 2972, 2973, 606, 201
1117, 1202, 2529, 2619, 2678
1118, 1020, 2281, 2282, 2279
1119, 2279, 2282, 2280, 1010
1120, 2282, 1729, 1014, 2280
1121, 2281, 1015, 1729, 2282
1122, 2255, 2892, 814, 811
1123, 3159, 2284, 297, 509
1124, 795, 2891, 1316, 2238
1125, 1640, 1373, 2364, 2701
1126, 956, 3094, 3095, 2484
1127, 2623, 1917, 1001, 2759
1128, 1380, 3243, 3261, 936
1129, 1091, 1250, 1062, 1798
1130, 3160, 1093, 2334, 1346
1131, 1396, 2715, 1060, 3227
1132, 2914, 1383, 1347, 3216
1133, 867, 2694, 2871, 839
1134, 2486, 3305, 508, 299
1135, 2694, 864, 2766, 2871
1136, 2573, 2603, 2770, 861
1137, 680, 2062, 1102, 2728
1138, 1058, 1876, 2420, 2460
1139, 1054, 2297, 2298, 2296
1140, 2296, 2298, 1503, 681
1141, 2298, 2228, 683, 1503
1142, 2297, 1059, 2228, 2298
1143, 2523, 813, 793, 1428
1144, 1624, 1595, 812, 2321
1145, 2421, 3034, 1668, 775
1146, 770, 2379, 1905, 3051
1147, 1975, 310, 496, 719
1148, 774, 636, 1235, 2986
1149, 1412, 3233, 2458, 2306
1150, 1382, 2109, 2728, 1410
1151, 1410, 2272, 1109, 1571
1152, 2763, 416, 391, 1385
1153, 1027, 1040, 410, 397
1154, 1947, 2546, 2307, 1034
1155, 1036, 1636, 2230, 2801
1156, 1721, 1548, 1049, 2833
1157, 2310, 1547, 395, 411
1158, 1026, 2268, 1400, 3042
1159, 1849, 1055, 3029, 3030
1160, 1428, 793, 1700, 3045
1161, 1320, 2601, 817, 1976
1162, 3244, 2330, 783, 2432
1163, 2691, 1640, 2701, 2574
1164, 820, 2318, 2319, 2185
1165, 2185, 2319, 1792, 648
1166, 2319, 2317, 647, 1792
1167, 2256, 1543, 1639, 849
1168, 856, 850, 2242, 2534
1169, 3158, 3022, 3114, 846
1170, 1203, 2890, 2779, 1173
1171, 2904, 2745, 2915, 1722
1172, 1691, 2679, 2350, 2903
1173, 2301, 2321, 1847, 2864
1174, 2573, 2676, 2532, 2603
1175, 1323, 875, 278, 528
1176, 636, 1183, 3199, 1235
1177, 3206, 777, 718, 1306
1178, 1583, 717, 2976, 1794
1179, 1372, 843, 2233, 2969
1180, 2777, 869, 3151, 871
1181, 2342, 2219, 2600, 3170
1182, 3130, 1106, 2295, 1251
1183, 1081, 2672, 2614, 2294
1184, 1079, 196, 610, 2506
1185, 1030, 2335, 2484, 3095
1186, 1444, 1944, 1567, 2576
1187, 1028, 1566, 392, 414
1188, 1566, 1960, 415, 392
1189, 2221, 3289, 1345, 912
1190, 3307, 656, 32, 21
1191, 3215, 549, 258, 2885
1192, 1459, 3293, 548, 259
1193, 1275, 2621, 1367, 2922
1194, 3100, 2385, 660, 2921
1195, 2158, 2079, 1981, 930
1196, 3177, 3196, 2721, 1310
1197, 809, 2486, 299, 507
1198, 726, 2102, 2386, 1904
1199, 781, 1525, 647, 2317
1200, 2220, 871, 3015, 3060
1201, 1514, 2979, 924, 832
1202, 2384, 2082, 827, 1839
1203, 874, 276, 530, 1370
1204, 2323, 1355, 2838, 1138
1205, 1069, 2148, 1873, 2613
1206, 1255, 601, 206, 1166
1207, 721, 2353, 2354, 1241
1208, 1241, 2354, 2352, 729
1209, 2354, 1926, 728, 2352
1210, 2353, 727, 1926, 2354
1211, 2270, 2548, 1080, 1799
1212, 3046, 1107, 615, 192
1213, 1075, 2619, 1810, 1841
1214, 2355, 3137, 2381, 2924
1215, 1330, 2323, 1138, 2836
1216, 1649, 1354, 1200, 1128
1217, 2342, 3170, 2488, 879
1218, 2524, 2649, 2995, 1409
1219, 879, 2488, 626, 875
1220, 1785, 2087, 828, 1641
1221, 2470, 2618, 2240, 2246
1222, 2515, 2371, 911, 922
1223, 3092, 2646, 2656, 1408
1224, 839, 2871, 2437, 3020
1225, 1420, 302, 504, 789
1226, 2687, 3045, 1937, 2569
1227, 2502, 2757, 2585, 1765
1228, 2210, 669, 1336, 1004
1229, 1764, 1882, 1192, 1001
1230, 3127, 955, 373, 433
1231, 2923, 2684, 1757, 2663
1232, 2247, 185, 175, 2839
1233, 2556, 2164, 1939, 3301
1234, 2595, 904, 2093, 1809
1235, 1280, 3192, 886, 1540
1236, 898, 2700, 892, 3286
1237, 2376, 948, 3078, 3153
1238, 2452, 2748, 948, 2376
1239, 2375, 1376, 2472, 2374
1240, 1167, 2351, 2507, 2404
1241, 706, 1906, 313, 493
1242, 709, 2380, 1651, 711
1243, 1128, 1200, 3140, 2395
1244, 2383, 2382, 1132, 2381
1245, 1856, 1133, 2382, 2383
1246, 1326, 3291, 3091, 877
1247, 1421, 2693, 518, 289
1248, 2621, 3089, 3207, 1367
1249, 3007, 1614, 2515, 2690
1250, 3147, 2348, 3122, 2387
1251, 1908, 3027, 3033, 3028
1252, 1007, 1622, 370, 436
1253, 3265, 1900, 3174, 2411
1254, 1772, 3264, 367, 439
1255, 677, 443, 364, 963
1256, 3241, 3068, 3069, 1124
1257, 1791, 2007, 2938, 2034
1258, 3184, 2404, 3217, 1783
1259, 3152, 3184, 2467, 1394
1260, 2323, 1692, 3225, 1355
1261, 1040, 3221, 396, 410
1262, 1721, 2833, 1637, 1025
1263, 1031, 3230, 398, 408
1264, 1216, 2209, 115, 104
1265, 1901, 1623, 989, 1696
1266, 2848, 974, 2410, 1550
1267, 3303, 18, 30, 918
1268, 2150, 905, 3268, 903
1269, 2632, 3175, 2341, 917
1270, 2948, 2403, 894, 3281
1271, 2130, 2131, 1611, 2340
1272, 1167, 1171, 1723, 2351
1273, 1389, 2222, 2790, 2643
1274, 2408, 2407, 720, 2406
1275, 1892, 768, 2407, 2408
1276, 2271, 2460, 189, 617
1277, 1070, 1084, 1083, 2149
1278, 1080, 3002, 1406, 2015
1279, 1554, 671, 369, 437
1280, 969, 2561, 2809, 2811
1281, 2811, 2809, 2738, 2398
1282, 1222, 669, 2210, 1216
1283, 2291, 3205, 2427, 2249
1284, 2732, 1784, 2428, 845
1285, 626, 1963, 277, 529
1286, 816, 1737, 492, 315
1287, 782, 3112, 818, 707
1288, 3155, 2535, 3047, 710
1289, 2397, 2800, 3031, 2336
1290, 2833, 1038, 2577, 1637
1291, 2417, 2416, 1046, 2415
1292, 1886, 1035, 2416, 2417
1293, 2754, 1931, 1387, 1383
1294, 2293, 2306, 2273, 1252
1295, 2956, 2274, 2108, 2719
1296, 817, 1667, 782, 2441
1297, 3016, 2375, 2374, 2592
1298, 2422, 2424, 2281, 1020
1299, 2424, 1815, 1015, 2281
1300, 932, 2637, 1447, 1747
1301, 1969, 2224, 843, 1372
1302, 3056, 1317, 2435, 1967
1303, 3013, 2884, 294, 512
1304, 845, 2428, 850, 856
1305, 3235, 2569, 801, 2975
1306, 2066, 2487, 499, 308
1307, 808, 797, 1955, 1596
1308, 2866, 2542, 796, 2677
1309, 1233, 2988, 1844, 2190
1310, 810, 2257, 3022, 3158
1311, 2767, 2692, 1755, 2284
1312, 1967, 2435, 810, 2256
1313, 1408, 2656, 2366, 3309
1314, 1268, 3144, 2285, 2625
1315, 945, 3077, 2638, 1746
1316, 3087, 3004, 3251, 1745
1317, 2380, 767, 3038, 1651
1318, 2768, 708, 1320, 1520
1319, 2609, 2670, 2985, 2029
1320, 1053, 2442, 2443, 2252
1321, 2252, 2443, 1591, 682
1322, 2443, 2296, 681, 1591
1323, 2442, 1054, 2296, 2443
1324, 1276, 1301, 2876, 736
1325, 2832, 1719, 1418, 2806
1326, 1351, 741, 2160, 2163
1327, 2444, 3010, 737, 3220
1328, 738, 2162, 2205, 2203
1329, 1953, 2147, 2146, 2192
1330, 639, 1363, 3129, 735
1331, 1945, 389, 417, 1442
1332, 2308, 1028, 2267, 2834
1333, 1045, 1042, 400, 406
1334, 1025, 1637, 1404, 3003
1335, 1426, 3219, 2900, 2283
1336, 713, 3202, 1304, 857
1337, 3252, 2624, 1916, 1377
1338, 932, 996, 2452, 2637
1339, 1748, 939, 2989, 1862
1340, 1009, 1748, 1862, 1990
1341, 931, 1768, 3274, 2786
1342, 538, 2686, 3156, 268
1343, 1515, 3106, 2964, 1360
1344, 1185, 1326, 1785, 1344
1345, 2061, 1099, 1107, 3046
1346, 1099, 1252, 629, 1107
1347, 1093, 1674, 1092, 3001
1348, 2816, 2227, 1059, 1777
1349, 3173, 2477, 3237, 1266
1350, 971, 444, 363, 1458
1351, 1900, 970, 2475, 3174
1352, 2967, 2559, 2345, 2689
1353, 2604, 852, 3092, 1774
1354, 1073, 1881, 3169, 3081
1355, 1354, 2463, 1956, 1200
1356, 3225, 2678, 2619, 1075
1357, 934, 955, 1334, 953
1358, 3254, 1279, 2367, 1688
1359, 3132, 2999, 2466, 961
1360, 434, 373, 955, 934
1361, 2240, 1633, 2359, 1238
1362, 2489, 2881, 927, 2617
1363, 1186, 623, 1884, 3208
1364, 2679, 2836, 1782, 2350
1365, 2743, 3259, 2893, 2894
1366, 1841, 603, 204, 2745
1367, 1932, 1256, 2654, 2464
1368, 2627, 1253, 2852, 1602
1369, 752, 641, 2002, 2127
1370, 1878, 2520, 1925, 872
1371, 2385, 2489, 2617, 660
1372, 1747, 1447, 939, 1748
1373, 2374, 2472, 2424, 2422
1374, 3251, 3188, 2774, 2941
1375, 3086, 1267, 958, 944
1376, 2829, 965, 1760, 2462
1377, 3263, 2512, 2514, 1616
1378, 2477, 441, 366, 3237
1379, 1623, 3008, 2854, 989
1380, 1196, 1549, 971, 1217
1381, 2874, 3263, 1616, 973
1382, 1555, 107, 119, 1551
1383, 2480, 1073, 3081, 1172
1384, 1220, 1173, 1201, 1388
1385, 2383, 1649, 1128, 1856
1386, 3140, 2843, 594, 213
1387, 948, 2623, 1710, 3078
1388, 1709, 1378, 425, 382
1389, 2941, 3255, 2805, 1180
1390, 1771, 2722, 1421, 837
1391, 789, 504, 303, 2429
1392, 792, 1428, 3045, 2687
1393, 2245, 716, 2752, 3150
1394, 2402, 830, 1392, 1284
1395, 265, 1758, 2079, 542
1396, 3037, 1976, 1519, 2378
1397, 3295, 1123, 1119, 2901
1398, 3145, 1156, 1194, 2867
1399, 1155, 587, 220, 1195
1400, 1572, 2494, 586, 221
1401, 2044, 2498, 385, 421
1402, 2438, 2497, 941, 2784
1403, 2472, 1376, 947, 938
1404, 2498, 2286, 422, 385
1405, 821, 1889, 1781, 3292
1406, 1813, 34, 45, 891
1407, 2756, 1687, 3127, 997
1408, 1687, 1334, 955, 3127
1409, 2746, 2043, 959, 3191
1410, 2149, 1083, 2909, 2260
1411, 2097, 1172, 599, 208
1412, 3052, 1134, 1693, 1350
1413, 2676, 3196, 3177, 2532
1414, 1780, 3059, 909, 1891
1415, 2362, 2825, 1982, 2456
1416, 990, 1759, 2514, 2511
1417, 2511, 2514, 2512, 982
1418, 1617, 2476, 964, 1218
1419, 1217, 971, 1458, 1663
1420, 1322, 910, 2636, 3276
1421, 2086, 3105, 2685, 2559
1422, 2689, 2345, 2516, 840
1423, 2107, 3306, 2104, 1732
1424, 2094, 2948, 1780, 1891
1425, 1273, 1589, 2812, 2633
1426, 2105, 1716, 921, 1542
1427, 1757, 2519, 3089, 2621
1428, 923, 825, 928, 3064
1429, 3106, 3100, 2921, 2964
1430, 928, 835, 2881, 2489
1431, 1429, 2429, 2096, 1846
1432, 2451, 2250, 3021, 2257
1433, 815, 3304, 2014, 2578
1434, 3304, 2235, 1936, 2014
1435, 2850, 3085, 952, 2072
1436, 1335, 1004, 2071, 3213
1437, 2757, 2076, 2593, 2585
1438, 1882, 999, 998, 1192
1439, 1014, 1943, 2528, 2280
1440, 2280, 2528, 2527, 1010
1441, 1567, 1922, 1848, 1443
1442, 2707, 1031, 408, 399
1443, 2907, 1044, 2459, 2109
1444, 2418, 2620, 1388, 2743
1445, 1110, 3115, 1044, 2907
1446, 720, 2407, 2531, 2530
1447, 2530, 2531, 2353, 721
1448, 2531, 1741, 727, 2353
1449, 2407, 768, 1741, 2531
1450, 1738, 780, 1183, 636
1451, 2872, 3260, 836, 2436
1452, 3196, 1304, 2661, 2721
1453, 1448, 498, 309, 1454
1454, 1133, 2048, 2539, 2382
1455, 2382, 2539, 2537, 1132
1456, 2539, 2538, 1146, 2537
1457, 2048, 1131, 2538, 2539
1458, 2491, 726, 1904, 2492
1459, 763, 762, 2261, 722
1460, 760, 320, 486, 1307
1461, 2862, 816, 315, 491
1462, 1876, 1381, 1105, 2420
1463, 2727, 2288, 1877, 1106
1464, 2460, 2420, 618, 189
1465, 2507, 2842, 1256, 1932
1466, 1083, 1821, 2277, 2909
1467, 1256, 2903, 1763, 2654
1468, 3053, 1374, 1828, 1624
1469, 1543, 3158, 846, 2892
1470, 2250, 2292, 806, 3021
1471, 3055, 524, 283, 3054
1472, 2336, 3031, 1947, 1365
1473, 2268, 1050, 2417, 2415
1474, 3228, 2705, 3224, 2099
1475, 1365, 1947, 1034, 2705
1476, 2878, 2053, 1108, 2264
1477, 1081, 2719, 2718, 2672
1478, 2549, 729, 2564, 2876
1479, 769, 773, 488, 319
1480, 2142, 3110, 721, 1241
1481, 2216, 2191, 2141, 3296
1482, 1147, 2554, 2555, 2552
1483, 2552, 2555, 2553, 1144
1484, 2555, 1701, 1148, 2553
1485, 2554, 1130, 1701, 2555
1486, 1542, 921, 1814, 3192
1487, 2910, 2403, 2948, 2094
1488, 1232, 3286, 1589, 1273
1489, 2389, 1452, 323, 483
1490, 3000, 1676, 3111, 2670
1491, 3122, 722, 2406, 1415
1492, 1797, 3104, 1677, 2263
1493, 2488, 1370, 1963, 626
1494, 1707, 2299, 1289, 805
1495, 1360, 2964, 2840, 3097
1496, 2390, 2063, 1265, 2474
1497, 2461, 993, 3247, 3264
1498, 961, 2466, 1000, 2368
1499, 953, 1334, 1002, 1294
1500, 2108, 2907, 2109, 1382
1501, 2258, 198, 608, 2055
1502, 2619, 2529, 1071, 1810
1503, 729, 2352, 2565, 2564
1504, 2446, 743, 1718, 2024
1505, 2447, 3138, 1736, 1352
1506, 2352, 728, 1829, 2565
1507, 1815, 938, 1607, 1816
1508, 2077, 1977, 954, 3126
1509, 1916, 2505, 3223, 1377
1510, 1016, 3090, 2587, 1022
1511, 2082, 1690, 280, 526
1512, 863, 3262, 824, 1238
1513, 2325, 1207, 519, 288
1514, 788, 815, 2578, 1699
1515, 1935, 792, 2687, 2244
1516, 2569, 1937, 791, 801
1517, 2751, 853, 2659, 2011
1518, 1985, 334, 472, 1462
1519, 1952, 740, 471, 336
1520, 2668, 638, 739, 1463
1521, 1546, 3013, 512, 295
1522, 842, 285, 521, 2761
1523, 870, 1208, 1207, 2325
1524, 2509, 1408, 3309, 876
1525, 1033, 2576, 1565, 1921
1526, 1442, 417, 390, 2545
1527, 2269, 394, 412, 2312
1528, 2673, 2231, 2800, 2397
1529, 1637, 2577, 2311, 1404
1530, 2835, 1047, 2414, 2803
1531, 1886, 1720, 1045, 1888
1532, 2322, 2567, 2694, 867
1533, 1425, 2241, 1739, 3257
1534, 2765, 2970, 2523, 1419
1535, 798, 1697, 1855, 2365
1536, 2845, 1236, 3267, 2980
1537, 2582, 2247, 2839, 3171
1538, 1131, 2058, 2584, 2538
1539, 2538, 2584, 2583, 1146
1540, 2584, 2554, 1147, 2583
1541, 2058, 1130, 2554, 2584
1542, 3085, 1765, 3017, 952
1543, 1293, 1337, 2370, 2934
1544, 2076, 2465, 1002, 2593
1545, 2588, 2590, 2442, 1053
1546, 2590, 1262, 1054, 2442
1547, 2589, 1055, 1262, 2590
1548, 1006, 2072, 1767, 1191
1549, 669, 2853, 2368, 1336
1550, 3126, 1883, 2525, 2624
1551, 2989, 1521, 1709, 1446
1552, 2828, 968, 2526, 2853
1553, 1835, 2077, 3252, 2566
1554, 2593, 1002, 1334, 1687
1555, 1338, 2502, 1765, 3085
1556, 1889, 1296, 895, 1781
1557, 2340, 1611, 1297, 2814
1558, 3043, 3228, 2313, 1398
1559, 1568, 2764, 2483, 2335
1560, 2109, 2459, 680, 2728
1561, 1714, 187, 619, 2741
1562, 1100, 1079, 2506, 1874
1563, 3233, 1103, 2289, 2458
1564, 1925, 1612, 3273, 3275
1565, 1884, 1878, 872, 1644
1566, 267, 2684, 2923, 540
1567, 2960, 2220, 3060, 3014
1568, 1794, 2930, 704, 2330
1569, 1794, 2976, 2533, 2930
1570, 634, 770, 2608, 3027
1571, 1235, 3199, 3109, 1286
1572, 2304, 2065, 2066, 1448
1573, 2579, 3304, 815, 1845
1574, 2092, 634, 3027, 1908
1575, 949, 2606, 2607, 2253
1576, 2253, 2607, 2588, 1053
1577, 1990, 1862, 1606, 2887
1578, 2424, 2472, 938, 1815
1579, 2602, 710, 2669, 2028
1580, 2768, 779, 2084, 708
1581, 1719, 1352, 730, 1418
1582, 639, 735, 1416, 2831
1583, 1830, 2807, 476, 331
1584, 1965, 2558, 764, 765
1585, 2103, 1307, 764, 2558
1586, 3199, 773, 769, 3109
1587, 2278, 1820, 1067, 1933
1588, 1933, 1067, 2610, 2409
1589, 2725, 1474, 686, 3136
1590, 1096, 1875, 614, 193
1591, 2540, 2898, 2258, 2563
1592, 270, 2510, 2457, 537
1593, 3101, 3007, 2690, 926
1594, 1220, 1388, 2620, 1171
1595, 1856, 1128, 2395, 1858
1596, 2964, 2921, 2040, 2840
1597, 264, 2158, 624, 543
1598, 1980, 2663, 1275, 2360
1599, 1295, 3128, 2757, 2502
1600, 1838, 2850, 2072, 1006
1601, 3016, 2592, 956, 942
1602, 1561, 3182, 345, 461
1603, 2469, 645, 1679, 747
1604, 2306, 2458, 2716, 2273
1605, 3233, 2712, 3204, 1103
1606, 3227, 1060, 1187, 1065
1607, 1067, 2259, 2333, 2610
1608, 3216, 1347, 1088, 2973
1609, 2073, 2508, 2529, 1202
1610, 656, 913, 20, 32
1611, 1645, 1516, 833, 2959
1612, 2815, 2595, 1809, 2372
1613, 1297, 1807, 2947, 1941
1614, 1144, 2553, 2635, 2634
1615, 2634, 2635, 2495, 1152
1616, 2635, 2030, 1149, 2495
1617, 2553, 1148, 2030, 2635
1618, 1614, 2510, 2371, 2515
1619, 2519, 3101, 926, 3089
1620, 536, 2371, 2510, 270
1621, 2748, 1917, 2623, 948
1622, 1745, 3251, 2941, 1180
1623, 2591, 1522, 2473, 2286
1624, 3087, 1745, 2785, 1008
1625, 664, 1577, 2640, 2639
1626, 2639, 2640, 2606, 949
1627, 946, 665, 2171, 2798
1628, 668, 2217, 2799, 2804
1629, 1370, 530, 277, 1963
1630, 2580, 2642, 1496, 649
1631, 2642, 2232, 651, 1496
1632, 908, 2641, 2040, 1184
1633, 3249, 3226, 1136, 1175
1634, 1394, 2467, 1647, 3146
1635, 2965, 1694, 3226, 3249
1636, 3049, 1771, 837, 1234
1637, 2655, 2095, 1544, 2324
1638, 1705, 3161, 1290, 796
1639, 2761, 521, 286, 2326
1640, 2791, 700, 2792, 2479
1641, 2652, 2651, 1145, 2650
1642, 2583, 1147, 2651, 2652
1643, 664, 2639, 2653, 2156
1644, 2156, 2653, 1630, 666
1645, 2653, 2251, 663, 1630
1646, 2639, 949, 2251, 2653
1647, 775, 1668, 1308, 2052
1648, 1307, 486, 321, 764
1649, 765, 764, 321, 485
1650, 3184, 1783, 1219, 2467
1651, 2903, 2350, 1811, 1763
1652, 1138, 2838, 3269, 2357
1653, 872, 1925, 3275, 2787
1654, 2641, 3277, 2840, 2040
1655, 1612, 1237, 2776, 2782
1656, 2675, 2733, 2724, 847
1657, 2769, 2533, 3163, 2346
1658, 2327, 2425, 774, 2413
1659, 1319, 2863, 2204, 632
1660, 635, 786, 2304, 2605
1661, 847, 2724, 3039, 864
1662, 3297, 2013, 2882, 1993
1663, 2896, 3150, 2752, 2657
1664, 1992, 2931, 2671, 1994
1665, 954, 2749, 1883, 3126
1666, 435, 372, 2043, 2746
1667, 2439, 377, 429, 3253
1668, 2560, 1359, 3066, 2358
1669, 877, 3091, 880, 1359
1670, 701, 1558, 2666, 2664
1671, 2664, 2666, 2665, 1162
1672, 2666, 2194, 698, 2665
1673, 1558, 703, 2194, 2666
1674, 2667, 1750, 741, 1353
1675, 643, 758, 1952, 3011
1676, 2192, 2146, 2193, 1750
1677, 2988, 1319, 632, 1844
1678, 3179, 723, 159, 148
1679, 2976, 717, 705, 2688
1680, 2728, 1102, 2272, 1410
1681, 2272, 9, 403, 1109
1682, 2614, 1090, 1405, 1381
1683, 1619, 851, 1373, 1640
1684, 1311, 715, 704, 2930
1685, 2236, 2010, 3013, 1546
1686, 1811, 2377, 2097, 1137
1687, 1137, 2097, 208, 598
1688, 2598, 611, 196, 1079
1689, 3217, 1932, 2464, 2837
1690, 1398, 2313, 1011, 3032
1691, 2267, 393, 413, 2544
1692, 2099, 2802, 1636, 1036
1693, 3032, 1011, 3221, 1040
1694, 2343, 2384, 1839, 865
1695, 925, 1186, 908, 2777
1696, 3171, 2839, 10, 22
1697, 766, 3201, 760, 2405
1698, 708, 2084, 2329, 2051
1699, 2995, 787, 2056, 854
1700, 1758, 2616, 910, 1322
1701, 2428, 1753, 1545, 850
1702, 853, 3195, 2236, 2659
1703, 2450, 1854, 2322, 1620
1704, 3226, 1141, 2924, 1136
1705, 2695, 2697, 2664, 1162
1706, 2697, 2017, 701, 2664
1707, 2696, 702, 2017, 2697
1708, 1461, 255, 551, 3248
1709, 2164, 554, 253, 1939
1710, 2821, 2338, 1889, 821
1711, 3303, 2221, 912, 3280
1712, 2056, 2870, 1207, 1208
1713, 2291, 1261, 1712, 3205
1714, 2865, 876, 1771, 3049
1715, 3308, 1827, 3159, 1920
1716, 1237, 2846, 1325, 2776
1717, 3089, 926, 1274, 3207
1718, 1261, 2320, 1425, 1712
1719, 3284, 550, 257, 2735
1720, 1050, 1961, 2449, 1720
1721, 2802, 2983, 1399, 2835
1722, 1026, 2683, 1938, 1043
1723, 2834, 2267, 2544, 1946
1724, 2127, 2002, 139, 129
1725, 2126, 2709, 1254, 752
1726, 2080, 750, 2629, 3183
1727, 2081, 343, 463, 1679
1728, 1046, 2416, 2711, 2710
1729, 2710, 2711, 2459, 1044
1730, 2711, 2176, 680, 2459
1731, 2416, 1035, 2176, 2711
1732, 1189, 684, 1474, 2725
1733, 1397, 2861, 1189, 1078
1734, 1875, 3046, 192, 614
1735, 1251, 2295, 1875, 1096
1736, 2015, 1406, 1775, 1066
1737, 3205, 1712, 3195, 853
1738, 1520, 1320, 1976, 3037
1739, 1853, 505, 302, 1420
1740, 3273, 1612, 2782, 3272
1741, 3054, 283, 523, 2645
1742, 2724, 2733, 1325, 3262
1743, 822, 3193, 2968, 1851
1744, 1330, 1204, 1692, 2323
1745, 2817, 3160, 1346, 2630
1746, 1062, 2893, 2992, 2949
1747, 1103, 3204, 2956, 3113
1748, 1885, 2518, 2501, 2700
1749, 795, 2238, 1288, 2248
1750, 3168, 1734, 2197, 1733
1751, 1589, 901, 1590, 2812
1752, 1788, 3284, 2735, 919
1753, 1272, 1808, 1459, 915
1754, 1312, 973, 1196, 1217
1755, 2476, 2830, 1552, 964
1756, 1221, 1457, 2849, 1615
1757, 1165, 2563, 1094, 2259
1758, 1580, 2740, 2665, 698
1759, 2740, 2739, 1162, 2665
1760, 2860, 1396, 3227, 1097
1761, 1411, 1086, 2548, 2270
1762, 629, 1800, 616, 191
1763, 1086, 2880, 2742, 2548
1764, 1092, 1675, 3130, 3001
1765, 1257, 1348, 1165, 1820
1766, 3041, 2841, 2679, 1691
1767, 1767, 3096, 375, 431
1768, 1190, 670, 1335, 1339
1769, 1916, 1838, 1006, 2505
1770, 1765, 2585, 2756, 3017
1771, 3131, 1310, 1311, 2769
1772, 2660, 1305, 1992, 1994
1773, 2508, 2611, 2615, 1129
1774, 2718, 1382, 1410, 1571
1775, 3160, 1163, 1674, 1093
1776, 1874, 2506, 3258, 1082
1777, 2367, 1277, 994, 2369
1778, 2592, 3154, 3094, 956
1779, 2504, 997, 374, 432
1780, 848, 805, 866, 2731
1781, 876, 3309, 2722, 1771
1782, 2543, 1401, 851, 1619
1783, 1018, 942, 2485, 1228
1784, 2762, 2764, 2546, 1024
1785, 2577, 2706, 1041, 2311
1786, 1029, 1568, 2335, 1030
1787, 790, 2524, 1409, 2646
1788, 837, 1421, 289, 517
1789, 2648, 1706, 1784, 2732
1790, 1855, 2536, 2065, 2316
1791, 1995, 3055, 3054, 3050
1792, 1706, 3219, 1426, 1784
1793, 1427, 1375, 516, 291
1794, 745, 1671, 1669, 2069
1795, 1683, 1923, 1833, 1563
1796, 1493, 2823, 457, 350
1797, 1436, 640, 1431, 1492
1798, 2454, 3016, 942, 1018
1799, 3243, 3005, 2773, 2481
1800, 1180, 2805, 2974, 1230
1801, 2285, 2851, 933, 2625
1802, 2844, 1390, 3278, 1224
1803, 1284, 1392, 1643, 2039
1804, 3272, 2233, 2234, 2232
1805, 1981, 1322, 3276, 1321
1806, 1647, 2541, 2463, 1648
1807, 1350, 1693, 1169, 1204
1808, 2780, 2168, 702, 2696
1809, 2779, 699, 2168, 2780
1810, 662, 2778, 625, 2582
1811, 2345, 3099, 3222, 2516
1812, 2636, 2360, 2521, 2159
1813, 958, 1267, 950, 1837
1814, 2785, 1230, 2758, 943
1815, 2887, 1606, 383, 423
1816, 2782, 2776, 2730, 2969
1817, 751, 1895, 2789, 2788
1818, 2788, 2789, 2137, 622
1819, 2852, 342, 464, 1604
1820, 1249, 140, 130, 1248
1821, 2468, 1072, 3052, 3041
1822, 1389, 2223, 2199, 2222
1823, 700, 2965, 2889, 2792
1824, 1072, 1349, 1134, 3052
1825, 1199, 1198, 556, 251
1826, 1658, 1817, 2122, 885
1827, 2197, 1806, 621, 1281
1828, 2499, 1609, 1231, 621
1829, 1281, 3189, 2089, 1962
1830, 1890, 1490, 1658, 885
1831, 893, 3168, 1733, 2105
1832, 693, 1215, 1600, 1535
1833, 1213, 2111, 693, 1535
1834, 2950, 1498, 2047, 1534
1835, 1505, 2004, 1356, 1358
1836, 947, 1746, 2044, 1861
1837, 3255, 2606, 2640, 946
1838, 1606, 1446, 424, 383
1839, 1548, 1849, 3030, 1049
1840, 1328, 1270, 2482, 2774
1841, 3005, 3086, 944, 2773
1842, 2804, 2799, 1229, 2974
1843, 776, 2328, 1402, 3035
1844, 633, 164, 153, 1842
1845, 1735, 1276, 736, 1417
1846, 641, 2628, 2808, 2001
1847, 2772, 349, 457, 2823
1848, 1959, 674, 135, 125
1849, 2628, 748, 1562, 2808
1850, 1900, 972, 672, 970
1851, 2478, 2398, 2390, 2513
1852, 2462, 1222, 116, 105
1853, 916, 3246, 27, 16
1854, 1813, 891, 1787, 3080
1855, 2338, 906, 1296, 1889
1856, 1236, 2787, 3275, 2820
1857, 1078, 1189, 2725, 2879
1858, 1800, 2060, 190, 616
1859, 1778, 1085, 612, 195
1860, 1824, 2008, 2982, 655
1861, 3239, 882, 1422, 2068
1862, 887, 240, 566, 883
1863, 1343, 2961, 2520, 1878
1864, 916, 2153, 1223, 3246
1865, 3060, 3015, 2362, 1366
1866, 1672, 1436, 1492, 1432
1867, 2032, 2771, 2955, 745
1868, 3240, 1528, 134, 124
1869, 1633, 2343, 865, 2359
1870, 2839, 175, 1, 10
1871, 2521, 2922, 2361, 1324
1872, 2947, 2633, 920, 2140
1873, 881, 37, 48, 687
1874, 1658, 2982, 2020, 1817
1875, 654, 1433, 35, 46
1876, 3236, 1597, 2827, 2021
1877, 1313, 118, 107, 1555
1878, 1622, 1554, 437, 370
1879, 3129, 1999, 739, 638
1880, 3012, 755, 1872, 1871
1881, 639, 2831, 3190, 1735
1882, 2024, 3220, 2161, 3138
1883, 2417, 1050, 1720, 1886
1884, 2313, 1036, 2801, 1011
1885, 2705, 1034, 2547, 3224
1886, 2680, 1398, 3032, 3044
1887, 2841, 1330, 2836, 2679
1888, 1782, 2357, 2480, 2377
1889, 1851, 3274, 3097, 1391
1890, 2339, 553, 254, 2859
1891, 2844, 1224, 1285, 2729
1892, 2905, 1175, 2537, 1146
1893, 1723, 1628, 1349, 1072
1894, 2925, 1648, 3058, 1283
1895, 2859, 254, 552, 2026
1896, 825, 868, 835, 928
1897, 3275, 3273, 2642, 2580
1898, 1266, 3237, 3247, 993
1899, 2737, 991, 1617, 2064
1900, 1380, 2990, 3005, 3243
1901, 1007, 951, 1279, 3254
1902, 999, 2586, 1005, 998
1903, 2749, 2934, 1766, 1883
1904, 747, 1679, 463, 344
1905, 1681, 3183, 1602, 749
1906, 2708, 2469, 747, 2074
1907, 2126, 752, 2127, 1249
1908, 1458, 363, 443, 677
1909, 3264, 3247, 440, 367
1910, 959, 953, 1294, 1689
1911, 667, 1190, 1339, 1836
1912, 2594, 2042, 3128, 1295
1913, 1278, 2369, 3132, 2503
1914, 1389, 2643, 1135, 2791
1915, 2857, 1245, 696, 2182
1916, 2856, 1143, 1245, 2857
1917, 271, 911, 2371, 536
1918, 3246, 1223, 2500, 3287
1919, 896, 898, 3286, 1232
1920, 2260, 1874, 1082, 1076
1921, 1093, 3001, 1708, 2334
1922, 2275, 2717, 1570, 2419
1923, 2568, 2647, 1827, 3308
1924, 2996, 1583, 3244, 777
1925, 1305, 1233, 2190, 1991
1926, 1182, 2346, 2988, 1233
1927, 3028, 3033, 1652, 1678
1928, 1304, 3202, 2433, 2661
1929, 793, 1420, 789, 1700
1930, 2522, 857, 2676, 2573
1931, 861, 2770, 1309, 1401
1932, 1789, 2174, 1897, 1441
1933, 1161, 2078, 1125, 2135
1934, 2174, 2134, 230, 576
1935, 2952, 2927, 1950, 1440
1936, 2655, 841, 1407, 2095
1937, 2238, 1594, 2674, 1288
1938, 3131, 2769, 2346, 1182
1939, 2688, 705, 2012, 2863
1940, 770, 3051, 1907, 2608
1941, 1309, 2317, 2319, 2318
1942, 672, 3167, 2874, 2562
1943, 3265, 2411, 965, 2829
1944, 1615, 2849, 2461, 1661
1945, 1868, 1751, 338, 468
1946, 644, 1752, 2954, 2571
1947, 1462, 472, 335, 1984
1948, 1951, 2667, 2940, 1752
1949, 3200, 160, 149, 724
1950, 1993, 725, 2550, 2207
1951, 1999, 2832, 2806, 742
1952, 3220, 737, 2057, 2161
1953, 2846, 824, 3262, 1325
1954, 2151, 256, 550, 3284
1955, 1910, 2140, 1455, 2991
1956, 3281, 894, 262, 544
1957, 2190, 163, 152, 1991
1958, 2204, 150, 162, 632
1959, 1991, 152, 164, 633
1960, 2315, 706, 493, 314
1961, 1276, 732, 2215, 1301
1962, 2066, 308, 498, 1448
1963, 1181, 1509, 646, 3185
1964, 637, 2206, 2932, 2189
1965, 3071, 2824, 2165, 3098
1966, 1541, 1890, 885, 2499
1967, 2885, 258, 548, 3293
1968, 2401, 2919, 2402, 1284
1969, 3255, 946, 2798, 2805
1970, 942, 956, 2484, 2485
1971, 1230, 2974, 1229, 2758
1972, 2217, 667, 2933, 2799
1973, 705, 1291, 2347, 2012
1974, 699, 2779, 2890, 2198
1975, 1136, 2924, 2381, 1132
1976, 2791, 1135, 3250, 700
1977, 1933, 2409, 3157, 3231
1978, 844, 2255, 811, 794
1979, 3186, 2675, 847, 2567
1980, 2284, 1755, 510, 297
1981, 1739, 845, 856, 2430
1982, 2264, 1108, 2860, 1569
1983, 1648, 2463, 1354, 3058
1984, 3152, 1220, 1171, 1167
1985, 1097, 3227, 1065, 1104
1986, 1661, 2461, 3264, 1772
1987, 2513, 2390, 2474, 671
1988, 1688, 2367, 2369, 1278
1989, 2626, 2465, 2750, 960
1990, 2425, 3072, 2421, 1738
1991, 3229, 2896, 2657, 2208
1992, 771, 2986, 2102, 726
1993, 2895, 3037, 2378, 1650
1994, 3231, 3157, 2908, 2631
1995, 1061, 2879, 1601, 2715
1996, 1111, 1061, 2715, 1396
1997, 2727, 2275, 2419, 2288
1998, 2062, 404, 186, 1102
1999, 2237, 3062, 3232, 2649
2000, 852, 790, 2646, 3092
2001, 1260, 714, 841, 2655
2002, 1801, 1157, 696, 1246
2003, 1802, 3119, 1152, 3125
2004, 2902, 1193, 694, 2178
2005, 2869, 3294, 1973, 1122
2006, 1288, 2674, 3062, 2237
2007, 1374, 849, 2765, 1828
2008, 2574, 3073, 2542, 2866
2009, 2478, 2513, 2830, 2476
2010, 991, 2478, 2476, 1617
2011, 1618, 1314, 1457, 1221
2012, 1059, 2297, 2906, 1315
2013, 1315, 2906, 2681, 1057
2014, 2906, 1263, 1056, 2681
2015, 2297, 1054, 1263, 2906
2016, 1077, 1628, 2620, 2418
2017, 3204, 1066, 2274, 2956
2018, 3113, 2956, 2719, 1081
2019, 2053, 1091, 1798, 3121
2020, 2500, 3292, 1224, 3278
2021, 3268, 889, 3282, 3175
2022, 3279, 916, 16, 28
2023, 1242, 3180, 1942, 659
2024, 2610, 2333, 2914, 2899
2025, 1070, 1068, 2016, 1084
2026, 2259, 1094, 2754, 2333
2027, 1666, 1664, 1451, 1859
2028, 1666, 984, 1227, 1664
2029, 1227, 628, 1225, 2918
2030, 986, 1805, 1226, 1537
2031, 539, 2041, 2684, 267
2032, 2968, 2729, 833, 2786
2033, 1814, 2596, 2106, 1610
2034, 3303, 918, 659, 2221
2035, 2582, 625, 900, 2247
2036, 901, 899, 2910, 1590
2037, 2729, 1285, 2959, 833
2038, 3041, 3052, 1350, 2841
2039, 1170, 1394, 3146, 2793
2040, 2133, 3211, 1913, 1911
2041, 1160, 2166, 2035, 3068
2042, 1332, 1912, 1126, 695
2043, 2937, 1789, 1441, 2394
2044, 2135, 1125, 2951, 2167
2045, 2036, 2037, 1865, 1864
2046, 2393, 2134, 2174, 1789
2047, 2037, 1897, 231, 575
2048, 633, 1842, 2931, 1992
2049, 2441, 782, 707, 1906
2050, 952, 3017, 2504, 3096
2051, 3165, 3197, 3128, 2042
2052, 1336, 2368, 1000, 2998
2053, 3144, 2566, 3088, 2285
2054, 1441, 1897, 2037, 2036
2055, 3211, 1122, 2962, 1913
2056, 1791, 2133, 1911, 2007
2057, 1735, 3190, 732, 1276
2058, 1843, 478, 329, 3010
2059, 1361, 2565, 1829, 733
2060, 695, 1126, 2201, 1121
2061, 691, 692, 579, 228
2062, 689, 1113, 1213, 1506
2063, 1864, 1865, 1117, 1500
2064, 2446, 2024, 3138, 2447
2065, 1997, 742, 333, 473
2066, 1751, 2572, 469, 338
2067, 757, 644, 643, 2875
2068, 1267, 2758, 1229, 950
2069, 3019, 1328, 2774, 3188
2070, 2805, 2798, 2804, 2974
2071, 1116, 1598, 2047, 1498
2072, 3172, 1116, 1498, 2950
2073, 689, 1499, 1507, 2100
2074, 1120, 1673, 1532, 3057
2075, 724, 149, 161, 3271
2076, 1842, 165, 176, 2931
2077, 2434, 776, 3035, 778
2078, 1920, 3159, 509, 298
2079, 982, 2945, 2946, 2511
2080, 2511, 2946, 1902, 990
2081, 2117, 450, 357, 3245
2082, 1902, 986, 1537, 1903
2083, 3285, 2150, 903, 2152
2084, 2403, 1456, 3198, 894
2085, 3148, 1232, 1273, 1807
2086, 1296, 1910, 2991, 895
2087, 2716, 1064, 2271, 2060
2088, 1877, 3116, 1099, 2061
2089, 2053, 3121, 1111, 1108
2090, 2942, 2110, 39, 50
2091, 1534, 2047, 571, 236
2092, 1506, 1213, 1535, 1823
2093, 2847, 1550, 969, 2737
2094, 2562, 2874, 973, 1312
2095, 2561, 1618, 1221, 2809
2096, 1897, 2174, 576, 231
2097, 2496, 219, 587, 1155
2098, 630, 2952, 1440, 2175
2099, 739, 1997, 1985, 1463
2100, 2667, 1353, 1362, 2940
2101, 1834, 458, 349, 2772
2102, 2070, 136, 126, 2771
2103, 1491, 1438, 3238, 977
2104, 746, 1430, 2823, 1493
2105, 2288, 2419, 1411, 2753
2106, 2289, 1063, 1058, 1064
2107, 1107, 629, 191, 615
2108, 2332, 2714, 2861, 1397
2109, 2571, 2953, 1464, 758
2110, 757, 1951, 1752, 644
2111, 1984, 335, 471, 740
2112, 1750, 2193, 2160, 741
2113, 1780, 2948, 3281, 2517
2114, 2219, 3014, 1879, 2600
2115, 3272, 2782, 2969, 2233
2116, 1642, 878, 3039, 863
2117, 2358, 3066, 279, 527
2118, 1211, 1644, 831, 2781
2119, 1930, 3067, 1119, 1333
2120, 1928, 2036, 1864, 2939
2121, 2962, 223, 583, 1913
2122, 1331, 2038, 1160, 1929
2123, 3208, 1211, 3277, 2641
2124, 2961, 2846, 1237, 2520
2125, 1326, 877, 2087, 1785
2126, 3267, 907, 1613, 3139
2127, 2643, 2793, 697, 1135
2128, 1283, 3058, 3137, 2355
2129, 2652, 2905, 1146, 2583
2130, 2792, 2889, 3135, 2856
2131, 1885, 1998, 1909, 2518
2132, 662, 2582, 3171, 1206
2133, 907, 2820, 2778, 662
2134, 900, 1495, 184, 174
2135, 1620, 2322, 867, 785
2136, 2299, 785, 2891, 795
2137, 2891, 839, 3020, 1316
2138, 874, 1634, 531, 276
2139, 802, 3308, 1920, 3305
2140, 3260, 1427, 291, 515
2141, 1753, 1426, 2283, 2872
2142, 1070, 2149, 2916, 2305
2143, 1077, 3070, 1349, 1628
2144, 2016, 1091, 2053, 2878
2145, 2897, 1569, 1188, 2265
2146, 3107, 3019, 1329, 3108
2147, 2783, 1380, 936, 995
2148, 1228, 2485, 2483, 1269
2149, 2637, 937, 2287, 1447
2150, 2660, 1182, 1233, 1305
2151, 3202, 2864, 784, 2433
2152, 980, 1987, 2978, 1340
2153, 1340, 2978, 1530, 676
2154, 2978, 2977, 675, 1530
2155, 1987, 979, 2977, 2978
2156, 2360, 1275, 2922, 2521
2157, 273, 3222, 3099, 534
2158, 3059, 930, 829, 909
2159, 2921, 660, 1184, 2040
2160, 2704, 1852, 14, 26
2161, 914, 917, 1786, 2966
2162, 1852, 2165, 25, 14
2163, 3239, 2068, 1424, 1715
2164, 2067, 1824, 655, 1659
2165, 3236, 2021, 1488, 1423
2166, 2068, 1422, 2826, 1818
2167, 1043, 1721, 1025, 1513
2168, 2683, 1051, 1037, 1048
2169, 3230, 2337, 409, 398
2170, 2682, 2336, 1365, 3043
2171, 3238, 348, 458, 1834
2172, 745, 2955, 1627, 1671
2173, 2955, 137, 127, 1627
2174, 1672, 2098, 1437, 1436
2175, 1439, 1790, 2927, 2952
2176, 1899, 2392, 2078, 1161
2177, 1898, 1158, 2393, 2136
2178, 1913, 583, 224, 1911
2179, 2701, 2364, 2888, 858
2180, 2883, 870, 2325, 2693
2181, 3185, 781, 2770, 2603
2182, 1854, 3186, 2567, 2322
2183, 2774, 2482, 3255, 2941
2184, 2773, 944, 2423, 996
2185, 1971, 1523, 1978, 1378
2186, 3108, 1329, 1269, 2762
2187, 3180, 2088, 2556, 1942
2188, 829, 1321, 1514, 3065
2189, 3289, 3301, 2698, 1345
2190, 3246, 3287, 15, 27
2191, 1060, 3136, 686, 1187
2192, 3070, 2613, 1134, 1349
2193, 2992, 2695, 1162, 2739
2194, 920, 2401, 1284, 2039
2195, 1781, 895, 2959, 1285
2196, 2152, 903, 2632, 2129
2197, 1608, 888, 249, 557
2198, 1260, 2655, 2324, 2450
2199, 3062, 2761, 2326, 3232
2200, 1955, 798, 2365, 1934
2201, 2731, 2604, 1754, 1371
2202, 2327, 2996, 777, 3206
2203, 2346, 3163, 1319, 2988
2204, 883, 566, 241, 1655
2205, 1422, 1435, 2075, 2826
2206, 2114, 2818, 653, 1654
2207, 3239, 2067, 1115, 1434
2208, 670, 2210, 1004, 1335
2209, 2934, 2370, 2755, 1766
2210, 3017, 2756, 997, 2504
2211, 2625, 933, 2747, 1327
2212, 1289, 2248, 1826, 804
2213, 1292, 3177, 1310, 3131
2214, 1904, 2386, 3000, 2262
2215, 1912, 581, 226, 1126
2216, 2166, 2935, 2006, 2035
2217, 1121, 2201, 580, 227
2218, 904, 2340, 2814, 2093
2219, 3303, 3299, 29, 18
2220, 1675, 2727, 1106, 3130
2221, 1381, 1405, 2741, 1105
2222, 1777, 1059, 1315, 2290
2223, 2231, 1023, 1364, 2800
2224, 1961, 1513, 1052, 2449
2225, 3228, 2099, 1036, 2313
2226, 1404, 2311, 3230, 1031
2227, 1026, 1043, 1513, 1961
2228, 2592, 2374, 2422, 3154
2229, 1522, 1990, 2887, 2473
2230, 944, 958, 2775, 2423
2231, 1379, 1022, 2453, 1021
2232, 1449, 1725, 984, 1666
2233, 1536, 3006, 2977, 979
2234, 3006, 2124, 675, 2977
2235, 1860, 3006, 1536, 3026
2236, 541, 2616, 1758, 265
2237, 540, 2923, 2344, 266
2238, 2991, 1645, 2959, 895
2239, 3265, 2829, 117, 106
2240, 973, 1616, 2873, 1196
2241, 3266, 3203, 2477, 3173
2242, 1551, 119, 108, 2121
2243, 1662, 445, 362, 1549
2244, 1951, 2192, 1750, 2667
2245, 644, 2571, 758, 643
2246, 2487, 1699, 307, 499
2247, 2431, 3235, 2975, 2235
2248, 1699, 2578, 500, 307
2249, 2884, 2534, 513, 294
2250, 925, 2331, 623, 1186
2251, 3277, 1391, 3097, 2840
2252, 1646, 1769, 2981, 1369
2253, 828, 2087, 2560, 1840
2254, 3261, 1179, 1009, 1989
2255, 2525, 2662, 2850, 1838
2256, 2370, 2594, 1295, 2755
2257, 2481, 932, 1747, 1179
2258, 1328, 3143, 2589, 1270
2259, 2454, 2783, 995, 1017
2260, 2747, 1524, 2497, 2438
2261, 1270, 2589, 2590, 2588
2262, 3050, 3054, 2645, 2760
2263, 2065, 2536, 2487, 2066
2264, 3045, 1700, 1429, 1937
2265, 1375, 1234, 290, 516
2266, 2292, 2866, 2677, 806
2267, 2649, 3232, 787, 2995
2268, 713, 2301, 2864, 3202
2269, 1553, 1218, 1278, 2503
2270, 2512, 3024, 3023, 982
2271, 3024, 2120, 678, 3023
2272, 2399, 442, 365, 3203
2273, 1726, 983, 358, 448
2274, 3176, 1450, 2117, 679
2275, 1539, 355, 451, 1804
2276, 985, 449, 358, 983
2277, 269, 823, 2686, 538
2278, 2248, 1288, 2237, 1826
2279, 1774, 3092, 1408, 2509
2280, 2378, 1519, 706, 2315
2281, 2380, 1795, 3147, 767
2282, 2996, 1299, 717, 1583
2283, 1720, 2449, 1042, 1045
2284, 2547, 1032, 1033, 1850
2285, 3042, 1400, 2266, 2448
2286, 1043, 1938, 1548, 1721
2287, 2983, 1850, 1384, 1399
2288, 2597, 1442, 2545, 3063
2289, 3036, 3063, 3242, 1944
2290, 2986, 1235, 1286, 2102
2291, 773, 1453, 318, 488
2292, 2303, 497, 310, 1975
2293, 783, 2208, 2657, 2328
2294, 3224, 2547, 1850, 2983
2295, 3063, 2545, 2763, 3242
2296, 1444, 2575, 3036, 1944
2297, 3042, 2448, 1039, 1051
2298, 1306, 2092, 1908, 1518
2299, 3102, 2029, 2490, 1452
2300, 767, 1796, 3118, 3038
2301, 1635, 2471, 532, 275
2302, 714, 2581, 1261, 2291
2303, 1544, 2888, 838, 2703
2304, 1690, 2358, 527, 280
2305, 2843, 2356, 212, 594
2306, 2276, 2878, 2264, 1395
2307, 1042, 2396, 407, 400
2308, 1048, 1056, 1264, 3048
2309, 2706, 2680, 3044, 1041
2310, 1399, 1946, 1047, 2835
2311, 859, 2568, 3308, 802
2312, 1593, 2244, 3235, 2431
2313, 1697, 788, 2536, 1855
2314, 3056, 1967, 1374, 3053
2315, 1090, 1714, 2741, 1405
2316, 1108, 1111, 1396, 2860
2317, 3072, 1518, 3034, 2421
2318, 3034, 3028, 1678, 1668
2319, 2244, 2687, 2569, 3235
2320, 3186, 3040, 2971, 2675
2321, 1066, 1775, 1110, 2274
2322, 1095, 1713, 613, 194
2323, 2801, 2230, 1547, 2310
2324, 1888, 1045, 406, 401
2325, 2574, 2701, 858, 3073
2326, 794, 811, 506, 301
2327, 2435, 2451, 2257, 810
2328, 2330, 704, 2208, 783
2329, 1738, 2421, 775, 780
2330, 1402, 2752, 716, 2027
2331, 1383, 1387, 1088, 1347
2332, 2842, 1691, 2903, 1256
2333, 2908, 1202, 2678, 1139
2334, 1164, 3210, 211, 595
2335, 2437, 3050, 2760, 3020
2336, 2241, 2732, 845, 1739
2337, 1317, 1773, 2451, 2435
2338, 2892, 846, 809, 814
2339, 791, 1846, 2096, 799
2340, 3114, 802, 3305, 2486
2341, 1827, 2767, 2284, 3159
2342, 1499, 1358, 2796, 2045
2343, 3057, 1532, 569, 238
2344, 2112, 690, 2046, 2111
2345, 2100, 51, 41, 1357
2346, 1219, 1724, 1629, 2541
2347, 3169, 1166, 206, 600
2348, 2654, 1763, 1140, 1168
2349, 1174, 2479, 2857, 2182
2350, 840, 2516, 2825, 2455
2351, 925, 1185, 1344, 2331
2352, 1641, 828, 2343, 1633
2353, 871, 3151, 2455, 3015
2354, 1260, 848, 2581, 714
2355, 1594, 2723, 842, 2674
2356, 1937, 1429, 1846, 791
2357, 1943, 1945, 1442, 2597
2358, 2335, 2483, 2485, 2484
2359, 1029, 1030, 1012, 2575
2360, 1385, 391, 415, 1960
2361, 1879, 1366, 2471, 1635
2362, 1840, 2560, 2358, 1690
2363, 2384, 1840, 1690, 2082
2364, 1158, 2926, 2134, 2393
2365, 2134, 2926, 577, 230
2366, 1899, 2928, 1331, 2392
2367, 1708, 1251, 1096, 1713
2368, 1063, 2294, 1876, 1058
2369, 2820, 3275, 2580, 2778
2370, 2778, 2580, 649, 625
2371, 1197, 1732, 2699, 1243
2372, 1403, 2862, 491, 316
2373, 2327, 2413, 711, 2987
2374, 777, 3244, 2432, 718
2375, 1306, 718, 2434, 2092
2376, 2993, 3178, 3055, 1995
2377, 2723, 522, 285, 842
2378, 2256, 810, 3158, 1543
2379, 841, 2249, 1740, 1407
2380, 1144, 3075, 3076, 2552
2381, 2552, 3076, 2651, 1147
2382, 3076, 3074, 1145, 2651
2383, 3075, 1143, 3074, 3076
2384, 937, 2376, 3153, 3133
2385, 2587, 2784, 1445, 2886
2386, 3133, 1016, 1022, 1379
2387, 3290, 1588, 546, 261
2388, 3289, 1942, 2556, 3301
2389, 2132, 896, 1232, 3148
2390, 1786, 1210, 1779, 2196
2391, 2278, 1933, 3231, 2148
2392, 2915, 602, 205, 1127
2393, 2395, 3140, 213, 593
2394, 678, 2154, 3082, 3023
2395, 3023, 3082, 2945, 982
2396, 1725, 679, 1727, 984
2397, 987, 1665, 1860, 2917
2398, 1200, 1956, 2843, 3140
2399, 2260, 2909, 1100, 1874
2400, 3152, 1167, 2404, 3184
2401, 2178, 694, 1150, 3166
2402, 1195, 220, 586, 2494
2403, 1803, 1802, 3125, 1177
2404, 998, 1005, 2749, 954
2405, 1018, 1228, 3018, 3004
2406, 3078, 1710, 3144, 1268
2407, 2071, 2998, 1003, 1337
2408, 2841, 1350, 1204, 1330
2409, 1068, 1250, 1091, 2016
2410, 1387, 607, 200, 1088
2411, 1446, 1709, 382, 424
2412, 2423, 2775, 1917, 2748
2413, 1376, 945, 1746, 947
2414, 2637, 2452, 2376, 937
2415, 2481, 2773, 996, 932
2416, 1021, 2453, 1523, 1971
2417, 2453, 2886, 1445, 1523
2418, 1710, 1835, 2566, 3144
2419, 835, 2967, 2689, 2881
2420, 2361, 923, 3064, 3124
2421, 1447, 2287, 1019, 939
2422, 1861, 2044, 421, 386
2423, 995, 936, 1605, 3077
2424, 2359, 1642, 863, 1238
2425, 924, 1979, 3141, 627
2426, 2881, 2689, 840, 927
2427, 1642, 826, 873, 878
2428, 1854, 1954, 3040, 3186
2429, 2470, 2246, 2961, 1343
2430, 1316, 2239, 1594, 2238
2431, 2320, 1621, 2241, 1425
2432, 1183, 1453, 773, 3199
2433, 1847, 808, 1596, 1996
2434, 781, 2317, 1309, 2770
2435, 1774, 2509, 855, 819
2436, 1129, 2615, 605, 202
2437, 2739, 2740, 2714, 2332
2438, 3259, 2696, 2697, 2695
2439, 2576, 1567, 1443, 1565
2440, 3095, 3094, 1010, 2527
2441, 1008, 2785, 943, 2990
2442, 1005, 1293, 2934, 2749
2443, 994, 962, 1686, 2999
2444, 1003, 1918, 2042, 2594
2445, 957, 3165, 2042, 1918
2446, 3208, 1884, 1644, 1211
2447, 3065, 1514, 832, 2911
2448, 2359, 865, 826, 1642
2449, 822, 3071, 3098, 3193
2450, 3124, 3064, 2385, 3100
2451, 3276, 2636, 2159, 2979
2452, 2979, 2159, 1979, 924
2453, 2690, 2515, 922, 1368
2454, 778, 3035, 3134, 2379
2455, 3134, 2027, 3155, 2997
2456, 1907, 1520, 3037, 2895
2457, 272, 2685, 3105, 535
2458, 1455, 929, 1645, 2991
2459, 660, 2617, 869, 1184
2460, 1024, 1364, 3108, 2762
2461, 1989, 1009, 1990, 1522
2462, 1364, 1023, 3107, 3108
2463, 3179, 148, 160, 3200
2464, 1300, 1415, 2551, 2191
2465, 1303, 2206, 637, 723
2466, 2013, 1303, 723, 3179
2467, 2085, 761, 3104, 762
2468, 3201, 487, 320, 760
2469, 722, 2261, 2408, 2406
2470, 2277, 2817, 2630, 1386
2471, 3164, 2949, 2332, 1397
2472, 1068, 2913, 2894, 1250
2473, 2364, 2186, 838, 2888
2474, 855, 2865, 3219, 1706
2475, 2677, 796, 1290, 2647
2476, 846, 3114, 2486, 809
2477, 2334, 1708, 1713, 1095
2478, 1713, 1096, 193, 613
2479, 2274, 1110, 2907, 2108
2480, 3001, 3130, 1251, 1708
2481, 1457, 3173, 1266, 2849
2482, 1696, 989, 1314, 1618
2483, 2474, 1265, 368, 438
2484, 1291, 3194, 2658, 2347
2485, 715, 3229, 2208, 704
2486, 2863, 2012, 3271, 2204
2487, 2084, 2028, 635, 2329
2488, 2102, 1286, 2388, 2386
2489, 1175, 1136, 1132, 2537
2490, 2222, 2199, 2200, 2198
2491, 1143, 3075, 3120, 1247
2492, 1247, 3120, 3119, 1154
2493, 3120, 2634, 1152, 3119
2494, 3075, 1144, 2634, 3120
2495, 3258, 197, 609, 2898
2496, 2295, 2061, 3046, 1875
2497, 3111, 2103, 2558, 1965
2498, 2052, 1308, 490, 317
2499, 1259, 1517, 2303, 1975
2500, 2246, 824, 2846, 2961
2501, 2559, 2685, 3099, 2345
2502, 2551, 720, 2530, 2214
2503, 2882, 3200, 724, 3234
2504, 725, 3234, 2944, 3270
2505, 1413, 2141, 2214, 3110
2506, 3091, 2342, 879, 880
2507, 3091, 3291, 2219, 2342
2508, 3193, 2844, 2729, 2968
2509, 3117, 2064, 1553, 968
2510, 2462, 1760, 669, 1222
2511, 2829, 2462, 105, 117
2512, 2901, 2180, 2181, 1157
2513, 1973, 2023, 1176, 1575
2514, 3295, 2901, 1157, 1801
2515, 2929, 1333, 1790, 1439
2516, 2202, 56, 68, 1930
2517, 1863, 2143, 2145, 2144
2518, 962, 2626, 960, 1686
2519, 2497, 427, 380, 941
2520, 2585, 2593, 1687, 2756
2521, 1004, 1336, 2998, 2071
2522, 2954, 2668, 1463, 1749
2523, 3010, 329, 477, 737
2524, 739, 1999, 742, 1997
2525, 730, 1830, 331, 475
2526, 1822, 2899, 1819, 2611
2527, 2276, 1395, 1089, 1821
2528, 2672, 1101, 1090, 2614
2529, 1292, 1181, 2532, 3177
2530, 2327, 2987, 1299, 2996
2531, 2028, 2669, 786, 635
2532, 2369, 994, 2999, 3132
2533, 2586, 3213, 1293, 1005
2534, 2466, 957, 1918, 1000
2535, 3197, 2750, 2465, 2076
2536, 1185, 2960, 3291, 1326
2537, 1236, 2820, 907, 3267
2538, 2386, 2388, 1676, 3000
2539, 772, 1650, 1737, 816
2540, 3109, 769, 3201, 766
2541, 1145, 3074, 3135, 2650
2542, 3074, 1143, 2856, 3135
2543, 2294, 2614, 1381, 1876
2544, 2612, 1077, 2418, 2913
2545, 2861, 1485, 684, 1189
2546, 3137, 1649, 2383, 2381
2547, 2889, 1142, 2650, 3135
2548, 2831, 738, 2203, 3190
2549, 2089, 560, 247, 1244
2550, 912, 1345, 905, 2150
2551, 907, 662, 1206, 1613
2552, 1692, 1139, 2678, 3225
2553, 1173, 2779, 2780, 1201
2554, 2464, 2654, 1168, 2744
2555, 1206, 3171, 22, 11
2556, 1634, 1635, 275, 531
2557, 2845, 831, 2787, 1236
2558, 822, 2781, 831, 2845
2559, 2265, 1188, 2726, 1098
2560, 2753, 2054, 2293, 3116
2561, 1101, 1776, 1714, 1090
2562, 1023, 3029, 3143, 3107
2563, 1917, 2775, 1764, 1001
2564, 1328, 3019, 3107, 3143
2565, 3029, 1055, 2589, 3143
2566, 2505, 1006, 1191, 3212
2567, 3088, 935, 2851, 2285
2568, 997, 3127, 433, 374
2569, 1883, 1766, 2662, 2525
2570, 1150, 3083, 2494, 1572
2571, 1176, 2022, 585, 222
2572, 694, 1153, 3083, 1150
2573, 1156, 1155, 1195, 1194
2574, 2644, 1283, 2355, 1393
2575, 3146, 1647, 1648, 2925
2576, 1389, 1174, 2183, 2223
2577, 2605, 2304, 1448, 1454
2578, 1795, 2491, 2492, 2440
2579, 1286, 3109, 766, 2388
2580, 930, 1981, 1321, 829
2581, 625, 649, 1495, 900
2582, 2159, 2521, 1324, 1979
2583, 1210, 3288, 1788, 1779
2584, 905, 2139, 889, 3268
2585, 1808, 3300, 3293, 1459
2586, 2966, 2373, 896, 2132
2587, 622, 2957, 3149, 2788
2588, 2788, 3149, 1948, 751
2589, 3149, 1866, 754, 1948
2590, 2957, 753, 1866, 3149
2591, 1333, 1119, 1123, 1790
2592, 2006, 695, 1121, 692
2593, 2078, 2136, 2937, 1125
2594, 709, 2491, 1795, 2380
2595, 2262, 3000, 2670, 2609
2596, 2011, 2659, 2243, 1968
2597, 3053, 1624, 2321, 2301
2598, 1983, 2958, 2572, 1751
2599, 3011, 1952, 336, 470
2600, 1997, 473, 334, 1985
2601, 2261, 1797, 1892, 2408
2602, 3038, 3118, 3270, 2658
2603, 1318, 759, 3103, 2085
2604, 2516, 3222, 1982, 2825
2605, 1368, 922, 2086, 1756
2606, 3081, 3169, 600, 207
2607, 779, 2602, 2028, 2084
2608, 1905, 2997, 2602, 779
2609, 771, 726, 2491, 709
2610, 1607, 1861, 386, 420
2611, 1524, 379, 427, 2497
2612, 937, 3133, 1379, 2287
2613, 1605, 1989, 1522, 2591
2614, 832, 924, 627, 1769
2615, 2473, 2887, 423, 384
2616, 3094, 3154, 2279, 1010
2617, 3154, 2422, 1020, 2279
2618, 936, 3261, 1989, 1605
2619, 1308, 1403, 316, 490
2620, 2092, 2434, 778, 634
2621, 2997, 3155, 710, 2602
2622, 1976, 817, 2441, 1519
2623, 1784, 1426, 1753, 2428
2624, 862, 284, 522, 2723
2625, 2249, 2427, 1705, 1740
2626, 1386, 2598, 1079, 1100
2627, 1798, 1062, 2949, 3164
2628, 812, 1595, 1258, 803
2629, 1919, 1619, 1640, 2691
2630, 799, 2096, 503, 304
2631, 1638, 2742, 2880, 1057
2632, 1636, 2803, 2414, 2230
2633, 1011, 2801, 2310, 3221
2634, 2290, 1315, 1057, 2880
2635, 2613, 1873, 1693, 1134
2636, 2273, 2716, 2060, 1800
2637, 850, 1545, 2300, 2242
2638, 1712, 1425, 3257, 3195
2639, 1412, 1799, 2712, 3233
2640, 2949, 2992, 2739, 2332
2641, 1104, 1065, 2227, 2816
2642, 2264, 1569, 2897, 1395
2643, 849, 1639, 2970, 2765
2644, 2766, 878, 873, 807
2645, 1545, 2436, 836, 2300
2646, 1639, 2255, 844, 2970
2647, 3115, 3162, 2710, 1044
2648, 3162, 2415, 1046, 2710
2649, 1049, 3030, 2231, 2673
2650, 3166, 1150, 1572, 2022
2651, 2023, 3166, 2022, 1176
2652, 2493, 1151, 1802, 1803
2653, 3090, 2438, 2784, 2587
2654, 946, 2640, 1577, 665
2655, 2799, 2933, 950, 1229
2656, 1305, 1991, 633, 1992
2657, 917, 2341, 1210, 1786
2658, 823, 2457, 2510, 1614
2659, 2740, 1580, 685, 2714
2660, 2713, 3164, 1397, 1078
2661, 2148, 3231, 2631, 1873
2662, 1339, 1335, 3213, 2586
2663, 1801, 1246, 1154, 1151
2664, 3125, 1152, 2495, 1178
2665, 1974, 1573, 3084, 3294
2666, 1216, 2210, 670, 2209
2667, 965, 966, 2828, 1760
2668, 974, 1901, 1696, 2410
2669, 891, 45, 35, 1433
2670, 3306, 1540, 1608, 2123
2671, 1244, 247, 559, 1584
2672, 2631, 2908, 1139, 1169
2673, 2838, 1722, 2349, 3269
2674, 3259, 2695, 2992, 2893
2675, 1355, 3225, 1075, 2904
2676, 2904, 1075, 1841, 2745
2677, 2025, 1940, 902, 2736
2678, 2247, 900, 174, 185
2679, 909, 829, 3065, 830
2680, 2980, 3267, 3139, 1212
2681, 1851, 2968, 2786, 3274
2682, 689, 1506, 3172, 1505
2683, 1501, 53, 43, 2145
2684, 1113, 2112, 2111, 1213
2685, 1222, 1216, 104, 116
2686, 1783, 3217, 2837, 1880
2687, 1388, 1201, 3259, 2743
2688, 1203, 3152, 1394, 1170
2689, 964, 1552, 3254, 1688
2690, 2410, 1696, 1618, 2561
2691, 658, 3248, 2151, 3288
2692, 533, 1982, 3222, 273
2693, 1536, 1539, 1804, 3026
2694, 1451, 986, 1902, 2946
2695, 1805, 2918, 1726, 1226
2696, 2798, 2171, 668, 2804
2697, 1745, 1180, 1230, 2785
2698, 1017, 945, 1376, 2375
2699, 1909, 2736, 1808, 1272
2700, 1205, 3302, 1298, 1588
2701, 1668, 1678, 1403, 1308
2702, 2735, 257, 549, 3215
2703, 3014, 3060, 1366, 1879
2704, 3110, 2214, 2530, 721
2705, 3297, 1240, 1303, 2013
2706, 2440, 1318, 763, 2348
2707, 913, 1243, 1282, 1812
2708, 886, 1610, 2106, 888
2709, 2107, 1280, 1540, 3306
2710, 1143, 1247, 3181, 1245
2711, 1245, 3181, 1246, 696
2712, 1247, 1154, 1246, 3181
2713, 1249, 2127, 129, 140
2714, 2126, 2080, 3183, 1681
2715, 2126, 1681, 1603, 2709
2716, 3113, 1081, 2294, 1063
2717, 1253, 465, 342, 2852
2718, 2080, 1248, 1680, 750
2719, 2709, 2708, 642, 1254
2720, 2468, 3041, 1691, 2842
2721, 3269, 2349, 1881, 1073
2722, 1810, 203, 603, 1841
2723, 803, 1258, 1593, 3061
2724, 806, 2677, 2647, 2568
2725, 2567, 847, 864, 2694
2726, 1260, 1707, 805, 848
2727, 2871, 2766, 807, 2437
2728, 1055, 1264, 3187, 1262
2729, 1262, 3187, 1263, 1054
2730, 1264, 1056, 1263, 3187
2731, 1759, 1762, 1662, 2873
2732, 1762, 361, 445, 1662
2733, 2482, 1270, 2588, 2607
2734, 1022, 2587, 2886, 2453
2735, 3209, 1268, 2625, 1327
2736, 2736, 902, 3300, 1808
2737, 2518, 1909, 1272, 3302
2738, 890, 884, 2557, 1734
2739, 3273, 3272, 2232, 2642
2740, 1416, 1353, 741, 1351
2741, 371, 435, 2746, 951
2742, 2999, 1686, 957, 2466
2743, 1817, 244, 562, 2122
2744, 1271, 1542, 3192, 1280
2745, 1787, 1717, 1490, 1890
2746, 2222, 2198, 2890, 2790
2747, 3250, 2644, 1393, 1694
2748, 697, 2925, 1283, 2644
2749, 1212, 3139, 12, 24
2750, 1181, 3185, 2603, 2532
2751, 2010, 2430, 2884, 3013
2752, 3112, 495, 312, 818
2753, 1290, 3161, 2692, 2767
2754, 2430, 856, 2534, 2884
2755, 2870, 287, 519, 1207
2756, 1676, 2405, 2103, 3111
2757, 710, 3047, 2314, 2669
2758, 2433, 784, 3150, 2896
2759, 1835, 2759, 1977, 2077
2760, 3018, 1329, 3019, 3188
2761, 2072, 952, 3096, 1767
2762, 3175, 3282, 658, 2341
2763, 1809, 2093, 2338, 2821
2764, 2041, 3156, 3101, 2519
2765, 3297, 1414, 1413, 1302
2766, 3185, 646, 1525, 781
2767, 2931, 176, 166, 2671
2768, 3234, 724, 3271, 2944
2769, 1993, 2882, 3234, 725
2770, 2329, 635, 2605, 1517
2771, 2388, 766, 2405, 1676
2772, 1773, 2543, 1619, 1919
2773, 2492, 1904, 2262, 759
2774, 2405, 760, 1307, 2103
2775, 3206, 1306, 1518, 3072
2776, 3051, 1905, 779, 2768
2777, 1299, 2987, 3194, 1291
2778, 3163, 2688, 2863, 1319
2779, 1551, 2121, 2120, 2211
2780, 2847, 2737, 2064, 3117
2781, 1550, 2410, 2561, 969
2782, 2713, 1078, 2879, 1061
2783, 2409, 2610, 2899, 1822
2784, 1621, 2648, 2732, 2241
2785, 1543, 2892, 2255, 1639
2786, 767, 3147, 2387, 1796
2787, 1310, 2721, 715, 1311
2788, 2246, 2240, 1238, 824
2789, 996, 2423, 2748, 2452
2790, 2775, 958, 1837, 1764
2791, 1820, 1165, 2259, 1067
2792, 1140, 1137, 598, 209
2793, 2643, 2790, 1170, 2793
2794, 1125, 2937, 2394, 2951
2795, 2135, 2167, 54, 66
2796, 1950, 2869, 1122, 3211
2797, 960, 2750, 3197, 3165
2798, 1746, 2638, 2498, 2044
2799, 2503, 3132, 961, 2526
2800, 2759, 1001, 1192, 1977
2801, 2624, 2525, 1838, 1916
2802, 1862, 2989, 1446, 1606
2803, 676, 1342, 3214, 1340
2804, 1340, 3214, 1341, 980
2805, 1342, 981, 1341, 3214
2806, 3015, 2455, 2825, 2362
2807, 3156, 2686, 3007, 3101
2808, 2060, 2271, 617, 190
2809, 2630, 1778, 2598, 1386
2810, 1204, 1169, 1139, 1692
2811, 1858, 2395, 593, 214
2812, 1832, 328, 478, 1843
2813, 1418, 730, 475, 332
2814, 1724, 1164, 2356, 1629
2815, 3152, 1203, 1173, 1220
2816, 1355, 2904, 1722, 2838
2817, 1533, 2939, 1864, 1500
2818, 1117, 574, 233, 2005
2819, 1600, 234, 572, 688
2820, 734, 1417, 743, 2446
2821, 742, 2806, 474, 333
2822, 1718, 1361, 733, 2444
2823, 2337, 1027, 397, 409
2824, 2800, 1364, 1024, 3031
2825, 2268, 2415, 3162, 1400
2826, 3098, 2165, 1852, 1390
2827, 822, 2845, 2980, 3071
2828, 1369, 2981, 931, 1516
2829, 3291, 2960, 3014, 2219
2830, 624, 2158, 930, 3059
2831, 1770, 2083, 1208, 870
2832, 922, 911, 3105, 2086
2833, 2235, 2975, 2720, 1936
2834, 1407, 1740, 2542, 3073
2835, 1828, 2765, 1419, 800
2836, 2454, 1018, 3004, 3087
2837, 2077, 3126, 2624, 3252
2838, 2566, 3252, 1377, 3088
2839, 1377, 3223, 935, 3088
2840, 3077, 1605, 2591, 2638
2841, 2784, 941, 1711, 1445
2842, 2712, 2015, 1066, 3204
2843, 1395, 2897, 1163, 1089
2844, 1921, 1565, 1013, 2308
2845, 2308, 1013, 1566, 1028
2846, 3242, 2763, 1385, 1922
2847, 2615, 2972, 201, 605
2848, 2913, 2418, 2743, 2894
2849, 1821, 1089, 2817, 2277
2850, 1783, 1880, 1724, 1219
2851, 926, 2690, 1368, 1274
2852, 822, 1851, 1391, 2781
2853, 3287, 2500, 3278, 2704
2854, 700, 3250, 1694, 2965
2855, 2650, 1142, 2905, 2652
2856, 1694, 1393, 1141, 3226
2857, 1163, 2897, 2265, 1674
2858, 1569, 2860, 1097, 1188
2859, 2506, 610, 197, 3258
2860, 3030, 3029, 1023, 2231
2861, 1034, 2307, 1032, 2547
2862, 2691, 2574, 2866, 2292
2863, 2579, 2431, 2235, 3304
2864, 1996, 1596, 1287, 2245
2865, 761, 3102, 1452, 2389
2866, 1318, 2085, 762, 763
2867, 1400, 3162, 3115, 2266
2868, 3044, 3032, 1040, 1027
2869, 1028, 414, 393, 2267
2870, 2877, 2816, 1777, 2717
2871, 1106, 1877, 2061, 2295
2872, 2239, 862, 2723, 1594
2873, 2450, 2324, 1954, 1854
2874, 2659, 2236, 1546, 2243
2875, 1753, 2872, 2436, 1545
2876, 2692, 2011, 1968, 1755
2877, 2647, 1290, 2767, 1827
2878, 2630, 1346, 1085, 1778
2879, 1570, 2290, 2880, 1086
2880, 3123, 1300, 2191, 2216
2881, 2142, 1241, 729, 2549
2882, 1239, 2549, 2876, 1301
2883, 743, 2445, 1361, 1718
2884, 735, 3129, 638, 1362
2885, 3138, 2161, 2000, 1736
2886, 1755, 1968, 296, 510
2887, 1847, 1996, 784, 2864
2888, 3061, 1593, 2431, 2579
2889, 1435, 1423, 1654, 2075
2890, 3239, 1434, 881, 882
2891, 1434, 1115, 36, 47
2892, 873, 2993, 1995, 807
2893, 1260, 2450, 1620, 1707
2894, 848, 2731, 1371, 2581
2895, 2809, 1221, 1615, 2738
2896, 972, 1695, 3167, 672
2897, 3061, 2579, 1845, 1698
2898, 2645, 523, 284, 862
2899, 1826, 2237, 2649, 2524
2900, 2069, 1669, 976, 1491
2901, 1672, 1432, 1959, 2070
2902, 1672, 2070, 2771, 2032
2903, 1115, 654, 46, 36
2904, 1488, 2797, 1120, 2114
2905, 1669, 1494, 1626, 976
2906, 2822, 1493, 350, 456
2907, 1924, 1431, 1670, 1957
2908, 1126, 226, 580, 2201
2909, 1158, 3241, 1124, 2926
2910, 1032, 2307, 1568, 1029
2911, 2449, 1052, 2396, 1042
2912, 1038, 1512, 2706, 2577
2913, 3004, 3018, 3188, 3251
2914, 3018, 1228, 1269, 1329
2915, 1966, 765, 485, 322
2916, 2029, 2985, 1966, 2490
2917, 1452, 2490, 484, 323
2918, 2917, 1860, 3026, 3176
2919, 984, 1727, 628, 1227
2920, 2918, 1225, 983, 1726
2921, 1667, 712, 3112, 782
2922, 1892, 1797, 2263, 1893
2923, 2085, 3103, 3102, 761
2924, 1585, 2130, 2340, 904
2925, 2617, 927, 3151, 869
2926, 1807, 1273, 2633, 2947
2927, 2064, 1617, 1218, 1553
2928, 2854, 2399, 3203, 3266
2929, 3198, 3290, 261, 545
2930, 2373, 3079, 898, 896
2931, 755, 622, 1870, 1872
2932, 756, 1983, 753, 2957
2933, 1393, 2355, 2924, 1141
2934, 2356, 1164, 595, 212
2935, 2933, 667, 1836, 2855
2936, 950, 2933, 2855, 1837
2937, 2851, 940, 1970, 933
2938, 1292, 3131, 1182, 2660
2939, 813, 844, 794, 1853
2940, 3259, 1201, 2780, 2696
2941, 166, 177, 1508, 2671
2942, 1842, 153, 8, 165
2943, 2482, 2607, 2606, 3255
2944, 2762, 1269, 2483, 2764
2945, 1779, 1788, 919, 1460
2946, 3071, 2980, 1212, 2824
2947, 991, 2811, 2398, 2478
2948, 3167, 988, 3263, 2874
2949, 2398, 2738, 2063, 2390
2950, 3009, 1312, 1217, 1663
2951, 963, 364, 442, 2399
2952, 992, 967, 1623, 1901
2953, 3248, 551, 256, 2151
2954, 1880, 2837, 1074, 3210
2955, 2377, 2480, 1172, 2097
2956, 1414, 2207, 2216, 3296
2957, 1302, 1413, 3110, 2142
2958, 2618, 1641, 1633, 2240
2959, 1344, 1785, 1641, 2618
2960, 1516, 931, 2786, 833
2961, 1456, 2734, 3290, 3198
2962, 1460, 919, 1940, 2025
2963, 1940, 3215, 2885, 902
2964, 2139, 2859, 2026, 889
2965, 2700, 2501, 2912, 892
2966, 3302, 1272, 915, 1298
2967, 3192, 1814, 1610, 886
2968, 2501, 1205, 2734, 2912
2969, 1298, 915, 547, 260
2970, 2966, 1786, 2196, 2373
2971, 915, 1459, 259, 547
2972, 1611, 3148, 1807, 1297
2973, 2123, 1608, 557, 250
2974, 3292, 1781, 1285, 1224
2975, 2341, 658, 3288, 1210
2976, 3280, 912, 2150, 3285
2977, 2518, 3302, 1205, 2501
2978, 2919, 2094, 1891, 2402
2979, 3298, 2815, 2372, 3279
2980, 2556, 2088, 2794, 2164
2981, 1345, 2698, 2139, 905
2982, 1974, 3294, 2869, 2936
2983, 3295, 1974, 2936, 1123
2984, 2299, 795, 2248, 1289
2985, 2257, 3021, 859, 3022
2986, 1302, 2142, 2549, 1239
2987, 3297, 1302, 1239, 1240
2988, 914, 2966, 2132, 2131
2989, 2129, 914, 2131, 2130
2990, 2152, 2129, 2130, 1585
2991, 3285, 2152, 1585, 2813
2992, 3280, 3285, 2813, 2858
2993, 3303, 3280, 2858, 3299
2994, 812, 803, 797, 808
2995, 860, 854, 2083, 1770
2996, 2400, 2107, 1732, 1197
2997, 3307, 2400, 1197, 656
2998, 2366, 1770, 870, 2883
2999, 1624, 1828, 800, 1595
*ELSET,ELSET=contact_source
163, 164, 165, 166, 167, 168, 169, 170, 171, 172, 
173, 174, 175, 176, 177, 178, 179, 180, 181, 182, 
183, 184, 
*ELSET,ELSET=contact_drain
71, 72, 73, 74, 75, 76, 77, 78, 79, 80, 
81, 82, 83, 84, 85, 86, 87, 88, 89, 90, 
91, 92, 
*ELSET,ELSET=probe_A
117, 118, 119, 120, 121, 122, 123, 124, 125, 126, 
127, 128, 129, 130, 131, 132, 133, 134, 135, 136, 
137, 138, 
*ELSET,ELSET=probe_B
25, 26, 27, 28, 29, 30, 31, 32, 33, 34, 
35, 36, 37, 38, 39, 40, 41, 42, 43, 44, 
45, 46, 
*ELSET,ELSET=walls
1, 2, 3, 4, 5, 6, 7, 8, 9, 10, 
11, 12, 13, 14, 15, 16, 17, 18, 19, 20, 
21, 22, 23, 24, 47, 48, 49, 50, 51, 52, 
53, 54, 55, 56, 57, 58, 59, 60, 61, 62, 
63, 64, 65, 66, 67, 68, 69, 70, 93, 94, 
95, 96, 97, 98, 99, 100, 101, 102, 103, 104, 
105, 106, 107, 108, 109, 110, 111, 112, 113, 114, 
115, 116, 139, 140, 141, 142, 143, 144, 145, 146, 
147, 148, 149, 150, 151, 152, 153, 154, 155, 156, 
157, 158, 159, 160, 161, 162, 185, 186, 187, 188, 
189, 190, 191, 192, 193, 194, 195, 196, 197, 198, 
199, 200, 201, 202, 203, 204, 205, 206, 207, 208, 
209, 210, 211, 212, 213, 214, 215, 216, 217, 218, 
219, 220, 221, 222, 223, 224, 225, 226, 227, 228, 
229, 230, 231, 232, 233, 234, 235, 236, 237, 238, 
239, 240, 241, 242, 243, 244, 245, 246, 247, 248, 
249, 250, 251, 252, 253, 254, 255, 256, 257, 258, 
259, 260, 261, 262, 263, 264, 265, 266, 267, 268, 
269, 270, 271, 272, 273, 274, 275, 276, 277, 278, 
279, 280, 281, 282, 283, 284, 285, 286, 287, 288, 
289, 290, 291, 292, 293, 294, 295, 296, 297, 298, 
299, 300, 301, 302, 303, 304, 305, 306, 307, 308, 
309, 310, 311, 312, 313, 314, 315, 316, 317, 318, 
319, 320, 321, 322, 323, 324, 325, 326, 327, 328, 
329, 330, 331, 332, 333, 334, 335, 336, 337, 338, 
339, 340, 341, 342, 343, 344, 345, 346, 347, 348, 
349, 350, 351, 352, 353, 354, 355, 356, 357, 358, 
359, 360, 361, 362, 363, 364, 365, 366, 367, 368, 
369, 370, 371, 372, 373, 374, 375, 376, 377, 378, 
379, 380, 381, 382, 383, 384, 385, 386, 387, 388, 
389, 390, 391, 392, 393, 394, 395, 396, 397, 398, 
399, 400, 401, 402, 403, 404, 405, 406, 407, 408, 
409, 410, 411, 412, 413, 414, 415, 416, 417, 418, 
419, 420, 421, 422, 423, 424, 425, 426, 427, 428, 
429, 430, 431, 432, 433, 434, 435, 436, 437, 438, 
439, 440, 441, 442, 443, 444, 445, 446, 447, 448, 
449, 450, 451, 452, 453, 454, 455, 456, 457, 458, 
459, 460, 461, 462, 463, 464, 465, 466, 467, 468, 
469, 470, 471, 472, 473, 474, 475, 476, 477, 478, 
479, 480, 481, 482, 483, 484, 485, 486, 487, 488, 
489, 490, 491, 492, 493, 494, 495, 496, 497, 498, 
499, 500, 501, 502, 503, 504, 505, 506, 507, 508, 
509, 510, 511, 512, 513, 514, 515, 516, 517, 518, 
519, 520, 521, 522, 523, 524, 525, 526, 527, 528, 
529, 530, 531, 532, 533, 534, 535, 536, 537, 538, 
539, 540, 541, 542, 543, 544, 545, 546, 547, 548, 
549, 550, 551, 552, 553, 554, 555, 556, 557, 558, 
559, 560, 561, 562, 563, 564, 565, 566, 567, 568, 
569, 570, 571, 572, 573, 574, 575, 576, 577, 578, 
579, 580, 581, 582, 583, 584, 585, 586, 587, 588, 
589, 590, 591, 592, 593, 594, 595, 596, 597, 598, 
599, 600, 601, 602, 603, 604, 605, 606, 607, 608, 
609, 610, 611, 612, 613, 614, 615, 616, 617, 618, 
619, 620, 
*ELSET,ELSET=domain
621, 622, 623, 624, 625, 626, 627, 628, 629, 630, 
631, 632, 633, 634, 635, 636, 637, 638, 639, 640, 
641, 642, 643, 644, 645, 646, 647, 648, 649, 650, 
651, 652, 653, 654, 655, 656, 657, 658, 659, 660, 
661, 662, 663, 664, 665, 666, 667, 668, 669, 670, 
671, 672, 673, 674, 675, 676, 677, 678, 679, 680, 
681, 682, 683, 684, 685, 686, 687, 688, 689, 690, 
691, 692, 693, 694, 695, 696, 697, 698, 699, 700, 
701, 702, 703, 704, 705, 706, 707, 708, 709, 710, 
711, 712, 713, 714, 715, 716, 717, 718, 719, 720, 
721, 722, 723, 724, 725, 726, 727, 728, 729, 730, 
731, 732, 733, 734, 735, 736, 737, 738, 739, 740, 
741, 742, 743, 744, 745, 746, 747, 748, 749, 750, 
751, 752, 753, 754, 755, 756, 757, 758, 759, 760, 
761, 762, 763, 764, 765, 766, 767, 768, 769, 770, 
771, 772, 773, 774, 775, 776, 777, 778, 779, 780, 
781, 782, 783, 784, 785, 786, 787, 788, 789, 790, 
791, 792, 793, 794, 795, 796, 797, 798, 799, 800, 
801, 802, 803, 804, 805, 806, 807, 808, 809, 810, 
811, 812, 813, 814, 815, 816, 817, 818, 819, 820, 
821, 822, 823, 824, 825, 826, 827, 828, 829, 830, 
831, 832, 833, 834, 835, 836, 837, 838, 839, 840, 
841, 842, 843, 844, 845, 846, 847, 848, 849, 850, 
851, 852, 853, 854, 855, 856, 857, 858, 859, 860, 
861, 862, 863, 864, 865, 866, 867, 868, 869, 870, 
871, 872, 873, 874, 875, 876, 877, 878, 879, 880, 
881, 882, 883, 884, 885, 886, 887, 888, 889, 890, 
891, 892, 893, 894, 895, 896, 897, 898, 899, 900, 
901, 902, 903, 904, 905, 906, 907, 908, 909, 910, 
911, 912, 913, 914, 915, 916, 917, 918, 919, 920, 
921, 922, 923, 924, 925, 926, 927, 928, 929, 930, 
931, 932, 933, 934, 935, 936, 937, 938, 939, 940, 
941, 942, 943, 944, 945, 946, 947, 948, 949, 950, 
951, 952, 953, 954, 955, 956, 957, 958, 959, 960, 
961, 962, 963, 964, 965, 966, 967, 968, 969, 970, 
971, 972, 973, 974, 975, 976, 977, 978, 979, 980, 
981, 982, 983, 984, 985, 986, 987, 988, 989, 990, 
991, 992, 993, 994, 995, 996, 997, 998, 999, 1000, 
1001, 1002, 1003, 1004, 1005, 1006, 1007, 1008, 1009, 1010, 
1011, 1012, 1013, 1014, 1015, 1016, 1017, 1018, 1019, 1020, 
1021, 1022, 1023, 1024, 1025, 1026, 1027, 1028, 1029, 1030, 
1031, 1032, 1033, 1034, 1035, 1036, 1037, 1038, 1039, 1040, 
1041, 1042, 1043, 1044, 1045, 1046, 1047, 1048, 1049, 1050, 
1051, 1052, 1053, 1054, 1055, 1056, 1057, 1058, 1059, 1060, 
1061, 1062, 1063, 1064, 1065, 1066, 1067, 1068, 1069, 1070, 
1071, 1072, 1073, 1074, 1075, 1076, 1077, 1078, 1079, 1080, 
1081, 1082, 1083, 1084, 1085, 1086, 1087, 1088, 1089, 1090, 
1091, 1092, 1093, 1094, 1095, 1096, 1097, 1098, 1099, 1100, 
1101, 1102, 1103, 1104, 1105, 1106, 1107, 1108, 1109, 1110, 
1111, 1112, 1113, 1114, 1115, 1116, 1117, 1118, 1119, 1120, 
1121, 1122, 1123, 1124, 1125, 1126, 1127, 1128, 1129, 1130, 
1131, 1132, 1133, 1134, 1135, 1136, 1137, 1138, 1139, 1140, 
1141, 1142, 1143, 1144, 1145, 1146, 1147, 1148, 1149, 1150, 
1151, 1152, 1153, 1154, 1155, 1156, 1157, 1158, 1159, 1160, 
1161, 1162, 1163, 1164, 1165, 1166, 1167, 1168, 1169, 1170, 
1171, 1172, 1173, 1174, 1175, 1176, 1177, 1178, 1179, 1180, 
1181, 1182, 1183, 1184, 1185, 1186, 1187, 1188, 1189, 1190, 
1191, 1192, 1193, 1194, 1195, 1196, 1197, 1198, 1199, 1200, 
1201, 1202, 1203, 1204, 1205, 1206, 1207, 1208, 1209, 1210, 
1211, 1212, 1213, 1214, 1215, 1216, 1217, 1218, 1219, 1220, 
1221, 1222, 1223, 1224, 1225, 1226, 1227, 1228, 1229, 1230, 
1231, 1232, 1233, 1234, 1235, 1236, 1237, 1238, 1239, 1240, 
1241, 1242, 1243, 1244, 1245, 1246, 1247, 1248, 1249, 1250, 
1251, 1252, 1253, 1254, 1255, 1256, 1257, 1258, 1259, 1260, 
1261, 1262, 1263, 1264, 1265, 1266, 1267, 1268, 1269, 1270, 
1271, 1272, 1273, 1274, 1275, 1276, 1277, 1278, 1279, 1280, 
1281, 1282, 1283, 1284, 1285, 1286, 1287, 1288, 1289, 1290, 
1291, 1292, 1293, 1294, 1295, 1296, 1297, 1298, 1299, 1300, 
1301, 1302, 1303, 1304, 1305, 1306, 1307, 1308, 1309, 1310, 
1311, 1312, 1313, 1314, 1315, 1316, 1317, 1318, 1319, 1320, 
1321, 1322, 1323, 1324, 1325, 1326, 1327, 1328, 1329, 1330, 
1331, 1332, 1333, 1334, 1335, 1336, 1337, 1338, 1339, 1340, 
1341, 1342, 1343, 1344, 1345, 1346, 1347, 1348, 1349, 1350, 
1351, 1352, 1353, 1354, 1355, 1356, 1357, 1358, 1359, 1360, 
1361, 1362, 1363, 1364, 1365, 1366, 1367, 1368, 1369, 1370, 
1371, 1372, 1373, 1374, 1375, 1376, 1377, 1378, 1379, 1380, 
1381, 1382, 1383, 1384, 1385, 1386, 1387, 1388, 1389, 1390, 
1391, 1392, 1393, 1394, 1395, 1396, 1397, 1398, 1399, 1400, 
1401, 1402, 1403, 1404, 1405, 1406, 1407, 1408, 1409, 1410, 
1411, 1412, 1413, 1414, 1415, 1416, 1417, 1418, 1419, 1420, 
1421, 1422, 1423, 1424, 1425, 1426, 1427, 1428, 1429, 1430, 
1431, 1432, 1433, 1434, 1435, 1436, 1437, 1438, 1439, 1440, 
1441, 1442, 1443, 1444, 1445, 1446, 1447, 1448, 1449, 1450, 
1451, 1452, 1453, 1454, 1455, 1456, 1457, 1458, 1459, 1460, 
1461, 1462, 1463, 1464, 1465, 1466, 1467, 1468, 1469, 1470, 
1471, 1472, 1473, 1474, 1475, 1476, 1477, 1478, 1479, 1480, 
1481, 1482, 1483, 1484, 1485, 1486, 1487, 1488, 1489, 1490, 
1491, 1492, 1493, 1494, 1495, 1496, 1497, 1498, 1499, 1500, 
1501, 1502, 1503, 1504, 1505, 1506, 1507, 1508, 1509, 1510, 
1511, 1512, 1513, 1514, 1515, 1516, 1517, 1518, 1519, 1520, 
1521, 1522, 1523, 1524, 1525, 1526, 1527, 1528, 1529, 1530, 
1531, 1532, 1533, 1534, 1535, 1536, 1537, 1538, 1539, 1540, 
1541, 1542, 1543, 1544, 1545, 1546, 1547, 1548, 1549, 1550, 
1551, 1552, 1553, 1554, 1555, 1556, 1557, 1558, 1559, 1560, 
1561, 1562, 1563, 1564, 1565, 1566, 1567, 1568, 1569, 1570, 
1571, 1572, 1573, 1574, 1575, 1576, 1577, 1578, 1579, 1580, 
1581, 1582, 1583, 1584, 1585, 1586, 1587, 1588, 1589, 1590, 
1591, 1592, 1593, 1594, 1595, 1596, 1597, 1598, 1599, 1600, 
1601, 1602, 1603, 1604, 1605, 1606, 1607, 1608, 1609, 1610, 
1611, 1612, 1613, 1614, 1615, 1616, 1617, 1618, 1619, 1620, 
1621, 1622, 1623, 1624, 1625, 1626, 1627, 1628, 1629, 1630, 
1631, 1632, 1633, 1634, 1635, 1636, 1637, 1638, 1639, 1640, 
1641, 1642, 1643, 1644, 1645, 1646, 1647, 1648, 1649, 1650, 
1651, 1652, 1653, 1654, 1655, 1656, 1657, 1658, 1659, 1660, 
1661, 1662, 1663, 1664, 1665, 1666, 1667, 1668, 1669, 1670, 
1671, 1672, 1673, 1674, 1675, 1676, 1677, 1678, 1679, 1680, 
1681, 1682, 1683, 1684, 1685, 1686, 1687, 1688, 1689, 1690, 
1691, 1692, 1693, 1694, 1695, 1696, 1697, 1698, 1699, 1700, 
1701, 1702, 1703, 1704, 1705, 1706, 1707, 1708, 1709, 1710, 
1711, 1712, 1713, 1714, 1715, 1716, 1717, 1718, 1719, 1720, 
1721, 1722, 1723, 1724, 1725, 1726, 1727, 1728, 1729, 1730, 
1731, 1732, 1733, 1734, 1735, 1736, 1737, 1738, 1739, 1740, 
1741, 1742, 1743, 1744, 1745, 1746, 1747, 1748, 1749, 1750, 
1751, 1752, 1753, 1754, 1755, 1756, 1757, 1758, 1759, 1760, 
1761, 1762, 1763, 1764, 1765, 1766, 1767, 1768, 1769, 1770, 
1771, 1772, 1773, 1774, 1775, 1776, 1777, 1778, 1779, 1780, 
1781, 1782, 1783, 1784, 1785, 1786, 1787, 1788, 1789, 1790, 
1791, 1792, 1793, 1794, 1795, 1796, 1797, 1798, 1799, 1800, 
1801, 1802, 1803, 1804, 1805, 1806, 1807, 1808, 1809, 1810, 
1811, 1812, 1813, 1814, 1815, 1816, 1817, 1818, 1819, 1820, 
1821, 1822, 1823, 1824, 1825, 1826, 1827, 1828, 1829, 1830, 
1831, 1832, 1833, 1834, 1835, 1836, 1837, 1838, 1839, 1840, 
1841, 1842, 1843, 1844, 1845, 1846, 1847, 1848, 1849, 1850, 
1851, 1852, 1853, 1854, 1855, 1856, 1857, 1858, 1859, 1860, 
1861, 1862, 1863, 1864, 1865, 1866, 1867, 1868, 1869, 1870, 
1871, 1872, 1873, 1874, 1875, 1876, 1877, 1878, 1879, 1880, 
1881, 1882, 1883, 1884, 1885, 1886, 1887, 1888, 1889, 1890, 
1891, 1892, 1893, 1894, 1895, 1896, 1897, 1898, 1899, 1900, 
1901, 1902, 1903, 1904, 1905, 1906, 1907, 1908, 1909, 1910, 
1911, 1912, 1913, 1914, 1915, 1916, 1917, 1918, 1919, 1920, 
1921, 1922, 1923, 1924, 1925, 1926, 1927, 1928, 1929, 1930, 
1931, 1932, 1933, 1934, 1935, 1936, 1937, 1938, 1939, 1940, 
1941, 1942, 1943, 1944, 1945, 1946, 1947, 1948, 1949, 1950, 
1951, 1952, 1953, 1954, 1955, 1956, 1957, 1958, 1959, 1960, 
1961, 1962, 1963, 1964, 1965, 1966, 1967, 1968, 1969, 1970, 
1971, 1972, 1973, 1974, 1975, 1976, 1977, 1978, 1979, 1980, 
1981, 1982, 1983, 1984, 1985, 1986, 1987, 1988, 1989, 1990, 
1991, 1992, 1993, 1994, 1995, 1996, 1997, 1998, 1999, 2000, 
2001, 2002, 2003, 2004, 2005, 2006, 2007, 2008, 2009, 2010, 
2011, 2012, 2013, 2014, 2015, 2016, 2017, 2018, 2019, 2020, 
2021, 2022, 2023, 2024, 2025, 2026, 2027, 2028, 2029, 2030, 
2031, 2032, 2033, 2034, 2035, 2036, 2037, 2038, 2039, 2040, 
2041, 2042, 2043, 2044, 2045, 2046, 2047, 2048, 2049, 2050, 
2051, 2052, 2053, 2054, 2055, 2056, 2057, 2058, 2059, 2060, 
2061, 2062, 2063, 2064, 2065, 2066, 2067, 2068, 2069, 2070, 
2071, 2072, 2073, 2074, 2075, 2076, 2077, 2078, 2079, 2080, 
2081, 2082, 2083, 2084, 2085, 2086, 2087, 2088, 2089, 2090, 
2091, 2092, 2093, 2094, 2095, 2096, 2097, 2098, 2099, 2100, 
2101, 2102, 2103, 2104, 2105, 2106, 2107, 2108, 2109, 2110, 
2111, 2112, 2113, 2114, 2115, 2116, 2117, 2118, 2119, 2120, 
2121, 2122, 2123, 2124, 2125, 2126, 2127, 2128, 2129, 2130, 
2131, 2132, 2133, 2134, 2135, 2136, 2137, 2138, 2139, 2140, 
2141, 2142, 2143, 2144, 2145, 2146, 2147, 2148, 2149, 2150, 
2151, 2152, 2153, 2154, 2155, 2156, 2157, 2158, 2159, 2160, 
2161, 2162, 2163, 2164, 2165, 2166, 2167, 2168, 2169, 2170, 
2171, 2172, 2173, 2174, 2175, 2176, 2177, 2178, 2179, 2180, 
2181, 2182, 2183, 2184, 2185, 2186, 2187, 2188, 2189, 2190, 
2191, 2192, 2193, 2194, 2195, 2196, 2197, 2198, 2199, 2200, 
2201, 2202, 2203, 2204, 2205, 2206, 2207, 2208, 2209, 2210, 
2211, 2212, 2213, 2214, 2215, 2216, 2217, 2218, 2219, 2220, 
2221, 2222, 2223, 2224, 2225, 2226, 2227, 2228, 2229, 2230, 
2231, 2232, 2233, 2234, 2235, 2236, 2237, 2238, 2239, 2240, 
2241, 2242, 2243, 2244, 2245, 2246, 2247, 2248, 2249, 2250, 
2251, 2252, 2253, 2254, 2255, 2256, 2257, 2258, 2259, 2260, 
2261, 2262, 2263, 2264, 2265, 2266, 2267, 2268, 2269, 2270, 
2271, 2272, 2273, 2274, 2275, 2276, 2277, 2278, 2279, 2280, 
2281, 2282, 2283, 2284, 2285, 2286, 2287, 2288, 2289, 2290, 
2291, 2292, 2293, 2294, 2295, 2296, 2297, 2298, 2299, 2300, 
2301, 2302, 2303, 2304, 2305, 2306, 2307, 2308, 2309, 2310, 
2311, 2312, 2313, 2314, 2315, 2316, 2317, 2318, 2319, 2320, 
2321, 2322, 2323, 2324, 2325, 2326, 2327, 2328, 2329, 2330, 
2331, 2332, 2333, 2334, 2335, 2336, 2337, 2338, 2339, 2340, 
2341, 2342, 2343, 2344, 2345, 2346, 2347, 2348, 2349, 2350, 
2351, 2352, 2353, 2354, 2355, 2356, 2357, 2358, 2359, 2360, 
2361, 2362, 2363, 2364, 2365, 2366, 2367, 2368, 2369, 2370, 
2371, 2372, 2373, 2374, 2375, 2376, 2377, 2378, 2379, 2380, 
2381, 2382, 2383, 2384, 2385, 2386, 2387, 2388, 2389, 2390, 
2391, 2392, 2393, 2394, 2395, 2396, 2397, 2398, 2399, 2400, 
2401, 2402, 2403, 2404, 2405, 2406, 2407, 2408, 2409, 2410, 
2411, 2412, 2413, 2414, 2415, 2416, 2417, 2418, 2419, 2420, 
2421, 2422, 2423, 2424, 2425, 2426, 2427, 2428, 2429, 2430, 
2431, 2432, 2433, 2434, 2435, 2436, 2437, 2438, 2439, 2440, 
2441, 2442, 2443, 2444, 2445, 2446, 2447, 2448, 2449, 2450, 
2451, 2452, 2453, 2454, 2455, 2456, 2457, 2458, 2459, 2460, 
2461, 2462, 2463, 2464, 2465, 2466, 2467, 2468, 2469, 2470, 
2471, 2472, 2473, 2474, 2475, 2476, 2477, 2478, 2479, 2480, 
2481, 2482, 2483, 2484, 2485, 2486, 2487, 2488, 2489, 2490, 
2491, 2492, 2493, 2494, 2495, 2496, 2497, 2498, 2499, 2500, 
2501, 2502, 2503, 2504, 2505, 2506, 2507, 2508, 2509, 2510, 
2511, 2512, 2513, 2514, 2515, 2516, 2517, 2518, 2519, 2520, 
2521, 2522, 2523, 2524, 2525, 2526, 2527, 2528, 2529, 2530, 
2531, 2532, 2533, 2534, 2535, 2536, 2537, 2538, 2539, 2540, 
2541, 2542, 2543, 2544, 2545, 2546, 2547, 2548, 2549, 2550, 
2551, 2552, 2553, 2554, 2555, 2556, 2557, 2558, 2559, 2560, 
2561, 2562, 2563, 2564, 2565, 2566, 2567, 2568, 2569, 2570, 
2571, 2572, 2573, 2574, 2575, 2576, 2577, 2578, 2579, 2580, 
2581, 2582, 2583, 2584, 2585, 2586, 2587, 2588, 2589, 2590, 
2591, 2592, 2593, 2594, 2595, 2596, 2597, 2598, 2599, 2600, 
2601, 2602, 2603, 2604, 2605, 2606, 2607, 2608, 2609, 2610, 
2611, 2612, 2613, 2614, 2615, 2616, 2617, 2618, 2619, 2620, 
2621, 2622, 2623, 2624, 2625, 2626, 2627, 2628, 2629, 2630, 
2631, 2632, 2633, 2634, 2635, 2636, 2637, 2638, 2639, 2640, 
2641, 2642, 2643, 2644, 2645, 2646, 2647, 2648, 2649, 2650, 
2651, 2652, 2653, 2654, 2655, 2656, 2657, 2658, 2659, 2660, 
2661, 2662, 2663, 2664, 2665, 2666, 2667, 2668, 2669, 2670, 
2671, 2672, 2673, 2674, 2675, 2676, 2677, 2678, 2679, 2680, 
2681, 2682, 2683, 2684, 2685, 2686, 2687, 2688, 2689, 2690, 
2691, 2692, 2693, 2694, 2695, 2696, 2697, 2698, 2699, 2700, 
2701, 2702, 2703, 2704, 2705, 2706, 2707, 2708, 2709, 2710, 
2711, 2712, 2713, 2714, 2715, 2716, 2717, 2718, 2719, 2720, 
2721, 2722, 2723, 2724, 2725, 2726, 2727, 2728, 2729, 2730, 
2731, 2732, 2733, 2734, 2735, 2736, 2737, 2738, 2739, 2740, 
2741, 2742, 2743, 2744, 2745, 2746, 2747, 2748, 2749, 2750, 
2751, 2752, 2753, 2754, 2755, 2756, 2757, 2758, 2759, 2760, 
2761, 2762, 2763, 2764, 2765, 2766, 2767, 2768, 2769, 2770, 
2771, 2772, 2773, 2774, 2775, 2776, 2777, 2778, 2779, 2780, 
2781, 2782, 2783, 2784, 2785, 2786, 2787, 2788, 2789, 2790, 
2791, 2792, 2793, 2794, 2795, 2796, 2797, 2798, 2799, 2800, 
2801, 2802, 2803, 2804, 2805, 2806, 2807, 2808, 2809, 2810, 
2811, 2812, 2813, 2814, 2815, 2816, 2817, 2818, 2819, 2820, 
2821, 2822, 2823, 2824, 2825, 2826, 2827, 2828, 2829, 2830, 
2831, 2832, 2833, 2834, 2835, 2836, 2837, 2838, 2839, 2840, 
2841, 2842, 2843, 2844, 2845, 2846, 2847, 2848, 2849, 2850, 
2851, 2852, 2853, 2854, 2855, 2856, 2857, 2858, 2859, 2860, 
2861, 2862, 2863, 2864, 2865, 2866, 2867, 2868, 2869, 2870, 
2871, 2872, 2873, 2874, 2875, 2876, 2877, 2878, 2879, 2880, 
2881, 2882, 2883, 2884, 2885, 2886, 2887, 2888, 2889, 2890, 
2891, 2892, 2893, 2894, 2895, 2896, 2897, 2898, 2899, 2900, 
2901, 2902, 2903, 2904, 2905, 2906, 2907, 2908, 2909, 2910, 
2911, 2912, 2913, 2914, 2915, 2916, 2917, 2918, 2919, 2920, 
2921, 2922, 2923, 2924, 2925, 2926, 2927, 2928, 2929, 2930, 
2931, 2932, 2933, 2934, 2935, 2936, 2937, 2938, 2939, 2940, 
2941, 2942, 2943, 2944, 2945, 2946, 2947, 2948, 2949, 2950, 
2951, 2952, 2953, 2954, 2955, 2956, 2957, 2958, 2959, 2960, 
2961, 2962, 2963, 2964, 2965, 2966, 2967, 2968, 2969, 2970, 
2971, 2972, 2973, 2974, 2975, 2976, 2977, 2978, 2979, 2980, 
2981, 2982, 2983, 2984, 2985, 2986, 2987, 2988, 2989, 2990, 
2991, 2992, 2993, 2994, 2995, 2996, 2997, 2998, 2999, 3000, 
3001, 3002, 3003, 3004, 3005, 3006, 3007, 3008, 3009, 3010, 
3011, 3012, 3013, 3014, 3015, 3016, 3017, 3018, 3019, 3020, 
3021, 3022, 3023, 3024, 3025, 3026, 3027, 3028, 3029, 3030, 
3031, 3032, 3033, 3034, 3035, 3036, 3037, 3038, 3039, 3040, 
3041, 3042, 3043, 3044, 3045, 3046, 3047, 3048, 3049, 3050, 
3051, 3052, 3053, 3054, 3055, 3056, 3057, 3058, 3059, 3060, 
3061, 3062, 3063, 3064, 3065, 3066, 3067, 3068, 3069, 3070, 
3071, 3072, 3073, 3074, 3075, 3076, 3077, 3078, 3079, 3080, 
3081, 3082, 3083, 3084, 3085, 3086, 3087, 3088, 3089, 3090, 
3091, 3092, 3093, 3094, 3095, 3096, 3097, 3098, 3099, 3100, 
3101, 3102, 3103, 3104, 3105, 3106, 3107, 3108, 3109, 3110, 
3111, 3112, 3113, 3114, 3115, 3116, 3117, 3118, 3119, 3120, 
3121, 3122, 3123, 3124, 3125, 3126, 3127, 3128, 3129, 3130, 
3131, 3132, 3133, 3134, 3135, 3136, 3137, 3138, 3139, 3140, 
3141, 3142, 3143, 3144, 3145, 3146, 3147, 3148, 3149, 3150, 
3151, 3152, 3153, 3154, 3155, 3156, 3157, 3158, 3159, 3160, 
3161, 3162, 3163, 3164, 3165, 3166, 3167, 3168, 3169, 3170, 
3171, 3172, 3173, 3174, 3175, 3176, 3177, 3178, 3179, 3180, 
3181, 3182, 3183, 3184, 3185, 3186, 3187, 3188, 3189, 3190, 
3191, 3192, 3193, 3194, 3195, 3196, 3197, 3198, 3199, 3200, 
3201, 3202, 3203, 3204, 3205, 3206, 3207, 3208, 3209, 3210, 
3211, 3212, 3213, 3214, 3215, 3216, 3217, 3218, 3219, 3220, 
3221, 3222, 3223, 3224, 3225, 3226, 3227, 3228, 3229, 3230, 
3231, 3232, 3233, 3234, 3235, 3236, 3237, 3238, 3239, 3240, 
3241, 3242, 3243, 3244, 3245, 3246, 3247, 3248, 3249, 3250, 
3251, 3252, 3253, 3254, 3255, 3256, 3257, 3258, 3259, 3260, 
3261, 3262, 3263, 3264, 3265, 3266, 3267, 3268, 3269, 3270, 
3271, 3272, 3273, 3274, 3275, 3276, 3277, 3278, 3279, 3280, 
3281, 3282, 3283, 3284, 3285, 3286, 3287, 3288, 3289, 3290, 
3291, 3292, 3293, 3294, 3295, 3296, 3297, 3298, 3299, 3300, 
3301, 3302, 3303, 3304, 3305, 3306, 3307, 3308, 3309, 3310, 
3311, 3312, 3313, 3314, 3315, 3316, 3317, 3318, 3319, 3320, 
3321, 3322, 3323, 3324, 3325, 3326, 3327, 3328, 3329, 3330, 
3331, 3332, 3333, 3334, 3335, 3336, 3337, 3338, 3339, 3340, 
3341, 3342, 3343, 3344, 3345, 3346, 3347, 3348, 3349, 3350, 
3351, 3352, 3353, 3354, 3355, 3356, 3357, 3358, 3359, 3360, 
3361, 3362, 3363, 3364, 3365, 3366, 3367, 3368, 3369, 3370, 
3371, 3372, 3373, 3374, 3375, 3376, 3377, 3378, 3379, 3380, 
3381, 3382, 3383, 3384, 3385, 3386, 3387, 3388, 3389, 3390, 
3391, 3392, 3393, 3394, 3395, 3396, 3397, 3398, 3399, 3400, 
3401, 3402, 3403, 3404, 3405, 3406, 3407, 3408, 3409, 3410, 
3411, 3412, 3413, 3414, 3415, 3416, 3417, 3418, 3419, 3420, 
3421, 3422, 3423, 3424, 3425, 3426, 3427, 3428, 3429, 3430, 
3431, 3432, 3433, 3434, 3435, 3436, 3437, 3438, 3439, 3440, 
3441, 3442, 3443, 3444, 3445, 3446, 3447, 3448, 3449, 3450, 
3451, 3452, 3453, 3454, 3455, 3456, 3457, 3458, 3459, 3460, 
3461, 3462, 3463, 3464, 3465, 3466, 3467, 3468, 3469, 3470, 
3471, 3472, 3473, 3474, 3475, 3476, 3477, 3478, 3479, 3480, 
3481, 3482, 3483, 3484, 3485, 3486, 3487, 3488, 3489, 3490, 
3491, 3492, 3493, 3494, 3495, 3496, 3497, 3498, 3499, 3500, 
3501, 3502, 3503, 3504, 3505, 3506, 3507, 3508, 3509, 3510, 
3511, 3512, 3513, 3514, 3515, 3516, 3517, 3518, 3519, 3520, 
3521, 3522, 3523, 3524, 3525, 3526, 3527, 3528, 3529, 3530, 
3531, 3532, 3533, 3534, 3535, 3536, 3537, 3538, 3539, 3540, 
3541, 3542, 3543, 3544, 3545, 3546, 3547, 3548, 3549, 3550, 
3551, 3552, 3553, 3554, 3555, 3556, 3557, 3558, 3559, 3560, 
3561, 3562, 3563, 3564, 3565, 3566, 3567, 3568, 3569, 3570, 
3571, 3572, 3573, 3574, 3575, 3576, 3577, 3578, 3579, 3580, 
3581, 3582, 3583, 3584, 3585, 3586, 3587, 3588, 3589, 3590, 
3591, 3592, 3593, 3594, 3595, 3596, 3597, 3598, 3599, 3600, 
3601, 3602, 3603, 3604, 3605, 3606, 3607, 3608, 3609, 3610, 
3611, 3612, 3613, 3614, 3615, 3616, 3617, 3618, 3619, 
*NSET,NSET=contact_source
1, 8, 165, 166, 167, 168, 169, 170, 171, 172, 
173, 174, 175, 176, 177, 178, 179, 180, 181, 182, 
183, 184, 185, 
*NSET,NSET=contact_drain
4, 5, 77, 78, 79, 80, 81, 82, 83, 84, 
85, 86, 87, 88, 89, 90, 91, 92, 93, 94, 
95, 96, 97, 
*NSET,NSET=probe_A
6, 7, 121, 122, 123, 124, 125, 126, 127, 128, 
129, 130, 131, 132, 133, 134, 135, 136, 137, 138, 
139, 140, 141, 
*NSET,NSET=probe_B
2, 3, 33, 34, 35, 36, 37, 38, 39, 40, 
41, 42, 43, 44, 45, 46, 47, 48, 49, 50, 
51, 52, 53, 
*NSET,NSET=walls
1, 2, 3, 4, 5, 6, 7, 8, 9, 10, 
11, 12, 13, 14, 15, 16, 17, 18, 19, 20, 
21, 22, 23, 24, 25, 26, 27, 28, 29, 30, 
31, 32, 54, 55, 56, 57, 58, 59, 60, 61, 
62, 63, 64, 65, 66, 67, 68, 69, 70, 71, 
72, 73, 74, 75, 76, 98, 99, 100, 101, 102, 
103, 104, 105, 106, 107, 108, 109, 110, 111, 112, 
113, 114, 115, 116, 117, 118, 119, 120, 142, 143, 
144, 145, 146, 147, 148, 149, 150, 151, 152, 153, 
154, 155, 156, 157, 158, 159, 160, 161, 162, 163, 
164, 186, 187, 188, 189, 190, 191, 192, 193, 194, 
195, 196, 197, 198, 199, 200, 201, 202, 203, 204, 
205, 206, 207, 208, 209, 210, 211, 212, 213, 214, 
215, 216, 217, 218, 219, 220, 221, 222, 223, 224, 
225, 226, 227, 228, 229, 230, 231, 232, 233, 234, 
235, 236, 237, 238, 239, 240, 241, 242, 243, 244, 
245, 246, 247, 248, 249, 250, 251, 252, 253, 254, 
255, 256, 257, 258, 259, 260, 261, 262, 263, 264, 
265, 266, 267, 268, 269, 270, 271, 272, 273, 274, 
275, 276, 277, 278, 279, 280, 281, 282, 283, 284, 
285, 286, 287, 288, 289, 290, 291, 292, 293, 294, 
295, 296, 297, 298, 299, 300, 301, 302, 303, 304, 
305, 306, 307, 308, 309, 310, 311, 312, 313, 314, 
315, 316, 317, 318, 319, 320, 321, 322, 323, 324, 
325, 326, 327, 328, 329, 330, 331, 332, 333, 334, 
335, 336, 337, 338, 339, 340, 341, 342, 343, 344, 
345, 346, 347, 348, 349, 350, 351, 352, 353, 354, 
355, 356, 357, 358, 359, 360, 361, 362, 363, 364, 
365, 366, 367, 368, 369, 370, 371, 372, 373, 374, 
375, 376, 377, 378, 379, 380, 381, 382, 383, 384, 
385, 386, 387, 388, 389, 390, 391, 392, 393, 394, 
395, 396, 397, 398, 399, 400, 401, 402, 403, 404, 
405, 406, 407, 408, 409, 410, 411, 412, 413, 414, 
415, 416, 417, 418, 419, 420, 421, 422, 423, 424, 
425, 426, 427, 428, 429, 430, 431, 432, 433, 434, 
435, 436, 437, 438, 439, 440, 441, 442, 443, 444, 
445, 446, 447, 448, 449, 450, 451, 452, 453, 454, 
455, 456, 457, 458, 459, 460, 461, 462, 463, 464, 
465, 466, 467, 468, 469, 470, 471, 472, 473, 474, 
475, 476, 477, 478, 479, 480, 481, 482, 483, 484, 
485, 486, 487, 488, 489, 490, 491, 492, 493, 494, 
495, 496, 497, 498, 499, 500, 501, 502, 503, 504, 
505, 506, 507, 508, 509, 510, 511, 512, 513, 514, 
515, 516, 517, 518, 519, 520, 521, 522, 523, 524, 
525, 526, 527, 528, 529, 530, 531, 532, 533, 534, 
535, 536, 537, 538, 539, 540, 541, 542, 543, 544, 
545, 546, 547, 548, 549, 550, 551, 552, 553, 554, 
555, 556, 557, 558, 559, 560, 561, 562, 563, 564, 
565, 566, 567, 568, 569, 570, 571, 572, 573, 574, 
575, 576, 577, 578, 579, 580, 581, 582, 583, 584, 
585, 586, 587, 588, 589, 590, 591, 592, 593, 594, 
595, 596, 597, 598, 599, 600, 601, 602, 603, 604, 
605, 606, 607, 608, 609, 610, 611, 612, 613, 614, 
615, 616, 617, 618, 619, 620, 
*NSET,NSET=domain
1, 2, 3, 4, 5, 6, 7, 8, 9, 10, 
11, 12, 13, 14, 15, 16, 17, 18, 19, 20, 
21, 22, 23, 24, 25, 26, 27, 28, 29, 30, 
31, 32, 33, 34, 35, 36, 37, 38, 39, 40, 
41, 42, 43, 44, 45, 46, 47, 48, 49, 50, 
51, 52, 53, 54, 55, 56, 57, 58, 59, 60, 
61, 62, 63, 64, 65, 66, 67, 68, 69, 70, 
71, 72, 73, 74, 75, 76, 77, 78, 79, 80, 
81, 82, 83, 84, 85, 86, 87, 88, 89, 90, 
91, 92, 93, 94, 95, 96, 97, 98, 99, 100, 
101, 102, 103, 104, 105, 106, 107, 108, 109, 110, 
111, 112, 113, 114, 115, 116, 117, 118, 119, 120, 
121, 122, 123, 124, 125, 126, 127, 128, 129, 130, 
131, 132, 133, 134, 135, 136, 137, 138, 139, 140, 
141, 142, 143, 144, 145, 146, 147, 148, 149, 150, 
151, 152, 153, 154, 155, 156, 157, 158, 159, 160, 
161, 162, 163, 164, 165, 166, 167, 168, 169, 170, 
171, 172, 173, 174, 175, 176, 177, 178, 179, 180, 
181, 182, 183, 184, 185, 186, 187, 188, 189, 190, 
191, 192, 193, 194, 195, 196, 197, 198, 199, 200, 
201, 202, 203, 204, 205, 206, 207, 208, 209, 210, 
211, 212, 213, 214, 215, 216, 217, 218, 219, 220, 
221, 222, 223, 224, 225, 226, 227, 228, 229, 230, 
231, 232, 233, 234, 235, 236, 237, 238, 239, 240, 
241, 242, 243, 244, 245, 246, 247, 248, 249, 250, 
251, 252, 253, 254, 255, 256, 257, 258, 259, 260, 
261, 262, 263, 264, 265, 266, 267, 268, 269, 270, 
271, 272, 273, 274, 275, 276, 277, 278, 279, 280, 
281, 282, 283, 284, 285, 286, 287, 288, 289, 290, 
291, 292, 293, 294, 295, 296, 297, 298, 299, 300, 
301, 302, 303, 304, 305, 306, 307, 308, 309, 310, 
311, 312, 313, 314, 315, 316, 317, 318, 319, 320, 
321, 322, 323, 324, 325, 326, 327, 328, 329, 330, 
331, 332, 333, 334, 335, 336, 337, 338, 339, 340, 
341, 342, 343, 344, 345, 346, 347, 348, 349, 350, 
351, 352, 353, 354, 355, 356, 357, 358, 359, 360, 
361, 362, 363, 364, 365, 366, 367, 368, 369, 370, 
371, 372, 373, 374, 375, 376, 377, 378, 379, 380, 
381, 382, 383, 384, 385, 386, 387, 388, 389, 390, 
391, 392, 393, 394, 395, 396, 397, 398, 399, 400, 
401, 402, 403, 404, 405, 406, 407, 408, 409, 410, 
411, 412, 413, 414, 415, 416, 417, 418, 419, 420, 
421, 422, 423, 424, 425, 426, 427, 428, 429, 430, 
431, 432, 433, 434, 435, 436, 437, 438, 439, 440, 
441, 442, 443, 444, 445, 446, 447, 448, 449, 450, 
451, 452, 453, 454, 455, 456, 457, 458, 459, 460, 
461, 462, 463, 464, 465, 466, 467, 468, 469, 470, 
471, 472, 473, 474, 475, 476, 477, 478, 479, 480, 
481, 482, 483, 484, 485, 486, 487, 488, 489, 490, 
491, 492, 493, 494, 495, 496, 497, 498, 499, 500, 
501, 502, 503, 504, 505, 506, 507, 508, 509, 510, 
511, 512, 513, 514, 515, 516, 517, 518, 519, 520, 
521, 522, 523, 524, 525, 526, 527, 528, 529, 530, 
531, 532, 533, 534, 535, 536, 537, 538, 539, 540, 
541, 542, 543, 544, 545, 546, 547, 548, 549, 550, 
551, 552, 553, 554, 555, 556, 557, 558, 559, 560, 
561, 562, 563, 564, 565, 566, 567, 568, 569, 570, 
571, 572, 573, 574, 575, 576, 577, 578, 579, 580, 
581, 582, 583, 584, 585, 586, 587, 588, 589, 590, 
591, 592, 593, 594, 595, 596, 597, 598, 599, 600, 
601, 602, 603, 604, 605, 606, 607, 608, 609, 610, 
611, 612, 613, 614, 615, 616, 617, 618, 619, 620, 
621, 622, 623, 624, 625, 626, 627, 628, 629, 630, 
631, 632, 633, 634, 635, 636, 637, 638, 639, 640, 
641, 642, 643, 644, 645, 646, 647, 648, 649, 650, 
651, 652, 653, 654, 655, 656, 657, 658, 659, 660, 
661, 662, 663, 664, 665, 666, 667, 668, 669, 670, 
671, 672, 673, 674, 675, 676, 677, 678, 679, 680, 
681, 682, 683, 684, 685, 686, 687, 688, 689, 690, 
691, 692, 693, 694, 695, 696, 697, 698, 699, 700, 
701, 702, 703, 704, 705, 706, 707, 708, 709, 710, 
711, 712, 713, 714, 715, 716, 717, 718, 719, 720, 
721, 722, 723, 724, 725, 726, 727, 728, 729, 730, 
731, 732, 733, 734, 735, 736, 737, 738, 739, 740, 
741, 742, 743, 744, 745, 746, 747, 748, 749, 750, 
751, 752, 753, 754, 755, 756, 757, 758, 759, 760, 
761, 762, 763, 764, 765, 766, 767, 768, 769, 770, 
771, 772, 773, 774, 775, 776, 777, 778, 779, 780, 
781, 782, 783, 784, 785, 786, 787, 788, 789, 790, 
791, 792, 793, 794, 795, 796, 797, 798, 799, 800, 
801, 802, 803, 804, 805, 806, 807, 808, 809, 810, 
811, 812, 813, 814, 815, 816, 817, 818, 819, 820, 
821, 822, 823, 824, 825, 826, 827, 828, 829, 830, 
831, 832, 833, 834, 835, 836, 837, 838, 839, 840, 
841, 842, 843, 844, 845, 846, 847, 848, 849, 850, 
851, 852, 853, 854, 855, 856, 857, 858, 859, 860, 
861, 862, 863, 864, 865, 866, 867, 868, 869, 870, 
871, 872, 873, 874, 875, 876, 877, 878, 879, 880, 
881, 882, 883, 884, 885, 886, 887, 888, 889, 890, 
891, 892, 893, 894, 895, 896, 897, 898, 899, 900, 
901, 902, 903, 904, 905, 906, 907, 908, 909, 910, 
911, 912, 913, 914, 915, 916, 917, 918, 919, 920, 
921, 922, 923, 924, 925, 926, 927, 928, 929, 930, 
931, 932, 933, 934, 935, 936, 937, 938, 939, 940, 
941, 942, 943, 944, 945, 946, 947, 948, 949, 950, 
951, 952, 953, 954, 955, 956, 957, 958, 959, 960, 
961, 962, 963, 964, 965, 966, 967, 968, 969, 970, 
971, 972, 973, 974, 975, 976, 977, 978, 979, 980, 
981, 982, 983, 984, 985, 986, 987, 988, 989, 990, 
991, 992, 993, 994, 995, 996, 997, 998, 999, 1000, 
1001, 1002, 1003, 1004, 1005, 1006, 1007, 1008, 1009, 1010, 
1011, 1012, 1013, 1014, 1015, 1016, 1017, 1018, 1019, 1020, 
1021, 1022, 1023, 1024, 1025, 1026, 1027, 1028, 1029, 1030, 
1031, 1032, 1033, 1034, 1035, 1036, 1037, 1038, 1039, 1040, 
1041, 1042, 1043, 1044, 1045, 1046, 1047, 1048, 1049, 1050, 
1051, 1052, 1053, 1054, 1055, 1056, 1057, 1058, 1059, 1060, 
1061, 1062, 1063, 1064, 1065, 1066, 1067, 1068, 1069, 1070, 
1071, 1072, 1073, 1074, 1075, 1076, 1077, 1078, 1079, 1080, 
1081, 1082, 1083, 1084, 1085, 1086, 1087, 1088, 1089, 1090, 
1091, 1092, 1093, 1094, 1095, 1096, 1097, 1098, 1099, 1100, 
1101, 1102, 1103, 1104, 1105, 1106, 1107, 1108, 1109, 1110, 
1111, 1112, 1113, 1114, 1115, 1116, 1117, 1118, 1119, 1120, 
1121, 1122, 1123, 1124, 1125, 1126, 1127, 1128, 1129, 1130, 
1131, 1132, 1133, 1134, 1135, 1136, 1137, 1138, 1139, 1140, 
1141, 1142, 1143, 1144, 1145, 1146, 1147, 1148, 1149, 1150, 
1151, 1152, 1153, 1154, 1155, 1156, 1157, 1158, 1159, 1160, 
1161, 1162, 1163, 1164, 1165, 1166, 1167, 1168, 1169, 1170, 
1171, 1172, 1173, 1174, 1175, 1176, 1177, 1178, 1179, 1180, 
1181, 1182, 1183, 1184, 1185, 1186, 1187, 1188, 1189, 1190, 
1191, 1192, 1193, 1194, 1195, 1196, 1197, 1198, 1199, 1200, 
1201, 1202, 1203, 1204, 1205, 1206, 1207, 1208, 1209, 1210, 
1211, 1212, 1213, 1214, 1215, 1216, 1217, 1218, 1219, 1220, 
1221, 1222, 1223, 1224, 1225, 1226, 1227, 1228, 1229, 1230, 
1231, 1232, 1233, 1234, 1235, 1236, 1237, 1238, 1239, 1240, 
1241, 1242, 1243, 1244, 1245, 1246, 1247, 1248, 1249, 1250, 
1251, 1252, 1253, 1254, 1255, 1256, 1257, 1258, 1259, 1260, 
1261, 1262, 1263, 1264, 1265, 1266, 1267, 1268, 1269, 1270, 
1271, 1272, 1273, 1274, 1275, 1276, 1277, 1278, 1279, 1280, 
1281, 1282, 1283, 1284, 1285, 1286, 1287, 1288, 1289, 1290, 
1291, 1292, 1293, 1294, 1295, 1296, 1297, 1298, 1299, 1300, 
1301, 1302, 1303, 1304, 1305, 1306, 1307, 1308, 1309, 1310, 
1311, 1312, 1313, 1314, 1315, 1316, 1317, 1318, 1319, 1320, 
1321, 1322, 1323, 1324, 1325, 1326, 1327, 1328, 1329, 1330, 
1331, 1332, 1333, 1334, 1335, 1336, 1337, 1338, 1339, 1340, 
1341, 1342, 1343, 1344, 1345, 1346, 1347, 1348, 1349, 1350, 
1351, 1352, 1353, 1354, 1355, 1356, 1357, 1358, 1359, 1360, 
1361, 1362, 1363, 1364, 1365, 1366, 1367, 1368, 1369, 1370, 
1371, 1372, 1373, 1374, 1375, 1376, 1377, 1378, 1379, 1380, 
1381, 1382, 1383, 1384, 1385, 1386, 1387, 1388, 1389, 1390, 
1391, 1392, 1393, 1394, 1395, 1396, 1397, 1398, 1399, 1400, 
1401, 1402, 1403, 1404, 1405, 1406, 1407, 1408, 1409, 1410, 
1411, 1412, 1413, 1414, 1415, 1416, 1417, 1418, 1419, 1420, 
1421, 1422, 1423, 1424, 1425, 1426, 1427, 1428, 1429, 1430, 
1431, 1432, 1433, 1434, 1435, 1436, 1437, 1438, 1439, 1440, 
1441, 1442, 1443, 1444, 1445, 1446, 1447, 1448, 1449, 1450, 
1451, 1452, 1453, 1454, 1455, 1456, 1457, 1458, 1459, 1460, 
1461, 1462, 1463, 1464, 1465, 1466, 1467, 1468, 1469, 1470, 
1471, 1472, 1473, 1474, 1475, 1476, 1477, 1478, 1479, 1480, 
1481, 1482, 1483, 1484, 1485, 1486, 1487, 1488, 1489, 1490, 
1491, 1492, 1493, 1494, 1495, 1496, 1497, 1498, 1499, 1500, 
1501, 1502, 1503, 1504, 1505, 1506, 1507, 1508, 1509, 1510, 
1511, 1512, 1513, 1514, 1515, 1516, 1517, 1518, 1519, 1520, 
1521, 1522, 1523, 1524, 1525, 1526, 1527, 1528, 1529, 1530, 
1531, 1532, 1533, 1534, 1535, 1536, 1537, 1538, 1539, 1540, 
1541, 1542, 1543, 1544, 1545, 1546, 1547, 1548, 1549, 1550, 
1551, 1552, 1553, 1554, 1555, 1556, 1557, 1558, 1559, 1560, 
1561, 1562, 1563, 1564, 1565, 1566, 1567, 1568, 1569, 1570, 
1571, 1572, 1573, 1574, 1575, 1576, 1577, 1578, 1579, 1580, 
1581, 1582, 1583, 1584, 1585, 1586, 1587, 1588, 1589, 1590, 
1591, 1592, 1593, 1594, 1595, 1596, 1597, 1598, 1599, 1600, 
1601, 1602, 1603, 1604, 1605, 1606, 1607, 1608, 1609, 1610, 
1611, 1612, 1613, 1614, 1615, 1616, 1617, 1618, 1619, 1620, 
1621, 1622, 1623, 1624, 1625, 1626, 1627, 1628, 1629, 1630, 
1631, 1632, 1633, 1634, 1635, 1636, 1637, 1638, 1639, 1640, 
1641, 1642, 1643, 1644, 1645, 1646, 1647, 1648, 1649, 1650, 
1651, 1652, 1653, 1654, 1655, 1656, 1657, 1658, 1659, 1660, 
1661, 1662, 1663, 1664, 1665, 1666, 1667, 1668, 1669, 1670, 
1671, 1672, 1673, 1674, 1675, 1676, 1677, 1678, 1679, 1680, 
1681, 1682, 1683, 1684, 1685, 1686, 1687, 1688, 1689, 1690, 
1691, 1692, 1693, 1694, 1695, 1696, 1697, 1698, 1699, 1700, 
1701, 1702, 1703, 1704, 1705, 1706, 1707, 1708, 1709, 1710, 
1711, 1712, 1713, 1714, 1715, 1716, 1717, 1718, 1719, 1720, 
1721, 1722, 1723, 1724, 1725, 1726, 1727, 1728, 1729, 1730, 
1731, 1732, 1733, 1734, 1735, 1736, 1737, 1738, 1739, 1740, 
1741, 1742, 1743, 1744, 1745, 1746, 1747, 1748, 1749, 1750, 
1751, 1752, 1753, 1754, 1755, 1756, 1757, 1758, 1759, 1760, 
1761, 1762, 1763, 1764, 1765, 1766, 1767, 1768, 1769, 1770, 
1771, 1772, 1773, 1774, 1775, 1776, 1777, 1778, 1779, 1780, 
1781, 1782, 1783, 1784, 1785, 1786, 1787, 1788, 1789, 1790, 
1791, 1792, 1793, 1794, 1795, 1796, 1797, 1798, 1799, 1800, 
1801, 1802, 1803, 1804, 1805, 1806, 1807, 1808, 1809, 1810, 
1811, 1812, 1813, 1814, 1815, 1816, 1817, 1818, 1819, 1820, 
1821, 1822, 1823, 1824, 1825, 1826, 1827, 1828, 1829, 1830, 
1831, 1832, 1833, 1834, 1835, 1836, 1837, 1838, 1839, 1840, 
1841, 1842, 1843, 1844, 1845, 1846, 1847, 1848, 1849, 1850, 
1851, 1852, 1853, 1854, 1855, 1856, 1857, 1858, 1859, 1860, 
1861, 1862, 1863, 1864, 1865, 1866, 1867, 1868, 1869, 1870, 
1871, 1872, 1873, 1874, 1875, 1876, 1877, 1878, 1879, 1880, 
1881, 1882, 1883, 1884, 1885, 1886, 1887, 1888, 1889, 1890, 
1891, 1892, 1893, 1894, 1895, 1896, 1897, 1898, 1899, 1900, 
1901, 1902, 1903, 1904, 1905, 1906, 1907, 1908, 1909, 1910, 
1911, 1912, 1913, 1914, 1915, 1916, 1917, 1918, 1919, 1920, 
1921, 1922, 1923, 1924, 1925, 1926, 1927, 1928, 1929, 1930, 
1931, 1932, 1933, 1934, 1935, 1936, 1937, 1938, 1939, 1940, 
1941, 1942, 1943, 1944, 1945, 1946, 1947, 1948, 1949, 1950, 
1951, 1952, 1953, 1954, 1955, 1956, 1957, 1958, 1959, 1960, 
1961, 1962, 1963, 1964, 1965, 1966, 1967, 1968, 1969, 1970, 
1971, 1972, 1973, 1974, 1975, 1976, 1977, 1978, 1979, 1980, 
1981, 1982, 1983, 1984, 1985, 1986, 1987, 1988, 1989, 1990, 
1991, 1992, 1993, 1994, 1995, 1996, 1997, 1998, 1999, 2000, 
2001, 2002, 2003, 2004, 2005, 2006, 2007, 2008, 2009, 2010, 
2011, 2012, 2013, 2014, 2015, 2016, 2017, 2018, 2019, 2020, 
2021, 2022, 2023, 2024, 2025, 2026, 2027, 2028, 2029, 2030, 
2031, 2032, 2033, 2034, 2035, 2036, 2037, 2038, 2039, 2040, 
2041, 2042, 2043, 2044, 2045, 2046, 2047, 2048, 2049, 2050, 
2051, 2052, 2053, 2054, 2055, 2056, 2057, 2058, 2059, 2060, 
2061, 2062, 2063, 2064, 2065, 2066, 2067, 2068, 2069, 2070, 
2071, 2072, 2073, 2074, 2075, 2076, 2077, 2078, 2079, 2080, 
2081, 2082, 2083, 2084, 2085, 2086, 2087, 2088, 2089, 2090, 
2091, 2092, 2093, 2094, 2095, 2096, 2097, 2098, 2099, 2100, 
2101, 2102, 2103, 2104, 2105, 2106, 2107, 2108, 2109, 2110, 
2111, 2112, 2113, 2114, 2115, 2116, 2117, 2118, 2119, 2120, 
2121, 2122, 2123, 2124, 2125, 2126, 2127, 2128, 2129, 2130, 
2131, 2132, 2133, 2134, 2135, 2136, 2137, 2138, 2139, 2140, 
2141, 2142, 2143, 2144, 2145, 2146, 2147, 2148, 2149, 2150, 
2151, 2152, 2153, 2154, 2155, 2156, 2157, 2158, 2159, 2160, 
2161, 2162, 2163, 2164, 2165, 2166, 2167, 2168, 2169, 2170, 
2171, 2172, 2173, 2174, 2175, 2176, 2177, 2178, 2179, 2180, 
2181, 2182, 2183, 2184, 2185, 2186, 2187, 2188, 2189, 2190, 
2191, 2192, 2193, 2194, 2195, 2196, 2197, 2198, 2199, 2200, 
2201, 2202, 2203, 2204, 2205, 2206, 2207, 2208, 2209, 2210, 
2211, 2212, 2213, 2214, 2215, 2216, 2217, 2218, 2219, 2220, 
2221, 2222, 2223, 2224, 2225, 2226, 2227, 2228, 2229, 2230, 
2231, 2232, 2233, 2234, 2235, 2236, 2237, 2238, 2239, 2240, 
2241, 2242, 2243, 2244, 2245, 2246, 2247, 2248, 2249, 2250, 
2251, 2252, 2253, 2254, 2255, 2256, 2257, 2258, 2259, 2260, 
2261, 2262, 2263, 2264, 2265, 2266, 2267, 2268, 2269, 2270, 
2271, 2272, 2273, 2274, 2275, 2276, 2277, 2278, 2279, 2280, 
2281, 2282, 2283, 2284, 2285, 2286, 2287, 2288, 2289, 2290, 
2291, 2292, 2293, 2294, 2295, 2296, 2297, 2298, 2299, 2300, 
2301, 2302, 2303, 2304, 2305, 2306, 2307, 2308, 2309, 2310, 
2311, 2312, 2313, 2314, 2315, 2316, 2317, 2318, 2319, 2320, 
2321, 2322, 2323, 2324, 2325, 2326, 2327, 2328, 2329, 2330, 
2331, 2332, 2333, 2334, 2335, 2336, 2337, 2338, 2339, 2340, 
2341, 2342, 2343, 2344, 2345, 2346, 2347, 2348, 2349, 2350, 
2351, 2352, 2353, 2354, 2355, 2356, 2357, 2358, 2359, 2360, 
2361, 2362, 2363, 2364, 2365, 2366, 2367, 2368, 2369, 2370, 
2371, 2372, 2373, 2374, 2375, 2376, 2377, 2378, 2379, 2380, 
2381, 2382, 2383, 2384, 2385, 2386, 2387, 2388, 2389, 2390, 
2391, 2392, 2393, 2394, 2395, 2396, 2397, 2398, 2399, 2400, 
2401, 2402, 2403, 2404, 2405, 2406, 2407, 2408, 2409, 2410, 
2411, 2412, 2413, 2414, 2415, 2416, 2417, 2418, 2419, 2420, 
2421, 2422, 2423, 2424, 2425, 2426, 2427, 2428, 2429, 2430, 
2431, 2432, 2433, 2434, 2435, 2436, 2437, 2438, 2439, 2440, 
2441, 2442, 2443, 2444, 2445, 2446, 2447, 2448, 2449, 2450, 
2451, 2452, 2453, 2454, 2455, 2456, 2457, 2458, 2459, 2460, 
2461, 2462, 2463, 2464, 2465, 2466, 2467, 2468, 2469, 2470, 
2471, 2472, 2473, 2474, 2475, 2476, 2477, 2478, 2479, 2480, 
2481, 2482, 2483, 2484, 2485, 2486, 2487, 2488, 2489, 2490, 
2491, 2492, 2493, 2494, 2495, 2496, 2497, 2498, 2499, 2500, 
2501, 2502, 2503, 2504, 2505, 2506, 2507, 2508, 2509, 2510, 
2511, 2512, 2513, 2514, 2515, 2516, 2517, 2518, 2519, 2520, 
2521, 2522, 2523, 2524, 2525, 2526, 2527, 2528, 2529, 2530, 
2531, 2532, 2533, 2534, 2535, 2536, 2537, 2538, 2539, 2540, 
2541, 2542, 2543, 2544, 2545, 2546, 2547, 2548, 2549, 2550, 
2551, 2552, 2553, 2554, 2555, 2556, 2557, 2558, 2559, 2560, 
2561, 2562, 2563, 2564, 2565, 2566, 2567, 2568, 2569, 2570, 
2571, 2572, 2573, 2574, 2575, 2576, 2577, 2578, 2579, 2580, 
2581, 2582, 2583, 2584, 2585, 2586, 2587, 2588, 2589, 2590, 
2591, 2592, 2593, 2594, 2595, 2596, 2597, 2598, 2599, 2600, 
2601, 2602, 2603, 2604, 2605, 2606, 2607, 2608, 2609, 2610, 
2611, 2612, 2613, 2614, 2615, 2616, 2617, 2618, 2619, 2620, 
2621, 2622, 2623, 2624, 2625, 2626, 2627, 2628, 2629, 2630, 
2631, 2632, 2633, 2634, 2635, 2636, 2637, 2638, 2639, 2640, 
2641, 2642, 2643, 2644, 2645, 2646, 2647, 2648, 2649, 2650, 
2651, 2652, 2653, 2654, 2655, 2656, 2657, 2658, 2659, 2660, 
2661, 2662, 2663, 2664, 2665, 2666, 2667, 2668, 2669, 2670, 
2671, 2672, 2673, 2674, 2675, 2676, 2677, 2678, 2679, 2680, 
2681, 2682, 2683, 2684, 2685, 2686, 2687, 2688, 2689, 2690, 
2691, 2692, 2693, 2694, 2695, 2696, 2697, 2698, 2699, 2700, 
2701, 2702, 2703, 2704, 2705, 2706, 2707, 2708, 2709, 2710, 
2711, 2712, 2713, 2714, 2715, 2716, 2717, 2718, 2719, 2720, 
2721, 2722, 2723, 2724, 2725, 2726, 2727, 2728, 2729, 2730, 
2731, 2732, 2733, 2734, 2735, 2736, 2737, 2738, 2739, 2740, 
2741, 2742, 2743, 2744, 2745, 2746, 2747, 2748, 2749, 2750, 
2751, 2752, 2753, 2754, 2755, 2756, 2757, 2758, 2759, 2760, 
2761, 2762, 2763, 2764, 2765, 2766, 2767, 2768, 2769, 2770, 
2771, 2772, 2773, 2774, 2775, 2776, 2777, 2778, 2779, 2780, 
2781, 2782, 2783, 2784, 2785, 2786, 2787, 2788, 2789, 2790, 
2791, 2792, 2793, 2794, 2795, 2796, 2797, 2798, 2799, 2800, 
2801, 2802, 2803, 2804, 2805, 2806, 2807, 2808, 2809, 2810, 
2811, 2812, 2813, 2814, 2815, 2816, 2817, 2818, 2819, 2820, 
2821, 2822, 2823, 2824, 2825, 2826, 2827, 2828, 2829, 2830, 
2831, 2832, 2833, 2834, 2835, 2836, 2837, 2838, 2839, 2840, 
2841, 2842, 2843, 2844, 2845, 2846, 2847, 2848, 2849, 2850, 
2851, 2852, 2853, 2854, 2855, 2856, 2857, 2858, 2859, 2860, 
2861, 2862, 2863, 2864, 2865, 2866, 2867, 2868, 2869, 2870, 
2871, 2872, 2873, 2874, 2875, 2876, 2877, 2878, 2879, 2880, 
2881, 2882, 2883, 2884, 2885, 2886, 2887, 2888, 2889, 2890, 
2891, 2892, 2893, 2894, 2895, 2896, 2897, 2898, 2899, 2900, 
2901, 2902, 2903, 2904, 2905, 2906, 2907, 2908, 2909, 2910, 
2911, 2912, 2913, 2914, 2915, 2916, 2917, 2918, 2919, 2920, 
2921, 2922, 2923, 2924, 2925, 2926, 2927, 2928, 2929, 2930, 
2931, 2932, 2933, 2934, 2935, 2936, 2937, 2938, 2939, 2940, 
2941, 2942, 2943, 2944, 2945, 2946, 2947, 2948, 2949, 2950, 
2951, 2952, 2953, 2954, 2955, 2956, 2957, 2958, 2959, 2960, 
2961, 2962, 2963, 2964, 2965, 2966, 2967, 2968, 2969, 2970, 
2971, 2972, 2973, 2974, 2975, 2976, 2977, 2978, 2979, 2980, 
2981, 2982, 2983, 2984, 2985, 2986, 2987, 2988, 2989, 2990, 
2991, 2992, 2993, 2994, 2995, 2996, 2997, 2998, 2999, 3000, 
3001, 3002, 3003, 3004, 3005, 3006, 3007, 3008, 3009, 3010, 
3011, 3012, 3013, 3014, 3015, 3016, 3017, 3018, 3019, 3020, 
3021, 3022, 3023, 3024, 3025, 3026, 3027, 3028, 3029, 3030, 
3031, 3032, 3033, 3034, 3035, 3036, 3037, 3038, 3039, 3040, 
3041, 3042, 3043, 3044, 3045, 3046, 3047, 3048, 3049, 3050, 
3051, 3052, 3053, 3054, 3055, 3056, 3057, 3058, 3059, 3060, 
3061, 3062, 3063, 3064, 3065, 3066, 3067, 3068, 3069, 3070, 
3071, 3072, 3073, 3074, 3075, 3076, 3077, 3078, 3079, 3080, 
3081, 3082, 3083, 3084, 3085, 3086, 3087, 3088, 3089, 3090, 
3091, 3092, 3093, 3094, 3095, 3096, 3097, 3098, 3099, 3100, 
3101, 3102, 3103, 3104, 3105, 3106, 3107, 3108, 3109, 3110, 
3111, 3112, 3113, 3114, 3115, 3116, 3117, 3118, 3119, 3120, 
3121, 3122, 3123, 3124, 3125, 3126, 3127, 3128, 3129, 3130, 
3131, 3132, 3133, 3134, 3135, 3136, 3137, 3138, 3139, 3140, 
3141, 3142, 3143, 3144, 3145, 3146, 3147, 3148, 3149, 3150, 
3151, 3152, 3153, 3154, 3155, 3156, 3157, 3158, 3159, 3160, 
3161, 3162, 3163, 3164, 3165, 3166, 3167, 3168, 3169, 3170, 
3171, 3172, 3173, 3174, 3175, 3176, 3177, 3178, 3179, 3180, 
3181, 3182, 3183, 3184, 3185, 3186, 3187, 3188, 3189, 3190, 
3191, 3192, 3193, 3194, 3195, 3196, 3197, 3198, 3199, 3200, 
3201, 3202, 3203, 3204, 3205, 3206, 3207, 3208, 3209, 3210, 
3211, 3212, 3213, 3214, 3215, 3216, 3217, 3218, 3219, 3220, 
3221, 3222, 3223, 3224, 3225, 3226, 3227, 3228, 3229, 3230, 
3231, 3232, 3233, 3234, 3235, 3236, 3237, 3238, 3239, 3240, 
3241, 3242, 3243, 3244, 3245, 3246, 3247, 3248, 3249, 3250, 
3251, 3252, 3253, 3254, 3255, 3256, 3257, 3258, 3259, 3260, 
3261, 3262, 3263, 3264, 3265, 3266, 3267, 3268, 3269, 3270, 
3271, 3272, 3273, 3274, 3275, 3276, 3277, 3278, 3279, 3280, 
3281, 3282, 3283, 3284, 3285, 3286, 3287, 3288, 3289, 3290, 
3291, 3292, 3293, 3294, 3295, 3296, 3297, 3298, 3299, 3300, 
3301, 3302, 3303, 3304, 3305, 3306, 3307, 3308, 3309, 
