*Heading
 /Users/juliagao/geometry-optimization-net/scripts/../runs/r0_sweep/shape_5.inp
*NODE
1, 0, -0.3, 0
2, 0.425, -0.3, 0
3, 0.575, -0.3, 0
4, 1, -0.3, 0
5, 1, 0.3, 0
6, 0.575, 0.3, 0
7, 0.425, 0.3, 0
8, 0, 0.3, 0
9, 0.74, 0.03, 0
10, 0.024868678636548, -0.3, 0
11, 0.076020933348732, -0.3, 0
12, 0.12968861760449, -0.3, 0
13, 0.18400784410132, -0.3, 0
14, 0.23677157321546, -0.3, 0
15, 0.28642560974334, -0.3, 0
16, 0.33165502215042, -0.3, 0
17, 0.37207134513424, -0.3, 0
18, 0.40804184072071, -0.3, 0
19, 0.049737357273097, -0.3, 0
20, 0.10230450942437, -0.3, 0
21, 0.15707272578461, -0.3, 0
22, 0.21094296241803, -0.3, 0
23, 0.26260018401289, -0.3, 0
24, 0.31025103547378, -0.3, 0
25, 0.35305900882706, -0.3, 0
26, 0.39108368144141, -0.3, 0
27, 0.44047883826279, -0.3, 0
28, 0.47068988014817, -0.3, 0
29, 0.50001522614076, -0.3, 0
30, 0.52936800840983, -0.3, 0
31, 0.55956382415444, -0.3, 0
32, 0.45595767652559, -0.3, 0
33, 0.48542208377075, -0.3, 0
34, 0.51460836851077, -0.3, 0
35, 0.54412764830888, -0.3, 0
36, 0.59189031649062, -0.3, 0
37, 0.62752629252024, -0.3, 0
38, 0.6673520718809, -0.3, 0
39, 0.71204491810258, -0.3, 0
40, 0.76157188004433, -0.3, 0
41, 0.81473846854167, -0.3, 0
42, 0.8692971949344, -0.3, 0
43, 0.92308765700939, -0.3, 0
44, 0.97478587282363, -0.3, 0
45, 0.60878063298124, -0.3, 0
46, 0.64627195205923, -0.3, 0
47, 0.68843219170257, -0.3, 0
48, 0.73565764450259, -0.3, 0
49, 0.78748611558607, -0.3, 0
50, 0.84199082149728, -0.3, 0
51, 0.89660356837153, -0.3, 0
52, 0.94957174564725, -0.3, 0
53, 1, -0.27447620831018, 0
54, 1, -0.22282367436735, 0
55, 1, -0.1695771411394, 0
56, 1, -0.11446422839385, 0
57, 1, -0.058317520725016, 0
58, 1, -0.0023866248570045, 0
59, 1, 0.053312607314829, 0
60, 1, 0.10945010877359, 0
61, 1, 0.16556475224203, 0
62, 1, 0.22036122271533, 0
63, 1, 0.27363031448844, 0
64, 1, -0.24895241662037, 0
65, 1, -0.19669493211433, 0
66, 1, -0.14245935016447, 0
67, 1, -0.086469106623234, 0
68, 1, -0.030165934826799, 0
69, 1, 0.02539268511279, 0
70, 1, 0.081232529516868, 0
71, 1, 0.13766768803031, 0
72, 1, 0.19346181645376, 0
73, 1, 0.24726062897689, 0
74, 0.97475034892049, 0.3, 0
75, 0.92357368991649, 0.3, 0
76, 0.87155699786765, 0.3, 0
77, 0.82063077745969, 0.3, 0
78, 0.77348118869337, 0.3, 0
79, 0.73215457835202, 0.3, 0
80, 0.69741364483786, 0.3, 0
81, 0.66801846943143, 0.3, 0
82, 0.64251621919685, 0.3, 0
83, 0.62056362697211, 0.3, 0
84, 0.60129473181782, 0.3, 0
85, 0.5835719892023, 0.3, 0
86, 0.94950069784099, 0.3, 0
87, 0.89764668199199, 0.3, 0
88, 0.84546731374331, 0.3, 0
89, 0.79579424117608, 0.3, 0
90, 0.75116813621065, 0.3, 0
91, 0.7131410204934, 0.3, 0
92, 0.68168626918233, 0.3, 0
93, 0.65435066968053, 0.3, 0
94, 0.63068176871318, 0.3, 0
95, 0.61044548523104, 0.3, 0
96, 0.59214397840459, 0.3, 0
97, 0.56726950167652, 0.3, 0
98, 0.55240594226442, 0.3, 0
99, 0.5385264473027, 0.3, 0
100, 0.52522967240864, 0.3, 0
101, 0.51231819281567, 0.3, 0
102, 0.49976197206613, 0.3, 0
103, 0.4872356088066, 0.3, 0
104, 0.47440206522607, 0.3, 0
105, 0.46121036118939, 0.3, 0
106, 0.44747081307781, 0.3, 0
107, 0.43271035325219, 0.3, 0
108, 0.55953900335304, 0.3, 0
109, 0.5452728811758, 0.3, 0
110, 0.5317800134296, 0.3, 0
111, 0.51867933138768, 0.3, 0
112, 0.50595705424366, 0.3, 0
113, 0.49356688988861, 0.3, 0
114, 0.48090432772459, 0.3, 0
115, 0.46789980272755, 0.3, 0
116, 0.45452091965123, 0.3, 0
117, 0.44042070650438, 0.3, 0
118, 0.41632870300796, 0.3, 0
119, 0.39837586702079, 0.3, 0
120, 0.37889013739481, 0.3, 0
121, 0.35721217361646, 0.3, 0
122, 0.33252191262196, 0.3, 0
123, 0.30393429519633, 0.3, 0
124, 0.26947832347991, 0.3, 0
125, 0.22744165642765, 0.3, 0
126, 0.1793198853271, 0.3, 0
127, 0.12808776591851, 0.3, 0
128, 0.076246000549042, 0.3, 0
129, 0.025233204201048, 0.3, 0
130, 0.40765740601591, 0.3, 0
131, 0.38909432802566, 0.3, 0
132, 0.36868594676395, 0.3, 0
133, 0.34573840046898, 0.3, 0
134, 0.31930542477495, 0.3, 0
135, 0.28856316561771, 0.3, 0
136, 0.25039348134211, 0.3, 0
137, 0.20448983151318, 0.3, 0
138, 0.15414993914103, 0.3, 0
139, 0.10202559269599, 0.3, 0
140, 0.050466408402097, 0.3, 0
141, 0, 0.27315705202322, 0
142, 0, 0.21887091280499, 0
143, 0, 0.1635052032675, 0
144, 0, 0.10731957967988, 0
145, 0, 0.051217566168174, 0
146, 0, -0.0037555341044261, 0
147, 0, -0.057771507045205, 0
148, 0, -0.1119219683735, 0
149, 0, -0.16729860257464, 0
150, 0, -0.22234117217336, 0
151, 0, -0.27463789400546, 0
152, 0, 0.24631410404643, 0
153, 0, 0.19142772156355, 0
154, 0, 0.13558268497145, 0
155, 0, 0.079056474388314, 0
156, 0, 0.023378657948033, 0
157, 0, -0.030889726156886, 0
158, 0, -0.084653287933525, 0
159, 0, -0.13919064881347, 0
160, 0, -0.19540655633581, 0
161, 0, -0.24927578801091, 0
162, 0.73996524933232, 0.034085327521034, 0
163, 0.73969633915071, 0.01793072234615, 0
164, 0.73918199480301, 0.010201695714477, 0
165, 0.73844075225864, 0.0026868630239933, 0
166, 0.73748765120862, -0.0046354604750343, 0
167, 0.73631410216774, -0.011900409760366, 0
168, 0.73489501966317, -0.019237478939353, 0
169, 0.73321094731954, -0.026680278726273, 0
170, 0.73125845206902, -0.034183551052418, 0
171, 0.72902430846684, -0.041748628390042, 0
172, 0.72652728004985, -0.049280455963163, 0
173, 0.72384028874447, -0.056576697074748, 0
174, 0.72094869271348, -0.063710591009496, 0
175, 0.71779316739066, -0.070827259261107, 0
176, 0.71442995274026, -0.077795153845641, 0
177, 0.71091927852556, -0.084512258692106, 0
178, 0.70725449007093, -0.09101890609955, 0
179, 0.70339301412511, -0.097402046225611, 0
180, 0.69916924174164, -0.10390897320647, 0
181, 0.69455858539119, -0.11052386557789, 0
182, 0.68980083988844, -0.11688648954009, 0
183, 0.68499430423985, -0.12289573804248, 0
184, 0.68003177252078, -0.12870904264385, 0
185, 0.67481663427947, -0.13443583565392, 0
186, 0.66940012267668, -0.14001058327541, 0
187, 0.66385708292371, -0.14535922052136, 0
188, 0.65819837018477, -0.15048067793271, 0
189, 0.65246910483314, -0.15534608532564, 0
190, 0.64658913051295, -0.16003059322641, 0
191, 0.64040813817912, -0.16464211943645, 0
192, 0.63412047708737, -0.16902687644379, 0
193, 0.62793346890593, -0.17305917113149, 0
194, 0.62150044022963, -0.17697256412614, 0
195, 0.6146086397922, -0.18086692284437, 0
196, 0.60753384649061, -0.18456111395021, 0
197, 0.60041643713189, -0.18798288727241, 0
198, 0.59333681643401, -0.19110684853994, 0
199, 0.58640068540321, -0.19390828686609, 0
200, 0.57928695562766, -0.19652500518187, 0
201, 0.57174593183554, -0.19902515322211, 0
202, 0.56417436678, -0.20126100087674, 0
203, 0.55683271116498, -0.20317384687303, 0
204, 0.54946616612808, -0.2048469670624, 0
205, 0.54186886055478, -0.20631969404762, 0
206, 0.53406330777023, -0.20757039047113, 0
207, 0.52616943080447, -0.20856898494324, 0
208, 0.51835562416419, -0.20929703516226, 0
209, 0.51073738642821, -0.20975968879045, 0
210, 0.50322388076073, -0.2099783448875, 0
211, 0.4957087718322, -0.20996163163981, 0
212, 0.48819268882993, -0.20970938028178, 0
213, 0.48058459088887, -0.20921338142764, 0
214, 0.47280764259053, -0.20845455669416, 0
215, 0.46509380412696, -0.20744800905798, 0
216, 0.45760799873804, -0.20622641153259, 0
217, 0.45012655947356, -0.20476081312216, 0
218, 0.44237536857971, -0.202979401691, 0
219, 0.43445956313471, -0.20087756733209, 0
220, 0.42665348486385, -0.19851758931444, 0
221, 0.41911417331506, -0.19595902866816, 0
222, 0.41182671794401, -0.19321619935388, 0
223, 0.40461466423235, -0.19023087216753, 0
224, 0.39746478956711, -0.18699430920292, 0
225, 0.3903760152457, -0.1835007772756, 0
226, 0.38342444643169, -0.17978593912339, 0
227, 0.37679858690424, -0.17596458759073, 0
228, 0.37042183082853, -0.17201360685624, 0
229, 0.36411337050972, -0.16782523445196, 0
230, 0.35787971373102, -0.16339551199687, 0
231, 0.35178516815799, -0.15876536648, 0
232, 0.34582086004277, -0.15392605148941, 0
233, 0.3399388028084, -0.14883068104049, 0
234, 0.33422696251037, -0.14354912669152, 0
235, 0.3288311523159, -0.13822968006636, 0
236, 0.32367545120086, -0.13281785372581, 0
237, 0.31867734932296, -0.1272326176892, 0
238, 0.31384637786883, -0.12148210554285, 0
239, 0.30908516896434, -0.11543564417964, 0
240, 0.3043336283576, -0.10897723036762, 0
241, 0.29972416541434, -0.10224821331943, 0
242, 0.29543559709769, -0.095512569237749, 0
243, 0.2914979381782, -0.088856594022952, 0
244, 0.28777029910327, -0.082064951863267, 0
245, 0.28424944584529, -0.075127054866199, 0
246, 0.2809895560425, -0.068155106784515, 0
247, 0.27796505493347, -0.061106987137494, 0
248, 0.2751754177879, -0.053987541491851, 0
249, 0.2726040107462, -0.04675326427377, 0
250, 0.27023723006824, -0.039347450060132, 0
251, 0.26809236321423, -0.031796823285144, 0
252, 0.2661835570412, -0.024128280017037, 0
253, 0.26452303269355, -0.016374538766569, 0
254, 0.26311449728828, -0.0085390513580515, 0
255, 0.26197131559456, -0.0006976378805526, 0
256, 0.26110977711373, 0.006946568100092, 0
257, 0.26050288577767, 0.014471584554374, 0
258, 0.26013155560819, 0.022054612223276, 0
259, 0.26000010806792, 0.02977225837903, 0
260, 0.26012065369815, 0.037609135519006, 0
261, 0.26049352969743, 0.045383434837652, 0
262, 0.26110959577798, 0.053051552740882, 0
263, 0.26196933655576, 0.060682288621047, 0
264, 0.26307704409139, 0.068308130694461, 0
265, 0.26442548075759, 0.075876418647188, 0
266, 0.26600420329831, 0.08334760203037, 0
267, 0.26783313204618, 0.090815661651227, 0
268, 0.26992240856825, 0.098295690313133, 0
269, 0.27221650113222, 0.10559548548539, 0
270, 0.27465116722352, 0.11257059721314, 0
271, 0.27728156003034, 0.11942312922917, 0
272, 0.28022236727535, 0.12642505610195, 0
273, 0.28345794264949, 0.13348689186973, 0
274, 0.28690183690099, 0.14040458616161, 0
275, 0.29053973876239, 0.14715971564982, 0
276, 0.29436208420866, 0.15374589796049, 0
277, 0.29831879489836, 0.16009493008585, 0
278, 0.30243602687765, 0.16626619503009, 0
279, 0.30689096212834, 0.1725092951839, 0
280, 0.31169694515427, 0.17880174566078, 0
281, 0.3165906171048, 0.18479340446042, 0
282, 0.32150021052015, 0.19043012357734, 0
283, 0.32661878097192, 0.19594864326684, 0
284, 0.33203472881815, 0.20142831523554, 0
285, 0.33760760852471, 0.20671647104338, 0
286, 0.34320404098877, 0.21170037720881, 0
287, 0.34893633302473, 0.21649334554797, 0
288, 0.35497513996625, 0.22122706202012, 0
289, 0.36124647643213, 0.22582507294266, 0
290, 0.36758512040633, 0.23016568024596, 0
291, 0.37396208617957, 0.23424114226288, 0
292, 0.3803892672953, 0.23807035383964, 0
293, 0.386878123884, 0.24166823199439, 0
294, 0.39344921090463, 0.24505099128474, 0
295, 0.40012437611777, 0.24823120697301, 0
296, 0.40694480284458, 0.25122551869696, 0
297, 0.41400012433212, 0.25406253774028, 0
298, 0.42129900449745, 0.25672924950677, 0
299, 0.42871900308097, 0.25917028367749, 0
300, 0.43613939368177, 0.26134783935623, 0
301, 0.44352391112895, 0.26326047963439, 0
302, 0.45087054415492, 0.26491763700013, 0
303, 0.45816295887802, 0.26632532930345, 0
304, 0.46543040972044, 0.26749724814489, 0
305, 0.47279009385744, 0.26845255486284, 0
306, 0.48044300669651, 0.26920184773322, 0
307, 0.48844748205313, 0.26972179496223, 0
308, 0.49666328696085, 0.26997680252344, 0
309, 0.5048403477769, 0.26995118320544, 0
310, 0.51275105568964, 0.26966103142267, 0
311, 0.52051142515225, 0.26912189610734, 0
312, 0.5282037252689, 0.26833705103535, 0
313, 0.53575004487626, 0.26732242624395, 0
314, 0.54316723488818, 0.26608597834418, 0
315, 0.55046968830619, 0.26463335209808, 0
316, 0.55773805827671, 0.2629513175709, 0
317, 0.56512165691755, 0.26099603845496, 0
318, 0.57266900600906, 0.25873394005256, 0
319, 0.58021688047117, 0.25619737295623, 0
320, 0.58764021333655, 0.25342603316066, 0
321, 0.59485051232473, 0.25046174209815, 0
322, 0.60182730679276, 0.24732740134962, 0
323, 0.60873748400654, 0.24395363879466, 0
324, 0.6156626552347, 0.24029063201761, 0
325, 0.62249642670686, 0.2363846525816, 0
326, 0.62922862298439, 0.2322373909036, 0
327, 0.63582252031071, 0.22786925595295, 0
328, 0.64216483104465, 0.22336276950849, 0
329, 0.64828353907733, 0.21871139872098, 0
330, 0.65418290011808, 0.21392289940827, 0
331, 0.65999888154833, 0.20888643666412, 0
332, 0.66581223325781, 0.20351167865845, 0
333, 0.67152703454421, 0.19786445715803, 0
334, 0.67722800861181, 0.19183396666752, 0
335, 0.68275528536248, 0.18556511703216, 0
336, 0.68785776342025, 0.17936351832266, 0
337, 0.69256689212207, 0.17324102614672, 0
338, 0.69697900643755, 0.16711043111359, 0
339, 0.70126490422946, 0.16073805018493, 0
340, 0.70543482559148, 0.15408276349394, 0
341, 0.70937061365217, 0.14731984550356, 0
342, 0.71303100997699, 0.14053410567323, 0
343, 0.71643511790723, 0.13371036153327, 0
344, 0.71962684293624, 0.12676801730506, 0
345, 0.72267562588557, 0.11952968896075, 0
346, 0.72560206763307, 0.11187616816937, 0
347, 0.72827376952925, 0.10410186321513, 0
348, 0.73061661787705, 0.096452805551498, 0
349, 0.73269377741513, 0.088767384207177, 0
350, 0.734542320352, 0.080891052859955, 0
351, 0.7361365577388, 0.072889689396304, 0
352, 0.73742068295273, 0.065091576555532, 0
353, 0.73841492566219, 0.057537670415252, 0
354, 0.7391726603805, 0.04991077274452, 0
355, 0.73969424091425, 0.042110633210001, 0
356, 0.73996532563191, 0.025921967991964, 0
357, 0.7398609232194, 0.038169470438644, 0
358, 0.73946282069954, 0.046048524997685, 0
359, 0.73882020454765, 0.053767834499732, 0
360, 0.73795014096328, 0.06130063321907, 0
361, 0.7368308331899, 0.068873593822156, 0
362, 0.73537418609585, 0.076893416611761, 0
363, 0.73364256575455, 0.084873958556927, 0
364, 0.73168011453919, 0.092644425604522, 0
365, 0.7294905217138, 0.10024314725191, 0
366, 0.7269921382086, 0.10793951822033, 0
367, 0.72414372911247, 0.11578804214764, 0
368, 0.7211450683912, 0.12324622524095, 0
369, 0.7180525384715, 0.13026510085861, 0
370, 0.71476326766258, 0.13712954083039, 0
371, 0.71124478441988, 0.14391066850205, 0
372, 0.70744142609057, 0.15069819409905, 0
373, 0.70337300706816, 0.15743398120216, 0
374, 0.69910312845091, 0.16400725422424, 0
375, 0.69480652543602, 0.17017994694197, 0
376, 0.69027916388148, 0.17626632987131, 0
377, 0.68538595358524, 0.18242062683735, 0
378, 0.6800712852918, 0.18866421006116, 0
379, 0.67432894213897, 0.194952779435, 0
380, 0.6686765024486, 0.20072854869121, 0
381, 0.66290205114125, 0.20624676376411, 0
382, 0.65705294642985, 0.21147829563198, 0
383, 0.65127480785742, 0.21632211859214, 0
384, 0.64525453784063, 0.22105265904042, 0
385, 0.63903839019792, 0.22562291690849, 0
386, 0.63257036600869, 0.23006273510369, 0
387, 0.62585121707321, 0.2343562357819, 0
388, 0.61910895220447, 0.23835800239606, 0
389, 0.61218500840937, 0.24216626321994, 0
390, 0.60526149004026, 0.24568499717653, 0
391, 0.5983675050337, 0.24891512865832, 0
392, 0.59130921269639, 0.25195185884198, 0
393, 0.58394742620365, 0.25483956398722, 0
394, 0.57646438607985, 0.25749329052358, 0
395, 0.56885351022305, 0.25991127298301, 0
396, 0.56137272713994, 0.26202023118082, 0
397, 0.5540892776718, 0.26382546851698, 0
398, 0.54683804787488, 0.26538521039841, 0
399, 0.53948595577539, 0.26672950590198, 0
400, 0.53200525310465, 0.26785639177858, 0
401, 0.52439500777491, 0.26875695371114, 0
402, 0.51662242418387, 0.26942367185783, 0
403, 0.5088763569708, 0.26983579852547, 0
404, 0.50080296866416, 0.26999865660458, 0
405, 0.49252459801353, 0.26988355104001, 0
406, 0.4843737053518, 0.2694907479199, 0
407, 0.47651758248646, 0.26884843597452, 0
408, 0.46906924300485, 0.26799850375833, 0
409, 0.46179967391428, 0.26694036172952, 0
410, 0.45453612448243, 0.26565448402858, 0
411, 0.44721688748254, 0.2641237759006, 0
412, 0.43984503810193, 0.26233893313052, 0
413, 0.43245006303002, 0.26029764558703, 0
414, 0.42500674281319, 0.25798248021278, 0
415, 0.41761219472351, 0.25541572588007, 0
416, 0.41041026738123, 0.25265147516423, 0
417, 0.40350202570273, 0.24974562623594, 0
418, 0.39677048609371, 0.24666487232488, 0
419, 0.39015315886389, 0.24338620241801, 0
420, 0.38362994881259, 0.23990000259726, 0
421, 0.37717734529561, 0.23619067615398, 0
422, 0.37077776572559, 0.23224147311375, 0
423, 0.36442581414309, 0.22803949016623, 0
424, 0.35810330041481, 0.22355962009613, 0
425, 0.35188531436027, 0.21884395633334, 0
426, 0.3460246495508, 0.21409668929128, 0
427, 0.34042072202462, 0.20926085273551, 0
428, 0.33483505946002, 0.20412794683865, 0
429, 0.32927851765756, 0.19868365447041, 0
430, 0.3240028528247, 0.19317170151494, 0
431, 0.3190402689594, 0.18765016754992, 0
432, 0.3141860605815, 0.18189858195782, 0
433, 0.3092594389987, 0.17566412642533, 0
434, 0.30457466113177, 0.1693159595067, 0
435, 0.30034498075871, 0.16318360747268, 0
436, 0.29634038519605, 0.15697543459267, 0
437, 0.29243499184615, 0.15048554575435, 0
438, 0.28869777368343, 0.14380407938272, 0
439, 0.28516058875881, 0.1369767591272, 0
440, 0.28181198010655, 0.12996993513447, 0
441, 0.27869034079042, 0.12285491168833, 0
442, 0.27592599072144, 0.11596998200005, 0
443, 0.27342791411813, 0.10915231641113, 0
444, 0.27106092237648, 0.10202012458595, 0
445, 0.26884447883686, 0.094553272382778, 0
446, 0.26688221282343, 0.08706222203883, 0
447, 0.26518537980334, 0.079619488503887, 0
448, 0.26372524643247, 0.072121729544744, 0
449, 0.26249039343979, 0.064484579516381, 0
450, 0.26150914630691, 0.056872151952431, 0
451, 0.26077124439462, 0.04922504815559, 0
452, 0.26027749907368, 0.041537859588, 0
453, 0.26002819133502, 0.033678369208316, 0
454, 0.26003560457608, 0.025866207889307, 0
455, 0.26028804766218, 0.018245021886602, 0
456, 0.26077711835089, 0.01070199819514, 0
457, 0.26150138421846, 0.0031968266568651, 0
458, 0.26250483541947, -0.0045839016314947, 0
459, 0.26379002403992, -0.012483485459849, 0
460, 0.26532013623136, -0.0202529693215, 0
461, 0.26711096764086, -0.027988777170721, 0
462, 0.26913601917488, -0.035588278788394, 0
463, 0.2713996448259, -0.043088148655613, 0
464, 0.27386713406048, -0.05039854740363, 0
465, 0.27654066094527, -0.05755525726686, 0
466, 0.27944589918127, -0.064635553950174, 0
467, 0.28258937249807, -0.071649490297272, 0
468, 0.28596513745639, -0.078577518774373, 0
469, 0.28963227767925, -0.085522383538798, 0
470, 0.29341644041824, -0.092160682039759, 0
471, 0.2975091366509, -0.098831089265588, 0
472, 0.30199685528574, -0.10562726203005, 0
473, 0.30672707232328, -0.11228694673787, 0
474, 0.31149455520672, -0.11854527009812, 0
475, 0.3162439489828, -0.12438171326479, 0
476, 0.32115497633717, -0.1300451712378, 0
477, 0.3262389088968, -0.13555084592927, 0
478, 0.33146469018111, -0.14086792887028, 0
479, 0.33703188231342, -0.14618567654748, 0
480, 0.34288864438845, -0.15142773131026, 0
481, 0.34879279698609, -0.15637698661377, 0
482, 0.35481526017521, -0.16110570532205, 0
483, 0.36098027596723, -0.16563618247522, 0
484, 0.36728092727393, -0.16996411599289, 0
485, 0.37359437546786, -0.17401376895777, 0
486, 0.38003289829475, -0.17786508593294, 0
487, 0.38684674307884, -0.18165145815678, 0
488, 0.39393550316161, -0.18529124904366, 0
489, 0.40102141213953, -0.18863951815922, 0
490, 0.40823349041196, -0.19176317936454, 0
491, 0.41544294091498, -0.19461100491175, 0
492, 0.42280688412937, -0.19724705119689, 0
493, 0.43052098318136, -0.19972301907712, 0
494, 0.43841731146067, -0.20196459171624, 0
495, 0.44635012922462, -0.20392667857473, 0
496, 0.45391594029566, -0.20553398773983, 0
497, 0.46131044184118, -0.2068609675214, 0
498, 0.46888604946816, -0.20797462378045, 0
499, 0.47673660488584, -0.2088698678179, 0
500, 0.48443760792716, -0.20949490885133, 0
501, 0.49195066964519, -0.20986497890537, 0
502, 0.49946792687236, -0.20999941013637, 0
503, 0.50697904504134, -0.20989850460203, 0
504, 0.51449309101554, -0.20956199533223, 0
505, 0.52221338040512, -0.2089697996292, 0
506, 0.53011829776461, -0.20810268341121, 0
507, 0.53799894685229, -0.20697274103176, 0
508, 0.54572757864484, -0.20560345588914, 0
509, 0.55319225894556, -0.20403115833702, 0
510, 0.56045936128593, -0.20225990809718, 0
511, 0.56787288351357, -0.20020267409316, 0
512, 0.57559856875202, -0.19778247558613, 0
513, 0.58295444042159, -0.19520781692241, 0
514, 0.58982658280885, -0.192556025897, 0
515, 0.59682367993774, -0.18960230945876, 0
516, 0.6039821183149, -0.18630468877665, 0
517, 0.61105634801799, -0.18275922344152, 0
518, 0.61812869931791, -0.17891531850288, 0
519, 0.6248402402562, -0.17497539935066, 0
520, 0.63099729121491, -0.17109626848028, 0
521, 0.63721097760627, -0.16690898130854, 0
522, 0.64356785401359, -0.16232334940358, 0
523, 0.64957379854154, -0.15769037966963, 0
524, 0.65532767584296, -0.15295713444812, 0
525, 0.66102958792295, -0.14795918455178, 0
526, 0.66664260387325, -0.14271433606134, 0
527, 0.67211377736998, -0.13726280829031, 0
528, 0.67747306367904, -0.13156519238057, 0
529, 0.68254452306026, -0.12581237782709, 0
530, 0.6873974910208, -0.11994058852172, 0
531, 0.6921544197847, -0.11379387448967, 0
532, 0.69690710730772, -0.10721366691158, 0
533, 0.70137591701311, -0.10056699219698, 0
534, 0.70536037338781, -0.094205945249461, 0
535, 0.70909915243692, -0.087802989848106, 0
536, 0.71268762153541, -0.081193413501106, 0
537, 0.71611799037967, -0.074369600536612, 0
538, 0.71941028496109, -0.067258039377895, 0
539, 0.72242974886395, -0.060138818171297, 0
540, 0.72519378893327, -0.052992514213975, 0
541, 0.72779958917948, -0.045546985134528, 0
542, 0.73018569868011, -0.037930431974806, 0
543, 0.73227021735348, -0.030419743495102, 0
544, 0.73409147502935, -0.022926182204103, 0
545, 0.73564044336973, -0.015536592638646, 0
546, 0.73693165686421, -0.0082542791656566, 0
547, 0.73798837701927, -0.0010085813775282, 0
548, 0.7388357460012, 0.0063888803740929, 0
549, 0.73946738100188, 0.014019549026958, 0
550, 0.73986140737061, 0.021845112651569, 0
551, 0.44146051082531, 0.28155020652941, 0
552, 0.14535702756602, -0.25435401546815, 0
553, 0.047088026968088, -0.25005170873525, 0
554, 0.095234113425696, -0.25207112890383, 0
555, 0.30621456337867, -0.28486583837962, 0
556, 0.3492134289353, -0.24557348842262, 0
557, 0.77168560295774, 0.05256706264625, 0
558, 0.5839760868543, 0.25984725296368, 0
559, 0.57827823066553, -0.26909261613146, 0
560, 0.046489628011082, 0.19024032262166, 0
561, 0.15320378300794, 0.24801054696853, 0
562, 0.099900325768339, 0.24553877395504, 0
563, 0.049131643066573, 0.24545729614826, 0
564, 0.28141886470606, 0.2418806795658, 0
565, 0.17919407717428, 0.25090907564906, 0
566, 0.24615402302678, 0.25367487251149, 0
567, 0.31422476194442, 0.26869186301654, 0
568, 0.53221747259926, 0.27263426420426, 0
569, 0.50361071333415, 0.29325664413909, 0
570, 0.46765698286968, 0.28811471230557, 0
571, 0.46381054561169, 0.27660864649595, 0
572, 0.32989823550365, 0.26233603546552, 0
573, 0.33816763924824, 0.2466535761173, 0
574, 0.45620690392379, 0.28558746239167, 0
575, 0.042909807394087, 0.1352419000557, 0
576, 0.041112233141622, 0.08088383400763, 0
577, 0.042548927546414, 0.024267903657188, 0
578, 0.04446442310238, -0.19847318662729, 0
579, 0.043019602402875, -0.1446432106173, 0
580, 0.042427720507746, -0.089283290445395, 0
581, 0.042040934202615, -0.033491985726932, 0
582, 0.41862896343365, -0.20555657647184, 0
583, 0.43365019060777, -0.22329322730453, 0
584, 0.40486473849663, -0.27887391747997, 0
585, 0.28421296891347, -0.28378938756787, 0
586, 0.95258094120896, 0.19352977409008, 0
587, 0.85552385380143, 0.25437525042376, 0
588, 0.90281838016576, 0.24973583409042, 0
589, 0.95153825310547, 0.24765969962824, 0
590, 0.7586553981096, 0.21470292683961, 0
591, 0.78212063156372, 0.23865032001928, 0
592, 0.68606049141052, 0.27431413386796, 0
593, 0.61140612612924, 0.25546557053191, 0
594, 0.60915561312306, 0.28493260031559, 0
595, 0.50981838223427, 0.28309059695534, 0
596, 0.5147392781603, 0.28595900604118, 0
597, 0.49738264642034, 0.29396866265893, 0
598, 0.57785348267018, 0.27043951140591, 0
599, 0.63287863176237, 0.24637747783045, 0
600, 0.59362704225706, 0.28670571689158, 0
601, 0.57377505592573, 0.28074116762372, 0
602, 0.74486536000083, 0.1571136410114, 0
603, 0.74821747699784, 0.11995792911222, 0
604, 0.74378478199844, 0.10623688012198, 0
605, 0.77857445707607, 0.088283521895665, 0
606, 0.745288492484, 0.079601038608664, 0
607, 0.77546214192637, 0.10489185142522, 0
608, 0.75983576976754, 0.097055113829667, 0
609, 0.76125762729002, 0.013728391409732, 0
610, 0.76984132950134, 0.0075056526857575, 0
611, 0.75050149064124, 0.051687428881608, 0
612, 0.81068986591207, 0.054802223784501, 0
613, 0.75994911376502, 0.031581528287522, 0
614, 0.95346552839024, 0.13650014058987, 0
615, 0.9556120846494, 0.0790179535395, 0
616, 0.95814893129867, 0.024118817779954, 0
617, 0.95774841049125, -0.031026811228955, 0
618, 0.95929521699715, -0.086348776693025, 0
619, 0.4951588550381, -0.21597140667265, 0
620, 0.49540435231827, -0.21310892113067, 0
621, 0.61058661683156, -0.26672193428741, 0
622, 0.8320584981705, -0.14444380689852, 0
623, 0.65188810857253, -0.26487685131592, 0
624, 0.97971800482411, -0.11361430057861, 0
625, 0.95481231051642, -0.21828774409953, 0
626, 0.86435527589278, -0.20331613460559, 0
627, 0.69150648980888, -0.2123473564492, 0
628, 0.90068369674212, -0.26956218920782, 0
629, 0.70135375314598, -0.11743096924338, 0
630, 0.73413644391107, -0.26324020975712, 0
631, 0.29294422733834, 0.27900979858823, 0
632, 0.19692953087541, 0.15835168140788, 0
633, 0.27297020497448, 0.13104583918742, 0
634, 0.27778401955311, 0.14883791079069, 0
635, 0.25986893897512, 0.13982702119591, 0
636, 0.18156897821114, 0.14014455969376, 0
637, 0.24899935132209, 0.27550579422158, 0
638, 0.36256329234808, 0.24238138080332, 0
639, 0.095401640479049, 0.18914115929567, 0
640, 0.21365485472849, 0.17205588172609, 0
641, 0.29330975489944, 0.2340209660274, 0
642, 0.3682145787011, 0.24780180815431, 0
643, 0.32449191317321, 0.22995556872075, 0
644, 0.33915183577763, 0.22438694189845, 0
645, 0.33263026957447, 0.23457621227271, 0
646, 0.38384378274662, 0.28752111045853, 0
647, 0.35864808450772, 0.23580569799404, 0
648, 0.37183704652637, 0.25793602779369, 0
649, 0.4046924495784, 0.26513870233252, 0
650, 0.35700171892179, 0.259831470006, 0
651, 0.378636861561, 0.26901725100566, 0
652, 0.35980155686905, 0.23077056874106, 0
653, 0.34741088346393, 0.27703349851977, 0
654, 0.34656402454575, 0.2880214233334, 0
655, 0.37336703613223, 0.24730209909887, 0
656, 0.4142009138294, 0.26815217587466, 0
657, 0.35040243848678, 0.25168570581655, 0
658, 0.51270867951043, 0.27973541767802, 0
659, 0.50226843609115, 0.27347758790582, 0
660, 0.52202092893702, 0.28230265534578, 0
661, 0.42844057871991, 0.27072611142736, 0
662, 0.45465822839321, 0.29222610061557, 0
663, 0.4682847192488, 0.27747457163256, 0
664, 0.46289013284145, 0.28162582132078, 0
665, 0.36650348092986, 0.26634785521208, 0
666, 0.42408003715805, 0.29178013783536, 0
667, 0.4469398000939, 0.26682358742931, 0
668, 0.37980135733082, 0.24181124660752, 0
669, 0.44122423899808, 0.27045029930562, 0
670, 0.41248570858376, 0.27517684967741, 0
671, 0.39050643516732, 0.26705591866087, 0
672, 0.36466549606465, 0.25944818901376, 0
673, 0.35719932702588, 0.24673073967395, 0
674, 0.34125537567848, 0.24051988661282, 0
675, 0.41727271828872, 0.28359692428432, 0
676, 0.30599891094809, 0.19371963946809, 0
677, 0.26537072861784, 0.20678926119671, 0
678, 0.29767032608141, 0.19835195423567, 0
679, 0.31123753724402, 0.20053856940207, 0
680, 0.28183765959233, 0.17917261438494, 0
681, 0.29429866448285, 0.16745373311863, 0
682, 0.29010776711068, 0.2536711522871, 0
683, 0.2991989658213, 0.20618262815609, 0
684, 0.28832571136951, 0.22521087859297, 0
685, 0.31737389908537, 0.20741728772752, 0
686, 0.30480385289018, 0.21614004246137, 0
687, 0.3140488365323, 0.22474831784347, 0
688, 0.32446336222382, 0.21372246361792, 0
689, 0.33185883228521, 0.21926689457011, 0
690, 0.28573119666325, 0.16817512244169, 0
691, 0.28965968051636, 0.19492843282756, 0
692, 0.25262923363712, 0.11449437051661, 0
693, 0.27089519270864, 0.19661209009162, 0
694, 0.24692570043043, 0.1483599516702, 0
695, 0.27044323285536, 0.14960492245076, 0
696, 0.2573731686321, 0.091932011662583, 0
697, 0.25563526799441, 0.098540423064599, 0
698, 0.26348637556816, 0.10177953225077, 0
699, 0.28293028726809, 0.13940399714703, 0
700, 0.28703042183255, 0.1441462016108, 0
701, 0.2465371873989, 0.11290170701856, 0
702, 0.27859778635137, 0.13240752227561, 0
703, 0.29395354214642, 0.18038058227826, 0
704, 0.28395746977147, 0.14478139766151, 0
705, 0.1869186155774, 0.11439600892731, 0
706, 0.16916860510015, 0.12013474150784, 0
707, 0.13469230200045, 0.082727195538893, 0
708, 0.10231685892467, 0.10825076763983, 0
709, 0.25218512165553, 0.10227412859842, 0
710, 0.2490429003726, 0.10700977954926, 0
711, 0.24586634526761, 0.12809865284016, 0
712, 0.26358043826252, 0.093093476975368, 0
713, 0.29652915383675, 0.17101486779144, 0
714, 0.25949047607833, 0.095576975561201, 0
715, 0.24744160481355, 0.086288375298812, 0
716, 0.23161584950853, 0.047669112119926, 0
717, 0.2606861509761, 0.085535328510696, 0
718, 0.26610889614737, 0.11072837617364, 0
719, 0.23780132928237, 0.013768717224282, 0
720, 0.21601220364679, 0.019737949624972, 0
721, 0.24687699922543, -0.0052788394684055, 0
722, 0.22454275578744, 0.022359744637304, 0
723, 0.21068391514348, -0.0053219153266046, 0
724, 0.248064402292, -0.00065881416130576, 0
725, 0.23011195623161, 0.031074322044155, 0
726, 0.22261581702068, 0.030311370746089, 0
727, 0.25811936047066, 0.007507721488293, 0
728, 0.23576354718346, 0.1282689769853, 0
729, 0.24350505207781, 0.076216607069336, 0
730, 0.24884411233194, 0.065607992496932, 0
731, 0.23603850278823, 0.055386524787957, 0
732, 0.248107212951, 0.039319730945801, 0
733, 0.20896850548142, 0.090581398038311, 0
734, 0.24794446478195, 0.047995190723764, 0
735, 0.24811717452437, 0.056636834119439, 0
736, 0.2277452814417, 0.078408579772351, 0
737, 0.21776543088903, 0.068942684581463, 0
738, 0.22049828390775, 0.088451035916218, 0
739, 0.23602958474968, 0.037507951636081, 0
740, 0.17963732229799, -0.0085617881472182, 0
741, 0.09977889269486, 0.085184235245891, 0
742, 0.15951570367111, 0.09941315812166, 0
743, 0.11542240895855, 0.053495581592011, 0
744, 0.12912917540905, 0.13026948031261, 0
745, 0.085656755894465, 0.13427846049797, 0
746, 0.081081242130708, 0.083651068603557, 0
747, 0.089578082448319, 0.026383901696762, 0
748, 0.38221779903816, -0.24490986841061, 0
749, 0.44568760424288, -0.27278062776211, 0
750, 0.37786922263956, -0.28447907854125, 0
751, 0.24889575252045, -0.15674396451375, 0
752, 0.15213420787958, -0.16493504415879, 0
753, 0.13562212107704, -0.20767312730005, 0
754, 0.086861380878988, -0.15071948186559, 0
755, 0.089660175968216, -0.2027011190127, 0
756, 0.084551661812889, -0.037406500127592, 0
757, 0.13123449764825, -0.15947806810492, 0
758, 0.086373563297602, -0.094184082004655, 0
759, 0.2592136306862, -0.020662768490677, 0
760, 0.19529569506883, -0.037331557963751, 0
761, 0.26009713490549, -0.024957736788488, 0
762, 0.22992213731036, -0.027014663855179, 0
763, 0.25224432948143, 0.018382213637115, 0
764, 0.21959542433595, -0.026734482664109, 0
765, 0.20349998564825, 0.016149407560935, 0
766, 0.22075404286934, -0.035540749247682, 0
767, 0.22963143108626, -0.019655218694533, 0
768, 0.22191812502459, 0.010669257607142, 0
769, 0.19782335391517, 0.0012994944303708, 0
770, 0.24605715826647, -0.010260381767521, 0
771, 0.15550833136994, 0.035809910674733, 0
772, 0.12863303896107, 0.0044334464993497, 0
773, 0.12604599000927, -0.041314016441646, 0
774, 0.16364001992859, -0.039822877664088, 0
775, 0.17364733243957, -0.07375079508103, 0
776, 0.25461144345985, -0.083416284487544, 0
777, 0.24532399232649, -0.045246679056372, 0
778, 0.27868537980986, -0.075601916895509, 0
779, 0.24788759528251, -0.031830843289384, 0
780, 0.26539096922479, -0.041539758301824, 0
781, 0.24044390654856, -0.068986412231982, 0
782, 0.27528502285156, -0.06455527043841, 0
783, 0.27075991136325, -0.052443549268497, 0
784, 0.27153384072508, -0.067913510519051, 0
785, 0.25858990227493, -0.058813712376316, 0
786, 0.35159182214949, -0.17332875762385, 0
787, 0.26280851680588, -0.048005095333421, 0
788, 0.26539321526678, -0.05771728389366, 0
789, 0.27310041814974, -0.075955215388997, 0
790, 0.27440313531612, -0.079971458343473, 0
791, 0.27618209286955, -0.068155949457495, 0
792, 0.17539362518742, -0.1298908719009, 0
793, 0.22504576445541, -0.12216470392437, 0
794, 0.1723713583308, -0.149243728209, 0
795, 0.13732872298392, -0.09982764208921, 0
796, 0.27678648630802, -0.15788731802079, 0
797, 0.36013317536093, -0.23456109429804, 0
798, 0.34755244531571, -0.16238257487615, 0
799, 0.19219432958, -0.099847567129507, 0
800, 0.28769159161812, -0.15345649702536, 0
801, 0.29019944361741, -0.11752485455922, 0
802, 0.41935729838507, -0.22890051840794, 0
803, 0.39125702778462, -0.2170921648494, 0
804, 0.47536945852443, -0.24301588892746, 0
805, 0.46849951201465, -0.21321771648532, 0
806, 0.40828787802197, -0.19605013904606, 0
807, 0.46268946287688, -0.22426351309148, 0
808, 0.46112128222854, -0.23742429139282, 0
809, 0.40526231028046, -0.24812319501171, 0
810, 0.40702730893243, -0.23673807063365, 0
811, 0.39253995775919, -0.19114144998834, 0
812, 0.43204009083464, -0.21001512616799, 0
813, 0.46034817004021, -0.24501190811409, 0
814, 0.41913339200076, -0.20156151142796, 0
815, 0.41760042891074, -0.21061219342787, 0
816, 0.42135484967061, -0.20834917459183, 0
817, 0.40863350595895, -0.20016801711695, 0
818, 0.51595109664218, -0.22618106946578, 0
819, 0.50058603266155, -0.22631241657902, 0
820, 0.48357490465384, -0.22736520367591, 0
821, 0.51992673427373, -0.2335172357042, 0
822, 0.50465265815786, -0.21832994301337, 0
823, 0.48907136041959, -0.21686403713002, 0
824, 0.44714462239772, -0.22180931509971, 0
825, 0.47268959262802, -0.21866244767344, 0
826, 0.39582608953677, -0.20407897911377, 0
827, 0.46769013074793, -0.23050627194012, 0
828, 0.44828974828042, -0.26212250645397, 0
829, 0.50915525314867, -0.23070160997099, 0
830, 0.24435102377448, -0.19868754679016, 0
831, 0.44056923456267, -0.21354129662814, 0
832, 0.3080658674142, -0.22543777094631, 0
833, 0.34321357978472, -0.18330483027533, 0
834, 0.39144070186924, -0.19715334119027, 0
835, 0.3356942172701, -0.17940281177225, 0
836, 0.35191976101284, -0.22100919048121, 0
837, 0.37802267750659, -0.2254435923818, 0
838, 0.36014553141427, -0.19163306578094, 0
839, 0.34403278837779, -0.16590065377158, 0
840, 0.33679371036859, -0.16240231556439, 0
841, 0.34122868176768, -0.17341519108723, 0
842, 0.38238665308686, -0.19426566707351, 0
843, 0.37877450259731, -0.20856102975141, 0
844, 0.31570965017419, -0.19902425015787, 0
845, 0.37299039495295, -0.18194106682556, 0
846, 0.36903700736065, -0.18812178023159, 0
847, 0.36348578517969, -0.21355684358372, 0
848, 0.35627947534471, -0.16968116499454, 0
849, 0.36251900926081, -0.17485640116512, 0
850, 0.36937848959056, -0.17969912484399, 0
851, 0.35482006279081, -0.19836490646135, 0
852, 0.29692461832764, -0.17290837435102, 0
853, 0.35202295250242, -0.18425482198269, 0
854, 0.29119102047945, -0.099683387653874, 0
855, 0.2550215289929, -0.10796044484369, 0
856, 0.24620437205873, -0.1472363067128, 0
857, 0.28314504237106, -0.26751446054275, 0
858, 0.30809729808358, -0.18746628453346, 0
859, 0.33429681950737, -0.1533394916062, 0
860, 0.23391328716957, -0.18574442365846, 0
861, 0.18229718784193, -0.11312394922744, 0
862, 0.23608327766114, -0.12640749383473, 0
863, 0.24906769892172, -0.10345900872891, 0
864, 0.28891324382215, -0.18086326568323, 0
865, 0.32390542680085, -0.1456217637074, 0
866, 0.36102553796779, -0.1827029380075, 0
867, 0.3364142188125, -0.18591982080772, 0
868, 0.48220022960536, -0.27051867666891, 0
869, 0.39592633534861, -0.19824668155103, 0
870, 0.45227276319296, -0.22300481826872, 0
871, 0.42154722192799, -0.20360872290534, 0
872, 0.47286618639328, -0.22411216041225, 0
873, 0.43366386126241, -0.26938955709827, 0
874, 0.45875459303008, -0.26306177700443, 0
875, 0.46013928122677, -0.21227449031526, 0
876, 0.4678363448321, -0.22436767426627, 0
877, 0.25745480842205, -0.089266155479679, 0
878, 0.2752548818388, -0.11638311639522, 0
879, 0.26919835505429, -0.10256235313106, 0
880, 0.28611722367718, -0.10066872546837, 0
881, 0.2989349529816, -0.11680545489743, 0
882, 0.24290009420234, -0.097842636862314, 0
883, 0.34687064707761, -0.17623075269176, 0
884, 0.26068648482278, -0.094299819247088, 0
885, 0.27766316769584, -0.096541146440952, 0
886, 0.29747258163321, -0.13343048842642, 0
887, 0.30546168051502, -0.1272401049776, 0
888, 0.26847897806142, -0.11443805882396, 0
889, 0.28226055941821, -0.09459349637157, 0
890, 0.29563848493117, -0.10974408778088, 0
891, 0.33822951495811, -0.1932067635665, 0
892, 0.31246140966018, -0.15923003532165, 0
893, 0.26055646797826, -0.071020676856084, 0
894, 0.79273950483551, 0.25907819004447, 0
895, 0.83574950343521, 0.23651390229628, 0
896, 0.74641349194862, 0.25732191044448, 0
897, 0.77985480474107, 0.1293157151686, 0
898, 0.76319870536389, 0.20053785068312, 0
899, 0.7397851442035, 0.12394742845188, 0
900, 0.81490789795512, 0.18073890375067, 0
901, 0.9044313332785, 0.19617199418064, 0
902, 0.85206596911592, 0.2010237994956, 0
903, 0.71966513987022, 0.15207630893543, 0
904, 0.7370789922259, 0.24408855021952, 0
905, 0.68050181270675, 0.22463648506121, 0
906, 0.69126252967272, 0.22861521637821, 0
907, 0.68556502549042, 0.24737727091119, 0
908, 0.67180690099285, 0.23311303853824, 0
909, 0.61515097758136, 0.27591914468763, 0
910, 0.64538958252868, 0.24899106029805, 0
911, 0.62300330266649, 0.27313724882208, 0
912, 0.61586974920666, 0.25305245031299, 0
913, 0.64690587523781, 0.2426783104842, 0
914, 0.65162875977257, 0.22944379582493, 0
915, 0.64799586232608, 0.26572900215084, 0
916, 0.61770438308045, 0.28337284114511, 0
917, 0.64286599008127, 0.2281244078313, 0
918, 0.60685397266701, 0.25759559060981, 0
919, 0.6721470341416, 0.25351221190578, 0
920, 0.64746807499026, 0.23681958224242, 0
921, 0.62927594902672, 0.25054621678847, 0
922, 0.65964845623371, 0.23977377358804, 0
923, 0.66127985422778, 0.25612443482992, 0
924, 0.53207667395601, 0.29403605307347, 0
925, 0.47794509000752, 0.28365531320363, 0
926, 0.49570081985482, 0.27846327197695, 0
927, 0.48541443032957, 0.27415995391921, 0
928, 0.54906641516091, 0.26989192336379, 0
929, 0.50590042084594, 0.27287602811889, 0
930, 0.57454926400449, 0.26608551265467, 0
931, 0.5608170154279, 0.2764339247638, 0
932, 0.54681161416128, 0.27572617692392, 0
933, 0.56501023684514, 0.27300148041954, 0
934, 0.63598167621253, 0.23101833130595, 0
935, 0.59387121467323, 0.27409969040925, 0
936, 0.59299744936417, 0.2625968841169, 0
937, 0.56405689899694, 0.2679844258844, 0
938, 0.69967958410782, 0.18969457957756, 0
939, 0.69293272625567, 0.19665038154788, 0
940, 0.71895802767579, 0.18805555051606, 0
941, 0.73221778115121, 0.12156298337061, 0
942, 0.72009994298102, 0.20843154335714, 0
943, 0.71240877588438, 0.19659990536478, 0
944, 0.70631487859333, 0.22359805028497, 0
945, 0.73982640081409, 0.22218127802922, 0
946, 0.7054060813697, 0.2044234762125, 0
947, 0.6966309586579, 0.21232609731961, 0
948, 0.67875722730289, 0.20957649146843, 0
949, 0.68583235744402, 0.20331106272431, 0
950, 0.68760577352024, 0.21836901488493, 0
951, 0.67163799305799, 0.21570364515207, 0
952, 0.66413756368593, 0.22175802320915, 0
953, 0.70598947246429, 0.18258158843548, 0
954, 0.72152809055389, 0.18024802346322, 0
955, 0.71180599055977, 0.17545559423823, 0
956, 0.72841126253425, 0.13663762093624, 0
957, 0.73456714141552, 0.16599880108455, 0
958, 0.75619555951654, 0.11935115807796, 0
959, 0.74046662467255, 0.19491374204352, 0
960, 0.72895200223818, 0.15788090285918, 0
961, 0.73711016933356, 0.14505116721952, 0
962, 0.74890374729206, 0.11061076850598, 0
963, 0.74805135428162, 0.12991407425165, 0
964, 0.7888784836181, 0.12210211124811, 0
965, 0.77140936356095, 0.11208540313388, 0
966, 0.75695944427894, 0.10754664447268, 0
967, 0.75965400659293, 0.13799587170556, 0
968, 0.74758184152494, 0.1513671717871, 0
969, 0.73703549723438, 0.17578909664959, 0
970, 0.78673683530742, 0.13774755049747, 0
971, 0.73323020951252, 0.11785026217446, 0
972, 0.74687945387572, 0.12577844897474, 0
973, 0.86163433783282, 0.15041296601391, 0
974, 0.81539181865436, 0.14335028592479, 0
975, 0.8332214309788, 0.11066501371143, 0
976, 0.8678490554758, 0.11732544934737, 0
977, 0.87359105906468, 0.084968794322445, 0
978, 0.84079295177588, 0.082150565987005, 0
979, 0.80216233048229, 0.102117787172, 0
980, 0.79351383114442, 0.078385670604296, 0
981, 0.75171079596972, 0.073729993665636, 0
982, 0.73793197190168, 0.09911695347663, 0
983, 0.74383746882978, 0.029801728057138, 0
984, 0.74687096163239, 0.00015495573691281, 0
985, 0.74456080953292, 0.04475475382396, 0
986, 0.79513887613354, 7.4233346546548e-05, 0
987, 0.7672210959239, 0.040175251890495, 0
988, 0.76194146471713, 0.065887830862566, 0
989, 0.75437651134491, 0.041433861368856, 0
990, 0.74337756618941, 0.0055055178882432, 0
991, 0.75127938281708, 0.084979378275975, 0
992, 0.80859917273567, 0.079137391998859, 0
993, 0.75281549153215, 0.093122114891717, 0
994, 0.82746915209529, 0.026715909332347, 0
995, 0.82804179879077, 0.012862785632729, 0
996, 0.75573091685505, 0.045663947034468, 0
997, 0.74393350982021, 0.0095933115962035, 0
998, 0.7559953333342, 0.028862098547422, 0
999, 0.84538619006615, 0.025954969619083, 0
1000, 0.82755989192086, 0.054130399038981, 0
1001, 0.84440214727592, 0.054368151846341, 0
1002, 0.87717177909691, 0.056816308311302, 0
1003, 0.90188164916655, 0.13610594296039, 0
1004, 0.90770640738922, 0.074994631213259, 0
1005, 0.91710238092617, 0.023431763527041, 0
1006, 0.87988230471037, 0.024343091313814, 0
1007, 0.88668890480068, -0.20866151491107, 0
1008, 0.91814638266313, -0.087529529982841, 0
1009, 0.91002225197858, -0.031327519829471, 0
1010, 0.89163137493761, -0.18264372103953, 0
1011, 0.70616523285396, -0.10738888411032, 0
1012, 0.8781077949318, -0.11042958261644, 0
1013, 0.75299335180889, -0.053632125708434, 0
1014, 0.87835412057207, -0.089826347701203, 0
1015, 0.77095766250999, -0.20248797130216, 0
1016, 0.73844224376725, -0.055179896896639, 0
1017, 0.71861708958152, -0.11113984206405, 0
1018, 0.6859669857988, -0.13762250434769, 0
1019, 0.76097630689091, -0.04604719529981, 0
1020, 0.75741917161031, -0.063836631659337, 0
1021, 0.69091520165352, -0.1314259476064, 0
1022, 0.7413494192524, -0.074165745057454, 0
1023, 0.77272287385503, -0.044910759950555, 0
1024, 0.84081822265228, -0.070979357115612, 0
1025, 0.77370217670312, -0.057839494578024, 0
1026, 0.82374879269782, -0.053423054137822, 0
1027, 0.74732410251387, -0.04488144045846, 0
1028, 0.73924313715509, -0.051279289159936, 0
1029, 0.75878887671113, -0.03216768824171, 0
1030, 0.7525982585684, -0.046954724853766, 0
1031, 0.74280604683923, -0.039534295242975, 0
1032, 0.75134671776082, -0.031345499736397, 0
1033, 0.87493540901758, -0.05290813415407, 0
1034, 0.74881518547945, -0.05562455399125, 0
1035, 0.8661696097403, -0.02987290729604, 0
1036, 0.87603948307165, -0.0083825650545409, 0
1037, 0.84285414732578, -0.028184592236397, 0
1038, 0.84492148139571, -0.0021338615620102, 0
1039, 0.75727329730486, -0.0047385918894014, 0
1040, 0.74162599561545, -0.0021277595127852, 0
1041, 0.74061151436707, -0.0054823079510594, 0
1042, 0.74347827043736, -0.006638216681445, 0
1043, 0.81044712081117, -0.024155919738365, 0
1044, 0.80915996201486, 0.04203879488283, 0
1045, 0.76871237454625, 0.030631774746651, 0
1046, 0.75000954384424, -0.016430896358786, 0
1047, 0.75256220588465, -0.009262325533794, 0
1048, 0.73957403982874, -0.022669812460865, 0
1049, 0.76337702828857, 0.027002232933143, 0
1050, 0.70501180933419, -0.12515811413828, 0
1051, 0.73193358161801, -0.076312275527163, 0
1052, 0.72314706555725, -0.12289928482723, 0
1053, 0.70493395521634, -0.14136549153612, 0
1054, 0.72448824533872, -0.088422851080961, 0
1055, 0.70521610950223, -0.11662959863962, 0
1056, 0.7669719768377, -0.087506220566098, 0
1057, 0.70314534918015, -0.10967630081913, 0
1058, 0.69507231863544, -0.12451367937069, 0
1059, 0.7472579436909, -0.081773505679438, 0
1060, 0.70902955865764, -0.097965266142155, 0
1061, 0.83968781799538, -0.08774365500783, 0
1062, 0.73723291751718, -0.097411374771748, 0
1063, 0.6808916984411, -0.13599122741159, 0
1064, 0.75624004470591, -0.16127339741469, 0
1065, 0.78658798344992, -0.129558912988, 0
1066, 0.69830242772462, -0.11474400328435, 0
1067, 0.7330971882006, -0.13767352357272, 0
1068, 0.61199182079922, -0.19658695325138, 0
1069, 0.60392145004992, -0.19932260612645, 0
1070, 0.61873085211563, -0.20759481826652, 0
1071, 0.60838696667578, -0.20931730008465, 0
1072, 0.58939116715991, -0.20547190514507, 0
1073, 0.59657032165617, -0.20210033511199, 0
1074, 0.60074677526746, -0.20897866876157, 0
1075, 0.57338383817745, -0.21158177739413, 0
1076, 0.58162319032082, -0.2087830289778, 0
1077, 0.49957771484744, -0.22080467070166, 0
1078, 0.54238323420941, -0.24848610762249, 0
1079, 0.45011876986973, -0.22919805870484, 0
1080, 0.50212516734608, -0.24289882388393, 0
1081, 0.48139617214557, -0.21806700797053, 0
1082, 0.50295987227163, -0.2223928815882, 0
1083, 0.49417221024151, -0.22688555749111, 0
1084, 0.51122873664841, -0.22517920869446, 0
1085, 0.50455704336583, -0.22862172507355, 0
1086, 0.54830607786225, -0.21726961997809, 0
1087, 0.55665377995212, -0.21570764306415, 0
1088, 0.50687059140357, -0.2238757867607, 0
1089, 0.53980796061699, -0.21893462829922, 0
1090, 0.55955093317221, -0.22728373464578, 0
1091, 0.5487975027127, -0.26255366345373, 0
1092, 0.53248761763823, -0.24158673415757, 0
1093, 0.54912112044791, -0.24307480748005, 0
1094, 0.61689959851067, -0.24480626911283, 0
1095, 0.59966469460153, -0.24695899285579, 0
1096, 0.57962153652653, -0.24013686088238, 0
1097, 0.59503107357442, -0.23226386186902, 0
1098, 0.54249944224947, -0.23107435612339, 0
1099, 0.56921137499044, -0.22565703822259, 0
1100, 0.56499401380396, -0.2138423105131, 0
1101, 0.5784416028543, -0.22318212859253, 0
1102, 0.58797351747695, -0.21977004254778, 0
1103, 0.60933396582637, -0.22440937443645, 0
1104, 0.59617364553777, -0.21449431814243, 0
1105, 0.73219473765739, -0.12883173384854, 0
1106, 0.68062680227639, -0.14635597503293, 0
1107, 0.66950730309039, -0.15093170607926, 0
1108, 0.68741655162365, -0.14226445492983, 0
1109, 0.71627114052725, -0.088154357381201, 0
1110, 0.72337701002825, -0.10011759208975, 0
1111, 0.68796059685396, -0.12697495132197, 0
1112, 0.68840727548804, -0.13464707096026, 0
1113, 0.68331738250218, -0.13306134056222, 0
1114, 0.68296185086395, -0.17271130900299, 0
1115, 0.66659116041765, -0.15383705414119, 0
1116, 0.65768717490224, -0.16184895148625, 0
1117, 0.65840742426007, -0.17095110145682, 0
1118, 0.67607379394748, -0.16749083803851, 0
1119, 0.79820681675533, -0.09615355066317, 0
1120, 0.75452222920597, -0.1353332070469, 0
1121, 0.65949170965564, -0.18179304983718, 0
1122, 0.66668844995271, -0.17994739516606, 0
1123, 0.65156319316608, -0.1757438305251, 0
1124, 0.64454255446329, -0.18077680740013, 0
1125, 0.65592087440197, -0.18842367805109, 0
1126, 0.63688898238639, -0.18552072683631, 0
1127, 0.64823743114297, -0.19522075272999, 0
1128, 0.62886823476505, -0.18979260457836, 0
1129, 0.6203558008961, -0.19340720796226, 0
1130, 0.62834097811436, -0.20456562618534, 0
1131, 0.63899160914023, -0.20076990786994, 0
1132, 0.65862846542641, -0.21098384549741, 0
1133, 0.68635485432571, -0.19114714803572, 0
1134, 0.66903833182115, -0.19274626000172, 0
1135, 0.7050028243028, -0.18365754804855, 0
1136, 0.72633923368519, -0.17012603979325, 0
1137, 0.72215777211177, -0.21725559778502, 0
1138, 0.74106554536698, -0.17878735539463, 0
1139, 0.63063348811561, -0.21934084286894, 0
1140, 0.71687526421713, -0.20494028545209, 0
1141, 0.7637309531375, -0.096239059748655, 0
1142, 0.66336681304173, -0.23920966603072, 0
1143, 0.63948444719355, -0.24174316546939, 0
1144, 0.89727120192991, -0.13434158508697, 0
1145, 0.97890081781924, -0.16743538722628, 0
1146, 0.74842494370714, -0.2024752274637, 0
1147, 0.81072325537803, -0.13794655384719, 0
1148, 0.95790061577366, -0.16537251166066, 0
1149, 0.74881529267914, -0.1841613393168, 0
1150, 0.73112007657361, -0.24632496885754, 0
1151, 0.83785197044975, -0.10555396020082, 0
1152, 0.7399564863251, -0.19216368715389, 0
1153, 0.11510131370635, 0.066566651688481, 0
1154, 0.10482687373767, 0.045279380889026, 0
1155, 0.11016844093381, 0.012363164545531, 0
1156, 0.32236530655258, 0.23582123792643, 0
1157, 0.3291994747559, 0.23907333609244, 0
1158, 0.32883845343563, 0.23186939754208, 0
1159, 0.57168580619716, -0.23197256970915, 0
1160, 0.57382019040675, -0.22428390115514, 0
1161, 0.58042843038843, -0.22954876596165, 0
1162, 0.86312222604674, 0.1329663236317, 0
1163, 0.8811644966208, 0.14899323913961, 0
1164, 0.88416646387418, 0.12192742997473, 0
1165, 0.22601951882309, 0.27658447529186, 0
1166, 0.1882153184844, 0.20371572757798, 0
1167, 0.16158666904424, 0.14856863157909, 0
1168, 0.54907000126725, -0.23388289989102, 0
1169, 0.55090957151498, -0.22791528619027, 0
1170, 0.53363667841289, -0.25135859740222, 0
1171, 0.37056189495585, 0.236003391537, 0
1172, 0.36279297773446, 0.23746725004958, 0
1173, 0.58198845147185, 0.27543397132783, 0
1174, 0.58304032790139, 0.270055471707, 0
1175, 0.57571312629937, 0.26187071666374, 0
1176, 0.45784905789438, -0.27398585747495, 0
1177, 0.36123917195336, -0.24624040108226, 0
1178, 0.41271137786035, -0.24341246850069, 0
1179, 0.55711345112615, 0.26735999098767, 0
1180, 0.5513495208706, 0.28684905150473, 0
1181, 0.5656376060551, 0.26254442161254, 0
1182, 0.49728891253259, -0.22389833448042, 0
1183, 0.52093895171047, -0.22679767693876, 0
1184, 0.50591943391683, -0.21417074120373, 0
1185, 0.8739050920226, 0.070812598450504, 0
1186, 0.88938306923698, 0.08465199955743, 0
1187, 0.89233633880853, 0.060954407618534, 0
1188, 0.44924963660912, 0.27538177216248, 0
1189, 0.44386692613068, 0.26665419147159, 0
1190, 0.45319427652941, 0.26896601537937, 0
1191, 0.45793275935789, 0.28016581095172, 0
1192, 0.43580598751374, 0.28316202360709, 0
1193, 0.26913439284609, 0.12269065540853, 0
1194, 0.24441793569675, 0.094425729553527, 0
1195, 0.26784427596233, 0.10325278901553, 0
1196, 0.26254530610053, 0.11508586416195, 0
1197, 0.22542789025079, 0.25446046452805, 0
1198, 0.71706896947211, 0.15568482985731, 0
1199, 0.70229966436434, 0.25850816760266, 0
1200, 0.76077112379755, 0.27961798188566, 0
1201, 0.77109768045025, 0.25834646551234, 0
1202, 0.7881147276538, 0.22185028698963, 0
1203, 0.49206632585988, -0.21313841322938, 0
1204, 0.49684934854702, -0.21929943397526, 0
1205, 0.26653234979704, -0.13838815271507, 0
1206, 0.20961244822896, -0.12867815307162, 0
1207, 0.22068515160083, -0.10629118138322, 0
1208, 0.25051974239195, 0.074822496365487, 0
1209, 0.75043062095339, -0.064702004469653, 0
1210, 0.97743548803478, -0.22058133472279, 0
1211, 0.74964178466203, -0.23977412123099, 0
1212, 0.18224205592844, -0.08812807864569, 0
1213, 0.21001093614784, -0.17321761128339, 0
1214, 0.15683615720274, -0.083655382680735, 0
1215, 0.22238406804192, -0.15854736233322, 0
1216, 0.20312701160995, -0.089516585084921, 0
1217, 0.22602959180777, -0.17212153799025, 0
1218, 0.66182157833795, -0.25190821195259, 0
1219, 0.64283998957489, -0.25277623163175, 0
1220, 0.65105162578235, -0.2393821651589, 0
1221, 0.44666680017086, 0.26898720803188, 0
1222, 0.46465851512823, 0.27195197675981, 0
1223, 0.4365343891913, 0.26615685821434, 0
1224, 0.21990136677786, 0.19486710472921, 0
1225, 0.17855272973259, 0.27540200479758, 0
1226, 0.7420932516919, -0.1699397515449, 0
1227, 0.28423042903435, 0.19224972984158, 0
1228, 0.15662261260842, 0.18775236054056, 0
1229, 0.73399374048924, 0.11423596818966, 0
1230, 0.8334269841918, 0.25743397213153, 0
1231, 0.8324799869561, 0.18756171863303, 0
1232, 0.35453599836337, 0.23386118980493, 0
1233, 0.35816639279981, 0.27674002924333, 0
1234, 0.34406251049045, 0.24958259630695, 0
1235, 0.56372242791931, 0.26411706668915, 0
1236, 0.55177614067644, 0.27447795765076, 0
1237, 0.55318647616973, 0.26874153714909, 0
1238, 0.4207481957711, -0.21405650601914, 0
1239, 0.50223440888076, -0.2137779543446, 0
1240, 0.3955274583294, -0.23221721994869, 0
1241, 0.61710772820202, -0.25506945545344, 0
1242, 0.60202950644242, -0.25616713632723, 0
1243, 0.60784834243501, -0.24530510749227, 0
1244, 0.49171311142243, -0.24325547486664, 0
1245, 0.41331969905167, -0.21257806297816, 0
1246, 0.41359089627612, -0.23293850618102, 0
1247, 0.64384856127834, -0.19796523312572, 0
1248, 0.65351666778235, -0.20036681845773, 0
1249, 0.6445695019501, -0.20648010221741, 0
1250, 0.26859445985995, 0.14130388020616, 0
1251, 0.32564554129855, 0.27314813282504, 0
1252, 0.26478623272879, 0.14519955888769, 0
1253, 0.6357036516245, 0.24210597107504, 0
1254, 0.62961412828861, 0.23619261945805, 0
1255, 0.63345559820866, 0.23737840479451, 0
1256, 0.30381598326945, -0.26963034516042, 0
1257, 0.68521764075095, 0.22785273445701, 0
1258, 0.69048659174103, 0.22287604657024, 0
1259, 0.68364854247083, 0.2210137480276, 0
1260, 0.65791423256386, 0.233134536149, 0
1261, 0.67153491743133, 0.27609673294906, 0
1262, 0.6082348351395, 0.2504817342002, 0
1263, 0.66003865323918, 0.26599755737038, 0
1264, 0.63811415539144, 0.26260879051037, 0
1265, 0.60225826837149, 0.25947747355938, 0
1266, 0.2745886483825, -0.061189410058894, 0
1267, 0.30512357847784, -0.17616482652432, 0
1268, 0.3140809063619, -0.13693714221317, 0
1269, 0.26042493423499, -0.15443123931928, 0
1270, 0.25365221043225, -0.16616978412615, 0
1271, 0.22073465236826, -0.14540752143086, 0
1272, 0.69681658824855, -0.11159988891466, 0
1273, 0.92609906309174, -0.27119401204434, 0
1274, 0.77709951619408, -0.24847300854419, 0
1275, 0.50562493389329, 0.28603469118265, 0
1276, 0.48972446169838, 0.27424278415672, 0
1277, 0.47692254723707, 0.27362622928532, 0
1278, 0.42947744778324, -0.22827988281394, 0
1279, 0.49738524025736, -0.23022432576107, 0
1280, 0.80348462196164, -0.17832050326101, 0
1281, 0.81458042752531, -0.11895862796153, 0
1282, 0.74431316414053, -0.11487825315134, 0
1283, 0.69394814687809, -0.11737422538406, 0
1284, 0.74120772776999, -0.092664915697101, 0
1285, 0.3079879506792, -0.13057603340284, 0
1286, 0.25972850191936, -0.10286390414143, 0
1287, 0.7701024786822, 0.067083354300671, 0
1288, 0.7460731723207, 0.076275038041407, 0
1289, 0.62332202506567, -0.2057863940996, 0
1290, 0.6308378711775, -0.21066403753807, 0
1291, 0.62207762104036, -0.21339043117408, 0
1292, 0.24230767704674, 0.017160379022238, 0
1293, 0.24016299077606, -0.033168052012322, 0
1294, 0.64136863463129, 0.27615413701099, 0
1295, 0.45957345769861, -0.25348147336483, 0
1296, 0.44958889065986, -0.21621838478002, 0
1297, 0.45419837900789, -0.21719261412956, 0
1298, 0.61214543578806, 0.24845783976188, 0
1299, 0.62780484079452, 0.2441275332406, 0
1300, 0.77320277806565, 0.1228908457549, 0
1301, 0.79679644587862, 0.17759271534112, 0
1302, 0.17701971184819, 0.095034716363027, 0
1303, 0.21778991582498, 0.078522204901033, 0
1304, 0.22676828401728, 0.070915433455126, 0
1305, 0.60953910582883, 0.26317163889137, 0
1306, 0.38393281039523, 0.2740829356953, 0
1307, 0.39133441591625, 0.25840577056607, 0
1308, 0.34107764370171, -0.15798739115693, 0
1309, 0.3504522774753, -0.16467941111858, 0
1310, 0.2928353901708, -0.15809893908505, 0
1311, 0.21394871806944, -0.11652248022911, 0
1312, 0.28496104713658, -0.13103478906253, 0
1313, 0.348779012949, -0.20639369117217, 0
1314, 0.33090431675545, -0.15087003153019, 0
1315, 0.27008196360648, -0.19920412838065, 0
1316, 0.53821642828474, 0.28811208086224, 0
1317, 0.51969834337858, 0.27314283303389, 0
1318, 0.50031466512445, 0.28765604341302, 0
1319, 0.27617996196786, -0.083938114772129, 0
1320, 0.28195686204594, -0.082941495660308, 0
1321, 0.25844661118473, -0.11732764876917, 0
1322, 0.7172034955954, 0.20071466687591, 0
1323, 0.70847690519672, 0.20026189390552, 0
1324, 0.71117140010153, 0.20778113001403, 0
1325, 0.34690858505699, -0.16778581795137, 0
1326, 0.34898553675942, -0.18023654211173, 0
1327, 0.74618092233666, 0.094145670024662, 0
1328, 0.74046119693005, 0.080080982811933, 0
1329, 0.69655228061187, -0.12102501139168, 0
1330, 0.70045090738023, -0.11149611797073, 0
1331, 0.73226363609485, 0.19253315341877, 0
1332, 0.79132394571179, 0.20694527304818, 0
1333, 0.28280820167445, -0.10214722464972, 0
1334, 0.27252134735488, -0.089310675341157, 0
1335, 0.28377537194387, -0.086487480401979, 0
1336, 0.66767727760373, -0.17301772755283, 0
1337, 0.76469948749678, -0.040506188525606, 0
1338, 0.70456071700978, -0.16946510252379, 0
1339, 0.21981712998015, -0.018025159296624, 0
1340, 0.23826126676124, -0.020536113403441, 0
1341, 0.24900688712169, 0.030551235432819, 0
1342, 0.41196884530732, -0.19688356760235, 0
1343, 0.74380847453971, 0.033437537806843, 0
1344, 0.74723442014032, 0.032963796036164, 0
1345, 0.74381892835904, 0.06091793096831, 0
1346, 0.76136321597551, 0.0075973355275245, 0
1347, 0.76016192653336, 0.0012530057435261, 0
1348, 0.74814530761755, 0.026251557045947, 0
1349, 0.26245009285237, 0.16739555114828, 0
1350, 0.23226753289337, 0.10478460645925, 0
1351, 0.27654813552055, 0.15296708863217, 0
1352, 0.28319861097255, 0.14781995957399, 0
1353, 0.74300158894817, -0.010856078089238, 0
1354, 0.73981957591748, -0.0084508486215863, 0
1355, 0.82663698242679, 0.067335100406867, 0
1356, 0.72463859889462, 0.14446331333966, 0
1357, 0.79973222034376, 0.13034467891028, 0
1358, 0.26380818428323, -0.037536457515053, 0
1359, 0.22627434487331, -0.074770108716645, 0
1360, 0.24285176513651, -0.078640393930105, 0
1361, 0.52063675811632, 0.28744239275191, 0
1362, 0.50632684331095, 0.27994599350457, 0
1363, 0.5377314434585, 0.28250220181908, 0
1364, 0.75023322759346, -0.070190693926422, 0
1365, 0.79808937095753, -0.063523741015369, 0
1366, 0.7109306697192, -0.23558069312035, 0
1367, 0.73056011981136, -0.15787420958409, 0
1368, 0.71374147150753, -0.26639741217807, 0
1369, 0.21373417873245, 0.03046528960831, 0
1370, 0.25827556683585, 0.01047298476611, 0
1371, 0.24316889744155, 0.0018129852539359, 0
1372, 0.79384452403393, -0.11188320760961, 0
1373, 0.78647742522285, -0.17037789293287, 0
1374, 0.71565929507987, -0.10628131654392, 0
1375, 0.75703736763703, -0.050418983111464, 0
1376, 0.80494052355614, -0.049319370585259, 0
1377, 0.39741221459431, 0.27998189020693, 0
1378, 0.34629399106733, 0.2431102910054, 0
1379, 0.33979109127179, 0.23222874406649, 0
1380, 0.59050422688321, -0.24689217155161, 0
1381, 0.58849897360615, -0.23500432199001, 0
1382, 0.59832807503034, -0.23917451244217, 0
1383, 0.25216465748473, -0.042238018509864, 0
1384, 0.25510959257204, -0.046975049124335, 0
1385, 0.25841632814771, -0.051205904497578, 0
1386, 0.23613663350281, 0.042585012381622, 0
1387, 0.22731982711705, 0.064042542705738, 0
1388, 0.2351541447026, 0.060089643206301, 0
1389, 0.25366619260339, 0.014973298296182, 0
1390, 0.24109800628965, -0.0030860485243084, 0
1391, 0.25283475217189, -0.0024446126522727, 0
1392, 0.4353167044107, -0.20607954061358, 0
1393, 0.47770817158088, -0.2234977445732, 0
1394, 0.73292027633388, -0.14731898994385, 0
1395, 0.7127335086865, -0.14390563481261, 0
1396, 0.71561169440057, -0.11851210430332, 0
1397, 0.75210907705716, 0.088916402206766, 0
1398, 0.73930247160379, 0.091392907791574, 0
1399, 0.77709031095632, 0.078526245038638, 0
1400, 0.61598491379326, 0.24627412727827, 0
1401, 0.62417977248509, 0.24734914247141, 0
1402, 0.20573720045259, -0.27861324819357, 0
1403, 0.72968886224356, -0.080494187487283, 0
1404, 0.71855076463765, -0.084657057390801, 0
1405, 0.75638051282295, 0.060236691434013, 0
1406, 0.74898475947982, 0.0089068229309081, 0
1407, 0.76335267110532, 0.060065886555327, 0
1408, 0.4635022706367, -0.21838504990708, 0
1409, 0.47684072986657, -0.2136198195163, 0
1410, 0.33970305347641, -0.27176203549402, 0
1411, 0.39204912237729, -0.28243275809392, 0
1412, 0.19977119190534, -0.25647174201367, 0
1413, 0.39078326251346, -0.20342512427655, 0
1414, 0.3696663837378, -0.27113573600838, 0
1415, 0.043478631951962, -0.17184180977149, 0
1416, 0.02213758916257, -0.19676797892569, 0
1417, 0.021385734950259, -0.14197443172282, 0
1418, 0.021726892010412, -0.16952691944067, 0
1419, 0.95465608890922, 0.10754181224579, 0
1420, 0.9768763421298, 0.13701476739565, 0
1421, 0.97788117417219, 0.080241432004441, 0
1422, 0.97734143728622, 0.10855057911806, 0
1423, 0.42461279808756, -0.20579945329707, 0
1424, 0.47938320439279, -0.25973188309995, 0
1425, 0.51761288285538, -0.28099723871324, 0
1426, 0.41829414161642, -0.19817487178498, 0
1427, 0.50003707235083, 0.27780054465482, 0
1428, 0.4786964932011, 0.28896447864709, 0
1429, 0.4811479935167, 0.27395082262526, 0
1430, 0.53236281058893, 0.27757455615117, 0
1431, 0.50912329057769, 0.27441148816709, 0
1432, 0.47321001507883, 0.28866683139131, 0
1433, 0.46763580427126, 0.29396595810644, 0
1434, 0.47369868277962, 0.29428752164333, 0
1435, 0.041573133625413, 0.10806765335933, 0
1436, 0.02055210947648, 0.079942776974261, 0
1437, 0.021475241714884, 0.13540173905655, 0
1438, 0.020823783799212, 0.10769151086292, 0
1439, 0.53846226118931, 0.29398522594232, 0
1440, 0.51913318343606, 0.29331824249866, 0
1441, 0.52574892546685, 0.29386943658824, 0
1442, 0.50933939852684, 0.27774164290691, 0
1443, 0.97900493767805, 0.024753026295745, 0
1444, 0.97902337735473, -0.030646344246005, 0
1445, 0.95793960709327, -0.0030204642229489, 0
1446, 0.97906626279035, -0.0028017324495975, 0
1447, 0.12016022720681, -0.25320146965793, 0
1448, 0.15122297382416, -0.27730716984129, 0
1449, 0.098830998998185, -0.27614691616703, 0
1450, 0.1247136241538, -0.27674145042142, 0
1451, 0.020925656628835, -0.032080223397008, 0
1452, 0.04202426993904, -0.06144280278538, 0
1453, 0.021159564093071, -0.086967470066292, 0
1454, 0.021019187272951, -0.059553863386777, 0
1455, 0.97961346910524, -0.08630865101909, 0
1456, 0.95846251939125, -0.059115458011546, 0
1457, 0.97938068232253, -0.058652116828537, 0
1458, 0.12645048572833, 0.24629521028193, 0
1459, 0.10112291788006, 0.2729376379818, 0
1460, 0.1532534501128, 0.274232834417, 0
1461, 0.12717211682341, 0.27338459186653, 0
1462, 0.70747316551439, -0.15062600792571, 0
1463, 0.71391140340664, -0.091542643822722, 0
1464, 0.69481098707038, -0.23830027896794, 0
1465, 0.95722638824789, 0.05119819525369, 0
1466, 0.97858831626414, 0.052332217429541, 0
1467, 0.044626471198157, 0.16261258707084, 0
1468, 0.023163655185042, 0.19077667954531, 0
1469, 0.022311098173961, 0.16307191120004, 0
1470, 0.36703294155258, 0.23450230135111, 0
1471, 0.37598183294322, 0.24295609607762, 0
1472, 0.51127434265269, 0.27535384246618, 0
1473, 0.52648028985538, 0.28808414015265, 0
1474, 0.50709331496743, 0.27553909555449, 0
1475, 0.75155262942451, -0.0018524559211235, 0
1476, 0.74809726498303, -0.012232021229257, 0
1477, 0.78134250018601, -0.019713581896683, 0
1478, 0.56273335109486, -0.20799228855282, 0
1479, 0.56081200172229, -0.21481778271661, 0
1480, 0.55490319285875, -0.20984845043809, 0
1481, 0.55881728413513, -0.20895497631238, 0
1482, 0.24989296310228, 0.026299071167921, 0
1483, 0.25683880986994, 0.016691698967637, 0
1484, 0.18215286575657, 0.0067865993679508, 0
1485, 0.26075848410571, -0.076462048707702, 0
1486, 0.26726243234707, -0.076218683116288, 0
1487, 0.26891432989066, -0.049043567508778, 0
1488, 0.26040244773297, -0.044006081489942, 0
1489, 0.021045043371244, 0.023840392276399, 0
1490, 0.042274820199002, -0.0050199049530312, 0
1491, 0.021083060939649, -0.0042786484494961, 0
1492, 0.28455542501651, -0.1040118119098, 0
1493, 0.31095527970087, -0.13381013279512, 0
1494, 0.24594608079904, -0.086230013410155, 0
1495, 0.24527107294438, -0.13796975297528, 0
1496, 0.27552544853872, 0.14186692234572, 0
1497, 0.26023812441663, 0.19277730478721, 0
1498, 0.17667895307315, 0.047310805049206, 0
1499, 0.44299488520871, 0.2744051110589, 0
1500, 0.46868667270439, 0.27263786869767, 0
1501, 0.46069818260031, 0.27111411079281, 0
1502, 0.44445859965389, 0.26973073448975, 0
1503, 0.67203899043658, -0.17831541958017, 0
1504, 0.76919701531021, -0.11270708248127, 0
1505, 0.67163257291927, -0.17046722245836, 0
1506, 0.25433550553245, 0.048642401763009, 0
1507, 0.24810185481358, 0.052305301519413, 0
1508, 0.25481846096914, 0.056830387176206, 0
1509, 0.2545777537313, 0.052732940818524, 0
1510, 0.34398152670294, 0.23481438649257, 0
1511, 0.37473427430398, 0.26342100405125, 0
1512, 0.33903413334446, 0.2656607239017, 0
1513, 0.48854027307718, -0.21332146138528, 0
1514, 0.49499600475622, -0.21811924394184, 0
1515, 0.58052944761928, 0.28109625671057, 0
1516, 0.57906873673426, 0.26565921992941, 0
1517, 0.57610576972346, 0.27542077201647, 0
1518, 0.57085106306764, 0.28659910811255, 0
1519, 0.65750747065719, 0.27684055135962, 0
1520, 0.6197220388355, 0.24392985250783, 0
1521, 0.6060593715659, 0.27128934576147, 0
1522, 0.64728036698015, 0.2313499272763, 0
1523, 0.67473001303801, -0.15693662175986, 0
1524, 0.69763990380026, -0.11768889359196, 0
1525, 0.72398999895631, -0.12999091854242, 0
1526, 0.65457910755769, -0.16432348381226, 0
1527, 0.049977654582738, 0.27279420813694, 0
1528, 0.02448573284003, 0.24577165355325, 0
1529, 0.024917571841289, 0.27293225191487, 0
1530, 0.85601093192097, -0.1287080828805, 0
1531, 0.93229877679043, -0.21573324307882, 0
1532, 0.97650575382352, -0.24707016239941, 0
1533, 0.55649405229624, 0.27268676088291, 0
1534, 0.54323646447513, 0.28194111921518, 0
1535, 0.54486020692512, 0.27081870732211, 0
1536, 0.57279757253141, 0.27031655574774, 0
1537, 0.39653688038998, -0.19258402521548, 0
1538, 0.52537158301965, -0.24202275076166, 0
1539, 0.40851523124665, -0.21423959964437, 0
1540, 0.74540683633856, 0.17390152127324, 0
1541, 0.75173615373453, 0.12305438565582, 0
1542, 0.73603515010441, 0.10676699158892, 0
1543, 0.32349839192636, 0.20303705930933, 0
1544, 0.32085824670315, 0.21066042544676, 0
1545, 0.32964793770769, 0.20883118570102, 0
1546, 0.32653042444631, 0.20598198811997, 0
1547, 0.52200470857239, -0.2146657435357, 0
1548, 0.55638032605805, -0.24946272615732, 0
1549, 0.49873578898923, -0.21337702586403, 0
1550, 0.62335802487699, -0.18429893531757, 0
1551, 0.62452182672956, -0.19163490708054, 0
1552, 0.61567291364479, -0.18797364730291, 0
1553, 0.61948209601824, -0.18615797530679, 0
1554, 0.535361608591, -0.21963321196376, 0
1555, 0.50270782295477, -0.255687897914, 0
1556, 0.5388624034059, -0.2129359287886, 0
1557, 0.53469367185055, -0.21354957965773, 0
1558, 0.60801018004085, -0.19133879155726, 0
1559, 0.6079603814867, -0.19802586880347, 0
1560, 0.60056862954157, -0.19445149631389, 0
1561, 0.60426278012485, -0.19292159249574, 0
1562, 0.66527265452798, -0.16598065323891, 0
1563, 0.67565457087373, -0.18487503693489, 0
1564, 0.67198485083387, -0.14790858001986, 0
1565, 0.2563827306042, -0.035188472240035, 0
1566, 0.24918328430417, -0.050641277116508, 0
1567, 0.26239551818165, -0.033422286860126, 0
1568, 0.44767486656579, -0.20984952945163, 0
1569, 0.40653919532906, -0.20931400549324, 0
1570, 0.39282925040535, -0.22449393209336, 0
1571, 0.40032091125126, -0.19911583277319, 0
1572, 0.55532784801013, 0.27935670322535, 0
1573, 0.56810801053788, 0.26951367276129, 0
1574, 0.28924196338483, -0.16870509290314, 0
1575, 0.28411598800526, -0.20538959137197, 0
1576, 0.76525989776173, 0.083884239039508, 0
1577, 0.75896030651845, 0.10236379269132, 0
1578, 0.74594284297323, 0.086425608343748, 0
1579, 0.75356106471366, 0.069728921758219, 0
1580, 0.90066383072206, 0.2751405298277, 0
1581, 0.87855088469062, 0.25169913267945, 0
1582, 0.85144002595863, 0.27752324868653, 0
1583, 0.87581521686639, 0.27619638844976, 0
1584, 0.49117529095084, 0.2788111973506, 0
1585, 0.52801083732722, 0.27296335722224, 0
1586, 0.56660170168719, 0.26541791799972, 0
1587, 0.51458487950681, 0.27637098793646, 0
1588, 0.52580276385916, -0.23394790410016, 0
1589, 0.54683192222076, -0.28213047718951, 0
1590, 0.53217818369588, -0.28199903251096, 0
1591, 0.3360719192515, 0.21418622076128, 0
1592, 0.33547008187626, 0.22186191727086, 0
1593, 0.34254767322107, 0.21921338242323, 0
1594, 0.33931589333558, 0.21672323686231, 0
1595, 0.24831387708081, -0.060626575774534, 0
1596, 0.2615282939974, -0.065922605268065, 0
1597, 0.40321377415032, -0.215572641914, 0
1598, 0.40267980381653, -0.22992591394023, 0
1599, 0.38165922821542, 0.25965494626424, 0
1600, 0.4242624333124, 0.26394521761238, 0
1601, 0.35857079682661, 0.28755170629314, 0
1602, 0.37180857701225, 0.24338469379476, 0
1603, 0.48540023332629, -0.21751390572664, 0
1604, 0.25571782726435, 0.065112286998948, 0
1605, 0.2495176690292, 0.070212976696675, 0
1606, 0.27487842920631, 0.1248586992096, 0
1607, 0.25643317912588, 0.069276861280397, 0
1608, 0.27523738225286, 0.16282186633142, 0
1609, 0.24954900947785, 0.0035116858049722, 0
1610, 0.26158026209696, 0.098865950008504, 0
1611, 0.27079074615647, 0.11360842607369, 0
1612, 0.49824554090819, 0.27392807824641, 0
1613, 0.53710490485912, 0.27720048132801, 0
1614, 0.49401920680771, 0.27417572555954, 0
1615, 0.52307306773967, 0.27760428813673, 0
1616, 0.71412012794743, 0.15929468583634, 0
1617, 0.73159891197118, 0.12520503113453, 0
1618, 0.74900108604144, 0.14548252001616, 0
1619, 0.24845017718494, 0.061072333529494, 0
1620, 0.25524983534668, 0.060957495556801, 0
1621, 0.65721887327035, 0.21912644886639, 0
1622, 0.60031087397658, 0.25408941214764, 0
1623, 0.61872306048072, 0.26655119094595, 0
1624, 0.60418971451561, 0.26517858167826, 0
1625, 0.62747245800772, 0.28098088523614, 0
1626, 0.64299326936492, 0.23282292461179, 0
1627, 0.34185432472309, -0.17807930106802, 0
1628, 0.32940717091836, -0.21098084118907, 0
1629, 0.36496730490829, -0.18550071931971, 0
1630, 0.24587286322882, -0.020902187806145, 0
1631, 0.22135524532308, -0.0096881254375036, 0
1632, 0.28445255605982, -0.097741184891939, 0
1633, 0.25019653132132, -0.092788849480654, 0
1634, 0.29476701742187, -0.12948102914701, 0
1635, 0.27659679142279, -0.11196468349199, 0
1636, 0.79785238626395, -0.23264783199902, 0
1637, 0.93508003298652, -0.18918785861179, 0
1638, 0.93879814850718, -0.11230047539093, 0
1639, 0.72210195781298, 0.14837043347629, 0
1640, 0.74032360051734, 0.12753483842296, 0
1641, 0.76098042356942, 0.12321425015535, 0
1642, 0.52239385145238, -0.26462650748126, 0
1643, 0.49023338142604, -0.22972988397152, 0
1644, 0.71035250357201, -0.11986644268051, 0
1645, 0.71948628421352, -0.10338133989268, 0
1646, 0.67853086806994, -0.13888849414818, 0
1647, 0.70799914194238, -0.1359044102771, 0
1648, 0.72160918000882, -0.09211271068629, 0
1649, 0.78049384969441, -0.091154002898968, 0
1650, 0.43253282034052, 0.26561346860357, 0
1651, 0.64261358595166, 0.25572499710477, 0
1652, 0.37276425367988, 0.28468157975978, 0
1653, 0.3738064288087, 0.23709855495316, 0
1654, 0.27298540980544, 0.14541929858044, 0
1655, 0.2527250941149, 0.094978644406779, 0
1656, 0.42887250340714, 0.27697515410878, 0
1657, 0.43300005353959, 0.27099694921472, 0
1658, 0.45049143662718, 0.28283196558544, 0
1659, 0.2542041857414, 0.040450073694493, 0
1660, 0.24805590680909, 0.043704331701682, 0
1661, 0.25426005865395, 0.044562459233326, 0
1662, 0.64242300422397, 0.23768226552702, 0
1663, 0.66062266318668, 0.21649769265135, 0
1664, 0.63348016827365, 0.23148160433566, 0
1665, 0.65317255497085, 0.24168412639982, 0
1666, 0.42468113590345, -0.2333359059731, 0
1667, 0.48214884398897, -0.24070259151266, 0
1668, 0.2420231558033, -0.055259145013729, 0
1669, 0.26323173702577, -0.061441282023365, 0
1670, 0.27969047685206, -0.17566336284395, 0
1671, 0.31173655565797, -0.16851750299745, 0
1672, 0.2594339853851, 0.081578180104061, 0
1673, 0.2655942583594, 0.10732749488113, 0
1674, 0.2582707166579, 0.077537930543856, 0
1675, 0.21300213387124, 0.14907152871415, 0
1676, 0.29432593512289, 0.19053459643017, 0
1677, 0.26494013536427, 0.10440529833116, 0
1678, 0.35693129440681, 0.25292273631928, 0
1679, 0.41078902691702, 0.28284085026182, 0
1680, 0.33437081675056, 0.25365376548678, 0
1681, 0.41178214189635, 0.2602540576751, 0
1682, 0.30502539534919, -0.1656838949947, 0
1683, 0.24821444426057, -0.1806549931401, 0
1684, 0.28988977215102, -0.14033266834037, 0
1685, 0.22843136700889, 0.01531200781233, 0
1686, 0.2384726159345, -0.014393132266828, 0
1687, 0.2560732099626, 0.020319393066456, 0
1688, 0.25762754245913, -0.0036758692608745, 0
1689, 0.74834634823308, 0.07945680884026, 0
1690, 0.75247054802518, 0.097674296060222, 0
1691, 0.27792051932275, 0.18872671267167, 0
1692, 0.53082286409973, -0.22021814859436, 0
1693, 0.48816909730998, -0.23761022998543, 0
1694, 0.51431660854952, -0.23238974126272, 0
1695, 0.45440895221195, -0.23695553470944, 0
1696, 0.42884155055318, -0.22048785439692, 0
1697, 0.74912599479005, -0.097656685974021, 0
1698, 0.70801175709892, -0.11112785419193, 0
1699, 0.73671174059106, -0.063437959114343, 0
1700, 0.6547471179877, -0.17327836955641, 0
1701, 0.64465199222617, -0.17146914342176, 0
1702, 0.65122743761435, -0.16671145449618, 0
1703, 0.64785206384123, -0.16907350219345, 0
1704, 0.75005003163982, -0.12395212975668, 0
1705, 0.70930418177296, -0.10478102003463, 0
1706, 0.74317105676245, -0.13688093488608, 0
1707, 0.36729379336981, 0.24316855562531, 0
1708, 0.34921593471764, 0.22405538135942, 0
1709, 0.27393689058557, -0.058217621280583, 0
1710, 0.21506529784157, -0.056518484219322, 0
1711, 0.26535513197916, -0.051621657728698, 0
1712, 0.31801025868351, -0.16185099799904, 0
1713, 0.35441008505849, -0.17645176073956, 0
1714, 0.57852618052096, -0.2032731113188, 0
1715, 0.57749643057136, -0.21021851156655, 0
1716, 0.57064022406415, -0.20583126241119, 0
1717, 0.57462742339723, -0.20461659199847, 0
1718, 0.95294849507146, 0.16538977587375, 0
1719, 0.97631993840526, 0.19323713680858, 0
1720, 0.97661389410581, 0.16531545020158, 0
1721, 0.23948357857509, -0.0085260880136798, 0
1722, 0.4677503195569, -0.23714286139196, 0
1723, 0.41128107154132, -0.21921413776489, 0
1724, 0.40569485700105, -0.2213636619632, 0
1725, 0.51268995153733, -0.21984998768785, 0
1726, 0.34060019570309, -0.16417804751627, 0
1727, 0.3575151679538, -0.1796403200486, 0
1728, 0.33780209993273, -0.15571354982214, 0
1729, 0.46922468254194, -0.26226544766452, 0
1730, 0.43938400463609, -0.20748316336179, 0
1731, 0.26669911364685, -0.091423619091787, 0
1732, 0.2801650180239, -0.091256962600639, 0
1733, 0.27490874394122, -0.093076746490012, 0
1734, 0.28757946729939, -0.10354553088142, 0
1735, 0.20225348304314, -0.060971868471096, 0
1736, 0.19530701857956, -0.078824760118953, 0
1737, 0.29117586600448, -0.12146947266644, 0
1738, 0.2875535706156, -0.093228629674457, 0
1739, 0.46199503740308, 0.28717948365281, 0
1740, 0.4515781414392, 0.27220640407209, 0
1741, 0.41536889525126, -0.19755276386378, 0
1742, 0.38457005132216, -0.18783206528947, 0
1743, 0.44213405026058, -0.22026598119959, 0
1744, 0.27175351531972, -0.15161655678138, 0
1745, 0.28795524782321, -0.10665359621935, 0
1746, 0.28573216452576, -0.08992892483932, 0
1747, 0.74506842322157, -0.026557347630855, 0
1748, 0.73837858788522, -0.030724942562069, 0
1749, 0.74923259721125, 0.017956826965292, 0
1750, 0.73908591214322, -0.026687361996995, 0
1751, 0.73418135115251, -0.046480890773065, 0
1752, 0.73650146393777, -0.038698368786286, 0
1753, 0.73535702245051, -0.042616074145076, 0
1754, 0.23043968475249, -0.012563202234383, 0
1755, 0.25277997996918, -0.020908732306348, 0
1756, 0.25774982395245, -0.0078283528300212, 0
1757, 0.17177888928455, -0.25537624839257, 0
1758, 0.34500056566536, -0.28577529856727, 0
1759, 0.17812778056806, -0.27788103269694, 0
1760, 0.56070675599211, 0.26578854551739, 0
1761, 0.51573926508682, 0.27295178712212, 0
1762, 0.52382756597559, 0.27314083154785, 0
1763, 0.48793713834607, 0.28381228611863, 0
1764, 0.73193984807035, -0.054157176321738, 0
1765, 0.7446539470704, -0.030975849064111, 0
1766, 0.72954659391461, -0.061909292718376, 0
1767, 0.73079670975462, -0.058020678185517, 0
1768, 0.68949988802136, 0.20004127782702, 0
1769, 0.68648024358192, 0.19267637644835, 0
1770, 0.68014593233122, 0.19906065428886, 0
1771, 0.68329683735644, 0.19589521045639, 0
1772, 0.42351807726837, 0.27675645445271, 0
1773, 0.42361843594209, 0.28395730146158, 0
1774, 0.77891343539274, 0.17550931520985, 0
1775, 0.041533199755571, 0.053171769082522, 0
1776, 0.02078450325054, 0.052082931012149, 0
1777, 0.70945349476036, -0.11526360892153, 0
1778, 0.68377204991814, -0.1404037301187, 0
1779, 0.3562094285583, 0.22864795761526, 0
1780, 0.40416272953526, 0.28166895610212, 0
1781, 0.35777613479585, 0.24107754301059, 0
1782, 0.4133825370347, -0.20371029792787, 0
1783, 0.32314469306731, -0.16408899223392, 0
1784, 0.33325895610099, -0.16739876905066, 0
1785, 0.27206175534885, -0.071859273851533, 0
1786, 0.26710181207427, -0.04538938014585, 0
1787, 0.30843759913834, 0.19708550919824, 0
1788, 0.31764641690286, 0.19697283876882, 0
1789, 0.31226687835754, 0.19077359505096, 0
1790, 0.314973404598, 0.19387928741811, 0
1791, 0.22572732253271, 0.097396871294293, 0
1792, 0.19984330936148, 0.1322627882062, 0
1793, 0.25219550196247, -0.011383299669756, 0
1794, 0.25724452097991, 0.073433599271819, 0
1795, 0.75859235415365, -0.01994626471928, 0
1796, 0.074281944655056, 0.24535929642403, 0
1797, 0.075355034431554, 0.27277228207239, 0
1798, 0.74719605878466, 0.11429499721452, 0
1799, 0.77804311202396, 0.16306974221695, 0
1800, 0.66729198422476, 0.21094442504495, 0
1801, 0.67524451674175, 0.21264213527296, 0
1802, 0.67373923469976, 0.20512078718938, 0
1803, 0.6705278487891, 0.20805520995336, 0
1804, 0.76878034226243, 0.014839061297123, 0
1805, 0.7510718948991, 0.03475642737883, 0
1806, 0.82830550367698, -0.0005591702607083, 0
1807, 0.74460008235047, 0.052799682293672, 0
1808, 0.75274840598105, 0.037744109413186, 0
1809, 0.78027045450373, 0.0086941979319589, 0
1810, 0.45943836659622, 0.27545375313427, 0
1811, 0.42374859606415, 0.27013950338687, 0
1812, 0.75215144578476, 0.027062347642561, 0
1813, 0.75445167601931, 0.018363457698461, 0
1814, 0.7420981120656, -0.008646631672777, 0
1815, 0.74915255368385, 0.064833252830857, 0
1816, 0.61607468772859, -0.19502218200408, 0
1817, 0.61185759875764, -0.18970441727037, 0
1818, 0.25449758705493, 0.03219665111827, 0
1819, 0.25541507664638, 0.024151229422849, 0
1820, 0.2426974234178, 0.033557448308512, 0
1821, 0.74343768150219, -0.064437698424694, 0
1822, 0.73756091687008, -0.034727370896518, 0
1823, 0.74016666738812, 0.13158965865161, 0
1824, 0.73090164015838, 0.12891022061879, 0
1825, 0.26476443213742, 0.13652191030146, 0
1826, 0.28070482535502, 0.13601969490211, 0
1827, 0.21591483036919, 0.10285820509203, 0
1828, 0.28416805975983, 0.16377394757658, 0
1829, 0.25251000028697, 0.20440783832297, 0
1830, 0.29033325445864, 0.18729449304833, 0
1831, 0.28693548735419, 0.14643989935823, 0
1832, 0.36691184198767, 0.23877140466701, 0
1833, 0.23111772271043, -0.034444559275397, 0
1834, 0.25094510558565, 0.022190312412135, 0
1835, 0.25237903458541, -0.0068021499524542, 0
1836, 0.023495963420975, -0.24939749505778, 0
1837, 0.04859757442661, -0.27513077684139, 0
1838, 0.024230598438829, -0.2747989304318, 0
1839, 0.26652018781452, 0.12900274287617, 0
1840, 0.25944052541246, 0.12574442419503, 0
1841, 0.28736083613944, 0.14949110038389, 0
1842, 0.32844354846163, -0.16591790482498, 0
1843, 0.37340776614802, -0.19041286703608, 0
1844, 0.34168301954272, -0.1693678222337, 0
1845, 0.66598914674109, 0.23688279604085, 0
1846, 0.72706758718625, -0.096542652731539, 0
1847, 0.71869337274463, -0.095584389273071, 0
1848, 0.95220203911464, 0.22089219631568, 0
1849, 0.97576243625189, 0.24729266996134, 0
1850, 0.97610104429218, 0.22046347204125, 0
1851, 0.75333499287356, -0.1735518505888, 0
1852, 0.95931548926506, -0.11288706258497, 0
1853, 0.71178370828828, -0.10888492043887, 0
1854, 0.58834267279549, 0.26385294984024, 0
1855, 0.59222944351705, 0.25720253991948, 0
1856, 0.58811518823634, 0.25858963653702, 0
1857, 0.59763662659003, 0.26113846350511, 0
1858, 0.59629002987923, 0.25570360096722, 0
1859, 0.56814863203021, 0.26280127761523, 0
1860, 0.58369011705282, 0.26488855934847, 0
1861, 0.042643309754334, -0.11709571160876, 0
1862, 0.021273862701827, -0.11448299419187, 0
1863, 0.40915552263153, 0.29117040883131, 0
1864, 0.3708691508181, 0.23963688073419, 0
1865, 0.33306621497091, 0.24302514879555, 0
1866, 0.37622738240554, 0.23749879670669, 0
1867, 0.59296449043007, -0.20370120114274, 0
1868, 0.5860932910254, -0.20041165234815, 0
1869, 0.59329311344713, -0.19741446153996, 0
1870, 0.58974487095739, -0.19893705615887, 0
1871, 0.67440176406054, -0.14485802563707, 0
1872, 0.76793494143212, -0.13297686836269, 0
1873, 0.74427494051971, 0.013722224385042, 0
1874, 0.74991464639664, 0.060533771571238, 0
1875, 0.76383461170434, 0.035315998853925, 0
1876, 0.75900954923927, 0.03887674612956, 0
1877, 0.74521183576833, -0.0036054955344107, 0
1878, 0.75635406394105, -0.014031171262531, 0
1879, 0.54412841290505, -0.21814467551847, 0
1880, 0.54698039360409, -0.21145919416132, 0
1881, 0.54295135652378, -0.21221986464618, 0
1882, 0.41913795593975, -0.23841582208479, 0
1883, 0.40954893788478, -0.2042516493902, 0
1884, 0.70121080964848, -0.11418450696443, 0
1885, 0.69020755619822, -0.12379006119884, 0
1886, 0.640913870868, -0.18324619730991, 0
1887, 0.63080918213144, -0.18033804643312, 0
1888, 0.63787137731062, -0.17606836624894, 0
1889, 0.63430185765375, -0.17822342139784, 0
1890, 0.52716567718454, 0.28272482265006, 0
1891, 0.52767877451569, 0.27772089829309, 0
1892, 0.50900934602057, 0.27234214422964, 0
1893, 0.76092977447985, 0.079046243212257, 0
1894, 0.75970129638081, 0.091755986362446, 0
1895, 0.27447056743486, -0.12642438325361, 0
1896, 0.28733202250911, -0.13573040483847, 0
1897, 0.3022682883182, -0.15274360672639, 0
1898, 0.69250728111428, 0.18613899930799, 0
1899, 0.70274240379032, 0.18616243122559, 0
1900, 0.69810405800639, 0.17953880072294, 0
1901, 0.69536750193632, 0.1828470064819, 0
1902, 0.78112543711726, 0.068275554753009, 0
1903, 0.75033574579072, 0.056133356760082, 0
1904, 0.76131358425313, 0.043355447733594, 0
1905, 0.74391705798199, -0.035314610564081, 0
1906, 0.72805995526199, -0.065795107647882, 0
1907, 0.71457143183792, 0.17206538664927, 0
1908, 0.70353338967739, 0.1728735161679, 0
1909, 0.70609800994359, 0.16953487287347, 0
1910, 0.55246900826599, -0.21648079444493, 0
1911, 0.55094474265917, -0.21065726966461, 0
1912, 0.27800285233579, -0.087673577384643, 0
1913, 0.19167379779822, -0.13733189256251, 0
1914, 0.29256878279241, -0.12547342887602, 0
1915, 0.74259696399661, 0.0015706671572457, 0
1916, 0.77346304743475, 0.024640201579204, 0
1917, 0.91330184635952, -0.1862524308013, 0
1918, 0.82817228309331, -0.16554425625311, 0
1919, 0.95661175418035, -0.19172318199155, 0
1920, 0.49002736274701, -0.22028974392603, 0
1921, 0.69047401017838, -0.13968609351153, 0
1922, 0.70095018791434, -0.12108200769629, 0
1923, 0.75343628977389, -0.091413255429708, 0
1924, 0.77177570884201, 0.059746257109176, 0
1925, 0.65372604481314, 0.22162589342985, 0
1926, 0.63207016052705, 0.23360664768556, 0
1927, 0.31427353415231, 0.20399687730103, 0
1928, 0.32052700209123, 0.20003041608061, 0
1929, 0.18629343613462, 0.022735020115638, 0
1930, 0.23668228961342, 0.032231196465211, 0
1931, 0.75068559916278, 0.19753405714797, 0
1932, 0.77904305238651, 0.18952093214672, 0
1933, 0.32814407725133, 0.21658445160938, 0
1934, 0.33287759366422, 0.21155068180555, 0
1935, 0.60776625418132, 0.27787093382266, 0
1936, 0.62496291443611, 0.25443130018447, 0
1937, 0.69831374294884, -0.12898496933161, 0
1938, 0.70913017810072, 0.17897487427776, 0
1939, 0.70095909059555, 0.17620571290849, 0
1940, 0.74024060230644, -0.04746356582478, 0
1941, 0.7331281810289, -0.050318997168031, 0
1942, 0.43622374056055, -0.21186609506395, 0
1943, 0.41980968228965, -0.24971715915337, 0
1944, 0.41107860888456, -0.20838765821253, 0
1945, 0.41999987949823, -0.22085197535593, 0
1946, 0.68536862718514, -0.1553734894735, 0
1947, 0.67643750595488, -0.14182730683348, 0
1948, 0.74427412256526, 0.021978140271859, 0
1949, 0.76367653538195, 0.054165208235025, 0
1950, 0.517066636349, 0.28134924426601, 0
1951, 0.49494601369788, 0.28851262806969, 0
1952, 0.46189216051498, -0.23056988303084, 0
1953, 0.42760174319408, -0.20291110796482, 0
1954, 0.414886989167, -0.22414322615332, 0
1955, 0.79525488550894, -0.19766130741887, 0
1956, 0.90524073645491, -0.24034968425915, 0
1957, 0.48196761506864, 0.27881574137892, 0
1958, 0.53229764397585, 0.28825656331389, 0
1959, 0.28281772102781, 0.15133440378661, 0
1960, 0.40005409148971, 0.26321240386907, 0
1961, 0.2792658328025, 0.1452265684836, 0
1962, 0.27559926912638, 0.20790385965821, 0
1963, 0.25773407619146, -0.14649406789479, 0
1964, 0.1916797732983, -0.17232513017086, 0
1965, 0.45684667084819, 0.27011175941862, 0
1966, 0.43122554366749, 0.29160644548471, 0
1967, 0.42842307989211, 0.2648690986408, 0
1968, 0.43849645866011, 0.29096691879232, 0
1969, 0.49326060445473, -0.23404432974145, 0
1970, 0.50139317486044, -0.23351731798968, 0
1971, 0.54506722596269, 0.29376437187733, 0
1972, 0.56030348401011, 0.29285034198127, 0
1973, 0.57982880153618, 0.26095428011566, 0
1974, 0.55223006587845, 0.29336893827156, 0
1975, 0.54903255388814, 0.28099038458866, 0
1976, 0.57172810592309, 0.26252559395329, 0
1977, 0.44596696719369, 0.2785899979755, 0
1978, 0.44628263834406, 0.27252646417122, 0
1979, 0.4728114628142, 0.27810671087539, 0
1980, 0.4855675211656, 0.29445475231916, 0
1981, 0.47277834616338, 0.27319161281575, 0
1982, 0.23105104566828, 0.053793822292596, 0
1983, 0.26885720646911, 0.10654217360151, 0
1984, 0.77806620922316, 0.096881589878651, 0
1985, 0.75646764259872, 0.075717018548646, 0
1986, 0.24555122448794, 0.0061050482090834, 0
1987, 0.25509073192993, 0.012169505584602, 0
1988, 0.70442962965091, -0.11294348767042, 0
1989, 0.75171947459318, -0.1101272640495, 0
1990, 0.72651027597695, -0.069693210687057, 0
1991, 0.47737316793055, 0.27854665181682, 0
1992, 0.74608257091569, 0.090239786600367, 0
1993, 0.74991023902956, 0.077038357833884, 0
1994, 0.75947989921263, 0.071252641681006, 0
1995, 0.30321409874946, 0.19048180335164, 0
1996, 0.30972545669294, 0.18765436611894, 0
1997, 0.35546813930696, -0.27182786057734, 0
1998, 0.18177499957803, -0.21135073581334, 0
1999, 0.44352725561949, -0.2087453701505, 0
2000, 0.37782283839206, -0.19248162498621, 0
2001, 0.3806326345243, -0.18598880906328, 0
2002, 0.95050126350951, 0.27396266267941, 0
2003, 0.97525991734138, 0.27372742304674, 0
2004, 0.73879368602512, 0.09522420947521, 0
2005, 0.77844479176661, 0.04220066358457, 0
2006, 0.27349598259014, 0.27159045064402, 0
2007, 0.20298818130713, 0.27635503324494, 0
2008, 0.50235392451868, 0.28173725917847, 0
2009, 0.48657658779004, 0.27891213537887, 0
2010, 0.53642715606234, 0.27216880123588, 0
2011, 0.66800559860242, 0.21878551590739, 0
2012, 0.66397444422972, 0.21375620251572, 0
2013, 0.20316874364612, 0.10897325474195, 0
2014, 0.6822853143829, 0.20648382468347, 0
2015, 0.67690742972638, 0.20212227886652, 0
2016, 0.071084797093706, -0.25096293271154, 0
2017, 0.073565575236872, -0.27558899102817, 0
2018, 0.47709003091928, -0.25077691696012, 0
2019, 0.2766460557427, 0.12866434008944, 0
2020, 0.25873751598985, -0.20972650563371, 0
2021, 0.59305394185522, 0.29331896433516, 0
2022, 0.58619458296494, 0.28708646031473, 0
2023, 0.57690631840014, 0.29344762667747, 0
2024, 0.58497927227629, 0.29348991985031, 0
2025, 0.70021549967965, -0.14626395103022, 0
2026, 0.56916206858501, -0.21273896592734, 0
2027, 0.56666525485011, -0.20694157890183, 0
2028, 0.56396343691468, -0.26716831145688, 0
2029, 0.57709640296231, -0.28421589574105, 0
2030, 0.56190335872514, -0.28333608197204, 0
2031, 0.60008546470927, -0.20061598298165, 0
2032, 0.59687526383982, -0.19591648830361, 0
2033, 0.41804044094148, 0.27614499208234, 0
2034, 0.40770493394485, 0.25873965729962, 0
2035, 0.35302530742434, 0.23933325412624, 0
2036, 0.32193013677956, 0.2858618568164, 0
2037, 0.69624222025171, 0.19318866087819, 0
2038, 0.68945970983957, 0.18941760542659, 0
2039, 0.61005668530558, 0.29236627234402, 0
2040, 0.60122955902649, 0.28599761137086, 0
2041, 0.60139838771439, 0.29294795594651, 0
2042, 0.41670966715982, 0.29161985437397, 0
2043, 0.43402826206503, 0.27672048902491, 0
2044, 0.37448054319943, 0.23992877357021, 0
2045, 0.27096850243698, -0.10974615811857, 0
2046, 0.28371998411469, -0.12636079334776, 0
2047, 0.72481854044652, 0.16177252422784, 0
2048, 0.64796459029496, -0.17822003229289, 0
2049, 0.64118851551984, -0.17377211446214, 0
2050, 0.78359169430366, -0.21562602428638, 0
2051, 0.74462222554796, -0.087412332749998, 0
2052, 0.81321718930175, 0.25896745259987, 0
2053, 0.71540015423345, 0.24160006838077, 0
2054, 0.81752587367348, 0.23984600665887, 0
2055, 0.58555176135468, -0.20715060847255, 0
2056, 0.58233465798551, -0.201855391321, 0
2057, 0.63293083067962, -0.18772625550314, 0
2058, 0.62706030552988, -0.18233363691851, 0
2059, 0.32252982960042, -0.27098242116629, 0
2060, 0.59302876362022, -0.269639356421, 0
2061, 0.61036308023666, -0.28377078915588, 0
2062, 0.59304645130852, -0.28445892453465, 0
2063, 0.80801624433938, -0.15832360397912, 0
2064, 0.85660262433873, -0.23116012408092, 0
2065, 0.63012431006173, -0.26834087636587, 0
2066, 0.64938496132212, -0.28302830354728, 0
2067, 0.62919620830699, -0.28388600914752, 0
2068, 0.83509217192332, -0.12441274285219, 0
2069, 0.75628195028114, -0.084518609290392, 0
2070, 0.56668881179027, 0.27945188955063, 0
2071, 0.56881031338236, 0.2931805098239, 0
2072, 0.67387407536404, -0.26767419907133, 0
2073, 0.67057969604575, -0.28360679470121, 0
2074, 0.33663679249023, 0.2758206176274, 0
2075, 0.4012777613205, 0.29040791457071, 0
2076, 0.048032482112706, 0.21791552229121, 0
2077, 0.023932004578977, 0.21834153631649, 0
2078, 0.42008293085212, 0.26286121317171, 0
2079, 0.37755290876983, 0.23946105140629, 0
2080, 0.62983941482255, 0.29028614701192, 0
2081, 0.65136010921068, 0.25681701942951, 0
2082, 0.61945908978348, 0.2915037988681, 0
2083, 0.68433696032003, 0.28725017960052, 0
2084, 0.65592202243539, 0.2883899588396, 0
2085, 0.66990520354991, 0.28801929786886, 0
2086, 0.45324394049265, 0.27807891381648, 0
2087, 0.42980326668487, 0.2838647532763, 0
2088, 0.93281509097933, 0.077370447792288, 0
2089, 0.90842198583803, 0.10507305947531, 0
2090, 0.92878675641891, 0.13625252522464, 0
2091, 0.93148146465688, 0.10643105999162, 0
2092, 0.72976725274667, 0.21523452596854, 0
2093, 0.78332775063181, 0.27948335437502, 0
2094, 0.80365470329205, 0.22352672801616, 0
2095, 0.92708507109896, 0.24844591837253, 0
2096, 0.92549633268903, 0.27441690658001, 0
2097, 0.29905532019738, 0.17453748485504, 0
2098, 0.30239882854828, 0.26201032474586, 0
2099, 0.3526691696032, 0.22640088298677, 0
2100, 0.24741321959606, 0.21848007183016, 0
2101, 0.38888392646791, 0.24900161840234, 0
2102, 0.045736668806711, -0.22449919670988, 0
2103, 0.022822458097145, -0.22329553141403, 0
2104, 0.82823766607888, 0.27876571411886, 0
2105, 0.73865326348187, 0.28097847281896, 0
2106, 0.72866076142613, 0.23347616707818, 0
2107, 0.9355073463619, -0.031302512463644, 0
2108, 0.938703793985, -0.086680649408347, 0
2109, 0.91584963623076, -0.062116795667258, 0
2110, 0.93712721152839, -0.060009989190377, 0
2111, 0.64234953359748, 0.28866287576239, 0
2112, 0.26237436150165, 0.21909271888516, 0
2113, 0.71895236750447, 0.25364008237311, 0
2114, 0.53119373432507, -0.22665092114828, 0
2115, 0.52607171433648, -0.22697828863281, 0
2116, 0.51706622519689, -0.22033118791478, 0
2117, 0.87017329566607, -0.17807621262429, 0
2118, 0.84890566130851, -0.17234678070207, 0
2119, 0.9794101970829, -0.14068921965745, 0
2120, 0.87456938855452, -0.2672422257907, 0
2121, 0.25838246671767, 0.11054776853607, 0
2122, 0.23489457635893, 0.071353290737114, 0
2123, 0.22555568537477, 0.11271335112717, 0
2124, 0.260953947334, 0.10378580405058, 0
2125, 0.74995978039218, -0.050327051447565, 0
2126, 0.7549141419246, -0.042764195366158, 0
2127, 0.73537043126766, -0.067708451974525, 0
2128, 0.76845486220721, -0.078415495904741, 0
2129, 0.50623403016289, -0.23661447292872, 0
2130, 0.55495922130811, -0.22746578805423, 0
2131, 0.52620510366129, -0.22052108751979, 0
2132, 0.93716620683419, 0.02366279954586, 0
2133, 0.91575955136273, -0.0010712018834103, 0
2134, 0.93679874125994, -0.0027289184550037, 0
2135, 0.76070644415024, 0.16158823001588, 0
2136, 0.74350781442885, 0.12014093177145, 0
2137, 0.26678630300685, -0.067226947000167, 0
2138, 0.28020361949499, -0.079288697143688, 0
2139, 0.27018877176769, -0.05723157813446, 0
2140, 0.2529142964745, -0.076928512316705, 0
2141, 0.25823124137656, -0.039707936866061, 0
2142, 0.27188440701027, -0.05883018241482, 0
2143, 0.2370751591988, -0.048773789993933, 0
2144, 0.23230752350516, -0.0059320306618035, 0
2145, 0.23316463446789, 0.0095951486640097, 0
2146, 0.58319157179062, -0.22167305223278, 0
2147, 0.57607356592649, -0.21739569116614, 0
2148, 0.58479266822979, -0.21427248693282, 0
2149, 0.58042325054556, -0.21591364315068, 0
2150, 0.24195172112893, 0.065813841007127, 0
2151, 0.2077263577878, 0.064042092153928, 0
2152, 0.24520631847568, 0.12002182661806, 0
2153, 0.24247183906592, 0.070971302437635, 0
2154, 0.53170170022143, -0.23362411556424, 0
2155, 0.54095395716728, -0.22500653665127, 0
2156, 0.53618315807635, -0.22593958378715, 0
2157, 0.06426695666706, 0.13494195730129, 0
2158, 0.082467217528577, 0.10862504548118, 0
2159, 0.061183776060934, 0.082073394665519, 0
2160, 0.062193671270615, 0.10843245463185, 0
2161, 0.51135005196834, -0.26156123046432, 0
2162, 0.44492650146465, -0.24302570910549, 0
2163, 0.42575811497261, -0.24341289975363, 0
2164, 0.45183329187736, -0.2108015995389, 0
2165, 0.25779731460808, -0.19077468830695, 0
2166, 0.32894630153552, -0.17998178548842, 0
2167, 0.32111061635762, -0.17974740338069, 0
2168, 0.72535283386917, 0.17222474898027, 0
2169, 0.750476128877, 0.1065292062889, 0
2170, 0.61540392550461, -0.20193480532906, 0
2171, 0.62473981520379, -0.19896039187506, 0
2172, 0.62005387365251, -0.20048722724108, 0
2173, 0.75534828654056, 0.065099613321224, 0
2174, 0.74321487845846, 0.06489916503265, 0
2175, 0.74703941725826, 0.072762620790313, 0
2176, 0.7636242383144, 0.1864908658133, 0
2177, 0.74287683933494, 0.10995720101649, 0
2178, 0.71815993285744, 0.16860535603589, 0
2179, 0.56437118472441, -0.22671166593785, 0
2180, 0.55827826806019, -0.22152303671262, 0
2181, 0.56720229759923, -0.21977731218003, 0
2182, 0.56268197785783, -0.22069785062654, 0
2183, 0.2419875273593, 0.047434943585531, 0
2184, 0.24183883149579, 0.056210450440145, 0
2185, 0.24204363228137, 0.051800835938226, 0
2186, 0.22115778102178, -0.090105365289976, 0
2187, 0.26204250608177, -0.081832214697323, 0
2188, 0.23169632431149, -0.083435551241049, 0
2189, 0.76655238666535, 0.1032166471184, 0
2190, 0.74560910511645, 0.098231372768451, 0
2191, 0.39744981419566, -0.2165394442944, 0
2192, 0.38039708604543, -0.20112389042701, 0
2193, 0.4244108948505, -0.2247302006755, 0
2194, 0.24220240222793, 0.038315239466732, 0
2195, 0.1614234751285, 0.054027995101593, 0
2196, 0.24207331691184, 0.042976987973084, 0
2197, 0.3560530891644, -0.21062616583737, 0
2198, 0.29796062788921, -0.20951879465318, 0
2199, 0.26033234628673, -0.28223949262039, 0
2200, 0.26819026264154, -0.23094607501376, 0
2201, 0.68200232941854, -0.14319109751683, 0
2202, 0.72720849994805, -0.084544207768584, 0
2203, 0.66185482455145, -0.16853415963734, 0
2204, 0.68318953198725, -0.15989440330035, 0
2205, 0.25311579178209, -0.070194159340506, 0
2206, 0.2772868857159, -0.071852324238674, 0
2207, 0.27344635190997, -0.099208306921854, 0
2208, 0.29410966182918, -0.10629327736756, 0
2209, 0.27252008376311, -0.055512368145488, 0
2210, 0.47004129775676, -0.27326254344246, 0
2211, 0.30060480066803, 0.19634242620678, 0
2212, 0.29777077540792, 0.20172934178295, 0
2213, 0.30497014974825, 0.20371775235403, 0
2214, 0.30284362102088, 0.19982626601009, 0
2215, 0.28279061698505, -0.16363504524608, 0
2216, 0.28226048917324, -0.1174121853123, 0
2217, 0.23254013057701, -0.060861393402193, 0
2218, 0.22025700050737, -0.065882929594749, 0
2219, 0.26663306572583, -0.07159769140964, 0
2220, 0.23651790656268, 0.047176191098185, 0
2221, 0.24166105792465, 0.060873153940803, 0
2222, 0.092063519031996, -0.22763030062477, 0
2223, 0.1124003703228, -0.20517614082394, 0
2224, 0.13997877522168, -0.23112240086919, 0
2225, 0.11586012733976, -0.22938326894506, 0
2226, 0.75127624131911, -0.021214586321835, 0
2227, 0.76873111838425, -0.018676802616938, 0
2228, 0.73982813849147, -0.01151911245023, 0
2229, 0.41271360892926, -0.25601829279414, 0
2230, 0.44503974974907, -0.21499302634208, 0
2231, 0.4574920836124, -0.22379423561307, 0
2232, 0.42831607321338, -0.25527972416082, 0
2233, 0.61360795688968, -0.20885695884732, 0
2234, 0.60654709101668, -0.20416725738027, 0
2235, 0.61097617398165, -0.20321858034298, 0
2236, 0.80858222280353, -0.036464319993206, 0
2237, 0.77977485851703, -0.028893319924215, 0
2238, 0.79513863629982, -0.021700563562399, 0
2239, 0.7928972557659, -0.032328575273779, 0
2240, 0.31793768097185, -0.17075178100766, 0
2241, 0.28392016126481, -0.10642099177506, 0
2242, 0.30027056360642, -0.13726760791783, 0
2243, 0.063144113248635, -0.035240860095229, 0
2244, 0.0647770803283, 0.024934681036794, 0
2245, 0.085554600879981, -0.0087002164530973, 0
2246, 0.063647216372524, -0.0062583827364028, 0
2247, 0.81284317052192, -0.20986482415179, 0
2248, 0.71821549854587, -0.15452690932989, 0
2249, 0.70830032625792, -0.22195730181396, 0
2250, 0.06393621149543, -0.091680675932334, 0
2251, 0.084915058863365, -0.065382990782579, 0
2252, 0.063474657702135, -0.063418156335653, 0
2253, 0.69034590870763, -0.14541308475966, 0
2254, 0.68573467331073, -0.14693084724113, 0
2255, 0.69484325207532, -0.14259109558508, 0
2256, 0.29870080741113, -0.18478995628043, 0
2257, 0.31249966260663, -0.21161152524221, 0
2258, 0.50853543791495, -0.21917751902741, 0
2259, 0.53047842773417, -0.21406372932806, 0
2260, 0.50110398746554, -0.21740574970081, 0
2261, 0.748171687471, 0.0043983108498665, 0
2262, 0.75918581472059, -0.026189091251762, 0
2263, 0.75050504931181, -0.036180630087255, 0
2264, 0.75163237110422, -0.026304734908667, 0
2265, 0.77765953057189, 0.017208272889798, 0
2266, 0.76302997868018, 0.048476652159093, 0
2267, 0.74934095518659, 0.013457012202781, 0
2268, 0.45598175914996, -0.21160913909573, 0
2269, 0.46431548199784, -0.21281239170539, 0
2270, 0.44123760556879, -0.23393085300806, 0
2271, 0.43136888935851, -0.2045474674909, 0
2272, 0.172518424097, -0.16941925873026, 0
2273, 0.31158866849324, -0.14766240430021, 0
2274, 0.23900897678406, -0.1175049487922, 0
2275, 0.15210035108571, 0.078817363683943, 0
2276, 0.23592709741713, 0.077514041977548, 0
2277, 0.22481513176318, 0.044993083401869, 0
2278, 0.18879822743157, 0.068635335924811, 0
2279, 0.32779425569806, 0.22454057617864, 0
2280, 0.33579881976286, 0.22958791577973, 0
2281, 0.33191038055033, 0.22699682487569, 0
2282, 0.25942310124276, 0.1767277761987, 0
2283, 0.25406816234463, 0.14369680406049, 0
2284, 0.74584958423202, -0.0089332262431045, 0
2285, 0.74878112855558, -0.0059029580122306, 0
2286, 0.73989997116925, -0.014982274259628, 0
2287, 0.39980592121122, 0.25528611242991, 0
2288, 0.38390086722255, 0.2524946548786, 0
2289, 0.73000005716372, 0.1326856598224, 0
2290, 0.72966228223542, 0.16928421112132, 0
2291, 0.74147530097186, 0.11367238782031, 0
2292, 0.91496070850044, 0.04744816608118, 0
2293, 0.93566525115192, 0.049776821186798, 0
2294, 0.32771915056847, -0.19776794175642, 0
2295, 0.082288031087717, 0.058218963632299, 0
2296, 0.062254189563186, 0.054938900493152, 0
2297, 0.39959248334379, -0.24014326337143, 0
2298, 0.40158009776801, -0.20991412947397, 0
2299, 0.63375328529182, -0.20305376256257, 0
2300, 0.63403849036082, -0.19525482526581, 0
2301, 0.62951901754189, -0.19728944836556, 0
2302, 0.43080155616132, -0.23728197307251, 0
2303, 0.49717055787129, -0.23848273651899, 0
2304, 0.24568631308685, -0.015502910256938, 0
2305, 0.21991929252216, 0.060803676156332, 0
2306, 0.25540737333724, 0.008265971121914, 0
2307, 0.24511767751335, 0.013114852692491, 0
2308, 0.26114831279549, -0.029221944436515, 0
2309, 0.75540587324557, -0.058181583306321, 0
2310, 0.74153535433597, -0.043578357193601, 0
2311, 0.74262667574804, -0.069232757634222, 0
2312, 0.40371094088393, 0.25708602338708, 0
2313, 0.34660349292519, 0.22935011469746, 0
2314, 0.26789663198998, -0.054760038192187, 0
2315, 0.69333929736586, -0.13652883821477, 0
2316, 0.72220799595935, -0.14594931175794, 0
2317, 0.69885067624407, -0.10933142286997, 0
2318, 0.7569440039201, -0.14817061253115, 0
2319, 0.67606547095509, 0.22039354397065, 0
2320, 0.68358669538481, 0.21402376113188, 0
2321, 0.6797675970931, 0.21708849785251, 0
2322, 0.79955100912209, -0.08054486962358, 0
2323, 0.74562097529099, -0.048624555209264, 0
2324, 0.76148258685179, -0.055289771066775, 0
2325, 0.78277968437305, -0.051571939643313, 0
2326, 0.24661841693628, -0.026377655594508, 0
2327, 0.2562540208072, 0.010297826542411, 0
2328, 0.25482109545196, -0.030504386831259, 0
2329, 0.6984273155667, -0.15624902625184, 0
2330, 0.66074929474244, -0.15929623340496, 0
2331, 0.74490461435486, 0.12258796078556, 0
2332, 0.75491158514839, 0.12708593469104, 0
2333, 0.74989809167694, 0.13962814592779, 0
2334, 0.31132355805188, 0.21175611640486, 0
2335, 0.30917222837734, 0.22075544686092, 0
2336, 0.31933974917797, 0.21890936009765, 0
2337, 0.31505572052005, 0.21554854251322, 0
2338, 0.65268672771922, 0.23529115176361, 0
2339, 0.66779638626783, 0.22729008744574, 0
2340, 0.62328893244695, 0.24144276229102, 0
2341, 0.62661732865947, 0.23884689398433, 0
2342, 0.79509526342768, 0.067618096215311, 0
2343, 0.75635761452596, 0.03516630336673, 0
2344, 0.71148687971341, -0.094816494431173, 0
2345, 0.73932416679013, -0.079052341838826, 0
2346, 0.69002042471156, -0.1795512248609, 0
2347, 0.59910268381061, -0.21153327938943, 0
2348, 0.59271031339498, -0.21021897960007, 0
2349, 0.59919120271579, -0.2061569882056, 0
2350, 0.59603638226276, -0.20801301508418, 0
2351, 0.24354881926501, 0.028780834909365, 0
2352, 0.23880354847237, -0.026843793285464, 0
2353, 0.69933125574347, 0.20059781181252, 0
2354, 0.70637631591411, 0.19313785037875, 0
2355, 0.70279645435013, 0.1968495314011, 0
2356, 0.20264528044701, 0.032669298043901, 0
2357, 0.25785346844065, 0.0040906321906031, 0
2358, 0.5391591343425, -0.2397356922666, 0
2359, 0.54967136440864, -0.22291078213067, 0
2360, 0.54540190296637, -0.22387562386619, 0
2361, 0.26253008153692, 0.2333363234505, 0
2362, 0.25845167853469, 0.10149885776907, 0
2363, 0.2274240686714, 0.14248694921526, 0
2364, 0.21527292377215, 0.0039936173041304, 0
2365, 0.25081004203502, 0.012696071478598, 0
2366, 0.33093452936959, -0.1731708699587, 0
2367, 0.28949411824431, -0.096479925764264, 0
2368, 0.31566936604906, -0.1506832412866, 0
2369, 0.23401168609046, -0.14695303620995, 0
2370, 0.22970103855865, -0.11251366633548, 0
2371, 0.73986535320516, 0.087531005773527, 0
2372, 0.79217984393178, 0.0887770544698, 0
2373, 0.76783307564175, 0.089993822896939, 0
2374, 0.74750212154661, 0.029834867843014, 0
2375, 0.82764658615254, 0.040610972321773, 0
2376, 0.77377864785865, 0.0357275216825, 0
2377, 0.75355987194261, 0.032320578794951, 0
2378, 0.43760623887233, -0.24056434024333, 0
2379, 0.73985013899465, 0.12048237479493, 0
2380, 0.773396878715, 0.14254103120905, 0
2381, 0.086763984102267, -0.12303974505862, 0
2382, 0.064633012842714, -0.14750229262368, 0
2383, 0.064296033425248, -0.11988037572214, 0
2384, 0.77687227613788, 0.2039206643318, 0
2385, 0.72650621466345, 0.14061615151408, 0
2386, 0.49298656597335, -0.21907574847584, 0
2387, 0.48551287510356, -0.23232990986223, 0
2388, 0.51838211904305, -0.24118958865309, 0
2389, 0.76729154797332, -0.05091808634045, 0
2390, 0.24236712652148, -0.03936341547164, 0
2391, 0.24978206261956, -0.037156452413992, 0
2392, 0.53734696052298, -0.23259173854926, 0
2393, 0.49232721256019, -0.21626322667944, 0
2394, 0.70996847144936, -0.13027129558547, 0
2395, 0.73676932299215, -0.083811162429848, 0
2396, 0.26509981961726, 0.096643722084995, 0
2397, 0.24825600377778, 0.098774047585585, 0
2398, 0.27331097560698, 0.12106893502285, 0
2399, 0.75676930120917, 0.055253012928915, 0
2400, 0.25354994158513, 0.0016208831088675, 0
2401, 0.25443963103554, 0.0052586150533133, 0
2402, 0.25307845478069, 0.010055751194259, 0
2403, 0.49472423485705, -0.22147810847706, 0
2404, 0.52450819586662, -0.25188249167387, 0
2405, 0.9287425115055, 0.19442304000725, 0
2406, 0.9048649464325, 0.16786851219371, 0
2407, 0.92903355114628, 0.16603442463063, 0
2408, 0.73268100666585, -0.10161695161451, 0
2409, 0.705431985342, -0.12073408297393, 0
2410, 0.70648876154192, -0.10102314586424, 0
2411, 0.26049962297277, 0.14981015982355, 0
2412, 0.25596280597126, 0.10491943563858, 0
2413, 0.22654938092164, 0.16187642748347, 0
2414, 0.26325903092321, 0.1195650070377, 0
2415, 0.25355479505486, 0.083759782966434, 0
2416, 0.25822317895078, 0.12027756576934, 0
2417, 0.23983854365129, 0.021790242620415, 0
2418, 0.2415961706155, 0.0095067350801936, 0
2419, 0.10982741171478, -0.09683883525577, 0
2420, 0.10567725937922, -0.039827137399741, 0
2421, 0.12891812586065, -0.066671752485366, 0
2422, 0.10710650765251, -0.066864540033846, 0
2423, 0.11735070796863, 0.085113060688866, 0
2424, 0.21509019437134, 0.040539984057356, 0
2425, 0.14578874073877, 0.059623420323224, 0
2426, 0.2332371059862, 0.05092277260952, 0
2427, 0.23040281241781, 0.043023286802742, 0
2428, 0.70390919092869, -0.10396451340968, 0
2429, 0.70000714670666, -0.12496894912258, 0
2430, 0.78894526886416, -0.15166568202566, 0
2431, 0.81042004878593, 0.0670710765921, 0
2432, 0.78130279652603, 0.050112132971793, 0
2433, 0.81127955795794, 0.00038840920230818, 0
2434, 0.71560151310989, -0.098861731844544, 0
2435, 0.73392340249632, -0.088368787433175, 0
2436, 0.25367986454018, -0.055223196664026, 0
2437, 0.2674731603649, -0.063233556774458, 0
2438, 0.12259109320615, 0.18841728474663, 0
2439, 0.098213711812805, 0.2175715403067, 0
2440, 0.15437226559888, 0.2203967237885, 0
2441, 0.12536145197079, 0.21811515955294, 0
2442, 0.22757944488473, 0.05024873595252, 0
2443, 0.30131205196424, 0.21116125241641, 0
2444, 0.3079070770941, 0.20776030488412, 0
2445, 0.72073210163022, -0.081050902273022, 0
2446, 0.75822621237466, -0.10393271640726, 0
2447, 0.73070398521849, -0.092620995207328, 0
2448, 0.71246747588135, -0.10192695149129, 0
2449, 0.68269996429191, -0.18278190251605, 0
2450, 0.69218274732669, -0.12057502640118, 0
2451, 0.68566239470397, -0.13006537316937, 0
2452, 0.68619533192182, -0.1508017494018, 0
2453, 0.62506632704137, 0.26304050907436, 0
2454, 0.6353073425468, 0.2534294220349, 0
2455, 0.67259927835791, 0.26450851851169, 0
2456, 0.83807760765901, 0.096103805123746, 0
2457, 0.82465458027736, 0.080382254867691, 0
2458, 0.80630091742533, 0.090708146213551, 0
2459, 0.81658136166139, 0.10636201507584, 0
2460, 0.82141256386476, 0.093394271473547, 0
2461, 0.34523190387355, -0.1727208868874, 0
2462, 0.27911804303035, 0.19915450996882, 0
2463, 0.23725318136712, 0.20055590527996, 0
2464, 0.32782531948966, -0.18799365111497, 0
2465, 0.32016398823476, -0.1534645871731, 0
2466, 0.37676194375929, -0.18402288407596, 0
2467, 0.24105564497519, 0.089279977048594, 0
2468, 0.24525668878732, 0.081361843152172, 0
2469, 0.23856709515164, 0.09893147265253, 0
2470, 0.32042207631404, -0.14284474926172, 0
2471, 0.26993904855199, -0.095575919777623, 0
2472, 0.8417385171523, -0.055477659901616, 0
2473, 0.75809217499333, -0.077384794810316, 0
2474, 0.71621788665397, 0.19250202819309, 0
2475, 0.71308683945079, 0.18545105093096, 0
2476, 0.70983714242611, 0.18934462576177, 0
2477, 0.74015356155323, 0.083775377784267, 0
2478, 0.75605563993316, 0.082569204377667, 0
2479, 0.74425205000832, -0.055805162222201, 0
2480, 0.28281244170233, 0.15522849944136, 0
2481, 0.27208775248153, 0.13796578716189, 0
2482, 0.27797915759686, 0.1741228725375, 0
2483, 0.30013537265331, 0.18722737461181, 0
2484, 0.23715337776542, -0.091179904375861, 0
2485, 0.27683983386099, -0.13743316783557, 0
2486, 0.26103267045852, -0.17507108630405, 0
2487, 0.80947367997521, 0.013394126636963, 0
2488, 0.26193248759876, -0.054815729231909, 0
2489, 0.20807959177527, -0.071690204843582, 0
2490, 0.25544970179478, -0.063848415833051, 0
2491, 0.78142408020183, -0.010173778236153, 0
2492, 0.69339354716625, -0.14977019505011, 0
2493, 0.6718136311321, -0.16021024463567, 0
2494, 0.24812920598724, 0.0097504521366497, 0
2495, 0.22855523556219, 0.0044097455274965, 0
2496, 0.65273608830383, -0.1921360385088, 0
2497, 0.64271425377136, -0.19046640858313, 0
2498, 0.65083174090043, -0.18504392007998, 0
2499, 0.64696363936028, -0.18786165104424, 0
2500, 0.25428684219144, 0.036320433751518, 0
2501, 0.24496635721796, 0.024230874152913, 0
2502, 0.31824634801337, -0.18852643405793, 0
2503, 0.26848992249499, -0.14504393870692, 0
2504, 0.24604457726339, -0.12924092936531, 0
2505, 0.20698914349482, -0.14238961565023, 0
2506, 0.34214141645846, -0.20063795614499, 0
2507, 0.30353569094397, -0.14094092213129, 0
2508, 0.75847133990506, -0.070359497184702, 0
2509, 0.74907520652117, -0.075945236976102, 0
2510, 0.74975255035557, 0.081773741195365, 0
2511, 0.7662890503004, 0.073914892998895, 0
2512, 0.74251561584364, 0.068795171294594, 0
2513, 0.70109513649625, 0.20854711653059, 0
2514, 0.6915089401575, 0.20771130838809, 0
2515, 0.69560461585504, 0.20426498662522, 0
2516, 0.41662830469845, -0.20284072891796, 0
2517, 0.45601672876375, -0.23011382528939, 0
2518, 0.7486928255289, 0.039498305737809, 0
2519, 0.75078518669681, 0.03040848075301, 0
2520, 0.42451660988107, -0.21737975723657, 0
2521, 0.73715569756046, 0.10292052011799, 0
2522, 0.69322709024753, -0.1280074321806, 0
2523, 0.73372579868121, -0.072008982568808, 0
2524, 0.71662755082967, -0.12417147706782, 0
2525, 0.77165454232948, -0.14899311286292, 0
2526, 0.24902170884833, 0.13631652874785, 0
2527, 0.25191482990196, 0.079355295451501, 0
2528, 0.25489201730523, 0.028133778012871, 0
2529, 0.19703395640399, 0.054083799639815, 0
2530, 0.25549351617483, 0.15539358090803, 0
2531, 0.55388235087737, -0.22212956086157, 0
2532, 0.27807818826454, 0.13875487062997, 0
2533, 0.72057300851136, 0.1837244063934, 0
2534, 0.71788946515294, 0.17809336824881, 0
2535, 0.7153374343049, 0.18164613675492, 0
2536, 0.74406286439337, 0.025977398876391, 0
2537, 0.74781237114089, 0.036061578932473, 0
2538, 0.40051082084169, -0.19388763451556, 0
2539, 0.26477209342594, -0.098769995076055, 0
2540, 0.26516532920471, -0.13181233387389, 0
2541, 0.23642778009706, -0.15821287886225, 0
2542, 0.66254097342312, -0.18107749756167, 0
2543, 0.6564543364256, -0.17926019336862, 0
2544, 0.66341395609015, -0.1751683302693, 0
2545, 0.65947333759708, -0.17711348874689, 0
2546, 0.30291702849038, -0.12382584820565, 0
2547, 0.27450065463057, -0.12122759377853, 0
2548, 0.30744795652482, -0.14441170895676, 0
2549, 0.25792199694372, 0.11512914761685, 0
2550, 0.27195551005598, 0.11730284537951, 0
2551, 0.26978294757379, 0.11001160598613, 0
2552, 0.26234382472015, 0.11102863849996, 0
2553, 0.71676086636437, -0.13036527675322, 0
2554, 0.72470725285192, -0.073544731401758, 0
2555, 0.47411514551171, -0.23619224133351, 0
2556, 0.72486640648749, 0.17909132169425, 0
2557, 0.72128429791418, 0.17509685403577, 0
2558, 0.31927826104699, 0.22782327379407, 0
2559, 0.32359068754687, 0.22190242853726, 0
2560, 0.67672389178072, 0.2288518202894, 0
2561, 0.67209989537636, 0.22383824563161, 0
2562, 0.78168162939121, -0.079194424598965, 0
2563, 0.7650110947934, -0.061677011414775, 0
2564, 0.1586167629619, -0.20992696808221, 0
2565, 0.33754089655604, -0.2304312723269, 0
2566, 0.16511637681254, -0.23259573339776, 0
2567, 0.22441719704605, -0.0020373631273347, 0
2568, 0.25364563191894, -0.025722895198001, 0
2569, 0.19502117096633, -0.011972465792308, 0
2570, 0.26515777972165, 0.16021005463787, 0
2571, 0.27563266441588, 0.15762343171235, 0
2572, 0.57160639184476, -0.21859436093363, 0
2573, 0.23786026268676, 0.026852417766887, 0
2574, 0.25764121942012, 0.013378523035778, 0
2575, 0.74466944264203, 0.048748214106415, 0
2576, 0.81148509880555, -0.011992259015224, 0
2577, 0.79559312408816, -0.010866999413904, 0
2578, 0.3995387356558, -0.22314994467023, 0
2579, 0.53463659733884, -0.26504859456913, 0
2580, 0.27478546346812, 0.21823853758821, 0
2581, 0.20585338449535, 0.23151292555936, 0
2582, 0.280973484037, 0.14210289114882, 0
2583, 0.21134295106502, 0.211656627546, 0
2584, 0.26783838520324, 0.15445196913531, 0
2585, 0.6039960349113, -0.20925241505073, 0
2586, 0.60271925976099, -0.20509873865041, 0
2587, 0.34840372026847, 0.23721779582045, 0
2588, 0.35746877984132, 0.26764288065895, 0
2589, 0.41591319772999, 0.26162799731285, 0
2590, 0.35050949128561, 0.23169055530829, 0
2591, 0.65836145090964, -0.18480521027123, 0
2592, 0.6538237917643, -0.18204365777661, 0
2593, 0.85306395167927, -0.14994065231087, 0
2594, 0.69547300948097, -0.11431685420884, 0
2595, 0.81787074631165, -0.10136230683206, 0
2596, 0.6123371015507, 0.26922670829201, 0
2597, 0.20618997132815, 0.045405030919121, 0
2598, 0.42409940632452, -0.20121674912808, 0
2599, 0.7418148771719, 0.072610249954148, 0
2600, 0.39059068360244, 0.27757028504663, 0
2601, 0.34583675737052, 0.22166172397992, 0
2602, 0.4012951202109, 0.27210725483606, 0
2603, 0.76947466587413, 0.13474132056919, 0
2604, 0.75484634737414, 0.11210789435316, 0
2605, 0.73984262876988, -0.018740887134464, 0
2606, 0.56064616106646, 0.27045502229324, 0
2607, 0.58790684643145, 0.27496027209493, 0
2608, 0.59355913651938, 0.26821238402535, 0
2609, 0.58828368089721, 0.26929008878168, 0
2610, 0.27340528930806, -0.10561866988591, 0
2611, 0.24079862659251, -0.16959604230613, 0
2612, 0.27932543699247, -0.14298271700449, 0
2613, 0.28849689960555, -0.11005894935872, 0
2614, 0.36911295109186, 0.2743324798552, 0
2615, 0.37551890874022, 0.25136697463599, 0
2616, 0.76720429907078, -0.034028550535863, 0
2617, 0.74903457515172, -0.04073374870676, 0
2618, 0.29081344658676, 0.17655800560547, 0
2619, 0.26905873264322, 0.13363300117362, 0
2620, 0.15036894808738, 0.017857344396309, 0
2621, 0.23173396742164, 0.024786262947251, 0
2622, 0.16352650458401, -0.0050264273532237, 0
2623, 0.43886011487886, -0.22571890920735, 0
2624, 0.48493454290299, -0.24758340337026, 0
2625, 0.36970708341694, 0.25271972405595, 0
2626, 0.30823072194187, 0.28319655613657, 0
2627, 0.33445286737795, 0.28740140662372, 0
2628, 0.26778251359912, 0.11852918017958, 0
2629, 0.27087072455191, 0.12688911618565, 0
2630, 0.77984100898214, 0.11617144712342, 0
2631, 0.79675558522003, 0.11264212122161, 0
2632, 0.78938215449989, 0.098831536488005, 0
2633, 0.78513433234285, 0.10813908659254, 0
2634, 0.69188903281329, 0.21554874953227, 0
2635, 0.6874128833881, 0.21093170547295, 0
2636, 0.37273743587838, -0.20701650418939, 0
2637, 0.37519603635913, -0.19940077040647, 0
2638, 0.29423690956981, 0.19697041669556, 0
2639, 0.29793888518691, 0.1934743177015, 0
2640, 0.38078962881329, 0.24932152377748, 0
2641, 0.39557412925903, 0.26096779843006, 0
2642, 0.2655500622041, -0.16216977708602, 0
2643, 0.24364461481106, -0.10986430062063, 0
2644, 0.63868302517905, -0.19301989234505, 0
2645, 0.070307529790295, 0.1897082238028, 0
2646, 0.072680596079853, 0.21763142138005, 0
2647, 0.90420127309187, 0.22344584979633, 0
2648, 0.87990583932379, 0.19865134103713, 0
2649, 0.85635115784527, 0.22998507484307, 0
2650, 0.87978930172195, 0.22601392579944, 0
2651, 0.7410470174844, 0.076381576923591, 0
2652, 0.78833350938607, 0.021284224898028, 0
2653, 0.7928800348564, 0.14921083137532, 0
2654, 0.70888738874368, 0.16613252993825, 0
2655, 0.32140481988225, -0.24188472221126, 0
2656, 0.43731240707667, -0.21838374471072, 0
2657, 0.72117442787291, -0.11665231280239, 0
2658, 0.59248154503994, -0.21741613548294, 0
2659, 0.58894967463531, -0.21236891535455, 0
2660, 0.7114899623842, 0.16273539772422, 0
2661, 0.7401121503192, 0.1357640972093, 0
2662, 0.76194815489613, 0.15255007987941, 0
2663, 0.74059613530567, 0.16201525077818, 0
2664, 0.10744905111027, 0.13292069151797, 0
2665, 0.090422222480607, 0.16108568719654, 0
2666, 0.20066048509314, 0.18572646694866, 0
2667, 0.11452123490491, 0.15940341034655, 0
2668, 0.72032569382121, 0.26822738753287, 0
2669, 0.71105790544312, 0.23159932856347, 0
2670, 0.74695052370231, 0.20991927450424, 0
2671, 0.70065991882762, 0.23553598371097, 0
2672, 0.67969049773939, -0.1639578592977, 0
2673, 0.67719966713034, -0.17590135813661, 0
2674, 0.71314295962464, -0.25052074854432, 0
2675, 0.69490455171107, -0.25261940305561, 0
2676, 0.75174867473747, 0.11632719793206, 0
2677, 0.77638922901695, 0.15201181995671, 0
2678, 0.56017796873389, -0.23331387604533, 0
2679, 0.55176910385627, -0.23148665605524, 0
2680, 0.55328037675283, -0.23754570727147, 0
2681, 0.3957833784287, 0.2698795862808, 0
2682, 0.38254217504763, 0.24424677128852, 0
2683, 0.41898795993076, 0.26927367456425, 0
2684, 0.92824637099627, 0.22182547772293, 0
2685, 0.77052488195772, -0.16479061706313, 0
2686, 0.97560449287551, -0.27349740704114, 0
2687, 0.6936483537977, -0.26780320143005, 0
2688, 0.71453700956616, -0.17783670297916, 0
2689, 0.75801787713288, -0.21484915103805, 0
2690, 0.24932374367332, 0.16231122102971, 0
2691, 0.18858143286591, -0.066534243841485, 0
2692, 0.20711953977898, -0.15738215446125, 0
2693, 0.23591059896088, -0.10442352309115, 0
2694, 0.97823783637057, -0.19412564430235, 0
2695, 0.76745009627616, -0.22979688600913, 0
2696, 0.10887926949489, -0.15465709543762, 0
2697, 0.13223036606636, -0.13310118085462, 0
2698, 0.10931182892383, -0.12709806155684, 0
2699, 0.90950915747039, -0.21264862298809, 0
2700, 0.91569614136294, -0.16084943577922, 0
2701, 0.28608913868594, 0.1835635072626, 0
2702, 0.23810033052957, 0.083578981060561, 0
2703, 0.28027585731001, -0.10472319584908, 0
2704, 0.27021187174252, -0.085150107154952, 0
2705, 0.25498093140158, -0.098326909955089, 0
2706, 0.27517318960382, -0.1318657215544, 0
2707, 0.35926850583642, -0.17231236632195, 0
2708, 0.75465683582965, 0.0081723780177657, 0
2709, 0.74431236687791, 0.040856762098777, 0
2710, 0.74953313593142, 0.043301652842913, 0
2711, 0.7808457886469, 0.029671021122504, 0
2712, 0.76615038776522, -0.17932410824912, 0
2713, 0.95295607007669, -0.24519472280636, 0
2714, 0.74361918152651, -0.15913306028473, 0
2715, 0.87405829922932, -0.15443547562036, 0
2716, 0.48294843412454, 0.28384109141912, 0
2717, 0.49145299295613, 0.2943178526679, 0
2718, 0.19812156097038, -0.049484073054343, 0
2719, 0.20877510240715, -0.036447811893534, 0
2720, 0.22331425906901, -0.044249132439121, 0
2721, 0.21144645011144, -0.046715280236082, 0
2722, 0.87124504037922, 0.10107654522332, 0
2723, 0.8573525573756, 0.083771449607611, 0
2724, 0.85049060382767, 0.11423013750617, 0
2725, 0.85474586449307, 0.098704439548887, 0
2726, 0.74931728954036, 0.13448328600211, 0
2727, 0.74068232328067, 0.18478309791055, 0
2728, 0.06707750559643, -0.20043930173366, 0
2729, 0.068790247504213, -0.22596301655552, 0
2730, 0.067369481401417, 0.16204500298225, 0
2731, 0.86241941238765, 0.025196639743762, 0
2732, 0.87869104094702, 0.0075169971254459, 0
2733, 0.86051254718911, -0.0044275028949107, 0
2734, 0.84518280305695, 0.011738711297638, 0
2735, 0.86229867436776, 0.010004214216775, 0
2736, 0.63929012142971, 0.22979222088949, 0
2737, 0.65594680844055, 0.22717751022984, 0
2738, 0.86114641326681, 0.05510390804916, 0
2739, 0.8431642717582, 0.068200616235605, 0
2740, 0.85905324051579, 0.069438625716551, 0
2741, 0.87893452610873, 0.041135371730424, 0
2742, 0.84518286396267, 0.040253191639838, 0
2743, 0.86219040723828, 0.040352564048679, 0
2744, 0.73514906455749, 0.1104775680551, 0
2745, 0.83361225394952, 0.21679989677673, 0
2746, 0.79319602889385, 0.046461051419563, 0
2747, 0.76937371207013, -0.00057881292389056, 0
2748, 0.24662435540294, 0.019901801533295, 0
2749, 0.25854161719143, -0.016358794982269, 0
2750, 0.17099418889339, 0.029419557983185, 0
2751, 0.49773925858765, 0.28288148066784, 0
2752, 0.44986204254799, 0.26777994637156, 0
2753, 0.087656300897257, -0.17718584699293, 0
2754, 0.13220482243579, -0.1839653931673, 0
2755, 0.10973959136331, -0.18043516996693, 0
2756, 0.55953470704012, -0.24047675226838, 0
2757, 0.85907273938407, 0.17226710390792, 0
2758, 0.88187011109642, 0.17185108887094, 0
2759, 0.35165858137486, 0.24521047783571, 0
2760, 0.29716137865248, 0.18392292069199, 0
2761, 0.24575162346939, 0.23489308117023, 0
2762, 0.19411770543361, 0.091711215984829, 0
2763, 0.12568845044346, 0.048168580513869, 0
2764, 0.81612042661054, 0.16332331382008, 0
2765, 0.76701226951884, 0.11799554799694, 0
2766, 0.7323136482183, 0.15386574051466, 0
2767, 0.17553176511289, -0.19008555627451, 0
2768, 0.15442311468623, -0.18743930696831, 0
2769, 0.91760948332752, -0.1361526521933, 0
2770, 0.89814871917982, -0.1113742063473, 0
2771, 0.72737663570366, -0.23107606214859, 0
2772, 0.70440742101723, -0.20941566204676, 0
2773, 0.12168805731892, 0.1066621009278, 0
2774, 0.20552231743301, 0.0765696803426, 0
2775, 0.87153719064548, -0.021393248825666, 0
2776, 0.85645152888651, -0.029318385088809, 0
2777, 0.84423026552402, -0.015413870873728, 0
2778, 0.85861411518691, -0.017630439641387, 0
2779, 0.69323085161427, -0.22477406359767, 0
2780, 0.76643571210993, 0.021410297715513, 0
2781, 0.77010913679199, 0.045923544791364, 0
2782, 0.95876026597491, -0.13915750550512, 0
2783, 0.73258326627344, -0.18274258255591, 0
2784, 0.26552664596762, -0.1255650536414, 0
2785, 0.28279562323198, -0.14837552991908, 0
2786, 0.2830400596361, -0.10961305630104, 0
2787, 0.34908013772001, -0.17039516815606, 0
2788, 0.21204809345268, -0.098725136682026, 0
2789, 0.27575897065532, -0.21748198559404, 0
2790, 0.36213219493494, -0.28548582048504, 0
2791, 0.29227454895524, -0.22239471358017, 0
2792, 0.43274525001065, -0.2161984276793, 0
2793, 0.28549060211005, 0.21642788298834, 0
2794, 0.28810463950014, 0.17254690679287, 0
2795, 0.29060749040673, 0.16011873547796, 0
2796, 0.59991058589192, 0.27288356117262, 0
2797, 0.59886053705064, 0.2668453570704, 0
2798, 0.87093751614711, -0.038964912086276, 0
2799, 0.8584510657172, -0.055491083121999, 0
2800, 0.84194542341961, -0.041257509473255, 0
2801, 0.85748062509138, -0.041399730689965, 0
2802, 0.48955361480454, 0.28892686847106, 0
2803, 0.51212269817127, 0.27261555134063, 0
2804, 0.87772088315935, -0.070464560833672, 0
2805, 0.85897005316955, -0.089494368417552, 0
2806, 0.74965414050912, -0.059727063525691, 0
2807, 0.85896634785435, -0.071678851388067, 0
2808, 0.065606101969804, -0.17433461841896, 0
2809, 0.40942366993614, 0.2667779372494, 0
2810, 0.73609497770423, -0.21085317915933, 0
2811, 0.89479141502885, -0.15799735740377, 0
2812, 0.805649828632, 0.20955101836274, 0
2813, 0.82403122665866, 0.20305989879803, 0
2814, 0.75881760274041, -0.19206516827855, 0
2815, 0.72202781348386, -0.18836447065487, 0
2816, 0.74769123000315, -0.052685791045023, 0
2817, 0.84280553242038, -0.19620268142811, 0
2818, 0.72137368899829, 0.22480793885222, 0
2819, 0.73259385254665, 0.18458518405087, 0
2820, 0.72819929147896, 0.20066371576476, 0
2821, 0.7722226832105, 0.21898330036904, 0
2822, 0.56799139629678, -0.24187617023775, 0
2823, 0.56592110837841, -0.23328691875473, 0
2824, 0.34449761771637, -0.16997953361203, 0
2825, 0.2984778016518, -0.16220672365624, 0
2826, 0.35574412832593, -0.18813893006128, 0
2827, 0.32442677170363, -0.15601855595862, 0
2828, 0.33791401397812, -0.16850526657421, 0
2829, 0.82669309164294, 0.12584377287333, 0
2830, 0.81021674339133, 0.11879481314818, 0
2831, 0.14623891321633, -0.00094812009599987, 0
2832, 0.18988322614007, 0.038989622709745, 0
2833, 0.12989501241839, 0.064078522710206, 0
2834, 0.12574349589882, -0.017929730386005, 0
2835, 0.10618211983509, -0.013793345899055, 0
2836, 0.60429040330413, 0.2523532643913, 0
2837, 0.36992165555454, -0.19731164935582, 0
2838, 0.51585882055355, -0.25026452364116, 0
2839, 0.40460117129444, -0.19975887975532, 0
2840, 0.44171604444665, -0.25089136510304, 0
2841, 0.48009684328198, -0.23453441782585, 0
2842, 0.17887657321526, 0.17055953706392, 0
2843, 0.84070705838479, 0.14797732529451, 0
2844, 0.84540117152803, 0.13030542085551, 0
2845, 0.82719320962758, -0.026446533538447, 0
2846, 0.7445060370391, -0.052101297691422, 0
2847, 0.82550109868485, -0.039529216423991, 0
2848, 0.78020979060857, -0.1873683839161, 0
2849, 0.8979360746297, -0.088933700123909, 0
2850, 0.93831556791506, -0.13771109879377, 0
2851, 0.20834161470086, -0.015492936419603, 0
2852, 0.1457816717666, -0.041042025163751, 0
2853, 0.16247657079072, -0.022375508300952, 0
2854, 0.14484385757663, -0.02066631517698, 0
2855, 0.48481000131487, -0.21350551275645, 0
2856, 0.49794425925697, -0.2165367700806, 0
2857, 0.27808149878819, -0.10802846341514, 0
2858, 0.1529317649745, -0.14213839278847, 0
2859, 0.75073187648607, 0.22934377164888, 0
2860, 0.80002964781128, 0.24008382201492, 0
2861, 0.44859178226225, 0.27040678021913, 0
2862, 0.79297848723951, 0.010978497090512, 0
2863, 0.78850876666391, 0.036896781763767, 0
2864, 0.76008168107508, 0.019455919167801, 0
2865, 0.34823582247942, 0.26739585440473, 0
2866, 0.82834372357896, -0.013622324338693, 0
2867, 0.66235007152071, -0.2261701157511, 0
2868, 0.63607083051679, -0.23081454371077, 0
2869, 0.64357097416658, -0.21778315324705, 0
2870, 0.64856650748523, -0.22858384251026, 0
2871, 0.62016455907777, 0.25034427858337, 0
2872, 0.65014230024734, 0.22397856176463, 0
2873, 0.30701050218841, 0.18448612173145, 0
2874, 0.25337989947664, 0.12707735488254, 0
2875, 0.6314251814153, 0.26888176319006, 0
2876, 0.54191669379442, 0.27659867884102, 0
2877, 0.28924413649725, 0.15647648481797, 0
2878, 0.74285120476298, -0.22422388732267, 0
2879, 0.74418983916771, -0.14783760488369, 0
2880, 0.71058141481417, -0.12489947748416, 0
2881, 0.49172582115316, -0.22356996079645, 0
2882, 0.49640835697298, -0.2492889114102, 0
2883, 0.19035287420368, -0.15430962451598, 0
2884, 0.16919548971639, -0.10084853200517, 0
2885, 0.68661726361866, 0.26124920951399, 0
2886, 0.76559161446855, 0.12820665716113, 0
2887, 0.7020182305552, 0.27208195846608, 0
2888, 0.50976416660743, -0.21448715457619, 0
2889, 0.45261951544971, -0.24445913610473, 0
2890, 0.41629444048643, -0.21676407072696, 0
2891, 0.46791170652233, 0.28261025876907, 0
2892, 0.4403556597596, 0.26649074537103, 0
2893, 0.80557186156839, 0.27937857904263, 0
2894, 0.73719265981398, 0.20523305563287, 0
2895, 0.57895081779327, -0.25513935092948, 0
2896, 0.5909694177837, -0.25723164262444, 0
2897, 0.32352670025439, 0.24269450179544, 0
2898, 0.30844725838079, 0.23190422858654, 0
2899, 0.29708079260439, 0.2206828991374, 0
2900, 0.30209809973458, 0.22682829837426, 0
2901, 0.29305930492124, -0.14476045482585, 0
2902, 0.29264219054246, -0.10293707982244, 0
2903, 0.28920616780314, -0.11370151195834, 0
2904, 0.82229817402741, -0.18735108235018, 0
2905, 0.95104498038986, -0.27245111615096, 0
2906, 0.6278882674535, -0.24387698087661, 0
2907, 0.62962194325214, -0.25516739335248, 0
2908, 0.47866273159148, -0.22881694681082, 0
2909, 0.42850856231757, -0.21375531659568, 0
2910, 0.27576684004583, 0.16847196502849, 0
2911, 0.1942315894417, -0.024794352919168, 0
2912, 0.17991928265374, -0.038454343803515, 0
2913, 0.17892140717976, -0.023637759525906, 0
2914, 0.37207268363003, -0.24607660973309, 0
2915, 0.51783149565233, -0.21474527980459, 0
2916, 0.69724455152747, -0.17512333508313, 0
2917, 0.68807703175336, -0.16854951437218, 0
2918, 0.67935633489473, -0.14983810728836, 0
2919, 0.67763923208448, -0.19278999941414, 0
2920, 0.66873995844905, -0.18580764592844, 0
2921, 0.68498305254251, -0.14409319826651, 0
2922, 0.67755395696374, -0.15344446378627, 0
2923, 0.2339171509534, 0.092924409302883, 0
2924, 0.27023596373865, 0.18395034934967, 0
2925, 0.43796131290902, -0.25960695538811, 0
2926, 0.4822506711746, -0.22260968264265, 0
2927, 0.89776410280862, 0.023675630563971, 0
2928, 0.8965975113877, 0.043157933200489, 0
2929, 0.84702814245262, -0.2637728612318, 0
2930, 0.87650336014411, -0.13194279116129, 0
2931, 0.69585387115957, -0.18811159563079, 0
2932, 0.69846407508903, 0.22713402086758, 0
2933, 0.70162242274567, 0.21750271543899, 0
2934, 0.69565717349821, 0.22072751009774, 0
2935, 0.89196109844787, -0.016024787397582, 0
2936, 0.89655709678462, 0.003640900592408, 0
2937, 0.16691670272641, -0.057119866921234, 0
2938, 0.18325361951344, -0.052878409955197, 0
2939, 0.4726915668333, -0.21348887226131, 0
2940, 0.32624673311215, -0.28551454162696, 0
2941, 0.36989494652781, -0.22487081213757, 0
2942, 0.3778851012213, -0.21666154583837, 0
2943, 0.37078621193362, -0.21550836884817, 0
2944, 0.67867878896033, -0.23934469165172, 0
2945, 0.67773493831126, -0.25317938368595, 0
2946, 0.88887017779068, 0.10312132487854, 0
2947, 0.37012301770246, -0.23515474554806, 0
2948, 0.50394111206874, 0.27678132655402, 0
2949, 0.54485633813607, -0.23699163096338, 0
2950, 0.5668003935729, -0.25323158667115, 0
2951, 0.62021443689833, -0.22339624010685, 0
2952, 0.60906695762942, -0.21537591561566, 0
2953, 0.61597826637853, -0.21531234069934, 0
2954, 0.40912593237342, -0.2271968067341, 0
2955, 0.39424887990773, -0.26641742413412, 0
2956, 0.5609191051287, 0.28498272981977, 0
2957, 0.33643902390467, -0.1735366776047, 0
2958, 0.34597813572633, -0.18862721587036, 0
2959, 0.22987857887731, 0.037385676826918, 0
2960, 0.7576702672558, 0.17202416230969, 0
2961, 0.70152217776691, 0.24618192886407, 0
2962, 0.71401236234483, 0.21775596479468, 0
2963, 0.81823998511987, 0.22336463982962, 0
2964, 0.91864917340688, -0.11187594510335, 0
2965, 0.67751571245155, -0.21343339684047, 0
2966, 0.67831957912611, -0.22611750966045, 0
2967, 0.89167693345617, -0.04600815240858, 0
2968, 0.89616403462892, -0.066988150211165, 0
2969, 0.44438180290008, -0.2277016123842, 0
2970, 0.33594221980591, -0.24407339636431, 0
2971, 0.52159431172042, -0.22056029280413, 0
2972, 0.48797445823214, -0.22555926878101, 0
2973, 0.14906314830544, -0.062099531592244, 0
2974, 0.28272965381642, -0.12178744658636, 0
2975, 0.28230248086535, -0.11331717580605, 0
2976, 0.29739556201148, -0.14892274843328, 0
2977, 0.78226933825029, 0.058883850109651, 0
2978, 0.3930016462382, 0.28926099016808, 0
2979, 0.37812754954325, 0.24611566692437, 0
2980, 0.40688867556265, 0.27384610407118, 0
2981, 0.75511359571572, -0.25767938461488, 0
2982, 0.28723593673919, -0.23640890125305, 0
2983, 0.26160333202098, -0.11161992252434, 0
2984, 0.72144430973871, 0.16523437110486, 0
2985, 0.21663779030416, -0.18961188443897, 0
2986, 0.19682727427337, -0.1911712449589, 0
2987, 0.60166785791536, -0.22909356746114, 0
2988, 0.61448181320085, -0.23499879047917, 0
2989, 0.60568071599684, -0.2371324374793, 0
2990, 0.41547701401714, -0.20025333935478, 0
2991, 0.26166439055818, 0.13124697525328, 0
2992, 0.82159639381683, -0.06845418358354, 0
2993, 0.82000724226902, -0.084615231585198, 0
2994, 0.78911140181166, -0.04254372596348, 0
2995, 0.15832471073391, -0.11896825091436, 0
2996, 0.63890466298111, 0.23377631704772, 0
2997, 0.6691980929995, 0.24435545712283, 0
2998, 0.1391783733241, 0.15607333742742, 0
2999, 0.2658101654835, 0.2498714163681, 0
3000, 0.30343701594832, -0.19778022696939, 0
3001, 0.72382869389522, -0.13770534860865, 0
3002, 0.71539559792318, -0.13707287598778, 0
3003, 0.75961451774304, -0.11953500074618, 0
3004, 0.2438880771925, 0.10360259640834, 0
3005, 0.14965782774467, 0.12572404008151, 0
3006, 0.14092520704505, 0.10356891931447, 0
3007, 0.13375452754673, 0.024440923235232, 0
3008, 0.75345284329381, 0.022985643608059, 0
3009, 0.47967123013516, 0.29444011609534, 0
3010, 0.25232040377896, -0.016106952289997, 0
3011, 0.38559559684618, 0.24666082983245, 0
3012, 0.32800845591148, 0.24889885110144, 0
3013, 0.39236694569715, 0.25123512788053, 0
3014, 0.29240800382695, 0.20758173559188, 0
3015, 0.29400982858099, 0.21403847525749, 0
3016, 0.24696959620704, 0.18771566205459, 0
3017, 0.24775942287093, -0.12120616626018, 0
3018, 0.26419531495558, -0.086891863482861, 0
3019, 0.2724843087709, -0.16932079273633, 0
3020, 0.20332263607694, -0.10925402728121, 0
3021, 0.23414862954403, -0.13626611963782, 0
3022, 0.62463395284644, -0.2332321783352, 0
3023, 0.25232417492195, 0.12053532695115, 0
3024, 0.30169517078189, 0.17795242556633, 0
3025, 0.26250423603996, 0.10763729166257, 0
3026, 0.75017103703324, 0.047394581753256, 0
3027, 0.74568726099454, 0.08284632201998, 0
3028, 0.73893175982349, 0.14034930588491, 0
3029, 0.20788536588297, -0.025980318947687, 0
3030, 0.71215063533954, -0.16252967457013, 0
3031, 0.72327263530223, -0.10846425459999, 0
3032, 0.72985655039966, -0.12106340226518, 0
3033, 0.77630255539826, -0.10262506182362, 0
3034, 0.7228226107873, -0.077350236510595, 0
3035, 0.78134180924548, -0.00055642291753624, 0
3036, 0.74878753429576, 0.022258135371359, 0
3037, 0.29729991502043, -0.11326123202134, 0
3038, 0.7582363870905, 0.024540446295997, 0
3039, 0.47331634779005, -0.22991584351306, 0
3040, 0.46851271707061, -0.25278638922742, 0
3041, 0.69039435815689, 0.23632456941824, 0
3042, 0.67699999645856, 0.23957930822683, 0
3043, 0.68226918000444, 0.23334006433247, 0
3044, 0.22706415472221, -0.052683131151667, 0
3045, 0.4505981383281, -0.25277883529462, 0
3046, 0.38852715443517, -0.18955914011768, 0
3047, 0.76399472973591, 0.10925238425109, 0
3048, 0.75189986459895, 0.10210391427428, 0
3049, 0.27135919622371, -0.064218403019974, 0
3050, 0.25673760895386, -0.1238670162536, 0
3051, 0.73272437105622, -0.11128842930788, 0
3052, 0.72678939087682, -0.11430760649296, 0
3053, 0.21258563285932, 0.054830628209735, 0
3054, 0.23661988650475, 0.051262249405932, 0
3055, 0.23003052598847, 0.085978535537038, 0
3056, 0.11819825267488, 0.033040873311497, 0
3057, 0.52623587277881, -0.21443565573836, 0
3058, 0.23640361374299, 0.1179629326751, 0
3059, 0.2667947340187, 0.11450415192158, 0
3060, 0.25943080826012, 0.1067208318078, 0
3061, 0.76680219182049, -0.0096464921388652, 0
3062, 0.74068987381578, -0.12693383809527, 0
3063, 0.41234679909268, -0.20033149708111, 0
3064, 0.39626355732947, -0.21017201753505, 0
3065, 0.76077727677346, 0.11455755153012, 0
3066, 0.75015755096176, 0.18532737275933, 0
3067, 0.4729332919274, 0.28325785684033, 0
3068, 0.30699305816714, -0.15619664137139, 0
3069, 0.69351060131738, -0.1632387799129, 0
3070, 0.66863786699222, -0.16322140694321, 0
3071, 0.3634613246987, 0.25325133676147, 0
3072, 0.72478292346265, 0.19021532205043, 0
3073, 0.72212956412027, 0.19599693863053, 0
3074, 0.2861628275617, 0.20083065329397, 0
3075, 0.27538825696967, 0.13503891732507, 0
3076, 0.29233009106004, 0.16382202643231, 0
3077, 0.27153368908651, -0.061063808222471, 0
3078, 0.21456545622701, -0.081400469452498, 0
3079, 0.74496300886017, 0.11767320723895, 0
3080, 0.28322696498639, 0.15940612953952, 0
3081, 0.3042651552225, 0.18123504098617, 0
3082, 0.28516459287687, 0.14232817683074, 0
3083, 0.26209222492485, 0.089378738263636, 0
3084, 0.23469534557206, 0.065463017937516, 0
3085, 0.13986949988456, 0.042021380451708, 0
3086, 0.33667859887533, 0.23759110073909, 0
3087, 0.25124713622113, 0.0071302162779613, 0
3088, 0.24863152905478, 0.016029141800322, 0
3089, 0.74515653220165, -0.022135625146286, 0
3090, 0.75356804164433, 0.0029755337240027, 0
3091, 0.63780198874726, -0.20960190071578, 0
3092, 0.34161540921544, 0.25696635122529, 0
3093, 0.36276352855254, 0.24761267891061, 0
3094, 0.66216829788631, -0.19108398520955, 0
3095, 0.66690201504701, -0.20094730248879, 0
3096, 0.65876228134758, -0.19631237867332, 0
3097, 0.43512159357202, -0.2313829398105, 0
3098, 0.44769646432149, -0.23583592056462, 0
3099, 0.70700242977703, 0.21305564847858, 0
3100, 0.6465096164677, 0.22615908071763, 0
3101, 0.65288928836659, 0.24884785598813, 0
3102, 0.73712444481231, -0.11840636500267, 0
3103, 0.34438323766598, -0.16019297482783, 0
3104, 0.36489247370069, -0.19471840932642, 0
3105, 0.23357774728377, -0.041766100226662, 0
3106, 0.74502129635748, 0.10220690723352, 0
3107, 0.25597267801364, 0.13366258204135, 0
3108, 0.22894205877884, 0.05824814403527, 0
3109, 0.22835817047753, -0.097819389237758, 0
3110, 0.26521656958405, -0.10669431257013, 0
3111, 0.63073293610177, 0.258551440203, 0
3112, 0.76755285808865, -0.069551705885655, 0
3113, 0.31719288771156, -0.13995135265068, 0
3114, 0.76860411650014, -0.026732901122257, 0
3115, 0.32378354812232, -0.22731100578306, 0
3116, 0.75719849982863, -0.037779328166102, 0
3117, 0.19604563888716, -0.12210721179725, 0
3118, 0.2413499326978, 0.17108303342119, 0
3119, 0.88108745985496, -0.23661832432839, 0
3120, 0.57872214031101, 0.28709974899694, 0
3121, 0.57028426958175, 0.27471353031091, 0
3122, 0.23498979203519, 2.5302016399609e-05, 0
3123, 0.40527967871533, -0.20448883525843, 0
3124, 0.45885984126335, -0.21788771069938, 0
3125, 0.28813645729247, 0.15287960447597, 0
3126, 0.27669243038211, 0.22968802979893, 0
3127, 0.77947491496295, -0.067564892622312, 0
3128, 0.73764271569401, -0.059234289723625, 0
3129, 0.61487132750772, 0.26075932249253, 0
3130, 0.69852393573671, -0.11260742547684, 0
3131, 0.73043669454087, 0.17754255263452, 0
3132, 0.73508066615107, 0.14955044653595, 0
3133, 0.37826961659431, 0.25551983722558, 0
3134, 0.34282312384108, 0.22690028131204, 0
3135, 0.5939006228959, 0.28027507910459, 0
3136, 0.64103128213201, 0.24277504615127, 0
3137, 0.60072357671992, 0.27927914499529, 0
3138, 0.32870834578036, -0.15834960578657, 0
3139, 0.40067586080993, -0.20443161574122, 0
3140, 0.63520270735601, 0.23409068885082, 0
3141, 0.74814496773106, 0.068934104115896, 0
3142, 0.36590386457092, -0.17731958603964, 0
3143, 0.34170328335558, -0.21717022423754, 0
3144, 0.33286302378355, -0.16047035626153, 0
3145, 0.83705457502854, 0.16778070253184, 0
3146, 0.48089173511639, -0.21361549120576, 0
3147, 0.59148048238128, -0.22573022816315, 0
3148, 0.58604071012917, -0.22808201871733, 0
3149, 0.72809482135985, -0.10527515549444, 0
3150, 0.66093409115474, 0.24735504111602, 0
3151, 0.31303066671621, -0.17848338659265, 0
3152, 0.31547353343389, 0.23519849270154, 0
3153, 0.22345790802578, 0.054567261966626, 0
3154, 0.09985017155823, 0.063915718803001, 0
3155, 0.22283337854317, 0.038141917447096, 0
3156, 0.25968062171248, -0.2641981153857, 0
3157, 0.60098988748005, -0.21869535216738, 0
3158, 0.59653892719762, -0.22262635227496, 0
3159, 0.63870056538622, 0.2480675531068, 0
3160, 0.74407056191212, -0.059943468085236, 0
3161, 0.75781280812344, 0.13195920844697, 0
3162, 0.60322128521608, -0.21369492832679, 0
3163, 0.32740503118871, -0.14829705895906, 0
3164, 0.93698336266732, -0.16324765509507, 0
3165, 0.39601887722, 0.25333292385193, 0
3166, 0.43335664081086, -0.24766403561311, 0
3167, 0.67788880412548, -0.20216616705162, 0
3168, 0.58720099866911, 0.28089322920181, 0
3169, 0.36342140503899, 0.23273824425702, 0
3170, 0.38573845194937, 0.26359023550258, 0
3171, 0.29262696463487, 0.20176895701717, 0
3172, 0.66317105430929, -0.18578118239614, 0
3173, 0.77717997036639, -0.037386949544357, 0
3174, 0.81678088028728, 0.21192527775699, 0
3175, 0.30081672562703, -0.12033916256815, 0
3176, 0.7261477582652, 0.18429134893724, 0
3177, 0.66373168103285, -0.15663140288847, 0
3178, 0.69867514013988, -0.13880463038631, 0
3179, 0.76124250424645, 0.14481971874472, 0
3180, 0.55520349984376, -0.23243271405557, 0
3181, 0.88199668248443, -0.030530727444138, 0
3182, 0.23970280092168, 0.10984454343261, 0
3183, 0.79517613375501, 0.056910868629479, 0
3184, 0.74474035118928, -0.01791549950546, 0
3185, 0.25767255493341, 0.00032197183130264, 0
3186, 0.26657098822642, 0.10001659153436, 0
3187, 0.32673067296686, 0.23571402386196, 0
3188, 0.57566530844354, -0.22925613208423, 0
3189, 0.87722503084744, 0.13442370711774, 0
3190, 0.25533857367442, 0.087978943903946, 0
3191, 0.54696950050734, -0.22931888381592, 0
3192, 0.54064454788094, 0.27156736576083, 0
3193, 0.41512997981633, -0.20713955862925, 0
3194, 0.5444190952896, 0.28767877762009, 0
3195, 0.50831711757754, -0.24701373056283, 0
3196, 0.88604801484629, 0.072106937687492, 0
3197, 0.46136166287244, 0.29337118377121, 0
3198, 0.4373200038102, 0.27090903440852, 0
3199, 0.25394748926525, 0.10925184063471, 0
3200, 0.18183963008963, 0.22670902019428, 0
3201, 0.70012244961021, 0.28616134501221, 0
3202, 0.51192263015628, -0.23927877577252, 0
3203, 0.83280666846967, -0.22270803704264, 0
3204, 0.2509839040461, -0.11410009302024, 0
3205, 0.65191376420461, -0.24838981969671, 0
3206, 0.43883224767339, 0.27588552955898, 0
3207, 0.22701797656405, 0.23425298622241, 0
3208, 0.20322254110528, 0.25332986607827, 0
3209, 0.81055555006237, 0.19629798117234, 0
3210, 0.34924992644394, 0.25899700720214, 0
3211, 0.57029927894926, 0.26604442236859, 0
3212, 0.40444518209782, -0.19504720202485, 0
3213, 0.6090227478372, -0.25250481592149, 0
3214, 0.51373626179237, -0.21467735926674, 0
3215, 0.64796537278673, -0.20196444331637, 0
3216, 0.23043791845869, 0.18152982083216, 0
3217, 0.66012760318375, 0.22458918027993, 0
3218, 0.68661642888778, 0.22395916703351, 0
3219, 0.66298365624846, 0.2304166624299, 0
3220, 0.28014726221779, -0.099551939834663, 0
3221, 0.25586767601189, -0.13857046055565, 0
3222, 0.92914732553361, -0.24306249084038, 0
3223, 0.49288758118104, 0.28352369014955, 0
3224, 0.30478255005013, -0.23971771540702, 0
3225, 0.72888060756112, -0.19910606628964, 0
3226, 0.70385804965442, -0.12976673352744, 0
3227, 0.255498124752, -0.13095107392926, 0
3228, 0.76801003235774, 0.096683335453334, 0
3229, 0.62596102168607, -0.21035334921485, 0
3230, 0.24847895177738, 0.034941602066407, 0
3231, 0.63093697802757, 0.24077006206986, 0
3232, 0.62008535960777, 0.25786035056141, 0
3233, 0.7962126402432, 0.16292447364526, 0
3234, 0.16960806558601, 0.074002033865061, 0
3235, 0.38742656730824, 0.25555251798891, 0
3236, 0.32465962905025, -0.17226980316619, 0
3237, 0.26639381720932, -0.11970582069366, 0
3238, 0.36059512018925, -0.20200323267429, 0
3239, 0.48413820886361, 0.28905447243278, 0
3240, 0.27670915049876, -0.10223675383167, 0
3241, 0.71246110018812, 0.20303543595498, 0
3242, 0.36108449268001, -0.22351248931861, 0
3243, 0.7582028767944, 0.086880743213011, 0
3244, 0.79467761681102, 0.19250986223025, 0
3245, 0.22184415572284, -0.13318008362578, 0
3246, 0.69620139398893, -0.13286664930598, 0
3247, 0.74400068815001, 0.037097672128564, 0
3248, 0.74436426989149, 0.017883168934166, 0
3249, 0.24005191282771, 0.13924905108418, 0
3250, 0.28477277797731, 0.20814226680112, 0
3251, 0.7439883200637, -0.014058574851536, 0
3252, 0.74068808618819, 0.11706057388787, 0
3253, 0.26837649921756, -0.080730487157665, 0
3254, 0.53239789907266, 0.28276487809765, 0
3255, 0.70131126763974, -0.10677421637575, 0
3256, 0.25804311361398, -0.0120761230941, 0
3257, 0.74417689987728, -0.10307262405102, 0
3258, 0.32095236844992, 0.2568846393482, 0
3259, 0.5920018488456, -0.24012068135706, 0
3260, 0.26862007829317, -0.059848835458308, 0
3261, 0.21870505784544, 0.048705608854811, 0
3262, 0.23439510330082, 0.018897523024085, 0
3263, 0.48638862502738, -0.2215290144952, 0
3264, 0.71394143617329, -0.11342359519064, 0
3265, 0.75312973767487, 0.079273303567681, 0
3266, 0.63771607258296, 0.23787260637684, 0
3267, 0.37933508857598, -0.23490420434723, 0
3268, 0.73844476120505, -0.10760088081265, 0
3269, 0.74426884672771, 0.056883747259025, 0
3270, 0.46801651736727, -0.2445013893204, 0
3271, 0.38250745210645, -0.26944152645968, 0
3272, 0.34952737621588, -0.232932797975, 0
3273, 0.42468235800208, -0.21111362853246, 0
3274, 0.29150127550645, -0.19457466762964, 0
3275, 0.27982079834464, -0.18965123085443, 0
3276, 0.26967143182474, -0.1830363061552, 0
3277, 0.36667216280244, -0.20484331813296, 0
3278, 0.3533422216212, -0.167125825845, 0
3279, 0.34970522916974, -0.19389798206353, 0
3280, 0.76438784719981, 0.23560701282804, 0
3281, 0.71742777518057, 0.28453682010836, 0
3282, 0.23776502425957, 0.15415934881907, 0
3283, 0.23070051605755, 0.21616615711916, 0
3284, 0.71154373184455, -0.193800996345, 0
3285, 0.70045365822816, -0.19812517824464, 0
3286, 0.68963428259742, -0.20109258211901, 0
3287, 0.69146514980277, -0.28371197410783, 0
3288, 0.71325825848166, -0.28302282049127, 0
3289, 0.73550371970789, -0.28127543751387, 0
3290, 0.75933762795354, -0.27807418385511, 0
3291, 0.78473684248414, -0.2719908282001, 0
3292, 0.85771218555613, -0.10853274724918, 0
3293, 0.70186888115785, -0.1343776216685, 0
3294, 0.8156033005742, -0.25809669457932, 0
3295, 0.42223695903201, -0.26340902979674, 0
3296, 0.42815043729026, -0.20796505413236, 0
3297, 0.42096819523588, -0.19955781664174, 0
3298, 0.38707223634504, -0.25535598748467, 0
3299, 0.37616826948073, -0.2574532542538, 0
3300, 0.36431135700033, -0.25845677048482, 0
3301, 0.35129111667033, -0.25852049214188, 0
3302, 0.33685934045963, -0.25779684379862, 0
3303, 0.32089968601693, -0.25640935912572, 0
3304, 0.30347804262582, -0.25443322336904, 0
3305, 0.28419038990475, -0.25146296467515, 0
3306, 0.26145143810131, -0.24651776743371, 0
3307, 0.23357519272552, -0.27992021707672, 0
3308, 0.23040752018692, -0.25859331268547, 0
3309, 0.19214253564903, -0.23361418281379, 0
3310, 0.22828997357008, -0.20615283359762, 0
3311, 0.20684602391503, -0.21116205299033, 0
3312, 0.39063542531035, -0.21006462703718, 0
3313, 0.46812040395231, -0.21864997102825, 0
3314, 0.24592833235823, -0.22124720543443, 0
3315, 0.22726643119987, -0.23404977858543, 0
3316, 0.23816864693642, 0.0051653327139869, 0
3317, 0.16635325866927, 0.012158574459187, 0
3318, 0.30144405368466, 0.24182417573442, 0
3319, 0.31258800395687, 0.24781275010369, 0
3320, 0.48871129433661, -0.25534932282196, 0
3321, 0.49385634938678, -0.26477067609101, 0
3322, 0.38558550355836, -0.2024585562735, 0
3323, 0.38472704936263, -0.20956109421973, 0
3324, 0.38467012044348, -0.21717254537402, 0
3325, 0.38561422031297, -0.22530107704355, 0
3326, 0.38768093594132, -0.23393965230539, 0
3327, 0.39124029935576, -0.24296199078511, 0
3328, 0.39670870080454, -0.25222477337137, 0
3329, 0.40429427973619, -0.26180892145821, 0
3330, 0.41471517266157, -0.27179362956521, 0
3331, 0.42882386321068, -0.281295298321, 0
3332, 0.44294760983755, -0.28519756612666, 0
3333, 0.4568840380166, -0.28633680145403, 0
3334, 0.47066390234938, -0.28595833395227, 0
3335, 0.48494491692231, -0.28397921157945, 0
3336, 0.41764499046999, -0.19999017199853, 0
3337, 0.47714115801274, -0.21845324559331, 0
3338, 0.38691708856051, -0.19582904895264, 0
3339, 0.50151190004052, -0.27821968606136, 0
3340, 0.74966097772773, 0.032724288289754, 0
3341, 0.7564719236385, 0.050359307777624, 0
3342, 0.7548694510267, 0.013404187982865, 0
3343, 0.80494944660091, 0.027981255450258, 0
3344, 0.26277164362308, 0.10528128254932, 0
3345, 0.24989955757105, 0.090875867245268, 0
3346, 0.26458002098915, 0.12426438066389, 0
3347, 0.21825050901164, 0.12482808401588, 0
3348, 0.51863218359816, 0.27716550077569, 0
3349, 0.5110833897824, 0.29167633570039, 0
3350, 0.45528800326422, 0.27397007116707, 0
3351, 0.44654931098718, 0.2894927668231, 0
******* E L E M E N T S *************
*ELEMENT, type=CPS4, ELSET=Surface1
1, 579, 1417, 1418, 1415
2, 1415, 1418, 1416, 578
3, 1418, 149, 160, 1416
4, 1417, 159, 149, 1418
5, 615, 1421, 1422, 1419
6, 1419, 1422, 1420, 614
7, 1422, 60, 71, 1420
8, 1421, 70, 60, 1422
9, 871, 2598, 3297, 814
10, 1245, 815, 3193, 1944
11, 1204, 2856, 619, 1514
12, 829, 1084, 1088, 1085
13, 1587, 1472, 2803, 1761
14, 658, 1442, 1472, 1587
15, 595, 1362, 1442, 658
16, 3349, 1440, 111, 101
17, 115, 1433, 1434, 104
18, 1950, 658, 1587, 3348
19, 1612, 308, 404, 659
20, 1433, 570, 1432, 1434
21, 575, 1437, 1438, 1435
22, 1435, 1438, 1436, 576
23, 1438, 144, 155, 1436
24, 1437, 154, 144, 1438
25, 569, 112, 102, 597
26, 3349, 1275, 595, 596
27, 1615, 3348, 1317, 1762
28, 3239, 1428, 925, 2716
29, 616, 1445, 1446, 1443
30, 1443, 1446, 58, 69
31, 1446, 1444, 68, 58
32, 1445, 617, 1444, 1446
33, 554, 1449, 1450, 1447
34, 1447, 1450, 1448, 552
35, 1450, 12, 21, 1448
36, 1449, 20, 12, 1450
37, 157, 147, 1454, 1451
38, 1451, 1454, 1452, 581
39, 1454, 1453, 580, 1452
40, 147, 158, 1453, 1454
41, 67, 57, 1457, 1455
42, 1455, 1457, 1456, 618
43, 1457, 1444, 617, 1456
44, 57, 68, 1444, 1457
45, 561, 1460, 1461, 1458
46, 1458, 1461, 1459, 562
47, 1461, 127, 139, 1459
48, 1460, 138, 127, 1461
49, 2930, 1144, 2770, 1012
50, 3164, 1148, 2782, 2850
51, 2779, 627, 2965, 2966
52, 616, 1443, 1466, 1465
53, 1465, 1466, 1421, 615
54, 1466, 59, 70, 1421
55, 1443, 69, 59, 1466
56, 560, 1468, 1469, 1467
57, 1467, 1469, 1437, 575
58, 1469, 143, 154, 1437
59, 1468, 153, 143, 1469
60, 1307, 3235, 3013, 3165
61, 3235, 2288, 2101, 3013
62, 1473, 1890, 3254, 1958
63, 2717, 1980, 3239, 2802
64, 1440, 1361, 1473, 1441
65, 1039, 1475, 2285, 1047
66, 1347, 3090, 1475, 1039
67, 510, 203, 1481, 1478
68, 1478, 1481, 1479, 1100
69, 1481, 1480, 1087, 1479
70, 203, 509, 1480, 1481
71, 1391, 1688, 3185, 2400
72, 2391, 1565, 2328, 779
73, 2500, 1818, 453, 260
74, 1385, 2488, 1711, 787
75, 1485, 2187, 3253, 1486
76, 781, 1359, 2188, 1360
77, 788, 3260, 2139, 2314
78, 156, 146, 1491, 1489
79, 1489, 1491, 1490, 577
80, 1491, 1451, 581, 1490
81, 146, 157, 1451, 1491
82, 1670, 864, 852, 1574
83, 2208, 1745, 2613, 890
84, 2883, 1964, 1213, 2692
85, 890, 2613, 2903, 3037
86, 1302, 705, 706, 742
87, 691, 2638, 3171, 3074
88, 1691, 2701, 1830, 1227
89, 3198, 1223, 2892, 669
90, 1968, 117, 107, 1966
91, 1967, 299, 413, 1650
92, 1811, 1600, 1967, 661
93, 1373, 2848, 1955, 1280
94, 3069, 2204, 2672, 2917
95, 3030, 1338, 2688, 1136
96, 1065, 2430, 2063, 1147
97, 451, 262, 1509, 1506
98, 1506, 1509, 1507, 734
99, 1509, 1508, 735, 1507
100, 262, 450, 1508, 1509
101, 2601, 287, 425, 1708
102, 2590, 2313, 1708, 2099
103, 1511, 648, 3133, 1599
104, 2602, 649, 2809, 2980
105, 3146, 2855, 500, 213
106, 2403, 1204, 1514, 2386
107, 1725, 3214, 2888, 2258
108, 2579, 1170, 2404, 1642
109, 598, 1516, 1860, 1174
110, 558, 1973, 319, 393
111, 1854, 1860, 558, 1856
112, 1975, 1534, 2876, 932
113, 1254, 387, 326, 1926
114, 2872, 3100, 384, 329
115, 3232, 912, 2871, 1936
116, 3100, 917, 328, 384
117, 1011, 2428, 3255, 1057
118, 1282, 3268, 3051, 3102
119, 140, 129, 1529, 1527
120, 1527, 1529, 1528, 563
121, 1529, 141, 152, 1528
122, 129, 8, 141, 1529
123, 622, 2068, 1281, 1147
124, 2120, 628, 1956, 3119
125, 3284, 2815, 2688, 1135
126, 2904, 1918, 2063, 1280
127, 3211, 1586, 1859, 1976
128, 1533, 1237, 1179, 2606
129, 1536, 1573, 3211, 930
130, 569, 597, 1951, 1318
131, 2268, 216, 496, 2164
132, 1408, 2269, 875, 3124
133, 1246, 802, 1954, 2954
134, 876, 3313, 1408, 807
135, 1774, 1301, 3244, 1932
136, 898, 590, 2670, 1931
137, 2886, 1641, 2765, 1300
138, 2332, 1541, 958, 1641
139, 429, 284, 1546, 1543
140, 1543, 1546, 1544, 685
141, 1546, 1545, 688, 1544
142, 284, 428, 1545, 1546
143, 1693, 1969, 1643, 2387
144, 2388, 821, 1694, 3202
145, 2838, 2388, 3202, 3195
146, 1969, 1279, 1083, 1643
147, 518, 195, 1553, 1550
148, 1550, 1553, 1551, 1128
149, 1553, 1552, 1129, 1551
150, 195, 517, 1552, 1553
151, 1089, 1556, 1557, 1554
152, 2579, 1642, 1425, 1590
153, 1184, 503, 210, 1239
154, 1556, 507, 206, 1557
155, 516, 197, 1561, 1558
156, 1558, 1561, 1559, 1068
157, 1561, 1560, 1069, 1559
158, 197, 515, 1560, 1561
159, 2493, 1523, 1115, 3177
160, 1871, 1947, 186, 526
161, 2429, 1922, 1329, 1058
162, 1360, 1494, 776, 2140
163, 2308, 461, 252, 761
164, 762, 1833, 1293, 2352
165, 1319, 1320, 2138, 790
166, 3337, 1409, 2939, 825
167, 1943, 2163, 1882, 1178
168, 2756, 2822, 2823, 2678
169, 1535, 314, 398, 928
170, 2956, 1972, 1974, 1180
171, 2070, 931, 933, 3121
172, 930, 1175, 1973, 1516
173, 3303, 2059, 1410, 3302
174, 1310, 2825, 3068, 1897
175, 2371, 349, 363, 2477
176, 1578, 2371, 2477, 3027
177, 2373, 3228, 608, 1894
178, 87, 76, 1583, 1580
179, 1580, 1583, 1581, 588
180, 1583, 1582, 587, 1581
181, 76, 88, 1582, 1583
182, 1980, 103, 114, 3009
183, 660, 1615, 1891, 1890
184, 3192, 399, 314, 1535
185, 1614, 405, 308, 1612
186, 35, 1589, 1590, 30
187, 30, 1590, 1425, 34
188, 2882, 1080, 2303, 1244
189, 2971, 1547, 2915, 2116
190, 427, 286, 1594, 1591
191, 1591, 1594, 1592, 689
192, 1594, 1593, 644, 1592
193, 286, 426, 1593, 1594
194, 2186, 2788, 1207, 3109
195, 1385, 787, 1488, 1384
196, 1567, 1358, 462, 251
197, 1786, 1487, 249, 463
198, 3097, 2623, 583, 1278
199, 1695, 2517, 1079, 3098
200, 2163, 2302, 1666, 1882
201, 1780, 2980, 670, 1679
202, 662, 3197, 105, 116
203, 1707, 1832, 1864, 1602
204, 665, 2588, 650, 672
205, 670, 656, 2683, 2033
206, 2312, 2287, 417, 296
207, 1510, 1379, 3134, 2313
208, 1681, 2034, 416, 297
209, 2258, 2888, 1184, 822
210, 2129, 829, 1085, 1970
211, 1078, 2358, 1092, 1170
212, 1409, 3146, 213, 499
213, 449, 264, 1607, 1604
214, 1604, 1607, 1605, 730
215, 2532, 1826, 699, 2582
216, 2762, 733, 1827, 2013
217, 2416, 2549, 1196, 2414
218, 1350, 2469, 3004, 3182
219, 1194, 3345, 1655, 2397
220, 3234, 1302, 742, 2275
221, 3254, 1430, 1613, 1363
222, 1275, 1318, 2751, 2008
223, 596, 595, 658, 1950
224, 1584, 1276, 1614, 926
225, 1824, 369, 344, 1617
226, 2135, 602, 968, 2662
227, 735, 1508, 1620, 1619
228, 1619, 1620, 1604, 730
229, 1620, 263, 449, 1604
230, 1508, 450, 263, 1620
231, 1294, 2875, 1264, 915
232, 915, 2081, 923, 1263
233, 916, 594, 1935, 909
234, 3140, 1926, 1664, 934
235, 1623, 2596, 1305, 3129
236, 3236, 1842, 1783, 2240
237, 2465, 2827, 1314, 3163
238, 2294, 891, 867, 2464
239, 2418, 1986, 2494, 2307
240, 2402, 2306, 2327, 1987
241, 3010, 2749, 3256, 1793
242, 721, 1835, 1391, 724
243, 1205, 2503, 2612, 2485
244, 241, 2902, 2208, 472
245, 778, 245, 467, 2206
246, 477, 3113, 2470, 235
247, 2769, 2850, 1638, 2964
248, 3119, 1956, 2699, 1007
249, 3203, 2064, 626, 2817
250, 1150, 2771, 1366, 2674
251, 2660, 339, 373, 1616
252, 1542, 2744, 346, 366
253, 2380, 2603, 897, 970
254, 1091, 1078, 1170, 2579
255, 818, 2116, 1725, 1084
256, 2114, 1692, 2131, 2115
257, 1239, 210, 502, 1549
258, 2492, 2253, 2254, 2452
259, 1113, 2451, 184, 528
260, 2329, 3069, 1338, 3030
261, 1017, 1374, 1853, 3264
262, 2322, 2562, 1649, 1119
263, 2318, 2879, 2714, 1064
264, 1057, 3255, 2317, 1330
265, 1504, 2446, 1989, 3003
266, 1222, 1501, 409, 304
267, 2087, 1773, 1772, 1656
268, 2892, 412, 301, 1189
269, 1772, 2033, 2683, 1811
270, 1263, 923, 919, 2455
271, 1299, 2340, 2341, 3231
272, 1253, 3231, 1255, 3266
273, 3136, 1253, 3266, 1662
274, 3012, 2897, 1157, 1865
275, 648, 2625, 2615, 3133
276, 1306, 671, 2681, 2600
277, 1605, 1607, 1794, 1208
278, 2480, 1959, 3125, 2877
279, 2795, 2877, 436, 277
280, 1499, 669, 1502, 1978
281, 3350, 1740, 1190, 1965
282, 3197, 1433, 115, 105
283, 662, 574, 1739, 3197
284, 452, 261, 1661, 1659
285, 1659, 1661, 1660, 732
286, 1661, 1506, 734, 1660
287, 261, 451, 1506, 1661
288, 1255, 1254, 1926, 3140
289, 1298, 323, 389, 1400
290, 3139, 3123, 2839, 1571
291, 826, 3139, 1571, 869
292, 811, 1537, 224, 488
293, 1342, 1741, 491, 222
294, 1735, 2718, 2938, 2691
295, 2437, 3049, 3077, 3260
296, 3260, 3077, 2142, 2139
297, 2366, 2957, 2828, 1784
298, 1683, 2165, 3276, 2486
299, 786, 848, 3278, 2787
300, 733, 738, 1791, 1827
301, 2195, 2425, 3085, 771
302, 3347, 2123, 3058, 728
303, 2362, 1610, 698, 2124
304, 3186, 268, 444, 1195
305, 694, 3249, 2526, 2283
306, 1172, 647, 652, 3169
307, 1632, 3220, 1333, 880
308, 469, 1335, 1746, 243
309, 1217, 860, 1683, 2611
310, 1266, 247, 465, 1709
311, 2306, 727, 1370, 2327
312, 1819, 1687, 258, 454
313, 1577, 966, 2169, 3048
314, 608, 1577, 3048, 1690
315, 3265, 2510, 1689, 1993
316, 1985, 3265, 1993, 981
317, 1196, 2552, 718, 3059
318, 2582, 699, 3082, 704
319, 2387, 1643, 2972, 820
320, 1548, 2950, 2822, 2756
321, 1970, 1085, 819, 1279
322, 1642, 2404, 2838, 2161
323, 2378, 2270, 3097, 2302
324, 3166, 2378, 2302, 2163
325, 815, 816, 582, 3193
326, 1989, 3257, 3268, 1282
327, 1872, 3003, 1704, 1120
328, 1853, 1705, 1011, 1698
329, 1117, 1702, 1703, 1700
330, 1700, 1703, 1701, 1123
331, 1703, 191, 521, 1701
332, 1702, 522, 191, 1703
333, 1394, 2316, 2248, 1367
334, 2445, 176, 536, 1404
335, 1372, 1281, 2595, 1119
336, 1864, 1171, 1653, 2044
337, 1601, 654, 653, 1233
338, 1865, 1157, 645, 3086
339, 780, 1786, 463, 250
340, 893, 2219, 2137, 1596
341, 2205, 893, 1596, 2490
342, 1669, 2437, 3260, 788
343, 1897, 3068, 2368, 2273
344, 841, 2461, 2824, 1844
345, 2166, 835, 2957, 2366
346, 512, 201, 1717, 1714
347, 1714, 1717, 1715, 1076
348, 1717, 1716, 1075, 1715
349, 201, 511, 1716, 1717
350, 71, 61, 1720, 1420
351, 1420, 1720, 1718, 614
352, 1720, 1719, 586, 1718
353, 61, 72, 1719, 1720
354, 1293, 2390, 2391, 779
355, 2326, 2568, 1755, 1630
356, 3326, 1240, 1570, 3325
357, 1295, 813, 2889, 3045
358, 3321, 3320, 1424, 868
359, 749, 828, 2925, 873
360, 851, 3238, 3104, 838
361, 1727, 849, 2707, 1713
362, 1726, 839, 798, 3103
363, 798, 1309, 482, 231
364, 2939, 214, 498, 805
365, 1782, 2516, 2990, 3063
366, 807, 1408, 3124, 2231
367, 2215, 1574, 2825, 1310
368, 863, 2643, 3204, 855
369, 3175, 1737, 1914, 2546
370, 2976, 2901, 2785, 800
371, 784, 791, 782, 3049
372, 2141, 1488, 780, 1358
373, 1565, 2141, 1358, 1567
374, 472, 2208, 890, 240
375, 1684, 1896, 2485, 2612
376, 1189, 301, 411, 667
377, 1978, 1502, 1221, 2861
378, 666, 7, 118, 2042
379, 2683, 2078, 1600, 1811
380, 2232, 3166, 2163, 1943
381, 2909, 812, 3296, 3273
382, 1954, 1945, 2890, 1723
383, 2297, 810, 1598, 1240
384, 2367, 1632, 880, 854
385, 845, 227, 485, 850
386, 3017, 2504, 3227, 3050
387, 243, 1746, 1738, 470
388, 1047, 2285, 2284, 1476
389, 2322, 1119, 2595, 2993
390, 1750, 169, 543, 1748
391, 2781, 557, 1949, 2266
392, 1376, 2236, 2239, 2994
393, 1061, 1151, 3292, 2805
394, 1753, 171, 541, 1751
395, 1752, 542, 171, 1753
396, 1833, 766, 2720, 3105
397, 769, 2569, 2851, 723
398, 770, 2304, 3010, 1793
399, 2567, 1631, 1754, 2144
400, 21, 13, 1759, 1448
401, 1448, 1759, 1757, 552
402, 3270, 1722, 808, 813
403, 828, 3045, 2840, 2925
404, 1180, 1974, 1971, 3194
405, 1586, 1235, 1181, 1859
406, 601, 1517, 1173, 1515
407, 1180, 3194, 1534, 1975
408, 3349, 101, 112, 569
409, 597, 2717, 2802, 1951
410, 1439, 1971, 109, 99
411, 1951, 2802, 1763, 3223
412, 540, 173, 1767, 1764
413, 2127, 1699, 1766, 1906
414, 173, 539, 1766, 1767
415, 949, 1770, 1771, 1768
416, 1768, 1771, 1769, 939
417, 1771, 334, 378, 1769
418, 1770, 379, 334, 1771
419, 551, 3206, 1499, 1977
420, 1740, 2861, 2752, 1190
421, 1500, 1222, 304, 408
422, 3206, 2043, 1657, 3198
423, 2663, 960, 2766, 602
424, 2676, 1798, 962, 2604
425, 1617, 344, 368, 941
426, 967, 2333, 2726, 3161
427, 155, 145, 1776, 1436
428, 1436, 1776, 1775, 576
429, 1776, 1489, 577, 1775
430, 145, 156, 1489, 1776
431, 1052, 2657, 1396, 2524
432, 1022, 2311, 2127, 2523
433, 2916, 2346, 2931, 1135
434, 672, 3071, 2625, 648
435, 2627, 2036, 1251, 2074
436, 2044, 1653, 1866, 2079
437, 1652, 2614, 651, 1306
438, 2958, 853, 1326, 833
439, 2294, 2464, 2502, 844
440, 556, 1177, 797, 3272
441, 2502, 2167, 3151, 858
442, 1494, 1633, 877, 776
443, 2217, 1668, 2143, 3044
444, 3077, 1266, 1709, 2142
445, 2139, 2142, 1709, 2209
446, 676, 1789, 1790, 1787
447, 1787, 1790, 1788, 679
448, 1790, 282, 430, 1788
449, 1789, 431, 282, 1790
450, 2398, 2550, 442, 271
451, 2282, 3016, 3216, 3118
452, 3083, 446, 267, 712
453, 2226, 3089, 1747, 2264
454, 611, 1807, 2575, 3026
455, 1795, 2226, 2264, 2262
456, 1476, 2284, 1353, 3251
457, 139, 128, 1797, 1459
458, 1459, 1797, 1796, 562
459, 1797, 1527, 563, 1796
460, 128, 140, 1527, 1797
461, 1909, 338, 374, 2654
462, 1331, 2820, 3073, 3072
463, 381, 332, 1803, 1800
464, 1800, 1803, 1801, 951
465, 1803, 1802, 948, 1801
466, 332, 380, 1802, 1803
467, 3026, 2575, 985, 2710
468, 1407, 988, 2173, 1405
469, 1355, 2739, 978, 2457
470, 1045, 1875, 613, 1049
471, 2005, 2781, 987, 2376
472, 1044, 612, 3183, 2746
473, 3269, 353, 359, 1807
474, 989, 2710, 2518, 1808
475, 1966, 107, 7, 666
476, 1977, 1499, 1978, 1188
477, 3351, 551, 1977, 1658
478, 1968, 1966, 2087, 1192
479, 2709, 355, 357, 3247
480, 1475, 984, 1877, 2285
481, 517, 196, 1817, 1552
482, 1552, 1817, 1816, 1129
483, 1817, 1558, 1068, 1816
484, 196, 516, 1558, 1817
485, 2574, 1370, 456, 257
486, 1930, 1820, 2194, 739
487, 3088, 2365, 1389, 763
488, 1986, 1609, 3087, 2494
489, 1822, 170, 542, 1752
490, 1748, 543, 170, 1822
491, 970, 897, 964, 1357
492, 3161, 2726, 963, 2332
493, 958, 2676, 2604, 3065
494, 2677, 2380, 970, 2653
495, 695, 1252, 1250, 1654
496, 1691, 1227, 2462, 693
497, 2469, 1194, 2397, 3004
498, 634, 1961, 1352, 1959
499, 704, 3082, 700, 1831
500, 1680, 3012, 1865, 573
501, 2098, 682, 3318, 3319
502, 2614, 1233, 2588, 665
503, 2614, 665, 1511, 651
504, 1818, 2528, 259, 453
505, 2357, 457, 256, 727
506, 1369, 726, 3155, 2424
507, 764, 3029, 2719, 766
508, 161, 151, 1838, 1836
509, 1836, 1838, 1837, 553
510, 1838, 10, 19, 1837
511, 151, 1, 10, 1838
512, 2469, 2923, 2467, 1194
513, 1983, 1195, 444, 269
514, 1674, 265, 447, 1672
515, 2762, 2013, 705, 1302
516, 3080, 2480, 2877, 2795
517, 2152, 701, 692, 3023
518, 1962, 3250, 2793, 2580
519, 1826, 273, 439, 699
520, 866, 3142, 849, 1727
521, 2366, 1784, 1842, 3236
522, 1519, 1263, 2455, 1261
523, 917, 2736, 385, 328
524, 1936, 2871, 1401, 921
525, 2673, 1505, 1336, 1503
526, 2917, 1114, 2346, 2916
527, 3177, 1115, 188, 524
528, 1116, 2330, 189, 523
529, 72, 62, 1850, 1719
530, 1719, 1850, 1848, 586
531, 1850, 1849, 589, 1848
532, 62, 73, 1849, 1850
533, 2905, 52, 44, 2686
534, 1210, 54, 65, 2694
535, 1852, 618, 2108, 1638
536, 3290, 3289, 48, 40
537, 1236, 932, 1535, 928
538, 1517, 598, 1174, 1173
539, 1856, 1855, 936, 1854
540, 320, 392, 1855, 1856
541, 392, 321, 1858, 1855
542, 1855, 1858, 1857, 936
543, 3150, 922, 1845, 2997
544, 2081, 1651, 910, 3101
545, 2956, 1572, 931, 2070
546, 1536, 930, 1516, 598
547, 2956, 2070, 601, 1518
548, 580, 1453, 1862, 1861
549, 1861, 1862, 1417, 579
550, 1862, 148, 159, 1417
551, 1453, 158, 148, 1862
552, 3258, 3319, 2897, 3012
553, 3071, 1678, 673, 3093
554, 2287, 3165, 295, 417
555, 1652, 1306, 2600, 646
556, 668, 2079, 292, 420
557, 2078, 2589, 415, 298
558, 653, 2074, 1512, 2865
559, 1073, 1869, 1870, 1867
560, 1867, 1870, 1868, 1072
561, 1870, 199, 513, 1868
562, 1869, 514, 199, 1870
563, 1526, 1116, 523, 190
564, 1884, 1330, 3130, 1066
565, 2330, 3177, 524, 189
566, 1778, 1018, 1063, 1646
567, 2781, 2266, 1904, 987
568, 2399, 1903, 611, 3341
569, 1916, 1045, 1049, 2780
570, 609, 3342, 2708, 1346
571, 1046, 1476, 3251, 3184
572, 1804, 2780, 2864, 609
573, 1747, 3089, 1048, 1750
574, 3251, 1353, 2228, 2286
575, 1763, 2716, 1957, 2009
576, 1950, 3348, 1615, 660
577, 3223, 1763, 2009, 1584
578, 2716, 925, 1991, 1957
579, 1086, 1880, 1881, 1879
580, 1879, 1881, 1556, 1089
581, 1881, 205, 507, 1556
582, 1880, 508, 205, 1881
583, 1278, 583, 1696, 2193
584, 1065, 1504, 3003, 1872
585, 2525, 2318, 1064, 2685
586, 1645, 2434, 2448, 1374
587, 1034, 2816, 2846, 2479
588, 1124, 1888, 1889, 1886
589, 1886, 1889, 1887, 1126
590, 1889, 193, 519, 1887
591, 1888, 520, 193, 1889
592, 926, 1614, 1612, 1427
593, 2803, 1892, 403, 310
594, 1890, 1891, 1430, 3254
595, 568, 1585, 312, 400
596, 2004, 348, 364, 1398
597, 993, 1327, 1992, 1397
598, 2511, 1893, 1985, 1994
599, 3020, 3117, 1206, 1311
600, 1738, 889, 1632, 2367
601, 1635, 2857, 2610, 2045
602, 1914, 2046, 1312, 1634
603, 377, 336, 1901, 1898
604, 1898, 1901, 1899, 938
605, 1901, 1900, 953, 1899
606, 336, 376, 1900, 1901
607, 2575, 354, 358, 985
608, 2977, 1902, 1287, 1924
609, 2377, 1805, 3340, 2519
610, 3112, 2563, 1020, 2508
611, 1647, 3293, 3178, 1053
612, 2448, 1060, 2410, 1705
613, 1766, 539, 174, 1906
614, 955, 1908, 1909, 1907
615, 2960, 1540, 957, 2663
616, 1908, 375, 338, 1909
617, 1087, 1480, 1911, 1910
618, 1910, 1911, 1880, 1086
619, 1911, 204, 508, 1880
620, 1480, 509, 204, 1911
621, 2655, 2970, 2565, 3115
622, 858, 3151, 1267, 2256
623, 1744, 796, 800, 2785
624, 1963, 1269, 1744, 2503
625, 3035, 2747, 3061, 2491
626, 2375, 2742, 1001, 1000
627, 2227, 1795, 2262, 3114
628, 3289, 3288, 39, 48
629, 3178, 2315, 1921, 2255
630, 3167, 3286, 1133, 2919
631, 627, 3286, 3167, 2965
632, 3320, 2624, 2018, 1424
633, 817, 3063, 1342, 806
634, 2193, 1696, 2520, 1945
635, 2446, 1141, 1923, 1697
636, 1372, 1119, 1649, 3033
637, 1704, 1282, 3102, 3062
638, 2431, 1355, 2457, 992
639, 1815, 2174, 1345, 1874
640, 2173, 1815, 1874, 1405
641, 994, 995, 2734, 999
642, 910, 3159, 3136, 913
643, 2875, 2453, 3111, 1264
644, 920, 1662, 1626, 1522
645, 679, 1788, 1928, 1927
646, 1927, 1928, 1543, 685
647, 1928, 283, 429, 1543
648, 1788, 430, 283, 1928
649, 1482, 1834, 1819, 2528
650, 1341, 1482, 2528, 1818
651, 2832, 2529, 2278, 1498
652, 1823, 2289, 1824, 1640
653, 1618, 961, 3028, 2333
654, 1540, 3066, 2727, 969
655, 428, 285, 1934, 1545
656, 1545, 1934, 1933, 688
657, 1934, 1591, 689, 1933
658, 285, 427, 1591, 1934
659, 1926, 326, 386, 1664
660, 1262, 390, 323, 1298
661, 922, 1260, 3219, 1845
662, 2524, 1396, 1644, 2880
663, 1120, 1704, 3062, 1706
664, 629, 1884, 1066, 1524
665, 376, 337, 1939, 1900
666, 1900, 1939, 1938, 953
667, 1939, 1908, 955, 1938
668, 337, 375, 1908, 1939
669, 541, 172, 1941, 1751
670, 2389, 1019, 1375, 2324
671, 1027, 2310, 1940, 2323
672, 172, 540, 1764, 1941
673, 2538, 3212, 223, 489
674, 1571, 2839, 3212, 2538
675, 2162, 3098, 2270, 2378
676, 3212, 806, 490, 223
677, 1423, 1953, 2598, 871
678, 2270, 2969, 2623, 3097
679, 1244, 1693, 1667, 2624
680, 1108, 1778, 2201, 2921
681, 3070, 2493, 3177, 2330
682, 1053, 3178, 2255, 2025
683, 1948, 2536, 356, 550
684, 1874, 1345, 3269, 1903
685, 2864, 3038, 3008, 1813
686, 2267, 1749, 3248, 1873
687, 1980, 3009, 1428, 3239
688, 1363, 1613, 2876, 1534
689, 1979, 1981, 1277, 1991
690, 927, 406, 307, 1276
691, 2954, 1954, 1723, 1724
692, 825, 2939, 805, 3313
693, 1569, 1944, 1883, 3123
694, 1145, 55, 66, 2119
695, 2806, 1034, 2479, 3160
696, 2815, 2783, 1136, 2688
697, 3291, 3290, 40, 49
698, 1439, 1316, 3194, 1971
699, 659, 404, 309, 929
700, 2008, 1427, 2948, 1362
701, 1761, 2803, 310, 402
702, 693, 677, 1829, 1497
703, 1352, 704, 1831, 1841
704, 695, 1654, 634, 1351
705, 2288, 2640, 3011, 2101
706, 3210, 3092, 1234, 657
707, 1863, 1679, 675, 2042
708, 3071, 3093, 642, 2625
709, 1351, 634, 1959, 2480
710, 2584, 695, 1351, 2571
711, 2216, 2975, 1635, 878
712, 846, 845, 850, 1629
713, 861, 792, 1913, 3117
714, 3050, 3227, 2540, 2784
715, 661, 1967, 1650, 1657
716, 663, 571, 1222, 1500
717, 2078, 298, 414, 1600
718, 1810, 3350, 1965, 1501
719, 2404, 1538, 2388, 2838
720, 1182, 1077, 1204, 2403
721, 2888, 209, 503, 1184
722, 1603, 823, 1513, 2855
723, 928, 398, 315, 1237
724, 1971, 1974, 98, 109
725, 1974, 1972, 108, 98
726, 931, 1533, 2606, 933
727, 1760, 316, 396, 1235
728, 1572, 1236, 1533, 931
729, 1518, 601, 1515, 3120
730, 937, 1760, 1235, 1586
731, 2086, 1188, 1740, 3350
732, 1965, 1190, 410, 303
733, 1650, 413, 300, 1223
734, 1656, 1772, 1811, 661
735, 663, 1500, 1981, 1979
736, 924, 1439, 99, 110
737, 1427, 1612, 659, 2948
738, 1500, 408, 305, 1981
739, 2121, 3060, 3025, 2552
740, 701, 710, 3199, 692
741, 1607, 264, 448, 1794
742, 711, 2152, 3023, 2874
743, 2372, 2458, 979, 2632
744, 2478, 991, 2510, 3265
745, 2512, 361, 352, 2174
746, 2651, 1328, 350, 362
747, 762, 764, 766, 1833
748, 768, 2495, 2145, 1685
749, 2621, 2573, 1930, 725
750, 732, 3230, 2500, 1659
751, 2714, 1367, 1136, 1226
752, 2553, 2524, 2880, 2394
753, 1060, 534, 179, 2410
754, 1276, 307, 405, 1614
755, 1441, 1473, 1958, 924
756, 1442, 1474, 1431, 1472
757, 1429, 306, 406, 927
758, 3141, 2175, 2599, 2512
759, 1576, 2373, 1894, 3243
760, 991, 1578, 3027, 2510
761, 3282, 2363, 3249, 694
762, 1996, 1789, 676, 1995
763, 281, 431, 1789, 1996
764, 873, 2925, 2232, 3295
765, 2841, 2908, 3039, 2555
766, 2020, 2789, 1575, 1315
767, 487, 226, 2001, 1742
768, 1742, 2001, 2000, 842
769, 833, 1326, 883, 1627
770, 73, 63, 2003, 1849
771, 1849, 2003, 2002, 589
772, 2003, 74, 86, 2002
773, 63, 5, 74, 2003
774, 1399, 1576, 1893, 2511
775, 2101, 3011, 419, 294
776, 2462, 3074, 3250, 1962
777, 1831, 700, 438, 275
778, 2007, 1225, 565, 3208
779, 1428, 1432, 3067, 925
780, 2009, 927, 1276, 1584
781, 597, 102, 113, 2717
782, 2956, 1518, 2071, 1972
783, 3009, 1434, 1432, 1428
784, 1991, 1277, 1429, 1957
785, 925, 3067, 1979, 1991
786, 1957, 1429, 927, 2009
787, 952, 1663, 2012, 2011
788, 2011, 2012, 1800, 951
789, 2012, 331, 381, 1800
790, 1663, 382, 331, 2012
791, 709, 697, 2362, 2412
792, 3024, 2097, 279, 433
793, 1654, 1250, 2481, 1496
794, 2415, 1672, 717, 3190
795, 948, 1802, 2015, 2014
796, 2014, 2015, 1770, 949
797, 2015, 333, 379, 1770
798, 1802, 380, 333, 2015
799, 553, 1837, 2017, 2016
800, 2016, 2017, 1449, 554
801, 2017, 11, 20, 1449
802, 1837, 19, 11, 2017
803, 804, 2555, 1722, 3270
804, 1238, 3273, 816, 815
805, 2520, 2909, 3273, 1238
806, 3074, 3171, 3014, 3250
807, 3076, 2795, 277, 435
808, 476, 1493, 1268, 236
809, 1634, 1312, 1896, 886
810, 864, 2256, 1267, 852
811, 752, 2768, 2767, 2272
812, 96, 85, 2024, 2021
813, 2021, 2024, 2022, 600
814, 932, 2876, 3192, 1535
815, 85, 6, 2023, 2024
816, 1063, 1113, 528, 185
817, 1065, 1372, 3033, 1504
818, 2446, 1697, 3257, 1989
819, 1923, 2069, 1059, 2051
820, 511, 202, 2027, 1716
821, 1716, 2027, 2026, 1075
822, 2027, 1478, 1100, 2026
823, 202, 510, 1478, 2027
824, 3, 2029, 2030, 31
825, 31, 2030, 1589, 35
826, 2161, 2838, 3195, 1555
827, 2029, 559, 2028, 2030
828, 515, 198, 2032, 1560
829, 1560, 2032, 2031, 1069
830, 2032, 1869, 1073, 2031
831, 198, 514, 1869, 2032
832, 655, 1602, 1471, 2979
833, 3013, 2101, 294, 418
834, 2809, 1681, 2589, 656
835, 652, 289, 423, 3169
836, 378, 335, 2038, 1769
837, 1769, 2038, 2037, 939
838, 2038, 1898, 938, 2037
839, 335, 377, 1898, 2038
840, 600, 2040, 2041, 2021
841, 2021, 2041, 84, 96
842, 2041, 2039, 95, 84
843, 1925, 2872, 329, 383
844, 3134, 644, 1593, 2601
845, 1652, 646, 120, 132
846, 2600, 2681, 2602, 1377
847, 1377, 2602, 2980, 1780
848, 1843, 2466, 845, 846
849, 238, 2546, 887, 475
850, 1321, 3050, 2784, 3237
851, 2705, 884, 877, 1633
852, 2661, 956, 2289, 1823
853, 1229, 971, 345, 367
854, 3131, 2819, 3176, 2556
855, 521, 192, 2049, 1701
856, 1701, 2049, 2048, 1123
857, 2049, 1888, 1124, 2048
858, 192, 520, 1888, 2049
859, 2981, 1211, 1150, 630
860, 3288, 1368, 2687, 3287
861, 56, 67, 1455, 624
862, 2675, 1464, 2944, 2945
863, 896, 2105, 3281, 2668
864, 2106, 2053, 2669, 2818
865, 1200, 2093, 78, 90
866, 1072, 1868, 2056, 2055
867, 2055, 2056, 1714, 1076
868, 2056, 200, 512, 1714
869, 1868, 513, 200, 2056
870, 1126, 1887, 2058, 2057
871, 2057, 2058, 1550, 1128
872, 2058, 194, 518, 1550
873, 1887, 519, 194, 2058
874, 3315, 3306, 2200, 3314
875, 45, 2061, 2062, 36
876, 36, 2062, 2029, 3
877, 2062, 2060, 559, 2029
878, 2061, 621, 2060, 2062
879, 1273, 43, 52, 2905
880, 1137, 1140, 2772, 2249
881, 626, 1007, 1010, 2117
882, 2850, 2782, 1852, 1638
883, 46, 2066, 2067, 37
884, 37, 2067, 2061, 45
885, 2067, 2065, 621, 2061
886, 2066, 623, 2065, 2067
887, 3225, 2815, 3284, 1140
888, 2118, 2593, 622, 1918
889, 2700, 3164, 2850, 2769
890, 1973, 1175, 394, 319
891, 1972, 2071, 97, 108
892, 2071, 2023, 6, 97
893, 1236, 928, 1237, 1533
894, 3222, 2713, 625, 1531
895, 38, 2073, 2066, 46
896, 2073, 2072, 623, 2066
897, 638, 1172, 1832, 1707
898, 2979, 1471, 668, 2682
899, 563, 1528, 2077, 2076
900, 2076, 2077, 1468, 560
901, 2077, 142, 153, 1468
902, 1528, 152, 142, 2077
903, 665, 672, 648, 1511
904, 2681, 1960, 649, 2602
905, 1251, 567, 3258, 572
906, 3351, 662, 116, 106
907, 94, 83, 2082, 2080
908, 3159, 599, 1253, 3136
909, 1663, 1621, 330, 382
910, 83, 95, 2039, 2082
911, 92, 81, 2085, 2083
912, 1294, 1625, 911, 2875
913, 913, 3136, 1662, 920
914, 81, 93, 2084, 2085
915, 1501, 1965, 303, 409
916, 1188, 1978, 2861, 1740
917, 1739, 664, 2891, 570
918, 614, 2090, 2091, 1419
919, 1419, 2091, 2088, 615
920, 2091, 2089, 1004, 2088
921, 2090, 1003, 2089, 2091
922, 591, 1202, 2094, 2860
923, 89, 2893, 2104, 77
924, 2818, 2962, 942, 2092
925, 2671, 3041, 906, 2932
926, 589, 2002, 2096, 2095
927, 2095, 2096, 1580, 588
928, 2096, 75, 87, 1580
929, 2002, 86, 75, 2096
930, 2625, 642, 655, 2615
931, 3093, 638, 1707, 642
932, 2282, 2924, 1497, 3016
933, 160, 150, 2103, 1416
934, 1416, 2103, 2102, 578
935, 2103, 1836, 553, 2102
936, 150, 161, 1836, 2103
937, 2052, 2054, 895, 1230
938, 2178, 2654, 2660, 2984
939, 896, 2668, 2113, 904
940, 2054, 2963, 2745, 895
941, 1009, 2109, 2110, 2107
942, 2107, 2110, 1456, 617
943, 2110, 2108, 618, 1456
944, 2109, 1008, 2108, 2110
945, 93, 82, 2111, 2084
946, 1305, 1624, 1265, 918
947, 1401, 1520, 2340, 1299
948, 82, 94, 2080, 2111
949, 1961, 2582, 704, 1352
950, 1228, 2438, 2667, 2998
951, 681, 3076, 435, 278
952, 2581, 3200, 1166, 2583
953, 2094, 2812, 3174, 2963
954, 2113, 1199, 2961, 2053
955, 1201, 591, 2860, 894
956, 1088, 2258, 822, 1082
957, 1547, 505, 208, 2915
958, 2855, 1513, 212, 500
959, 1273, 2905, 2713, 3222
960, 1211, 2878, 2771, 1150
961, 3002, 1647, 1053, 1395
962, 1851, 1226, 1138, 1149
963, 2424, 3155, 2277, 3261
964, 1208, 1794, 1674, 2527
965, 1013, 2125, 2816, 1034
966, 2324, 1375, 1013, 2309
967, 1031, 1752, 1753, 2310
968, 3337, 1081, 3146, 1409
969, 1513, 1203, 501, 212
970, 3202, 1694, 829, 2129
971, 1555, 3195, 1080, 2882
972, 2413, 1675, 2363, 3282
973, 2666, 2842, 632, 640
974, 1828, 3080, 2795, 3076
975, 1005, 2133, 2134, 2132
976, 2132, 2134, 1445, 616
977, 2134, 2107, 617, 1445
978, 2133, 1009, 2107, 2134
979, 2290, 2984, 2047, 957
980, 1332, 2812, 2094, 1202
981, 2653, 970, 1357, 974
982, 1358, 780, 250, 462
983, 790, 2138, 778, 789
984, 2140, 776, 2187, 1485
985, 1360, 2188, 2484, 1494
986, 2488, 788, 2314, 1711
987, 781, 2217, 2218, 1359
988, 791, 246, 466, 782
989, 2304, 1630, 1755, 3010
990, 3256, 459, 254, 1756
991, 1686, 1340, 1630, 2304
992, 2351, 1341, 3230, 1820
993, 1102, 2148, 2149, 2146
994, 2146, 2149, 2147, 1101
995, 2149, 1715, 1075, 2147
996, 2148, 1076, 1715, 2149
997, 730, 1605, 2153, 2150
998, 1387, 3108, 1388, 3084
999, 1588, 2154, 2114, 2115
1000, 1643, 1083, 2881, 2972
1001, 1183, 2971, 2116, 818
1002, 2155, 1089, 1554, 2156
1003, 576, 2159, 2160, 1435
1004, 1435, 2160, 2157, 575
1005, 2160, 2158, 745, 2157
1006, 2159, 746, 2158, 2160
1007, 3327, 2297, 1240, 3326
1008, 1539, 1245, 1944, 1569
1009, 1240, 1598, 2578, 1570
1010, 1079, 870, 824, 2969
1011, 2167, 3236, 2240, 3151
1012, 3279, 851, 838, 2826
1013, 3275, 3274, 2256, 864
1014, 3277, 2636, 2637, 2837
1015, 2176, 1932, 2384, 898
1016, 3066, 1931, 959, 2727
1017, 1130, 2171, 2172, 1289
1018, 1289, 2172, 2170, 1070
1019, 2172, 1816, 1068, 2170
1020, 2171, 1129, 1816, 2172
1021, 2519, 3340, 1344, 2374
1022, 1399, 980, 2372, 605
1023, 1327, 2004, 1398, 1992
1024, 982, 365, 348, 2004
1025, 972, 1640, 899, 2331
1026, 3161, 2332, 1641, 2886
1027, 2662, 968, 1618, 3179
1028, 1798, 3079, 3252, 2291
1029, 1099, 2181, 2182, 2179
1030, 1091, 2579, 1590, 1589
1031, 2182, 1479, 1087, 2180
1032, 2181, 1100, 1479, 2182
1033, 734, 1507, 2185, 2183
1034, 1303, 737, 1304, 736
1035, 2122, 3084, 2150, 2153
1036, 1507, 735, 2184, 2185
1037, 2217, 3044, 1710, 2218
1038, 2218, 2489, 3078, 1359
1039, 1711, 2314, 783, 1487
1040, 604, 1542, 2521, 3106
1041, 1893, 2478, 3265, 1985
1042, 2174, 352, 360, 1345
1043, 1542, 366, 347, 2521
1044, 2191, 1597, 2298, 3064
1045, 2623, 1743, 2656, 583
1046, 3039, 872, 876, 827
1047, 868, 1424, 1729, 2210
1048, 732, 1660, 2196, 2194
1049, 1303, 736, 3055, 738
1050, 1484, 3317, 2622, 740
1051, 1660, 734, 2183, 2196
1052, 3144, 840, 1308, 1728
1053, 848, 483, 230, 3278
1054, 2957, 841, 1844, 2828
1055, 1503, 1122, 2920, 1563
1056, 2317, 532, 181, 1272
1057, 2922, 2918, 1564, 1107
1058, 2436, 785, 2488, 1385
1059, 893, 1485, 1486, 2219
1060, 2138, 468, 245, 778
1061, 1596, 2137, 2437, 1669
1062, 2219, 1486, 789, 1785
1063, 1913, 2883, 2692, 2505
1064, 2045, 2610, 879, 3110
1065, 244, 1320, 1335, 469
1066, 3333, 1176, 749, 3332
1067, 3322, 1413, 834, 3338
1068, 676, 1787, 2214, 2211
1069, 2211, 2214, 2212, 678
1070, 2214, 2213, 683, 2212
1071, 1787, 679, 2213, 2214
1072, 3103, 798, 231, 481
1073, 862, 3021, 1495, 2504
1074, 1493, 2242, 2507, 1268
1075, 892, 1712, 2827, 2465
1076, 1384, 1488, 2141, 1383
1077, 1785, 2206, 791, 784
1078, 2219, 1785, 784, 2137
1079, 2276, 2122, 2153, 729
1080, 2364, 2567, 2495, 768
1081, 2221, 1619, 730, 2150
1082, 2184, 735, 1619, 2221
1083, 554, 1447, 2225, 2222
1084, 2222, 2225, 2223, 755
1085, 2225, 2224, 753, 2223
1086, 1447, 552, 2224, 2225
1087, 984, 1915, 1040, 1877
1088, 3343, 2487, 995, 994
1089, 3089, 3184, 2605, 1048
1090, 2284, 1042, 1814, 1353
1091, 2516, 814, 3336, 2990
1092, 1742, 3046, 225, 487
1093, 814, 3297, 1426, 3336
1094, 1741, 1426, 221, 491
1095, 847, 2943, 2636, 3277
1096, 2826, 866, 1727, 853
1097, 2624, 1667, 804, 2018
1098, 839, 1325, 1309, 798
1099, 1070, 2170, 2235, 2233
1100, 2233, 2235, 2234, 1071
1101, 2235, 1559, 1069, 2234
1102, 2170, 1068, 1559, 2235
1103, 1043, 2238, 2239, 2236
1104, 2993, 2595, 1151, 1061
1105, 3127, 1025, 2563, 3112
1106, 2285, 1877, 1042, 2284
1107, 793, 3245, 3021, 862
1108, 475, 887, 1285, 237
1109, 856, 751, 1269, 1963
1110, 1734, 1492, 2241, 1745
1111, 756, 2245, 2246, 2243
1112, 2243, 2246, 1490, 581
1113, 2246, 2244, 577, 1490
1114, 2245, 747, 2244, 2246
1115, 3294, 2929, 2064, 3203
1116, 2249, 2772, 627, 2779
1117, 2119, 66, 56, 624
1118, 2685, 1064, 1851, 2712
1119, 758, 2251, 2252, 2250
1120, 2250, 2252, 1452, 580
1121, 2252, 2243, 581, 1452
1122, 2251, 756, 2243, 2252
1123, 1367, 2248, 3030, 1136
1124, 1778, 1646, 1947, 2201
1125, 1564, 1871, 526, 187
1126, 3001, 3002, 1395, 2316
1127, 2368, 2465, 3163, 865
1128, 1085, 1088, 1082, 819
1129, 1080, 2129, 1970, 2303
1130, 1078, 1093, 2949, 2358
1131, 984, 2261, 990, 1915
1132, 557, 1924, 1407, 1949
1133, 3128, 1016, 1764, 1767
1134, 1023, 1337, 1019, 2389
1135, 2711, 2376, 1045, 1916
1136, 610, 1346, 1347, 2747
1137, 3343, 994, 2375, 1044
1138, 2266, 3341, 996, 1904
1139, 1392, 494, 219, 2271
1140, 2298, 1569, 3123, 3139
1141, 3046, 811, 488, 225
1142, 2925, 2840, 3166, 2232
1143, 3000, 858, 2256, 3274
1144, 2540, 1205, 2485, 2706
1145, 470, 1738, 2367, 242
1146, 737, 2305, 1387, 1304
1147, 2774, 1303, 738, 733
1148, 2277, 2427, 716, 2442
1149, 689, 1592, 2281, 2279
1150, 2279, 2281, 1158, 643
1151, 2281, 2280, 645, 1158
1152, 1592, 644, 2280, 2281
1153, 677, 1962, 2580, 2112
1154, 2282, 3118, 2690, 1349
1155, 2282, 2482, 680, 2924
1156, 3016, 2463, 1224, 3216
1157, 3061, 2227, 1477, 2491
1158, 3090, 2708, 1406, 2261
1159, 3061, 1039, 1047, 1878
1160, 1040, 547, 166, 1041
1161, 649, 2034, 1681, 2809
1162, 2313, 3134, 2601, 1708
1163, 650, 3210, 657, 1678
1164, 1172, 3169, 1470, 1832
1165, 1774, 1799, 3233, 1301
1166, 2603, 2886, 1300, 897
1167, 603, 2331, 2136, 3079
1168, 2819, 1331, 3072, 3176
1169, 615, 2088, 2293, 1465
1170, 1465, 2293, 2132, 616
1171, 2293, 2292, 1005, 2132
1172, 2088, 1004, 2292, 2293
1173, 2825, 1682, 892, 3068
1174, 1326, 1713, 786, 883
1175, 2486, 3276, 1670, 3019
1176, 747, 2295, 2296, 2244
1177, 2244, 2296, 1775, 577
1178, 2296, 2159, 576, 1775
1179, 2295, 746, 2159, 2296
1180, 803, 2191, 3064, 3312
1181, 2555, 3039, 827, 1722
1182, 1724, 1723, 1539, 1597
1183, 1696, 2792, 2909, 2520
1184, 1131, 2300, 2301, 2299
1185, 2299, 2301, 2171, 1130
1186, 2301, 1551, 1129, 2171
1187, 2300, 1128, 1551, 2301
1188, 2018, 804, 3270, 3040
1189, 1570, 2578, 2191, 803
1190, 2656, 831, 1942, 2792
1191, 3323, 3312, 1413, 3322
1192, 2495, 3122, 3316, 2145
1193, 3084, 1388, 2221, 2150
1194, 1982, 2426, 3054, 731
1195, 1835, 1756, 1688, 1391
1196, 2144, 1721, 1390, 3122
1197, 726, 725, 2959, 3155
1198, 2144, 1754, 1686, 1721
1199, 2145, 3316, 2418, 719
1200, 2479, 2846, 1028, 1016
1201, 1023, 3173, 2616, 1337
1202, 1030, 1027, 2323, 2125
1203, 1365, 2322, 2993, 2992
1204, 674, 3086, 1379, 1510
1205, 2589, 1681, 297, 415
1206, 2481, 2619, 633, 3075
1207, 2641, 1307, 3165, 2287
1208, 1595, 2490, 785, 2436
1209, 3078, 1216, 2788, 2186
1210, 785, 1669, 788, 2488
1211, 1668, 1566, 777, 2143
1212, 3051, 3149, 3031, 3052
1213, 1284, 2435, 2447, 1062
1214, 1990, 538, 175, 2554
1215, 951, 1801, 2321, 2319
1216, 2319, 2321, 1259, 905
1217, 2321, 2320, 950, 1259
1218, 1801, 948, 2320, 2321
1219, 1024, 1061, 2805, 2807
1220, 1821, 3160, 3128, 1699
1221, 2345, 1022, 2523, 1051
1222, 2508, 1364, 2509, 2473
1223, 727, 256, 456, 1370
1224, 2573, 2351, 1820, 1930
1225, 2352, 1293, 779, 2326
1226, 2394, 2880, 1050, 3226
1227, 2329, 1946, 2204, 3069
1228, 2654, 374, 339, 2660
1229, 3244, 3209, 2812, 1332
1230, 1301, 3233, 2764, 900
1231, 685, 1544, 2337, 2334
1232, 2334, 2337, 2335, 686
1233, 2337, 2336, 687, 2335
1234, 1544, 688, 2336, 2337
1235, 912, 593, 1262, 1298
1236, 914, 1522, 3100, 2872
1237, 2338, 914, 2737, 1260
1238, 1665, 913, 920, 2338
1239, 997, 1873, 549, 164
1240, 2376, 987, 1875, 1045
1241, 1348, 2374, 983, 2536
1242, 2204, 1946, 2922, 1523
1243, 2544, 1336, 2203, 1117
1244, 1074, 2349, 2350, 2347
1245, 2347, 2350, 2348, 1104
1246, 2350, 1867, 1072, 2348
1247, 2349, 1073, 1867, 2350
1248, 1565, 1567, 2308, 2328
1249, 766, 2719, 2721, 2720
1250, 2494, 3087, 2402, 2365
1251, 939, 2037, 2355, 2353
1252, 2353, 2355, 1323, 946
1253, 2355, 2354, 943, 1323
1254, 2037, 938, 2354, 2355
1255, 1721, 1686, 2304, 770
1256, 761, 252, 460, 759
1257, 2568, 761, 759, 1755
1258, 1659, 2500, 260, 452
1259, 3191, 1169, 2359, 2360
1260, 2154, 2392, 2156, 2114
1261, 2360, 1879, 1089, 2155
1262, 2359, 1086, 1879, 2360
1263, 2006, 124, 136, 637
1264, 2006, 2999, 564, 682
1265, 3250, 3014, 3015, 2793
1266, 1794, 448, 265, 1674
1267, 2507, 2901, 2976, 2548
1268, 2643, 2274, 3017, 3204
1269, 2370, 793, 862, 2274
1270, 2903, 2975, 2216, 801
1271, 1287, 2511, 1994, 988
1272, 3027, 2477, 1328, 606
1273, 3342, 1813, 1749, 2267
1274, 2652, 2711, 1916, 2265
1275, 2537, 3247, 1343, 1344
1276, 1393, 3337, 825, 872
1277, 2161, 1555, 3321, 3339
1278, 1945, 2520, 1238, 2890
1279, 2598, 220, 492, 3297
1280, 1300, 2765, 965, 2630
1281, 959, 2894, 2820, 1331
1282, 3028, 2385, 956, 2661
1283, 758, 2250, 2383, 2381
1284, 2381, 2383, 2382, 754
1285, 2383, 1861, 579, 2382
1286, 2250, 580, 1861, 2383
1287, 962, 1798, 2291, 2177
1288, 2960, 2176, 3066, 1540
1289, 3057, 207, 505, 1547
1290, 820, 2972, 3263, 2926
1291, 2116, 2915, 3214, 1725
1292, 2115, 2131, 2971, 1183
1293, 1051, 2523, 1990, 2554
1294, 2563, 2324, 2309, 1020
1295, 1905, 1822, 1752, 1031
1296, 1929, 2750, 3317, 1484
1297, 2567, 2144, 3122, 2495
1298, 2391, 1383, 2141, 1565
1299, 1538, 1588, 821, 2388
1300, 1082, 822, 2260, 1077
1301, 823, 2393, 1203, 1513
1302, 2680, 3180, 2679, 1168
1303, 1067, 3001, 2316, 1394
1304, 2316, 1395, 1462, 2248
1305, 1940, 1751, 1941, 1028
1306, 3003, 1989, 1282, 1704
1307, 1655, 696, 714, 697
1308, 2549, 2121, 2552, 1196
1309, 697, 714, 1610, 2362
1310, 1876, 989, 1808, 2343
1311, 613, 2343, 2377, 998
1312, 3343, 1044, 2746, 2863
1313, 1346, 2708, 3090, 1347
1314, 1833, 3105, 2390, 1293
1315, 2417, 1292, 2748, 2501
1316, 3262, 719, 1292, 2417
1317, 3087, 2401, 2306, 2402
1318, 1098, 3191, 2360, 2155
1319, 2972, 2881, 1920, 3263
1320, 1170, 1092, 1538, 2404
1321, 2303, 1970, 1279, 1969
1322, 901, 2406, 2407, 2405
1323, 2405, 2407, 1718, 586
1324, 2407, 2090, 614, 1718
1325, 2406, 1003, 2090, 2407
1326, 1111, 1885, 183, 529
1327, 1921, 1018, 1778, 1108
1328, 1062, 2447, 1846, 2408
1329, 693, 2462, 1962, 677
1330, 1608, 2571, 3080, 1828
1331, 2483, 2760, 3081, 2873
1332, 1673, 1677, 1195, 1983
1333, 3199, 2412, 3060, 2121
1334, 2628, 3059, 1611, 2550
1335, 738, 3055, 2923, 1791
1336, 2124, 698, 1677, 3344
1337, 2351, 2501, 1482, 1341
1338, 769, 1484, 740, 2569
1339, 795, 2421, 2422, 2419
1340, 2419, 2422, 2251, 758
1341, 2422, 2420, 756, 2251
1342, 2421, 773, 2420, 2422
1343, 1793, 3256, 1756, 1835
1344, 3004, 2397, 709, 710
1345, 3085, 2763, 3056, 3007
1346, 707, 3006, 2773, 2423
1347, 765, 2356, 2832, 1929
1348, 3122, 1390, 1371, 3316
1349, 3153, 2442, 1982, 3108
1350, 1698, 1011, 1057, 1988
1351, 2447, 1054, 1648, 1846
1352, 2554, 175, 537, 3034
1353, 3226, 1050, 2429, 1937
1354, 988, 1994, 1579, 2173
1355, 612, 1000, 1355, 2431
1356, 2562, 2128, 1056, 1649
1357, 1050, 2409, 1922, 2429
1358, 2430, 2525, 2685, 1373
1359, 2450, 1283, 182, 530
1360, 2137, 784, 3049, 2437
1361, 2143, 777, 2390, 3105
1362, 1494, 2484, 882, 1633
1363, 692, 3199, 2121, 2549
1364, 2438, 2441, 2439, 639
1365, 2441, 1458, 562, 2439
1366, 2440, 561, 1458, 2441
1367, 2123, 1350, 3182, 3058
1368, 3118, 2413, 3282, 2690
1369, 3347, 2013, 1827, 2123
1370, 3182, 3004, 710, 701
1371, 683, 2213, 2444, 2443
1372, 2443, 2444, 2334, 686
1373, 2444, 1927, 685, 2334
1374, 2213, 679, 1927, 2444
1375, 2253, 1108, 2921, 2254
1376, 1055, 1988, 1884, 629
1377, 2346, 2449, 1133, 2931
1378, 2673, 1503, 1563, 2449
1379, 3255, 180, 532, 2317
1380, 1946, 2452, 2918, 2922
1381, 2452, 2254, 1106, 2918
1382, 1020, 2309, 2806, 1209
1383, 1118, 2672, 2493, 3070
1384, 2254, 2921, 2201, 1106
1385, 3264, 1853, 1698, 1777
1386, 1622, 391, 322, 2836
1387, 1521, 2796, 2797, 1624
1388, 1261, 2455, 2885, 592
1389, 921, 1401, 1299, 599
1390, 975, 2459, 2460, 2456
1391, 2456, 2460, 2457, 978
1392, 2460, 2458, 992, 2457
1393, 2459, 979, 2458, 2460
1394, 3151, 2240, 1671, 1267
1395, 3310, 3314, 2020, 830
1396, 2283, 2526, 3107, 635
1397, 728, 3058, 2152, 711
1398, 680, 2618, 703, 2701
1399, 1959, 1352, 1841, 3125
1400, 836, 3242, 847, 2197
1401, 2637, 2000, 1843, 2837
1402, 2166, 2366, 3236, 2167
1403, 3058, 3182, 701, 2152
1404, 2397, 1655, 697, 709
1405, 712, 267, 445, 2396
1406, 2468, 2527, 2415, 715
1407, 1216, 799, 3020, 2788
1408, 1285, 886, 2242, 1493
1409, 2241, 1492, 1333, 2703
1410, 2323, 1940, 1028, 2846
1411, 2344, 178, 534, 1060
1412, 2472, 2799, 2801, 2800
1413, 938, 1899, 2476, 2354
1414, 2354, 2476, 2474, 943
1415, 2476, 2475, 940, 2474
1416, 1899, 953, 2475, 2476
1417, 2169, 604, 3106, 3048
1418, 3048, 3106, 2190, 1690
1419, 1025, 2389, 2324, 2563
1420, 3127, 3112, 2128, 2562
1421, 2282, 1349, 2910, 2482
1422, 633, 2629, 1606, 2019
1423, 2974, 2216, 878, 2547
1424, 2901, 1684, 2612, 2785
1425, 1731, 1334, 2704, 3018
1426, 2503, 1744, 2785, 2612
1427, 985, 358, 355, 2709
1428, 1875, 1876, 2343, 613
1429, 1000, 1001, 2739, 1355
1430, 2432, 2977, 1924, 557
1431, 2505, 2692, 1215, 1271
1432, 2884, 2995, 792, 861
1433, 3253, 2704, 1319, 790
1434, 1750, 1048, 544, 169
1435, 1477, 2237, 2239, 2238
1436, 3183, 2342, 1902, 2977
1437, 2227, 3114, 2237, 1477
1438, 1505, 1118, 3070, 1562
1439, 1702, 1526, 190, 522
1440, 1820, 3230, 732, 2194
1441, 722, 1685, 3262, 2621
1442, 765, 720, 1369, 2356
1443, 1125, 2498, 2499, 2496
1444, 2496, 2499, 2497, 1127
1445, 2499, 1886, 1126, 2497
1446, 2498, 1124, 1886, 2499
1447, 1389, 1987, 2574, 1483
1448, 3185, 255, 457, 2357
1449, 1292, 2307, 3088, 2748
1450, 3230, 1341, 1818, 2500
1451, 3299, 3271, 2955, 3298
1452, 2000, 2001, 2466, 1843
1453, 1844, 2824, 1325, 839
1454, 3276, 3275, 864, 1670
1455, 880, 1333, 1492, 1734
1456, 2274, 862, 2504, 3017
1457, 1213, 2985, 860, 1217
1458, 799, 861, 3117, 3020
1459, 1335, 1912, 1732, 1746
1460, 1842, 1784, 840, 3144
1461, 2610, 3240, 2207, 879
1462, 1178, 1882, 1246, 810
1463, 3160, 2479, 1016, 3128
1464, 1059, 2509, 1022, 2345
1465, 1375, 1030, 2125, 1013
1466, 2190, 982, 2004, 1327
1467, 995, 1806, 1038, 2734
1468, 2265, 1916, 2780, 1804
1469, 2477, 363, 350, 1328
1470, 947, 2514, 2515, 2513
1471, 2513, 2515, 2353, 946
1472, 2515, 1768, 939, 2353
1473, 2514, 949, 1768, 2515
1474, 1722, 827, 1952, 808
1475, 1568, 217, 495, 1999
1476, 3124, 875, 2268, 1297
1477, 1203, 620, 211, 501
1478, 1873, 3248, 163, 549
1479, 986, 3035, 2491, 2577
1480, 2605, 2286, 545, 168
1481, 2746, 3183, 2977, 2432
1482, 1723, 2890, 1245, 1539
1483, 3123, 1883, 817, 2839
1484, 1743, 2230, 831, 2656
1485, 1397, 1992, 1578, 991
1486, 1902, 1399, 2511, 1287
1487, 1992, 1398, 2371, 1578
1488, 1209, 2806, 3160, 1821
1489, 2263, 1905, 1031, 2617
1490, 2125, 2323, 2846, 2816
1491, 2616, 3114, 2262, 1029
1492, 1283, 2594, 531, 182
1493, 2435, 2395, 1403, 2202
1494, 3031, 1645, 1374, 1017
1495, 3154, 2295, 747, 1154
1496, 2664, 745, 2158, 708
1497, 2550, 1611, 270, 442
1498, 1606, 441, 272, 2019
1499, 2097, 713, 434, 279
1500, 2411, 2283, 635, 1252
1501, 1755, 759, 2749, 3010
1502, 1091, 1589, 2030, 2028
1503, 2531, 1910, 1086, 2359
1504, 2180, 1087, 1910, 2531
1505, 2482, 2910, 690, 2794
1506, 699, 439, 274, 3082
1507, 702, 440, 273, 1826
1508, 2532, 3075, 702, 1826
1509, 953, 1938, 2535, 2475
1510, 2475, 2535, 2533, 940
1511, 2535, 2534, 954, 2533
1512, 1938, 955, 2534, 2535
1513, 1406, 2267, 1873, 997
1514, 2708, 3342, 2267, 1406
1515, 1049, 613, 998, 3038
1516, 990, 997, 164, 548
1517, 1598, 2954, 1724, 2578
1518, 802, 2193, 1945, 1954
1519, 471, 854, 2902, 241
1520, 2613, 2786, 2975, 2903
1521, 236, 1268, 3113, 477
1522, 1486, 3253, 790, 789
1523, 1122, 2544, 2545, 2542
1524, 2542, 2545, 2543, 1121
1525, 2545, 1700, 1123, 2543
1526, 2544, 1117, 1700, 2545
1527, 242, 2367, 854, 471
1528, 2975, 2786, 2857, 1635
1529, 240, 890, 3037, 473
1530, 2693, 2370, 2274, 2643
1531, 1840, 2416, 2414, 3346
1532, 1839, 3346, 1193, 2629
1533, 3347, 1792, 705, 2013
1534, 710, 709, 2412, 3199
1535, 2255, 1921, 1108, 2253
1536, 1872, 1120, 2318, 2525
1537, 1105, 3032, 1052, 1525
1538, 2248, 1462, 2329, 3030
1539, 3032, 3052, 2657, 1052
1540, 1706, 3062, 1105, 1067
1541, 1403, 3034, 2445, 2202
1542, 2051, 1059, 2345, 2395
1543, 2969, 824, 1743, 2623
1544, 870, 1297, 1296, 824
1545, 1953, 493, 220, 2598
1546, 1537, 2538, 489, 224
1547, 954, 2534, 2557, 2556
1548, 1639, 341, 371, 1356
1549, 2534, 955, 1907, 2557
1550, 688, 1933, 2559, 2336
1551, 2336, 2559, 2558, 687
1552, 2559, 2279, 643, 2558
1553, 1933, 689, 2279, 2559
1554, 908, 2339, 2561, 2560
1555, 2560, 2561, 2319, 905
1556, 2561, 2011, 951, 2319
1557, 2339, 952, 2011, 2561
1558, 1019, 2126, 1030, 1375
1559, 2617, 1031, 2310, 1027
1560, 1365, 2325, 1025, 3127
1561, 1016, 1028, 1941, 1764
1562, 552, 1757, 2566, 2224
1563, 2224, 2566, 2564, 753
1564, 2565, 3272, 836, 3143
1565, 3302, 1410, 1997, 3301
1566, 1371, 724, 1609, 1986
1567, 3316, 1371, 1986, 2418
1568, 2831, 772, 2834, 2854
1569, 1756, 254, 458, 1688
1570, 3075, 633, 2019, 702
1571, 1825, 2991, 1839, 2619
1572, 691, 1676, 2639, 2638
1573, 2701, 703, 2760, 1830
1574, 1075, 2026, 2572, 2147
1575, 2147, 2572, 1160, 1101
1576, 2572, 2181, 1099, 1160
1577, 2026, 1100, 2181, 2572
1578, 720, 768, 1685, 722
1579, 1721, 770, 721, 1390
1580, 1987, 2327, 1370, 2574
1581, 759, 460, 253, 2749
1582, 690, 1828, 3076, 681
1583, 1349, 2570, 1608, 2910
1584, 1996, 2873, 432, 281
1585, 2342, 980, 1399, 1902
1586, 994, 999, 2742, 2375
1587, 2577, 2238, 1043, 2576
1588, 1046, 3184, 3089, 2226
1589, 2156, 1554, 1692, 2114
1590, 820, 2926, 1393, 2908
1591, 842, 3338, 3046, 1742
1592, 3331, 873, 3295, 3330
1593, 2530, 694, 2283, 2411
1594, 1167, 3005, 706, 636
1595, 1165, 125, 137, 2007
1596, 564, 3126, 684, 641
1597, 2578, 1724, 1597, 2191
1598, 1997, 2790, 750, 1414
1599, 1069, 2031, 2586, 2234
1600, 2234, 2586, 2585, 1071
1601, 2586, 2349, 1074, 2585
1602, 2031, 1073, 2349, 2586
1603, 657, 1234, 1378, 2759
1604, 1306, 651, 3170, 671
1605, 642, 1707, 1602, 655
1606, 1123, 2048, 2592, 2543
1607, 2543, 2592, 2591, 1121
1608, 2592, 2498, 1125, 2591
1609, 2048, 1124, 2498, 2592
1610, 2770, 2849, 1014, 1012
1611, 1015, 2814, 1146, 2689
1612, 2593, 2715, 2930, 1530
1613, 2699, 1531, 1637, 1917
1614, 1294, 2111, 2080, 1625
1615, 3304, 3303, 2655, 3224
1616, 2790, 17, 26, 750
1617, 809, 1178, 810, 2297
1618, 3302, 3301, 556, 2970
1619, 2573, 2417, 2501, 2351
1620, 635, 3107, 2991, 1825
1621, 717, 266, 446, 3083
1622, 2401, 2357, 727, 2306
1623, 3300, 1414, 3271, 3299
1624, 1256, 555, 2940, 2059
1625, 1414, 750, 1411, 3271
1626, 1984, 2632, 2633, 607
1627, 3243, 1397, 991, 2478
1628, 980, 992, 2458, 2372
1629, 981, 1993, 1288, 2175
1630, 656, 2589, 2078, 2683
1631, 1593, 426, 287, 2601
1632, 1652, 1601, 1233, 2614
1633, 2980, 2809, 656, 670
1634, 1799, 2677, 2653, 3233
1635, 3131, 2556, 2557, 2168
1636, 967, 3161, 2886, 2603
1637, 1877, 1040, 1041, 1042
1638, 3121, 933, 1573, 1536
1639, 2802, 3239, 2716, 1763
1640, 2609, 2608, 935, 2607
1641, 1854, 936, 2608, 2609
1642, 2242, 1684, 2901, 2507
1643, 2506, 1313, 851, 3279
1644, 2484, 3109, 2693, 882
1645, 3049, 782, 1266, 3077
1646, 1964, 2986, 2985, 1213
1647, 239, 881, 3175, 474
1648, 881, 801, 1737, 3175
1649, 865, 3163, 234, 478
1650, 1114, 1118, 1505, 2673
1651, 1504, 3033, 1141, 2446
1652, 2449, 1563, 2919, 1133
1653, 3165, 3013, 418, 295
1654, 638, 1781, 647, 1172
1655, 1171, 422, 291, 1653
1656, 3116, 2263, 2617, 2126
1657, 2992, 2993, 1061, 1024
1658, 1676, 1830, 2760, 2483
1659, 1227, 691, 3074, 2462
1660, 1496, 2481, 3075, 2532
1661, 2639, 1676, 2483, 1995
1662, 1483, 2574, 257, 455
1663, 2911, 3029, 2851, 2569
1664, 2622, 2853, 2913, 740
1665, 2748, 3088, 763, 1834
1666, 1413, 826, 869, 834
1667, 872, 825, 3313, 876
1668, 2990, 3336, 1426, 1741
1669, 654, 133, 122, 2627
1670, 2865, 1512, 3092, 3210
1671, 2626, 631, 2098, 567
1672, 1841, 1831, 275, 437
1673, 2618, 2097, 3024, 703
1674, 3347, 2363, 1675, 1792
1675, 1894, 608, 1690, 993
1676, 2630, 2633, 2631, 964
1677, 2633, 2632, 979, 2631
1678, 950, 2320, 2635, 2634
1679, 2634, 2635, 2514, 947
1680, 2635, 2014, 949, 2514
1681, 2320, 948, 2014, 2635
1682, 842, 2000, 2637, 2192
1683, 2192, 2637, 2636, 843
1684, 1409, 499, 214, 2939
1685, 1654, 1496, 1961, 634
1686, 1252, 635, 1825, 1250
1687, 2639, 2211, 678, 2638
1688, 1995, 676, 2211, 2639
1689, 3169, 423, 290, 1470
1690, 2759, 1378, 2587, 2035
1691, 671, 3170, 1307, 2641
1692, 854, 880, 1734, 2902
1693, 3245, 1271, 2369, 3021
1694, 879, 2207, 2471, 2539
1695, 1127, 2497, 2644, 1247
1696, 1247, 2644, 2300, 1131
1697, 2644, 2057, 1128, 2300
1698, 2497, 1126, 2057, 2644
1699, 562, 1796, 2646, 2439
1700, 2439, 2646, 2645, 639
1701, 2646, 2076, 560, 2645
1702, 1796, 563, 2076, 2646
1703, 587, 2649, 2650, 1581
1704, 1581, 2650, 2647, 588
1705, 2650, 2648, 901, 2647
1706, 2649, 902, 2648, 2650
1707, 2189, 3047, 966, 1577
1708, 3228, 2189, 1577, 608
1709, 1398, 364, 349, 2371
1710, 605, 1984, 3228, 2373
1711, 2960, 1774, 1932, 2176
1712, 2960, 2663, 602, 2135
1713, 603, 3079, 1798, 2676
1714, 969, 3131, 2168, 2290
1715, 2985, 3310, 830, 860
1716, 3102, 3051, 3052, 3032
1717, 2848, 2712, 2814, 1015
1718, 3246, 1021, 1112, 2315
1719, 2880, 1644, 2409, 1050
1720, 1104, 2348, 2659, 2658
1721, 2658, 2659, 2148, 1102
1722, 2659, 2055, 1076, 2148
1723, 2348, 1072, 2055, 2659
1724, 1640, 1824, 1617, 899
1725, 2557, 1907, 2178, 2168
1726, 1540, 969, 2290, 957
1727, 1356, 371, 342, 2385
1728, 2075, 1863, 130, 119
1729, 2664, 2667, 2665, 745
1730, 2667, 2438, 639, 2665
1731, 3082, 274, 438, 700
1732, 2745, 2813, 1231, 902
1733, 1198, 340, 372, 903
1734, 2961, 907, 3041, 2671
1735, 968, 3132, 961, 1618
1736, 2329, 2492, 2452, 1946
1737, 2917, 2672, 1118, 1114
1738, 2408, 1846, 1110, 3149
1739, 2811, 2700, 2769, 1144
1740, 625, 1210, 2694, 1919
1741, 3287, 2687, 2072, 2073
1742, 604, 2177, 2744, 1542
1743, 1641, 958, 3065, 2765
1744, 2392, 1098, 2155, 2156
1745, 2393, 619, 620, 1203
1746, 2856, 1549, 620, 619
1747, 2678, 1090, 2130, 3180
1748, 1652, 132, 121, 1601
1749, 1679, 670, 2033, 675
1750, 588, 2647, 2684, 2095
1751, 2095, 2684, 1848, 589
1752, 2684, 2405, 586, 1848
1753, 2647, 901, 2405, 2684
1754, 1988, 1057, 1330, 1884
1755, 1140, 3284, 3285, 2772
1756, 2782, 2119, 624, 1852
1757, 2929, 50, 42, 2120
1758, 1754, 767, 1340, 1686
1759, 3025, 3344, 1677, 1673
1760, 1166, 1228, 2842, 2666
1761, 757, 2754, 2768, 752
1762, 2206, 467, 246, 791
1763, 1212, 2884, 861, 799
1764, 1917, 1637, 3164, 2700
1765, 3294, 3291, 49, 41
1766, 1368, 2674, 2675, 2687
1767, 2964, 1008, 2849, 2770
1768, 757, 2697, 2698, 2696
1769, 2696, 2698, 2381, 754
1770, 2698, 2419, 758, 2381
1771, 2697, 795, 2419, 2698
1772, 1637, 1919, 1148, 3164
1773, 1647, 2394, 3226, 3293
1774, 1636, 2247, 1955, 2050
1775, 714, 712, 2396, 1610
1776, 696, 3083, 712, 714
1777, 1732, 1733, 885, 889
1778, 237, 1285, 1493, 476
1779, 1912, 1334, 1733, 1732
1780, 796, 2215, 1310, 800
1781, 1177, 2914, 2947, 797
1782, 1784, 2828, 1726, 840
1783, 1475, 3090, 2261, 984
1784, 609, 2864, 1813, 3342
1785, 3008, 1812, 1348, 3036
1786, 2343, 1808, 1805, 2377
1787, 1007, 2699, 1917, 1010
1788, 1012, 1014, 2805, 3292
1789, 2772, 3285, 3286, 627
1790, 1530, 3292, 1151, 2068
1791, 1606, 2398, 271, 441
1792, 3346, 2414, 2628, 1193
1793, 924, 1958, 1316, 1439
1794, 1762, 1317, 311, 401
1795, 3348, 1587, 1761, 1317
1796, 1361, 660, 1890, 1473
1797, 787, 1711, 1487, 1786
1798, 2718, 2721, 2719, 760
1799, 2188, 2186, 3109, 2484
1800, 976, 2724, 2725, 2722
1801, 2722, 2725, 2723, 977
1802, 2725, 2456, 978, 2723
1803, 2724, 975, 2456, 2725
1804, 1932, 3244, 1332, 2384
1805, 3179, 1618, 2333, 967
1806, 578, 2102, 2729, 2728
1807, 2728, 2729, 2222, 755
1808, 2729, 2016, 554, 2222
1809, 2102, 553, 2016, 2729
1810, 575, 2157, 2730, 1467
1811, 1467, 2730, 2645, 560
1812, 2730, 2665, 639, 2645
1813, 2157, 745, 2665, 2730
1814, 999, 2734, 2735, 2731
1815, 2731, 2735, 2732, 1006
1816, 2735, 2733, 1036, 2732
1817, 2734, 1038, 2733, 2735
1818, 2997, 1845, 908, 3042
1819, 3111, 1936, 921, 2454
1820, 911, 909, 2596, 1623
1821, 978, 2739, 2740, 2723
1822, 2723, 2740, 1185, 977
1823, 2740, 2738, 1002, 1185
1824, 2739, 1001, 2738, 2740
1825, 1002, 2738, 2743, 2741
1826, 2741, 2743, 2731, 1006
1827, 2743, 2742, 999, 2731
1828, 2738, 1001, 2742, 2743
1829, 2893, 2052, 1230, 2104
1830, 3209, 900, 1231, 2813
1831, 2812, 3209, 2813, 3174
1832, 2431, 992, 980, 2342
1833, 3038, 998, 1812, 3008
1834, 2710, 985, 2709, 2518
1835, 3061, 1878, 1795, 2227
1836, 1386, 2196, 2183, 2220
1837, 2833, 1153, 743, 2763
1838, 742, 706, 3005, 3006
1839, 2622, 2831, 2854, 2853
1840, 1237, 315, 397, 1179
1841, 2606, 1179, 1760, 937
1842, 1440, 1441, 100, 111
1843, 571, 1810, 1501, 1222
1844, 1658, 1977, 1188, 2086
1845, 666, 2042, 675, 1773
1846, 753, 2754, 2755, 2223
1847, 2223, 2755, 2753, 755
1848, 2755, 2696, 754, 2753
1849, 2754, 757, 2696, 2755
1850, 2130, 2531, 2359, 1169
1851, 1093, 2680, 1168, 2949
1852, 1548, 2756, 2680, 1093
1853, 2179, 2182, 2180, 1090
1854, 902, 2757, 2758, 2648
1855, 2648, 2758, 2406, 901
1856, 2758, 1163, 1003, 2406
1857, 2757, 973, 1163, 2758
1858, 2998, 2667, 2664, 744
1859, 2006, 631, 135, 124
1860, 1349, 2690, 2530, 2570
1861, 2414, 1196, 3059, 2628
1862, 1929, 2832, 1498, 2750
1863, 2774, 2151, 737, 1303
1864, 3065, 2604, 966, 3047
1865, 957, 2047, 960, 2663
1866, 602, 2766, 3132, 968
1867, 2604, 962, 2169, 966
1868, 753, 2564, 2768, 2754
1869, 2541, 2611, 1270, 751
1870, 888, 3237, 2547, 878
1871, 1730, 218, 494, 1392
1872, 1396, 3264, 1777, 1644
1873, 1149, 1138, 2783, 1152
1874, 1365, 3127, 2562, 2322
1875, 3289, 630, 1368, 3288
1876, 3155, 2959, 2427, 2277
1877, 2773, 708, 741, 2423
1878, 1036, 2733, 2778, 2775
1879, 2775, 2778, 2776, 1035
1880, 2778, 2777, 1037, 2776
1881, 2733, 1038, 2777, 2778
1882, 1366, 2249, 2779, 1464
1883, 1462, 2025, 2492, 2329
1884, 2064, 3119, 1007, 626
1885, 3294, 41, 50, 2929
1886, 996, 3026, 2710, 989
1887, 2487, 2433, 1806, 995
1888, 2261, 1406, 997, 990
1889, 2905, 2686, 1532, 2713
1890, 1530, 2930, 1012, 3292
1891, 3290, 2981, 630, 3289
1892, 889, 885, 3220, 1632
1893, 2504, 1495, 3221, 3227
1894, 3113, 2548, 2273, 2470
1895, 1896, 1312, 2706, 2485
1896, 3301, 3300, 1177, 556
1897, 2584, 2411, 1252, 695
1898, 2900, 641, 684, 2899
1899, 3200, 2440, 1228, 1166
1900, 677, 2112, 2100, 1829
1901, 935, 2608, 2797, 2796
1902, 1626, 2996, 2736, 917
1903, 916, 2082, 2039, 594
1904, 2608, 936, 1857, 2797
1905, 1037, 2800, 2801, 2776
1906, 2776, 2801, 2798, 1035
1907, 2801, 2799, 1033, 2798
1908, 2509, 1364, 2311, 1022
1909, 1958, 3254, 1363, 1316
1910, 1891, 1615, 1762, 1585
1911, 1585, 1762, 401, 312
1912, 929, 309, 403, 1892
1913, 1033, 2799, 2807, 2804
1914, 2804, 2807, 2805, 1014
1915, 1337, 2616, 1029, 3116
1916, 755, 2753, 2808, 2728
1917, 2728, 2808, 1415, 578
1918, 2808, 2382, 579, 1415
1919, 2753, 754, 2382, 2808
1920, 2978, 1377, 1780, 2075
1921, 2626, 123, 135, 631
1922, 3011, 2682, 293, 419
1923, 2687, 2675, 2945, 2072
1924, 2929, 2120, 3119, 2064
1925, 1937, 2429, 1058, 2522
1926, 1464, 2779, 2966, 2944
1927, 2104, 1230, 587, 1582
1928, 898, 2384, 2821, 590
1929, 3280, 2821, 1202, 591
1930, 894, 2052, 2893, 2093
1931, 1765, 1748, 1822, 1905
1932, 1531, 625, 1919, 1637
1933, 2848, 1015, 2050, 1955
1934, 3294, 3203, 2247, 1636
1935, 2669, 944, 2962, 2818
1936, 904, 2113, 2053, 2106
1937, 2859, 945, 2670, 590
1938, 1230, 895, 2649, 587
1939, 1096, 1159, 2823, 2822
1940, 1091, 2028, 2950, 1548
1941, 1091, 1548, 1093, 1078
1942, 1159, 1099, 2179, 2823
1943, 1313, 2197, 3238, 851
1944, 853, 1727, 1713, 1326
1945, 2461, 2787, 1325, 2824
1946, 3163, 1314, 479, 234
1947, 964, 2631, 2830, 1357
1948, 1357, 2830, 2829, 974
1949, 2830, 2459, 975, 2829
1950, 2631, 979, 2459, 2830
1951, 715, 2415, 3190, 3345
1952, 773, 2834, 2835, 2420
1953, 2420, 2835, 2245, 756
1954, 2835, 1155, 747, 2245
1955, 2834, 772, 1155, 2835
1956, 1520, 324, 388, 2340
1957, 1845, 3219, 2339, 908
1958, 594, 2040, 3137, 1935
1959, 1662, 3266, 2996, 1626
1960, 3138, 3144, 1728, 859
1961, 2197, 847, 3277, 3238
1962, 891, 2958, 833, 867
1963, 2466, 486, 227, 845
1964, 3328, 809, 2297, 3327
1965, 2260, 1239, 1549, 2856
1966, 1424, 2018, 3040, 1729
1967, 2231, 3124, 1297, 870
1968, 1228, 2440, 2441, 2438
1969, 647, 1232, 1779, 652
1970, 1250, 1825, 2619, 2481
1971, 3133, 2615, 2640, 2288
1972, 832, 3115, 1628, 2257
1973, 3332, 749, 873, 3331
1974, 3300, 3299, 2914, 1177
1975, 3115, 2565, 3143, 1628
1976, 974, 2829, 2844, 2843
1977, 2843, 2844, 1162, 973
1978, 2844, 2724, 976, 1162
1979, 2829, 975, 2724, 2844
1980, 2236, 2847, 2845, 1043
1981, 2847, 2800, 1037, 2845
1982, 1747, 1750, 1748, 1765
1983, 646, 2600, 1377, 2978
1984, 651, 1511, 1599, 3170
1985, 671, 2641, 1960, 2681
1986, 2978, 2075, 119, 131
1987, 2118, 2117, 2715, 2593
1988, 1463, 535, 178, 2344
1989, 2686, 53, 64, 1532
1990, 2364, 723, 1631, 2567
1991, 1498, 2195, 771, 2750
1992, 708, 2158, 746, 741
1993, 774, 2853, 2854, 2852
1994, 2852, 2854, 2834, 773
1995, 3317, 2620, 2831, 2622
1996, 2307, 2494, 2365, 3088
1997, 3040, 3270, 813, 1295
1998, 2131, 3057, 1547, 2971
1999, 874, 1295, 3045, 828
2000, 819, 1082, 1077, 1182
2001, 3242, 2941, 2943, 847
2002, 2046, 2974, 2547, 1895
2003, 1270, 2486, 3019, 2642
2004, 852, 1267, 1671, 1682
2005, 2093, 2893, 89, 78
2006, 2047, 1616, 1198, 960
2007, 1301, 900, 3209, 3244
2008, 3281, 91, 80, 3201
2009, 664, 571, 663, 2891
2010, 2043, 1656, 661, 1657
2011, 1657, 1650, 1223, 3198
2012, 551, 1192, 2043, 3206
2013, 1813, 3008, 3036, 1749
2014, 1915, 990, 548, 165
2015, 1808, 2518, 2537, 1805
2016, 2035, 2587, 2590, 1232
2017, 573, 1865, 3086, 674
2018, 2640, 2979, 2682, 3011
2019, 1233, 653, 2865, 2588
2020, 2487, 2862, 986, 2433
2021, 2863, 2746, 2432, 2005
2022, 2866, 2845, 1037, 2777
2023, 2576, 1043, 2845, 2866
2024, 1132, 2869, 2870, 2867
2025, 2867, 2870, 1220, 1142
2026, 2870, 2868, 1143, 1220
2027, 2869, 1139, 2868, 2870
2028, 2081, 3101, 3150, 923
2029, 2736, 934, 327, 385
2030, 2453, 3232, 1936, 3111
2031, 2482, 2794, 2618, 680
2032, 682, 564, 641, 3318
2033, 637, 1165, 1197, 566
2034, 1261, 592, 2083, 2085
2035, 3232, 3129, 593, 912
2036, 1625, 2080, 2082, 916
2037, 1179, 397, 316, 1760
2038, 2956, 1180, 1975, 1572
2039, 1235, 396, 317, 1181
2040, 3121, 1536, 598, 1517
2041, 1165, 2007, 3208, 1197
2042, 2999, 2361, 3126, 564
2043, 3207, 2581, 2583, 3283
2044, 3053, 3261, 3153, 2305
2045, 1918, 622, 1147, 2063
2046, 2810, 3225, 1140, 1137
2047, 2120, 42, 51, 628
2048, 2878, 2810, 1137, 2771
2049, 3246, 1937, 2522, 1021
2050, 1051, 2554, 3034, 1403
2051, 1365, 1376, 2994, 2325
2052, 1692, 2259, 3057, 2131
2053, 1883, 1782, 3063, 817
2054, 1487, 783, 464, 249
2055, 1311, 1206, 3245, 793
2056, 1495, 856, 1963, 3221
2057, 904, 2106, 945, 2859
2058, 896, 3280, 591, 1201
2059, 945, 2092, 2894, 2670
2060, 896, 904, 2859, 3280
2061, 1296, 2164, 1568, 2230
2062, 3339, 3321, 868, 3335
2063, 810, 1246, 2954, 1598
2064, 1693, 2387, 2841, 1667
2065, 1600, 414, 299, 1967
2066, 1966, 666, 1773, 2087
2067, 1502, 1189, 667, 1221
2068, 2086, 3350, 1810, 1191
2069, 2887, 3201, 2083, 592
2070, 1541, 972, 2331, 603
2071, 77, 2104, 1582, 88
2072, 1095, 1380, 2896, 1242
2073, 1242, 2896, 2060, 621
2074, 2896, 2895, 559, 2060
2075, 1380, 1096, 2895, 2896
2076, 2099, 288, 424, 1779
2077, 2588, 2865, 3210, 650
2078, 2900, 2335, 687, 2898
2079, 2899, 686, 2335, 2900
2080, 1736, 1212, 799, 1216
2081, 2784, 2540, 2706, 1895
2082, 792, 794, 2883, 1913
2083, 2207, 885, 1733, 2471
2084, 2817, 2118, 1918, 2904
2085, 2694, 65, 55, 1145
2086, 628, 1273, 3222, 1956
2087, 1143, 2906, 2907, 1219
2088, 1219, 2907, 2065, 623
2089, 2907, 1241, 621, 2065
2090, 2906, 1094, 1241, 2907
2091, 1554, 1557, 2259, 1692
2092, 1597, 1539, 1569, 2298
2093, 1882, 1666, 802, 1246
2094, 1555, 2882, 3320, 3321
2095, 713, 681, 278, 434
2096, 2361, 2761, 2100, 2112
2097, 2356, 1369, 2424, 2597
2098, 2911, 2913, 2912, 760
2099, 2913, 2853, 774, 2912
2100, 740, 2913, 2911, 2569
2101, 3295, 2232, 1943, 2229
2102, 750, 26, 18, 1411
2103, 3195, 3202, 2129, 1080
2104, 1244, 2303, 1969, 1693
2105, 2269, 215, 497, 875
2106, 2302, 3097, 1278, 1666
2107, 2203, 1562, 1116, 1526
2108, 3293, 3246, 2315, 3178
2109, 2918, 1106, 1871, 1564
2110, 1117, 2203, 1526, 1702
2111, 1404, 536, 177, 1109
2112, 2451, 1111, 529, 184
2113, 3052, 3031, 1017, 2657
2114, 1115, 1107, 525, 188
2115, 2761, 3207, 3283, 2100
2116, 3126, 2580, 2793, 684
2117, 566, 1197, 3207, 2761
2118, 3263, 1920, 823, 1603
2119, 2386, 1514, 619, 2393
2120, 1393, 2926, 1081, 3337
2121, 1588, 2115, 1183, 821
2122, 1002, 2741, 2928, 1187
2123, 1187, 2928, 2292, 1004
2124, 2928, 2927, 1005, 2292
2125, 2741, 1006, 2927, 2928
2126, 3287, 2073, 38, 47
2127, 3285, 3284, 1135, 2931
2128, 1010, 1917, 2700, 2811
2129, 950, 2634, 2934, 1258
2130, 1258, 2934, 2932, 906
2131, 2934, 2933, 944, 2932
2132, 2634, 947, 2933, 2934
2133, 1005, 2927, 2936, 2133
2134, 2133, 2936, 2935, 1009
2135, 2936, 2732, 1036, 2935
2136, 2927, 1006, 2732, 2936
2137, 775, 2691, 2938, 2937
2138, 2937, 2938, 2912, 774
2139, 2938, 2718, 760, 2912
2140, 2187, 3018, 2704, 3253
2141, 797, 2947, 2941, 3242
2142, 3306, 3305, 2982, 2200
2143, 808, 1952, 2517, 1695
2144, 837, 2942, 2943, 2941
2145, 2827, 3138, 859, 1314
2146, 1308, 3103, 481, 232
2147, 2942, 843, 2636, 2943
2148, 1956, 3222, 1531, 2699
2149, 2247, 2904, 1280, 1955
2150, 2945, 1218, 623, 2072
2151, 2944, 1142, 1218, 2945
2152, 976, 2722, 2946, 1164
2153, 1164, 2946, 2089, 1003
2154, 2946, 1186, 1004, 2089
2155, 2722, 977, 1186, 2946
2156, 3299, 3298, 748, 2914
2157, 3273, 3296, 1423, 816
2158, 3329, 2229, 809, 3328
2159, 2008, 2751, 926, 1427
2160, 1318, 1951, 3223, 2751
2161, 2948, 659, 929, 1474
2162, 1472, 1431, 1892, 2803
2163, 1090, 2180, 2531, 2130
2164, 2822, 2950, 2895, 1096
2165, 2950, 2028, 559, 2895
2166, 1084, 1725, 2258, 1088
2167, 1139, 1291, 2953, 2951
2168, 2951, 2953, 2952, 1103
2169, 2953, 2233, 1071, 2952
2170, 1291, 1070, 2233, 2953
2171, 3330, 3295, 2229, 3329
2172, 3303, 3302, 2970, 2655
2173, 2200, 2982, 2791, 2789
2174, 1515, 1173, 2607, 3168
2175, 3120, 1515, 3168, 2022
2176, 1174, 1860, 1854, 2609
2177, 1362, 2948, 1474, 1442
2178, 2787, 3278, 1309, 1325
2179, 2001, 226, 486, 2466
2180, 1628, 2506, 891, 2294
2181, 2837, 1843, 846, 3104
2182, 2427, 1386, 2220, 716
2183, 719, 2418, 2307, 1292
2184, 2425, 2833, 2763, 3085
2185, 2923, 3055, 2702, 2467
2186, 2105, 1200, 90, 79
2187, 1201, 894, 2093, 1200
2188, 894, 2860, 2054, 2052
2189, 2963, 3174, 2813, 2745
2190, 2966, 2867, 1142, 2944
2191, 2965, 1132, 2867, 2966
2192, 1033, 2804, 2968, 2967
2193, 2967, 2968, 2109, 1009
2194, 2968, 2849, 1008, 2109
2195, 2804, 1014, 2849, 2968
2196, 3297, 492, 221, 1426
2197, 3224, 2655, 3115, 832
2198, 1667, 2841, 2555, 804
2199, 1642, 2161, 3339, 1425
2200, 773, 2421, 2973, 2852
2201, 2852, 2973, 2937, 774
2202, 2973, 1214, 775, 2937
2203, 2421, 795, 1214, 2973
2204, 2902, 1734, 1745, 2208
2205, 1286, 2539, 884, 2705
2206, 3021, 2369, 856, 1495
2207, 2983, 1321, 3237, 888
2208, 1809, 610, 2747, 3035
2209, 1044, 2375, 1000, 612
2210, 2433, 986, 2577, 2576
2211, 2862, 1809, 3035, 986
2212, 2074, 1251, 572, 1512
2213, 2682, 668, 420, 293
2214, 3093, 673, 1781, 638
2215, 1148, 1145, 2119, 2782
2216, 628, 51, 43, 1273
2217, 1638, 2108, 1008, 2964
2218, 1746, 1732, 889, 1738
2219, 884, 1731, 3018, 877
2220, 1269, 2642, 796, 1744
2221, 1737, 2974, 2046, 1914
2222, 2766, 903, 1639, 3132
2223, 2669, 2671, 2932, 944
2224, 2106, 2818, 2092, 945
2225, 1199, 2887, 592, 2885
2226, 2982, 3224, 832, 2791
2227, 3045, 2889, 2162, 2840
2228, 1214, 795, 2995, 2884
2229, 2697, 757, 752, 2858
2230, 1094, 2988, 2989, 1243
2231, 1243, 2989, 1382, 1095
2232, 2989, 2987, 1097, 1382
2233, 2988, 1103, 2987, 2989
2234, 1944, 3193, 1782, 1883
2235, 2271, 219, 493, 1953
2236, 2908, 1393, 872, 3039
2237, 2924, 680, 2701, 1691
2238, 3023, 692, 2549, 2416
2239, 698, 3186, 1195, 1677
2240, 1337, 3116, 2126, 1019
2241, 3173, 2237, 3114, 2616
2242, 2325, 2994, 3173, 1023
2243, 2325, 1023, 2389, 1025
2244, 840, 1726, 3103, 1308
2245, 2788, 3020, 1311, 1207
2246, 887, 1634, 886, 1285
2247, 2786, 2241, 2703, 2857
2248, 3266, 1255, 3140, 2996
2249, 2340, 388, 325, 2341
2250, 3231, 2341, 1254, 1255
2251, 912, 1298, 1400, 2871
2252, 1227, 1830, 1676, 691
2253, 3345, 3190, 696, 1655
2254, 1197, 3208, 2581, 3207
2255, 2840, 2162, 2378, 3166
2256, 835, 1627, 841, 2957
2257, 1627, 883, 2461, 841
2258, 1646, 1063, 185, 527
2259, 1112, 1021, 2451, 1113
2260, 1141, 1056, 2069, 1923
2261, 1525, 1052, 2524, 2553
2262, 2151, 3053, 2305, 737
2263, 2620, 771, 3085, 3007
2264, 2621, 3262, 2417, 2573
2265, 2518, 2709, 3247, 2537
2266, 2433, 2576, 2866, 1806
2267, 1903, 3269, 1807, 611
2268, 3343, 2863, 2711, 2652
2269, 3349, 569, 1318, 1275
2270, 2751, 3223, 1584, 926
2271, 1275, 2008, 1362, 595
2272, 1430, 1891, 1585, 568
2273, 1609, 2400, 2401, 3087
2274, 765, 2364, 768, 720
2275, 1390, 721, 724, 1371
2276, 770, 1793, 1835, 721
2277, 567, 2098, 3319, 3258
2278, 1653, 291, 421, 1866
2279, 1601, 121, 133, 654
2280, 2036, 134, 123, 2626
2281, 684, 2793, 3015, 2899
2282, 2899, 3015, 2443, 686
2283, 3015, 3014, 683, 2443
2284, 2570, 2584, 2571, 1608
2285, 1995, 2483, 2873, 1996
2286, 2019, 272, 440, 702
2287, 781, 1360, 2140, 2205
2288, 2218, 1710, 1735, 2489
2289, 751, 1270, 2642, 1269
2290, 3117, 1913, 2505, 1206
2291, 1897, 2976, 800, 1310
2292, 1783, 1842, 3144, 3138
2293, 2205, 2140, 1485, 893
2294, 2995, 2858, 794, 792
2295, 1595, 2436, 1566, 1668
2296, 2858, 752, 2272, 794
2297, 1139, 2951, 3022, 2868
2298, 2868, 3022, 2906, 1143
2299, 3022, 2988, 1094, 2906
2300, 2951, 1103, 2988, 3022
2301, 2396, 445, 268, 3186
2302, 2910, 1608, 1828, 690
2303, 1904, 996, 989, 1876
2304, 983, 1343, 162, 9
2305, 1579, 981, 2175, 3141
2306, 2175, 1288, 2651, 2599
2307, 899, 1617, 941, 2379
2308, 2765, 3065, 3047, 965
2309, 971, 941, 368, 345
2310, 2135, 2662, 2677, 1799
2311, 2365, 2402, 1987, 1389
2312, 767, 762, 2352, 1340
2313, 3029, 2911, 760, 2719
2314, 1628, 2294, 844, 2257
2315, 3271, 1411, 584, 2955
2316, 2914, 748, 3267, 2947
2317, 2409, 1055, 629, 1922
2318, 1336, 1505, 1562, 2203
2319, 1284, 2051, 2395, 2435
2320, 2434, 2344, 1060, 2448
2321, 2374, 1344, 1343, 983
2322, 3341, 611, 3026, 996
2323, 2780, 1049, 3038, 2864
2324, 2998, 744, 3005, 1167
2325, 1228, 2998, 1167, 2842
2326, 2857, 2703, 3240, 2610
2327, 1319, 2704, 1334, 1912
2328, 1320, 1319, 1912, 1335
2329, 2536, 983, 9, 356
2330, 1807, 359, 354, 2575
2331, 1345, 360, 353, 3269
2332, 1924, 1287, 988, 1407
2333, 831, 1999, 1730, 1942
2334, 3313, 805, 2269, 1408
2335, 869, 1571, 2538, 1537
2336, 907, 3042, 3043, 3041
2337, 3041, 3043, 1257, 906
2338, 3043, 2560, 905, 1257
2339, 3042, 908, 2560, 3043
2340, 1710, 2721, 2718, 1735
2341, 2209, 1709, 465, 248
2342, 2390, 777, 1383, 2391
2343, 776, 877, 3018, 2187
2344, 3324, 803, 3312, 3323
2345, 2230, 1568, 1999, 831
2346, 816, 1423, 871, 582
2347, 3335, 868, 2210, 3334
2348, 607, 2633, 2630, 965
2349, 605, 2372, 2632, 1984
2350, 888, 2045, 3110, 2983
2351, 2471, 1733, 1334, 1731
2352, 1312, 2046, 1895, 2706
2353, 473, 3037, 881, 239
2354, 2315, 1112, 1018, 1921
2355, 1697, 1923, 2051, 1284
2356, 1373, 2685, 2712, 2848
2357, 3293, 3226, 1937, 3246
2358, 2467, 2702, 2468, 715
2359, 1304, 1387, 3084, 2122
2360, 2305, 3153, 3108, 1387
2361, 3108, 1982, 731, 1388
2362, 2425, 2275, 707, 2833
2363, 2833, 707, 2423, 1153
2364, 2400, 3185, 2357, 2401
2365, 3007, 3056, 1155, 772
2366, 3193, 582, 2516, 1782
2367, 1694, 818, 1084, 829
2368, 3214, 504, 209, 2888
2369, 834, 869, 1537, 811
2370, 1611, 2551, 443, 270
2371, 1193, 2628, 2550, 2398
2372, 2527, 1674, 1672, 2415
2373, 1350, 1791, 2923, 2469
2374, 1353, 1814, 1354, 2228
2375, 2228, 1354, 546, 167
2376, 1041, 166, 546, 1354
2377, 1878, 1047, 1476, 1046
2378, 1562, 3070, 2330, 1116
2379, 2430, 1373, 1280, 2063
2380, 1338, 2916, 1135, 2688
2381, 3268, 2408, 3149, 3051
2382, 3063, 2990, 1741, 1342
2383, 2387, 820, 2908, 2841
2384, 1942, 1730, 1392, 812
2385, 3233, 2653, 974, 2764
2386, 1907, 1909, 2654, 2178
2387, 3252, 2379, 941, 971
2388, 1441, 924, 110, 100
2389, 1979, 3067, 2891, 663
2390, 3067, 1432, 570, 2891
2391, 2876, 1613, 2010, 3192
2392, 3068, 892, 2465, 2368
2393, 2198, 3000, 3274, 1575
2394, 2707, 229, 483, 848
2395, 1682, 1671, 1712, 892
2396, 2025, 2255, 2253, 2492
2397, 1107, 1564, 187, 525
2398, 3149, 1110, 1645, 3031
2399, 1018, 1112, 1113, 1063
2400, 1678, 657, 2759, 673
2401, 1512, 572, 1680, 3092
2402, 2641, 2287, 2312, 1960
2403, 940, 3072, 3073, 2474
2404, 2474, 3073, 1322, 943
2405, 3073, 2820, 942, 1322
2406, 2289, 343, 369, 1824
2407, 2924, 1691, 693, 1497
2408, 729, 1208, 2527, 2468
2409, 2123, 1827, 1791, 1350
2410, 2463, 3283, 2583, 1224
2411, 2314, 2139, 2209, 783
2412, 1359, 3078, 2186, 2188
2413, 2385, 342, 370, 956
2414, 1931, 2670, 2894, 959
2415, 2960, 2135, 1799, 1774
2416, 2332, 963, 972, 1541
2417, 2794, 690, 681, 713
2418, 703, 3024, 3081, 2760
2419, 1672, 447, 266, 717
2420, 3059, 718, 2551, 1611
2421, 1792, 636, 706, 705
2422, 2629, 1193, 2398, 1606
2423, 1153, 3154, 1154, 743
2424, 744, 2664, 708, 2773
2425, 2275, 742, 3006, 707
2426, 2627, 122, 134, 2036
2427, 1863, 2042, 118, 130
2428, 3086, 645, 2280, 1379
2429, 1232, 2590, 2099, 1779
2430, 3069, 2917, 2916, 1338
2431, 2672, 2204, 1523, 2493
2432, 1374, 2448, 1705, 1853
2433, 1503, 1336, 2544, 1122
2434, 725, 1930, 739, 2959
2435, 767, 1339, 764, 762
2436, 765, 1929, 1484, 769
2437, 1042, 1041, 1354, 1814
2438, 1579, 3141, 1815, 2173
2439, 3036, 1348, 2536, 1948
2440, 2491, 1477, 2238, 2577
2441, 1132, 1249, 3091, 2869
2442, 2869, 3091, 1290, 1139
2443, 3091, 2299, 1130, 1290
2444, 1249, 1131, 2299, 3091
2445, 654, 2627, 2074, 653
2446, 2036, 2626, 567, 1251
2447, 1781, 2035, 1232, 647
2448, 572, 3258, 3012, 1680
2449, 1125, 2496, 3096, 3094
2450, 3094, 3096, 3095, 1134
2451, 3096, 1248, 1132, 3095
2452, 2496, 1127, 1248, 3096
2453, 2889, 1695, 3098, 2162
2454, 946, 1324, 3099, 2513
2455, 2513, 3099, 2933, 947
2456, 3099, 2962, 944, 2933
2457, 1324, 942, 2962, 3099
2458, 915, 1264, 1651, 2081
2459, 2875, 911, 1623, 2453
2460, 1522, 1626, 917, 3100
2461, 1646, 527, 186, 1947
2462, 1114, 2673, 2449, 2346
2463, 1066, 3130, 1272, 2594
2464, 859, 1728, 480, 233
2465, 1712, 1783, 3138, 2827
2466, 1340, 2352, 2326, 1630
2467, 2489, 1735, 2691, 1736
2468, 1567, 251, 461, 2308
2469, 2341, 325, 387, 1254
2470, 2996, 3140, 934, 2736
2471, 1625, 916, 909, 911
2472, 2512, 2599, 351, 361
2473, 2189, 607, 965, 3047
2474, 1690, 2190, 1327, 993
2475, 2747, 1347, 1039, 3061
2476, 2570, 2530, 2411, 2584
2477, 716, 2220, 3054, 2426
2478, 736, 1304, 2122, 2276
2479, 2278, 3234, 2195, 1498
2480, 3234, 2275, 2425, 2195
2481, 3206, 3198, 669, 1499
2482, 1225, 1460, 561, 565
2483, 2703, 1333, 3220, 3240
2484, 2436, 1385, 1384, 1566
2485, 863, 2705, 1633, 882
2486, 474, 3175, 2546, 238
2487, 1624, 2797, 1857, 1265
2488, 1294, 1519, 2084, 2111
2489, 923, 3150, 2997, 919
2490, 1260, 2737, 3217, 3219
2491, 2994, 2239, 2237, 3173
2492, 1065, 1872, 2525, 2430
2493, 1523, 2922, 1107, 1115
2494, 1364, 1209, 1821, 2311
2495, 1365, 2992, 1026, 1376
2496, 1032, 1765, 1905, 2263
2497, 1026, 2472, 2800, 2847
2498, 1207, 1311, 793, 2370
2499, 2548, 2976, 1897, 2273
2500, 3019, 1670, 1574, 2215
2501, 2692, 1213, 1217, 1215
2502, 1699, 3128, 1767, 1766
2503, 2309, 1013, 1034, 2806
2504, 1048, 2605, 168, 544
2505, 2863, 2005, 2376, 2711
2506, 801, 2216, 2974, 1737
2507, 2546, 1914, 1634, 887
2508, 3240, 3220, 885, 2207
2509, 1268, 2507, 2548, 3113
2510, 3301, 1997, 1414, 3300
2511, 2464, 867, 835, 2166
2512, 1029, 1032, 2263, 3116
2513, 2311, 1821, 1699, 2127
2514, 3033, 1649, 1056, 1141
2515, 775, 1214, 2884, 1212
2516, 882, 2693, 2643, 863
2517, 3109, 1207, 2370, 2693
2518, 3221, 1963, 2503, 1205
2519, 1058, 1329, 2450, 1885
2520, 1109, 177, 535, 1463
2521, 2202, 2445, 1404, 1054
2522, 1777, 1698, 1988, 1055
2523, 2690, 3282, 694, 2530
2524, 3125, 1841, 437, 276
2525, 2551, 1983, 269, 443
2526, 1532, 64, 54, 1210
2527, 3286, 3285, 2931, 1133
2528, 2712, 1851, 1149, 2814
2529, 2686, 44, 4, 53
2530, 1173, 1174, 2609, 2607
2531, 1856, 558, 393, 320
2532, 1859, 1181, 317, 395
2533, 739, 2194, 2196, 1386
2534, 3055, 736, 2276, 2702
2535, 1388, 731, 2184, 2221
2536, 2442, 716, 2426, 1982
2537, 1729, 3040, 1295, 874
2538, 2839, 817, 806, 3212
2539, 805, 498, 215, 2269
2540, 2210, 1729, 874, 1176
2541, 2413, 640, 632, 1675
2542, 3081, 3024, 433, 280
2543, 3112, 2508, 2473, 2128
2544, 2523, 2127, 1906, 1990
2545, 2508, 1020, 1209, 1364
2546, 593, 918, 2836, 1262
2547, 1519, 1261, 2085, 2084
2548, 2454, 921, 599, 3159
2549, 3002, 2553, 2394, 1647
2550, 1563, 2920, 1134, 2919
2551, 2176, 898, 1931, 3066
2552, 2168, 2178, 2984, 2290
2553, 963, 1823, 1640, 972
2554, 1602, 1864, 2044, 1471
2555, 3170, 1599, 3235, 1307
2556, 2615, 655, 2979, 2640
2557, 1234, 573, 674, 1378
2558, 935, 2796, 3137, 3135
2559, 3135, 3137, 2040, 600
2560, 1858, 321, 391, 1622
2561, 3238, 3277, 2837, 3104
2562, 2165, 1315, 3275, 3276
2563, 2257, 844, 3000, 2198
2564, 2792, 1942, 812, 2909
2565, 824, 1296, 2230, 1743
2566, 3338, 834, 811, 3046
2567, 1952, 807, 2231, 2517
2568, 2453, 1623, 3129, 3232
2569, 2871, 1400, 1520, 1401
2570, 1294, 915, 1263, 1519
2571, 3106, 2521, 982, 2190
2572, 1576, 3243, 2478, 1893
2573, 1288, 606, 1328, 2651
2574, 3248, 1948, 550, 163
2575, 3305, 3304, 3224, 2982
2576, 844, 2502, 858, 3000
2577, 3279, 2826, 853, 2958
2578, 3278, 230, 482, 1309
2579, 1713, 2707, 848, 786
2580, 973, 2757, 3145, 2843
2581, 2843, 3145, 2764, 974
2582, 3145, 1231, 900, 2764
2583, 2757, 902, 1231, 3145
2584, 1666, 1278, 2193, 802
2585, 1168, 2679, 1169, 3191
2586, 1557, 206, 506, 2259
2587, 3296, 2271, 1953, 1423
2588, 1101, 1161, 3148, 2146
2589, 2146, 3148, 3147, 1102
2590, 3148, 1381, 1097, 3147
2591, 1161, 1096, 1381, 3148
2592, 2877, 3125, 276, 436
2593, 1960, 2312, 2034, 649
2594, 1705, 2410, 2428, 1011
2595, 1054, 1404, 1109, 1648
2596, 555, 24, 16, 2940
2597, 3101, 1665, 922, 3150
2598, 1665, 2338, 1260, 922
2599, 2737, 1925, 1621, 3217
2600, 1574, 852, 1682, 2825
2601, 1728, 1308, 232, 480
2602, 2240, 1783, 1712, 1671
2603, 867, 833, 1627, 835
2604, 2726, 2661, 1823, 963
2605, 897, 1300, 2630, 964
2606, 969, 2727, 2819, 3131
2607, 643, 1156, 3152, 2558
2608, 2558, 3152, 2898, 687
2609, 1496, 2532, 2582, 1961
2610, 2898, 3318, 641, 2900
2611, 2620, 3007, 772, 2831
2612, 2763, 743, 1154, 3056
2613, 2278, 2774, 733, 2762
2614, 3056, 1154, 747, 1155
2615, 1194, 2467, 715, 3345
2616, 3006, 3005, 744, 2773
2617, 1685, 2145, 719, 3262
2618, 731, 3054, 2185, 2184
2619, 1758, 25, 17, 2790
2620, 2947, 3267, 837, 2941
2621, 3064, 2298, 3139, 826
2622, 1097, 2987, 3158, 3147
2623, 3147, 3158, 2658, 1102
2624, 3158, 3157, 1104, 2658
2625, 2987, 1103, 3157, 3158
2626, 919, 2997, 3042, 907
2627, 2455, 919, 907, 2885
2628, 918, 1265, 1622, 2836
2629, 3179, 967, 2603, 2380
2630, 903, 372, 341, 1639
2631, 3208, 565, 3200, 2581
2632, 637, 136, 125, 1165
2633, 1224, 2666, 640, 3216
2634, 2356, 2597, 2529, 2832
2635, 1074, 2347, 3162, 2585
2636, 2585, 3162, 2952, 1071
2637, 3162, 3157, 1103, 2952
2638, 2347, 1104, 3157, 3162
2639, 2273, 2368, 865, 2470
2640, 2828, 1844, 839, 1726
2641, 1315, 1575, 3274, 3275
2642, 2657, 1017, 3264, 1396
2643, 1067, 1105, 1525, 3001
2644, 3288, 3287, 47, 39
2645, 3092, 1680, 573, 1234
2646, 1378, 674, 1510, 2587
2647, 2587, 1510, 2313, 2590
2648, 1470, 290, 422, 1171
2649, 875, 497, 216, 2268
2650, 582, 871, 814, 2516
2651, 812, 1392, 2271, 3296
2652, 630, 1150, 2674, 1368
2653, 1120, 1706, 2879, 2318
2654, 2674, 1366, 1464, 2675
2655, 2395, 2345, 1051, 1403
2656, 1134, 3095, 3167, 2919
2657, 1144, 2769, 2964, 2770
2658, 2117, 1010, 2811, 2715
2659, 3095, 1132, 2965, 3167
2660, 600, 2022, 3168, 3135
2661, 3135, 3168, 2607, 935
2662, 930, 3211, 1976, 1175
2663, 1175, 1976, 318, 394
2664, 2006, 682, 2098, 631
2665, 3060, 2124, 3344, 3025
2666, 2897, 1156, 3187, 1157
2667, 1190, 2752, 302, 410
2668, 678, 2212, 3171, 2638
2669, 2873, 3081, 280, 432
2670, 2212, 683, 3014, 3171
2671, 1134, 2920, 3172, 3094
2672, 3094, 3172, 2591, 1125
2673, 3172, 2542, 1121, 2591
2674, 2920, 1122, 2542, 3172
2675, 1024, 2807, 2799, 2472
2676, 2128, 2473, 2069, 1056
2677, 2473, 2509, 1059, 2069
2678, 1226, 1136, 2783, 1138
2679, 2668, 3281, 3201, 2887
2680, 2053, 2961, 2671, 2669
2681, 2860, 2094, 2963, 2054
2682, 1616, 373, 340, 1198
2683, 3037, 2903, 801, 881
2684, 782, 466, 247, 1266
2685, 3142, 228, 484, 849
2686, 3044, 2720, 2721, 1710
2687, 2384, 1332, 1202, 2821
2688, 2177, 2291, 1229, 2744
2689, 3176, 2533, 954, 2556
2690, 3072, 940, 2533, 3176
2691, 3062, 3102, 3032, 1105
2692, 1064, 2714, 1226, 1851
2693, 1106, 2201, 1947, 1871
2694, 1829, 2100, 3283, 2463
2695, 1497, 1829, 2463, 3016
2696, 3118, 3216, 640, 2413
2697, 2594, 1272, 181, 531
2698, 3001, 1525, 2553, 3002
2699, 1329, 1524, 1283, 2450
2700, 2522, 1058, 1885, 1111
2701, 781, 2205, 2490, 1595
2702, 1566, 1384, 1383, 777
2703, 781, 1595, 1668, 2217
2704, 956, 370, 343, 2289
2705, 1541, 603, 2676, 958
2706, 2984, 2660, 1616, 2047
2707, 2881, 2403, 2386, 1920
2708, 1920, 2386, 2393, 823
2709, 2949, 1168, 3191, 1098
2710, 1092, 2358, 2392, 2154
2711, 1035, 2798, 3181, 2775
2712, 2775, 3181, 2935, 1036
2713, 3181, 2967, 1009, 2935
2714, 2798, 1033, 2967, 3181
2715, 2153, 1605, 1208, 729
2716, 1688, 458, 255, 3185
2717, 3190, 717, 3083, 696
2718, 1610, 2396, 3186, 698
2719, 2278, 2529, 2151, 2774
2720, 1840, 3346, 1839, 2991
2721, 998, 2377, 2519, 1812
2722, 1405, 1874, 1903, 2399
2723, 612, 2431, 2342, 3183
2724, 3141, 2512, 2174, 1815
2725, 1878, 1046, 2226, 1795
2726, 1915, 165, 547, 1040
2727, 1834, 763, 1687, 1819
2728, 2749, 253, 459, 3256
2729, 765, 769, 723, 2364
2730, 1631, 1339, 767, 1754
2731, 2423, 741, 3154, 1153
2732, 2501, 2748, 1834, 1482
2733, 741, 746, 2295, 3154
2734, 643, 1158, 3187, 1156
2735, 672, 650, 1678, 3071
2736, 1158, 645, 1157, 3187
2737, 1096, 1161, 3188, 1159
2738, 1159, 3188, 1160, 1099
2739, 1161, 1101, 1160, 3188
2740, 976, 1164, 3189, 1162
2741, 1162, 3189, 1163, 973
2742, 1164, 1003, 1163, 3189
2743, 2007, 137, 126, 1225
2744, 565, 561, 2440, 3200
2745, 646, 2978, 131, 120
2746, 2358, 2949, 1098, 2392
2747, 2756, 2678, 3180, 2680
2748, 2823, 2179, 1090, 2678
2749, 1471, 2044, 2079, 668
2750, 1832, 1470, 1171, 1864
2751, 1516, 1973, 558, 1860
2752, 1573, 937, 1586, 3211
2753, 933, 2606, 937, 1573
2754, 2970, 556, 3272, 2565
2755, 583, 2656, 2792, 1696
2756, 830, 2020, 1315, 2165
2757, 1572, 1975, 932, 1236
2758, 3120, 2022, 2024, 2023
2759, 2070, 3121, 1517, 601
2760, 3312, 3064, 826, 1413
2761, 822, 1184, 1239, 2260
2762, 1002, 1187, 3196, 1185
2763, 1185, 3196, 1186, 977
2764, 1187, 1004, 1186, 3196
2765, 1192, 2087, 1656, 2043
2766, 1223, 300, 412, 2892
2767, 3351, 1968, 1192, 551
2768, 1191, 1810, 571, 664
2769, 1773, 675, 2033, 1772
2770, 669, 2892, 1189, 1502
2771, 2874, 3023, 2416, 1840
2772, 718, 1673, 1983, 2551
2773, 1225, 126, 138, 1460
2774, 2169, 962, 2177, 604
2775, 896, 1201, 1200, 2105
2776, 895, 2745, 902, 2649
2777, 1199, 2885, 907, 2961
2778, 942, 2820, 2894, 2092
2779, 3201, 80, 92, 2083
2780, 2915, 208, 504, 3214
2781, 1083, 1182, 2403, 2881
2782, 855, 3204, 1321, 2983
2783, 1271, 1215, 2541, 2369
2784, 794, 2272, 1964, 2883
2785, 2006, 637, 566, 2999
2786, 2713, 1532, 1210, 625
2787, 1919, 2694, 1145, 1148
2788, 2068, 1151, 2595, 1281
2789, 3204, 3017, 3050, 1321
2790, 2691, 775, 1212, 1736
2791, 795, 2697, 2858, 2995
2792, 1206, 2505, 1271, 3245
2793, 2642, 3019, 2215, 796
2794, 1142, 1220, 3205, 1218
2795, 1218, 3205, 1219, 623
2796, 1220, 1143, 1219, 3205
2797, 3351, 106, 117, 1968
2798, 3197, 1739, 570, 1433
2799, 2861, 1221, 667, 2752
2800, 2079, 1866, 421, 292
2801, 2842, 1167, 636, 632
2802, 2361, 2112, 2580, 3126
2803, 1065, 1147, 1281, 1372
2804, 2814, 1149, 1152, 1146
2805, 1906, 174, 538, 1990
2806, 2552, 3025, 1673, 718
2807, 2412, 2362, 2124, 3060
2808, 2662, 3179, 2380, 2677
2809, 2105, 79, 91, 3281
2810, 2668, 2887, 1199, 2113
2811, 1708, 425, 288, 2099
2812, 2752, 667, 411, 302
2813, 1474, 929, 1892, 1431
2814, 1518, 3120, 2023, 2071
2815, 1976, 1859, 395, 318
2816, 3098, 1079, 2969, 2270
2817, 1297, 2268, 2164, 1296
2818, 2229, 1943, 1178, 809
2819, 1094, 1243, 3213, 1241
2820, 1241, 3213, 1242, 621
2821, 1243, 1095, 1242, 3213
2822, 1081, 1603, 2855, 3146
2823, 1131, 1249, 3215, 1247
2824, 1247, 3215, 1248, 1127
2825, 1249, 1132, 1248, 3215
2826, 2999, 566, 2761, 2361
2827, 2034, 2312, 296, 416
2828, 1779, 424, 289, 652
2829, 2338, 920, 1522, 914
2830, 3219, 3217, 952, 2339
2831, 909, 1935, 1521, 2596
2832, 1410, 1758, 2790, 1997
2833, 3272, 797, 3242, 836
2834, 905, 1259, 3218, 1257
2835, 1257, 3218, 1258, 906
2836, 1259, 950, 1258, 3218
2837, 1265, 1857, 1858, 1622
2838, 3101, 910, 913, 1665
2839, 2596, 1521, 1624, 1305
2840, 3217, 1621, 1663, 952
2841, 1400, 389, 324, 1520
2842, 878, 1635, 2045, 888
2843, 2539, 2471, 1731, 884
2844, 2272, 2767, 2986, 1964
2845, 2369, 2541, 751, 856
2846, 3237, 2784, 1895, 2547
2847, 2611, 1683, 2486, 1270
2848, 2715, 2811, 1144, 2930
2849, 1847, 1463, 2344, 2434
2850, 2262, 2264, 1032, 1029
2851, 1613, 1430, 568, 2010
2852, 1277, 407, 306, 1429
2853, 2717, 113, 103, 1980
2854, 1411, 18, 2, 584
2855, 3314, 2200, 2789, 2020
2856, 2940, 16, 25, 1758
2857, 2593, 1530, 2068, 622
2858, 3203, 2817, 2904, 2247
2859, 2771, 1137, 2249, 1366
2860, 1922, 629, 1524, 1329
2861, 2410, 179, 533, 2428
2862, 2489, 1736, 1216, 3078
2863, 3227, 3221, 1205, 2540
2864, 1215, 1217, 2611, 2541
2865, 1994, 1985, 981, 1579
2866, 2521, 347, 365, 982
2867, 1805, 2537, 1344, 3340
2868, 1070, 1291, 3229, 1289
2869, 1289, 3229, 1290, 1130
2870, 1291, 1139, 1290, 3229
2871, 1339, 2851, 3029, 764
2872, 2328, 2308, 761, 2568
2873, 779, 2328, 2568, 2326
2874, 1651, 2454, 3159, 910
2875, 1264, 3111, 2454, 1651
2876, 2890, 1238, 815, 1245
2877, 813, 808, 1695, 2889
2878, 1621, 1925, 383, 330
2879, 594, 2039, 2041, 2040
2880, 2331, 899, 2379, 2136
2881, 3132, 1639, 1356, 961
2882, 2727, 959, 1331, 2819
2883, 3261, 2277, 2442, 3153
2884, 2959, 739, 1386, 2427
2885, 2702, 2276, 729, 2468
2886, 914, 2872, 1925, 2737
2887, 934, 1664, 386, 327
2888, 2836, 322, 390, 1262
2889, 2075, 1780, 1679, 1863
2890, 1379, 2280, 644, 3134
2891, 1599, 3133, 2288, 3235
2892, 1628, 3143, 1313, 2506
2893, 1629, 850, 3142, 866
2894, 886, 1896, 1684, 2242
2895, 1745, 2241, 2786, 2613
2896, 2983, 3110, 1286, 855
2897, 838, 1629, 866, 2826
2898, 3104, 846, 1629, 838
2899, 2464, 2166, 2167, 2502
2900, 3009, 114, 104, 1434
2901, 3192, 2010, 313, 399
2902, 1316, 1363, 1534, 3194
2903, 3110, 879, 2539, 1286
2904, 2470, 865, 478, 235
2905, 942, 1324, 3241, 1322
2906, 1322, 3241, 1323, 943
2907, 1324, 946, 1323, 3241
2908, 860, 830, 2165, 1683
2909, 850, 485, 228, 3142
2910, 1314, 859, 233, 479
2911, 2599, 2651, 362, 351
2912, 2510, 3027, 606, 1689
2913, 3228, 1984, 607, 2189
2914, 1524, 1066, 2594, 1283
2915, 2264, 1747, 1765, 1032
2916, 1846, 1648, 1847, 1110
2917, 2333, 3028, 2661, 2726
2918, 3079, 2136, 2379, 3252
2919, 2744, 1229, 367, 346
2920, 855, 1286, 2705, 863
2921, 789, 778, 2206, 1785
2922, 849, 484, 229, 2707
2923, 1330, 2317, 1272, 3130
2924, 1021, 2522, 1111, 2451
2925, 723, 2851, 1339, 1631
2926, 821, 1183, 818, 1694
2927, 3334, 2210, 1176, 3333
2928, 1538, 1092, 2154, 1588
2929, 1949, 1407, 1405, 2399
2930, 1749, 3036, 1948, 3248
2931, 1812, 2519, 2374, 1348
2932, 1806, 2866, 2777, 1038
2933, 3247, 357, 162, 1343
2934, 2571, 1351, 2480, 3080
2935, 2619, 1839, 2629, 633
2936, 1792, 1675, 632, 636
2937, 2794, 713, 2097, 2618
2938, 2286, 2228, 167, 545
2939, 3184, 3251, 2286, 2605
2940, 960, 1198, 903, 2766
2941, 2291, 3252, 971, 1229
2942, 783, 2209, 248, 464
2943, 1488, 787, 1786, 780
2944, 2010, 568, 400, 313
2945, 1317, 1761, 402, 311
2946, 1981, 305, 407, 1277
2947, 1376, 1026, 2847, 2236
2948, 2992, 1024, 2472, 1026
2949, 624, 1455, 618, 1852
2950, 2817, 626, 2117, 2118
2951, 2220, 2183, 2185, 3054
2952, 722, 2621, 725, 726
2953, 2528, 1819, 454, 259
2954, 1697, 1284, 1062, 3257
2955, 2428, 533, 180, 3255
2956, 1110, 1847, 2434, 1645
2957, 2310, 1753, 1751, 1940
2958, 2126, 2617, 1027, 1030
2959, 673, 2759, 2035, 1781
2960, 574, 1191, 664, 1739
2961, 1095, 1382, 3259, 1380
2962, 1380, 3259, 1381, 1096
2963, 1382, 1097, 1381, 3259
2964, 3044, 2143, 3105, 2720
2965, 2490, 1596, 1669, 785
2966, 1320, 244, 468, 2138
2967, 724, 1391, 2400, 1609
2968, 2597, 2424, 3261, 3053
2969, 2278, 2762, 1302, 3234
2970, 3317, 2750, 771, 2620
2971, 720, 722, 726, 1369
2972, 2529, 2597, 3053, 2151
2973, 1549, 502, 211, 620
2974, 1077, 2260, 2856, 1204
2975, 2879, 1394, 1367, 2714
2976, 1885, 2450, 530, 183
2977, 3034, 537, 176, 2445
2978, 1399, 605, 2373, 1576
2979, 3243, 1894, 993, 1397
2980, 1993, 1689, 606, 1288
2981, 1935, 3137, 2796, 1521
2982, 599, 1299, 3231, 1253
2983, 3129, 1305, 918, 593
2984, 1999, 495, 218, 1730
2985, 1706, 1067, 1394, 2879
2986, 2050, 1015, 2689, 2695
2987, 1648, 1109, 1463, 1847
2988, 987, 1904, 1876, 1875
2989, 2005, 2432, 557, 2781
2990, 2266, 1949, 2399, 3341
2991, 2164, 496, 217, 1568
2992, 827, 876, 807, 1952
2993, 3325, 1570, 803, 3324
2994, 806, 1342, 222, 490
2995, 2789, 2791, 2198, 1575
2996, 1176, 874, 828, 749
2997, 883, 786, 2787, 2461
2998, 2791, 832, 2257, 2198
2999, 2059, 2940, 1758, 1410
3000, 2517, 2231, 870, 1079
3001, 3143, 836, 2197, 1313
3002, 2506, 3279, 2958, 891
3003, 961, 1356, 2385, 3028
3004, 3280, 2859, 590, 2821
3005, 2583, 1166, 2666, 1224
3006, 1152, 2783, 2815, 3225
3007, 1146, 1152, 3225, 2810
3008, 2689, 1146, 2810, 2878
3009, 2695, 2689, 2878, 1211
3010, 1274, 2695, 1211, 2981
3011, 3291, 1274, 2981, 3290
3012, 1395, 1053, 2025, 1462
3013, 2435, 2202, 1054, 2447
3014, 1644, 1777, 1055, 2409
3015, 3257, 1062, 2408, 3268
3016, 1636, 2050, 2695, 1274
3017, 3294, 1636, 1274, 3291
3018, 3304, 1256, 2059, 3303
3019, 585, 15, 24, 555
3020, 857, 585, 555, 1256
3021, 3305, 857, 1256, 3304
3022, 2199, 23, 15, 585
3023, 3156, 2199, 585, 857
3024, 3306, 3156, 857, 3305
3025, 3307, 14, 23, 2199
3026, 3308, 3307, 2199, 3156
3027, 3315, 3308, 3156, 3306
3028, 1402, 1759, 13, 22
3029, 3307, 1402, 22, 14
3030, 1412, 1757, 1759, 1402
3031, 3308, 1412, 1402, 3307
3032, 3309, 2566, 1757, 1412
3033, 3315, 3309, 1412, 3308
3034, 1998, 2767, 2768, 2564
3035, 3309, 1998, 2564, 2566
3036, 3311, 2986, 2767, 1998
3037, 3315, 3311, 1998, 3309
3038, 3311, 3310, 2985, 2986
3039, 3315, 3314, 3310, 3311
3040, 1687, 1483, 455, 258
3041, 763, 1389, 1483, 1687
3042, 3319, 3152, 1156, 2897
3043, 3319, 3318, 2898, 3152
3044, 1279, 819, 1182, 1083
3045, 2882, 1244, 2624, 3320
3046, 2926, 3263, 1603, 1081
3047, 2259, 506, 207, 3057
3048, 3180, 2130, 1169, 2679
3049, 3339, 29, 34, 1425
3050, 3322, 3338, 842, 2192
3051, 3323, 3322, 2192, 843
3052, 3324, 3323, 843, 2942
3053, 3325, 3324, 2942, 837
3054, 3326, 3325, 837, 3267
3055, 3327, 3326, 3267, 748
3056, 3328, 3327, 748, 3298
3057, 3329, 3328, 3298, 2955
3058, 3330, 3329, 2955, 584
3059, 3331, 3330, 584, 2
3060, 3332, 3331, 2, 27
3061, 3333, 3332, 27, 32
3062, 3334, 3333, 32, 28
3063, 3335, 3334, 28, 33
3064, 3339, 3335, 33, 29
3065, 1804, 609, 1346, 610
3066, 2265, 1804, 610, 1809
3067, 2652, 2265, 1809, 2862
3068, 3343, 2652, 2862, 2487
3069, 2874, 1840, 2991, 3107
3070, 711, 2874, 3107, 2526
3071, 728, 711, 2526, 3249
3072, 3347, 728, 3249, 2363
3073, 596, 1950, 660, 1361
3074, 3349, 596, 1361, 1440
3075, 1658, 2086, 1191, 574
3076, 3351, 1658, 574, 662
*ELSET,ELSET=contact_source
139, 140, 141, 142, 143, 144, 145, 146, 147, 148, 
149, 150, 151, 152, 153, 154, 155, 156, 157, 158, 
159, 160, 
*ELSET,ELSET=contact_drain
47, 48, 49, 50, 51, 52, 53, 54, 55, 56, 
57, 58, 59, 60, 61, 62, 63, 64, 65, 66, 
67, 68, 
*ELSET,ELSET=probe_A
93, 94, 95, 96, 97, 98, 99, 100, 101, 102, 
103, 104, 105, 106, 107, 108, 109, 110, 111, 112, 
113, 114, 
*ELSET,ELSET=probe_B
19, 20, 21, 22, 23, 24, 25, 26, 27, 28, 
*ELSET,ELSET=walls
1, 2, 3, 4, 5, 6, 7, 8, 9, 10, 
11, 12, 13, 14, 15, 16, 17, 18, 29, 30, 
31, 32, 33, 34, 35, 36, 37, 38, 39, 40, 
41, 42, 43, 44, 45, 46, 69, 70, 71, 72, 
73, 74, 75, 76, 77, 78, 79, 80, 81, 82, 
83, 84, 85, 86, 87, 88, 89, 90, 91, 92, 
115, 116, 117, 118, 119, 120, 121, 122, 123, 124, 
125, 126, 127, 128, 129, 130, 131, 132, 133, 134, 
135, 136, 137, 138, 161, 162, 163, 164, 165, 166, 
167, 168, 169, 170, 171, 172, 173, 174, 175, 176, 
177, 178, 179, 180, 181, 182, 183, 184, 185, 186, 
187, 188, 189, 190, 191, 192, 193, 194, 195, 196, 
197, 198, 199, 200, 201, 202, 203, 204, 205, 206, 
207, 208, 209, 210, 211, 212, 213, 214, 215, 216, 
217, 218, 219, 220, 221, 222, 223, 224, 225, 226, 
227, 228, 229, 230, 231, 232, 233, 234, 235, 236, 
237, 238, 239, 240, 241, 242, 243, 244, 245, 246, 
247, 248, 249, 250, 251, 252, 253, 254, 255, 256, 
257, 258, 259, 260, 261, 262, 263, 264, 265, 266, 
267, 268, 269, 270, 271, 272, 273, 274, 275, 276, 
277, 278, 279, 280, 281, 282, 283, 284, 285, 286, 
287, 288, 289, 290, 291, 292, 293, 294, 295, 296, 
297, 298, 299, 300, 301, 302, 303, 304, 305, 306, 
307, 308, 309, 310, 311, 312, 313, 314, 315, 316, 
317, 318, 319, 320, 321, 322, 323, 324, 325, 326, 
327, 328, 329, 330, 331, 332, 333, 334, 335, 336, 
337, 338, 339, 340, 341, 342, 343, 344, 345, 346, 
347, 348, 349, 350, 351, 352, 353, 354, 355, 356, 
357, 358, 359, 360, 361, 362, 363, 364, 365, 366, 
367, 368, 369, 370, 371, 372, 373, 374, 375, 376, 
377, 378, 379, 380, 381, 382, 383, 384, 385, 386, 
387, 388, 389, 390, 391, 392, 393, 394, 395, 396, 
397, 398, 399, 400, 401, 402, 403, 404, 405, 406, 
407, 408, 409, 410, 411, 412, 413, 414, 415, 416, 
417, 418, 419, 420, 421, 422, 423, 424, 425, 426, 
427, 428, 429, 430, 431, 432, 433, 434, 435, 436, 
437, 438, 439, 440, 441, 442, 443, 444, 445, 446, 
447, 448, 449, 450, 451, 452, 453, 454, 455, 456, 
457, 458, 459, 460, 461, 462, 463, 464, 465, 466, 
467, 468, 469, 470, 471, 472, 473, 474, 475, 476, 
477, 478, 479, 480, 481, 482, 483, 484, 485, 486, 
487, 488, 489, 490, 491, 492, 493, 494, 495, 496, 
497, 498, 499, 500, 501, 502, 503, 504, 505, 506, 
507, 508, 509, 510, 511, 512, 513, 514, 515, 516, 
517, 518, 519, 520, 521, 522, 523, 524, 525, 526, 
527, 528, 529, 530, 531, 532, 533, 534, 535, 536, 
537, 538, 539, 540, 541, 542, 543, 544, 545, 546, 
547, 548, 549, 550, 
*ELSET,ELSET=domain
551, 552, 553, 554, 555, 556, 557, 558, 559, 560, 
561, 562, 563, 564, 565, 566, 567, 568, 569, 570, 
571, 572, 573, 574, 575, 576, 577, 578, 579, 580, 
581, 582, 583, 584, 585, 586, 587, 588, 589, 590, 
591, 592, 593, 594, 595, 596, 597, 598, 599, 600, 
601, 602, 603, 604, 605, 606, 607, 608, 609, 610, 
611, 612, 613, 614, 615, 616, 617, 618, 619, 620, 
621, 622, 623, 624, 625, 626, 627, 628, 629, 630, 
631, 632, 633, 634, 635, 636, 637, 638, 639, 640, 
641, 642, 643, 644, 645, 646, 647, 648, 649, 650, 
651, 652, 653, 654, 655, 656, 657, 658, 659, 660, 
661, 662, 663, 664, 665, 666, 667, 668, 669, 670, 
671, 672, 673, 674, 675, 676, 677, 678, 679, 680, 
681, 682, 683, 684, 685, 686, 687, 688, 689, 690, 
691, 692, 693, 694, 695, 696, 697, 698, 699, 700, 
701, 702, 703, 704, 705, 706, 707, 708, 709, 710, 
711, 712, 713, 714, 715, 716, 717, 718, 719, 720, 
721, 722, 723, 724, 725, 726, 727, 728, 729, 730, 
731, 732, 733, 734, 735, 736, 737, 738, 739, 740, 
741, 742, 743, 744, 745, 746, 747, 748, 749, 750, 
751, 752, 753, 754, 755, 756, 757, 758, 759, 760, 
761, 762, 763, 764, 765, 766, 767, 768, 769, 770, 
771, 772, 773, 774, 775, 776, 777, 778, 779, 780, 
781, 782, 783, 784, 785, 786, 787, 788, 789, 790, 
791, 792, 793, 794, 795, 796, 797, 798, 799, 800, 
801, 802, 803, 804, 805, 806, 807, 808, 809, 810, 
811, 812, 813, 814, 815, 816, 817, 818, 819, 820, 
821, 822, 823, 824, 825, 826, 827, 828, 829, 830, 
831, 832, 833, 834, 835, 836, 837, 838, 839, 840, 
841, 842, 843, 844, 845, 846, 847, 848, 849, 850, 
851, 852, 853, 854, 855, 856, 857, 858, 859, 860, 
861, 862, 863, 864, 865, 866, 867, 868, 869, 870, 
871, 872, 873, 874, 875, 876, 877, 878, 879, 880, 
881, 882, 883, 884, 885, 886, 887, 888, 889, 890, 
891, 892, 893, 894, 895, 896, 897, 898, 899, 900, 
901, 902, 903, 904, 905, 906, 907, 908, 909, 910, 
911, 912, 913, 914, 915, 916, 917, 918, 919, 920, 
921, 922, 923, 924, 925, 926, 927, 928, 929, 930, 
931, 932, 933, 934, 935, 936, 937, 938, 939, 940, 
941, 942, 943, 944, 945, 946, 947, 948, 949, 950, 
951, 952, 953, 954, 955, 956, 957, 958, 959, 960, 
961, 962, 963, 964, 965, 966, 967, 968, 969, 970, 
971, 972, 973, 974, 975, 976, 977, 978, 979, 980, 
981, 982, 983, 984, 985, 986, 987, 988, 989, 990, 
991, 992, 993, 994, 995, 996, 997, 998, 999, 1000, 
1001, 1002, 1003, 1004, 1005, 1006, 1007, 1008, 1009, 1010, 
1011, 1012, 1013, 1014, 1015, 1016, 1017, 1018, 1019, 1020, 
1021, 1022, 1023, 1024, 1025, 1026, 1027, 1028, 1029, 1030, 
1031, 1032, 1033, 1034, 1035, 1036, 1037, 1038, 1039, 1040, 
1041, 1042, 1043, 1044, 1045, 1046, 1047, 1048, 1049, 1050, 
1051, 1052, 1053, 1054, 1055, 1056, 1057, 1058, 1059, 1060, 
1061, 1062, 1063, 1064, 1065, 1066, 1067, 1068, 1069, 1070, 
1071, 1072, 1073, 1074, 1075, 1076, 1077, 1078, 1079, 1080, 
1081, 1082, 1083, 1084, 1085, 1086, 1087, 1088, 1089, 1090, 
1091, 1092, 1093, 1094, 1095, 1096, 1097, 1098, 1099, 1100, 
1101, 1102, 1103, 1104, 1105, 1106, 1107, 1108, 1109, 1110, 
1111, 1112, 1113, 1114, 1115, 1116, 1117, 1118, 1119, 1120, 
1121, 1122, 1123, 1124, 1125, 1126, 1127, 1128, 1129, 1130, 
1131, 1132, 1133, 1134, 1135, 1136, 1137, 1138, 1139, 1140, 
1141, 1142, 1143, 1144, 1145, 1146, 1147, 1148, 1149, 1150, 
1151, 1152, 1153, 1154, 1155, 1156, 1157, 1158, 1159, 1160, 
1161, 1162, 1163, 1164, 1165, 1166, 1167, 1168, 1169, 1170, 
1171, 1172, 1173, 1174, 1175, 1176, 1177, 1178, 1179, 1180, 
1181, 1182, 1183, 1184, 1185, 1186, 1187, 1188, 1189, 1190, 
1191, 1192, 1193, 1194, 1195, 1196, 1197, 1198, 1199, 1200, 
1201, 1202, 1203, 1204, 1205, 1206, 1207, 1208, 1209, 1210, 
1211, 1212, 1213, 1214, 1215, 1216, 1217, 1218, 1219, 1220, 
1221, 1222, 1223, 1224, 1225, 1226, 1227, 1228, 1229, 1230, 
1231, 1232, 1233, 1234, 1235, 1236, 1237, 1238, 1239, 1240, 
1241, 1242, 1243, 1244, 1245, 1246, 1247, 1248, 1249, 1250, 
1251, 1252, 1253, 1254, 1255, 1256, 1257, 1258, 1259, 1260, 
1261, 1262, 1263, 1264, 1265, 1266, 1267, 1268, 1269, 1270, 
1271, 1272, 1273, 1274, 1275, 1276, 1277, 1278, 1279, 1280, 
1281, 1282, 1283, 1284, 1285, 1286, 1287, 1288, 1289, 1290, 
1291, 1292, 1293, 1294, 1295, 1296, 1297, 1298, 1299, 1300, 
1301, 1302, 1303, 1304, 1305, 1306, 1307, 1308, 1309, 1310, 
1311, 1312, 1313, 1314, 1315, 1316, 1317, 1318, 1319, 1320, 
1321, 1322, 1323, 1324, 1325, 1326, 1327, 1328, 1329, 1330, 
1331, 1332, 1333, 1334, 1335, 1336, 1337, 1338, 1339, 1340, 
1341, 1342, 1343, 1344, 1345, 1346, 1347, 1348, 1349, 1350, 
1351, 1352, 1353, 1354, 1355, 1356, 1357, 1358, 1359, 1360, 
1361, 1362, 1363, 1364, 1365, 1366, 1367, 1368, 1369, 1370, 
1371, 1372, 1373, 1374, 1375, 1376, 1377, 1378, 1379, 1380, 
1381, 1382, 1383, 1384, 1385, 1386, 1387, 1388, 1389, 1390, 
1391, 1392, 1393, 1394, 1395, 1396, 1397, 1398, 1399, 1400, 
1401, 1402, 1403, 1404, 1405, 1406, 1407, 1408, 1409, 1410, 
1411, 1412, 1413, 1414, 1415, 1416, 1417, 1418, 1419, 1420, 
1421, 1422, 1423, 1424, 1425, 1426, 1427, 1428, 1429, 1430, 
1431, 1432, 1433, 1434, 1435, 1436, 1437, 1438, 1439, 1440, 
1441, 1442, 1443, 1444, 1445, 1446, 1447, 1448, 1449, 1450, 
1451, 1452, 1453, 1454, 1455, 1456, 1457, 1458, 1459, 1460, 
1461, 1462, 1463, 1464, 1465, 1466, 1467, 1468, 1469, 1470, 
1471, 1472, 1473, 1474, 1475, 1476, 1477, 1478, 1479, 1480, 
1481, 1482, 1483, 1484, 1485, 1486, 1487, 1488, 1489, 1490, 
1491, 1492, 1493, 1494, 1495, 1496, 1497, 1498, 1499, 1500, 
1501, 1502, 1503, 1504, 1505, 1506, 1507, 1508, 1509, 1510, 
1511, 1512, 1513, 1514, 1515, 1516, 1517, 1518, 1519, 1520, 
1521, 1522, 1523, 1524, 1525, 1526, 1527, 1528, 1529, 1530, 
1531, 1532, 1533, 1534, 1535, 1536, 1537, 1538, 1539, 1540, 
1541, 1542, 1543, 1544, 1545, 1546, 1547, 1548, 1549, 1550, 
1551, 1552, 1553, 1554, 1555, 1556, 1557, 1558, 1559, 1560, 
1561, 1562, 1563, 1564, 1565, 1566, 1567, 1568, 1569, 1570, 
1571, 1572, 1573, 1574, 1575, 1576, 1577, 1578, 1579, 1580, 
1581, 1582, 1583, 1584, 1585, 1586, 1587, 1588, 1589, 1590, 
1591, 1592, 1593, 1594, 1595, 1596, 1597, 1598, 1599, 1600, 
1601, 1602, 1603, 1604, 1605, 1606, 1607, 1608, 1609, 1610, 
1611, 1612, 1613, 1614, 1615, 1616, 1617, 1618, 1619, 1620, 
1621, 1622, 1623, 1624, 1625, 1626, 1627, 1628, 1629, 1630, 
1631, 1632, 1633, 1634, 1635, 1636, 1637, 1638, 1639, 1640, 
1641, 1642, 1643, 1644, 1645, 1646, 1647, 1648, 1649, 1650, 
1651, 1652, 1653, 1654, 1655, 1656, 1657, 1658, 1659, 1660, 
1661, 1662, 1663, 1664, 1665, 1666, 1667, 1668, 1669, 1670, 
1671, 1672, 1673, 1674, 1675, 1676, 1677, 1678, 1679, 1680, 
1681, 1682, 1683, 1684, 1685, 1686, 1687, 1688, 1689, 1690, 
1691, 1692, 1693, 1694, 1695, 1696, 1697, 1698, 1699, 1700, 
1701, 1702, 1703, 1704, 1705, 1706, 1707, 1708, 1709, 1710, 
1711, 1712, 1713, 1714, 1715, 1716, 1717, 1718, 1719, 1720, 
1721, 1722, 1723, 1724, 1725, 1726, 1727, 1728, 1729, 1730, 
1731, 1732, 1733, 1734, 1735, 1736, 1737, 1738, 1739, 1740, 
1741, 1742, 1743, 1744, 1745, 1746, 1747, 1748, 1749, 1750, 
1751, 1752, 1753, 1754, 1755, 1756, 1757, 1758, 1759, 1760, 
1761, 1762, 1763, 1764, 1765, 1766, 1767, 1768, 1769, 1770, 
1771, 1772, 1773, 1774, 1775, 1776, 1777, 1778, 1779, 1780, 
1781, 1782, 1783, 1784, 1785, 1786, 1787, 1788, 1789, 1790, 
1791, 1792, 1793, 1794, 1795, 1796, 1797, 1798, 1799, 1800, 
1801, 1802, 1803, 1804, 1805, 1806, 1807, 1808, 1809, 1810, 
1811, 1812, 1813, 1814, 1815, 1816, 1817, 1818, 1819, 1820, 
1821, 1822, 1823, 1824, 1825, 1826, 1827, 1828, 1829, 1830, 
1831, 1832, 1833, 1834, 1835, 1836, 1837, 1838, 1839, 1840, 
1841, 1842, 1843, 1844, 1845, 1846, 1847, 1848, 1849, 1850, 
1851, 1852, 1853, 1854, 1855, 1856, 1857, 1858, 1859, 1860, 
1861, 1862, 1863, 1864, 1865, 1866, 1867, 1868, 1869, 1870, 
1871, 1872, 1873, 1874, 1875, 1876, 1877, 1878, 1879, 1880, 
1881, 1882, 1883, 1884, 1885, 1886, 1887, 1888, 1889, 1890, 
1891, 1892, 1893, 1894, 1895, 1896, 1897, 1898, 1899, 1900, 
1901, 1902, 1903, 1904, 1905, 1906, 1907, 1908, 1909, 1910, 
1911, 1912, 1913, 1914, 1915, 1916, 1917, 1918, 1919, 1920, 
1921, 1922, 1923, 1924, 1925, 1926, 1927, 1928, 1929, 1930, 
1931, 1932, 1933, 1934, 1935, 1936, 1937, 1938, 1939, 1940, 
1941, 1942, 1943, 1944, 1945, 1946, 1947, 1948, 1949, 1950, 
1951, 1952, 1953, 1954, 1955, 1956, 1957, 1958, 1959, 1960, 
1961, 1962, 1963, 1964, 1965, 1966, 1967, 1968, 1969, 1970, 
1971, 1972, 1973, 1974, 1975, 1976, 1977, 1978, 1979, 1980, 
1981, 1982, 1983, 1984, 1985, 1986, 1987, 1988, 1989, 1990, 
1991, 1992, 1993, 1994, 1995, 1996, 1997, 1998, 1999, 2000, 
2001, 2002, 2003, 2004, 2005, 2006, 2007, 2008, 2009, 2010, 
2011, 2012, 2013, 2014, 2015, 2016, 2017, 2018, 2019, 2020, 
2021, 2022, 2023, 2024, 2025, 2026, 2027, 2028, 2029, 2030, 
2031, 2032, 2033, 2034, 2035, 2036, 2037, 2038, 2039, 2040, 
2041, 2042, 2043, 2044, 2045, 2046, 2047, 2048, 2049, 2050, 
2051, 2052, 2053, 2054, 2055, 2056, 2057, 2058, 2059, 2060, 
2061, 2062, 2063, 2064, 2065, 2066, 2067, 2068, 2069, 2070, 
2071, 2072, 2073, 2074, 2075, 2076, 2077, 2078, 2079, 2080, 
2081, 2082, 2083, 2084, 2085, 2086, 2087, 2088, 2089, 2090, 
2091, 2092, 2093, 2094, 2095, 2096, 2097, 2098, 2099, 2100, 
2101, 2102, 2103, 2104, 2105, 2106, 2107, 2108, 2109, 2110, 
2111, 2112, 2113, 2114, 2115, 2116, 2117, 2118, 2119, 2120, 
2121, 2122, 2123, 2124, 2125, 2126, 2127, 2128, 2129, 2130, 
2131, 2132, 2133, 2134, 2135, 2136, 2137, 2138, 2139, 2140, 
2141, 2142, 2143, 2144, 2145, 2146, 2147, 2148, 2149, 2150, 
2151, 2152, 2153, 2154, 2155, 2156, 2157, 2158, 2159, 2160, 
2161, 2162, 2163, 2164, 2165, 2166, 2167, 2168, 2169, 2170, 
2171, 2172, 2173, 2174, 2175, 2176, 2177, 2178, 2179, 2180, 
2181, 2182, 2183, 2184, 2185, 2186, 2187, 2188, 2189, 2190, 
2191, 2192, 2193, 2194, 2195, 2196, 2197, 2198, 2199, 2200, 
2201, 2202, 2203, 2204, 2205, 2206, 2207, 2208, 2209, 2210, 
2211, 2212, 2213, 2214, 2215, 2216, 2217, 2218, 2219, 2220, 
2221, 2222, 2223, 2224, 2225, 2226, 2227, 2228, 2229, 2230, 
2231, 2232, 2233, 2234, 2235, 2236, 2237, 2238, 2239, 2240, 
2241, 2242, 2243, 2244, 2245, 2246, 2247, 2248, 2249, 2250, 
2251, 2252, 2253, 2254, 2255, 2256, 2257, 2258, 2259, 2260, 
2261, 2262, 2263, 2264, 2265, 2266, 2267, 2268, 2269, 2270, 
2271, 2272, 2273, 2274, 2275, 2276, 2277, 2278, 2279, 2280, 
2281, 2282, 2283, 2284, 2285, 2286, 2287, 2288, 2289, 2290, 
2291, 2292, 2293, 2294, 2295, 2296, 2297, 2298, 2299, 2300, 
2301, 2302, 2303, 2304, 2305, 2306, 2307, 2308, 2309, 2310, 
2311, 2312, 2313, 2314, 2315, 2316, 2317, 2318, 2319, 2320, 
2321, 2322, 2323, 2324, 2325, 2326, 2327, 2328, 2329, 2330, 
2331, 2332, 2333, 2334, 2335, 2336, 2337, 2338, 2339, 2340, 
2341, 2342, 2343, 2344, 2345, 2346, 2347, 2348, 2349, 2350, 
2351, 2352, 2353, 2354, 2355, 2356, 2357, 2358, 2359, 2360, 
2361, 2362, 2363, 2364, 2365, 2366, 2367, 2368, 2369, 2370, 
2371, 2372, 2373, 2374, 2375, 2376, 2377, 2378, 2379, 2380, 
2381, 2382, 2383, 2384, 2385, 2386, 2387, 2388, 2389, 2390, 
2391, 2392, 2393, 2394, 2395, 2396, 2397, 2398, 2399, 2400, 
2401, 2402, 2403, 2404, 2405, 2406, 2407, 2408, 2409, 2410, 
2411, 2412, 2413, 2414, 2415, 2416, 2417, 2418, 2419, 2420, 
2421, 2422, 2423, 2424, 2425, 2426, 2427, 2428, 2429, 2430, 
2431, 2432, 2433, 2434, 2435, 2436, 2437, 2438, 2439, 2440, 
2441, 2442, 2443, 2444, 2445, 2446, 2447, 2448, 2449, 2450, 
2451, 2452, 2453, 2454, 2455, 2456, 2457, 2458, 2459, 2460, 
2461, 2462, 2463, 2464, 2465, 2466, 2467, 2468, 2469, 2470, 
2471, 2472, 2473, 2474, 2475, 2476, 2477, 2478, 2479, 2480, 
2481, 2482, 2483, 2484, 2485, 2486, 2487, 2488, 2489, 2490, 
2491, 2492, 2493, 2494, 2495, 2496, 2497, 2498, 2499, 2500, 
2501, 2502, 2503, 2504, 2505, 2506, 2507, 2508, 2509, 2510, 
2511, 2512, 2513, 2514, 2515, 2516, 2517, 2518, 2519, 2520, 
2521, 2522, 2523, 2524, 2525, 2526, 2527, 2528, 2529, 2530, 
2531, 2532, 2533, 2534, 2535, 2536, 2537, 2538, 2539, 2540, 
2541, 2542, 2543, 2544, 2545, 2546, 2547, 2548, 2549, 2550, 
2551, 2552, 2553, 2554, 2555, 2556, 2557, 2558, 2559, 2560, 
2561, 2562, 2563, 2564, 2565, 2566, 2567, 2568, 2569, 2570, 
2571, 2572, 2573, 2574, 2575, 2576, 2577, 2578, 2579, 2580, 
2581, 2582, 2583, 2584, 2585, 2586, 2587, 2588, 2589, 2590, 
2591, 2592, 2593, 2594, 2595, 2596, 2597, 2598, 2599, 2600, 
2601, 2602, 2603, 2604, 2605, 2606, 2607, 2608, 2609, 2610, 
2611, 2612, 2613, 2614, 2615, 2616, 2617, 2618, 2619, 2620, 
2621, 2622, 2623, 2624, 2625, 2626, 2627, 2628, 2629, 2630, 
2631, 2632, 2633, 2634, 2635, 2636, 2637, 2638, 2639, 2640, 
2641, 2642, 2643, 2644, 2645, 2646, 2647, 2648, 2649, 2650, 
2651, 2652, 2653, 2654, 2655, 2656, 2657, 2658, 2659, 2660, 
2661, 2662, 2663, 2664, 2665, 2666, 2667, 2668, 2669, 2670, 
2671, 2672, 2673, 2674, 2675, 2676, 2677, 2678, 2679, 2680, 
2681, 2682, 2683, 2684, 2685, 2686, 2687, 2688, 2689, 2690, 
2691, 2692, 2693, 2694, 2695, 2696, 2697, 2698, 2699, 2700, 
2701, 2702, 2703, 2704, 2705, 2706, 2707, 2708, 2709, 2710, 
2711, 2712, 2713, 2714, 2715, 2716, 2717, 2718, 2719, 2720, 
2721, 2722, 2723, 2724, 2725, 2726, 2727, 2728, 2729, 2730, 
2731, 2732, 2733, 2734, 2735, 2736, 2737, 2738, 2739, 2740, 
2741, 2742, 2743, 2744, 2745, 2746, 2747, 2748, 2749, 2750, 
2751, 2752, 2753, 2754, 2755, 2756, 2757, 2758, 2759, 2760, 
2761, 2762, 2763, 2764, 2765, 2766, 2767, 2768, 2769, 2770, 
2771, 2772, 2773, 2774, 2775, 2776, 2777, 2778, 2779, 2780, 
2781, 2782, 2783, 2784, 2785, 2786, 2787, 2788, 2789, 2790, 
2791, 2792, 2793, 2794, 2795, 2796, 2797, 2798, 2799, 2800, 
2801, 2802, 2803, 2804, 2805, 2806, 2807, 2808, 2809, 2810, 
2811, 2812, 2813, 2814, 2815, 2816, 2817, 2818, 2819, 2820, 
2821, 2822, 2823, 2824, 2825, 2826, 2827, 2828, 2829, 2830, 
2831, 2832, 2833, 2834, 2835, 2836, 2837, 2838, 2839, 2840, 
2841, 2842, 2843, 2844, 2845, 2846, 2847, 2848, 2849, 2850, 
2851, 2852, 2853, 2854, 2855, 2856, 2857, 2858, 2859, 2860, 
2861, 2862, 2863, 2864, 2865, 2866, 2867, 2868, 2869, 2870, 
2871, 2872, 2873, 2874, 2875, 2876, 2877, 2878, 2879, 2880, 
2881, 2882, 2883, 2884, 2885, 2886, 2887, 2888, 2889, 2890, 
2891, 2892, 2893, 2894, 2895, 2896, 2897, 2898, 2899, 2900, 
2901, 2902, 2903, 2904, 2905, 2906, 2907, 2908, 2909, 2910, 
2911, 2912, 2913, 2914, 2915, 2916, 2917, 2918, 2919, 2920, 
2921, 2922, 2923, 2924, 2925, 2926, 2927, 2928, 2929, 2930, 
2931, 2932, 2933, 2934, 2935, 2936, 2937, 2938, 2939, 2940, 
2941, 2942, 2943, 2944, 2945, 2946, 2947, 2948, 2949, 2950, 
2951, 2952, 2953, 2954, 2955, 2956, 2957, 2958, 2959, 2960, 
2961, 2962, 2963, 2964, 2965, 2966, 2967, 2968, 2969, 2970, 
2971, 2972, 2973, 2974, 2975, 2976, 2977, 2978, 2979, 2980, 
2981, 2982, 2983, 2984, 2985, 2986, 2987, 2988, 2989, 2990, 
2991, 2992, 2993, 2994, 2995, 2996, 2997, 2998, 2999, 3000, 
3001, 3002, 3003, 3004, 3005, 3006, 3007, 3008, 3009, 3010, 
3011, 3012, 3013, 3014, 3015, 3016, 3017, 3018, 3019, 3020, 
3021, 3022, 3023, 3024, 3025, 3026, 3027, 3028, 3029, 3030, 
3031, 3032, 3033, 3034, 3035, 3036, 3037, 3038, 3039, 3040, 
3041, 3042, 3043, 3044, 3045, 3046, 3047, 3048, 3049, 3050, 
3051, 3052, 3053, 3054, 3055, 3056, 3057, 3058, 3059, 3060, 
3061, 3062, 3063, 3064, 3065, 3066, 3067, 3068, 3069, 3070, 
3071, 3072, 3073, 3074, 3075, 3076, 3077, 3078, 3079, 3080, 
3081, 3082, 3083, 3084, 3085, 3086, 3087, 3088, 3089, 3090, 
3091, 3092, 3093, 3094, 3095, 3096, 3097, 3098, 3099, 3100, 
3101, 3102, 3103, 3104, 3105, 3106, 3107, 3108, 3109, 3110, 
3111, 3112, 3113, 3114, 3115, 3116, 3117, 3118, 3119, 3120, 
3121, 3122, 3123, 3124, 3125, 3126, 3127, 3128, 3129, 3130, 
3131, 3132, 3133, 3134, 3135, 3136, 3137, 3138, 3139, 3140, 
3141, 3142, 3143, 3144, 3145, 3146, 3147, 3148, 3149, 3150, 
3151, 3152, 3153, 3154, 3155, 3156, 3157, 3158, 3159, 3160, 
3161, 3162, 3163, 3164, 3165, 3166, 3167, 3168, 3169, 3170, 
3171, 3172, 3173, 3174, 3175, 3176, 3177, 3178, 3179, 3180, 
3181, 3182, 3183, 3184, 3185, 3186, 3187, 3188, 3189, 3190, 
3191, 3192, 3193, 3194, 3195, 3196, 3197, 3198, 3199, 3200, 
3201, 3202, 3203, 3204, 3205, 3206, 3207, 3208, 3209, 3210, 
3211, 3212, 3213, 3214, 3215, 3216, 3217, 3218, 3219, 3220, 
3221, 3222, 3223, 3224, 3225, 3226, 3227, 3228, 3229, 3230, 
3231, 3232, 3233, 3234, 3235, 3236, 3237, 3238, 3239, 3240, 
3241, 3242, 3243, 3244, 3245, 3246, 3247, 3248, 3249, 3250, 
3251, 3252, 3253, 3254, 3255, 3256, 3257, 3258, 3259, 3260, 
3261, 3262, 3263, 3264, 3265, 3266, 3267, 3268, 3269, 3270, 
3271, 3272, 3273, 3274, 3275, 3276, 3277, 3278, 3279, 3280, 
3281, 3282, 3283, 3284, 3285, 3286, 3287, 3288, 3289, 3290, 
3291, 3292, 3293, 3294, 3295, 3296, 3297, 3298, 3299, 3300, 
3301, 3302, 3303, 3304, 3305, 3306, 3307, 3308, 3309, 3310, 
3311, 3312, 3313, 3314, 3315, 3316, 3317, 3318, 3319, 3320, 
3321, 3322, 3323, 3324, 3325, 3326, 3327, 3328, 3329, 3330, 
3331, 3332, 3333, 3334, 3335, 3336, 3337, 3338, 3339, 3340, 
3341, 3342, 3343, 3344, 3345, 3346, 3347, 3348, 3349, 3350, 
3351, 3352, 3353, 3354, 3355, 3356, 3357, 3358, 3359, 3360, 
3361, 3362, 3363, 3364, 3365, 3366, 3367, 3368, 3369, 3370, 
3371, 3372, 3373, 3374, 3375, 3376, 3377, 3378, 3379, 3380, 
3381, 3382, 3383, 3384, 3385, 3386, 3387, 3388, 3389, 3390, 
3391, 3392, 3393, 3394, 3395, 3396, 3397, 3398, 3399, 3400, 
3401, 3402, 3403, 3404, 3405, 3406, 3407, 3408, 3409, 3410, 
3411, 3412, 3413, 3414, 3415, 3416, 3417, 3418, 3419, 3420, 
3421, 3422, 3423, 3424, 3425, 3426, 3427, 3428, 3429, 3430, 
3431, 3432, 3433, 3434, 3435, 3436, 3437, 3438, 3439, 3440, 
3441, 3442, 3443, 3444, 3445, 3446, 3447, 3448, 3449, 3450, 
3451, 3452, 3453, 3454, 3455, 3456, 3457, 3458, 3459, 3460, 
3461, 3462, 3463, 3464, 3465, 3466, 3467, 3468, 3469, 3470, 
3471, 3472, 3473, 3474, 3475, 3476, 3477, 3478, 3479, 3480, 
3481, 3482, 3483, 3484, 3485, 3486, 3487, 3488, 3489, 3490, 
3491, 3492, 3493, 3494, 3495, 3496, 3497, 3498, 3499, 3500, 
3501, 3502, 3503, 3504, 3505, 3506, 3507, 3508, 3509, 3510, 
3511, 3512, 3513, 3514, 3515, 3516, 3517, 3518, 3519, 3520, 
3521, 3522, 3523, 3524, 3525, 3526, 3527, 3528, 3529, 3530, 
3531, 3532, 3533, 3534, 3535, 3536, 3537, 3538, 3539, 3540, 
3541, 3542, 3543, 3544, 3545, 3546, 3547, 3548, 3549, 3550, 
3551, 3552, 3553, 3554, 3555, 3556, 3557, 3558, 3559, 3560, 
3561, 3562, 3563, 3564, 3565, 3566, 3567, 3568, 3569, 3570, 
3571, 3572, 3573, 3574, 3575, 3576, 3577, 3578, 3579, 3580, 
3581, 3582, 3583, 3584, 3585, 3586, 3587, 3588, 3589, 3590, 
3591, 3592, 3593, 3594, 3595, 3596, 3597, 3598, 3599, 3600, 
3601, 3602, 3603, 3604, 3605, 3606, 3607, 3608, 3609, 3610, 
3611, 3612, 3613, 3614, 3615, 3616, 3617, 3618, 3619, 3620, 
3621, 3622, 3623, 3624, 3625, 3626, 
*NSET,NSET=contact_source
1, 8, 141, 142, 143, 144, 145, 146, 147, 148, 
149, 150, 151, 152, 153, 154, 155, 156, 157, 158, 
159, 160, 161, 
*NSET,NSET=contact_drain
4, 5, 53, 54, 55, 56, 57, 58, 59, 60, 
61, 62, 63, 64, 65, 66, 67, 68, 69, 70, 
71, 72, 73, 
*NSET,NSET=probe_A
6, 7, 97, 98, 99, 100, 101, 102, 103, 104, 
105, 106, 107, 108, 109, 110, 111, 112, 113, 114, 
115, 116, 117, 
*NSET,NSET=probe_B
2, 3, 27, 28, 29, 30, 31, 32, 33, 34, 
35, 
*NSET,NSET=walls
1, 2, 3, 4, 5, 6, 7, 8, 9, 10, 
11, 12, 13, 14, 15, 16, 17, 18, 19, 20, 
21, 22, 23, 24, 25, 26, 36, 37, 38, 39, 
40, 41, 42, 43, 44, 45, 46, 47, 48, 49, 
50, 51, 52, 74, 75, 76, 77, 78, 79, 80, 
81, 82, 83, 84, 85, 86, 87, 88, 89, 90, 
91, 92, 93, 94, 95, 96, 118, 119, 120, 121, 
122, 123, 124, 125, 126, 127, 128, 129, 130, 131, 
132, 133, 134, 135, 136, 137, 138, 139, 140, 162, 
163, 164, 165, 166, 167, 168, 169, 170, 171, 172, 
173, 174, 175, 176, 177, 178, 179, 180, 181, 182, 
183, 184, 185, 186, 187, 188, 189, 190, 191, 192, 
193, 194, 195, 196, 197, 198, 199, 200, 201, 202, 
203, 204, 205, 206, 207, 208, 209, 210, 211, 212, 
213, 214, 215, 216, 217, 218, 219, 220, 221, 222, 
223, 224, 225, 226, 227, 228, 229, 230, 231, 232, 
233, 234, 235, 236, 237, 238, 239, 240, 241, 242, 
243, 244, 245, 246, 247, 248, 249, 250, 251, 252, 
253, 254, 255, 256, 257, 258, 259, 260, 261, 262, 
263, 264, 265, 266, 267, 268, 269, 270, 271, 272, 
273, 274, 275, 276, 277, 278, 279, 280, 281, 282, 
283, 284, 285, 286, 287, 288, 289, 290, 291, 292, 
293, 294, 295, 296, 297, 298, 299, 300, 301, 302, 
303, 304, 305, 306, 307, 308, 309, 310, 311, 312, 
313, 314, 315, 316, 317, 318, 319, 320, 321, 322, 
323, 324, 325, 326, 327, 328, 329, 330, 331, 332, 
333, 334, 335, 336, 337, 338, 339, 340, 341, 342, 
343, 344, 345, 346, 347, 348, 349, 350, 351, 352, 
353, 354, 355, 356, 357, 358, 359, 360, 361, 362, 
363, 364, 365, 366, 367, 368, 369, 370, 371, 372, 
373, 374, 375, 376, 377, 378, 379, 380, 381, 382, 
383, 384, 385, 386, 387, 388, 389, 390, 391, 392, 
393, 394, 395, 396, 397, 398, 399, 400, 401, 402, 
403, 404, 405, 406, 407, 408, 409, 410, 411, 412, 
413, 414, 415, 416, 417, 418, 419, 420, 421, 422, 
423, 424, 425, 426, 427, 428, 429, 430, 431, 432, 
433, 434, 435, 436, 437, 438, 439, 440, 441, 442, 
443, 444, 445, 446, 447, 448, 449, 450, 451, 452, 
453, 454, 455, 456, 457, 458, 459, 460, 461, 462, 
463, 464, 465, 466, 467, 468, 469, 470, 471, 472, 
473, 474, 475, 476, 477, 478, 479, 480, 481, 482, 
483, 484, 485, 486, 487, 488, 489, 490, 491, 492, 
493, 494, 495, 496, 497, 498, 499, 500, 501, 502, 
503, 504, 505, 506, 507, 508, 509, 510, 511, 512, 
513, 514, 515, 516, 517, 518, 519, 520, 521, 522, 
523, 524, 525, 526, 527, 528, 529, 530, 531, 532, 
533, 534, 535, 536, 537, 538, 539, 540, 541, 542, 
543, 544, 545, 546, 547, 548, 549, 550, 
*NSET,NSET=domain
1, 2, 3, 4, 5, 6, 7, 8, 9, 10, 
11, 12, 13, 14, 15, 16, 17, 18, 19, 20, 
21, 22, 23, 24, 25, 26, 27, 28, 29, 30, 
31, 32, 33, 34, 35, 36, 37, 38, 39, 40, 
41, 42, 43, 44, 45, 46, 47, 48, 49, 50, 
51, 52, 53, 54, 55, 56, 57, 58, 59, 60, 
61, 62, 63, 64, 65, 66, 67, 68, 69, 70, 
71, 72, 73, 74, 75, 76, 77, 78, 79, 80, 
81, 82, 83, 84, 85, 86, 87, 88, 89, 90, 
91, 92, 93, 94, 95, 96, 97, 98, 99, 100, 
101, 102, 103, 104, 105, 106, 107, 108, 109, 110, 
111, 112, 113, 114, 115, 116, 117, 118, 119, 120, 
121, 122, 123, 124, 125, 126, 127, 128, 129, 130, 
131, 132, 133, 134, 135, 136, 137, 138, 139, 140, 
141, 142, 143, 144, 145, 146, 147, 148, 149, 150, 
151, 152, 153, 154, 155, 156, 157, 158, 159, 160, 
161, 162, 163, 164, 165, 166, 167, 168, 169, 170, 
171, 172, 173, 174, 175, 176, 177, 178, 179, 180, 
181, 182, 183, 184, 185, 186, 187, 188, 189, 190, 
191, 192, 193, 194, 195, 196, 197, 198, 199, 200, 
201, 202, 203, 204, 205, 206, 207, 208, 209, 210, 
211, 212, 213, 214, 215, 216, 217, 218, 219, 220, 
221, 222, 223, 224, 225, 226, 227, 228, 229, 230, 
231, 232, 233, 234, 235, 236, 237, 238, 239, 240, 
241, 242, 243, 244, 245, 246, 247, 248, 249, 250, 
251, 252, 253, 254, 255, 256, 257, 258, 259, 260, 
261, 262, 263, 264, 265, 266, 267, 268, 269, 270, 
271, 272, 273, 274, 275, 276, 277, 278, 279, 280, 
281, 282, 283, 284, 285, 286, 287, 288, 289, 290, 
291, 292, 293, 294, 295, 296, 297, 298, 299, 300, 
301, 302, 303, 304, 305, 306, 307, 308, 309, 310, 
311, 312, 313, 314, 315, 316, 317, 318, 319, 320, 
321, 322, 323, 324, 325, 326, 327, 328, 329, 330, 
331, 332, 333, 334, 335, 336, 337, 338, 339, 340, 
341, 342, 343, 344, 345, 346, 347, 348, 349, 350, 
351, 352, 353, 354, 355, 356, 357, 358, 359, 360, 
361, 362, 363, 364, 365, 366, 367, 368, 369, 370, 
371, 372, 373, 374, 375, 376, 377, 378, 379, 380, 
381, 382, 383, 384, 385, 386, 387, 388, 389, 390, 
391, 392, 393, 394, 395, 396, 397, 398, 399, 400, 
401, 402, 403, 404, 405, 406, 407, 408, 409, 410, 
411, 412, 413, 414, 415, 416, 417, 418, 419, 420, 
421, 422, 423, 424, 425, 426, 427, 428, 429, 430, 
431, 432, 433, 434, 435, 436, 437, 438, 439, 440, 
441, 442, 443, 444, 445, 446, 447, 448, 449, 450, 
451, 452, 453, 454, 455, 456, 457, 458, 459, 460, 
461, 462, 463, 464, 465, 466, 467, 468, 469, 470, 
471, 472, 473, 474, 475, 476, 477, 478, 479, 480, 
481, 482, 483, 484, 485, 486, 487, 488, 489, 490, 
491, 492, 493, 494, 495, 496, 497, 498, 499, 500, 
501, 502, 503, 504, 505, 506, 507, 508, 509, 510, 
511, 512, 513, 514, 515, 516, 517, 518, 519, 520, 
521, 522, 523, 524, 525, 526, 527, 528, 529, 530, 
531, 532, 533, 534, 535, 536, 537, 538, 539, 540, 
541, 542, 543, 544, 545, 546, 547, 548, 549, 550, 
551, 552, 553, 554, 555, 556, 557, 558, 559, 560, 
561, 562, 563, 564, 565, 566, 567, 568, 569, 570, 
571, 572, 573, 574, 575, 576, 577, 578, 579, 580, 
581, 582, 583, 584, 585, 586, 587, 588, 589, 590, 
591, 592, 593, 594, 595, 596, 597, 598, 599, 600, 
601, 602, 603, 604, 605, 606, 607, 608, 609, 610, 
611, 612, 613, 614, 615, 616, 617, 618, 619, 620, 
621, 622, 623, 624, 625, 626, 627, 628, 629, 630, 
631, 632, 633, 634, 635, 636, 637, 638, 639, 640, 
641, 642, 643, 644, 645, 646, 647, 648, 649, 650, 
651, 652, 653, 654, 655, 656, 657, 658, 659, 660, 
661, 662, 663, 664, 665, 666, 667, 668, 669, 670, 
671, 672, 673, 674, 675, 676, 677, 678, 679, 680, 
681, 682, 683, 684, 685, 686, 687, 688, 689, 690, 
691, 692, 693, 694, 695, 696, 697, 698, 699, 700, 
701, 702, 703, 704, 705, 706, 707, 708, 709, 710, 
711, 712, 713, 714, 715, 716, 717, 718, 719, 720, 
721, 722, 723, 724, 725, 726, 727, 728, 729, 730, 
731, 732, 733, 734, 735, 736, 737, 738, 739, 740, 
741, 742, 743, 744, 745, 746, 747, 748, 749, 750, 
751, 752, 753, 754, 755, 756, 757, 758, 759, 760, 
761, 762, 763, 764, 765, 766, 767, 768, 769, 770, 
771, 772, 773, 774, 775, 776, 777, 778, 779, 780, 
781, 782, 783, 784, 785, 786, 787, 788, 789, 790, 
791, 792, 793, 794, 795, 796, 797, 798, 799, 800, 
801, 802, 803, 804, 805, 806, 807, 808, 809, 810, 
811, 812, 813, 814, 815, 816, 817, 818, 819, 820, 
821, 822, 823, 824, 825, 826, 827, 828, 829, 830, 
831, 832, 833, 834, 835, 836, 837, 838, 839, 840, 
841, 842, 843, 844, 845, 846, 847, 848, 849, 850, 
851, 852, 853, 854, 855, 856, 857, 858, 859, 860, 
861, 862, 863, 864, 865, 866, 867, 868, 869, 870, 
871, 872, 873, 874, 875, 876, 877, 878, 879, 880, 
881, 882, 883, 884, 885, 886, 887, 888, 889, 890, 
891, 892, 893, 894, 895, 896, 897, 898, 899, 900, 
901, 902, 903, 904, 905, 906, 907, 908, 909, 910, 
911, 912, 913, 914, 915, 916, 917, 918, 919, 920, 
921, 922, 923, 924, 925, 926, 927, 928, 929, 930, 
931, 932, 933, 934, 935, 936, 937, 938, 939, 940, 
941, 942, 943, 944, 945, 946, 947, 948, 949, 950, 
951, 952, 953, 954, 955, 956, 957, 958, 959, 960, 
961, 962, 963, 964, 965, 966, 967, 968, 969, 970, 
971, 972, 973, 974, 975, 976, 977, 978, 979, 980, 
981, 982, 983, 984, 985, 986, 987, 988, 989, 990, 
991, 992, 993, 994, 995, 996, 997, 998, 999, 1000, 
1001, 1002, 1003, 1004, 1005, 1006, 1007, 1008, 1009, 1010, 
1011, 1012, 1013, 1014, 1015, 1016, 1017, 1018, 1019, 1020, 
1021, 1022, 1023, 1024, 1025, 1026, 1027, 1028, 1029, 1030, 
1031, 1032, 1033, 1034, 1035, 1036, 1037, 1038, 1039, 1040, 
1041, 1042, 1043, 1044, 1045, 1046, 1047, 1048, 1049, 1050, 
1051, 1052, 1053, 1054, 1055, 1056, 1057, 1058, 1059, 1060, 
1061, 1062, 1063, 1064, 1065, 1066, 1067, 1068, 1069, 1070, 
1071, 1072, 1073, 1074, 1075, 1076, 1077, 1078, 1079, 1080, 
1081, 1082, 1083, 1084, 1085, 1086, 1087, 1088, 1089, 1090, 
1091, 1092, 1093, 1094, 1095, 1096, 1097, 1098, 1099, 1100, 
1101, 1102, 1103, 1104, 1105, 1106, 1107, 1108, 1109, 1110, 
1111, 1112, 1113, 1114, 1115, 1116, 1117, 1118, 1119, 1120, 
1121, 1122, 1123, 1124, 1125, 1126, 1127, 1128, 1129, 1130, 
1131, 1132, 1133, 1134, 1135, 1136, 1137, 1138, 1139, 1140, 
1141, 1142, 1143, 1144, 1145, 1146, 1147, 1148, 1149, 1150, 
1151, 1152, 1153, 1154, 1155, 1156, 1157, 1158, 1159, 1160, 
1161, 1162, 1163, 1164, 1165, 1166, 1167, 1168, 1169, 1170, 
1171, 1172, 1173, 1174, 1175, 1176, 1177, 1178, 1179, 1180, 
1181, 1182, 1183, 1184, 1185, 1186, 1187, 1188, 1189, 1190, 
1191, 1192, 1193, 1194, 1195, 1196, 1197, 1198, 1199, 1200, 
1201, 1202, 1203, 1204, 1205, 1206, 1207, 1208, 1209, 1210, 
1211, 1212, 1213, 1214, 1215, 1216, 1217, 1218, 1219, 1220, 
1221, 1222, 1223, 1224, 1225, 1226, 1227, 1228, 1229, 1230, 
1231, 1232, 1233, 1234, 1235, 1236, 1237, 1238, 1239, 1240, 
1241, 1242, 1243, 1244, 1245, 1246, 1247, 1248, 1249, 1250, 
1251, 1252, 1253, 1254, 1255, 1256, 1257, 1258, 1259, 1260, 
1261, 1262, 1263, 1264, 1265, 1266, 1267, 1268, 1269, 1270, 
1271, 1272, 1273, 1274, 1275, 1276, 1277, 1278, 1279, 1280, 
1281, 1282, 1283, 1284, 1285, 1286, 1287, 1288, 1289, 1290, 
1291, 1292, 1293, 1294, 1295, 1296, 1297, 1298, 1299, 1300, 
1301, 1302, 1303, 1304, 1305, 1306, 1307, 1308, 1309, 1310, 
1311, 1312, 1313, 1314, 1315, 1316, 1317, 1318, 1319, 1320, 
1321, 1322, 1323, 1324, 1325, 1326, 1327, 1328, 1329, 1330, 
1331, 1332, 1333, 1334, 1335, 1336, 1337, 1338, 1339, 1340, 
1341, 1342, 1343, 1344, 1345, 1346, 1347, 1348, 1349, 1350, 
1351, 1352, 1353, 1354, 1355, 1356, 1357, 1358, 1359, 1360, 
1361, 1362, 1363, 1364, 1365, 1366, 1367, 1368, 1369, 1370, 
1371, 1372, 1373, 1374, 1375, 1376, 1377, 1378, 1379, 1380, 
1381, 1382, 1383, 1384, 1385, 1386, 1387, 1388, 1389, 1390, 
1391, 1392, 1393, 1394, 1395, 1396, 1397, 1398, 1399, 1400, 
1401, 1402, 1403, 1404, 1405, 1406, 1407, 1408, 1409, 1410, 
1411, 1412, 1413, 1414, 1415, 1416, 1417, 1418, 1419, 1420, 
1421, 1422, 1423, 1424, 1425, 1426, 1427, 1428, 1429, 1430, 
1431, 1432, 1433, 1434, 1435, 1436, 1437, 1438, 1439, 1440, 
1441, 1442, 1443, 1444, 1445, 1446, 1447, 1448, 1449, 1450, 
1451, 1452, 1453, 1454, 1455, 1456, 1457, 1458, 1459, 1460, 
1461, 1462, 1463, 1464, 1465, 1466, 1467, 1468, 1469, 1470, 
1471, 1472, 1473, 1474, 1475, 1476, 1477, 1478, 1479, 1480, 
1481, 1482, 1483, 1484, 1485, 1486, 1487, 1488, 1489, 1490, 
1491, 1492, 1493, 1494, 1495, 1496, 1497, 1498, 1499, 1500, 
1501, 1502, 1503, 1504, 1505, 1506, 1507, 1508, 1509, 1510, 
1511, 1512, 1513, 1514, 1515, 1516, 1517, 1518, 1519, 1520, 
1521, 1522, 1523, 1524, 1525, 1526, 1527, 1528, 1529, 1530, 
1531, 1532, 1533, 1534, 1535, 1536, 1537, 1538, 1539, 1540, 
1541, 1542, 1543, 1544, 1545, 1546, 1547, 1548, 1549, 1550, 
1551, 1552, 1553, 1554, 1555, 1556, 1557, 1558, 1559, 1560, 
1561, 1562, 1563, 1564, 1565, 1566, 1567, 1568, 1569, 1570, 
1571, 1572, 1573, 1574, 1575, 1576, 1577, 1578, 1579, 1580, 
1581, 1582, 1583, 1584, 1585, 1586, 1587, 1588, 1589, 1590, 
1591, 1592, 1593, 1594, 1595, 1596, 1597, 1598, 1599, 1600, 
1601, 1602, 1603, 1604, 1605, 1606, 1607, 1608, 1609, 1610, 
1611, 1612, 1613, 1614, 1615, 1616, 1617, 1618, 1619, 1620, 
1621, 1622, 1623, 1624, 1625, 1626, 1627, 1628, 1629, 1630, 
1631, 1632, 1633, 1634, 1635, 1636, 1637, 1638, 1639, 1640, 
1641, 1642, 1643, 1644, 1645, 1646, 1647, 1648, 1649, 1650, 
1651, 1652, 1653, 1654, 1655, 1656, 1657, 1658, 1659, 1660, 
1661, 1662, 1663, 1664, 1665, 1666, 1667, 1668, 1669, 1670, 
1671, 1672, 1673, 1674, 1675, 1676, 1677, 1678, 1679, 1680, 
1681, 1682, 1683, 1684, 1685, 1686, 1687, 1688, 1689, 1690, 
1691, 1692, 1693, 1694, 1695, 1696, 1697, 1698, 1699, 1700, 
1701, 1702, 1703, 1704, 1705, 1706, 1707, 1708, 1709, 1710, 
1711, 1712, 1713, 1714, 1715, 1716, 1717, 1718, 1719, 1720, 
1721, 1722, 1723, 1724, 1725, 1726, 1727, 1728, 1729, 1730, 
1731, 1732, 1733, 1734, 1735, 1736, 1737, 1738, 1739, 1740, 
1741, 1742, 1743, 1744, 1745, 1746, 1747, 1748, 1749, 1750, 
1751, 1752, 1753, 1754, 1755, 1756, 1757, 1758, 1759, 1760, 
1761, 1762, 1763, 1764, 1765, 1766, 1767, 1768, 1769, 1770, 
1771, 1772, 1773, 1774, 1775, 1776, 1777, 1778, 1779, 1780, 
1781, 1782, 1783, 1784, 1785, 1786, 1787, 1788, 1789, 1790, 
1791, 1792, 1793, 1794, 1795, 1796, 1797, 1798, 1799, 1800, 
1801, 1802, 1803, 1804, 1805, 1806, 1807, 1808, 1809, 1810, 
1811, 1812, 1813, 1814, 1815, 1816, 1817, 1818, 1819, 1820, 
1821, 1822, 1823, 1824, 1825, 1826, 1827, 1828, 1829, 1830, 
1831, 1832, 1833, 1834, 1835, 1836, 1837, 1838, 1839, 1840, 
1841, 1842, 1843, 1844, 1845, 1846, 1847, 1848, 1849, 1850, 
1851, 1852, 1853, 1854, 1855, 1856, 1857, 1858, 1859, 1860, 
1861, 1862, 1863, 1864, 1865, 1866, 1867, 1868, 1869, 1870, 
1871, 1872, 1873, 1874, 1875, 1876, 1877, 1878, 1879, 1880, 
1881, 1882, 1883, 1884, 1885, 1886, 1887, 1888, 1889, 1890, 
1891, 1892, 1893, 1894, 1895, 1896, 1897, 1898, 1899, 1900, 
1901, 1902, 1903, 1904, 1905, 1906, 1907, 1908, 1909, 1910, 
1911, 1912, 1913, 1914, 1915, 1916, 1917, 1918, 1919, 1920, 
1921, 1922, 1923, 1924, 1925, 1926, 1927, 1928, 1929, 1930, 
1931, 1932, 1933, 1934, 1935, 1936, 1937, 1938, 1939, 1940, 
1941, 1942, 1943, 1944, 1945, 1946, 1947, 1948, 1949, 1950, 
1951, 1952, 1953, 1954, 1955, 1956, 1957, 1958, 1959, 1960, 
1961, 1962, 1963, 1964, 1965, 1966, 1967, 1968, 1969, 1970, 
1971, 1972, 1973, 1974, 1975, 1976, 1977, 1978, 1979, 1980, 
1981, 1982, 1983, 1984, 1985, 1986, 1987, 1988, 1989, 1990, 
1991, 1992, 1993, 1994, 1995, 1996, 1997, 1998, 1999, 2000, 
2001, 2002, 2003, 2004, 2005, 2006, 2007, 2008, 2009, 2010, 
2011, 2012, 2013, 2014, 2015, 2016, 2017, 2018, 2019, 2020, 
2021, 2022, 2023, 2024, 2025, 2026, 2027, 2028, 2029, 2030, 
2031, 2032, 2033, 2034, 2035, 2036, 2037, 2038, 2039, 2040, 
2041, 2042, 2043, 2044, 2045, 2046, 2047, 2048, 2049, 2050, 
2051, 2052, 2053, 2054, 2055, 2056, 2057, 2058, 2059, 2060, 
2061, 2062, 2063, 2064, 2065, 2066, 2067, 2068, 2069, 2070, 
2071, 2072, 2073, 2074, 2075, 2076, 2077, 2078, 2079, 2080, 
2081, 2082, 2083, 2084, 2085, 2086, 2087, 2088, 2089, 2090, 
2091, 2092, 2093, 2094, 2095, 2096, 2097, 2098, 2099, 2100, 
2101, 2102, 2103, 2104, 2105, 2106, 2107, 2108, 2109, 2110, 
2111, 2112, 2113, 2114, 2115, 2116, 2117, 2118, 2119, 2120, 
2121, 2122, 2123, 2124, 2125, 2126, 2127, 2128, 2129, 2130, 
2131, 2132, 2133, 2134, 2135, 2136, 2137, 2138, 2139, 2140, 
2141, 2142, 2143, 2144, 2145, 2146, 2147, 2148, 2149, 2150, 
2151, 2152, 2153, 2154, 2155, 2156, 2157, 2158, 2159, 2160, 
2161, 2162, 2163, 2164, 2165, 2166, 2167, 2168, 2169, 2170, 
2171, 2172, 2173, 2174, 2175, 2176, 2177, 2178, 2179, 2180, 
2181, 2182, 2183, 2184, 2185, 2186, 2187, 2188, 2189, 2190, 
2191, 2192, 2193, 2194, 2195, 2196, 2197, 2198, 2199, 2200, 
2201, 2202, 2203, 2204, 2205, 2206, 2207, 2208, 2209, 2210, 
2211, 2212, 2213, 2214, 2215, 2216, 2217, 2218, 2219, 2220, 
2221, 2222, 2223, 2224, 2225, 2226, 2227, 2228, 2229, 2230, 
2231, 2232, 2233, 2234, 2235, 2236, 2237, 2238, 2239, 2240, 
2241, 2242, 2243, 2244, 2245, 2246, 2247, 2248, 2249, 2250, 
2251, 2252, 2253, 2254, 2255, 2256, 2257, 2258, 2259, 2260, 
2261, 2262, 2263, 2264, 2265, 2266, 2267, 2268, 2269, 2270, 
2271, 2272, 2273, 2274, 2275, 2276, 2277, 2278, 2279, 2280, 
2281, 2282, 2283, 2284, 2285, 2286, 2287, 2288, 2289, 2290, 
2291, 2292, 2293, 2294, 2295, 2296, 2297, 2298, 2299, 2300, 
2301, 2302, 2303, 2304, 2305, 2306, 2307, 2308, 2309, 2310, 
2311, 2312, 2313, 2314, 2315, 2316, 2317, 2318, 2319, 2320, 
2321, 2322, 2323, 2324, 2325, 2326, 2327, 2328, 2329, 2330, 
2331, 2332, 2333, 2334, 2335, 2336, 2337, 2338, 2339, 2340, 
2341, 2342, 2343, 2344, 2345, 2346, 2347, 2348, 2349, 2350, 
2351, 2352, 2353, 2354, 2355, 2356, 2357, 2358, 2359, 2360, 
2361, 2362, 2363, 2364, 2365, 2366, 2367, 2368, 2369, 2370, 
2371, 2372, 2373, 2374, 2375, 2376, 2377, 2378, 2379, 2380, 
2381, 2382, 2383, 2384, 2385, 2386, 2387, 2388, 2389, 2390, 
2391, 2392, 2393, 2394, 2395, 2396, 2397, 2398, 2399, 2400, 
2401, 2402, 2403, 2404, 2405, 2406, 2407, 2408, 2409, 2410, 
2411, 2412, 2413, 2414, 2415, 2416, 2417, 2418, 2419, 2420, 
2421, 2422, 2423, 2424, 2425, 2426, 2427, 2428, 2429, 2430, 
2431, 2432, 2433, 2434, 2435, 2436, 2437, 2438, 2439, 2440, 
2441, 2442, 2443, 2444, 2445, 2446, 2447, 2448, 2449, 2450, 
2451, 2452, 2453, 2454, 2455, 2456, 2457, 2458, 2459, 2460, 
2461, 2462, 2463, 2464, 2465, 2466, 2467, 2468, 2469, 2470, 
2471, 2472, 2473, 2474, 2475, 2476, 2477, 2478, 2479, 2480, 
2481, 2482, 2483, 2484, 2485, 2486, 2487, 2488, 2489, 2490, 
2491, 2492, 2493, 2494, 2495, 2496, 2497, 2498, 2499, 2500, 
2501, 2502, 2503, 2504, 2505, 2506, 2507, 2508, 2509, 2510, 
2511, 2512, 2513, 2514, 2515, 2516, 2517, 2518, 2519, 2520, 
2521, 2522, 2523, 2524, 2525, 2526, 2527, 2528, 2529, 2530, 
2531, 2532, 2533, 2534, 2535, 2536, 2537, 2538, 2539, 2540, 
2541, 2542, 2543, 2544, 2545, 2546, 2547, 2548, 2549, 2550, 
2551, 2552, 2553, 2554, 2555, 2556, 2557, 2558, 2559, 2560, 
2561, 2562, 2563, 2564, 2565, 2566, 2567, 2568, 2569, 2570, 
2571, 2572, 2573, 2574, 2575, 2576, 2577, 2578, 2579, 2580, 
2581, 2582, 2583, 2584, 2585, 2586, 2587, 2588, 2589, 2590, 
2591, 2592, 2593, 2594, 2595, 2596, 2597, 2598, 2599, 2600, 
2601, 2602, 2603, 2604, 2605, 2606, 2607, 2608, 2609, 2610, 
2611, 2612, 2613, 2614, 2615, 2616, 2617, 2618, 2619, 2620, 
2621, 2622, 2623, 2624, 2625, 2626, 2627, 2628, 2629, 2630, 
2631, 2632, 2633, 2634, 2635, 2636, 2637, 2638, 2639, 2640, 
2641, 2642, 2643, 2644, 2645, 2646, 2647, 2648, 2649, 2650, 
2651, 2652, 2653, 2654, 2655, 2656, 2657, 2658, 2659, 2660, 
2661, 2662, 2663, 2664, 2665, 2666, 2667, 2668, 2669, 2670, 
2671, 2672, 2673, 2674, 2675, 2676, 2677, 2678, 2679, 2680, 
2681, 2682, 2683, 2684, 2685, 2686, 2687, 2688, 2689, 2690, 
2691, 2692, 2693, 2694, 2695, 2696, 2697, 2698, 2699, 2700, 
2701, 2702, 2703, 2704, 2705, 2706, 2707, 2708, 2709, 2710, 
2711, 2712, 2713, 2714, 2715, 2716, 2717, 2718, 2719, 2720, 
2721, 2722, 2723, 2724, 2725, 2726, 2727, 2728, 2729, 2730, 
2731, 2732, 2733, 2734, 2735, 2736, 2737, 2738, 2739, 2740, 
2741, 2742, 2743, 2744, 2745, 2746, 2747, 2748, 2749, 2750, 
2751, 2752, 2753, 2754, 2755, 2756, 2757, 2758, 2759, 2760, 
2761, 2762, 2763, 2764, 2765, 2766, 2767, 2768, 2769, 2770, 
2771, 2772, 2773, 2774, 2775, 2776, 2777, 2778, 2779, 2780, 
2781, 2782, 2783, 2784, 2785, 2786, 2787, 2788, 2789, 2790, 
2791, 2792, 2793, 2794, 2795, 2796, 2797, 2798, 2799, 2800, 
2801, 2802, 2803, 2804, 2805, 2806, 2807, 2808, 2809, 2810, 
2811, 2812, 2813, 2814, 2815, 2816, 2817, 2818, 2819, 2820, 
2821, 2822, 2823, 2824, 2825, 2826, 2827, 2828, 2829, 2830, 
2831, 2832, 2833, 2834, 2835, 2836, 2837, 2838, 2839, 2840, 
2841, 2842, 2843, 2844, 2845, 2846, 2847, 2848, 2849, 2850, 
2851, 2852, 2853, 2854, 2855, 2856, 2857, 2858, 2859, 2860, 
2861, 2862, 2863, 2864, 2865, 2866, 2867, 2868, 2869, 2870, 
2871, 2872, 2873, 2874, 2875, 2876, 2877, 2878, 2879, 2880, 
2881, 2882, 2883, 2884, 2885, 2886, 2887, 2888, 2889, 2890, 
2891, 2892, 2893, 2894, 2895, 2896, 2897, 2898, 2899, 2900, 
2901, 2902, 2903, 2904, 2905, 2906, 2907, 2908, 2909, 2910, 
2911, 2912, 2913, 2914, 2915, 2916, 2917, 2918, 2919, 2920, 
2921, 2922, 2923, 2924, 2925, 2926, 2927, 2928, 2929, 2930, 
2931, 2932, 2933, 2934, 2935, 2936, 2937, 2938, 2939, 2940, 
2941, 2942, 2943, 2944, 2945, 2946, 2947, 2948, 2949, 2950, 
2951, 2952, 2953, 2954, 2955, 2956, 2957, 2958, 2959, 2960, 
2961, 2962, 2963, 2964, 2965, 2966, 2967, 2968, 2969, 2970, 
2971, 2972, 2973, 2974, 2975, 2976, 2977, 2978, 2979, 2980, 
2981, 2982, 2983, 2984, 2985, 2986, 2987, 2988, 2989, 2990, 
2991, 2992, 2993, 2994, 2995, 2996, 2997, 2998, 2999, 3000, 
3001, 3002, 3003, 3004, 3005, 3006, 3007, 3008, 3009, 3010, 
3011, 3012, 3013, 3014, 3015, 3016, 3017, 3018, 3019, 3020, 
3021, 3022, 3023, 3024, 3025, 3026, 3027, 3028, 3029, 3030, 
3031, 3032, 3033, 3034, 3035, 3036, 3037, 3038, 3039, 3040, 
3041, 3042, 3043, 3044, 3045, 3046, 3047, 3048, 3049, 3050, 
3051, 3052, 3053, 3054, 3055, 3056, 3057, 3058, 3059, 3060, 
3061, 3062, 3063, 3064, 3065, 3066, 3067, 3068, 3069, 3070, 
3071, 3072, 3073, 3074, 3075, 3076, 3077, 3078, 3079, 3080, 
3081, 3082, 3083, 3084, 3085, 3086, 3087, 3088, 3089, 3090, 
3091, 3092, 3093, 3094, 3095, 3096, 3097, 3098, 3099, 3100, 
3101, 3102, 3103, 3104, 3105, 3106, 3107, 3108, 3109, 3110, 
3111, 3112, 3113, 3114, 3115, 3116, 3117, 3118, 3119, 3120, 
3121, 3122, 3123, 3124, 3125, 3126, 3127, 3128, 3129, 3130, 
3131, 3132, 3133, 3134, 3135, 3136, 3137, 3138, 3139, 3140, 
3141, 3142, 3143, 3144, 3145, 3146, 3147, 3148, 3149, 3150, 
3151, 3152, 3153, 3154, 3155, 3156, 3157, 3158, 3159, 3160, 
3161, 3162, 3163, 3164, 3165, 3166, 3167, 3168, 3169, 3170, 
3171, 3172, 3173, 3174, 3175, 3176, 3177, 3178, 3179, 3180, 
3181, 3182, 3183, 3184, 3185, 3186, 3187, 3188, 3189, 3190, 
3191, 3192, 3193, 3194, 3195, 3196, 3197, 3198, 3199, 3200, 
3201, 3202, 3203, 3204, 3205, 3206, 3207, 3208, 3209, 3210, 
3211, 3212, 3213, 3214, 3215, 3216, 3217, 3218, 3219, 3220, 
3221, 3222, 3223, 3224, 3225, 3226, 3227, 3228, 3229, 3230, 
3231, 3232, 3233, 3234, 3235, 3236, 3237, 3238, 3239, 3240, 
3241, 3242, 3243, 3244, 3245, 3246, 3247, 3248, 3249, 3250, 
3251, 3252, 3253, 3254, 3255, 3256, 3257, 3258, 3259, 3260, 
3261, 3262, 3263, 3264, 3265, 3266, 3267, 3268, 3269, 3270, 
3271, 3272, 3273, 3274, 3275, 3276, 3277, 3278, 3279, 3280, 
3281, 3282, 3283, 3284, 3285, 3286, 3287, 3288, 3289, 3290, 
3291, 3292, 3293, 3294, 3295, 3296, 3297, 3298, 3299, 3300, 
3301, 3302, 3303, 3304, 3305, 3306, 3307, 3308, 3309, 3310, 
3311, 3312, 3313, 3314, 3315, 3316, 3317, 3318, 3319, 3320, 
3321, 3322, 3323, 3324, 3325, 3326, 3327, 3328, 3329, 3330, 
3331, 3332, 3333, 3334, 3335, 3336, 3337, 3338, 3339, 3340, 
3341, 3342, 3343, 3344, 3345, 3346, 3347, 3348, 3349, 3350, 
3351, 
