*Heading
 sq.inp
*NODE
1, 0, -0.3, 0
2, 0.425, -0.3, 0
3, 0.575, -0.3, 0
4, 1, -0.3, 0
5, 1, 0.3, 0
6, 0.575, 0.3, 0
7, 0.425, 0.3, 0
8, 0, 0.3, 0
9, 0.73, 0.05, 0
10, 0.039922807571694, -0.3, 0
11, 0.11992697849199, -0.3, 0
12, 0.1991514233081, -0.3, 0
13, 0.27383803679994, -0.3, 0
14, 0.33979582857511, -0.3, 0
15, 0.39760504416296, -0.3, 0
16, 0.079845615143389, -0.3, 0
17, 0.1600083418406, -0.3, 0
18, 0.23829450477559, -0.3, 0
19, 0.3093815688243, -0.3, 0
20, 0.37021008832592, -0.3, 0
21, 0.45025189071948, -0.3, 0
22, 0.49974520188687, -0.3, 0
23, 0.54949331116739, -0.3, 0
24, 0.47550378143897, -0.3, 0
25, 0.52398662233478, -0.3, 0
26, 0.60251844271339, -0.3, 0
27, 0.66045166769142, -0.3, 0
28, 0.72633432859928, -0.3, 0
29, 0.80081947640474, -0.3, 0
30, 0.87992116943543, -0.3, 0
31, 0.96000279665195, -0.3, 0
32, 0.63003688542679, -0.3, 0
33, 0.69086644995604, -0.3, 0
34, 0.76180220724251, -0.3, 0
35, 0.83983674556696, -0.3, 0
36, 0.92000559330391, -0.3, 0
37, 1, -0.25784812925341, 0
38, 1, -0.1724742983187, 0
39, 1, -0.085291485625121, 0
40, 1, 0.0025980292775378, 0
41, 1, 0.089814343633494, 0
42, 1, 0.17549325824572, 0
43, 1, 0.25894226044959, 0
44, 1, -0.21569625850681, 0
45, 1, -0.12925233813058, 0
46, 1, -0.041330633119661, 0
47, 1, 0.046526691674736, 0
48, 1, 0.13310199559225, 0
49, 1, 0.21788452089919, 0
50, 0.95735894345356, 0.3, 0
51, 0.87467306000828, 0.3, 0
52, 0.80065460019541, 0.3, 0
53, 0.74062728559621, 0.3, 0
54, 0.69433500339495, 0.3, 0
55, 0.65833157657572, 0.3, 0
56, 0.62954657804108, 0.3, 0
57, 0.60547060475687, 0.3, 0
58, 0.58470740185207, 0.3, 0
59, 0.91471788690713, 0.3, 0
60, 0.83462823310942, 0.3, 0
61, 0.76668096728139, 0.3, 0
62, 0.71457360391103, 0.3, 0
63, 0.67409640287887, 0.3, 0
64, 0.64256675027257, 0.3, 0
65, 0.6165264058096, 0.3, 0
66, 0.59441480370414, 0.3, 0
67, 0.56679648898795, 0.3, 0
68, 0.551245486483, 0.3, 0
69, 0.5371100656333, 0.3, 0
70, 0.5239698900679, 0.3, 0
71, 0.51141925970043, 0.3, 0
72, 0.4991916843634, 0.3, 0
73, 0.48703346403698, 0.3, 0
74, 0.47466553706252, 0.3, 0
75, 0.4618742760628, 0.3, 0
76, 0.44819668620434, 0.3, 0
77, 0.43303572975968, 0.3, 0
78, 0.55859297797591, 0.3, 0
79, 0.54389799499009, 0.3, 0
80, 0.53032213627651, 0.3, 0
81, 0.51761764385929, 0.3, 0
82, 0.50522087554158, 0.3, 0
83, 0.49316249318522, 0.3, 0
84, 0.48090443488874, 0.3, 0
85, 0.4684266392363, 0.3, 0
86, 0.45532191288931, 0.3, 0
87, 0.44107145951936, 0.3, 0
88, 0.41586876642821, 0.3, 0
89, 0.39634842066158, 0.3, 0
90, 0.37357168887924, 0.3, 0
91, 0.34601482595846, 0.3, 0
92, 0.3103250576737, 0.3, 0
93, 0.26197478123446, 0.3, 0
94, 0.19916376978961, 0.3, 0
95, 0.12414172457825, 0.3, 0
96, 0.042050469662001, 0.3, 0
97, 0.40673753285642, 0.3, 0
98, 0.38595930846675, 0.3, 0
99, 0.36118406929172, 0.3, 0
100, 0.3308455826252, 0.3, 0
101, 0.2898045327222, 0.3, 0
102, 0.23414502974671, 0.3, 0
103, 0.1641825098325, 0.3, 0
104, 0.084100939324003, 0.3, 0
105, 0, 0.2587354992848, 0
106, 0, 0.17521788603113, 0
107, 0, 0.089179070575175, 0
108, 0, 0.0012287574410185, 0
109, 0, -0.086526467206641, 0
110, 0, -0.17304950681249, 0
111, 0, -0.25799096599368, 0
112, 0, 0.21747099856961, 0
113, 0, 0.13296477349264, 0
114, 0, 0.045393367657707, 0
115, 0, -0.04293585277567, 0
116, 0, -0.13011708163761, 0
117, 0, -0.21598193198737, 0
118, 0.72995485113642, 0.054558033688445, 0
119, 0.72960891941644, 0.03659305535292, 0
120, 0.72894321100708, 0.02797717621536, 0
121, 0.72797615547024, 0.019555425017848, 0
122, 0.72672547768153, 0.011327564810349, 0
123, 0.72518408150817, 0.0031798211709355, 0
124, 0.7233495432686, -0.0049088460666173, 0
125, 0.72127427547837, -0.012751055835576, 0
126, 0.71891135755751, -0.020553649635507, 0
127, 0.71617496305457, -0.028539068174137, 0
128, 0.71317804586717, -0.036343039654398, 0
129, 0.70991739657797, -0.043993011377085, 0
130, 0.70632069867632, -0.051645308666662, 0
131, 0.70248996572402, -0.059077097267947, 0
132, 0.69844277568692, -0.066277530554583, 0
133, 0.69417027953136, -0.073279771004064, 0
134, 0.68971038152544, -0.080038343053529, 0
135, 0.68502777250644, -0.086618897415042, 0
136, 0.68001331413574, -0.09316147045563, 0
137, 0.6747528358699, -0.099537441296956, 0
138, 0.66932473970726, -0.10565709908698, 0
139, 0.66363037966062, -0.11163260403589, 0
140, 0.65757834692841, -0.11753824724478, 0
141, 0.65100110819631, -0.12348966823207, 0
142, 0.64427166202195, -0.12912478088162, 0
143, 0.63766946626139, -0.13424743558414, 0
144, 0.63079011450926, -0.1391928786399, 0
145, 0.62368327994041, -0.14391350034805, 0
146, 0.61652715903003, -0.14829629484186, 0
147, 0.6091935927791, -0.15242716881922, 0
148, 0.60168705587784, -0.15630012639566, 0
149, 0.59397644314538, -0.159924814407, 0
150, 0.58606285450219, -0.163291314274, 0
151, 0.57804359726325, -0.16635433135389, 0
152, 0.56965468158955, -0.1691990536326, 0
153, 0.56083219043198, -0.17180947767054, 0
154, 0.55197716383737, -0.17404993681238, 0
155, 0.54342791391026, -0.17586282585412, 0
156, 0.5351412739863, -0.1772995617506, 0
157, 0.52690119514414, -0.17842137749651, 0
158, 0.51848397541316, -0.17925606349557, 0
159, 0.50993265280731, -0.179785426666, 0
160, 0.50146487089257, -0.17999533464454, 0
161, 0.49291377321371, -0.17989081120091, 0
162, 0.48446314714784, -0.17947462994786, 0
163, 0.47616462942057, -0.17876161078419, 0
164, 0.46767724474527, -0.17771745402129, 0
165, 0.45922628807682, -0.17635702720611, 0
166, 0.45098251449039, -0.17471601071222, 0
167, 0.44284506215993, -0.1727853507116, 0
168, 0.43483941880025, -0.17057673986631, 0
169, 0.42690467766836, -0.16807584344687, 0
170, 0.41906679498217, -0.16529007444927, 0
171, 0.4113566292834, -0.16223183733388, 0
172, 0.40379395640855, -0.15891241508634, 0
173, 0.39636603206463, -0.15532900578654, 0
174, 0.3889413176601, -0.15140995222061, 0
175, 0.38159668446293, -0.14718178044766, 0
176, 0.37448194112984, -0.14273094310499, 0
177, 0.36769861651536, -0.13813915945372, 0
178, 0.36111952880215, -0.13333634133324, 0
179, 0.35451171964207, -0.12813803533274, 0
180, 0.34806814152831, -0.12267515690787, 0
181, 0.34190380124882, -0.11704966776205, 0
182, 0.3358902296046, -0.11114584371262, 0
183, 0.33014695335869, -0.10508043841816, 0
184, 0.32465174344608, -0.098838801619427, 0
185, 0.31933709970476, -0.092340846012988, 0
186, 0.3143082374433, -0.085715029610794, 0
187, 0.30948047807712, -0.078849957696142, 0
188, 0.30475743475417, -0.071574423655537, 0
189, 0.30021071557156, -0.063948416146328, 0
190, 0.29603769710697, -0.056298535555574, 0
191, 0.29225614944147, -0.048704063278679, 0
192, 0.28876420574975, -0.040991420873769, 0
193, 0.28558524356097, -0.03322446518309, 0
194, 0.28272846351916, -0.025452493487279, 0
195, 0.28012143978455, -0.01747901989125, 0
196, 0.27775261955898, -0.0092123410336697, 0
197, 0.27567376891849, -0.00077146381782697, 0
198, 0.27393950400135, 0.0076130713048024, 0
199, 0.27254436751665, 0.015883509109592, 0
200, 0.27146134509613, 0.024114036859621, 0
201, 0.27067281671266, 0.03242038118913, 0
202, 0.27018115591028, 0.040873177799045, 0
203, 0.27000126302132, 0.049237815503867, 0
204, 0.27012402145816, 0.057552104096635, 0
205, 0.27055848795531, 0.066018496917403, 0
206, 0.2713169258509, 0.074577452911668, 0
207, 0.2724003063436, 0.083141800495748, 0
208, 0.27378991362988, 0.091581200718338, 0
209, 0.27543399032187, 0.099700167596026, 0
210, 0.27733367285024, 0.10761689095422, 0
211, 0.2795599358956, 0.1156214718531, 0
212, 0.28219868388161, 0.12390931043205, 0
213, 0.28518234166321, 0.13217890976819, 0
214, 0.28836072570165, 0.14004897121393, 0
215, 0.29175020340185, 0.14763207477351, 0
216, 0.29545206325573, 0.1551672073567, 0
217, 0.29944320996645, 0.16259206874275, 0
218, 0.3036786221959, 0.16982452420049, 0
219, 0.30827345065857, 0.1770469605609, 0
220, 0.31324507449233, 0.18424826872908, 0
221, 0.31854407765647, 0.19132851115119, 0
222, 0.32414846845823, 0.19824384861956, 0
223, 0.32999657634342, 0.20491557613696, 0
224, 0.33592923117751, 0.21118555306053, 0
225, 0.34189988105196, 0.21704595758815, 0
226, 0.34802140139631, 0.22263402037304, 0
227, 0.3544153582748, 0.2280592919226, 0
228, 0.36092087912375, 0.23318569124318, 0
229, 0.36735647551043, 0.23789809701498, 0
230, 0.37400750639739, 0.24242112983288, 0
231, 0.38097548056439, 0.24680742771758, 0
232, 0.38807707467842, 0.25093098002887, 0
233, 0.39539887277222, 0.25483799497081, 0
234, 0.40311865332883, 0.25860010695917, 0
235, 0.41118421838071, 0.26215974372424, 0
236, 0.41935545654813, 0.26539836931572, 0
237, 0.42739024930675, 0.26823799820001, 0
238, 0.43516602925189, 0.27067296123034, 0
239, 0.44308961080025, 0.27284794601878, 0
240, 0.45160482103289, 0.27485085291615, 0
241, 0.46021222831139, 0.2765324095808, 0
242, 0.46858904444232, 0.27784501575382, 0
243, 0.47681498632403, 0.27882843906469, 0
244, 0.48503256053592, 0.27951247293396, 0
245, 0.49337014203043, 0.27990442485661, 0
246, 0.50161798658426, 0.27999430838824, 0
247, 0.5098288859341, 0.27978988863226, 0
248, 0.51818741084016, 0.27927978127829, 0
249, 0.52648725357278, 0.27846974715516, 0
250, 0.53479438684365, 0.27735292056687, 0
251, 0.54334958957661, 0.27587787159352, 0
252, 0.55195799273041, 0.27405438342791, 0
253, 0.56013683313908, 0.27199901107487, 0
254, 0.56791572304635, 0.26974406472856, 0
255, 0.57577019422603, 0.26716094726842, 0
256, 0.58389443021876, 0.26415350553864, 0
257, 0.59236224626106, 0.26064001237001, 0
258, 0.60058278950263, 0.25684076438763, 0
259, 0.60816610357464, 0.25297806132453, 0
260, 0.61539657628784, 0.24895635094211, 0
261, 0.62236394269586, 0.24474872296086, 0
262, 0.62930295608684, 0.24021236884277, 0
263, 0.63622590337912, 0.23531730378764, 0
264, 0.6429791005416, 0.23015819918943, 0
265, 0.64964810383022, 0.2246580802734, 0
266, 0.65603180376863, 0.21897951422949, 0
267, 0.66199173615637, 0.21327485216391, 0
268, 0.66778243403909, 0.20731832257476, 0
269, 0.67345369195946, 0.20104243242712, 0
270, 0.67880450760944, 0.19466840548894, 0
271, 0.68384853223648, 0.18820172417843, 0
272, 0.68869947279177, 0.18150098213002, 0
273, 0.69330924140006, 0.17462558552185, 0
274, 0.69766930029051, 0.16758761498554, 0
275, 0.70179703206166, 0.16035378313429, 0
276, 0.70567263797222, 0.15295030726567, 0
277, 0.70931181699083, 0.14533395595112, 0
278, 0.71267958920724, 0.13756364719251, 0
279, 0.71575681993177, 0.12968057896518, 0
280, 0.71857080872053, 0.121601686565, 0
281, 0.72113048033057, 0.1132559135509, 0
282, 0.72341280485537, 0.10465087863586, 0
283, 0.72532918392703, 0.096116794289289, 0
284, 0.72685339666763, 0.087914853990759, 0
285, 0.72806092074914, 0.079802948528962, 0
286, 0.728984493027, 0.071589398745432, 0
287, 0.72961584076198, 0.063287673729088, 0
288, 0.72995538809894, 0.045471324409178, 0
289, 0.72981934165694, 0.059114276043025, 0
290, 0.7293365730443, 0.06745668689384, 0
291, 0.72855794500225, 0.075715089490861, 0
292, 0.72749079138845, 0.083881254174459, 0
293, 0.7261444878327, 0.091936501353207, 0
294, 0.72443661234698, 0.10028127327027, 0
295, 0.72230393102014, 0.10899967517614, 0
296, 0.7198755454126, 0.11748884276305, 0
297, 0.71718914499296, 0.12568932979135, 0
298, 0.71425115271124, 0.1336447423375, 0
299, 0.71103634892838, 0.14145304157214, 0
300, 0.7075159212806, 0.14918236674946, 0
301, 0.70376094484699, 0.15668400499999, 0
302, 0.69976703286814, 0.16398742160355, 0
303, 0.69550669345633, 0.17114921662617, 0
304, 0.69104998377401, 0.17806210866602, 0
305, 0.68628707226891, 0.18489672598002, 0
306, 0.68135136590932, 0.19146265208447, 0
307, 0.67620098937205, 0.19782831603716, 0
308, 0.6706477737515, 0.20420550213223, 0
309, 0.66486032081017, 0.21037791025206, 0
310, 0.6590722525657, 0.2161204919375, 0
311, 0.65293997660603, 0.2217828947084, 0
312, 0.64630218870687, 0.22747019167227, 0
313, 0.63960663496221, 0.23278398964033, 0
314, 0.6327992118202, 0.23778809553118, 0
315, 0.62576245602369, 0.24257155617155, 0
316, 0.61892774907523, 0.24686591961929, 0
317, 0.61182867156965, 0.25098345242789, 0
318, 0.60446797317547, 0.25490593594803, 0
319, 0.59666178852115, 0.25870193727654, 0
320, 0.58802387074114, 0.26248952487478, 0
321, 0.57973355630812, 0.26573724761476, 0
322, 0.57178143045081, 0.26851184444148, 0
323, 0.56402888137161, 0.27090790415718, 0
324, 0.55622621129139, 0.27302155216429, 0
325, 0.54767083298591, 0.27500553592956, 0
326, 0.5390124204232, 0.27666722417811, 0
327, 0.53056434140371, 0.27796012902693, 0
328, 0.52240171239712, 0.27890644954394, 0
329, 0.51396695499793, 0.27957552902322, 0
330, 0.50568762662067, 0.2799296638548, 0
331, 0.49754783981676, 0.27998692679506, 0
332, 0.4891946324254, 0.27974604187469, 0
333, 0.48087540525526, 0.27920351170686, 0
334, 0.47276185471413, 0.27838144284248, 0
335, 0.46442674375205, 0.27723235554345, 0
336, 0.45601144040855, 0.27575430570877, 0
337, 0.44721671261301, 0.27386139570554, 0
338, 0.43898193775157, 0.27175841787499, 0
339, 0.4313694107525, 0.26952184804519, 0
340, 0.42343508377458, 0.26688202564581, 0
341, 0.41530455811012, 0.26383797962915, 0
342, 0.40709711190113, 0.26040212158206, 0
343, 0.39917513061108, 0.25672287024447, 0
344, 0.39165783828583, 0.2528841426308, 0
345, 0.38453151133946, 0.24891462368481, 0
346, 0.37745789311494, 0.24463666552181, 0
347, 0.37059716528497, 0.24014443471807, 0
348, 0.36415477075398, 0.23559653448126, 0
349, 0.35772976183213, 0.23071850850423, 0
350, 0.3511506463817, 0.22533929928393, 0
351, 0.34494131315848, 0.21987290384877, 0
352, 0.33890997868363, 0.21416456590908, 0
353, 0.33300356515365, 0.20815242740039, 0
354, 0.32705231674422, 0.20162156295138, 0
355, 0.32131057819159, 0.19481053135251, 0
356, 0.31584542026088, 0.18779365078413, 0
357, 0.31071297715622, 0.18065382651815, 0
358, 0.3059026459742, 0.17339455635753, 0
359, 0.30152025674696, 0.16621441757692, 0
360, 0.29743226792161, 0.15893260886845, 0
361, 0.29354184566589, 0.15136582233978, 0
362, 0.29002607961694, 0.14386667302449, 0
363, 0.28676477772802, 0.13620173829689, 0
364, 0.283675790438, 0.12812705131112, 0
365, 0.28080380191361, 0.11966366719632, 0
366, 0.2783906032893, 0.11155708908246, 0
367, 0.27634679040324, 0.10365856727603, 0
368, 0.27459124094652, 0.095726264546016, 0
369, 0.27306480178481, 0.087422127235547, 0
370, 0.27181653559624, 0.078849719108118, 0
371, 0.27089729802361, 0.070296590785801, 0
372, 0.27029955729076, 0.061734826294892, 0
373, 0.27002464579724, 0.053366879847308, 0
374, 0.27005201146557, 0.045108996845393, 0
375, 0.2703883235452, 0.036640457300529, 0
376, 0.27103486755205, 0.028206250427144, 0
377, 0.27196095729672, 0.020030107028887, 0
378, 0.2732031725944, 0.011748219767001, 0
379, 0.27475122390508, 0.0034920583457125, 0
380, 0.27667700522244, -0.0050167232584344, 0
381, 0.27890704865326, -0.0133869605838, 0
382, 0.28141155865423, -0.021547838960793, 0
383, 0.2841151085577, -0.029332929151944, 0
384, 0.28712551845939, -0.037088776602997, 0
385, 0.29047443180935, -0.044863249248875, 0
386, 0.29410826511613, -0.052511429480838, 0
387, 0.29803678064128, -0.060049341462061, 0
388, 0.30245991690234, -0.067804563119472, 0
389, 0.3071268885973, -0.075299490752176, 0
390, 0.3118994189329, -0.082356226911838, 0
391, 0.31677702678741, -0.089030001887291, 0
392, 0.32195699392715, -0.095604558079303, 0
393, 0.32740523819229, -0.10202318116946, 0
394, 0.33294281657118, -0.10808825707799, 0
395, 0.3388935955586, -0.11414848802484, 0
396, 0.34496624145374, -0.11989565483203, 0
397, 0.35121986312515, -0.12539803534847, 0
398, 0.35785402490076, -0.13081626513858, 0
399, 0.36442969934851, -0.13579745301293, 0
400, 0.3710079716728, -0.14042336102543, 0
401, 0.37799718014904, -0.14497515638334, 0
402, 0.38523608709095, -0.14932196017878, 0
403, 0.39268452385187, -0.15342907367465, 0
404, 0.40008116500803, -0.15716231747728, 0
405, 0.40753738879986, -0.16059597545865, 0
406, 0.41520479736502, -0.16379844019919, 0
407, 0.42295501613797, -0.16671195167246, 0
408, 0.43087846493366, -0.16936775754127, 0
409, 0.43882149821303, -0.17171420967699, 0
410, 0.44688735642709, -0.17378348254011, 0
411, 0.45509401724925, -0.17557360820716, 0
412, 0.46337219287392, -0.17706475658861, 0
413, 0.47199388081772, -0.17828853932342, 0
414, 0.48034331646306, -0.17915849228328, 0
415, 0.48858799213156, -0.17971670742509, 0
416, 0.4972420649536, -0.17998346314049, 0
417, 0.505687182988, -0.1799296748281, 0
418, 0.51417473435732, -0.17956279376062, 0
419, 0.52278669490363, -0.17886844670667, 0
420, 0.5310069844749, -0.17790034283294, 0
421, 0.53926396902277, -0.17662378551619, 0
422, 0.54757714930951, -0.17502536389957, 0
423, 0.55635722094909, -0.17298848218333, 0
424, 0.56528253307823, -0.17054067734463, 0
425, 0.57399928962036, -0.1677707615622, 0
426, 0.58206081399474, -0.16486279895659, 0
427, 0.5900348202991, -0.1616452947252, 0
428, 0.59788520745919, -0.15813093452843, 0
429, 0.60545467752569, -0.15439987979205, 0
430, 0.61289562053187, -0.15038607437992, 0
431, 0.62012002853845, -0.14614071159868, 0
432, 0.62720524914346, -0.14162156592896, 0
433, 0.63432862414548, -0.13669713605745, 0
434, 0.64096564535925, -0.13173796121507, 0
435, 0.64752924703934, -0.12645146885235, 0
436, 0.65441352189804, -0.12045956672624, 0
437, 0.66068791422797, -0.11455817746828, 0
438, 0.66651958809344, -0.10865442387049, 0
439, 0.67207594614345, -0.10261018352868, 0
440, 0.67737486141395, -0.096417751322194, 0
441, 0.68259199399462, -0.089857653229348, 0
442, 0.68740610932669, -0.083337728354245, 0
443, 0.69195657363115, -0.076699146300027, 0
444, 0.69632308385664, -0.069821728945494, 0
445, 0.70049849392975, -0.0626958468446, 0
446, 0.70441613256514, -0.055423169299189, 0
447, 0.70815545403931, -0.047833055320753, 0
448, 0.71160850582819, -0.040121251024186, 0
449, 0.71468013247745, -0.032537507806948, 0
450, 0.71759532771944, -0.024513574179662, 0
451, 0.72015532657164, -0.016570500395168, 0
452, 0.72232696412357, -0.0089128205509129, 0
453, 0.72430001778327, -0.0008871451547976, 0
454, 0.72599440949644, 0.0072621186365831, 0
455, 0.72738341922776, 0.015405484185283, 0
456, 0.72849315920949, 0.023715479403525, 0
457, 0.72931378944918, 0.032246517841869, 0
458, 0.7298216617384, 0.040944403564169, 0
459, 0.41827848798053, 0.26745419386698, 0
460, 0.083967048503212, -0.21453124091463, 0
461, 0.37655191034335, -0.2297513645499, 0
462, 0.57552413398308, 0.27627602320184, 0
463, 0.74029244407574, 0.050392748643288, 0
464, 0.54716916270657, -0.17905999126737, 0
465, 0.082157209467941, 0.22024940748783, 0
466, 0.2627847361637, 0.26472644064814, 0
467, 0.22523843281223, 0.2545077043082, 0
468, 0.25951350688793, 0.23457863292458, 0
469, 0.38400811142703, 0.27862580620038, 0
470, 0.480751911098, 0.28885766884201, 0
471, 0.49323350913996, 0.28792846538462, 0
472, 0.46822595812075, 0.28662193553571, 0
473, 0.45509569383379, 0.28684932706698, 0
474, 0.44145804737682, 0.28335683432205, 0
475, 0.4048312240077, 0.28375048444822, 0
476, 0.082535427568292, 0.14098726507435, 0
477, 0.16703257093189, -0.21257917771988, 0
478, 0.25147119435618, -0.20264896615975, 0
479, 0.4591604656833, -0.24132261153689, 0
480, 0.3672032396064, -0.20341247614701, 0
481, 0.31149207083579, -0.17916422062706, 0
482, 0.91666883851469, 0.21728078073546, 0
483, 0.82846655800673, 0.21673865058505, 0
484, 0.75738971726741, 0.23873544612207, 0
485, 0.71047509498963, 0.25953732117236, 0
486, 0.67361352445263, 0.26337600994626, 0
487, 0.6442357794767, 0.27005691247527, 0
488, 0.62110643608416, 0.27140489981154, 0
489, 0.51812759368718, 0.28754817504606, 0
490, 0.5056068229442, 0.289277943779, 0
491, 0.5441216703514, 0.28543394455991, 0
492, 0.53090100858033, 0.28817231143422, 0
493, 0.59460136517285, 0.28279196686602, 0
494, 0.55955220930043, 0.28543455516666, 0
495, 0.91785019362512, 0.13450960786111, 0
496, 0.90798597090069, 0.046840063620302, 0
497, 0.91634926280188, -0.042110007790729, 0
498, 0.52692045074336, -0.23792370993725, 0
499, 0.64882135783557, -0.24540653912861, 0
500, 0.68736264761254, -0.22570683971768, 0
501, 0.91527326009604, -0.12805612905827, 0
502, 0.75269900721205, -0.21540602644713, 0
503, 0.91736508254896, -0.2148222101008, 0
504, 0.83455502530593, -0.215805159349, 0
505, 0.32735998766273, 0.21497063491216, 0
506, 0.30368153589582, 0.18839780351394, 0
507, 0.28478324167084, 0.154680185615, 0
508, 0.29738084438312, 0.17881494016069, 0
509, 0.2476548152471, 0.17048726319127, 0
510, 0.22527295132287, 0.27555271069695, 0
511, 0.30403000460809, 0.20286510075554, 0
512, 0.33022691815108, 0.21159899785998, 0
513, 0.30436714981347, 0.24669030313077, 0
514, 0.34031574096417, 0.22091215136762, 0
515, 0.3659394496935, 0.24963589614881, 0
516, 0.33081127019318, 0.23628202767723, 0
517, 0.36016917885812, 0.27908452802286, 0
518, 0.35109671782614, 0.26731335562646, 0
519, 0.3713919396773, 0.27966559523933, 0
520, 0.37979574135805, 0.25019523529777, 0
521, 0.36977687886848, 0.27068212662174, 0
522, 0.38890841508824, 0.25617477026895, 0
523, 0.33460449884005, 0.22243899639184, 0
524, 0.4051956095792, 0.27057014802999, 0
525, 0.41864654626602, 0.27592976977967, 0
526, 0.37901331895892, 0.25353961111381, 0
527, 0.31432422346699, 0.21162906227, 0
528, 0.32399657646377, 0.21787288736463, 0
529, 0.3016547820149, 0.22637001253405, 0
530, 0.31293127526016, 0.22860454721987, 0
531, 0.3500220987263, 0.22999879394052, 0
532, 0.25562025546953, 0.20704621514406, 0
533, 0.30614844950332, 0.19352131774905, 0
534, 0.29862518105437, 0.17507782128697, 0
535, 0.28397625530974, 0.16859061103243, 0
536, 0.23480153830395, 0.12561084086729, 0
537, 0.27055683236792, 0.12274170764699, 0
538, 0.27338722475644, 0.13280021572757, 0
539, 0.25951991159154, 0.13898583004417, 0
540, 0.27864313495093, 0.14196902325671, 0
541, 0.28424569807314, 0.14695091452917, 0
542, 0.26981937927294, 0.15588390024964, 0
543, 0.23900381619189, 0.14606529614873, 0
544, 0.20873282364547, 0.14150906239624, 0
545, 0.20638079080768, 0.095604383205617, 0
546, 0.25693715915908, 0.12101987156433, 0
547, 0.25380538579074, 0.10206883926801, 0
548, 0.232328819366, 0.10409510987937, 0
549, 0.26652761903858, 0.1049817971884, 0
550, 0.26846847213262, 0.1140649109862, 0
551, 0.26512746386597, 0.096469120389597, 0
552, 0.26430892165235, 0.086904166465149, 0
553, 0.26297176457236, 0.01969831789628, 0
554, 0.26226878057083, 0.027223617264448, 0
555, 0.23591896510894, 0.027725462100506, 0
556, 0.25310751226058, 0.022884934662735, 0
557, 0.25024540902835, 0.033940102144663, 0
558, 0.23534902692273, 0.049083136435426, 0
559, 0.24900183069236, 0.044556438294184, 0
560, 0.25992683885891, 0.044834115401109, 0
561, 0.26078649442699, 0.035685906033299, 0
562, 0.2623584091006, 0.073634749803386, 0
563, 0.26590891489114, 0.079843648040411, 0
564, 0.26016639021546, 0.064003883832886, 0
565, 0.25967080693938, 0.054202342337561, 0
566, 0.25168489536867, 0.08250293231775, 0
567, 0.24794952843012, 0.066532570892769, 0
568, 0.24841681149237, 0.054443181091558, 0
569, 0.20795496147747, 0.028947313840896, 0
570, 0.2103441312645, 0.057481201415354, 0
571, 0.23184222705105, 0.066434927208716, 0
572, 0.2313953734025, 0.085221890839395, 0
573, 0.15269259190733, 0.14722939031157, 0
574, 0.15811199921168, 0.090216498735116, 0
575, 0.17113080214781, 0.041173580186912, 0
576, 0.10007482468998, 0.05685031583724, 0
577, 0.28783989151469, -0.16090772870252, 0
578, 0.246040139269, -0.1343473990986, 0
579, 0.089857522147263, -0.12933074581062, 0
580, 0.10456009970683, -0.039577637626657, 0
581, 0.17998911365602, -0.1263973237123, 0
582, 0.25302999611231, 0.0006952800138233, 0
583, 0.24088708388402, -0.018090277289638, 0
584, 0.25492624129574, -0.010025336093062, 0
585, 0.26628849530847, -0.0073939318606757, 0
586, 0.26890184573494, -0.016536224521713, 0
587, 0.26327497143185, 0.011048193029161, 0
588, 0.26440577346766, 0.0019025939833894, 0
589, 0.23745728206331, 0.0046433115811951, 0
590, 0.25218008373353, 0.010812504580554, 0
591, 0.2092244384096, 0.0021238338360864, 0
592, 0.17491799485627, -0.012897935916252, 0
593, 0.21228008154328, -0.022957764499598, 0
594, 0.17129989635136, -0.062295247758074, 0
595, 0.22153466569891, -0.054415009752657, 0
596, 0.25754918782115, -0.020282703860854, 0
597, 0.24934643698736, -0.055538193537992, 0
598, 0.24401318196342, -0.038655641973904, 0
599, 0.27231356802627, -0.025034941999935, 0
600, 0.26318404709629, -0.032942998835023, 0
601, 0.27524535448012, -0.032631690273337, 0
602, 0.27846606659622, -0.040794626883717, 0
603, 0.26922081114327, -0.04883388054861, 0
604, 0.28166402426511, -0.048398686317495, 0
605, 0.28410635577206, -0.080608452977278, 0
606, 0.26441876151488, -0.090019768609054, 0
607, 0.27630066592272, -0.06497405887157, 0
608, 0.28542477994708, -0.056530321552798, 0
609, 0.25648775643558, -0.073388172902528, 0
610, 0.23452851966611, -0.091972552758245, 0
611, 0.27719978470567, -0.10813451032147, 0
612, 0.39458103126043, -0.18524507558396, 0
613, 0.37207603410632, -0.26548051983558, 0
614, 0.42883018760378, -0.20212681523643, 0
615, 0.45824504339054, -0.20011631674985, 0
616, 0.49083622854936, -0.18962165406917, 0
617, 0.4779865724257, -0.19647172255198, 0
618, 0.47695705512515, -0.20773204272696, 0
619, 0.4925615244657, -0.20473027029493, 0
620, 0.46531240495564, -0.21392185721248, 0
621, 0.39255014233522, -0.21187322717894, 0
622, 0.38940699543376, -0.16173442777028, 0
623, 0.38130728645253, -0.15756561587708, 0
624, 0.37311207531861, -0.1660376206382, 0
625, 0.38963204309764, -0.17333179592713, 0
626, 0.36701170866844, -0.18781446815716, 0
627, 0.35683741280998, -0.1559414026031, 0
628, 0.34450412217604, -0.17515399042452, 0
629, 0.32623453251267, -0.17289300601425, 0
630, 0.31284391297858, -0.13684277100816, 0
631, 0.28725117834866, -0.13336259065437, 0
632, 0.34172730227219, -0.13566328040129, 0
633, 0.33009174381403, -0.14039535016003, 0
634, 0.33639635041849, -0.13295328612327, 0
635, 0.32196545056213, -0.12564925886975, 0
636, 0.32995340912593, -0.12976309761535, 0
637, 0.34041619261565, -0.12651345853912, 0
638, 0.33404253706895, -0.1217680839344, 0
639, 0.37391406952121, -0.15343069154872, 0
640, 0.36617159913535, -0.14840189488764, 0
641, 0.34290945170649, -0.14517208525621, 0
642, 0.3519449938611, -0.13760026581493, 0
643, 0.35925293172332, -0.14353122018816, 0
644, 0.34621781949691, -0.13138156408216, 0
645, 0.40619361955559, -0.17914165887902, 0
646, 0.41909736671964, -0.1721840907559, 0
647, 0.44754929584231, -0.18470346322011, 0
648, 0.43620192633069, -0.1839652639671, 0
649, 0.42318593968492, -0.18076781623303, 0
650, 0.41245609642834, -0.17074381869881, 0
651, 0.40506993425418, -0.16841214505693, 0
652, 0.39686713065055, -0.16509269540636, 0
653, 0.52261951234491, -0.19255578884799, 0
654, 0.51053820027017, -0.18607955385459, 0
655, 0.47960146611, -0.18481002584401, 0
656, 0.4727457907836, -0.18661545191092, 0
657, 0.46232486641064, -0.18584052099194, 0
658, 0.45503287359858, -0.18239644990615, 0
659, 0.28970465918163, -0.093920026399457, 0
660, 0.30165039314587, -0.087944593982396, 0
661, 0.3070305358364, -0.096145420214766, 0
662, 0.29575631827967, -0.10384067386795, 0
663, 0.31351561090342, -0.12097995560193, 0
664, 0.30349876229567, -0.11398755521858, 0
665, 0.31328117529192, -0.10388714260169, 0
666, 0.32722325807545, -0.11656356992212, 0
667, 0.32021674192262, -0.11070871510858, 0
668, 0.29733727869998, -0.079573122572268, 0
669, 0.29339691947875, -0.072063072113234, 0
670, 0.28912770652358, -0.064053182382072, 0
671, 0.71828060854064, 0.21069727918876, 0
672, 0.73437839368903, 0.18300550927724, 0
673, 0.72047189137218, 0.16616097560005, 0
674, 0.7501104897236, 0.16097620710669, 0
675, 0.77222740665459, 0.18432645182747, 0
676, 0.69887657234158, 0.23029921387147, 0
677, 0.67407468566499, 0.23430141206982, 0
678, 0.66003784558249, 0.22894241643928, 0
679, 0.65250906089319, 0.23568643289691, 0
680, 0.6442918211051, 0.24068781104385, 0
681, 0.63756576251543, 0.24482416410421, 0
682, 0.65955267912487, 0.24636421850236, 0
683, 0.64538906130086, 0.25145955039765, 0
684, 0.63067253812105, 0.24961273175919, 0
685, 0.62371706225772, 0.25400657583461, 0
686, 0.60962806110273, 0.2634187386511, 0
687, 0.61674434082979, 0.25874266829786, 0
688, 0.62813208615176, 0.25998762398342, 0
689, 0.6355367939878, 0.25744868983866, 0
690, 0.60655883904496, 0.27965740707382, 0
691, 0.58275222163259, 0.2739119376074, 0
692, 0.58248381983865, 0.28372998035968, 0
693, 0.56780201139239, 0.27943944734115, 0
694, 0.57110887213626, 0.28786207872528, 0
695, 0.59160753171741, 0.27175871231474, 0
696, 0.60104123604338, 0.26825731124479, 0
697, 0.68290384853452, 0.20499593847346, 0
698, 0.68963829099983, 0.19801339083236, 0
699, 0.69545761623237, 0.19009426693478, 0
700, 0.70650127496465, 0.19576668562757, 0
701, 0.6994030106202, 0.20562018290484, 0
702, 0.67891200568686, 0.21809842343145, 0
703, 0.68979125598449, 0.21434900024644, 0
704, 0.67609912298153, 0.21039755059383, 0
705, 0.67114599248889, 0.21555992461926, 0
706, 0.66597503860317, 0.22235326135314, 0
707, 0.71191032640782, 0.18178900678762, 0
708, 0.6999475605465, 0.18179926140199, 0
709, 0.70371860404643, 0.17447874402368, 0
710, 0.70773921421892, 0.16628038958367, 0
711, 0.70883176186465, 0.15943474577308, 0
712, 0.72760713115023, 0.12255322202557, 0
713, 0.7228476403925, 0.12790485944088, 0
714, 0.73604746236799, 0.13335146590252, 0
715, 0.72016064563126, 0.14573051333996, 0
716, 0.72307964182194, 0.13535574427766, 0
717, 0.71442888038007, 0.15480110622876, 0
718, 0.73227028358911, 0.15165328617328, 0
719, 0.75811039564861, 0.13313600361296, 0
720, 0.79179350261835, 0.14311765405031, 0
721, 0.79839744797777, 0.10926248538253, 0
722, 0.74328689515234, 0.11956295782998, 0
723, 0.74700082392635, 0.10656548511609, 0
724, 0.76475656280339, 0.10369246538162, 0
725, 0.74853082884473, 0.094763932291159, 0
726, 0.73200506096612, 0.11351556514872, 0
727, 0.73488198474788, 0.10348734965959, 0
728, 0.73644965636103, 0.093597556149283, 0
729, 0.73889542651998, 0.031839725034816, 0
730, 0.73805183372275, 0.022668209880718, 0
731, 0.75072454910911, 0.035051875918807, 0
732, 0.74878839920691, 0.020396627266466, 0
733, 0.73963521117149, 0.040419100294721, 0
734, 0.75319260514995, 0.051281337322175, 0
735, 0.73729920126721, 0.076547676057593, 0
736, 0.73679509732488, 0.08438920942276, 0
737, 0.73911931538518, 0.060116758207147, 0
738, 0.73811287723179, 0.068143729084092, 0
739, 0.74721164684803, 0.080814738762748, 0
740, 0.74876395533398, 0.065964544093567, 0
741, 0.76638917415613, 0.075907478423384, 0
742, 0.80290103222971, 0.028301501867631, 0
743, 0.77219236438273, 0.031845484640886, 0
744, 0.77196548232443, 0.054195928290664, 0
745, 0.79868566245948, 0.068313539572294, 0
746, 0.83942894509756, 0.13350328300494, 0
747, 0.8481441479641, 0.024101018750101, 0
748, 0.84871073942737, 0.071266403043151, 0
749, 0.82107507917796, -0.12540959373185, 0
750, 0.72496540468145, -0.096468346367954, 0
751, 0.71360353370623, -0.11127173027633, 0
752, 0.73877579019894, -0.11212836904637, 0
753, 0.76436711033098, -0.084461682929578, 0
754, 0.74674682891872, -0.063234824096059, 0
755, 0.71841390045015, -0.071575033907215, 0
756, 0.73673399503413, -0.080428364587016, 0
757, 0.72943110280626, -0.056402445792016, 0
758, 0.73849341043451, -0.021606847860134, 0
759, 0.72789069074981, -0.020462822063637, 0
760, 0.72446622499984, -0.028946250040913, 0
761, 0.72029315097265, -0.041519263674583, 0
762, 0.71725144376849, -0.051700826829646, 0
763, 0.72008357797934, -0.034344845405665, 0
764, 0.73261680007966, -0.038300488316623, 0
765, 0.75391926959751, -0.036863215560255, 0
766, 0.7857055247837, -0.046330438256994, 0
767, 0.83519692522927, -0.038262056419653, 0
768, 0.79002454801426, -0.008665564676175, 0
769, 0.73385570568622, -0.0039929513502434, 0
770, 0.7307873165914, -0.012852033784805, 0
771, 0.76246888956398, -0.012467751250143, 0
772, 0.74533231146047, -0.0080741985880857, 0
773, 0.74627712811066, 0.0045441651093229, 0
774, 0.76346184609306, 0.0091254361964142, 0
775, 0.7441503718625, 0.012883911501527, 0
776, 0.73651129446143, 0.014056898412, 0
777, 0.73554042073629, 0.0053735512478799, 0
778, 0.71140622876508, -0.060719199526582, 0
779, 0.70569530029161, -0.065375457810371, 0
780, 0.70457353455826, -0.072162180225209, 0
781, 0.70036983839349, -0.080116273785076, 0
782, 0.69013114209146, -0.11798123184411, 0
783, 0.69714956842658, -0.10877405056104, 0
784, 0.70873293300897, -0.087636302444109, 0
785, 0.69641690766547, -0.087116363216363, 0
786, 0.70269678464657, -0.099838940870957, 0
787, 0.69198391840226, -0.094850133523374, 0
788, 0.67412269067774, -0.11585023283084, 0
789, 0.6805808649961, -0.10960560738165, 0
790, 0.68663780021895, -0.10245005268934, 0
791, 0.60209944672564, -0.16865240242845, 0
792, 0.59414808663523, -0.17271502916298, 0
793, 0.60341873994177, -0.18428708043333, 0
794, 0.58524238237272, -0.17753538365261, 0
795, 0.53504739884301, -0.19460459568375, 0
796, 0.53962025956751, -0.18008425152208, 0
797, 0.56348495279156, -0.18998696172817, 0
798, 0.54669247701633, -0.19927979861824, 0
799, 0.56930581464416, -0.18978110128898, 0
800, 0.54113867800205, -0.18643975789192, 0
801, 0.5522347807575, -0.21560724081482, 0
802, 0.51127221522002, -0.19102848259114, 0
803, 0.50641682387851, -0.18395647401015, 0
804, 0.57507238575229, -0.19768668295764, 0
805, 0.50776794216487, -0.18786822245639, 0
806, 0.52354823666173, -0.21416973923862, 0
807, 0.53571618358127, -0.18094571770553, 0
808, 0.57506098385648, -0.18121501110225, 0
809, 0.62216143351147, -0.25118948429606, 0
810, 0.61708069285914, -0.22839226875674, 0
811, 0.55948856400305, -0.18352663808504, 0
812, 0.61029089442652, -0.20865646390873, 0
813, 0.66213205750676, -0.14817937657755, 0
814, 0.70324540265911, -0.13433794067386, 0
815, 0.68052395891812, -0.12674689627389, 0
816, 0.67273191830029, -0.13945862681468, 0
817, 0.66223212731612, -0.1292051409357, 0
818, 0.66850709062839, -0.12195480977678, 0
819, 0.65444549940496, -0.13577622712869, 0
820, 0.63264871654179, -0.14979875001412, 0
821, 0.62558707050322, -0.15518770656365, 0
822, 0.64625685861042, -0.1406554294328, 0
823, 0.63940582600952, -0.14484624915446, 0
824, 0.64771842011384, -0.15302140447344, 0
825, 0.6377881566582, -0.15678943425119, 0
826, 0.61769675894997, -0.16002105407886, 0
827, 0.6101722672864, -0.16423459505203, 0
828, 0.63286817806783, -0.16556118047037, 0
829, 0.61980939929448, -0.17493183885972, 0
830, 0.63139269864873, -0.20751832844953, 0
831, 0.65374376717284, -0.1819490148104, 0
832, 0.68616313638614, -0.16649042728274, 0
833, 0.74758545015167, -0.15345859094499, 0
834, 0.7224815547872, -0.17928533309748, 0
835, 0.2630007063621, -0.11684647614268, 0
836, 0.28180676547252, -0.12009753185848, 0
837, 0.26943578518777, -0.13782877516405, 0
838, 0.3107572025981, -0.1624851619244, 0
839, 0.32098574215409, -0.1493721059545, 0
840, 0.33478842706426, -0.14748221511428, 0
841, 0.52839670894555, -0.25722298342292, 0
842, 0.55178874117727, -0.20282642539086, 0
843, 0.56978030213332, -0.18242882657189, 0
844, 0.42034755015912, 0.26980430276764, 0
845, 0.41614631988903, 0.27134323955198, 0
846, 0.6667675249088, -0.20278393791827, 0
847, 0.6688204268023, -0.17523554519447, 0
848, 0.69131883585902, -0.19397406753555, 0
849, 0.61253458967515, -0.219022694394, 0
850, 0.61951510729582, -0.20609800301124, 0
851, 0.62560358320641, -0.22168515081344, 0
852, 0.21491896040485, -0.13847454591736, 0
853, 0.20987748564598, -0.10219655110189, 0
854, 0.23939272564942, -0.11216000539052, 0
855, 0.66755665524366, -0.14393236381552, 0
856, 0.67958894374802, -0.14705730786817, 0
857, 0.66824886627546, -0.15656493107663, 0
858, 0.21510016555791, 0.22247713247978, 0
859, 0.28827889502512, 0.17346971758935, 0
860, 0.23418717137293, 0.17856339809885, 0
861, 0.54271439827116, -0.19556150098824, 0
862, 0.54330639203665, -0.18902127957714, 0
863, 0.55571037924336, -0.17830481203122, 0
864, 0.69602473106186, -0.12307985123544, 0
865, 0.68924216088706, -0.13249047912319, 0
866, 0.68572854218239, -0.12197742367166, 0
867, 0.14246854345478, -0.017361913863343, 0
868, 0.17327428695675, -0.038450716382709, 0
869, 0.14109217687966, -0.059757251181156, 0
870, 0.43493117028812, -0.19147378173331, 0
871, 0.42296024463104, -0.19044308456127, 0
872, 0.43042246008371, -0.18235999039443, 0
873, 0.74296649541909, 0.1709146827571, 0
874, 0.75072509012386, 0.18825680514244, 0
875, 0.76121260102375, 0.1683303326412, 0
876, 0.29293599525857, 0.17687869605386, 0
877, 0.29532175997484, 0.2686487102301, 0
878, 0.28993369499843, 0.21804760948614, 0
879, 0.71290753900322, 0.20026001346848, 0
880, 0.70276341137106, 0.20062030878691, 0
881, 0.70590901130815, 0.20971163112603, 0
882, 0.24357789799738, 0.19357054216179, 0
883, 0.24041915263922, 0.25901833540878, 0
884, 0.22990363792642, 0.20632555180292, 0
885, 0.2552248396302, 0.18275594806445, 0
886, 0.21746515796977, 0.18795938017636, 0
887, 0.87575279801208, 0.026767940284256, 0
888, 0.8470179621728, 0.04761663268469, 0
889, 0.87628219869222, 0.067730890533297, 0
890, 0.79254682591199, 0.23583993577497, 0
891, 0.79857138857815, 0.19478786083848, 0
892, 0.76519438063694, 0.21014700105827, 0
893, 0.6223220310408, 0.28482996128779, 0
894, 0.61259201059511, 0.27647788999732, 0
895, 0.60944530233027, 0.28718207111948, 0
896, 0.73596835108872, -0.029690931438422, 0
897, 0.74636573222983, -0.026762811352064, 0
898, 0.74216875886132, -0.039693396554738, 0
899, 0.43877697980062, 0.27689546985301, 0
900, 0.4456648619601, 0.27835884003092, 0
901, 0.67777420691608, 0.2480277645147, 0
902, 0.66555485045006, 0.24163058581003, 0
903, 0.66388974633473, 0.25366656333901, 0
904, 0.33512823270416, -0.18824145097481, 0
905, 0.32196236777964, -0.14000859784992, 0
906, 0.33654315057236, -0.16551035498148, 0
907, 0.61315452142685, 0.26767941140993, 0
908, 0.61929392698441, 0.26300173167359, 0
909, 0.6131249094025, 0.26083181532782, 0
910, 0.648534540311, -0.26866603539963, 0
911, 0.62166495258992, -0.26868279301887, 0
912, 0.63439576066556, -0.24874382047561, 0
913, 0.5102344653429, -0.18322081460783, 0
914, 0.51350973359079, -0.18708019034193, 0
915, 0.4970076161845, -0.18487458932795, 0
916, 0.16485828460607, 0.066994950201667, 0
917, 0.13861095932673, 0.041045413364086, 0
918, 0.13122548436377, 0.082216323142181, 0
919, 0.71926380300802, -0.10304257050978, 0
920, 0.7324941210501, -0.10232311111737, 0
921, 0.72580072028312, -0.11491988904887, 0
922, 0.75946678830626, -0.18192654705691, 0
923, 0.72904436558806, -0.19285674360678, 0
924, 0.73099602807003, -0.16858949651079, 0
925, 0.32917292582946, -0.14834820677423, 0
926, 0.32232979331162, -0.160080659476, 0
927, 0.34882052985318, -0.15116197642156, 0
928, 0.74584926074166, 0.13573695584889, 0
929, 0.75022098568879, 0.12346589919686, 0
930, 0.73992506002537, 0.12558715734655, 0
931, 0.59576205186027, 0.28961269728777, 0
932, 0.58893612356849, 0.2831695197252, 0
933, 0.58583953790839, 0.29099491534504, 0
934, 0.26087591630927, -0.081403185222814, 0
935, 0.25262911444939, -0.094086826326522, 0
936, 0.24613780158349, -0.078718827965896, 0
937, 0.75656486277583, -0.069687363656662, 0
938, 0.7469161872888, -0.084748673649516, 0
939, 0.74124591473109, -0.071784688131733, 0
940, 0.64067373679194, 0.24247552572142, 0
941, 0.64028402762151, 0.24822874062586, 0
942, 0.64599111909573, 0.24517614669483, 0
943, 0.46509673369774, 0.28164960710091, 0
944, 0.47153756075377, 0.28232947024781, 0
945, 0.37516507016696, 0.25285847142909, 0
946, 0.38171473803, 0.25370339848605, 0
947, 0.38928609657616, 0.2627076457664, 0
948, 0.64258129468564, -0.14248426210679, 0
949, 0.64820978058593, -0.14567602279721, 0
950, 0.64223404185763, -0.14873829758714, 0
951, 0.33250480614243, 0.22789367880798, 0
952, 0.35167671386531, 0.24888784046516, 0
953, 0.29205047875948, -0.08125464065453, 0
954, 0.28885361506966, -0.074723394468251, 0
955, 0.29566476781, -0.07565089778348, 0
956, 0.67820101623945, 0.21373169815698, 0
957, 0.67328130045615, 0.21265095023162, 0
958, 0.67453006778337, 0.21758299461964, 0
959, 0.5404368410905, 0.28085262765623, 0
960, 0.54725503084354, 0.27983497528692, 0
961, 0.61379395775602, -0.16188816125246, 0
962, 0.61986999340848, -0.16547710479573, 0
963, 0.61312123056726, -0.16927157838357, 0
964, 0.59801209580336, -0.17039012725927, 0
965, 0.60406398026649, -0.174475586855, 0
966, 0.59699746509963, -0.17824246490397, 0
967, 0.38105495719187, -0.17107276189123, 0
968, 0.40016016590237, -0.26920484180994, 0
969, 0.37775902045625, -0.18903200836358, 0
970, 0.67765678983229, -0.11983339540332, 0
971, 0.67306873216358, -0.12513763292477, 0
972, 0.67107069140151, -0.11862391250567, 0
973, 0.28123267269674, 0.18859040501721, 0
974, 0.28891767203652, 0.16469945420436, 0
975, 0.2920421135331, 0.16903580709735, 0
976, 0.39018325045984, 0.27156606834108, 0
977, 0.38573071984253, 0.25367801688833, 0
978, 0.34083520044743, 0.26272236849369, 0
979, 0.34592028866389, 0.24388353033363, 0
980, 0.73669131586642, 0.080411418725772, 0
981, 0.74159589223949, 0.083946949479777, 0
982, 0.74178199683298, 0.077387790368153, 0
983, 0.49581494209026, -0.19689862478681, 0
984, 0.48582102887283, -0.18815707362793, 0
985, 0.52243089442864, -0.19848526205258, 0
986, 0.48749104756417, -0.18392862513593, 0
987, 0.42910984086906, -0.22123419576067, 0
988, 0.70487546623388, 0.18310477105437, 0
989, 0.70785884843092, 0.17671626655291, 0
990, 0.70153936236905, 0.17797108584326, 0
991, 0.37876764000132, -0.16180848405803, 0
992, 0.37215243912751, -0.15830918707172, 0
993, 0.37777441931746, -0.15524358530396, 0
994, 0.35312189504512, 0.23345617411343, 0
995, 0.34383604587598, 0.22668335457299, 0
996, 0.33831121709025, 0.24799881842837, 0
997, 0.26300130542473, 0.023503356982635, 0
998, 0.25844391028586, 0.020113048000621, 0
999, 0.25796464320439, 0.026179529031994, 0
1000, 0.2678116113499, -0.027440130132497, 0
1001, 0.27409264600528, -0.028723225571193, 0
1002, 0.27038094590182, -0.033937869397957, 0
1003, 0.29756793413131, 0.20880044091527, 0
1004, 0.32170481442796, 0.22674834630157, 0
1005, 0.36308997103901, -0.15242668826577, 0
1006, 0.35691949388398, -0.14813926833857, 0
1007, 0.36289666638538, -0.14572887182091, 0
1008, 0.70461019797288, -0.082440359585609, 0
1009, 0.7013123721609, -0.088549026672287, 0
1010, 0.69811170022866, -0.083470021354086, 0
1011, 0.70352368002019, -0.11161338741026, 0
1012, 0.69962861320125, -0.10415095671725, 0
1013, 0.7083151103013, -0.1035152095735, 0
1014, 0.77399502673689, -0.013583457734775, 0
1015, 0.7628507094218, -0.0024669985370285, 0
1016, 0.77722329623882, 0.0041430290559554, 0
1017, 0.26112401204703, 0.10516386732032, 0
1018, 0.26612298559542, 0.10069578073574, 0
1019, 0.259967967974, 0.097497764231173, 0
1020, 0.38818221486253, -0.16644967981828, 0
1021, 0.39328482192015, -0.1631372629557, 0
1022, 0.39471858555407, -0.16920233886736, 0
1023, 0.41094635449032, -0.17465596191402, 0
1024, 0.40427677195412, -0.17287500372752, 0
1025, 0.4089099042934, -0.16935470633309, 0
1026, 0.28320392296482, -0.098419362117031, 0
1027, 0.29301438995516, -0.09873978610028, 0
1028, 0.28878072546369, -0.10750799896034, 0
1029, 0.51504530894601, 0.28341888524452, 0
1030, 0.52142797760556, 0.2830496839157, 0
1031, 0.26539152479487, 0.19395111391275, 0
1032, 0.30208667818476, 0.18352325159926, 0
1033, 0.74399700186335, 0.032036644607355, 0
1034, 0.73891481938931, 0.036115414180144, 0
1035, 0.74479883294424, 0.03936702309433, 0
1036, 0.49014513324745, 0.28368386007855, 0
1037, 0.49643908520614, 0.28383038282447, 0
1038, 0.27398471924128, -0.043155832739725, 0
1039, 0.28033926815968, -0.044466363250897, 0
1040, 0.27672529753427, -0.04983707428627, 0
1041, 0.73221797005538, -0.022006239965053, 0
1042, 0.72902138536149, -0.016550604112776, 0
1043, 0.73494093413303, -0.015588877347817, 0
1044, 0.28095151413901, -0.059087855407325, 0
1045, 0.28754577485625, -0.060146324438563, 0
1046, 0.28411838623001, -0.06571402302225, 0
1047, 0.66461984289259, 0.23244309170923, 0
1048, 0.66983320420748, 0.22590546552561, 0
1049, 0.66292348105014, 0.22545223669221, 0
1050, 0.73824939120565, 0.064155410224645, 0
1051, 0.74270165652341, 0.068191284316244, 0
1052, 0.74385444846806, 0.061525163089057, 0
1053, 0.26478987050401, 0.12351377848036, 0
1054, 0.26981725824018, 0.1182676111358, 0
1055, 0.26319636182049, 0.1157467702257, 0
1056, 0.79434751550271, 0.12576998750725, 0
1057, 0.81249521498871, 0.1451495959812, 0
1058, 0.81751305660187, 0.11477252097648, 0
1059, 0.80648529749969, -0.048974972766946, 0
1060, 0.78786174590906, -0.0284314461606, 0
1061, 0.81228615730117, -0.016925388858145, 0
1062, 0.24863392819345, -0.011907703738355, 0
1063, 0.25650705656774, -0.014980292313683, 0
1064, 0.25054270393207, -0.021255369829553, 0
1065, 0.29700830232438, 0.18379469864958, 0
1066, 0.72814459477886, 0.17232403849555, 0
1067, 0.71628314934159, 0.17442951497071, 0
1068, 0.72130558719427, 0.1843746177865, 0
1069, 0.33453295399163, -0.13637972595313, 0
1070, 0.32871403880272, -0.13428560148287, 0
1071, 0.33344175681046, -0.13114563189509, 0
1072, 0.31924412893761, -0.13060903229113, 0
1073, 0.31116147875653, -0.12748092463229, 0
1074, 0.31806621081658, -0.12312955380834, 0
1075, 0.2465327751847, 0.00065092001811162, 0
1076, 0.24568199593472, 0.0098939024590913, 0
1077, 0.25287869866113, 0.005752927960488, 0
1078, 0.2452337406881, 0.023193235216235, 0
1079, 0.24412568885716, 0.032618801769697, 0
1080, 0.25169635935343, 0.02889204963484, 0
1081, 0.23821462455686, -0.057957311827184, 0
1082, 0.2334735004042, -0.04273724584703, 0
1083, 0.24715293934625, -0.046932607215936, 0
1084, 0.57898372587545, 0.27473639404864, 0
1085, 0.5777301339575, 0.28001477039162, 0
1086, 0.58356329640087, 0.2782311644221, 0
1087, 0.56383674735538, 0.28131461315612, 0
1088, 0.56564989504238, 0.28810779551935, 0
1089, 0.56978456611841, 0.28330679846601, 0
1090, 0.22360009995092, 0.050130297225589, 0
1091, 0.22219224996011, 0.064833832397315, 0
1092, 0.23361042500965, 0.058312459373402, 0
1093, 0.24297530240975, 0.044961402817175, 0
1094, 0.24239826584893, 0.053522588591418, 0
1095, 0.24909103826151, 0.049473652877144, 0
1096, 0.74816585431336, 0.073466058053029, 0
1097, 0.75597043376359, 0.080316111556544, 0
1098, 0.75729034006337, 0.068690715947507, 0
1099, 0.76924730299564, 0.064118109445456, 0
1100, 0.7814577702516, 0.076140124416064, 0
1101, 0.78382945672972, 0.057239025249789, 0
1102, 0.64744860364677, 0.25961717214572, 0
1103, 0.63976798035259, 0.25485155029223, 0
1104, 0.63780111906159, 0.26258208677932, 0
1105, 0.38707713768231, -0.18150780055271, 0
1106, 0.40392550713654, -0.24077726626767, 0
1107, 0.19396114495023, -0.00058021998413318, 0
1108, 0.21147862044916, -0.010149681576532, 0
1109, 0.19577967546504, -0.022992069848887, 0
1110, 0.61047896199863, -0.25042892784884, 0
1111, 0.60849579078009, -0.2340802789858, 0
1112, 0.6213988380593, -0.23865229796133, 0
1113, 0.75437077881818, 0.10741855825958, 0
1114, 0.75586415510116, 0.0963640978511, 0
1115, 0.74750802355866, 0.10062035049702, 0
1116, 0.20945855414733, 0.041982765307708, 0
1117, 0.19225482896586, 0.030679946866556, 0
1118, 0.19112548408993, 0.054620832268275, 0
1119, 0.23743405734061, 0.13556149222053, 0
1120, 0.22292929233582, 0.12910142543435, 0
1121, 0.22611752372748, 0.1478784027663, 0
1122, 0.22075415382801, 0.103587167897, 0
1123, 0.23247854356257, 0.094473758401247, 0
1124, 0.22061141485909, 0.086825305301929, 0
1125, 0.30104357158896, 0.1765397900671, 0
1126, 0.32256579241004, 0.21448930926243, 0
1127, 0.31731712415376, 0.20647344876778, 0
1128, 0.35774272043492, 0.25261617729972, 0
1129, 0.87588859007681, -0.2150272895268, 0
1130, 0.91871933544701, -0.25752433847482, 0
1131, 0.83770553014304, -0.25800028405101, 0
1132, 0.87808136872884, -0.25764052231508, 0
1133, 0.12564582525328, -0.2138496150091, 0
1134, 0.16304921051014, -0.25621422631254, 0
1135, 0.081793057070446, -0.25725174946349, 0
1136, 0.12256411102305, -0.25684232628097, 0
1137, 0.49317862118057, 0.29417269792819, 0
1138, 0.5054457894296, 0.29454362295703, 0
1139, 0.49990806230281, 0.2890813136779, 0
1140, 0.49944324279789, 0.29445393145543, 0
1141, 0.04984560534983, -0.040903205623444, 0
1142, 0.048286857668211, 0.050166291570157, 0
1143, 0.097403447904714, 0.0084824070685121, 0
1144, 0.048928673410866, 0.0046779977253106, 0
1145, 0.95783924146636, -0.12857874956385, 0
1146, 0.91598347939892, -0.084695961555934, 0
1147, 0.95789991791663, -0.041655450682672, 0
1148, 0.95793358066194, -0.085052546123147, 0
1149, 0.9557872565522, 0.046490360379577, 0
1150, 0.91532705036947, 0.00019740900437568, 0
1151, 0.95726717564263, 0.0018870401232201, 0
1152, 0.094220799002442, -0.086469838351081, 0
1153, 0.04506339530228, -0.12938145795565, 0
1154, 0.047192902248262, -0.085796164063104, 0
1155, 0.9585525976106, 0.13347834404158, 0
1156, 0.91620109077991, 0.093046312232796, 0
1157, 0.95764601069044, 0.090733104072908, 0
1158, 0.72396865897505, -0.018568773259279, 0
1159, 0.72656532916615, -0.010750212175846, 0
1160, 0.72522247808786, -0.014656249846564, 0
1161, 0.26831589438005, 0.011347754566831, 0
1162, 0.26300928697617, 0.015490593506356, 0
1163, 0.26747043667348, 0.019780917273722, 0
1164, 0.26783502415013, 0.015615764130463, 0
1165, 0.47989984096151, -0.27133602270349, 0
1166, 0.50765985302477, -0.24526690893205, 0
1167, 0.50432771350553, -0.26854322671044, 0
1168, 0.68939411564703, -0.098678444827501, 0
1169, 0.68191744779633, -0.099387397078613, 0
1170, 0.68717608705389, -0.092388169843682, 0
1171, 0.68460674912781, -0.095914763625347, 0
1172, 0.26506643357477, 0.044969845363424, 0
1173, 0.25974488370091, 0.049482666604653, 0
1174, 0.26493774636031, 0.053799642373776, 0
1175, 0.26494826889753, 0.049369041158849, 0
1176, 0.70032708257237, -0.071071270048562, 0
1177, 0.70270046144655, -0.076317764711573, 0
1178, 0.69615647264243, -0.078350778604022, 0
1179, 0.69833495416013, -0.074775342964536, 0
1180, 0.61529809864848, -0.15511036840936, 0
1181, 0.60774882989056, -0.15927875606899, 0
1182, 0.61151207881144, -0.15717858709469, 0
1183, 0.70813747496649, -0.063725506485267, 0
1184, 0.70335775513006, -0.064137624201203, 0
1185, 0.70793163343438, -0.05782416396354, 0
1186, 0.7054825710997, -0.061224584790947, 0
1187, 0.69960433204998, 0.17276033843865, 0
1188, 0.69542225855553, 0.18001701945987, 0
1189, 0.69748317441154, 0.17635318196891, 0
1190, 0.66243449190445, 0.21921425832216, 0
1191, 0.66878068504129, 0.21893590328683, 0
1192, 0.66798666695529, 0.21303332268021, 0
1193, 0.6652958025025, 0.21612007992109, 0
1194, 0.41614411558478, -0.17176813754127, 0
1195, 0.41380242246795, -0.16721683649609, 0
1196, 0.42084300533834, -0.16982869257444, 0
1197, 0.41746238053132, -0.16851350790294, 0
1198, 0.48650895874671, 0.28885153093496, 0
1199, 0.48080051561468, 0.2943290071446, 0
1200, 0.48687007198498, 0.29434337075351, 0
1201, 0.28980389765663, -0.054467023250079, 0
1202, 0.28336131637062, -0.05254622926671, 0
1203, 0.28614534871405, -0.046655463343682, 0
1204, 0.2879017536851, -0.050591313452992, 0
1205, 0.30423931367511, -0.092082188871374, 0
1206, 0.30688419858005, -0.085123870893682, 0
1207, 0.31202590847694, -0.09252907500513, 0
1208, 0.3093916451814, -0.088860644775405, 0
1209, 0.69074726263611, 0.18747562179729, 0
1210, 0.69792086436641, 0.18593555067486, 0
1211, 0.69318446069047, 0.18375457955144, 0
1212, 0.38298076798656, 0.25155652347722, 0
1213, 0.36963850023194, 0.25689341071765, 0
1214, 0.37960482438225, 0.25723421265236, 0
1215, 0.37613273414187, 0.24867407431511, 0
1216, 0.38526120774185, -0.15985195831919, 0
1217, 0.38333568415091, -0.15341085653479, 0
1218, 0.39099551120098, -0.15749319052086, 0
1219, 0.38712895414209, -0.15553559351395, 0
1220, 0.70593333769141, 0.17053237811523, 0
1221, 0.7036336587966, 0.16521983554478, 0
1222, 0.70171233001171, 0.16904334963474, 0
1223, 0.2828361129199, -0.038898725225357, 0
1224, 0.28451842808733, -0.042754664694551, 0
1225, 0.67033541634074, -0.11221791884645, 0
1226, 0.66447887883994, -0.11833360212409, 0
1227, 0.66738440679435, -0.11521598231922, 0
1228, 0.708669016706, 0.1622944582438, 0
1229, 0.70654306581222, 0.15817492879608, 0
1230, 0.70520751290962, 0.1614920269515, 0
1231, 0.60624739142575, -0.16658681497782, 0
1232, 0.59996689713447, -0.16331610985846, 0
1233, 0.60390291235956, -0.16134761531555, 0
1234, 0.60688571137022, 0.25915712296194, 0
1235, 0.61424437338785, 0.25483419081378, 0
1236, 0.61060280671751, 0.25695725336966, 0
1237, 0.31123500500698, 0.19063504685549, 0
1238, 0.31733928174939, 0.19859920874062, 0
1239, 0.31415468817992, 0.19473009047349, 0
1240, 0.40626082873689, -0.16442423851809, 0
1241, 0.40088660276028, -0.16697126017392, 0
1242, 0.39852544364514, -0.16108990083393, 0
1243, 0.4023614901764, -0.16284875632668, 0
1244, 0.26663879514238, 0.027800896498008, 0
1245, 0.26713737141707, 0.023801989629058, 0
1246, 0.36868155660559, -0.14439261006995, 0
1247, 0.36182117410927, -0.13954707270098, 0
1248, 0.36527085687221, -0.14195179625573, 0
1249, 0.71541678925457, 0.1434954833626, 0
1250, 0.72205304105127, 0.14050905430482, 0
1251, 0.71850225198509, 0.13466623373873, 0
1252, 0.71715415052495, 0.13906995677927, 0
1253, 0.33005527730235, -0.1122883702376, 0
1254, 0.32374309357642, -0.11372580278211, 0
1255, 0.32378747358933, -0.10624059222473, 0
1256, 0.32690745740151, -0.10932270133728, 0
1257, 0.37594764074815, -0.14911348841052, 0
1258, 0.37966112718334, -0.15124084145403, 0
1259, 0.71123998582966, 0.15779462874483, 0
1260, 0.71101975767503, 0.15174837808147, 0
1261, 0.70863396329444, 0.15521772414062, 0
1262, 0.26098844688364, 0.068963548142713, 0
1263, 0.26664502276519, 0.071777030917337, 0
1264, 0.26534944880817, 0.062821966084662, 0
1265, 0.26586606582825, 0.067365085335985, 0
1266, 0.73320520613121, 0.023244105790383, 0
1267, 0.73725929691405, 0.018262031162176, 0
1268, 0.73196092452302, 0.014739898159751, 0
1269, 0.7325986301288, 0.018953662794932, 0
1270, 0.47216330826617, -0.18235028342208, 0
1271, 0.46763033617796, -0.18674553101138, 0
1272, 0.46300437821784, -0.18128603799571, 0
1273, 0.46759590542934, -0.18203407041353, 0
1274, 0.73467346185023, 0.040804105058599, 0
1275, 0.7340543201876, 0.03202187131517, 0
1276, 0.7343153767539, 0.036385512929228, 0
1277, 0.63607443591674, -0.14732056872802, 0
1278, 0.62990562623857, -0.14570856306144, 0
1279, 0.63682720137362, -0.14081206077883, 0
1280, 0.6333931986813, -0.14325870346394, 0
1281, 0.34893450830256, -0.13429944283844, 0
1282, 0.34874128739572, -0.12846090383244, 0
1283, 0.35498909734706, -0.13415512554186, 0
1284, 0.35179333018643, -0.13126227694026, 0
1285, 0.042108224292017, 0.13654431833427, 0
1286, 0.087282924869345, 0.10116516092968, 0
1287, 0.044575179116933, 0.094276185263921, 0
1288, 0.7175490628283, 0.15061918941772, 0
1289, 0.71334193133947, 0.14777770024211, 0
1290, 0.41088124326054, 0.27150197304148, 0
1291, 0.41508182544214, 0.26745899000124, 0
1292, 0.40602009025437, 0.26527643277583, 0
1293, 0.41072174603072, 0.26666609748696, 0
1294, 0.26857886228826, 0.07940777192439, 0
1295, 0.2649925836984, 0.082665597172348, 0
1296, 0.26878483021851, 0.087286961534251, 0
1297, 0.26865752352079, 0.083095225253781, 0
1298, 0.26751219786221, -0.011996032621523, 0
1299, 0.27157154351399, -0.0061836238402517, 0
1300, 0.27398672129521, -0.01488921388942, 0
1301, 0.2727177232093, -0.01056539149416, 0
1302, 0.38568384896778, 0.25918956229252, 0
1303, 0.36925264277063, 0.26317494077951, 0
1304, 0.72319440872619, 0.1308961476896, 0
1305, 0.72029356356414, 0.12691631733246, 0
1306, 0.71946466650106, 0.13052223406982, 0
1307, 0.3994396994876, 0.2687367671785, 0
1308, 0.3722277147882, 0.24684638846925, 0
1309, 0.4013199660539, 0.26344418017902, 0
1310, 0.55564469343925, -0.19594520929243, 0
1311, 0.58025390527116, -0.17956895141289, 0
1312, 0.55806268614914, -0.20585939075457, 0
1313, 0.56037951210121, -0.22016511890602, 0
1314, 0.679533800828, 0.20130686653735, 0
1315, 0.68636298811771, 0.20166809995958, 0
1316, 0.68539877671073, 0.19465110084683, 0
1317, 0.68252117984223, 0.19805775100797, 0
1318, 0.27686151156993, -0.023183702002971, 0
1319, 0.27973859585795, -0.031010696780689, 0
1320, 0.27834916978966, -0.027093270843326, 0
1321, 0.33332681512456, 0.21485907614298, 0
1322, 0.35666108162049, 0.23669851215116, 0
1323, 0.73601822175235, 0.0098216512212495, 0
1324, 0.73069001517619, 0.0062849407576891, 0
1325, 0.7313459366433, 0.010541227749854, 0
1326, 0.41008672301518, -0.16580863691542, 0
1327, 0.47497615791326, 0.28829775986966, 0
1328, 0.46823933181062, 0.29356369857287, 0
1329, 0.47468145506531, 0.29406453136979, 0
1330, 0.45208438561305, -0.18365862044386, 0
1331, 0.44690565094639, -0.17909680923594, 0
1332, 0.45508047369318, -0.17935217084475, 0
1333, 0.45125112213358, -0.17928574821983, 0
1334, 0.26524751464416, -0.002747302131941, 0
1335, 0.26967162275832, 0.0026539177627406, 0
1336, 0.27055377790978, -0.0017649319751555, 0
1337, 0.28420353355044, 0.150099263468, 0
1338, 0.28939425986703, 0.1531496233996, 0
1339, 0.28684447193057, 0.14557952346121, 0
1340, 0.288044468386, 0.1491139583825, 0
1341, 0.30652328058446, 0.18230045502552, 0
1342, 0.3032397878936, 0.17514651898471, 0
1343, 0.30477310470841, 0.17844950961523, 0
1344, 0.30867516010526, 0.18643893454767, 0
1345, 0.42795836805951, -0.17451672022716, 0
1346, 0.43748176066905, -0.17754376950399, 0
1347, 0.43271749394055, -0.17620482579581, 0
1348, 0.56032761629851, -0.17766507327679, 0
1349, 0.53229503937373, -0.18584586997331, 0
1350, 0.54106716834841, -0.204756834402, 0
1351, 0.54898041273662, -0.18745506552676, 0
1352, 0.51790244129067, 0.29400027772563, 0
1353, 0.51134660875633, 0.28893199149825, 0
1354, 0.51151071295462, 0.29438846102583, 0
1355, 0.34512818808454, 0.23104980026546, 0
1356, 0.34384065954394, 0.22303863036429, 0
1357, 0.33670972473078, 0.21807150707618, 0
1358, 0.26421624488119, 0.077436753017461, 0
1359, 0.26764730266264, 0.075844863589386, 0
1360, 0.72500455530913, 0.12588580245637, 0
1361, 0.72378571914132, 0.11981333936164, 0
1362, 0.72194445583702, 0.12360513917388, 0
1363, 0.28639910868259, 0.15977679263698, 0
1364, 0.29331235566469, 0.16162567002323, 0
1365, 0.29115646371513, 0.15741483513893, 0
1366, 0.42044426196049, -0.17515890368663, 0
1367, 0.42400582976475, -0.17204257932232, 0
1368, 0.27167168229937, 0.12769049639775, 0
1369, 0.27870776554336, 0.13033242379736, 0
1370, 0.27580670688083, 0.12132026692008, 0
1371, 0.2771229849805, 0.12580874029575, 0
1372, 0.69267025521246, 0.1941317585195, 0
1373, 0.68814509720826, 0.19111444617386, 0
1374, 0.29542455316721, 0.17254394747433, 0
1375, 0.32401463440196, 0.20541693956767, 0
1376, 0.32067329620767, 0.20216692126667, 0
1377, 0.95831823010686, 0.21736641612587, 0
1378, 0.91775144906697, 0.17572235295018, 0
1379, 0.9586627700633, 0.17551833085858, 0
1380, 0.36824310138597, 0.24471506394764, 0
1381, 0.34634001589827, 0.25484682221839, 0
1382, 0.52278769058881, -0.18308688049469, 0
1383, 0.5028366819258, -0.18981017476818, 0
1384, 0.50190724776549, -0.18466000226064, 0
1385, 0.53071656666878, 0.29399030872193, 0
1386, 0.52496170573106, 0.28830657494829, 0
1387, 0.52439379778528, 0.29407464208249, 0
1388, 0.44201651923031, -0.18482985966395, 0
1389, 0.44224755894872, -0.17852306693153, 0
1390, 0.27668348817519, -0.036770853817231, 0
1391, 0.28121994662447, -0.034973339389116, 0
1392, 0.31670004207413, -0.10743413036619, 0
1393, 0.31769262361489, -0.099626291189465, 0
1394, 0.32070169240055, -0.10300510788323, 0
1395, 0.7055309068895, -0.068230365415031, 0
1396, 0.70197124172388, -0.06741811599976, 0
1397, 0.71763891844433, -0.033514274394773, 0
1398, 0.72044613674278, -0.037206732484938, 0
1399, 0.7157988475055, -0.041028455744416, 0
1400, 0.71681789518113, -0.037003267349087, 0
1401, 0.72100932364691, -0.026602802966886, 0
1402, 0.72210344002212, -0.032322681277288, 0
1403, 0.7192443241777, -0.030298611914469, 0
1404, 0.73291417397516, 0.076086646483889, 0
1405, 0.73782286099249, 0.072371740229189, 0
1406, 0.73370054508894, 0.067809449303923, 0
1407, 0.73335245453949, 0.071963364858051, 0
1408, 0.31004556970877, -0.10010094423034, 0
1409, 0.31479574782408, -0.096126340593789, 0
1410, 0.48286497559376, -0.19237852865817, 0
1411, 0.51466632421133, -0.19867977326231, 0
1412, 0.50277652119153, -0.20612781487423, 0
1413, 0.49210018950695, -0.18459804285577, 0
1414, 0.691856426902, -0.085301775978235, 0
1415, 0.69397616746298, -0.081801485106635, 0
1416, 0.26992784118977, 0.09602205856355, 0
1417, 0.27151568411342, 0.10437294123416, 0
1418, 0.27074377110984, 0.10020366978687, 0
1419, 0.29367082747803, -0.062100966954257, 0
1420, 0.29176065481801, -0.058255880580379, 0
1421, 0.72707023113799, 0.11113040698642, 0
1422, 0.73363425185555, 0.10853301037196, 0
1423, 0.72952621445701, 0.10189748727086, 0
1424, 0.72840539801559, 0.10653111295016, 0
1425, 0.33642230790968, -0.11793720871098, 0
1426, 0.33066570837896, -0.11924396662702, 0
1427, 0.33323940210832, -0.11516513053874, 0
1428, 0.62170933367126, -0.15777808453933, 0
1429, 0.62278236096017, -0.15058657267768, 0
1430, 0.6190746700974, -0.15292015165055, 0
1431, 0.26729055282512, 0.10955589231369, 0
1432, 0.27349780380238, 0.11280784606497, 0
1433, 0.2724249209949, 0.10859457435972, 0
1434, 0.73117110311608, 0.092842384425538, 0
1435, 0.73677813145264, 0.088844428311752, 0
1436, 0.73211683167286, 0.084228751618759, 0
1437, 0.73172004261232, 0.08847077825072, 0
1438, 0.68369587842838, -0.10611442192583, 0
1439, 0.67625672106501, -0.1060255126901, 0
1440, 0.67913292425758, -0.10276052473271, 0
1441, 0.39479236392513, -0.15926591361814, 0
1442, 0.58987546552196, 0.2669928191759, 0
1443, 0.59633997655882, 0.27019893357892, 0
1444, 0.59872235223917, 0.26338822407674, 0
1445, 0.59432207593074, 0.2652956987569, 0
1446, 0.59199034391187, -0.16714767903029, 0
1447, 0.59598559594963, -0.16519811532686, 0
1448, 0.28267560573849, 0.1387974532034, 0
1449, 0.28175439400744, 0.14511631383765, 0
1450, 0.28487205528492, 0.14241133441112, 0
1451, 0.62715201881403, 0.25182614767903, 0
1452, 0.62822870002609, 0.24603757502153, 0
1453, 0.62130528701039, 0.25045057040322, 0
1454, 0.6247622342436, 0.24826535019087, 0
1455, 0.58940239038155, -0.19356465184204, 0
1456, 0.55041039833937, -0.18320257464667, 0
1457, 0.3191115391119, 0.21367814486141, 0
1458, 0.35182062806814, 0.24020646818856, 0
1459, 0.25977366289694, 0.059046081888674, 0
1460, 0.26505763089213, 0.058288611559167, 0
1461, 0.7348618886054, 0.00072661755767428, 0
1462, 0.72897234272853, -0.0023689880201167, 0
1463, 0.7299153085431, 0.0019636988813045, 0
1464, 0.45785282954921, -0.18407166833681, 0
1465, 0.45878881592377, -0.18024907870726, 0
1466, 0.73245177865723, 0.080132761967664, 0
1467, 0.26375800806727, 0.0065058795163613, 0
1468, 0.26892960950387, 0.0070206642845208, 0
1469, 0.29837348906097, 0.16919471779037, 0
1470, 0.2957584713751, 0.16558823782079, 0
1471, 0.65814300262183, -0.12477229314762, 0
1472, 0.65847089759498, -0.13265092237886, 0
1473, 0.65099094226657, -0.13090507946679, 0
1474, 0.65463541883301, -0.1279270302136, 0
1475, 0.72998308018664, 0.1182630938984, 0
1476, 0.72552399808648, 0.11559223869278, 0
1477, 0.51786760451239, -0.18764685030165, 0
1478, 0.26565265395943, 0.03621669691198, 0
1479, 0.26026375519924, 0.040219466148326, 0
1480, 0.26529945693865, 0.040572714415072, 0
1481, 0.73864356780555, 0.027264815421246, 0
1482, 0.73370362016266, 0.027625695068372, 0
1483, 0.58990861753009, -0.1751965625736, 0
1484, 0.57375412319626, -0.20837025091322, 0
1485, 0.58787072060776, -0.16911030670791, 0
1486, 0.67735228389605, -0.11286393995075, 0
1487, 0.67330908560648, -0.10917621924534, 0
1488, 0.51829506230127, -0.18334793018956, 0
1489, 0.35633810379283, 0.24398304830506, 0
1490, 0.62032540240692, 0.25638068988041, 0
1491, 0.61781534540963, 0.25265702636761, 0
1492, 0.63514978754811, 0.24131616174296, 0
1493, 0.64203954271493, 0.23664643586515, 0
1494, 0.63852274915952, 0.23894380438336, 0
1495, 0.39395743160676, 0.26606651428261, 0
1496, 0.39678934105627, 0.2612449177956, 0
1497, 0.26439077488965, 0.091749467354857, 0
1498, 0.26922205289191, 0.091677278084511, 0
1499, 0.5645460135923, -0.18319232654652, 0
1500, 0.57533266549442, -0.18885925804177, 0
1501, 0.55130605571077, -0.17874273456929, 0
1502, 0.33730399191751, -0.12416033341097, 0
1503, 0.34266914940653, -0.12321919219922, 0
1504, 0.33956888484744, -0.12060728644392, 0
1505, 0.3433919317542, -0.12888091239732, 0
1506, 0.34572175690306, -0.12581353516586, 0
1507, 0.27051244178831, -0.020935537148986, 0
1508, 0.27537692489512, -0.019108582067168, 0
1509, 0.26147976814434, 0.031318512984605, 0
1510, 0.26611365959278, 0.031945367914702, 0
1511, 0.65631693911785, 0.22536632614761, 0
1512, 0.65942300676211, 0.2222596695615, 0
1513, 0.69435640429886, -0.090975028734254, 0
1514, 0.68959439509588, -0.088847379923233, 0
1515, 0.48198431220685, -0.18636893256094, 0
1516, 0.47992341045175, -0.18225600368551, 0
1517, 0.48341959300766, -0.18304655690506, 0
1518, 0.29793421030844, -0.069875502637044, 0
1519, 0.30227185353191, -0.077473095495403, 0
1520, 0.30014107649532, -0.073647766086041, 0
1521, 0.36989747138929, -0.15110109801284, 0
1522, 0.37225122804006, -0.14682244283512, 0
1523, 0.62921574855315, -0.15245234638108, 0
1524, 0.62638810783926, -0.14815972627289, 0
1525, 0.64371542556627, -0.13610053720265, 0
1526, 0.64021010757788, -0.13842331161059, 0
1527, 0.60040884991786, -0.24380479382636, 0
1528, 0.53975825231146, -0.19186385730822, 0
1529, 0.52724261446957, -0.182553753546, 0
1530, 0.30097011880605, 0.17236577348792, 0
1531, 0.63419143895142, 0.24726231758686, 0
1532, 0.63171765864271, 0.24370649642699, 0
1533, 0.29110128362014, -0.068149262042071, 0
1534, 0.29573678888417, -0.066017068016724, 0
1535, 0.64935901022262, 0.23143135082445, 0
1536, 0.65648450539994, 0.23245141916434, 0
1537, 0.65293858825536, 0.22846827571565, 0
1538, 0.35546747011304, -0.14078616902049, 0
1539, 0.35835163211619, -0.13694672044104, 0
1540, 0.29932272668563, -0.083740905494165, 0
1541, 0.30450454636817, -0.081312396349831, 0
1542, 0.67346568983542, 0.20727278934813, 0
1543, 0.67062445094749, 0.21006705788596, 0
1544, 0.73247802568936, -0.0085959400653649, 0
1545, 0.72784675887311, -0.0066336658034317, 0
1546, 0.67940283000858, 0.20791136105033, 0
1547, 0.67647622978837, 0.20438496666083, 0
1548, 0.71251351366558, -0.049710173569376, 0
1549, 0.71458916843846, -0.056543310721299, 0
1550, 0.71034074520902, -0.053922002331163, 0
1551, 0.71920176219626, -0.046564276286996, 0
1552, 0.71435519545169, -0.045353946127803, 0
1553, 0.082812027940729, 0.26032186442921, 0
1554, 0.041205525515453, 0.218749259571, 0
1555, 0.041510516358794, 0.25946408227763, 0
1556, 0.20803965722001, -0.21034348557898, 0
1557, 0.24198148919568, -0.2540325327111, 0
1558, 0.20288819524612, -0.2552998171393, 0
1559, 0.32721539716493, 0.20844990769357, 0
1560, 0.53649158057441, -0.18460257567547, 0
1561, 0.55317345070764, -0.1886594535847, 0
1562, 0.27573968570677, 0.13769784943926, 0
1563, 0.28057010773266, 0.13471042533224, 0
1564, 0.79410344097714, -0.21717501522342, 0
1565, 0.75977793644412, -0.25913458120602, 0
1566, 0.79817525857209, -0.25858169742114, 0
1567, 0.73580242124531, 0.098496973413916, 0
1568, 0.73043998029838, 0.097334946039032, 0
1569, 0.38316295510372, 0.25601670077946, 0
1570, 0.73500458268922, 0.050175951027522, 0
1571, 0.74018732138824, 0.045267486878442, 0
1572, 0.73494427666751, 0.0454331902189, 0
1573, 0.46125807793038, 0.28719069569087, 0
1574, 0.45505164864654, 0.29330634883843, 0
1575, 0.4616049405102, 0.29351554757059, 0
1576, 0.31325233618275, 0.20282589790326, 0
1577, 0.27466799710771, 0.11701248448949, 0
1578, 0.47691091882988, -0.18578238186201, 0
1579, 0.47633115924698, -0.18231718009051, 0
1580, 0.64835083641337, 0.23846027935026, 0
1581, 0.6456922354936, 0.23416302188116, 0
1582, 0.72643352584788, -0.024738895780306, 0
1583, 0.72259696036335, -0.02260557885445, 0
1584, 0.54562789513875, -0.18616907785761, 0
1585, 0.54660146760113, -0.18282043723459, 0
1586, 0.91603205832368, 0.25882833629399, 0
1587, 0.95793146531731, 0.25878207383017, 0
1588, 0.73990094140026, 0.055451776224474, 0
1589, 0.73444220954818, 0.059440217979163, 0
1590, 0.73482188276132, 0.054897060017981, 0
1591, 0.87453876165748, 0.2172095878856, 0
1592, 0.83413149446893, 0.26096001102873, 0
1593, 0.8748239045178, 0.25925512871207, 0
1594, 0.54420222131882, 0.29303497201251, 0
1595, 0.55892266824703, 0.29305027257762, 0
1596, 0.55190800604921, 0.28592540877822, 0
1597, 0.55156569910586, 0.29300109236523, 0
1598, 0.95873339219591, -0.21502914919616, 0
1599, 0.95937257216993, -0.25760851108867, 0
1600, 0.73400508032609, 0.063672079751851, 0
1601, 0.12328252988735, 0.22154434777326, 0
1602, 0.16334167386817, 0.2642036196703, 0
1603, 0.12344789970377, 0.26151484103018, 0
1604, 0.65030489914759, -0.13846051988077, 0
1605, 0.64733694386261, -0.13361905230793, 0
1606, 0.42399248457775, 0.29132383605285, 0
1607, 0.42382193080582, 0.27254534736996, 0
1608, 0.40549388132504, 0.29170020155755, 0
1609, 0.41473222335233, 0.2916958225968, 0
1610, 0.53696416015985, 0.28742822398621, 0
1611, 0.53723557487268, 0.29364087334151, 0
1612, 0.04203669774051, -0.2151224372463, 0
1613, 0.040915234826346, -0.25760054249937, 0
1614, 0.44878037308134, 0.28580969467373, 0
1615, 0.44084028236502, 0.29199915714985, 0
1616, 0.44821469317656, 0.29280151264913, 0
1617, 0.58702344840868, 0.27296954177071, 0
1618, 0.58137331961405, 0.26977515560715, 0
1619, 0.58554354928723, 0.26846553879317, 0
1620, 0.60552798082153, 0.26596537807923, 0
1621, 0.60291266292359, 0.26133257693599, 0
1622, 0.48698767218852, -0.21370358399632, 0
1623, 0.45395924637136, -0.27087146979077, 0
1624, 0.66559850513138, -0.12557334082281, 0
1625, 0.66141857090536, -0.1215526862107, 0
1626, 0.71882148135309, -0.22487357686987, 0
1627, 0.69427070108184, -0.2642783269903, 0
1628, 0.72509359672581, -0.26199644743865, 0
1629, 0.64483987557054, 0.28499497420664, 0
1630, 0.63255759660429, 0.27300835081595, 0
1631, 0.63258751373089, 0.28557853378174, 0
1632, 0.43290350617008, 0.28345386842804, 0
1633, 0.43270988023765, 0.29170365947178, 0
1634, 0.28547918655095, -0.21186906238171, 0
1635, 0.31132108420826, -0.25829666329367, 0
1636, 0.27783023114349, -0.25598725706756, 0
1637, 0.66637310850463, -0.23839712426898, 0
1638, 0.66907072163693, -0.26789131667361, 0
1639, 0.34615239872598, -0.22610035234088, 0
1640, 0.40006331846709, -0.19917796375443, 0
1641, 0.34220622061553, -0.26242346950723, 0
1642, 0.38456365524128, 0.28987346923144, 0
1643, 0.37501218304695, 0.25755127431788, 0
1644, 0.36019300271021, 0.2893329212773, 0
1645, 0.37242471783068, 0.2897310745463, 0
1646, 0.3956473295856, 0.28238555539149, 0
1647, 0.39559827455338, 0.29110497702876, 0
1648, 0.24940896614849, 0.24841827803614, 0
1649, 0.19764449020955, 0.27163581593196, 0
1650, 0.081418030198738, 0.1803117195167, 0
1651, 0.041181613596376, 0.17774018973061, 0
1652, 0.2541685437713, 0.054487947877537, 0
1653, 0.25458980925889, 0.044666646652209, 0
1654, 0.2543981739634, 0.049529491427498, 0
1655, 0.7649178220189, 0.27027817240147, 0
1656, 0.79794857654945, 0.26688137954262, 0
1657, 0.71402168957567, 0.27911935945509, 0
1658, 0.69219505465643, 0.26281060423915, 0
1659, 0.67530645946409, 0.28223829684321, 0
1660, 0.69394575619773, 0.28106915185565, 0
1661, 0.65828563811841, 0.26916690507309, 0
1662, 0.65922153161638, 0.28417098072724, 0
1663, 0.33222867378943, 0.2856754130021, 0
1664, 0.34682482162927, 0.28812599616979, 0
1665, 0.91606622176219, -0.17166969167072, 0
1666, 0.95816296265142, -0.17194392568713, 0
1667, 0.086560784342126, -0.17189729039153, 0
1668, 0.043380376194064, -0.17235771249391, 0
1669, 0.26955234219907, 0.21966564740763, 0
1670, 0.73092808218994, 0.25273696762647, 0
1671, 0.73747838705793, 0.27551260533813, 0
1672, 0.87875619765504, 0.13573613433105, 0
1673, 0.8479386751732, 0.099217558756133, 0
1674, 0.8799079013582, 0.099123578285336, 0
1675, 0.55734936261559, 0.27856706175248, 0
1676, 0.5658385807417, 0.27526071804441, 0
1677, 0.56177125358911, 0.27680104826207, 0
1678, 0.7425744216098, 0.07284202870848, 0
1679, 0.31673322842247, -0.11554984605169, 0
1680, 0.32452108635456, -0.12099971501137, 0
1681, 0.32073314496759, -0.11835107439375, 0
1682, 0.22342830145348, 0.0034955164774498, 0
1683, 0.23744168716966, -0.0069716830778743, 0
1684, 0.22686965440867, -0.020480032588443, 0
1685, 0.22482894811456, -0.0085297277457305, 0
1686, 0.29920382118559, -0.10908407628575, 0
1687, 0.30166930252853, -0.099927604319426, 0
1688, 0.30862097096099, -0.10856566170029, 0
1689, 0.30494303167411, -0.10437507848364, 0
1690, 0.4554192985712, 0.28102496489252, 0
1691, 0.45037817254701, 0.27997244033758, 0
1692, 0.26076153065976, -0.0086559515986058, 0
1693, 0.26351935377838, -0.018374147849717, 0
1694, 0.26208210369331, -0.013504876646284, 0
1695, 0.63312157660343, 0.25333828173306, 0
1696, 0.6368266493422, 0.25091307659329, 0
1697, 0.43378031594792, 0.27639371821292, 0
1698, 0.26636016479574, -0.069107536256835, 0
1699, 0.27915620986436, -0.073386498761543, 0
1700, 0.27430874702666, -0.085048464936677, 0
1701, 0.27019324421036, -0.077224868019224, 0
1702, 0.57364014143083, 0.27241751472825, 0
1703, 0.5774487748441, 0.27101946349686, 0
1704, 0.53085544422008, 0.28285113798605, 0
1705, 0.53575283611121, 0.28210852409833, 0
1706, 0.7407826658972, 0.013407854084203, 0
1707, 0.74528945583081, 0.0095586519025735, 0
1708, 0.74065125517827, 0.0046805866721512, 0
1709, 0.74068217328913, 0.0093470186303661, 0
1710, 0.48078012145295, 0.28384362558301, 0
1711, 0.47604731072056, 0.28332304316861, 0
1712, 0.50569210420417, 0.2844327023104, 0
1713, 0.51044992305296, 0.2841563864164, 0
1714, 0.25367726201818, -0.0046990860349412, 0
1715, 0.25889021917333, 0.0012303249552616, 0
1716, 0.25967158681054, -0.0037207041723539, 0
1717, 0.23502795693858, 0.016079588183298, 0
1718, 0.25203779137984, 0.016501204044043, 0
1719, 0.24472836922339, 0.01643617780156, 0
1720, 0.57174096149472, 0.27786564522193, 0
1721, 0.56978069063114, 0.27383213374037, 0
1722, 0.6950134406569, 0.2104105671013, 0
1723, 0.69421924727881, 0.20165182938953, 0
1724, 0.68629666456901, 0.20919249555409, 0
1725, 0.69044104039011, 0.20569893729804, 0
1726, 0.3318402893984, -0.12568023505266, 0
1727, 0.3383014006587, -0.12974594310233, 0
1728, 0.33521429235796, -0.1276961309063, 0
1729, 0.23291567823822, 0.11480937695616, 0
1730, 0.24583694066081, 0.12320154894901, 0
1731, 0.25397291807457, 0.1117576622283, 0
1732, 0.24304486019916, 0.10327420988958, 0
1733, 0.243970775454, 0.11325791743042, 0
1734, 0.32599556364904, -0.12794538974462, 0
1735, 0.32823482218836, -0.12346180253833, 0
1736, 0.4855427758127, 0.28399652730104, 0
1737, 0.62607898295451, 0.25735706133403, 0
1738, 0.63141852064397, 0.25920322665878, 0
1739, 0.62945027345879, 0.25542569897291, 0
1740, 0.73731508957362, 0.11629428722399, 0
1741, 0.74569493283464, 0.11305830118861, 0
1742, 0.74064574432064, 0.10507818420707, 0
1743, 0.73929708051143, 0.11070980125681, 0
1744, 0.50097776014748, 0.28435651418845, 0
1745, 0.25570749391577, 0.034949398102234, 0
1746, 0.2567260467092, 0.030356995996947, 0
1747, 0.22209806018036, 0.027913001110721, 0
1748, 0.23401036732408, 0.038728392363282, 0
1749, 0.22232561937166, 0.039561590394269, 0
1750, 0.55225519688211, 0.27956680641648, 0
1751, 0.57914380459265, -0.17273809811476, 0
1752, 0.55473726208296, -0.18349401730273, 0
1753, 0.57455713585925, -0.17430077742218, 0
1754, 0.25796727702771, 0.010902674688248, 0
1755, 0.25837818343803, 0.0060913323136424, 0
1756, 0.46037824214935, 0.28160778552649, 0
1757, 0.57666325487076, 0.28648842770466, 0
1758, 0.57272882035978, 0.29351328148154, 0
1759, 0.57953333289602, 0.29249575182142, 0
1760, 0.66694262831094, -0.13395785223048, 0
1761, 0.65804642620089, -0.14135168625256, 0
1762, 0.66270203566855, -0.13789878120707, 0
1763, 0.78103919268196, 0.10644272839558, 0
1764, 0.80060328795163, 0.090354838090514, 0
1765, 0.76782563285897, 0.089621350621193, 0
1766, 0.78261391247318, 0.090676916098171, 0
1767, 0.52604454004384, 0.28319156124314, 0
1768, 0.20776801747108, 0.015401883771689, 0
1769, 0.22215366962677, 0.01570677318065, 0
1770, 0.42344499425658, 0.28189322649982, 0
1771, 0.41182973097423, 0.27708827227801, 0
1772, 0.6418219761172, -0.15592712002652, 0
1773, 0.63541033835989, -0.15367289174217, 0
1774, 0.63888688294483, -0.15137763139977, 0
1775, 0.25945159741034, -0.026262877322803, 0
1776, 0.26538877773426, -0.023180928184671, 0
1777, 0.63613695587964, -0.1604724348001, 0
1778, 0.62874309060473, -0.16006347496035, 0
1779, 0.63232181154347, -0.15667112021614, 0
1780, 0.60054025120542, 0.2817208327596, 0
1781, 0.60263804408255, 0.2892273956946, 0
1782, 0.29599516503794, -0.090808620832093, 0
1783, 0.29874960220869, -0.095390810249774, 0
1784, 0.2479294528153, 0.060131220615331, 0
1785, 0.25448870110702, 0.065310292973367, 0
1786, 0.25411938806705, 0.059741399765697, 0
1787, 0.74635237750749, -0.0015137854938055, 0
1788, 0.73917167363866, -0.0058506525208973, 0
1789, 0.74022117771742, -0.00047713797331128, 0
1790, 0.24930595368477, 0.039251770033475, 0
1791, 0.25498828323227, 0.039771926514841, 0
1792, 0.59640739513512, -0.18986774584273, 0
1793, 0.5650645491655, -0.17678697583249, 0
1794, 0.59257821948016, -0.18179418150647, 0
1795, 0.36380151261628, 0.25525366297066, 0
1796, 0.31474155567082, 0.28054526018948, 0
1797, 0.70062567780645, 0.19278633190243, 0
1798, 0.69754742675234, 0.19730343940136, 0
1799, 0.25001222576971, 0.14266639051402, 0
1800, 0.25736084608967, 0.13054464622956, 0
1801, 0.24766215426657, 0.13298138352295, 0
1802, 0.23100967106754, 0.075561905790593, 0
1803, 0.24139819660118, 0.084134335550873, 0
1804, 0.2488821496597, 0.073749525544651, 0
1805, 0.24037480184315, 0.066962158583029, 0
1806, 0.24045824949995, 0.075106693381215, 0
1807, 0.56597537441679, 0.29376260724874, 0
1808, 0.68512655258957, -0.11352257772187, 0
1809, 0.68143284938699, -0.11697620273638, 0
1810, 0.74315092784653, 0.021868869487326, 0
1811, 0.74626426266284, 0.015731934931404, 0
1812, 0.74187111097556, 0.017337559813974, 0
1813, 0.60587642971579, -0.26907837019931, 0
1814, 0.34833240829484, -0.1411996540831, 0
1815, 0.34212599815472, -0.1386519967037, 0
1816, 0.34376934875606, -0.13391323587031, 0
1817, 0.34577963379752, -0.1369792798951, 0
1818, 0.7506080283135, 0.026771025534599, 0
1819, 0.74401077050955, 0.026951892303529, 0
1820, 0.30846513472088, -0.11800269612405, 0
1821, 0.31262162037423, -0.11231443561051, 0
1822, 0.69711662054433, -0.097281504888697, 0
1823, 0.69166153500436, -0.10560189252121, 0
1824, 0.69443867933512, -0.10144498017033, 0
1825, 0.69400237379946, -0.11353523491935, 0
1826, 0.68856621506358, -0.10968252948479, 0
1827, 0.68421890983448, 0.2169975689912, 0
1828, 0.68206420528545, 0.21191244545414, 0
1829, 0.74214868878531, 0.094185158719423, 0
1830, 0.74151598482769, 0.099587990391669, 0
1831, 0.3124349711733, 0.21859143340866, 0
1832, 0.3212316341004, 0.20937363732414, 0
1833, 0.3393209621561, -0.134574577713, 0
1834, 0.34119482620845, -0.13178780486777, 0
1835, 0.25240999032693, -0.06463182487003, 0
1836, 0.25935310246288, -0.052381113559956, 0
1837, 0.27154869151316, -0.057399510043571, 0
1838, 0.26247091124922, -0.060871222178019, 0
1839, 0.25141285476348, 0.092547248431092, 0
1840, 0.24208440318951, 0.09360839403516, 0
1841, 0.83962161400734, 0.17379680652643, 0
1842, 0.87774560819403, 0.17557813286867, 0
1843, 0.76180033513061, 0.05233559277514, 0
1844, 0.77309321193597, 0.043301117092219, 0
1845, 0.76092850755949, 0.03364400534233, 0
1846, 0.75302876782702, 0.043521504332333, 0
1847, 0.76216551888454, 0.043158671849153, 0
1848, 0.73750247316844, -0.059364383430218, 0
1849, 0.72767511197292, -0.076046145917235, 0
1850, 0.72520330696922, -0.063965214421312, 0
1851, 0.73294255056756, -0.067816873486674, 0
1852, 0.73111161053477, -0.08899965473686, 0
1853, 0.71719281770321, -0.091626004237627, 0
1854, 0.7143765049964, -0.080633975391982, 0
1855, 0.72255625977377, -0.084327924925548, 0
1856, 0.52501824064328, -0.22458476772749, 0
1857, 0.54335168989341, -0.17940977431871, 0
1858, 0.53157291459879, -0.18181183906577, 0
1859, 0.53753956381951, -0.19950097824411, 0
1860, 0.52269151353992, -0.20562040051924, 0
1861, 0.51190498508813, -0.21654441986562, 0
1862, 0.42972124020191, -0.24383099902189, 0
1863, 0.4966991467105, -0.19030985344738, 0
1864, 0.5131967324096, -0.20673134336873, 0
1865, 0.60364580584316, 0.27355499769281, 0
1866, 0.5931930238907, 0.27694700715003, 0
1867, 0.59841729909428, 0.27556521069122, 0
1868, 0.58817053441636, 0.2778055859701, 0
1869, 0.11947672785532, 0.14562677210973, 0
1870, 0.15612628775862, 0.18095793695388, 0
1871, 0.11993557587547, 0.18211531866571, 0
1872, 0.70584086526441, -0.09465493849933, 0
1873, 0.712604705684, -0.098195328240478, 0
1874, 0.78090105169886, -0.14508563776275, 0
1875, 0.83037307040651, -0.17316064204724, 0
1876, 0.79124570364361, -0.17908588137902, 0
1877, 0.24220708583127, 0.1579671951284, 0
1878, 0.25897693547385, 0.16307420705648, 0
1879, 0.26333588076525, 0.14726260528492, 0
1880, 0.25369660786169, 0.15269870304907, 0
1881, 0.24459912729222, -0.16448358418523, 0
1882, 0.17148897275714, -0.1700463861431, 0
1883, 0.21018012890725, -0.17051107773005, 0
1884, 0.75185267762749, 0.058660815512581, 0
1885, 0.76001663555193, 0.060889242945447, 0
1886, 0.25377801671274, -0.036069309689107, 0
1887, 0.26506521144546, -0.041196401502175, 0
1888, 0.25635462616139, -0.044154414772445, 0
1889, 0.29835368661699, -0.16267021608928, 0
1890, 0.28601104602784, -0.14940375953927, 0
1891, 0.30099577497528, -0.1362224562793, 0
1892, 0.29895569082046, -0.14941170877437, 0
1893, 0.26940303427313, -0.099145242996117, 0
1894, 0.28652925269343, -0.088126786606398, 0
1895, 0.27846553952653, -0.092472576814453, 0
1896, 0.59238272044067, -0.21630518517408, 0
1897, 0.52766531357309, -0.18689690549522, 0
1898, 0.8712196480481, -0.12726870495198, 0
1899, 0.87343498303694, -0.17181487632822, 0
1900, 0.77912962687379, -0.065875805659839, 0
1901, 0.75157228811982, -0.051939118584606, 0
1902, 0.76910950250927, -0.041819061905409, 0
1903, 0.76416115462957, -0.057247474411314, 0
1904, 0.13363831212904, -0.12989123341891, 0
1905, 0.12923285912518, -0.17143865402831, 0
1906, 0.24622446623142, 0.27388159309424, 0
1907, 0.20212066443401, 0.24421009329005, 0
1908, 0.47752926003218, -0.22465345171188, 0
1909, 0.47038583474294, -0.19982430073102, 0
1910, 0.18277933712041, 0.094370123367794, 0
1911, 0.15352063525025, 0.11702243205705, 0
1912, 0.18198751106154, 0.14520412059263, 0
1913, 0.20344545783715, 0.11790577282816, 0
1914, 0.18039605729106, 0.11860763136859, 0
1915, 0.60866070555864, 0.27089814822681, 0
1916, 0.3411230104986, 0.23732034470094, 0
1917, 0.3604259842967, 0.23965459402722, 0
1918, 0.3392800394842, 0.22526713918044, 0
1919, 0.16865946561491, 0.013626135946937, 0
1920, 0.13752338812506, 0.011557168763996, 0
1921, 0.6975674026536, -0.14997057866418, 0
1922, 0.67719316345152, -0.1337734920079, 0
1923, 0.68542956735069, -0.14023177367288, 0
1924, 0.65586179548682, 0.24051150008643, 0
1925, 0.66056849695886, 0.23675980465636, 0
1926, 0.24110552642958, 0.059747613412832, 0
1927, 0.83404322681553, -0.080335819048192, 0
1928, 0.87608206736698, -0.042302905243554, 0
1929, 0.87436517284808, -0.083609620919209, 0
1930, 0.84578234873413, -0.003713482967719, 0
1931, 0.87835474523948, -0.0049590781352875, 0
1932, 0.12293316462656, 0.11181456112892, 0
1933, 0.17235253013258, -0.090544258977994, 0
1934, 0.13569307530582, -0.091820679323989, 0
1935, 0.22027684069272, 0.11629073991839, 0
1936, 0.21474500752859, -0.037604987657497, 0
1937, 0.19773971651868, -0.059743017693363, 0
1938, 0.19549582000846, -0.039969706234847, 0
1939, 0.41354009445895, -0.19080485974192, 0
1940, 0.38505928009911, -0.18810529835617, 0
1941, 0.39042940517792, -0.19331647998639, 0
1942, 0.7444831967302, -0.12800452554232, 0
1943, 0.72187554700993, -0.14359243008015, 0
1944, 0.71060159567744, -0.12283884594548, 0
1945, 0.72534426458862, -0.12762600114772, 0
1946, 0.34658452636192, 0.22403840103956, 0
1947, 0.34787394315196, 0.23577530632714, 0
1948, 0.34771680854948, 0.22666198944817, 0
1949, 0.24148616058434, -0.029252553695255, 0
1950, 0.22932372330893, -0.032330548024912, 0
1951, 0.79887117130511, 0.0099497296309706, 0
1952, 0.82380274410816, 0.026004354034196, 0
1953, 0.81998392786418, 0.0039631472758837, 0
1954, 0.35511936025602, -0.18311998937495, 0
1955, 0.38164707280083, -0.199964492891, 0
1956, 0.34992558981495, -0.19918800037696, 0
1957, 0.49409659223678, -0.22924034638221, 0
1958, 0.76007723648232, -0.023623195782085, 0
1959, 0.74295732311119, -0.014818780980635, 0
1960, 0.75299301860162, -0.010284542704141, 0
1961, 0.75054420179835, -0.018719211447264, 0
1962, 0.74868827833216, 0.08814306941211, 0
1963, 0.7569055150217, 0.088443310120524, 0
1964, 0.74040192610538, 0.15577600862893, 0
1965, 0.72756859858144, 0.15920619723251, 0
1966, 0.73480773002187, 0.16457508644185, 0
1967, 0.65079803660644, -0.16330131559461, 0
1968, 0.65553014687483, -0.1514324472607, 0
1969, 0.66007759813542, -0.16119566249649, 0
1970, 0.77278043107349, -0.026850920193114, 0
1971, 0.39261971372199, 0.25877307739355, 0
1972, 0.38478030640438, 0.2665730324932, 0
1973, 0.52276389420113, -0.18755579434698, 0
1974, 0.22480028817816, -0.07418237993522, 0
1975, 0.24088575440747, -0.068805753884828, 0
1976, 0.27318262852883, 0.16642113531671, 0
1977, 0.26476688075838, 0.17350693569913, 0
1978, 0.37885475547409, -0.1795612522351, 0
1979, 0.41470302420251, -0.1818316957891, 0
1980, 0.4036295317106, -0.18856671264096, 0
1981, 0.51028805843978, -0.22881440521988, 0
1982, 0.31940492704331, 0.24203821672739, 0
1983, 0.34850999414554, 0.27703059639941, 0
1984, 0.25654696987209, -0.10559148346044, 0
1985, 0.20980208935453, 0.16634103016549, 0
1986, 0.18601767068523, 0.1733891711774, 0
1987, 0.53772312642575, -0.18823911807875, 0
1988, 0.5433309508265, -0.18263354160237, 0
1989, 0.36407870624708, -0.16243639801944, 0
1990, 0.35993804708797, -0.17164166719762, 0
1991, 0.67838721617301, 0.22424655790791, 0
1992, 0.67278658933347, 0.22168861264504, 0
1993, 0.29106667198537, 0.18270690996943, 0
1994, 0.28375270692362, 0.23322763057659, 0
1995, 0.28454329108052, 0.17961390967311, 0
1996, 0.70866067230889, -0.17615296173948, 0
1997, 0.71086983945564, -0.19649384496314, 0
1998, 0.76924056010882, 0.020409374280736, 0
1999, 0.78587787141907, 0.030165862366923, 0
2000, 0.78264329077891, 0.016332746023374, 0
2001, 0.65307346379158, -0.14404586542821, 0
2002, 0.60151853991522, -0.21231887998621, 0
2003, 0.60408893765012, -0.22402300946905, 0
2004, 0.29733218987865, -0.1209623829531, 0
2005, 0.29209874303848, -0.11437386158257, 0
2006, 0.27880989788348, -0.1704476348558, 0
2007, 0.29413317545083, -0.17862803602346, 0
2008, 0.75254077807301, -0.10285497760748, 0
2009, 0.74044989190848, -0.094757235437735, 0
2010, 0.75308653574226, 0.0056851476775546, 0
2011, 0.75379428067925, -0.0020922470080866, 0
2012, 0.70498370297993, 0.24298203390038, 0
2013, 0.68740429218595, 0.23397282049353, 0
2014, 0.69066075441931, 0.24686995601526, 0
2015, 0.24279431267687, 0.038793291039373, 0
2016, 0.65289584937839, 0.24975306686303, 0
2017, 0.65083477102391, 0.24340612306052, 0
2018, 0.24682380719665, -0.0057448210347222, 0
2019, 0.76404138900748, 0.11860915878724, 0
2020, 0.75341128178271, 0.11552696802798, 0
2021, 0.32995608730128, 0.25490288204307, 0
2022, 0.36110429888746, 0.24711461949956, 0
2023, 0.72274292983297, -0.053905276460388, 0
2024, 0.72557297319997, -0.040983657648182, 0
2025, 0.73206076789651, -0.048112684960874, 0
2026, 0.7249085599184, -0.047485065886113, 0
2027, 0.46091555039492, -0.19138254654331, 0
2028, 0.47441581253692, -0.19131641001612, 0
2029, 0.46810951160505, -0.1924375360482, 0
2030, 0.33648560649458, -0.14277489748014, 0
2031, 0.33161690576088, -0.15633235521457, 0
2032, 0.27219389672937, 0.18228283450675, 0
2033, 0.69953449849458, -0.092950896659917, 0
2034, 0.27894546087407, 0.1556327887761, 0
2035, 0.28062592854743, 0.16247725096007, 0
2036, 0.7289866482435, 0.19833158725121, 0
2037, 0.70985927433066, 0.18964678085725, 0
2038, 0.71800602901182, 0.19312547501512, 0
2039, 0.35232120377824, -0.1451856645936, 0
2040, 0.39732028901004, -0.17753137863597, 0
2041, 0.36961035493874, -0.17624139179247, 0
2042, 0.4096632178116, -0.21907931693006, 0
2043, 0.7374003919739, -0.011073234465632, 0
2044, 0.23358502205706, 0.23702285793012, 0
2045, 0.31906232488153, 0.21922869757754, 0
2046, 0.7032130817019, 0.18795967457835, 0
2047, 0.28600117072789, -0.070492394365818, 0
2048, 0.71272076406025, 0.1668033989889, 0
2049, 0.71064412080404, 0.1722087324842, 0
2050, 0.74223904299044, 0.088825808836289, 0
2051, 0.2783158605361, -0.054698699086458, 0
2052, 0.70981712073814, -0.072664129206386, 0
2053, 0.70770747595704, -0.07809613378866, 0
2054, 0.71481587036975, -0.064838091365543, 0
2055, 0.71935023609598, -0.059844636984648, 0
2056, 0.73440937010616, 0.22213978154913, 0
2057, 0.7448213595751, 0.20516922716802, 0
2058, 0.26156890044181, 0.11056990718301, 0
2059, 0.73140416862127, 0.12647723974186, 0
2060, 0.73468138285545, 0.12157817778296, 0
2061, 0.27167689295872, -0.038724831374536, 0
2062, 0.62759063056119, -0.17073457583444, 0
2063, 0.62450079073212, -0.16322184144805, 0
2064, 0.74617315406735, 0.050714431468781, 0
2065, 0.74598029841578, 0.044769297428185, 0
2066, 0.78581446561481, 0.16303043691417, 0
2067, 0.80898399257526, 0.16963817586358, 0
2068, 0.39927473223327, -0.17158106885931, 0
2069, 0.25791691773052, 0.015692467314646, 0
2070, 0.6122499225136, -0.18083711072473, 0
2071, 0.60891639704392, -0.17237955135198, 0
2072, 0.70947823775957, 0.22312690449632, 0
2073, 0.69376269884279, 0.22108430141802, 0
2074, 0.70074848138003, 0.21611437037733, 0
2075, 0.72563101580724, 0.14836199230281, 0
2076, 0.73521494477424, 0.14320774905869, 0
2077, 0.72853276084851, 0.13516841855592, 0
2078, 0.72786071084953, 0.14182627948766, 0
2079, 0.64265487553271, -0.22568549577129, 0
2080, 0.6438055558419, -0.19579299856422, 0
2081, 0.65534233083397, -0.21534203037855, 0
2082, 0.67051297900608, -0.12958790998799, 0
2083, 0.26723469392328, 0.13565215883131, 0
2084, 0.27460798075256, 0.14671594992737, 0
2085, 0.2702990653861, 0.14166124233527, 0
2086, 0.75519640338885, 0.016815263518596, 0
2087, 0.75889932945135, 0.024494007177915, 0
2088, 0.2936267707786, -0.086032774943747, 0
2089, 0.19119705906528, 0.014812413266103, 0
2090, 0.71761808238917, 0.15912227696984, 0
2091, 0.72215141640816, 0.15429073778811, 0
2092, 0.25777420943984, 0.076655336144468, 0
2093, 0.25557314413378, 0.071077234445506, 0
2094, 0.26538604753555, 0.12939027544183, 0
2095, 0.38323437543696, -0.16467001098992, 0
2096, 0.36725024596687, -0.15589135335243, 0
2097, 0.25911176371415, 0.085673968317081, 0
2098, 0.25879785293455, 0.091855146992004, 0
2099, 0.20542822571524, 0.075155919225262, 0
2100, 0.18607230614222, 0.072808070969876, 0
2101, 0.74541758172169, 0.056504086304724, 0
2102, 0.32392342186358, -0.13305002298909, 0
2103, 0.63150173903309, -0.23392294745394, 0
2104, 0.62664898411897, 0.26356129431285, 0
2105, 0.62305433398409, 0.26010708298238, 0
2106, 0.7408231503158, -0.049822171220822, 0
2107, 0.37069665719668, 0.25155735000974, 0
2108, 0.72809966820647, -0.032262443117826, 0
2109, 0.73072440196631, -0.027076379257375, 0
2110, 0.63990361014718, -0.17169835264725, 0
2111, 0.62561445453159, -0.18798069524425, 0
2112, 0.63407428892322, -0.18049618392986, 0
2113, 0.41307890015945, -0.20285741019371, 0
2114, 0.65577926444124, 0.25783758236865, 0
2115, 0.22006862924667, 0.07549701361325, 0
2116, 0.40474114533076, 0.27665451029451, 0
2117, 0.39742856420722, 0.27489219808119, 0
2118, 0.20176375786013, -0.081440049331239, 0
2119, 0.48411859148581, -0.20128943759371, 0
2120, 0.48847669560536, -0.19519615671231, 0
2121, 0.304329216933, -0.12533310224207, 0
2122, 0.78728261663279, -0.10018101775837, 0
2123, 0.8016444442245, -0.074489016376434, 0
2124, 0.77439162959348, 0.13824835768332, 0
2125, 0.75560527326958, 0.14869106040966, 0
2126, 0.76927366988361, 0.15450144345644, 0
2127, 0.2281893970732, 0.16272870902286, 0
2128, 0.59102833477422, -0.20421520016745, 0
2129, 0.54648287016798, -0.1915204457923, 0
2130, 0.74424752254006, 0.14585475741218, 0
2131, 0.80320070341529, 0.04712165733261, 0
2132, 0.82350355579593, 0.070204268252041, 0
2133, 0.8243851967409, 0.047729384480766, 0
2134, 0.70061029255055, -0.11774577280808, 0
2135, 0.82231901044626, 0.093422174213068, 0
2136, 0.51675058565207, -0.19250395764724, 0
2137, 0.32127110842349, 0.26505840876765, 0
2138, 0.45002511828694, -0.19125541306825, 0
2139, 0.44423546229966, -0.20400507791607, 0
2140, 0.44250419876397, -0.19255622278176, 0
2141, 0.58358543219009, -0.1709958439613, 0
2142, 0.55805446323631, -0.18956462484249, 0
2143, 0.54015386934923, -0.18341566479634, 0
2144, 0.25144999619333, -0.028341024551983, 0
2145, 0.27832467955734, 0.17410665579569, 0
2146, 0.32463243480217, 0.21181183925183, 0
2147, 0.78634293562215, 0.044262018136488, 0
2148, 0.24451830625978, 0.22132127247228, 0
2149, 0.30483902259372, 0.21521821348775, 0
2150, 0.77848644717102, 0.12225003061355, 0
2151, 0.56983020190859, -0.17566295840004, 0
2152, 0.56806151700509, -0.19808842572948, 0
2153, 0.57029320738231, -0.22265941104047, 0
2154, 0.71493917222022, -0.15969806824812, 0
2155, 0.60752193975237, -0.19676936148052, 0
2156, 0.61641233105203, -0.19294841310211, 0
2157, 0.6321414515348, 0.26427130309957, 0
2158, 0.42718897189318, -0.2709307694311, 0
2159, 0.27079722652856, -0.15484532147896, 0
2160, 0.57389116459294, 0.281897247269, 0
2161, 0.33817490246206, -0.13805581166614, 0
2162, 0.41568383710871, -0.17579280190905, 0
2163, 0.38143580353498, 0.26160274392634, 0
2164, 0.48589601441361, -0.24691407456122, 0
2165, 0.32706800590955, 0.22275474488494, 0
2166, 0.42847324632601, 0.27501814006725, 0
2167, 0.33917704105102, 0.23067097446026, 0
2168, 0.64215096792847, -0.16261538792689, 0
2169, 0.68598586759478, 0.22394057250648, 0
2170, 0.47903967688988, -0.18908932298754, 0
2171, 0.59924994781125, -0.20076111786839, 0
2172, 0.76621475729535, -0.119049871514, 0
2173, 0.7199098499664, 0.23521140084434, 0
2174, 0.70969162026137, -0.067516546954174, 0
2175, 0.71269678374592, 0.16163456331777, 0
2176, 0.54587441383419, -0.21023870221991, 0
2177, 0.27975508444031, 0.14938488840422, 0
2178, 0.72425064284226, -0.035723362107028, 0
2179, 0.72718403491746, 0.12960335977826, 0
2180, 0.75001196191966, 0.011920850194503, 0
2181, 0.45513938758246, -0.18776169393753, 0
2182, 0.55061058155523, -0.19388954760265, 0
2183, 0.26136155192246, 0.080610008390569, 0
2184, 0.27078691219981, -0.12510465703956, 0
2185, 0.34381123476732, -0.15833184183886, 0
2186, 0.56546636127072, -0.20788949136902, 0
2187, 0.41355954450739, 0.28377886757772, 0
2188, 0.67569612307057, -0.19102356896449, 0
2189, 0.6194029035707, -0.21522902394232, 0
2190, 0.22078867832709, -0.11759264613522, 0
2191, 0.67273694160096, -0.15028053039995, 0
2192, 0.19668107687795, 0.20114108499096, 0
2193, 0.56150962574893, -0.19743552770062, 0
2194, 0.6908160082753, -0.12610232464943, 0
2195, 0.15126631898266, -0.038389837263285, 0
2196, 0.42942203243726, -0.18852278920211, 0
2197, 0.75193683036933, 0.17596843304647, 0
2198, 0.29215174357887, 0.20000354511199, 0
2199, 0.70762750715804, 0.20377940252614, 0
2200, 0.27468636546409, 0.24944129620387, 0
2201, 0.29037388088161, 0.19045983674883, 0
2202, 0.86731587439695, 0.04738710182566, 0
2203, 0.78573348560246, 0.21342980642764, 0
2204, 0.61475838604831, 0.2832590069415, 0
2205, 0.74158877438484, -0.032153007759248, 0
2206, 0.4425313645827, 0.27617984197125, 0
2207, 0.66907661951167, 0.24789453755277, 0
2208, 0.35127680234135, -0.16515008417135, 0
2209, 0.61550867576379, 0.2641799145523, 0
2210, 0.63426914180626, -0.26378155431831, 0
2211, 0.51402843809641, -0.18332312687677, 0
2212, 0.14400057353455, 0.063084164894455, 0
2213, 0.72581723838912, -0.1066923392485, 0
2214, 0.74037901945388, -0.18192063735331, 0
2215, 0.33845408972987, -0.15186546902738, 0
2216, 0.74557338907856, 0.12847345322594, 0
2217, 0.59033947276757, 0.28838332463109, 0
2218, 0.25251083944222, -0.084932393270648, 0
2219, 0.74876257909837, -0.075724278895062, 0
2220, 0.64236591929603, 0.24547533664732, 0
2221, 0.46843965137046, 0.2806766630027, 0
2222, 0.37828144369394, 0.26978002086181, 0
2223, 0.64440103920408, -0.14590361835622, 0
2224, 0.35430025517036, 0.25921846218353, 0
2225, 0.2919008642526, -0.077312573876526, 0
2226, 0.67536158590289, 0.21467026432122, 0
2227, 0.54364107311665, 0.27894539023812, 0
2228, 0.6157439402988, -0.16597077740653, 0
2229, 0.5997899667709, -0.17479380275053, 0
2230, 0.67415833547839, -0.12135782539822, 0
2231, 0.29777622585177, 0.18989106334661, 0
2232, 0.37589272286267, 0.26308182884126, 0
2233, 0.33579557279063, 0.27295705537071, 0
2234, 0.74022920037032, 0.080582964216128, 0
2235, 0.50543378820763, -0.19646892818235, 0
2236, 0.49930176412909, -0.21648979394701, 0
2237, 0.70497504300332, 0.1793098741468, 0
2238, 0.37617155652868, -0.15873286477417, 0
2239, 0.27977733073368, 0.20420789531858, 0
2240, 0.25962567603213, 0.023267389786284, 0
2241, 0.27050403031894, -0.030118589316255, 0
2242, 0.33054457288182, 0.21869988477891, 0
2243, 0.36086154363532, -0.14902883776511, 0
2244, 0.7015923765077, -0.084888076447262, 0
2245, 0.70415291988634, -0.10652739889995, 0
2246, 0.77167080995726, -0.0039859597465386, 0
2247, 0.26211249306294, 0.10114645936305, 0
2248, 0.39201550678419, -0.16649152501214, 0
2249, 0.40797559405829, -0.17253059212714, 0
2250, 0.28794177811353, -0.1017613338114, 0
2251, 0.51819283447971, 0.28196309783401, 0
2252, 0.30941944478896, 0.19844261791203, 0
2253, 0.74282765058337, 0.035804959617412, 0
2254, 0.49332172154362, 0.28251335653105, 0
2255, 0.27673277194196, -0.045914572220236, 0
2256, 0.73222530064777, -0.018177922568296, 0
2257, 0.28391086381089, -0.061751166100856, 0
2258, 0.66624401479323, 0.22823299057339, 0
2259, 0.74180028121402, 0.064682813141481, 0
2260, 0.26562764887518, 0.11922602759894, 0
2261, 0.80899620944605, 0.1285960099785, 0
2262, 0.80292685871856, -0.031265093134089, 0
2263, 0.25150627524032, -0.016090308528738, 0
2264, 0.30008980043322, 0.19657315773556, 0
2265, 0.72208233496932, 0.17701395309726, 0
2266, 0.33218778250832, -0.13415552278497, 0
2267, 0.31613158816077, -0.12745027246463, 0
2268, 0.2479588011381, 0.0054084297232338, 0
2269, 0.24672018792502, 0.028209634608692, 0
2270, 0.23895375416275, -0.049373002979898, 0
2271, 0.58017286116514, 0.27781676374564, 0
2272, 0.56628901465405, 0.28424428406598, 0
2273, 0.22615519289622, 0.057713815731434, 0
2274, 0.24453779813335, 0.049340867840421, 0
2275, 0.75396527122351, 0.074193274993694, 0
2276, 0.77859594516971, 0.065985686294517, 0
2277, 0.64169654468039, 0.25933604216936, 0
2278, 0.44885385222448, -0.22029130064541, 0
2279, 0.19960441244598, -0.011241799823025, 0
2280, 0.61333738394597, -0.24109158303023, 0
2281, 0.75300523694322, 0.10157083279133, 0
2282, 0.19704295562374, 0.04248220325714, 0
2283, 0.22816978012708, 0.13762202044977, 0
2284, 0.22399093790978, 0.094969142279548, 0
2285, 0.36071473237301, 0.26982695693747, 0
2286, 0.30902441558856, 0.20802026992776, 0
2287, 0.36198418535799, 0.26189950746969, 0
2288, 0.36430012668322, 0.24232016206239, 0
2289, 0.30127222284379, 0.17938406819758, 0
2290, 0.16836974296904, 0.22231962938069, 0
2291, 0.31077386950562, -0.14944614300675, 0
2292, 0.3179903706522, -0.21328014452723, 0
2293, 0.53337221074239, -0.19007810626617, 0
2294, 0.58720348480952, -0.18483297788529, 0
2295, 0.58226418966272, -0.19615625349523, 0
2296, 0.58245377856201, -0.20700786608106, 0
2297, 0.58144182959985, -0.22109788223765, 0
2298, 0.59405106614154, -0.23169792178246, 0
2299, 0.5892809958667, -0.26433768087692, 0
2300, 0.52924085215771, -0.19694785578941, 0
2301, 0.53086384234369, -0.20302263605586, 0
2302, 0.53340032828002, -0.20995678852242, 0
2303, 0.53714548636283, -0.21784366455387, 0
2304, 0.54251719870076, -0.22672974407848, 0
2305, 0.55012226022005, -0.23644731571089, 0
2306, 0.56044685651171, -0.24674062185919, 0
2307, 0.54335986537843, -0.18508330267698, 0
2308, 0.58136683393705, -0.18720134953136, 0
2309, 0.5282700909491, -0.19162507064334, 0
2310, 0.57367799043625, -0.25466615214415, 0
******* E L E M E N T S *************
*ELEMENT, type=T3D2, ELSET=Line1
1, 1, 10
2, 10, 16
3, 16, 11
4, 11, 17
5, 17, 12
6, 12, 18
7, 18, 13
8, 13, 19
9, 19, 14
10, 14, 20
11, 20, 15
12, 15, 2
*ELEMENT, type=T3D2, ELSET=Line2
13, 2, 21
14, 21, 24
15, 24, 22
16, 22, 25
17, 25, 23
18, 23, 3
*ELEMENT, type=T3D2, ELSET=Line3
19, 3, 26
20, 26, 32
21, 32, 27
22, 27, 33
23, 33, 28
24, 28, 34
25, 34, 29
26, 29, 35
27, 35, 30
28, 30, 36
29, 36, 31
30, 31, 4
*ELEMENT, type=T3D2, ELSET=Line4
31, 4, 37
32, 37, 44
33, 44, 38
34, 38, 45
35, 45, 39
36, 39, 46
37, 46, 40
38, 40, 47
39, 47, 41
40, 41, 48
41, 48, 42
42, 42, 49
43, 49, 43
44, 43, 5
*ELEMENT, type=T3D2, ELSET=Line5
45, 5, 50
46, 50, 59
47, 59, 51
48, 51, 60
49, 60, 52
50, 52, 61
51, 61, 53
52, 53, 62
53, 62, 54
54, 54, 63
55, 63, 55
56, 55, 64
57, 64, 56
58, 56, 65
59, 65, 57
60, 57, 66
61, 66, 58
62, 58, 6
*ELEMENT, type=T3D2, ELSET=Line6
63, 6, 67
64, 67, 78
65, 78, 68
66, 68, 79
67, 79, 69
68, 69, 80
69, 80, 70
70, 70, 81
71, 81, 71
72, 71, 82
73, 82, 72
74, 72, 83
75, 83, 73
76, 73, 84
77, 84, 74
78, 74, 85
79, 85, 75
80, 75, 86
81, 86, 76
82, 76, 87
83, 87, 77
84, 77, 7
*ELEMENT, type=T3D2, ELSET=Line7
85, 7, 88
86, 88, 97
87, 97, 89
88, 89, 98
89, 98, 90
90, 90, 99
91, 99, 91
92, 91, 100
93, 100, 92
94, 92, 101
95, 101, 93
96, 93, 102
97, 102, 94
98, 94, 103
99, 103, 95
100, 95, 104
101, 104, 96
102, 96, 8
*ELEMENT, type=T3D2, ELSET=Line8
103, 8, 105
104, 105, 112
105, 112, 106
106, 106, 113
107, 113, 107
108, 107, 114
109, 114, 108
110, 108, 115
111, 115, 109
112, 109, 116
113, 116, 110
114, 110, 117
115, 117, 111
116, 111, 1
*ELEMENT, type=T3D2, ELSET=Line9
117, 9, 118
118, 118, 289
119, 289, 287
120, 287, 290
121, 290, 286
122, 286, 291
123, 291, 285
124, 285, 292
125, 292, 284
126, 284, 293
127, 293, 283
128, 283, 294
129, 294, 282
130, 282, 295
131, 295, 281
132, 281, 296
133, 296, 280
134, 280, 297
135, 297, 279
136, 279, 298
137, 298, 278
138, 278, 299
139, 299, 277
140, 277, 300
141, 300, 276
142, 276, 301
143, 301, 275
144, 275, 302
145, 302, 274
146, 274, 303
147, 303, 273
148, 273, 304
149, 304, 272
150, 272, 305
151, 305, 271
152, 271, 306
153, 306, 270
154, 270, 307
155, 307, 269
156, 269, 308
157, 308, 268
158, 268, 309
159, 309, 267
160, 267, 310
161, 310, 266
162, 266, 311
163, 311, 265
164, 265, 312
165, 312, 264
166, 264, 313
167, 313, 263
168, 263, 314
169, 314, 262
170, 262, 315
171, 315, 261
172, 261, 316
173, 316, 260
174, 260, 317
175, 317, 259
176, 259, 318
177, 318, 258
178, 258, 319
179, 319, 257
180, 257, 320
181, 320, 256
182, 256, 321
183, 321, 255
184, 255, 322
185, 322, 254
186, 254, 323
187, 323, 253
188, 253, 324
189, 324, 252
190, 252, 325
191, 325, 251
192, 251, 326
193, 326, 250
194, 250, 327
195, 327, 249
196, 249, 328
197, 328, 248
198, 248, 329
199, 329, 247
200, 247, 330
201, 330, 246
202, 246, 331
203, 331, 245
204, 245, 332
205, 332, 244
206, 244, 333
207, 333, 243
208, 243, 334
209, 334, 242
210, 242, 335
211, 335, 241
212, 241, 336
213, 336, 240
214, 240, 337
215, 337, 239
216, 239, 338
217, 338, 238
218, 238, 339
219, 339, 237
220, 237, 340
221, 340, 236
222, 236, 341
223, 341, 235
224, 235, 342
225, 342, 234
226, 234, 343
227, 343, 233
228, 233, 344
229, 344, 232
230, 232, 345
231, 345, 231
232, 231, 346
233, 346, 230
234, 230, 347
235, 347, 229
236, 229, 348
237, 348, 228
238, 228, 349
239, 349, 227
240, 227, 350
241, 350, 226
242, 226, 351
243, 351, 225
244, 225, 352
245, 352, 224
246, 224, 353
247, 353, 223
248, 223, 354
249, 354, 222
250, 222, 355
251, 355, 221
252, 221, 356
253, 356, 220
254, 220, 357
255, 357, 219
256, 219, 358
257, 358, 218
258, 218, 359
259, 359, 217
260, 217, 360
261, 360, 216
262, 216, 361
263, 361, 215
264, 215, 362
265, 362, 214
266, 214, 363
267, 363, 213
268, 213, 364
269, 364, 212
270, 212, 365
271, 365, 211
272, 211, 366
273, 366, 210
274, 210, 367
275, 367, 209
276, 209, 368
277, 368, 208
278, 208, 369
279, 369, 207
280, 207, 370
281, 370, 206
282, 206, 371
283, 371, 205
284, 205, 372
285, 372, 204
286, 204, 373
287, 373, 203
288, 203, 374
289, 374, 202
290, 202, 375
291, 375, 201
292, 201, 376
293, 376, 200
294, 200, 377
295, 377, 199
296, 199, 378
297, 378, 198
298, 198, 379
299, 379, 197
300, 197, 380
301, 380, 196
302, 196, 381
303, 381, 195
304, 195, 382
305, 382, 194
306, 194, 383
307, 383, 193
308, 193, 384
309, 384, 192
310, 192, 385
311, 385, 191
312, 191, 386
313, 386, 190
314, 190, 387
315, 387, 189
316, 189, 388
317, 388, 188
318, 188, 389
319, 389, 187
320, 187, 390
321, 390, 186
322, 186, 391
323, 391, 185
324, 185, 392
325, 392, 184
326, 184, 393
327, 393, 183
328, 183, 394
329, 394, 182
330, 182, 395
331, 395, 181
332, 181, 396
333, 396, 180
334, 180, 397
335, 397, 179
336, 179, 398
337, 398, 178
338, 178, 399
339, 399, 177
340, 177, 400
341, 400, 176
342, 176, 401
343, 401, 175
344, 175, 402
345, 402, 174
346, 174, 403
347, 403, 173
348, 173, 404
349, 404, 172
350, 172, 405
351, 405, 171
352, 171, 406
353, 406, 170
354, 170, 407
355, 407, 169
356, 169, 408
357, 408, 168
358, 168, 409
359, 409, 167
360, 167, 410
361, 410, 166
362, 166, 411
363, 411, 165
364, 165, 412
365, 412, 164
366, 164, 413
367, 413, 163
368, 163, 414
369, 414, 162
370, 162, 415
371, 415, 161
372, 161, 416
373, 416, 160
374, 160, 417
375, 417, 159
376, 159, 418
377, 418, 158
378, 158, 419
379, 419, 157
380, 157, 420
381, 420, 156
382, 156, 421
383, 421, 155
384, 155, 422
385, 422, 154
386, 154, 423
387, 423, 153
388, 153, 424
389, 424, 152
390, 152, 425
391, 425, 151
392, 151, 426
393, 426, 150
394, 150, 427
395, 427, 149
396, 149, 428
397, 428, 148
398, 148, 429
399, 429, 147
400, 147, 430
401, 430, 146
402, 146, 431
403, 431, 145
404, 145, 432
405, 432, 144
406, 144, 433
407, 433, 143
408, 143, 434
409, 434, 142
410, 142, 435
411, 435, 141
412, 141, 436
413, 436, 140
414, 140, 437
415, 437, 139
416, 139, 438
417, 438, 138
418, 138, 439
419, 439, 137
420, 137, 440
421, 440, 136
422, 136, 441
423, 441, 135
424, 135, 442
425, 442, 134
426, 134, 443
427, 443, 133
428, 133, 444
429, 444, 132
430, 132, 445
431, 445, 131
432, 131, 446
433, 446, 130
434, 130, 447
435, 447, 129
436, 129, 448
437, 448, 128
438, 128, 449
439, 449, 127
440, 127, 450
441, 450, 126
442, 126, 451
443, 451, 125
444, 125, 452
445, 452, 124
446, 124, 453
447, 453, 123
448, 123, 454
449, 454, 122
450, 122, 455
451, 455, 121
452, 121, 456
453, 456, 120
454, 120, 457
455, 457, 119
456, 119, 458
457, 458, 288
458, 288, 9
*ELEMENT, type=CPS4, ELSET=Surface1
459, 504, 1131, 1132, 1129
460, 1129, 1132, 1130, 503
461, 1132, 30, 36, 1130
462, 1131, 35, 30, 1132
463, 460, 1135, 1136, 1133
464, 1133, 1136, 1134, 477
465, 1136, 11, 17, 1134
466, 1135, 16, 11, 1136
467, 471, 1139, 1140, 1137
468, 1137, 1140, 72, 83
469, 1140, 1138, 82, 72
470, 1139, 490, 1138, 1140
471, 580, 1143, 1144, 1141
472, 1141, 1144, 108, 115
473, 1144, 1142, 114, 108
474, 1143, 576, 1142, 1144
475, 46, 1147, 1148, 39
476, 39, 1148, 1145, 45
477, 1148, 1146, 501, 1145
478, 1147, 497, 1146, 1148
479, 496, 1150, 1151, 1149
480, 1149, 1151, 40, 47
481, 1151, 1147, 46, 40
482, 1150, 497, 1147, 1151
483, 115, 109, 1154, 1141
484, 1141, 1154, 1152, 580
485, 1154, 1153, 579, 1152
486, 109, 116, 1153, 1154
487, 495, 1156, 1157, 1155
488, 1155, 1157, 41, 48
489, 1157, 1149, 47, 41
490, 1156, 496, 1149, 1157
491, 770, 1159, 1160, 1042
492, 1042, 1160, 1158, 759
493, 1160, 125, 451, 1158
494, 1159, 452, 125, 1160
495, 378, 199, 1164, 1161
496, 1161, 1164, 1162, 587
497, 1164, 1163, 553, 1162
498, 199, 377, 1163, 1164
499, 25, 841, 1167, 22
500, 22, 1167, 1165, 24
501, 841, 498, 1166, 1167
502, 787, 1170, 1171, 1168
503, 1168, 1171, 1169, 790
504, 1171, 136, 440, 1169
505, 1170, 441, 136, 1171
506, 374, 203, 1175, 1172
507, 1172, 1175, 1173, 560
508, 1175, 1174, 565, 1173
509, 203, 373, 1174, 1175
510, 444, 133, 1179, 1176
511, 1176, 1179, 1177, 780
512, 1179, 1178, 781, 1177
513, 133, 443, 1178, 1179
514, 430, 147, 1182, 1180
515, 1180, 1182, 961, 826
516, 1182, 1181, 827, 961
517, 147, 429, 1181, 1182
518, 778, 1185, 1186, 1183
519, 1183, 1186, 1184, 779
520, 1186, 131, 445, 1184
521, 1185, 446, 131, 1186
522, 708, 1188, 1189, 990
523, 990, 1189, 1187, 709
524, 1189, 273, 303, 1187
525, 1188, 304, 273, 1189
526, 310, 267, 1193, 1190
527, 1190, 1193, 1191, 706
528, 1193, 1192, 705, 1191
529, 267, 309, 1192, 1193
530, 646, 1196, 1197, 1194
531, 1194, 1197, 1195, 650
532, 1197, 170, 406, 1195
533, 1196, 407, 170, 1197
534, 84, 1199, 1200, 73
535, 73, 1200, 1137, 83
536, 1200, 1198, 471, 1137
537, 1199, 470, 1198, 1200
538, 386, 191, 1204, 1201
539, 1201, 1204, 1202, 608
540, 1204, 1203, 604, 1202
541, 191, 385, 1203, 1204
542, 661, 1207, 1208, 1205
543, 1205, 1208, 1206, 660
544, 1208, 186, 390, 1206
545, 1207, 391, 186, 1208
546, 305, 272, 1211, 1209
547, 1209, 1211, 1210, 699
548, 1211, 1188, 708, 1210
549, 272, 304, 1188, 1211
550, 2222, 2232, 2163, 1972
551, 1303, 2287, 1795, 1213
552, 977, 1212, 345, 232
553, 1496, 1971, 233, 343
554, 622, 1218, 1219, 1216
555, 1216, 1219, 1217, 623
556, 1219, 174, 402, 1217
557, 1218, 403, 174, 1219
558, 709, 1187, 1222, 1220
559, 1220, 1222, 1221, 710
560, 1222, 274, 302, 1221
561, 1187, 303, 274, 1222
562, 385, 192, 1224, 1203
563, 1203, 1224, 1039, 604
564, 1224, 1223, 602, 1039
565, 192, 384, 1223, 1224
566, 438, 139, 1227, 1225
567, 1225, 1227, 972, 788
568, 1227, 1226, 818, 972
569, 139, 437, 1226, 1227
570, 710, 1221, 1230, 1228
571, 1228, 1230, 1229, 711
572, 1230, 275, 301, 1229
573, 1221, 302, 275, 1230
574, 827, 1181, 1233, 1231
575, 1231, 1233, 1232, 791
576, 1233, 148, 428, 1232
577, 1181, 429, 148, 1233
578, 318, 259, 1236, 1234
579, 1234, 1236, 909, 686
580, 1236, 1235, 687, 909
581, 259, 317, 1235, 1236
582, 356, 221, 1239, 1237
583, 529, 2149, 1831, 530
584, 2165, 528, 505, 2242
585, 221, 355, 1238, 1239
586, 405, 172, 1243, 1240
587, 1240, 1243, 1241, 651
588, 1243, 1242, 652, 1241
589, 172, 404, 1242, 1243
590, 377, 200, 1245, 1163
591, 1163, 1245, 997, 553
592, 1245, 1244, 554, 997
593, 200, 376, 1244, 1245
594, 400, 177, 1248, 1246
595, 1246, 1248, 1007, 640
596, 1248, 1247, 643, 1007
597, 177, 399, 1247, 1248
598, 299, 278, 1252, 1249
599, 1249, 1252, 1250, 715
600, 1252, 1251, 716, 1250
601, 278, 298, 1251, 1252
602, 394, 183, 1256, 1253
603, 1253, 1256, 1254, 666
604, 1256, 1255, 667, 1254
605, 183, 393, 1255, 1256
606, 402, 175, 1258, 1217
607, 1217, 1258, 993, 623
608, 1258, 1257, 639, 993
609, 175, 401, 1257, 1258
610, 711, 1229, 1261, 1259
611, 1259, 1261, 1260, 717
612, 1261, 276, 300, 1260
613, 1229, 301, 276, 1261
614, 564, 1264, 1265, 1262
615, 1262, 1265, 1263, 562
616, 1265, 205, 371, 1263
617, 1264, 372, 205, 1265
618, 456, 121, 1269, 1266
619, 1266, 1269, 1267, 730
620, 1269, 1268, 776, 1267
621, 121, 455, 1268, 1269
622, 413, 164, 1273, 1270
623, 1270, 1273, 1271, 656
624, 1273, 1272, 657, 1271
625, 164, 412, 1272, 1273
626, 458, 119, 1276, 1274
627, 1274, 1276, 1034, 733
628, 1276, 1275, 729, 1034
629, 119, 457, 1275, 1276
630, 823, 1279, 1280, 1277
631, 1277, 1280, 1278, 820
632, 1280, 144, 432, 1278
633, 1279, 433, 144, 1280
634, 642, 1283, 1284, 1281
635, 1281, 1284, 1282, 644
636, 1284, 179, 397, 1282
637, 1283, 398, 179, 1284
638, 114, 1142, 1287, 107
639, 107, 1287, 1285, 113
640, 1287, 1286, 476, 1285
641, 1142, 576, 1286, 1287
642, 717, 1260, 1289, 1288
643, 1288, 1289, 1249, 715
644, 1289, 277, 299, 1249
645, 1260, 300, 277, 1289
646, 1770, 2166, 1697, 1632
647, 1770, 1632, 1633, 1606
648, 845, 1290, 1293, 1291
649, 2187, 475, 2116, 1771
650, 370, 207, 1297, 1294
651, 1294, 1297, 1295, 563
652, 1297, 1296, 552, 1295
653, 207, 369, 1296, 1297
654, 586, 1300, 1301, 1298
655, 1298, 1301, 1299, 585
656, 1301, 196, 380, 1299
657, 1300, 381, 196, 1301
658, 520, 231, 345, 1212
659, 469, 519, 521, 2222
660, 469, 2222, 1972, 976
661, 2232, 1643, 1214, 2163
662, 716, 1251, 1306, 1304
663, 1304, 1306, 1305, 713
664, 1306, 279, 297, 1305
665, 1251, 298, 279, 1306
666, 469, 976, 2117, 1646
667, 1307, 1309, 1292, 524
668, 1309, 234, 342, 1292
669, 2163, 1214, 1569, 1302
670, 2305, 1313, 801, 2304
671, 1528, 862, 800, 1987
672, 1793, 424, 153, 1348
673, 2129, 1351, 1584, 862
674, 307, 270, 1317, 1314
675, 1314, 1317, 1315, 697
676, 1317, 1316, 698, 1315
677, 270, 306, 1316, 1317
678, 601, 1319, 1320, 1001
679, 1001, 1320, 1318, 599
680, 1320, 194, 382, 1318
681, 1319, 383, 194, 1320
682, 2239, 973, 2201, 2198
683, 515, 2022, 2288, 1380
684, 1381, 952, 1128, 2224
685, 995, 1356, 1946, 1948
686, 455, 122, 1325, 1268
687, 1268, 1325, 1323, 776
688, 1325, 1324, 777, 1323
689, 122, 454, 1324, 1325
690, 406, 171, 1326, 1195
691, 1195, 1326, 1025, 650
692, 1326, 1240, 651, 1025
693, 171, 405, 1240, 1326
694, 85, 1328, 1329, 74
695, 74, 1329, 1199, 84
696, 1329, 1327, 470, 1199
697, 1328, 472, 1327, 1329
698, 658, 1332, 1333, 1330
699, 1330, 1333, 1331, 647
700, 1333, 166, 410, 1331
701, 1332, 411, 166, 1333
702, 380, 197, 1336, 1299
703, 1299, 1336, 1334, 585
704, 1336, 1335, 588, 1334
705, 197, 379, 1335, 1336
706, 541, 1339, 1340, 1337
707, 1337, 1340, 1338, 507
708, 1340, 215, 361, 1338
709, 1339, 362, 215, 1340
710, 506, 1032, 1341, 1344
711, 1343, 219, 357, 1341
712, 1342, 358, 219, 1343
713, 532, 1669, 468, 2148
714, 859, 535, 974, 975
715, 1344, 220, 356, 1237
716, 1341, 357, 220, 1344
717, 648, 1346, 1347, 872
718, 872, 1347, 1345, 649
719, 1347, 168, 408, 1345
720, 1346, 409, 168, 1347
721, 2310, 2297, 2153, 2306
722, 2300, 795, 2293, 2309
723, 2296, 2295, 804, 1484
724, 2143, 1988, 1857, 796
725, 490, 1353, 1354, 1138
726, 1138, 1354, 71, 82
727, 1354, 1352, 81, 71
728, 1353, 489, 1352, 1354
729, 530, 1831, 2045, 1004
730, 973, 1995, 1993, 2201
731, 996, 979, 952, 1381
732, 1917, 1322, 228, 348
733, 562, 1263, 1359, 1358
734, 1358, 1359, 1294, 563
735, 1359, 206, 370, 1294
736, 1263, 371, 206, 1359
737, 713, 1305, 1362, 1360
738, 1360, 1362, 1361, 712
739, 1362, 280, 296, 1361
740, 1305, 297, 280, 1362
741, 507, 1338, 1365, 1363
742, 975, 1470, 1469, 1374
743, 1365, 216, 360, 1364
744, 1338, 361, 216, 1365
745, 408, 169, 1367, 1345
746, 1345, 1367, 1366, 649
747, 1367, 1196, 646, 1366
748, 169, 407, 1196, 1367
749, 537, 1370, 1371, 1368
750, 1368, 1371, 1369, 538
751, 1371, 212, 364, 1369
752, 1370, 365, 212, 1371
753, 698, 1316, 1373, 1372
754, 1372, 1373, 1209, 699
755, 1373, 271, 305, 1209
756, 1316, 306, 271, 1373
757, 2032, 1977, 1976, 2145
758, 1031, 885, 1977, 2032
759, 1376, 222, 354, 1375
760, 1238, 355, 222, 1376
761, 482, 1378, 1379, 1377
762, 1377, 1379, 42, 49
763, 1379, 1155, 48, 42
764, 1378, 495, 1155, 1379
765, 1381, 2224, 518, 978
766, 1411, 1864, 1860, 985
767, 2136, 653, 1973, 1477
768, 616, 1863, 915, 1413
769, 2235, 1412, 1864, 1411
770, 489, 1386, 1387, 1352
771, 1352, 1387, 70, 81
772, 1387, 1385, 80, 70
773, 1386, 492, 1385, 1387
774, 410, 167, 1389, 1331
775, 1331, 1389, 1388, 647
776, 1389, 1346, 648, 1388
777, 167, 409, 1346, 1389
778, 384, 193, 1391, 1223
779, 1223, 1391, 1390, 602
780, 1391, 1319, 601, 1390
781, 193, 383, 1319, 1391
782, 667, 1255, 1394, 1392
783, 1392, 1394, 1393, 665
784, 1394, 184, 392, 1393
785, 1255, 393, 184, 1394
786, 445, 132, 1396, 1184
787, 1184, 1396, 1395, 779
788, 1396, 1176, 780, 1395
789, 132, 444, 1176, 1396
790, 449, 128, 1400, 1397
791, 1397, 1400, 1398, 763
792, 1400, 1399, 761, 1398
793, 128, 448, 1399, 1400
794, 450, 127, 1403, 1401
795, 1401, 1403, 1402, 760
796, 1403, 1397, 763, 1402
797, 127, 449, 1397, 1403
798, 291, 286, 1407, 1404
799, 1404, 1407, 1405, 735
800, 1407, 1406, 738, 1405
801, 286, 290, 1406, 1407
802, 392, 185, 1409, 1393
803, 1393, 1409, 1408, 665
804, 1409, 1207, 661, 1408
805, 185, 391, 1207, 1409
806, 914, 2211, 913, 654
807, 984, 986, 1517, 1515
808, 1412, 2236, 1861, 1864
809, 1410, 2170, 2028, 617
810, 443, 134, 1415, 1178
811, 1178, 1415, 1010, 781
812, 1415, 1414, 785, 1010
813, 134, 442, 1414, 1415
814, 368, 209, 1418, 1416
815, 1416, 1418, 1018, 551
816, 1418, 1417, 549, 1018
817, 209, 367, 1417, 1418
818, 387, 190, 1420, 1419
819, 1419, 1420, 1045, 670
820, 1420, 1201, 608, 1045
821, 190, 386, 1201, 1420
822, 295, 282, 1424, 1421
823, 1421, 1424, 1422, 726
824, 1424, 1423, 727, 1422
825, 282, 294, 1423, 1424
826, 395, 182, 1427, 1425
827, 1425, 1427, 1426, 638
828, 1427, 1253, 666, 1426
829, 182, 394, 1253, 1427
830, 821, 1429, 1430, 1428
831, 1428, 1430, 1180, 826
832, 1430, 146, 430, 1180
833, 1429, 431, 146, 1430
834, 549, 1417, 1433, 1431
835, 1431, 1433, 1432, 550
836, 1433, 210, 366, 1432
837, 1417, 367, 210, 1433
838, 293, 284, 1437, 1434
839, 1434, 1437, 1435, 728
840, 1437, 1436, 736, 1435
841, 284, 292, 1436, 1437
842, 440, 137, 1440, 1169
843, 1169, 1440, 1438, 790
844, 1440, 1439, 789, 1438
845, 137, 439, 1439, 1440
846, 652, 1242, 1441, 1021
847, 1021, 1441, 1218, 622
848, 1441, 173, 403, 1218
849, 1242, 404, 173, 1441
850, 320, 257, 1445, 1442
851, 1442, 1445, 1443, 695
852, 1445, 1444, 696, 1443
853, 257, 319, 1444, 1445
854, 791, 1232, 1447, 964
855, 964, 1447, 1446, 792
856, 1447, 149, 427, 1446
857, 1232, 428, 149, 1447
858, 363, 214, 1450, 1448
859, 1448, 1450, 1449, 540
860, 1450, 1339, 541, 1449
861, 214, 362, 1339, 1450
862, 685, 1453, 1454, 1451
863, 1451, 1454, 1452, 684
864, 1454, 261, 315, 1452
865, 1453, 316, 261, 1454
866, 811, 1348, 863, 1752
867, 802, 2136, 1477, 914
868, 1413, 915, 416, 161
869, 1382, 1529, 157, 419
870, 1458, 1322, 1917, 1489
871, 530, 1004, 516, 1982
872, 951, 523, 1918, 2167
873, 2224, 2287, 2285, 518
874, 565, 1174, 1460, 1459
875, 1459, 1460, 1264, 564
876, 1460, 204, 372, 1264
877, 1174, 373, 204, 1460
878, 777, 1324, 1463, 1461
879, 1461, 1463, 1462, 769
880, 1463, 123, 453, 1462
881, 1324, 454, 123, 1463
882, 412, 165, 1465, 1272
883, 1272, 1465, 1464, 657
884, 1465, 1332, 658, 1464
885, 165, 411, 1332, 1465
886, 736, 1436, 1466, 980
887, 980, 1466, 1404, 735
888, 1466, 285, 291, 1404
889, 1436, 292, 285, 1466
890, 379, 198, 1468, 1335
891, 1335, 1468, 1467, 588
892, 1468, 1161, 587, 1467
893, 198, 378, 1161, 1468
894, 360, 217, 1470, 1364
895, 878, 1003, 2149, 529
896, 534, 1530, 1342, 1125
897, 217, 359, 1469, 1470
898, 436, 141, 1474, 1471
899, 1471, 1474, 1472, 817
900, 1474, 1473, 819, 1472
901, 141, 435, 1473, 1474
902, 712, 1361, 1476, 1475
903, 1475, 1476, 1421, 726
904, 1476, 281, 295, 1421
905, 1361, 296, 281, 1476
906, 619, 1622, 2236, 1412
907, 2211, 418, 159, 913
908, 616, 1413, 986, 984
909, 2235, 1383, 1863, 983
910, 375, 202, 1480, 1478
911, 1478, 1480, 1479, 561
912, 1480, 1172, 560, 1479
913, 202, 374, 1172, 1480
914, 457, 120, 1482, 1275
915, 1275, 1482, 1481, 729
916, 1482, 1266, 730, 1481
917, 120, 456, 1266, 1482
918, 427, 150, 1485, 1446
919, 1446, 1485, 1483, 792
920, 2153, 1484, 2186, 1313
921, 1987, 800, 2143, 1560
922, 789, 1439, 1487, 1486
923, 1486, 1487, 1225, 788
924, 1487, 138, 438, 1225
925, 1439, 439, 138, 1487
926, 1456, 1501, 464, 1585
927, 2235, 1411, 2136, 802
928, 2235, 802, 805, 1383
929, 994, 531, 227, 349
930, 317, 260, 1491, 1235
931, 1235, 1491, 1490, 687
932, 1491, 1453, 685, 1490
933, 260, 316, 1453, 1491
934, 314, 263, 1494, 1492
935, 1492, 1494, 940, 681
936, 1494, 1493, 680, 940
937, 263, 313, 1493, 1494
938, 1307, 1495, 1496, 1309
939, 522, 977, 232, 344
940, 521, 2285, 2287, 1303
941, 976, 1495, 1307, 2117
942, 369, 208, 1498, 1296
943, 1296, 1498, 1497, 552
944, 1498, 1416, 551, 1497
945, 208, 368, 1416, 1498
946, 1561, 1752, 1456, 1351
947, 2151, 152, 424, 1793
948, 862, 1584, 2307, 800
949, 798, 2182, 2129, 861
950, 637, 1503, 1504, 1502
951, 1502, 1504, 1425, 638
952, 1504, 181, 395, 1425
953, 1503, 396, 181, 1504
954, 397, 180, 1506, 1282
955, 1282, 1506, 1505, 644
956, 1506, 1503, 637, 1505
957, 180, 396, 1503, 1506
958, 599, 1318, 1508, 1507
959, 1507, 1508, 1300, 586
960, 1508, 195, 381, 1300
961, 1318, 382, 195, 1508
962, 554, 1244, 1510, 1509
963, 1509, 1510, 1478, 561
964, 1510, 201, 375, 1478
965, 1244, 376, 201, 1510
966, 311, 266, 1512, 1511
967, 1511, 1512, 1049, 678
968, 1512, 1190, 706, 1049
969, 266, 310, 1190, 1512
970, 785, 1414, 1514, 1513
971, 1513, 1514, 1170, 787
972, 1514, 135, 441, 1170
973, 1414, 442, 135, 1514
974, 2119, 617, 1909, 618
975, 983, 1863, 616, 2120
976, 1517, 1516, 655, 1515
977, 162, 414, 1516, 1517
978, 668, 1519, 1520, 955
979, 955, 1520, 1518, 669
980, 1520, 188, 388, 1518
981, 1519, 389, 188, 1520
982, 401, 176, 1522, 1257
983, 1257, 1522, 1521, 639
984, 1522, 1246, 640, 1521
985, 176, 400, 1246, 1522
986, 432, 145, 1524, 1278
987, 1278, 1524, 1523, 820
988, 1524, 1429, 821, 1523
989, 145, 431, 1429, 1524
990, 822, 1525, 1526, 948
991, 948, 1526, 1279, 823
992, 1526, 143, 433, 1279
993, 1525, 434, 143, 1526
994, 861, 2129, 862, 1528
995, 464, 422, 155, 1857
996, 1753, 425, 152, 2151
997, 2302, 1350, 1859, 2301
998, 2044, 1648, 883, 467
999, 1530, 218, 358, 1342
1000, 1469, 359, 218, 1530
1001, 684, 1452, 1532, 1531
1002, 1531, 1532, 1492, 681
1003, 1532, 262, 314, 1492
1004, 1452, 315, 262, 1532
1005, 388, 189, 1534, 1518
1006, 1518, 1534, 1533, 669
1007, 1534, 1419, 670, 1533
1008, 189, 387, 1419, 1534
1009, 312, 265, 1537, 1535
1010, 1535, 1537, 1536, 679
1011, 1537, 1511, 678, 1536
1012, 265, 311, 1511, 1537
1013, 643, 1247, 1539, 1538
1014, 1538, 1539, 1283, 642
1015, 1539, 178, 398, 1283
1016, 1247, 399, 178, 1539
1017, 660, 1206, 1541, 1540
1018, 1540, 1541, 1519, 668
1019, 1541, 187, 389, 1519
1020, 1206, 390, 187, 1541
1021, 705, 1192, 1543, 957
1022, 957, 1543, 1542, 704
1023, 1543, 268, 308, 1542
1024, 1192, 309, 268, 1543
1025, 453, 124, 1545, 1462
1026, 1462, 1545, 1544, 769
1027, 1545, 1159, 770, 1544
1028, 124, 452, 1159, 1545
1029, 308, 269, 1547, 1542
1030, 1542, 1547, 1546, 704
1031, 1547, 1314, 697, 1546
1032, 269, 307, 1314, 1547
1033, 447, 130, 1550, 1548
1034, 1548, 1550, 1549, 762
1035, 1550, 1185, 778, 1549
1036, 130, 446, 1185, 1550
1037, 761, 1399, 1552, 1551
1038, 1551, 1552, 1548, 762
1039, 1552, 129, 447, 1548
1040, 1399, 448, 129, 1552
1041, 104, 96, 1555, 1553
1042, 1553, 1555, 1554, 465
1043, 1555, 105, 112, 1554
1044, 96, 8, 105, 1555
1045, 17, 12, 1558, 1134
1046, 1134, 1558, 1556, 477
1047, 1558, 1557, 478, 1556
1048, 12, 18, 1557, 1558
1049, 354, 223, 1559, 1375
1050, 1374, 1469, 1530, 534
1051, 516, 951, 2167, 1916
1052, 523, 1357, 514, 1918
1053, 1752, 863, 1501, 1456
1054, 801, 1312, 842, 2176
1055, 2141, 426, 151, 1751
1056, 1529, 1858, 420, 157
1057, 364, 213, 1563, 1369
1058, 1369, 1563, 1562, 538
1059, 1563, 1448, 540, 1562
1060, 213, 363, 1448, 1563
1061, 502, 1565, 1566, 1564
1062, 1564, 1566, 1131, 504
1063, 1566, 29, 35, 1131
1064, 1565, 34, 29, 1566
1065, 294, 283, 1568, 1423
1066, 1423, 1568, 1567, 727
1067, 1568, 1434, 728, 1567
1068, 283, 293, 1434, 1568
1069, 519, 517, 2285, 521
1070, 2232, 1303, 1213, 1643
1071, 1215, 346, 231, 520
1072, 1380, 347, 230, 1308
1073, 9, 288, 1572, 1570
1074, 1570, 1572, 1571, 463
1075, 1572, 1274, 733, 1571
1076, 288, 458, 1274, 1572
1077, 86, 1574, 1575, 75
1078, 75, 1575, 1328, 85
1079, 1575, 1573, 472, 1328
1080, 1574, 473, 1573, 1575
1081, 531, 1948, 350, 227
1082, 516, 1916, 979, 996
1083, 1916, 1947, 1458, 979
1084, 550, 1432, 1577, 1054
1085, 1054, 1577, 1370, 537
1086, 1577, 211, 365, 1370
1087, 1432, 366, 211, 1577
1088, 655, 1516, 1579, 1578
1089, 1578, 1579, 1270, 656
1090, 1579, 163, 413, 1270
1091, 1516, 414, 163, 1579
1092, 680, 1493, 1581, 1580
1093, 1580, 1581, 1535, 679
1094, 1581, 264, 312, 1535
1095, 1493, 313, 264, 1581
1096, 759, 1158, 1583, 1582
1097, 1582, 1583, 1401, 760
1098, 1583, 126, 450, 1401
1099, 1158, 451, 126, 1583
1100, 2293, 1987, 1560, 1349
1101, 1310, 2142, 1561, 2182
1102, 1349, 1560, 807, 1858
1103, 2306, 2153, 1313, 2305
1104, 49, 43, 1587, 1377
1105, 1377, 1587, 1586, 482
1106, 1587, 50, 59, 1586
1107, 43, 5, 50, 1587
1108, 737, 1589, 1590, 1588
1109, 1588, 1590, 1570, 463
1110, 1590, 118, 9, 1570
1111, 1589, 289, 118, 1590
1112, 60, 1592, 1593, 51
1113, 51, 1593, 1586, 59
1114, 1593, 1591, 482, 1586
1115, 1592, 483, 1591, 1593
1116, 491, 1596, 1597, 1594
1117, 1594, 1597, 68, 79
1118, 1597, 1595, 78, 68
1119, 1596, 494, 1595, 1597
1120, 36, 31, 1599, 1130
1121, 1130, 1599, 1598, 503
1122, 1599, 37, 44, 1598
1123, 31, 4, 37, 1599
1124, 738, 1406, 1600, 1050
1125, 1050, 1600, 1589, 737
1126, 1600, 287, 289, 1589
1127, 1406, 290, 287, 1600
1128, 2231, 1065, 1032, 506
1129, 1601, 1603, 1553, 465
1130, 1603, 95, 104, 1553
1131, 1602, 103, 95, 1603
1132, 435, 142, 1605, 1473
1133, 1473, 1605, 1604, 819
1134, 1605, 1525, 822, 1604
1135, 142, 434, 1525, 1605
1136, 97, 1608, 1609, 88
1137, 88, 1609, 1606, 7
1138, 1291, 341, 236, 459
1139, 1771, 2116, 524, 1290
1140, 492, 1610, 1611, 1385
1141, 1385, 1611, 69, 80
1142, 1611, 1594, 79, 69
1143, 1610, 491, 1594, 1611
1144, 117, 111, 1613, 1612
1145, 1612, 1613, 1135, 460
1146, 1613, 10, 16, 1135
1147, 111, 1, 10, 1613
1148, 87, 1615, 1616, 76
1149, 76, 1616, 1574, 86
1150, 1616, 1614, 473, 1574
1151, 1615, 474, 1614, 1616
1152, 691, 1618, 1619, 1617
1153, 1617, 1619, 1442, 695
1154, 1619, 256, 320, 1442
1155, 1618, 321, 256, 1619
1156, 319, 258, 1621, 1444
1157, 1444, 1621, 1620, 696
1158, 1621, 1234, 686, 1620
1159, 258, 318, 1234, 1621
1160, 1165, 1623, 21, 24
1161, 969, 1940, 1105, 1978
1162, 1980, 645, 2040, 612
1163, 818, 1226, 1625, 1624
1164, 1624, 1625, 1471, 817
1165, 1625, 140, 436, 1471
1166, 1226, 437, 140, 1625
1167, 500, 1627, 1628, 1626
1168, 1626, 1628, 1565, 502
1169, 1628, 28, 34, 1565
1170, 1627, 33, 28, 1628
1171, 488, 1630, 1631, 893
1172, 893, 1631, 56, 65
1173, 1631, 1629, 64, 56
1174, 1630, 487, 1629, 1631
1175, 7, 1606, 1633, 77
1176, 77, 1633, 1615, 87
1177, 1633, 1632, 474, 1615
1178, 844, 459, 236, 340
1179, 18, 13, 1636, 1557
1180, 1557, 1636, 1634, 478
1181, 904, 628, 906, 629
1182, 13, 19, 1635, 1636
1183, 499, 910, 1638, 1637
1184, 1637, 1638, 1627, 500
1185, 1638, 27, 33, 1627
1186, 910, 32, 27, 1638
1187, 19, 14, 1641, 1635
1188, 628, 2208, 2185, 906
1189, 612, 2040, 625, 1105
1190, 621, 2042, 2113, 1640
1191, 99, 1644, 1645, 90
1192, 90, 1645, 1642, 98
1193, 2107, 1308, 1215, 945
1194, 518, 1983, 2233, 978
1195, 98, 1642, 1647, 89
1196, 89, 1647, 1608, 97
1197, 1647, 1646, 475, 1608
1198, 469, 1642, 1645, 519
1199, 2200, 877, 101, 466
1200, 1127, 1376, 1375, 1832
1201, 1649, 94, 103, 1602
1202, 532, 2148, 884, 882
1203, 465, 1554, 1651, 1650
1204, 1650, 1651, 1285, 476
1205, 1651, 106, 113, 1285
1206, 1554, 112, 106, 1651
1207, 559, 1653, 1654, 1095
1208, 1095, 1654, 1652, 568
1209, 1654, 1173, 565, 1652
1210, 1653, 560, 1173, 1654
1211, 60, 52, 1656, 1592
1212, 1592, 1656, 890, 483
1213, 1656, 1655, 484, 890
1214, 52, 61, 1655, 1656
1215, 62, 54, 1660, 1657
1216, 1657, 1660, 1658, 485
1217, 1660, 1659, 486, 1658
1218, 54, 63, 1659, 1660
1219, 63, 55, 1662, 1659
1220, 1659, 1662, 1661, 486
1221, 1662, 1629, 487, 1661
1222, 55, 64, 1629, 1662
1223, 100, 1663, 1664, 91
1224, 91, 1664, 1644, 99
1225, 503, 1598, 1666, 1665
1226, 1665, 1666, 1145, 501
1227, 1666, 38, 45, 1145
1228, 1598, 44, 38, 1666
1229, 116, 110, 1668, 1153
1230, 1153, 1668, 1667, 579
1231, 1668, 1612, 460, 1667
1232, 110, 117, 1612, 1668
1233, 2192, 886, 884, 858
1234, 2290, 2192, 858, 1907
1235, 2148, 468, 1648, 2044
1236, 61, 53, 1671, 1655
1237, 1655, 1671, 1670, 484
1238, 1671, 1657, 485, 1670
1239, 53, 62, 1657, 1671
1240, 746, 1673, 1674, 1672
1241, 1672, 1674, 1156, 495
1242, 1674, 889, 496, 1156
1243, 1673, 748, 889, 1674
1244, 324, 253, 1677, 1675
1245, 1675, 1677, 1087, 494
1246, 1677, 1676, 693, 1087
1247, 253, 323, 1676, 1677
1248, 735, 1405, 1678, 982
1249, 982, 1678, 1096, 739
1250, 1678, 1051, 740, 1096
1251, 1405, 738, 1051, 1678
1252, 635, 1680, 1681, 1074
1253, 1074, 1681, 1679, 663
1254, 1681, 1254, 667, 1679
1255, 1680, 666, 1254, 1681
1256, 593, 1684, 1685, 1108
1257, 1108, 1685, 1682, 591
1258, 1685, 1683, 589, 1682
1259, 1684, 583, 1683, 1685
1260, 664, 1688, 1689, 1686
1261, 1686, 1689, 1687, 662
1262, 1689, 1408, 661, 1687
1263, 1688, 665, 1408, 1689
1264, 337, 240, 1691, 900
1265, 900, 1691, 1614, 474
1266, 1691, 1690, 473, 1614
1267, 240, 336, 1690, 1691
1268, 596, 1693, 1694, 1063
1269, 1063, 1694, 1692, 584
1270, 1694, 1298, 585, 1692
1271, 1693, 586, 1298, 1694
1272, 684, 1531, 1696, 1695
1273, 1695, 1696, 1103, 689
1274, 1696, 941, 683, 1103
1275, 1531, 681, 941, 1696
1276, 1292, 342, 235, 1293
1277, 1632, 1697, 899, 474
1278, 1697, 238, 338, 899
1279, 1770, 2187, 1771, 525
1280, 606, 1700, 1701, 934
1281, 934, 1701, 1698, 609
1282, 1701, 1699, 607, 1698
1283, 1700, 605, 1699, 1701
1284, 691, 1084, 1703, 1618
1285, 1618, 1703, 255, 321
1286, 1703, 1702, 322, 255
1287, 1084, 462, 1702, 1703
1288, 492, 1704, 1705, 1610
1289, 1610, 1705, 959, 491
1290, 1705, 250, 326, 959
1291, 1704, 327, 250, 1705
1292, 776, 1323, 1709, 1706
1293, 1706, 1709, 1707, 775
1294, 1709, 1708, 773, 1707
1295, 1323, 777, 1708, 1709
1296, 470, 1327, 1711, 1710
1297, 1710, 1711, 243, 333
1298, 1711, 944, 334, 243
1299, 1327, 472, 944, 1711
1300, 329, 1029, 1713, 247
1301, 247, 1713, 1712, 330
1302, 1713, 1353, 490, 1712
1303, 1029, 489, 1353, 1713
1304, 585, 1334, 1716, 1692
1305, 1692, 1716, 1714, 584
1306, 1716, 1715, 582, 1714
1307, 1334, 588, 1715, 1716
1308, 589, 1076, 1719, 1717
1309, 1717, 1719, 1078, 555
1310, 1719, 1718, 556, 1078
1311, 1076, 590, 1718, 1719
1312, 322, 1702, 1721, 254
1313, 254, 1721, 1676, 323
1314, 1721, 1720, 693, 1676
1315, 1702, 462, 1720, 1721
1316, 703, 1724, 1725, 1722
1317, 1722, 1725, 1723, 701
1318, 1725, 1315, 698, 1723
1319, 1724, 697, 1315, 1725
1320, 634, 1727, 1728, 1071
1321, 1071, 1728, 1726, 636
1322, 1728, 1502, 638, 1726
1323, 1727, 637, 1502, 1728
1324, 548, 1732, 1733, 1729
1325, 1729, 1733, 1730, 536
1326, 1733, 1731, 546, 1730
1327, 1732, 547, 1731, 1733
1328, 638, 1426, 1735, 1726
1329, 1726, 1735, 1734, 636
1330, 1735, 1680, 635, 1734
1331, 1426, 666, 1680, 1735
1332, 332, 1036, 1736, 244
1333, 244, 1736, 1710, 333
1334, 1736, 1198, 470, 1710
1335, 1036, 471, 1198, 1736
1336, 685, 1451, 1739, 1737
1337, 1737, 1739, 1738, 688
1338, 1739, 1695, 689, 1738
1339, 1451, 684, 1695, 1739
1340, 726, 1422, 1743, 1740
1341, 1740, 1743, 1741, 722
1342, 1743, 1742, 723, 1741
1343, 1422, 727, 1742, 1743
1344, 490, 1139, 1744, 1712
1345, 1712, 1744, 246, 330
1346, 1744, 1037, 331, 246
1347, 1139, 471, 1037, 1744
1348, 556, 999, 1746, 1080
1349, 1080, 1746, 1745, 557
1350, 1746, 1509, 561, 1745
1351, 999, 554, 1509, 1746
1352, 555, 1748, 1749, 1747
1353, 1747, 1749, 1116, 569
1354, 1749, 1090, 570, 1116
1355, 1748, 558, 1090, 1749
1356, 325, 252, 1750, 960
1357, 960, 1750, 1596, 491
1358, 1750, 1675, 494, 1596
1359, 252, 324, 1675, 1750
1360, 797, 1499, 811, 2142
1361, 2295, 1455, 2294, 2308
1362, 2301, 1859, 795, 2300
1363, 1560, 2143, 796, 807
1364, 588, 1467, 1755, 1715
1365, 1715, 1755, 1077, 582
1366, 1755, 1754, 590, 1077
1367, 1467, 587, 1754, 1755
1368, 335, 943, 1756, 241
1369, 241, 1756, 1690, 336
1370, 1756, 1573, 473, 1690
1371, 943, 472, 1573, 1756
1372, 6, 1758, 1759, 58
1373, 58, 1759, 933, 66
1374, 1759, 1757, 692, 933
1375, 1758, 694, 1757, 1759
1376, 817, 1472, 1762, 1760
1377, 1760, 1762, 855, 816
1378, 1762, 1761, 813, 855
1379, 1472, 819, 1761, 1762
1380, 724, 1765, 1766, 1763
1381, 1763, 1766, 1764, 721
1382, 1766, 1100, 745, 1764
1383, 1765, 741, 1100, 1766
1384, 492, 1386, 1767, 1704
1385, 1704, 1767, 249, 327
1386, 1767, 1030, 328, 249
1387, 1386, 489, 1030, 1767
1388, 591, 1682, 1769, 1768
1389, 1768, 1769, 1747, 569
1390, 1769, 1717, 555, 1747
1391, 1682, 589, 1717, 1769
1392, 2166, 1607, 237, 339
1393, 2187, 1609, 1608, 475
1394, 1770, 1606, 1609, 2187
1395, 1697, 2166, 339, 238
1396, 824, 950, 1774, 1772
1397, 1772, 1774, 1773, 825
1398, 1774, 1277, 820, 1773
1399, 950, 823, 1277, 1774
1400, 600, 1000, 1776, 1775
1401, 1775, 1776, 1693, 596
1402, 1776, 1507, 586, 1693
1403, 1000, 599, 1507, 1776
1404, 820, 1523, 1779, 1773
1405, 1773, 1779, 1777, 825
1406, 1779, 1778, 828, 1777
1407, 1523, 821, 1778, 1779
1408, 66, 931, 1781, 57
1409, 57, 1781, 895, 65
1410, 1781, 1780, 690, 895
1411, 931, 493, 1780, 1781
1412, 662, 1687, 1783, 1027
1413, 1027, 1783, 1782, 659
1414, 1783, 1205, 660, 1782
1415, 1687, 661, 1205, 1783
1416, 568, 1652, 1786, 1784
1417, 1784, 1786, 1785, 567
1418, 1786, 1459, 564, 1785
1419, 1652, 565, 1459, 1786
1420, 773, 1708, 1789, 1787
1421, 1787, 1789, 1788, 772
1422, 1789, 1461, 769, 1788
1423, 1708, 777, 1461, 1789
1424, 561, 1479, 1791, 1745
1425, 1745, 1791, 1790, 557
1426, 1791, 1653, 559, 1790
1427, 1479, 560, 1653, 1791
1428, 792, 1483, 1794, 966
1429, 966, 1794, 1792, 793
1430, 2152, 799, 797, 2193
1431, 2182, 1561, 1351, 2129
1432, 2167, 1918, 995, 1355
1433, 877, 1796, 92, 101
1434, 1796, 1663, 100, 92
1435, 1643, 1213, 2107, 945
1436, 701, 1723, 1798, 880
1437, 880, 1798, 1797, 700
1438, 1798, 1372, 699, 1797
1439, 1723, 698, 1372, 1798
1440, 536, 1730, 1801, 1119
1441, 1119, 1801, 1799, 543
1442, 1801, 1800, 539, 1799
1443, 1730, 546, 1800, 1801
1444, 571, 1805, 1806, 1802
1445, 1802, 1806, 1803, 572
1446, 1806, 1804, 566, 1803
1447, 1805, 567, 1804, 1806
1448, 78, 1595, 1807, 67
1449, 67, 1807, 1758, 6
1450, 1807, 1088, 694, 1758
1451, 1595, 494, 1088, 1807
1452, 782, 1808, 1809, 866
1453, 866, 1809, 970, 815
1454, 1809, 1486, 788, 970
1455, 1808, 789, 1486, 1809
1456, 730, 1267, 1812, 1810
1457, 1810, 1812, 1811, 732
1458, 1812, 1706, 775, 1811
1459, 1267, 776, 1706, 1812
1460, 809, 1110, 1813, 911
1461, 911, 1813, 26, 32
1462, 2304, 801, 2176, 2303
1463, 807, 796, 421, 156
1464, 642, 1281, 1817, 1814
1465, 1814, 1817, 1815, 641
1466, 1817, 1816, 632, 1815
1467, 1281, 644, 1816, 1817
1468, 480, 1955, 969, 626
1469, 729, 1481, 1819, 1033
1470, 1033, 1819, 1818, 731
1471, 1819, 1810, 732, 1818
1472, 1481, 730, 1810, 1819
1473, 663, 1679, 1821, 1820
1474, 1820, 1821, 1688, 664
1475, 1821, 1392, 665, 1688
1476, 1679, 667, 1392, 1821
1477, 787, 1168, 1824, 1822
1478, 1822, 1824, 1012, 786
1479, 1824, 1823, 783, 1012
1480, 1168, 790, 1823, 1824
1481, 790, 1438, 1826, 1823
1482, 1823, 1826, 1825, 783
1483, 1826, 1808, 782, 1825
1484, 1438, 789, 1808, 1826
1485, 704, 1546, 1828, 956
1486, 956, 1828, 1827, 702
1487, 1828, 1724, 703, 1827
1488, 1546, 697, 1724, 1828
1489, 727, 1567, 1830, 1742
1490, 1742, 1830, 1115, 723
1491, 1830, 1829, 725, 1115
1492, 1567, 728, 1829, 1830
1493, 1832, 1375, 1559, 2146
1494, 1004, 2045, 528, 2165
1495, 1948, 1946, 226, 350
1496, 512, 353, 224, 1321
1497, 644, 1505, 1834, 1816
1498, 1816, 1834, 1833, 632
1499, 1834, 1727, 634, 1833
1500, 1505, 637, 1727, 1834
1501, 609, 1698, 1838, 1835
1502, 1835, 1838, 1836, 597
1503, 1838, 1837, 603, 1836
1504, 1698, 607, 1837, 1838
1505, 566, 1839, 1840, 1803
1506, 1803, 1840, 1123, 572
1507, 1840, 1732, 548, 1123
1508, 1839, 547, 1732, 1840
1509, 483, 1841, 1842, 1591
1510, 1591, 1842, 1378, 482
1511, 1842, 1672, 495, 1378
1512, 1841, 746, 1672, 1842
1513, 734, 1846, 1847, 1843
1514, 1843, 1847, 1844, 744
1515, 1847, 1845, 743, 1844
1516, 1846, 731, 1845, 1847
1517, 757, 1850, 1851, 1848
1518, 1848, 1851, 939, 754
1519, 1851, 1849, 756, 939
1520, 1850, 755, 1849, 1851
1521, 755, 1854, 1855, 1849
1522, 1849, 1855, 1852, 756
1523, 1855, 1853, 750, 1852
1524, 1854, 784, 1853, 1855
1525, 1351, 1456, 1585, 1584
1526, 1483, 1485, 2141, 794
1527, 2128, 2171, 1792, 1455
1528, 1313, 2186, 1312, 801
1529, 799, 843, 1499, 797
1530, 1860, 1864, 1861, 806
1531, 2164, 1165, 1167, 1166
1532, 2278, 620, 615, 2139
1533, 493, 1866, 1867, 1780
1534, 1780, 1867, 1865, 690
1535, 1867, 1443, 696, 1865
1536, 1866, 695, 1443, 1867
1537, 691, 1617, 1868, 1086
1538, 1086, 1868, 932, 692
1539, 1868, 1866, 493, 932
1540, 1617, 695, 1866, 1868
1541, 573, 1870, 1871, 1869
1542, 1869, 1871, 1650, 476
1543, 1871, 1601, 465, 1650
1544, 860, 509, 885, 882
1545, 784, 1872, 1873, 1853
1546, 1853, 1873, 919, 750
1547, 1873, 1013, 751, 919
1548, 1872, 786, 1013, 1873
1549, 504, 1875, 1876, 1564
1550, 1564, 1876, 922, 502
1551, 1876, 1874, 833, 922
1552, 1875, 749, 1874, 1876
1553, 539, 1879, 1880, 1799
1554, 1799, 1880, 1877, 543
1555, 1880, 1878, 509, 1877
1556, 1879, 542, 1878, 1880
1557, 578, 852, 1883, 1881
1558, 1881, 1883, 1556, 478
1559, 1883, 1882, 477, 1556
1560, 852, 581, 1882, 1883
1561, 741, 1098, 1885, 1099
1562, 1099, 1885, 1843, 744
1563, 1885, 1884, 734, 1843
1564, 1098, 740, 1884, 1885
1565, 597, 1836, 1888, 1083
1566, 1083, 1888, 1886, 598
1567, 1888, 1887, 600, 1886
1568, 1836, 603, 1887, 1888
1569, 629, 906, 2031, 926
1570, 1889, 1892, 1890, 577
1571, 1892, 1891, 631, 1890
1572, 2292, 1635, 1641, 1639
1573, 611, 1026, 1895, 1893
1574, 1893, 1895, 1700, 606
1575, 1895, 1894, 605, 1700
1576, 1026, 659, 1894, 1895
1577, 1350, 798, 861, 1859
1578, 2294, 794, 1311, 2308
1579, 800, 2307, 1988, 2143
1580, 804, 1500, 799, 2152
1581, 501, 1898, 1899, 1665
1582, 1665, 1899, 1129, 503
1583, 1899, 1875, 504, 1129
1584, 1898, 749, 1875, 1899
1585, 766, 1902, 1903, 1900
1586, 1900, 1903, 937, 753
1587, 1903, 1901, 754, 937
1588, 1902, 765, 1901, 1903
1589, 477, 1882, 1905, 1133
1590, 1133, 1905, 1667, 460
1591, 1905, 1904, 579, 1667
1592, 1882, 581, 1904, 1905
1593, 2252, 533, 1237, 1239
1594, 2127, 1877, 509, 860
1595, 2290, 1602, 1603, 1601
1596, 2044, 467, 1907, 858
1597, 616, 984, 1410, 2120
1598, 2042, 987, 614, 2113
1599, 479, 1862, 2158, 1623
1600, 479, 1908, 620, 2278
1601, 545, 1913, 1914, 1910
1602, 1910, 1914, 1911, 574
1603, 1914, 1912, 573, 1911
1604, 1913, 544, 1912, 1914
1605, 690, 1865, 1915, 894
1606, 894, 1915, 907, 488
1607, 1915, 1620, 686, 907
1608, 1865, 696, 1620, 1915
1609, 529, 530, 1982, 513
1610, 1993, 876, 508, 1065
1611, 2022, 1489, 1917, 2288
1612, 592, 1919, 1920, 867
1613, 867, 1920, 1143, 580
1614, 1920, 917, 576, 1143
1615, 1919, 575, 917, 1920
1616, 814, 865, 1923, 1921
1617, 1921, 1923, 856, 832
1618, 1923, 1922, 816, 856
1619, 865, 815, 1922, 1923
1620, 682, 1924, 1925, 902
1621, 902, 1925, 1047, 677
1622, 1925, 1536, 678, 1047
1623, 1924, 679, 1536, 1925
1624, 568, 1784, 1926, 1094
1625, 1094, 1926, 1092, 558
1626, 1926, 1805, 571, 1092
1627, 1784, 567, 1805, 1926
1628, 497, 1928, 1929, 1146
1629, 1146, 1929, 1898, 501
1630, 1929, 1927, 749, 1898
1631, 1928, 767, 1927, 1929
1632, 747, 1930, 1931, 887
1633, 887, 1931, 1150, 496
1634, 1931, 1928, 497, 1150
1635, 1930, 767, 1928, 1931
1636, 476, 1286, 1932, 1869
1637, 1869, 1932, 1911, 573
1638, 1932, 918, 574, 1911
1639, 1286, 576, 918, 1932
1640, 581, 1933, 1934, 1904
1641, 1904, 1934, 1152, 579
1642, 1934, 869, 580, 1152
1643, 1933, 594, 869, 1934
1644, 548, 1729, 1935, 1122
1645, 1122, 1935, 1913, 545
1646, 1935, 1120, 544, 1913
1647, 1729, 536, 1120, 1935
1648, 594, 1937, 1938, 868
1649, 868, 1938, 1109, 592
1650, 1938, 1936, 593, 1109
1651, 1937, 595, 1936, 1938
1652, 614, 871, 1939, 2113
1653, 1941, 612, 1105, 1940
1654, 613, 20, 15, 968
1655, 621, 1640, 1941, 1955
1656, 752, 921, 1945, 1942
1657, 1942, 1945, 1943, 833
1658, 1945, 1944, 814, 1943
1659, 921, 751, 1944, 1945
1660, 1983, 1664, 1663, 2233
1661, 1357, 352, 225, 514
1662, 1907, 467, 510, 1649
1663, 598, 1949, 1950, 1082
1664, 1082, 1950, 1936, 595
1665, 1950, 1684, 593, 1936
1666, 1949, 583, 1684, 1950
1667, 768, 1061, 1953, 1951
1668, 1951, 1953, 1952, 742
1669, 1953, 1930, 747, 1952
1670, 1061, 767, 1930, 1953
1671, 461, 480, 1956, 1639
1672, 839, 925, 633, 905
1673, 838, 2291, 1892, 1889
1674, 2041, 1978, 967, 624
1675, 984, 1515, 2170, 1410
1676, 1413, 161, 415, 986
1677, 771, 1960, 1961, 1958
1678, 1958, 1961, 897, 765
1679, 1961, 1959, 758, 897
1680, 1960, 772, 1959, 1961
1681, 739, 1097, 1963, 1962
1682, 1962, 1963, 1114, 725
1683, 1963, 1765, 724, 1114
1684, 1097, 741, 1765, 1963
1685, 673, 1965, 1966, 1066
1686, 1066, 1966, 873, 672
1687, 1966, 1964, 674, 873
1688, 1965, 718, 1964, 1966
1689, 813, 1968, 1969, 857
1690, 857, 1969, 847, 832
1691, 1969, 1967, 831, 847
1692, 1968, 824, 1967, 1969
1693, 768, 1014, 1970, 1060
1694, 1060, 1970, 1902, 766
1695, 1970, 1958, 765, 1902
1696, 1014, 771, 1958, 1970
1697, 945, 1215, 520, 526
1698, 976, 1972, 947, 1495
1699, 2222, 521, 1303, 2232
1700, 1213, 1795, 515, 2107
1701, 1382, 419, 158, 1488
1702, 986, 415, 162, 1517
1703, 805, 654, 913, 803
1704, 1897, 1349, 1858, 1529
1705, 610, 936, 1975, 1974
1706, 1974, 1975, 1081, 595
1707, 1975, 1835, 597, 1081
1708, 936, 609, 1835, 1975
1709, 2145, 1976, 2035, 535
1710, 1976, 1977, 1878, 542
1711, 1977, 885, 509, 1878
1712, 2201, 1993, 1065, 2231
1713, 461, 613, 968, 1106
1714, 461, 1106, 2042, 621
1715, 480, 626, 1954, 1956
1716, 1957, 1981, 1861, 2236
1717, 1861, 1981, 1856, 806
1718, 1981, 1166, 498, 1856
1719, 479, 1623, 1165, 2164
1720, 978, 2233, 2137, 2021
1721, 1918, 514, 1356, 995
1722, 578, 835, 1984, 854
1723, 854, 1984, 935, 610
1724, 1984, 1893, 606, 935
1725, 835, 611, 1893, 1984
1726, 573, 1912, 1986, 1870
1727, 2192, 1986, 1985, 886
1728, 1649, 510, 102, 94
1729, 1912, 544, 1985, 1986
1730, 1500, 808, 843, 799
1731, 1859, 861, 1528, 795
1732, 1384, 803, 417, 160
1733, 1794, 1483, 794, 2294
1734, 1990, 2041, 624, 1989
1735, 2113, 1939, 1980, 1640
1736, 481, 629, 926, 838
1737, 1990, 1989, 627, 2208
1738, 705, 958, 1992, 1191
1739, 1191, 1992, 1048, 706
1740, 1992, 1991, 677, 1048
1741, 958, 702, 1991, 1992
1742, 2198, 2201, 2231, 2264
1743, 1995, 2145, 535, 859
1744, 973, 2032, 2145, 1995
1745, 834, 1996, 1997, 923
1746, 923, 1997, 1626, 502
1747, 1997, 848, 500, 1626
1748, 1996, 832, 848, 1997
1749, 774, 1016, 2000, 1998
1750, 1998, 2000, 1999, 743
1751, 2000, 1951, 742, 1999
1752, 1016, 768, 1951, 2000
1753, 822, 949, 2001, 1604
1754, 1604, 2001, 1761, 819
1755, 2001, 1968, 813, 1761
1756, 949, 824, 1968, 2001
1757, 1485, 150, 426, 2141
1758, 2002, 2003, 849, 812
1759, 2003, 1111, 810, 849
1760, 2142, 811, 1752, 1561
1761, 664, 1686, 2005, 2004
1762, 2004, 2005, 836, 631
1763, 2005, 1028, 611, 836
1764, 1686, 662, 1028, 2005
1765, 628, 1954, 1990, 2208
1766, 1634, 2007, 2006, 478
1767, 2007, 1889, 577, 2006
1768, 2292, 904, 629, 481
1769, 752, 2008, 2009, 920
1770, 920, 2009, 1852, 750
1771, 2009, 938, 756, 1852
1772, 2008, 753, 938, 2009
1773, 771, 1015, 2011, 1960
1774, 1960, 2011, 1787, 772
1775, 2011, 2010, 773, 1787
1776, 1015, 774, 2010, 2011
1777, 485, 1658, 2014, 2012
1778, 2012, 2014, 2013, 676
1779, 2014, 901, 677, 2013
1780, 1658, 486, 901, 2014
1781, 558, 1748, 2015, 1093
1782, 1093, 2015, 1790, 559
1783, 2015, 1079, 557, 1790
1784, 1748, 555, 1079, 2015
1785, 682, 2016, 2017, 1924
1786, 1924, 2017, 1580, 679
1787, 2017, 942, 680, 1580
1788, 2016, 683, 942, 2017
1789, 582, 1075, 2018, 1714
1790, 1714, 2018, 1062, 584
1791, 2018, 1683, 583, 1062
1792, 1075, 589, 1683, 2018
1793, 722, 1741, 2020, 929
1794, 929, 2020, 2019, 719
1795, 2020, 1113, 724, 2019
1796, 1741, 723, 1113, 2020
1797, 2288, 1917, 348, 229
1798, 1308, 230, 346, 1215
1799, 979, 1458, 1489, 952
1800, 1916, 2167, 1355, 1947
1801, 757, 2025, 2026, 2023
1802, 2023, 2026, 1551, 762
1803, 2026, 2024, 761, 1551
1804, 2025, 764, 2024, 2026
1805, 2120, 1410, 617, 2119
1806, 1909, 2029, 2027, 615
1807, 2029, 1271, 657, 2027
1808, 2028, 656, 1271, 2029
1809, 2185, 927, 641, 2215
1810, 926, 2031, 925, 839
1811, 906, 2185, 2215, 2031
1812, 904, 1956, 1954, 628
1813, 2198, 2264, 511, 1003
1814, 1995, 859, 876, 1993
1815, 2239, 1031, 2032, 973
1816, 508, 534, 1125, 2289
1817, 786, 1872, 2033, 1822
1818, 1822, 2033, 1513, 787
1819, 2033, 1009, 785, 1513
1820, 1872, 784, 1009, 2033
1821, 535, 2035, 1363, 974
1822, 2264, 2231, 506, 533
1823, 2035, 2034, 507, 1363
1824, 1976, 542, 2034, 2035
1825, 671, 879, 2038, 2036
1826, 2036, 2038, 1068, 672
1827, 2038, 2037, 707, 1068
1828, 879, 700, 2037, 2038
1829, 641, 927, 2039, 1814
1830, 1814, 2039, 1538, 642
1831, 2039, 1006, 643, 1538
1832, 927, 627, 1006, 2039
1833, 1640, 1980, 612, 1941
1834, 626, 969, 1978, 2041
1835, 613, 1641, 14, 20
1836, 1954, 626, 2041, 1990
1837, 770, 1043, 2043, 1544
1838, 1544, 2043, 1788, 769
1839, 2043, 1959, 772, 1788
1840, 1043, 758, 1959, 2043
1841, 951, 2165, 2242, 523
1842, 2264, 533, 2252, 511
1843, 708, 988, 2046, 1210
1844, 1210, 2046, 1797, 699
1845, 2046, 2037, 700, 1797
1846, 988, 707, 2037, 2046
1847, 670, 1046, 2047, 1533
1848, 1533, 2047, 954, 669
1849, 2047, 1699, 605, 954
1850, 1046, 607, 1699, 2047
1851, 710, 2048, 2049, 1220
1852, 1220, 2049, 989, 709
1853, 2049, 1067, 707, 989
1854, 2048, 673, 1067, 2049
1855, 736, 981, 2050, 1435
1856, 1435, 2050, 1829, 728
1857, 2050, 1962, 725, 1829
1858, 981, 739, 1962, 2050
1859, 604, 1040, 2051, 1202
1860, 1202, 2051, 1044, 608
1861, 2051, 1837, 607, 1044
1862, 1040, 603, 1837, 2051
1863, 784, 1854, 2053, 1008
1864, 1008, 2053, 1177, 781
1865, 2053, 2052, 780, 1177
1866, 1854, 755, 2052, 2053
1867, 778, 2054, 2055, 1549
1868, 1549, 2055, 2023, 762
1869, 2055, 1850, 757, 2023
1870, 2054, 755, 1850, 2055
1871, 671, 2036, 2057, 2056
1872, 2056, 2057, 892, 484
1873, 2057, 874, 675, 892
1874, 2036, 672, 874, 2057
1875, 546, 1731, 2058, 1055
1876, 1055, 2058, 1431, 550
1877, 2058, 1017, 549, 1431
1878, 1731, 547, 1017, 2058
1879, 722, 930, 2060, 1740
1880, 1740, 2060, 1475, 726
1881, 2060, 2059, 712, 1475
1882, 930, 714, 2059, 2060
1883, 601, 1002, 2061, 1390
1884, 1390, 2061, 1038, 602
1885, 2061, 1887, 603, 1038
1886, 1002, 600, 1887, 2061
1887, 826, 962, 2063, 1428
1888, 1428, 2063, 1778, 821
1889, 2063, 2062, 828, 1778
1890, 962, 829, 2062, 2063
1891, 733, 1035, 2065, 1571
1892, 1571, 2065, 2064, 463
1893, 2065, 1846, 734, 2064
1894, 1035, 731, 1846, 2065
1895, 675, 2066, 2067, 891
1896, 891, 2067, 1841, 483
1897, 2067, 1057, 746, 1841
1898, 2066, 720, 1057, 2067
1899, 625, 2040, 2068, 1022
1900, 1022, 2068, 1241, 652
1901, 2068, 1024, 651, 1241
1902, 2040, 645, 1024, 2068
1903, 553, 998, 2069, 1162
1904, 1162, 2069, 1754, 587
1905, 2069, 1718, 590, 1754
1906, 998, 556, 1718, 2069
1907, 791, 965, 2071, 1231
1908, 1231, 2071, 963, 827
1909, 2071, 2070, 829, 963
1910, 965, 793, 2070, 2071
1911, 676, 2073, 2074, 2072
1912, 2072, 2074, 881, 671
1913, 2074, 1722, 701, 881
1914, 2073, 703, 1722, 2074
1915, 716, 2077, 2078, 1250
1916, 1250, 2078, 2075, 715
1917, 2078, 2076, 718, 2075
1918, 2077, 714, 2076, 2078
1919, 831, 2080, 2081, 846
1920, 846, 2081, 1637, 500
1921, 2081, 2079, 499, 1637
1922, 2080, 830, 2079, 2081
1923, 816, 1922, 2082, 1760
1924, 1760, 2082, 1624, 817
1925, 2082, 971, 818, 1624
1926, 1922, 815, 971, 2082
1927, 540, 2084, 2085, 1562
1928, 1562, 2085, 2083, 538
1929, 2085, 1879, 539, 2083
1930, 2084, 542, 1879, 2085
1931, 743, 1845, 2087, 1998
1932, 1998, 2087, 2086, 774
1933, 2087, 1818, 732, 2086
1934, 1845, 731, 1818, 2087
1935, 2045, 1457, 1126, 528
1936, 2149, 2286, 527, 1831
1937, 1032, 2289, 1343, 1341
1938, 878, 529, 513, 1994
1939, 668, 953, 2088, 1540
1940, 1540, 2088, 1782, 660
1941, 2088, 1894, 659, 1782
1942, 953, 605, 1894, 2088
1943, 569, 1117, 2089, 1768
1944, 1768, 2089, 1107, 591
1945, 2089, 1919, 592, 1107
1946, 1117, 575, 1919, 2089
1947, 718, 1965, 2091, 2075
1948, 2075, 2091, 1288, 715
1949, 2091, 2090, 717, 1288
1950, 1965, 673, 2090, 2091
1951, 562, 2092, 2093, 1262
1952, 1262, 2093, 1785, 564
1953, 2093, 1804, 567, 1785
1954, 2092, 566, 1804, 2093
1955, 539, 1800, 2094, 2083
1956, 2083, 2094, 1368, 538
1957, 2094, 1053, 537, 1368
1958, 1800, 546, 1053, 2094
1959, 624, 967, 2095, 991
1960, 991, 2095, 1216, 623
1961, 2095, 1020, 622, 1216
1962, 967, 625, 1020, 2095
1963, 627, 1989, 2096, 1005
1964, 1005, 2096, 1521, 640
1965, 2096, 992, 639, 1521
1966, 1989, 624, 992, 2096
1967, 547, 1839, 2098, 1019
1968, 1019, 2098, 1497, 551
1969, 2098, 2097, 552, 1497
1970, 1839, 566, 2097, 2098
1971, 575, 1118, 2100, 916
1972, 916, 2100, 1910, 574
1973, 2100, 2099, 545, 1910
1974, 1118, 570, 2099, 2100
1975, 734, 1884, 2101, 2064
1976, 2064, 2101, 1588, 463
1977, 2101, 1052, 737, 1588
1978, 1884, 740, 1052, 2101
1979, 630, 905, 2102, 1072
1980, 1072, 2102, 1734, 635
1981, 2102, 1070, 636, 1734
1982, 905, 633, 1070, 2102
1983, 499, 2079, 2103, 912
1984, 912, 2103, 1112, 809
1985, 2103, 851, 810, 1112
1986, 2079, 830, 851, 2103
1987, 688, 2104, 2105, 1737
1988, 1737, 2105, 1490, 685
1989, 2105, 908, 687, 1490
1990, 2104, 488, 908, 2105
1991, 754, 1901, 2106, 1848
1992, 1848, 2106, 2025, 757
1993, 2106, 898, 764, 2025
1994, 1901, 765, 898, 2106
1995, 1971, 522, 344, 233
1996, 2137, 1796, 877, 513
1997, 526, 520, 1212, 946
1998, 760, 2108, 2109, 1582
1999, 1582, 2109, 1041, 759
2000, 2109, 896, 758, 1041
2001, 2108, 764, 896, 2109
2002, 828, 2062, 2112, 2110
2003, 2110, 2112, 2080, 831
2004, 2112, 2111, 830, 2080
2005, 2062, 829, 2111, 2112
2006, 1908, 1957, 2236, 1622
2007, 461, 1639, 1641, 613
2008, 1978, 1105, 625, 967
2009, 683, 2016, 2114, 1102
2010, 1102, 2114, 1661, 487
2011, 2114, 903, 486, 1661
2012, 2016, 682, 903, 2114
2013, 545, 2099, 2115, 1124
2014, 1124, 2115, 1802, 572
2015, 2115, 1091, 571, 1802
2016, 2099, 570, 1091, 2115
2017, 524, 2116, 2117, 1307
2018, 469, 1646, 1647, 1642
2019, 1569, 946, 1212, 977
2020, 2116, 475, 1646, 2117
2021, 610, 1974, 2118, 853
2022, 853, 2118, 1933, 581
2023, 2118, 1937, 594, 1933
2024, 1974, 595, 1937, 2118
2025, 620, 618, 1909, 615
2026, 1862, 987, 2042, 1106
2027, 630, 1073, 2121, 1891
2028, 1891, 2121, 2004, 631
2029, 2121, 1820, 664, 2004
2030, 1073, 663, 1820, 2121
2031, 753, 2122, 2123, 1900
2032, 1900, 2123, 1059, 766
2033, 2123, 1927, 767, 1059
2034, 2122, 749, 1927, 2123
2035, 720, 2066, 2126, 2124
2036, 2124, 2126, 2125, 719
2037, 2126, 875, 674, 2125
2038, 2066, 675, 875, 2126
2039, 543, 1877, 2127, 1121
2040, 1121, 2127, 1985, 544
2041, 1994, 513, 877, 2200
2042, 510, 1906, 93, 102
2043, 2308, 1311, 808, 1500
2044, 2295, 2308, 1500, 804
2045, 2296, 2128, 1455, 2295
2046, 1383, 805, 803, 1384
2047, 714, 928, 2130, 2076
2048, 2076, 2130, 1964, 718
2049, 2130, 2125, 674, 1964
2050, 928, 719, 2125, 2130
2051, 748, 2132, 2133, 888
2052, 888, 2133, 1952, 747
2053, 2133, 2131, 742, 1952
2054, 2132, 745, 2131, 2133
2055, 783, 1825, 2134, 1011
2056, 1011, 2134, 1944, 751
2057, 2134, 864, 814, 1944
2058, 1825, 782, 864, 2134
2059, 721, 1764, 2135, 1058
2060, 1058, 2135, 1673, 746
2061, 2135, 2132, 748, 1673
2062, 1764, 745, 2132, 2135
2063, 617, 2028, 2029, 1909
2064, 1488, 158, 418, 2211
2065, 1484, 804, 2152, 2186
2066, 915, 1384, 160, 416
2067, 1128, 2022, 515, 1795
2068, 1322, 994, 349, 228
2069, 647, 1388, 2140, 2138
2070, 2138, 2140, 2139, 615
2071, 2140, 870, 614, 2139
2072, 1388, 648, 870, 2140
2073, 2193, 797, 2142, 1310
2074, 2176, 842, 798, 1350
2075, 1751, 151, 425, 1753
2076, 2303, 2176, 1350, 2302
2077, 598, 1886, 2144, 1949
2078, 1949, 2144, 1064, 583
2079, 2144, 1775, 596, 1064
2080, 1886, 600, 1775, 2144
2081, 1004, 2165, 951, 516
2082, 527, 1127, 1832, 1457
2083, 1031, 532, 882, 885
2084, 1576, 1238, 1376, 1127
2085, 742, 2131, 2147, 1999
2086, 1999, 2147, 1844, 743
2087, 2147, 1101, 744, 1844
2088, 2131, 745, 1101, 2147
2089, 468, 2200, 466, 1648
2090, 1003, 511, 2286, 2149
2091, 528, 1126, 2146, 505
2092, 859, 975, 1374, 876
2093, 719, 2019, 2150, 2124
2094, 2124, 2150, 1056, 720
2095, 2150, 1763, 721, 1056
2096, 2019, 724, 1763, 2150
2097, 843, 2151, 1793, 1499
2098, 1501, 154, 422, 464
2099, 653, 2309, 1897, 1973
2100, 2297, 2296, 1484, 2153
2101, 834, 924, 2154, 1996
2102, 1996, 2154, 1921, 832
2103, 2154, 1943, 814, 1921
2104, 924, 833, 1943, 2154
2105, 793, 2155, 2156, 2070
2106, 2070, 2156, 2111, 829
2107, 2156, 850, 830, 2111
2108, 2155, 812, 850, 2156
2109, 487, 1630, 2157, 1104
2110, 1104, 2157, 1738, 689
2111, 2157, 2104, 688, 1738
2112, 1630, 488, 2104, 2157
2113, 1939, 1979, 645, 1980
2114, 871, 649, 1979, 1939
2115, 479, 2164, 1957, 1908
2116, 578, 1881, 2159, 837
2117, 837, 2159, 1890, 631
2118, 2159, 2006, 577, 1890
2119, 1881, 478, 2006, 2159
2120, 462, 1085, 2160, 1720
2121, 1720, 2160, 1089, 693
2122, 2160, 1757, 694, 1089
2123, 1085, 692, 1757, 2160
2124, 633, 2030, 2161, 1069
2125, 1069, 2161, 1833, 634
2126, 2161, 1815, 632, 1833
2127, 2030, 641, 1815, 2161
2128, 645, 1979, 2162, 1023
2129, 1023, 2162, 1194, 650
2130, 2162, 1366, 646, 1194
2131, 1979, 649, 1366, 2162
2132, 2233, 1663, 1796, 2137
2133, 1302, 1569, 977, 522
2134, 1411, 985, 653, 2136
2135, 479, 2278, 987, 1862
2136, 2286, 1576, 1127, 527
2137, 505, 2146, 1559, 512
2138, 525, 1771, 1290, 845
2139, 845, 1291, 459, 844
2140, 1607, 844, 340, 237
2141, 1293, 235, 341, 1291
2142, 514, 225, 351, 1356
2143, 1559, 223, 353, 512
2144, 1947, 1355, 531, 994
2145, 825, 1777, 2168, 1772
2146, 1772, 2168, 1967, 824
2147, 2168, 2110, 831, 1967
2148, 1777, 828, 2110, 2168
2149, 676, 2013, 2169, 2073
2150, 2073, 2169, 1827, 703
2151, 2169, 1991, 702, 1827
2152, 2013, 677, 1991, 2169
2153, 1973, 1382, 1488, 1477
2154, 2028, 2170, 1578, 656
2155, 2170, 1515, 655, 1578
2156, 2119, 618, 1622, 619
2157, 2309, 2293, 1349, 1897
2158, 1792, 2171, 2155, 793
2159, 2171, 2002, 812, 2155
2160, 796, 1857, 155, 421
2161, 833, 1874, 2172, 1942
2162, 1942, 2172, 2008, 752
2163, 2172, 2122, 753, 2008
2164, 1874, 749, 2122, 2172
2165, 676, 2072, 2173, 2012
2166, 2012, 2173, 1670, 485
2167, 2173, 2056, 484, 1670
2168, 2072, 671, 2056, 2173
2169, 779, 1395, 2174, 1183
2170, 1183, 2174, 2054, 778
2171, 2174, 2052, 755, 2054
2172, 1395, 780, 2052, 2174
2173, 673, 2048, 2175, 2090
2174, 2090, 2175, 1259, 717
2175, 2175, 1228, 711, 1259
2176, 2048, 710, 1228, 2175
2177, 2186, 2152, 2193, 1312
2178, 863, 423, 154, 1501
2179, 842, 1310, 2182, 798
2180, 1312, 2193, 1310, 842
2181, 541, 1337, 2177, 1449
2182, 1449, 2177, 2084, 540
2183, 2177, 2034, 542, 2084
2184, 1337, 507, 2034, 2177
2185, 763, 1398, 2178, 1402
2186, 1402, 2178, 2108, 760
2187, 2178, 2024, 764, 2108
2188, 1398, 761, 2024, 2178
2189, 714, 2077, 2179, 2059
2190, 2059, 2179, 1360, 712
2191, 2179, 1304, 713, 1360
2192, 2077, 716, 1304, 2179
2193, 775, 1707, 2180, 1811
2194, 1811, 2180, 2086, 732
2195, 2180, 2010, 774, 2086
2196, 1707, 773, 2010, 2180
2197, 658, 1330, 2181, 1464
2198, 1464, 2181, 2027, 657
2199, 2181, 2138, 615, 2027
2200, 1330, 647, 2138, 2181
2201, 795, 1528, 1987, 2293
2202, 1499, 1793, 1348, 811
2203, 1973, 1897, 1529, 1382
2204, 1858, 807, 156, 420
2205, 563, 1295, 2183, 1358
2206, 1358, 2183, 2092, 562
2207, 2183, 2097, 566, 2092
2208, 1295, 552, 2097, 2183
2209, 578, 837, 2184, 835
2210, 835, 2184, 836, 611
2211, 837, 631, 836, 2184
2212, 2031, 2215, 840, 925
2213, 2292, 1634, 1636, 1635
2214, 925, 840, 2030, 633
2215, 1455, 1792, 1794, 2294
2216, 794, 2141, 1751, 1311
2217, 1311, 1751, 1753, 808
2218, 1290, 524, 1292, 1293
2219, 1770, 525, 1607, 2166
2220, 525, 845, 844, 1607
2221, 500, 848, 2188, 846
2222, 846, 2188, 847, 831
2223, 848, 832, 847, 2188
2224, 810, 851, 2189, 849
2225, 849, 2189, 850, 812
2226, 851, 830, 850, 2189
2227, 578, 854, 2190, 852
2228, 852, 2190, 853, 581
2229, 854, 610, 853, 2190
2230, 813, 857, 2191, 855
2231, 855, 2191, 856, 816
2232, 857, 832, 856, 2191
2233, 2290, 1870, 1986, 2192
2234, 886, 860, 882, 884
2235, 467, 883, 1906, 510
2236, 1585, 464, 1857, 1988
2237, 808, 1753, 2151, 843
2238, 1584, 1585, 1988, 2307
2239, 782, 866, 2194, 864
2240, 864, 2194, 865, 814
2241, 866, 815, 865, 2194
2242, 580, 869, 2195, 867
2243, 867, 2195, 868, 592
2244, 869, 594, 868, 2195
2245, 648, 872, 2196, 870
2246, 870, 2196, 871, 614
2247, 872, 649, 871, 2196
2248, 674, 875, 2197, 873
2249, 873, 2197, 874, 672
2250, 875, 675, 874, 2197
2251, 2289, 1125, 1342, 1343
2252, 671, 881, 2199, 879
2253, 879, 2199, 880, 700
2254, 881, 701, 880, 2199
2255, 2290, 1601, 1871, 1870
2256, 886, 1985, 2127, 860
2257, 974, 1364, 1470, 975
2258, 1363, 1365, 1364, 974
2259, 496, 889, 2202, 887
2260, 887, 2202, 888, 747
2261, 889, 748, 888, 2202
2262, 484, 892, 2203, 890
2263, 890, 2203, 891, 483
2264, 892, 675, 891, 2203
2265, 65, 895, 2204, 893
2266, 893, 2204, 894, 488
2267, 895, 690, 894, 2204
2268, 764, 898, 2205, 896
2269, 896, 2205, 897, 758
2270, 898, 765, 897, 2205
2271, 337, 900, 2206, 239
2272, 239, 2206, 899, 338
2273, 900, 474, 899, 2206
2274, 486, 903, 2207, 901
2275, 901, 2207, 902, 677
2276, 903, 682, 902, 2207
2277, 2292, 1639, 1956, 904
2278, 1892, 2291, 630, 1891
2279, 838, 926, 839, 2291
2280, 686, 909, 2209, 907
2281, 907, 2209, 908, 488
2282, 909, 687, 908, 2209
2283, 499, 912, 2210, 910
2284, 910, 2210, 911, 32
2285, 912, 809, 911, 2210
2286, 2235, 983, 619, 1412
2287, 983, 2120, 2119, 619
2288, 1477, 1488, 2211, 914
2289, 574, 918, 2212, 916
2290, 916, 2212, 917, 575
2291, 918, 576, 917, 2212
2292, 751, 921, 2213, 919
2293, 919, 2213, 920, 750
2294, 921, 752, 920, 2213
2295, 833, 924, 2214, 922
2296, 922, 2214, 923, 502
2297, 924, 834, 923, 2214
2298, 2291, 839, 905, 630
2299, 2215, 641, 2030, 840
2300, 2208, 627, 927, 2185
2301, 714, 930, 2216, 928
2302, 928, 2216, 929, 719
2303, 930, 722, 929, 2216
2304, 66, 933, 2217, 931
2305, 931, 2217, 932, 493
2306, 933, 692, 932, 2217
2307, 609, 936, 2218, 934
2308, 934, 2218, 935, 606
2309, 936, 610, 935, 2218
2310, 754, 939, 2219, 937
2311, 937, 2219, 938, 753
2312, 939, 756, 938, 2219
2313, 680, 942, 2220, 940
2314, 940, 2220, 941, 681
2315, 942, 683, 941, 2220
2316, 334, 944, 2221, 242
2317, 242, 2221, 943, 335
2318, 944, 472, 943, 2221
2319, 947, 1302, 522, 1971
2320, 1972, 2163, 1302, 947
2321, 1309, 1496, 343, 234
2322, 823, 950, 2223, 948
2323, 948, 2223, 949, 822
2324, 950, 824, 949, 2223
2325, 515, 1380, 1308, 2107
2326, 1380, 2288, 229, 347
2327, 1321, 224, 352, 1357
2328, 668, 955, 2225, 953
2329, 953, 2225, 954, 605
2330, 955, 669, 954, 2225
2331, 702, 958, 2226, 956
2332, 956, 2226, 957, 704
2333, 958, 705, 957, 2226
2334, 325, 960, 2227, 251
2335, 251, 2227, 959, 326
2336, 960, 491, 959, 2227
2337, 827, 963, 2228, 961
2338, 961, 2228, 962, 826
2339, 963, 829, 962, 2228
2340, 792, 966, 2229, 964
2341, 964, 2229, 965, 791
2342, 966, 793, 965, 2229
2343, 1955, 1941, 1940, 969
2344, 2164, 1166, 1981, 1957
2345, 968, 15, 2, 2158
2346, 788, 972, 2230, 970
2347, 970, 2230, 971, 815
2348, 972, 818, 971, 2230
2349, 2239, 2198, 1003, 878
2350, 1065, 508, 2289, 1032
2351, 533, 506, 1344, 1237
2352, 519, 1645, 1644, 517
2353, 1643, 945, 526, 1214
2354, 2021, 2137, 513, 1982
2355, 996, 1381, 978, 2021
2356, 1356, 351, 226, 1946
2357, 735, 982, 2234, 980
2358, 980, 2234, 981, 736
2359, 982, 739, 981, 2234
2360, 802, 914, 654, 805
2361, 803, 913, 159, 417
2362, 1862, 1106, 968, 2158
2363, 1863, 1383, 1384, 915
2364, 1908, 1622, 618, 620
2365, 708, 990, 2237, 988
2366, 988, 2237, 989, 707
2367, 990, 709, 989, 2237
2368, 623, 993, 2238, 991
2369, 991, 2238, 992, 624
2370, 993, 639, 992, 2238
2371, 2242, 505, 512, 1321
2372, 1355, 995, 1948, 531
2373, 554, 999, 2240, 997
2374, 997, 2240, 998, 553
2375, 999, 556, 998, 2240
2376, 600, 1002, 2241, 1000
2377, 1000, 2241, 1001, 599
2378, 1002, 601, 1001, 2241
2379, 1648, 466, 1906, 883
2380, 876, 1374, 534, 508
2381, 640, 1007, 2243, 1005
2382, 1005, 2243, 1006, 627
2383, 1007, 643, 1006, 2243
2384, 781, 1010, 2244, 1008
2385, 1008, 2244, 1009, 784
2386, 1010, 785, 1009, 2244
2387, 751, 1013, 2245, 1011
2388, 1011, 2245, 1012, 783
2389, 1013, 786, 1012, 2245
2390, 768, 1016, 2246, 1014
2391, 1014, 2246, 1015, 771
2392, 1016, 774, 1015, 2246
2393, 547, 1019, 2247, 1017
2394, 1017, 2247, 1018, 549
2395, 1019, 551, 1018, 2247
2396, 625, 1022, 2248, 1020
2397, 1020, 2248, 1021, 622
2398, 1022, 652, 1021, 2248
2399, 650, 1025, 2249, 1023
2400, 1023, 2249, 1024, 645
2401, 1025, 651, 1024, 2249
2402, 611, 1028, 2250, 1026
2403, 1026, 2250, 1027, 659
2404, 1028, 662, 1027, 2250
2405, 328, 1030, 2251, 248
2406, 248, 2251, 1029, 329
2407, 1030, 489, 1029, 2251
2408, 1576, 2252, 1239, 1238
2409, 1669, 1994, 2200, 468
2410, 2239, 1669, 532, 1031
2411, 731, 1035, 2253, 1033
2412, 1033, 2253, 1034, 729
2413, 1035, 733, 1034, 2253
2414, 331, 1037, 2254, 245
2415, 245, 2254, 1036, 332
2416, 1037, 471, 1036, 2254
2417, 603, 1040, 2255, 1038
2418, 1038, 2255, 1039, 602
2419, 1040, 604, 1039, 2255
2420, 758, 1043, 2256, 1041
2421, 1041, 2256, 1042, 759
2422, 1043, 770, 1042, 2256
2423, 607, 1046, 2257, 1044
2424, 1044, 2257, 1045, 608
2425, 1046, 670, 1045, 2257
2426, 678, 1049, 2258, 1047
2427, 1047, 2258, 1048, 677
2428, 1049, 706, 1048, 2258
2429, 737, 1052, 2259, 1050
2430, 1050, 2259, 1051, 738
2431, 1052, 740, 1051, 2259
2432, 546, 1055, 2260, 1053
2433, 1053, 2260, 1054, 537
2434, 1055, 550, 1054, 2260
2435, 721, 1058, 2261, 1056
2436, 1056, 2261, 1057, 720
2437, 1058, 746, 1057, 2261
2438, 767, 1061, 2262, 1059
2439, 1059, 2262, 1060, 766
2440, 1061, 768, 1060, 2262
2441, 583, 1064, 2263, 1062
2442, 1062, 2263, 1063, 584
2443, 1064, 596, 1063, 2263
2444, 2239, 878, 1994, 1669
2445, 511, 2252, 1576, 2286
2446, 2148, 2044, 858, 884
2447, 672, 1068, 2265, 1066
2448, 1066, 2265, 1067, 673
2449, 1068, 707, 1067, 2265
2450, 634, 1071, 2266, 1069
2451, 1069, 2266, 1070, 633
2452, 1071, 636, 1070, 2266
2453, 635, 1074, 2267, 1072
2454, 1072, 2267, 1073, 630
2455, 1074, 663, 1073, 2267
2456, 582, 1077, 2268, 1075
2457, 1075, 2268, 1076, 589
2458, 1077, 590, 1076, 2268
2459, 556, 1080, 2269, 1078
2460, 1078, 2269, 1079, 555
2461, 1080, 557, 1079, 2269
2462, 597, 1083, 2270, 1081
2463, 1081, 2270, 1082, 595
2464, 1083, 598, 1082, 2270
2465, 691, 1086, 2271, 1084
2466, 1084, 2271, 1085, 462
2467, 1086, 692, 1085, 2271
2468, 693, 1089, 2272, 1087
2469, 1087, 2272, 1088, 494
2470, 1089, 694, 1088, 2272
2471, 558, 1092, 2273, 1090
2472, 1090, 2273, 1091, 570
2473, 1092, 571, 1091, 2273
2474, 559, 1095, 2274, 1093
2475, 1093, 2274, 1094, 558
2476, 1095, 568, 1094, 2274
2477, 740, 1098, 2275, 1096
2478, 1096, 2275, 1097, 739
2479, 1098, 741, 1097, 2275
2480, 744, 1101, 2276, 1099
2481, 1099, 2276, 1100, 741
2482, 1101, 745, 1100, 2276
2483, 487, 1104, 2277, 1102
2484, 1102, 2277, 1103, 683
2485, 1104, 689, 1103, 2277
2486, 1623, 2158, 2, 21
2487, 461, 621, 1955, 480
2488, 987, 2278, 2139, 614
2489, 592, 1109, 2279, 1107
2490, 1107, 2279, 1108, 591
2491, 1109, 593, 1108, 2279
2492, 809, 1112, 2280, 1110
2493, 1348, 153, 423, 863
2494, 1112, 810, 1111, 2280
2495, 723, 1115, 2281, 1113
2496, 1113, 2281, 1114, 724
2497, 1115, 725, 1114, 2281
2498, 570, 1118, 2282, 1116
2499, 1116, 2282, 1117, 569
2500, 1118, 575, 1117, 2282
2501, 543, 1121, 2283, 1119
2502, 1119, 2283, 1120, 536
2503, 1121, 544, 1120, 2283
2504, 545, 1124, 2284, 1122
2505, 1122, 2284, 1123, 548
2506, 1124, 572, 1123, 2284
2507, 1831, 527, 1457, 2045
2508, 1457, 1832, 2146, 1126
2509, 516, 996, 2021, 1982
2510, 1983, 517, 1644, 1664
2511, 523, 2242, 1321, 1357
2512, 952, 1489, 2022, 1128
2513, 518, 2285, 517, 1983
2514, 1495, 947, 1971, 1496
2515, 1214, 526, 946, 1569
2516, 1947, 994, 1322, 1458
2517, 2224, 1128, 1795, 2287
2518, 466, 101, 93, 1906
2519, 2290, 1907, 1649, 1602
2520, 481, 838, 1889, 2007
2521, 2292, 481, 2007, 1634
2522, 1896, 2002, 2171, 2128
2523, 2297, 1896, 2128, 2296
2524, 2298, 2003, 2002, 1896
2525, 2310, 2298, 1896, 2297
2526, 1527, 1110, 2280, 1111
2527, 2298, 1527, 1111, 2003
2528, 2299, 1813, 1110, 1527
2529, 2310, 2299, 1527, 2298
2530, 2299, 3, 26, 1813
2531, 2310, 23, 3, 2299
2532, 2300, 2309, 653, 985
2533, 2301, 2300, 985, 1860
2534, 2302, 2301, 1860, 806
2535, 2303, 2302, 806, 1856
2536, 2304, 2303, 1856, 498
2537, 2305, 2304, 498, 841
2538, 2306, 2305, 841, 25
2539, 2310, 2306, 25, 23
*ELSET,ELSET=contact_source
103, 104, 105, 106, 107, 108, 109, 110, 111, 112, 
113, 114, 115, 116, 
*ELSET,ELSET=contact_drain
31, 32, 33, 34, 35, 36, 37, 38, 39, 40, 
41, 42, 43, 44, 
*ELSET,ELSET=probe_A
63, 64, 65, 66, 67, 68, 69, 70, 71, 72, 
73, 74, 75, 76, 77, 78, 79, 80, 81, 82, 
83, 84, 
*ELSET,ELSET=probe_B
13, 14, 15, 16, 17, 18, 
*ELSET,ELSET=walls
1, 2, 3, 4, 5, 6, 7, 8, 9, 10, 
11, 12, 19, 20, 21, 22, 23, 24, 25, 26, 
27, 28, 29, 30, 45, 46, 47, 48, 49, 50, 
51, 52, 53, 54, 55, 56, 57, 58, 59, 60, 
61, 62, 85, 86, 87, 88, 89, 90, 91, 92, 
93, 94, 95, 96, 97, 98, 99, 100, 101, 102, 
117, 118, 119, 120, 121, 122, 123, 124, 125, 126, 
127, 128, 129, 130, 131, 132, 133, 134, 135, 136, 
137, 138, 139, 140, 141, 142, 143, 144, 145, 146, 
147, 148, 149, 150, 151, 152, 153, 154, 155, 156, 
157, 158, 159, 160, 161, 162, 163, 164, 165, 166, 
167, 168, 169, 170, 171, 172, 173, 174, 175, 176, 
177, 178, 179, 180, 181, 182, 183, 184, 185, 186, 
187, 188, 189, 190, 191, 192, 193, 194, 195, 196, 
197, 198, 199, 200, 201, 202, 203, 204, 205, 206, 
207, 208, 209, 210, 211, 212, 213, 214, 215, 216, 
217, 218, 219, 220, 221, 222, 223, 224, 225, 226, 
227, 228, 229, 230, 231, 232, 233, 234, 235, 236, 
237, 238, 239, 240, 241, 242, 243, 244, 245, 246, 
247, 248, 249, 250, 251, 252, 253, 254, 255, 256, 
257, 258, 259, 260, 261, 262, 263, 264, 265, 266, 
267, 268, 269, 270, 271, 272, 273, 274, 275, 276, 
277, 278, 279, 280, 281, 282, 283, 284, 285, 286, 
287, 288, 289, 290, 291, 292, 293, 294, 295, 296, 
297, 298, 299, 300, 301, 302, 303, 304, 305, 306, 
307, 308, 309, 310, 311, 312, 313, 314, 315, 316, 
317, 318, 319, 320, 321, 322, 323, 324, 325, 326, 
327, 328, 329, 330, 331, 332, 333, 334, 335, 336, 
337, 338, 339, 340, 341, 342, 343, 344, 345, 346, 
347, 348, 349, 350, 351, 352, 353, 354, 355, 356, 
357, 358, 359, 360, 361, 362, 363, 364, 365, 366, 
367, 368, 369, 370, 371, 372, 373, 374, 375, 376, 
377, 378, 379, 380, 381, 382, 383, 384, 385, 386, 
387, 388, 389, 390, 391, 392, 393, 394, 395, 396, 
397, 398, 399, 400, 401, 402, 403, 404, 405, 406, 
407, 408, 409, 410, 411, 412, 413, 414, 415, 416, 
417, 418, 419, 420, 421, 422, 423, 424, 425, 426, 
427, 428, 429, 430, 431, 432, 433, 434, 435, 436, 
437, 438, 439, 440, 441, 442, 443, 444, 445, 446, 
447, 448, 449, 450, 451, 452, 453, 454, 455, 456, 
457, 458, 
*ELSET,ELSET=domain
459, 460, 461, 462, 463, 464, 465, 466, 467, 468, 
469, 470, 471, 472, 473, 474, 475, 476, 477, 478, 
479, 480, 481, 482, 483, 484, 485, 486, 487, 488, 
489, 490, 491, 492, 493, 494, 495, 496, 497, 498, 
499, 500, 501, 502, 503, 504, 505, 506, 507, 508, 
509, 510, 511, 512, 513, 514, 515, 516, 517, 518, 
519, 520, 521, 522, 523, 524, 525, 526, 527, 528, 
529, 530, 531, 532, 533, 534, 535, 536, 537, 538, 
539, 540, 541, 542, 543, 544, 545, 546, 547, 548, 
549, 550, 551, 552, 553, 554, 555, 556, 557, 558, 
559, 560, 561, 562, 563, 564, 565, 566, 567, 568, 
569, 570, 571, 572, 573, 574, 575, 576, 577, 578, 
579, 580, 581, 582, 583, 584, 585, 586, 587, 588, 
589, 590, 591, 592, 593, 594, 595, 596, 597, 598, 
599, 600, 601, 602, 603, 604, 605, 606, 607, 608, 
609, 610, 611, 612, 613, 614, 615, 616, 617, 618, 
619, 620, 621, 622, 623, 624, 625, 626, 627, 628, 
629, 630, 631, 632, 633, 634, 635, 636, 637, 638, 
639, 640, 641, 642, 643, 644, 645, 646, 647, 648, 
649, 650, 651, 652, 653, 654, 655, 656, 657, 658, 
659, 660, 661, 662, 663, 664, 665, 666, 667, 668, 
669, 670, 671, 672, 673, 674, 675, 676, 677, 678, 
679, 680, 681, 682, 683, 684, 685, 686, 687, 688, 
689, 690, 691, 692, 693, 694, 695, 696, 697, 698, 
699, 700, 701, 702, 703, 704, 705, 706, 707, 708, 
709, 710, 711, 712, 713, 714, 715, 716, 717, 718, 
719, 720, 721, 722, 723, 724, 725, 726, 727, 728, 
729, 730, 731, 732, 733, 734, 735, 736, 737, 738, 
739, 740, 741, 742, 743, 744, 745, 746, 747, 748, 
749, 750, 751, 752, 753, 754, 755, 756, 757, 758, 
759, 760, 761, 762, 763, 764, 765, 766, 767, 768, 
769, 770, 771, 772, 773, 774, 775, 776, 777, 778, 
779, 780, 781, 782, 783, 784, 785, 786, 787, 788, 
789, 790, 791, 792, 793, 794, 795, 796, 797, 798, 
799, 800, 801, 802, 803, 804, 805, 806, 807, 808, 
809, 810, 811, 812, 813, 814, 815, 816, 817, 818, 
819, 820, 821, 822, 823, 824, 825, 826, 827, 828, 
829, 830, 831, 832, 833, 834, 835, 836, 837, 838, 
839, 840, 841, 842, 843, 844, 845, 846, 847, 848, 
849, 850, 851, 852, 853, 854, 855, 856, 857, 858, 
859, 860, 861, 862, 863, 864, 865, 866, 867, 868, 
869, 870, 871, 872, 873, 874, 875, 876, 877, 878, 
879, 880, 881, 882, 883, 884, 885, 886, 887, 888, 
889, 890, 891, 892, 893, 894, 895, 896, 897, 898, 
899, 900, 901, 902, 903, 904, 905, 906, 907, 908, 
909, 910, 911, 912, 913, 914, 915, 916, 917, 918, 
919, 920, 921, 922, 923, 924, 925, 926, 927, 928, 
929, 930, 931, 932, 933, 934, 935, 936, 937, 938, 
939, 940, 941, 942, 943, 944, 945, 946, 947, 948, 
949, 950, 951, 952, 953, 954, 955, 956, 957, 958, 
959, 960, 961, 962, 963, 964, 965, 966, 967, 968, 
969, 970, 971, 972, 973, 974, 975, 976, 977, 978, 
979, 980, 981, 982, 983, 984, 985, 986, 987, 988, 
989, 990, 991, 992, 993, 994, 995, 996, 997, 998, 
999, 1000, 1001, 1002, 1003, 1004, 1005, 1006, 1007, 1008, 
1009, 1010, 1011, 1012, 1013, 1014, 1015, 1016, 1017, 1018, 
1019, 1020, 1021, 1022, 1023, 1024, 1025, 1026, 1027, 1028, 
1029, 1030, 1031, 1032, 1033, 1034, 1035, 1036, 1037, 1038, 
1039, 1040, 1041, 1042, 1043, 1044, 1045, 1046, 1047, 1048, 
1049, 1050, 1051, 1052, 1053, 1054, 1055, 1056, 1057, 1058, 
1059, 1060, 1061, 1062, 1063, 1064, 1065, 1066, 1067, 1068, 
1069, 1070, 1071, 1072, 1073, 1074, 1075, 1076, 1077, 1078, 
1079, 1080, 1081, 1082, 1083, 1084, 1085, 1086, 1087, 1088, 
1089, 1090, 1091, 1092, 1093, 1094, 1095, 1096, 1097, 1098, 
1099, 1100, 1101, 1102, 1103, 1104, 1105, 1106, 1107, 1108, 
1109, 1110, 1111, 1112, 1113, 1114, 1115, 1116, 1117, 1118, 
1119, 1120, 1121, 1122, 1123, 1124, 1125, 1126, 1127, 1128, 
1129, 1130, 1131, 1132, 1133, 1134, 1135, 1136, 1137, 1138, 
1139, 1140, 1141, 1142, 1143, 1144, 1145, 1146, 1147, 1148, 
1149, 1150, 1151, 1152, 1153, 1154, 1155, 1156, 1157, 1158, 
1159, 1160, 1161, 1162, 1163, 1164, 1165, 1166, 1167, 1168, 
1169, 1170, 1171, 1172, 1173, 1174, 1175, 1176, 1177, 1178, 
1179, 1180, 1181, 1182, 1183, 1184, 1185, 1186, 1187, 1188, 
1189, 1190, 1191, 1192, 1193, 1194, 1195, 1196, 1197, 1198, 
1199, 1200, 1201, 1202, 1203, 1204, 1205, 1206, 1207, 1208, 
1209, 1210, 1211, 1212, 1213, 1214, 1215, 1216, 1217, 1218, 
1219, 1220, 1221, 1222, 1223, 1224, 1225, 1226, 1227, 1228, 
1229, 1230, 1231, 1232, 1233, 1234, 1235, 1236, 1237, 1238, 
1239, 1240, 1241, 1242, 1243, 1244, 1245, 1246, 1247, 1248, 
1249, 1250, 1251, 1252, 1253, 1254, 1255, 1256, 1257, 1258, 
1259, 1260, 1261, 1262, 1263, 1264, 1265, 1266, 1267, 1268, 
1269, 1270, 1271, 1272, 1273, 1274, 1275, 1276, 1277, 1278, 
1279, 1280, 1281, 1282, 1283, 1284, 1285, 1286, 1287, 1288, 
1289, 1290, 1291, 1292, 1293, 1294, 1295, 1296, 1297, 1298, 
1299, 1300, 1301, 1302, 1303, 1304, 1305, 1306, 1307, 1308, 
1309, 1310, 1311, 1312, 1313, 1314, 1315, 1316, 1317, 1318, 
1319, 1320, 1321, 1322, 1323, 1324, 1325, 1326, 1327, 1328, 
1329, 1330, 1331, 1332, 1333, 1334, 1335, 1336, 1337, 1338, 
1339, 1340, 1341, 1342, 1343, 1344, 1345, 1346, 1347, 1348, 
1349, 1350, 1351, 1352, 1353, 1354, 1355, 1356, 1357, 1358, 
1359, 1360, 1361, 1362, 1363, 1364, 1365, 1366, 1367, 1368, 
1369, 1370, 1371, 1372, 1373, 1374, 1375, 1376, 1377, 1378, 
1379, 1380, 1381, 1382, 1383, 1384, 1385, 1386, 1387, 1388, 
1389, 1390, 1391, 1392, 1393, 1394, 1395, 1396, 1397, 1398, 
1399, 1400, 1401, 1402, 1403, 1404, 1405, 1406, 1407, 1408, 
1409, 1410, 1411, 1412, 1413, 1414, 1415, 1416, 1417, 1418, 
1419, 1420, 1421, 1422, 1423, 1424, 1425, 1426, 1427, 1428, 
1429, 1430, 1431, 1432, 1433, 1434, 1435, 1436, 1437, 1438, 
1439, 1440, 1441, 1442, 1443, 1444, 1445, 1446, 1447, 1448, 
1449, 1450, 1451, 1452, 1453, 1454, 1455, 1456, 1457, 1458, 
1459, 1460, 1461, 1462, 1463, 1464, 1465, 1466, 1467, 1468, 
1469, 1470, 1471, 1472, 1473, 1474, 1475, 1476, 1477, 1478, 
1479, 1480, 1481, 1482, 1483, 1484, 1485, 1486, 1487, 1488, 
1489, 1490, 1491, 1492, 1493, 1494, 1495, 1496, 1497, 1498, 
1499, 1500, 1501, 1502, 1503, 1504, 1505, 1506, 1507, 1508, 
1509, 1510, 1511, 1512, 1513, 1514, 1515, 1516, 1517, 1518, 
1519, 1520, 1521, 1522, 1523, 1524, 1525, 1526, 1527, 1528, 
1529, 1530, 1531, 1532, 1533, 1534, 1535, 1536, 1537, 1538, 
1539, 1540, 1541, 1542, 1543, 1544, 1545, 1546, 1547, 1548, 
1549, 1550, 1551, 1552, 1553, 1554, 1555, 1556, 1557, 1558, 
1559, 1560, 1561, 1562, 1563, 1564, 1565, 1566, 1567, 1568, 
1569, 1570, 1571, 1572, 1573, 1574, 1575, 1576, 1577, 1578, 
1579, 1580, 1581, 1582, 1583, 1584, 1585, 1586, 1587, 1588, 
1589, 1590, 1591, 1592, 1593, 1594, 1595, 1596, 1597, 1598, 
1599, 1600, 1601, 1602, 1603, 1604, 1605, 1606, 1607, 1608, 
1609, 1610, 1611, 1612, 1613, 1614, 1615, 1616, 1617, 1618, 
1619, 1620, 1621, 1622, 1623, 1624, 1625, 1626, 1627, 1628, 
1629, 1630, 1631, 1632, 1633, 1634, 1635, 1636, 1637, 1638, 
1639, 1640, 1641, 1642, 1643, 1644, 1645, 1646, 1647, 1648, 
1649, 1650, 1651, 1652, 1653, 1654, 1655, 1656, 1657, 1658, 
1659, 1660, 1661, 1662, 1663, 1664, 1665, 1666, 1667, 1668, 
1669, 1670, 1671, 1672, 1673, 1674, 1675, 1676, 1677, 1678, 
1679, 1680, 1681, 1682, 1683, 1684, 1685, 1686, 1687, 1688, 
1689, 1690, 1691, 1692, 1693, 1694, 1695, 1696, 1697, 1698, 
1699, 1700, 1701, 1702, 1703, 1704, 1705, 1706, 1707, 1708, 
1709, 1710, 1711, 1712, 1713, 1714, 1715, 1716, 1717, 1718, 
1719, 1720, 1721, 1722, 1723, 1724, 1725, 1726, 1727, 1728, 
1729, 1730, 1731, 1732, 1733, 1734, 1735, 1736, 1737, 1738, 
1739, 1740, 1741, 1742, 1743, 1744, 1745, 1746, 1747, 1748, 
1749, 1750, 1751, 1752, 1753, 1754, 1755, 1756, 1757, 1758, 
1759, 1760, 1761, 1762, 1763, 1764, 1765, 1766, 1767, 1768, 
1769, 1770, 1771, 1772, 1773, 1774, 1775, 1776, 1777, 1778, 
1779, 1780, 1781, 1782, 1783, 1784, 1785, 1786, 1787, 1788, 
1789, 1790, 1791, 1792, 1793, 1794, 1795, 1796, 1797, 1798, 
1799, 1800, 1801, 1802, 1803, 1804, 1805, 1806, 1807, 1808, 
1809, 1810, 1811, 1812, 1813, 1814, 1815, 1816, 1817, 1818, 
1819, 1820, 1821, 1822, 1823, 1824, 1825, 1826, 1827, 1828, 
1829, 1830, 1831, 1832, 1833, 1834, 1835, 1836, 1837, 1838, 
1839, 1840, 1841, 1842, 1843, 1844, 1845, 1846, 1847, 1848, 
1849, 1850, 1851, 1852, 1853, 1854, 1855, 1856, 1857, 1858, 
1859, 1860, 1861, 1862, 1863, 1864, 1865, 1866, 1867, 1868, 
1869, 1870, 1871, 1872, 1873, 1874, 1875, 1876, 1877, 1878, 
1879, 1880, 1881, 1882, 1883, 1884, 1885, 1886, 1887, 1888, 
1889, 1890, 1891, 1892, 1893, 1894, 1895, 1896, 1897, 1898, 
1899, 1900, 1901, 1902, 1903, 1904, 1905, 1906, 1907, 1908, 
1909, 1910, 1911, 1912, 1913, 1914, 1915, 1916, 1917, 1918, 
1919, 1920, 1921, 1922, 1923, 1924, 1925, 1926, 1927, 1928, 
1929, 1930, 1931, 1932, 1933, 1934, 1935, 1936, 1937, 1938, 
1939, 1940, 1941, 1942, 1943, 1944, 1945, 1946, 1947, 1948, 
1949, 1950, 1951, 1952, 1953, 1954, 1955, 1956, 1957, 1958, 
1959, 1960, 1961, 1962, 1963, 1964, 1965, 1966, 1967, 1968, 
1969, 1970, 1971, 1972, 1973, 1974, 1975, 1976, 1977, 1978, 
1979, 1980, 1981, 1982, 1983, 1984, 1985, 1986, 1987, 1988, 
1989, 1990, 1991, 1992, 1993, 1994, 1995, 1996, 1997, 1998, 
1999, 2000, 2001, 2002, 2003, 2004, 2005, 2006, 2007, 2008, 
2009, 2010, 2011, 2012, 2013, 2014, 2015, 2016, 2017, 2018, 
2019, 2020, 2021, 2022, 2023, 2024, 2025, 2026, 2027, 2028, 
2029, 2030, 2031, 2032, 2033, 2034, 2035, 2036, 2037, 2038, 
2039, 2040, 2041, 2042, 2043, 2044, 2045, 2046, 2047, 2048, 
2049, 2050, 2051, 2052, 2053, 2054, 2055, 2056, 2057, 2058, 
2059, 2060, 2061, 2062, 2063, 2064, 2065, 2066, 2067, 2068, 
2069, 2070, 2071, 2072, 2073, 2074, 2075, 2076, 2077, 2078, 
2079, 2080, 2081, 2082, 2083, 2084, 2085, 2086, 2087, 2088, 
2089, 2090, 2091, 2092, 2093, 2094, 2095, 2096, 2097, 2098, 
2099, 2100, 2101, 2102, 2103, 2104, 2105, 2106, 2107, 2108, 
2109, 2110, 2111, 2112, 2113, 2114, 2115, 2116, 2117, 2118, 
2119, 2120, 2121, 2122, 2123, 2124, 2125, 2126, 2127, 2128, 
2129, 2130, 2131, 2132, 2133, 2134, 2135, 2136, 2137, 2138, 
2139, 2140, 2141, 2142, 2143, 2144, 2145, 2146, 2147, 2148, 
2149, 2150, 2151, 2152, 2153, 2154, 2155, 2156, 2157, 2158, 
2159, 2160, 2161, 2162, 2163, 2164, 2165, 2166, 2167, 2168, 
2169, 2170, 2171, 2172, 2173, 2174, 2175, 2176, 2177, 2178, 
2179, 2180, 2181, 2182, 2183, 2184, 2185, 2186, 2187, 2188, 
2189, 2190, 2191, 2192, 2193, 2194, 2195, 2196, 2197, 2198, 
2199, 2200, 2201, 2202, 2203, 2204, 2205, 2206, 2207, 2208, 
2209, 2210, 2211, 2212, 2213, 2214, 2215, 2216, 2217, 2218, 
2219, 2220, 2221, 2222, 2223, 2224, 2225, 2226, 2227, 2228, 
2229, 2230, 2231, 2232, 2233, 2234, 2235, 2236, 2237, 2238, 
2239, 2240, 2241, 2242, 2243, 2244, 2245, 2246, 2247, 2248, 
2249, 2250, 2251, 2252, 2253, 2254, 2255, 2256, 2257, 2258, 
2259, 2260, 2261, 2262, 2263, 2264, 2265, 2266, 2267, 2268, 
2269, 2270, 2271, 2272, 2273, 2274, 2275, 2276, 2277, 2278, 
2279, 2280, 2281, 2282, 2283, 2284, 2285, 2286, 2287, 2288, 
2289, 2290, 2291, 2292, 2293, 2294, 2295, 2296, 2297, 2298, 
2299, 2300, 2301, 2302, 2303, 2304, 2305, 2306, 2307, 2308, 
2309, 2310, 2311, 2312, 2313, 2314, 2315, 2316, 2317, 2318, 
2319, 2320, 2321, 2322, 2323, 2324, 2325, 2326, 2327, 2328, 
2329, 2330, 2331, 2332, 2333, 2334, 2335, 2336, 2337, 2338, 
2339, 2340, 2341, 2342, 2343, 2344, 2345, 2346, 2347, 2348, 
2349, 2350, 2351, 2352, 2353, 2354, 2355, 2356, 2357, 2358, 
2359, 2360, 2361, 2362, 2363, 2364, 2365, 2366, 2367, 2368, 
2369, 2370, 2371, 2372, 2373, 2374, 2375, 2376, 2377, 2378, 
2379, 2380, 2381, 2382, 2383, 2384, 2385, 2386, 2387, 2388, 
2389, 2390, 2391, 2392, 2393, 2394, 2395, 2396, 2397, 2398, 
2399, 2400, 2401, 2402, 2403, 2404, 2405, 2406, 2407, 2408, 
2409, 2410, 2411, 2412, 2413, 2414, 2415, 2416, 2417, 2418, 
2419, 2420, 2421, 2422, 2423, 2424, 2425, 2426, 2427, 2428, 
2429, 2430, 2431, 2432, 2433, 2434, 2435, 2436, 2437, 2438, 
2439, 2440, 2441, 2442, 2443, 2444, 2445, 2446, 2447, 2448, 
2449, 2450, 2451, 2452, 2453, 2454, 2455, 2456, 2457, 2458, 
2459, 2460, 2461, 2462, 2463, 2464, 2465, 2466, 2467, 2468, 
2469, 2470, 2471, 2472, 2473, 2474, 2475, 2476, 2477, 2478, 
2479, 2480, 2481, 2482, 2483, 2484, 2485, 2486, 2487, 2488, 
2489, 2490, 2491, 2492, 2493, 2494, 2495, 2496, 2497, 2498, 
2499, 2500, 2501, 2502, 2503, 2504, 2505, 2506, 2507, 2508, 
2509, 2510, 2511, 2512, 2513, 2514, 2515, 2516, 2517, 2518, 
2519, 2520, 2521, 2522, 2523, 2524, 2525, 2526, 2527, 2528, 
2529, 2530, 2531, 2532, 2533, 2534, 2535, 2536, 2537, 2538, 
2539, 
*NSET,NSET=contact_source
1, 8, 105, 106, 107, 108, 109, 110, 111, 112, 
113, 114, 115, 116, 117, 
*NSET,NSET=contact_drain
4, 5, 37, 38, 39, 40, 41, 42, 43, 44, 
45, 46, 47, 48, 49, 
*NSET,NSET=probe_A
6, 7, 67, 68, 69, 70, 71, 72, 73, 74, 
75, 76, 77, 78, 79, 80, 81, 82, 83, 84, 
85, 86, 87, 
*NSET,NSET=probe_B
2, 3, 21, 22, 23, 24, 25, 
*NSET,NSET=walls
1, 2, 3, 4, 5, 6, 7, 8, 9, 10, 
11, 12, 13, 14, 15, 16, 17, 18, 19, 20, 
26, 27, 28, 29, 30, 31, 32, 33, 34, 35, 
36, 50, 51, 52, 53, 54, 55, 56, 57, 58, 
59, 60, 61, 62, 63, 64, 65, 66, 88, 89, 
90, 91, 92, 93, 94, 95, 96, 97, 98, 99, 
100, 101, 102, 103, 104, 118, 119, 120, 121, 122, 
123, 124, 125, 126, 127, 128, 129, 130, 131, 132, 
133, 134, 135, 136, 137, 138, 139, 140, 141, 142, 
143, 144, 145, 146, 147, 148, 149, 150, 151, 152, 
153, 154, 155, 156, 157, 158, 159, 160, 161, 162, 
163, 164, 165, 166, 167, 168, 169, 170, 171, 172, 
173, 174, 175, 176, 177, 178, 179, 180, 181, 182, 
183, 184, 185, 186, 187, 188, 189, 190, 191, 192, 
193, 194, 195, 196, 197, 198, 199, 200, 201, 202, 
203, 204, 205, 206, 207, 208, 209, 210, 211, 212, 
213, 214, 215, 216, 217, 218, 219, 220, 221, 222, 
223, 224, 225, 226, 227, 228, 229, 230, 231, 232, 
233, 234, 235, 236, 237, 238, 239, 240, 241, 242, 
243, 244, 245, 246, 247, 248, 249, 250, 251, 252, 
253, 254, 255, 256, 257, 258, 259, 260, 261, 262, 
263, 264, 265, 266, 267, 268, 269, 270, 271, 272, 
273, 274, 275, 276, 277, 278, 279, 280, 281, 282, 
283, 284, 285, 286, 287, 288, 289, 290, 291, 292, 
293, 294, 295, 296, 297, 298, 299, 300, 301, 302, 
303, 304, 305, 306, 307, 308, 309, 310, 311, 312, 
313, 314, 315, 316, 317, 318, 319, 320, 321, 322, 
323, 324, 325, 326, 327, 328, 329, 330, 331, 332, 
333, 334, 335, 336, 337, 338, 339, 340, 341, 342, 
343, 344, 345, 346, 347, 348, 349, 350, 351, 352, 
353, 354, 355, 356, 357, 358, 359, 360, 361, 362, 
363, 364, 365, 366, 367, 368, 369, 370, 371, 372, 
373, 374, 375, 376, 377, 378, 379, 380, 381, 382, 
383, 384, 385, 386, 387, 388, 389, 390, 391, 392, 
393, 394, 395, 396, 397, 398, 399, 400, 401, 402, 
403, 404, 405, 406, 407, 408, 409, 410, 411, 412, 
413, 414, 415, 416, 417, 418, 419, 420, 421, 422, 
423, 424, 425, 426, 427, 428, 429, 430, 431, 432, 
433, 434, 435, 436, 437, 438, 439, 440, 441, 442, 
443, 444, 445, 446, 447, 448, 449, 450, 451, 452, 
453, 454, 455, 456, 457, 458, 
*NSET,NSET=domain
1, 2, 3, 4, 5, 6, 7, 8, 9, 10, 
11, 12, 13, 14, 15, 16, 17, 18, 19, 20, 
21, 22, 23, 24, 25, 26, 27, 28, 29, 30, 
31, 32, 33, 34, 35, 36, 37, 38, 39, 40, 
41, 42, 43, 44, 45, 46, 47, 48, 49, 50, 
51, 52, 53, 54, 55, 56, 57, 58, 59, 60, 
61, 62, 63, 64, 65, 66, 67, 68, 69, 70, 
71, 72, 73, 74, 75, 76, 77, 78, 79, 80, 
81, 82, 83, 84, 85, 86, 87, 88, 89, 90, 
91, 92, 93, 94, 95, 96, 97, 98, 99, 100, 
101, 102, 103, 104, 105, 106, 107, 108, 109, 110, 
111, 112, 113, 114, 115, 116, 117, 118, 119, 120, 
121, 122, 123, 124, 125, 126, 127, 128, 129, 130, 
131, 132, 133, 134, 135, 136, 137, 138, 139, 140, 
141, 142, 143, 144, 145, 146, 147, 148, 149, 150, 
151, 152, 153, 154, 155, 156, 157, 158, 159, 160, 
161, 162, 163, 164, 165, 166, 167, 168, 169, 170, 
171, 172, 173, 174, 175, 176, 177, 178, 179, 180, 
181, 182, 183, 184, 185, 186, 187, 188, 189, 190, 
191, 192, 193, 194, 195, 196, 197, 198, 199, 200, 
201, 202, 203, 204, 205, 206, 207, 208, 209, 210, 
211, 212, 213, 214, 215, 216, 217, 218, 219, 220, 
221, 222, 223, 224, 225, 226, 227, 228, 229, 230, 
231, 232, 233, 234, 235, 236, 237, 238, 239, 240, 
241, 242, 243, 244, 245, 246, 247, 248, 249, 250, 
251, 252, 253, 254, 255, 256, 257, 258, 259, 260, 
261, 262, 263, 264, 265, 266, 267, 268, 269, 270, 
271, 272, 273, 274, 275, 276, 277, 278, 279, 280, 
281, 282, 283, 284, 285, 286, 287, 288, 289, 290, 
291, 292, 293, 294, 295, 296, 297, 298, 299, 300, 
301, 302, 303, 304, 305, 306, 307, 308, 309, 310, 
311, 312, 313, 314, 315, 316, 317, 318, 319, 320, 
321, 322, 323, 324, 325, 326, 327, 328, 329, 330, 
331, 332, 333, 334, 335, 336, 337, 338, 339, 340, 
341, 342, 343, 344, 345, 346, 347, 348, 349, 350, 
351, 352, 353, 354, 355, 356, 357, 358, 359, 360, 
361, 362, 363, 364, 365, 366, 367, 368, 369, 370, 
371, 372, 373, 374, 375, 376, 377, 378, 379, 380, 
381, 382, 383, 384, 385, 386, 387, 388, 389, 390, 
391, 392, 393, 394, 395, 396, 397, 398, 399, 400, 
401, 402, 403, 404, 405, 406, 407, 408, 409, 410, 
411, 412, 413, 414, 415, 416, 417, 418, 419, 420, 
421, 422, 423, 424, 425, 426, 427, 428, 429, 430, 
431, 432, 433, 434, 435, 436, 437, 438, 439, 440, 
441, 442, 443, 444, 445, 446, 447, 448, 449, 450, 
451, 452, 453, 454, 455, 456, 457, 458, 459, 460, 
461, 462, 463, 464, 465, 466, 467, 468, 469, 470, 
471, 472, 473, 474, 475, 476, 477, 478, 479, 480, 
481, 482, 483, 484, 485, 486, 487, 488, 489, 490, 
491, 492, 493, 494, 495, 496, 497, 498, 499, 500, 
501, 502, 503, 504, 505, 506, 507, 508, 509, 510, 
511, 512, 513, 514, 515, 516, 517, 518, 519, 520, 
521, 522, 523, 524, 525, 526, 527, 528, 529, 530, 
531, 532, 533, 534, 535, 536, 537, 538, 539, 540, 
541, 542, 543, 544, 545, 546, 547, 548, 549, 550, 
551, 552, 553, 554, 555, 556, 557, 558, 559, 560, 
561, 562, 563, 564, 565, 566, 567, 568, 569, 570, 
571, 572, 573, 574, 575, 576, 577, 578, 579, 580, 
581, 582, 583, 584, 585, 586, 587, 588, 589, 590, 
591, 592, 593, 594, 595, 596, 597, 598, 599, 600, 
601, 602, 603, 604, 605, 606, 607, 608, 609, 610, 
611, 612, 613, 614, 615, 616, 617, 618, 619, 620, 
621, 622, 623, 624, 625, 626, 627, 628, 629, 630, 
631, 632, 633, 634, 635, 636, 637, 638, 639, 640, 
641, 642, 643, 644, 645, 646, 647, 648, 649, 650, 
651, 652, 653, 654, 655, 656, 657, 658, 659, 660, 
661, 662, 663, 664, 665, 666, 667, 668, 669, 670, 
671, 672, 673, 674, 675, 676, 677, 678, 679, 680, 
681, 682, 683, 684, 685, 686, 687, 688, 689, 690, 
691, 692, 693, 694, 695, 696, 697, 698, 699, 700, 
701, 702, 703, 704, 705, 706, 707, 708, 709, 710, 
711, 712, 713, 714, 715, 716, 717, 718, 719, 720, 
721, 722, 723, 724, 725, 726, 727, 728, 729, 730, 
731, 732, 733, 734, 735, 736, 737, 738, 739, 740, 
741, 742, 743, 744, 745, 746, 747, 748, 749, 750, 
751, 752, 753, 754, 755, 756, 757, 758, 759, 760, 
761, 762, 763, 764, 765, 766, 767, 768, 769, 770, 
771, 772, 773, 774, 775, 776, 777, 778, 779, 780, 
781, 782, 783, 784, 785, 786, 787, 788, 789, 790, 
791, 792, 793, 794, 795, 796, 797, 798, 799, 800, 
801, 802, 803, 804, 805, 806, 807, 808, 809, 810, 
811, 812, 813, 814, 815, 816, 817, 818, 819, 820, 
821, 822, 823, 824, 825, 826, 827, 828, 829, 830, 
831, 832, 833, 834, 835, 836, 837, 838, 839, 840, 
841, 842, 843, 844, 845, 846, 847, 848, 849, 850, 
851, 852, 853, 854, 855, 856, 857, 858, 859, 860, 
861, 862, 863, 864, 865, 866, 867, 868, 869, 870, 
871, 872, 873, 874, 875, 876, 877, 878, 879, 880, 
881, 882, 883, 884, 885, 886, 887, 888, 889, 890, 
891, 892, 893, 894, 895, 896, 897, 898, 899, 900, 
901, 902, 903, 904, 905, 906, 907, 908, 909, 910, 
911, 912, 913, 914, 915, 916, 917, 918, 919, 920, 
921, 922, 923, 924, 925, 926, 927, 928, 929, 930, 
931, 932, 933, 934, 935, 936, 937, 938, 939, 940, 
941, 942, 943, 944, 945, 946, 947, 948, 949, 950, 
951, 952, 953, 954, 955, 956, 957, 958, 959, 960, 
961, 962, 963, 964, 965, 966, 967, 968, 969, 970, 
971, 972, 973, 974, 975, 976, 977, 978, 979, 980, 
981, 982, 983, 984, 985, 986, 987, 988, 989, 990, 
991, 992, 993, 994, 995, 996, 997, 998, 999, 1000, 
1001, 1002, 1003, 1004, 1005, 1006, 1007, 1008, 1009, 1010, 
1011, 1012, 1013, 1014, 1015, 1016, 1017, 1018, 1019, 1020, 
1021, 1022, 1023, 1024, 1025, 1026, 1027, 1028, 1029, 1030, 
1031, 1032, 1033, 1034, 1035, 1036, 1037, 1038, 1039, 1040, 
1041, 1042, 1043, 1044, 1045, 1046, 1047, 1048, 1049, 1050, 
1051, 1052, 1053, 1054, 1055, 1056, 1057, 1058, 1059, 1060, 
1061, 1062, 1063, 1064, 1065, 1066, 1067, 1068, 1069, 1070, 
1071, 1072, 1073, 1074, 1075, 1076, 1077, 1078, 1079, 1080, 
1081, 1082, 1083, 1084, 1085, 1086, 1087, 1088, 1089, 1090, 
1091, 1092, 1093, 1094, 1095, 1096, 1097, 1098, 1099, 1100, 
1101, 1102, 1103, 1104, 1105, 1106, 1107, 1108, 1109, 1110, 
1111, 1112, 1113, 1114, 1115, 1116, 1117, 1118, 1119, 1120, 
1121, 1122, 1123, 1124, 1125, 1126, 1127, 1128, 1129, 1130, 
1131, 1132, 1133, 1134, 1135, 1136, 1137, 1138, 1139, 1140, 
1141, 1142, 1143, 1144, 1145, 1146, 1147, 1148, 1149, 1150, 
1151, 1152, 1153, 1154, 1155, 1156, 1157, 1158, 1159, 1160, 
1161, 1162, 1163, 1164, 1165, 1166, 1167, 1168, 1169, 1170, 
1171, 1172, 1173, 1174, 1175, 1176, 1177, 1178, 1179, 1180, 
1181, 1182, 1183, 1184, 1185, 1186, 1187, 1188, 1189, 1190, 
1191, 1192, 1193, 1194, 1195, 1196, 1197, 1198, 1199, 1200, 
1201, 1202, 1203, 1204, 1205, 1206, 1207, 1208, 1209, 1210, 
1211, 1212, 1213, 1214, 1215, 1216, 1217, 1218, 1219, 1220, 
1221, 1222, 1223, 1224, 1225, 1226, 1227, 1228, 1229, 1230, 
1231, 1232, 1233, 1234, 1235, 1236, 1237, 1238, 1239, 1240, 
1241, 1242, 1243, 1244, 1245, 1246, 1247, 1248, 1249, 1250, 
1251, 1252, 1253, 1254, 1255, 1256, 1257, 1258, 1259, 1260, 
1261, 1262, 1263, 1264, 1265, 1266, 1267, 1268, 1269, 1270, 
1271, 1272, 1273, 1274, 1275, 1276, 1277, 1278, 1279, 1280, 
1281, 1282, 1283, 1284, 1285, 1286, 1287, 1288, 1289, 1290, 
1291, 1292, 1293, 1294, 1295, 1296, 1297, 1298, 1299, 1300, 
1301, 1302, 1303, 1304, 1305, 1306, 1307, 1308, 1309, 1310, 
1311, 1312, 1313, 1314, 1315, 1316, 1317, 1318, 1319, 1320, 
1321, 1322, 1323, 1324, 1325, 1326, 1327, 1328, 1329, 1330, 
1331, 1332, 1333, 1334, 1335, 1336, 1337, 1338, 1339, 1340, 
1341, 1342, 1343, 1344, 1345, 1346, 1347, 1348, 1349, 1350, 
1351, 1352, 1353, 1354, 1355, 1356, 1357, 1358, 1359, 1360, 
1361, 1362, 1363, 1364, 1365, 1366, 1367, 1368, 1369, 1370, 
1371, 1372, 1373, 1374, 1375, 1376, 1377, 1378, 1379, 1380, 
1381, 1382, 1383, 1384, 1385, 1386, 1387, 1388, 1389, 1390, 
1391, 1392, 1393, 1394, 1395, 1396, 1397, 1398, 1399, 1400, 
1401, 1402, 1403, 1404, 1405, 1406, 1407, 1408, 1409, 1410, 
1411, 1412, 1413, 1414, 1415, 1416, 1417, 1418, 1419, 1420, 
1421, 1422, 1423, 1424, 1425, 1426, 1427, 1428, 1429, 1430, 
1431, 1432, 1433, 1434, 1435, 1436, 1437, 1438, 1439, 1440, 
1441, 1442, 1443, 1444, 1445, 1446, 1447, 1448, 1449, 1450, 
1451, 1452, 1453, 1454, 1455, 1456, 1457, 1458, 1459, 1460, 
1461, 1462, 1463, 1464, 1465, 1466, 1467, 1468, 1469, 1470, 
1471, 1472, 1473, 1474, 1475, 1476, 1477, 1478, 1479, 1480, 
1481, 1482, 1483, 1484, 1485, 1486, 1487, 1488, 1489, 1490, 
1491, 1492, 1493, 1494, 1495, 1496, 1497, 1498, 1499, 1500, 
1501, 1502, 1503, 1504, 1505, 1506, 1507, 1508, 1509, 1510, 
1511, 1512, 1513, 1514, 1515, 1516, 1517, 1518, 1519, 1520, 
1521, 1522, 1523, 1524, 1525, 1526, 1527, 1528, 1529, 1530, 
1531, 1532, 1533, 1534, 1535, 1536, 1537, 1538, 1539, 1540, 
1541, 1542, 1543, 1544, 1545, 1546, 1547, 1548, 1549, 1550, 
1551, 1552, 1553, 1554, 1555, 1556, 1557, 1558, 1559, 1560, 
1561, 1562, 1563, 1564, 1565, 1566, 1567, 1568, 1569, 1570, 
1571, 1572, 1573, 1574, 1575, 1576, 1577, 1578, 1579, 1580, 
1581, 1582, 1583, 1584, 1585, 1586, 1587, 1588, 1589, 1590, 
1591, 1592, 1593, 1594, 1595, 1596, 1597, 1598, 1599, 1600, 
1601, 1602, 1603, 1604, 1605, 1606, 1607, 1608, 1609, 1610, 
1611, 1612, 1613, 1614, 1615, 1616, 1617, 1618, 1619, 1620, 
1621, 1622, 1623, 1624, 1625, 1626, 1627, 1628, 1629, 1630, 
1631, 1632, 1633, 1634, 1635, 1636, 1637, 1638, 1639, 1640, 
1641, 1642, 1643, 1644, 1645, 1646, 1647, 1648, 1649, 1650, 
1651, 1652, 1653, 1654, 1655, 1656, 1657, 1658, 1659, 1660, 
1661, 1662, 1663, 1664, 1665, 1666, 1667, 1668, 1669, 1670, 
1671, 1672, 1673, 1674, 1675, 1676, 1677, 1678, 1679, 1680, 
1681, 1682, 1683, 1684, 1685, 1686, 1687, 1688, 1689, 1690, 
1691, 1692, 1693, 1694, 1695, 1696, 1697, 1698, 1699, 1700, 
1701, 1702, 1703, 1704, 1705, 1706, 1707, 1708, 1709, 1710, 
1711, 1712, 1713, 1714, 1715, 1716, 1717, 1718, 1719, 1720, 
1721, 1722, 1723, 1724, 1725, 1726, 1727, 1728, 1729, 1730, 
1731, 1732, 1733, 1734, 1735, 1736, 1737, 1738, 1739, 1740, 
1741, 1742, 1743, 1744, 1745, 1746, 1747, 1748, 1749, 1750, 
1751, 1752, 1753, 1754, 1755, 1756, 1757, 1758, 1759, 1760, 
1761, 1762, 1763, 1764, 1765, 1766, 1767, 1768, 1769, 1770, 
1771, 1772, 1773, 1774, 1775, 1776, 1777, 1778, 1779, 1780, 
1781, 1782, 1783, 1784, 1785, 1786, 1787, 1788, 1789, 1790, 
1791, 1792, 1793, 1794, 1795, 1796, 1797, 1798, 1799, 1800, 
1801, 1802, 1803, 1804, 1805, 1806, 1807, 1808, 1809, 1810, 
1811, 1812, 1813, 1814, 1815, 1816, 1817, 1818, 1819, 1820, 
1821, 1822, 1823, 1824, 1825, 1826, 1827, 1828, 1829, 1830, 
1831, 1832, 1833, 1834, 1835, 1836, 1837, 1838, 1839, 1840, 
1841, 1842, 1843, 1844, 1845, 1846, 1847, 1848, 1849, 1850, 
1851, 1852, 1853, 1854, 1855, 1856, 1857, 1858, 1859, 1860, 
1861, 1862, 1863, 1864, 1865, 1866, 1867, 1868, 1869, 1870, 
1871, 1872, 1873, 1874, 1875, 1876, 1877, 1878, 1879, 1880, 
1881, 1882, 1883, 1884, 1885, 1886, 1887, 1888, 1889, 1890, 
1891, 1892, 1893, 1894, 1895, 1896, 1897, 1898, 1899, 1900, 
1901, 1902, 1903, 1904, 1905, 1906, 1907, 1908, 1909, 1910, 
1911, 1912, 1913, 1914, 1915, 1916, 1917, 1918, 1919, 1920, 
1921, 1922, 1923, 1924, 1925, 1926, 1927, 1928, 1929, 1930, 
1931, 1932, 1933, 1934, 1935, 1936, 1937, 1938, 1939, 1940, 
1941, 1942, 1943, 1944, 1945, 1946, 1947, 1948, 1949, 1950, 
1951, 1952, 1953, 1954, 1955, 1956, 1957, 1958, 1959, 1960, 
1961, 1962, 1963, 1964, 1965, 1966, 1967, 1968, 1969, 1970, 
1971, 1972, 1973, 1974, 1975, 1976, 1977, 1978, 1979, 1980, 
1981, 1982, 1983, 1984, 1985, 1986, 1987, 1988, 1989, 1990, 
1991, 1992, 1993, 1994, 1995, 1996, 1997, 1998, 1999, 2000, 
2001, 2002, 2003, 2004, 2005, 2006, 2007, 2008, 2009, 2010, 
2011, 2012, 2013, 2014, 2015, 2016, 2017, 2018, 2019, 2020, 
2021, 2022, 2023, 2024, 2025, 2026, 2027, 2028, 2029, 2030, 
2031, 2032, 2033, 2034, 2035, 2036, 2037, 2038, 2039, 2040, 
2041, 2042, 2043, 2044, 2045, 2046, 2047, 2048, 2049, 2050, 
2051, 2052, 2053, 2054, 2055, 2056, 2057, 2058, 2059, 2060, 
2061, 2062, 2063, 2064, 2065, 2066, 2067, 2068, 2069, 2070, 
2071, 2072, 2073, 2074, 2075, 2076, 2077, 2078, 2079, 2080, 
2081, 2082, 2083, 2084, 2085, 2086, 2087, 2088, 2089, 2090, 
2091, 2092, 2093, 2094, 2095, 2096, 2097, 2098, 2099, 2100, 
2101, 2102, 2103, 2104, 2105, 2106, 2107, 2108, 2109, 2110, 
2111, 2112, 2113, 2114, 2115, 2116, 2117, 2118, 2119, 2120, 
2121, 2122, 2123, 2124, 2125, 2126, 2127, 2128, 2129, 2130, 
2131, 2132, 2133, 2134, 2135, 2136, 2137, 2138, 2139, 2140, 
2141, 2142, 2143, 2144, 2145, 2146, 2147, 2148, 2149, 2150, 
2151, 2152, 2153, 2154, 2155, 2156, 2157, 2158, 2159, 2160, 
2161, 2162, 2163, 2164, 2165, 2166, 2167, 2168, 2169, 2170, 
2171, 2172, 2173, 2174, 2175, 2176, 2177, 2178, 2179, 2180, 
2181, 2182, 2183, 2184, 2185, 2186, 2187, 2188, 2189, 2190, 
2191, 2192, 2193, 2194, 2195, 2196, 2197, 2198, 2199, 2200, 
2201, 2202, 2203, 2204, 2205, 2206, 2207, 2208, 2209, 2210, 
2211, 2212, 2213, 2214, 2215, 2216, 2217, 2218, 2219, 2220, 
2221, 2222, 2223, 2224, 2225, 2226, 2227, 2228, 2229, 2230, 
2231, 2232, 2233, 2234, 2235, 2236, 2237, 2238, 2239, 2240, 
2241, 2242, 2243, 2244, 2245, 2246, 2247, 2248, 2249, 2250, 
2251, 2252, 2253, 2254, 2255, 2256, 2257, 2258, 2259, 2260, 
2261, 2262, 2263, 2264, 2265, 2266, 2267, 2268, 2269, 2270, 
2271, 2272, 2273, 2274, 2275, 2276, 2277, 2278, 2279, 2280, 
2281, 2282, 2283, 2284, 2285, 2286, 2287, 2288, 2289, 2290, 
2291, 2292, 2293, 2294, 2295, 2296, 2297, 2298, 2299, 2300, 
2301, 2302, 2303, 2304, 2305, 2306, 2307, 2308, 2309, 2310, 
