*Heading
 sv.inp
*NODE
1, 0, -0.3, 0
2, 0.425, -0.3, 0
3, 0.575, -0.3, 0
4, 1, -0.3, 0
5, 1, 0.3, 0
6, 0.575, 0.3, 0
7, 0.425, 0.3, 0
8, 0, 0.3, 0
9, 0.73, 0.05, 0
10, 0.033705683052431, -0.3, 0
11, 0.1008044916346, -0.3, 0
12, 0.16693393109973, -0.3, 0
13, 0.23145086515465, -0.3, 0
14, 0.29302153748322, -0.3, 0
15, 0.34957647842717, -0.3, 0
16, 0.40067068358104, -0.3, 0
17, 0.067411366104861, -0.3, 0
18, 0.13419761716433, -0.3, 0
19, 0.19967024503513, -0.3, 0
20, 0.26323148527418, -0.3, 0
21, 0.32281158969225, -0.3, 0
22, 0.37634136716209, -0.3, 0
23, 0.44404467037317, -0.3, 0
24, 0.48173122723323, -0.3, 0
25, 0.51882356338522, -0.3, 0
26, 0.55613700652516, -0.3, 0
27, 0.46308934074634, -0.3, 0
28, 0.50037311372012, -0.3, 0
29, 0.53727401305031, -0.3, 0
30, 0.59888206747171, -0.3, 0
31, 0.64918500001685, -0.3, 0
32, 0.70486215463709, -0.3, 0
33, 0.76558526410058, -0.3, 0
34, 0.82968393876305, -0.3, 0
35, 0.89641963240346, -0.3, 0
36, 0.96526173564903, -0.3, 0
37, 0.62276413494343, -0.3, 0
38, 0.67560586509028, -0.3, 0
39, 0.73411844418391, -0.3, 0
40, 0.79705208401725, -0.3, 0
41, 0.86231579350886, -0.3, 0
42, 0.93052347129806, -0.3, 0
43, 1, -0.26293267514964, 0
44, 1, -0.18793128295013, 0
45, 1, -0.11171592343492, 0
46, 1, -0.034714346253793, 0
47, 1, 0.042686520322832, 0
48, 1, 0.11878136413593, 0
49, 1, 0.19244178127406, 0
50, 1, 0.26434396808033, 0
51, 1, -0.22586535029928, 0
52, 1, -0.14999721560098, 0
53, 1, -0.07343463126885, 0
54, 1, 0.004005938761265, 0
55, 1, 0.0813671018844, 0
56, 1, 0.15619562638746, 0
57, 1, 0.22868793616066, 0
58, 0.96488541251415, 0.3, 0
59, 0.89485863898138, 0.3, 0
60, 0.82746956865998, 0.3, 0
61, 0.76748846233511, 0.3, 0
62, 0.71847644010344, 0.3, 0
63, 0.68011580703637, 0.3, 0
64, 0.64976371494227, 0.3, 0
65, 0.62456353368402, 0.3, 0
66, 0.60261013423064, 0.3, 0
67, 0.58367882841359, 0.3, 0
68, 0.92977082502829, 0.3, 0
69, 0.85994645293447, 0.3, 0
70, 0.79499268438549, 0.3, 0
71, 0.73998424028472, 0.3, 0
72, 0.69696863992216, 0.3, 0
73, 0.66326297415059, 0.3, 0
74, 0.63626445573395, 0.3, 0
75, 0.61286261163409, 0.3, 0
76, 0.59235765682719, 0.3, 0
77, 0.56794912414004, 0.3, 0
78, 0.55449418707672, 0.3, 0
79, 0.54190010835168, 0.3, 0
80, 0.52974672463018, 0.3, 0
81, 0.51788273252138, 0.3, 0
82, 0.50617026238356, 0.3, 0
83, 0.49441623482601, 0.3, 0
84, 0.48241188067406, 0.3, 0
85, 0.47027748779921, 0.3, 0
86, 0.45806078838055, 0.3, 0
87, 0.4455293157283, 0.3, 0
88, 0.43207116022154, 0.3, 0
89, 0.56089824828009, 0.3, 0
90, 0.54809012587336, 0.3, 0
91, 0.53571009083, 0.3, 0
92, 0.52378335843036, 0.3, 0
93, 0.51198210661239, 0.3, 0
94, 0.50035841815472, 0.3, 0
95, 0.48847405149729, 0.3, 0
96, 0.47634970985084, 0.3, 0
97, 0.46420526574758, 0.3, 0
98, 0.45191631101351, 0.3, 0
99, 0.43914232044308, 0.3, 0
100, 0.41611682635568, 0.3, 0
101, 0.39674025028053, 0.3, 0
102, 0.374297754434, 0.3, 0
103, 0.3485072412607, 0.3, 0
104, 0.31746678715704, 0.3, 0
105, 0.27864164215766, 0.3, 0
106, 0.22944996634201, 0.3, 0
107, 0.16982958459233, 0.3, 0
108, 0.10377349043104, 0.3, 0
109, 0.034886106428542, 0.3, 0
110, 0.40723365271135, 0.3, 0
111, 0.3862468478497, 0.3, 0
112, 0.36234866101829, 0.3, 0
113, 0.33466582150311, 0.3, 0
114, 0.30026775281097, 0.3, 0
115, 0.25701553150435, 0.3, 0
116, 0.20188440117966, 0.3, 0
117, 0.137774768005, 0.3, 0
118, 0.069772212857084, 0.3, 0
119, 0, 0.26365086440222, 0
120, 0, 0.18929898474732, 0
121, 0, 0.11231959575528, 0
122, 0, 0.034654647997747, 0
123, 0, -0.041873806119924, 0
124, 0, -0.11693962471058, 0
125, 0, -0.19109094308221, 0
126, 0, -0.26400829707913, 0
127, 0, 0.22730172880443, 0
128, 0, 0.1512962406902, 0
129, 0, 0.07334295082036, 0
130, 0, -0.004033654824865, 0
131, 0, -0.079713957414983, 0
132, 0, -0.15416529200617, 0
133, 0, -0.22801659415826, 0
134, 0.7299609344584, 0.054240074020288, 0
135, 0.72964416761464, 0.037211001410547, 0
136, 0.72904069364153, 0.029015257449245, 0
137, 0.72813793478346, 0.020792423393946, 0
138, 0.72694561653475, 0.012641106705773, 0
139, 0.72550289335081, 0.0047402487604769, 0
140, 0.7237854208611, -0.0031044760420815, 0
141, 0.7217897440663, -0.010904098542493, 0
142, 0.71954574050539, -0.018554119936671, 0
143, 0.71705755867678, -0.026065863551111, 0
144, 0.71433797951414, -0.033421998937985, 0
145, 0.71139029150358, -0.040631915845139, 0
146, 0.70813779288743, -0.047870623388805, 0
147, 0.70453641056208, -0.05518962249094, 0
148, 0.70065195710711, -0.062422382505149, 0
149, 0.6965021666856, -0.069527814452292, 0
150, 0.69214517439006, -0.076412941266798, 0
151, 0.68757193404288, -0.083104354228282, 0
152, 0.68264671816127, -0.089786178749005, 0
153, 0.67750914720389, -0.096254921311245, 0
154, 0.67223190747724, -0.10243414779596, 0
155, 0.66664711845147, -0.10852046356761, 0
156, 0.66090761953009, -0.11434335274031, 0
157, 0.65511100568794, -0.11982513287651, 0
158, 0.64913906201634, -0.12509294722595, 0
159, 0.64302867350663, -0.13011884541108, 0
160, 0.63677030371009, -0.1349158827969, 0
161, 0.6302943022203, -0.13953467829111, 0
162, 0.62362843847393, -0.14394846882119, 0
163, 0.61678002429704, -0.14814748366093, 0
164, 0.60958151600557, -0.15221743442867, 0
165, 0.6020649375902, -0.15611343497385, 0
166, 0.59452156996822, -0.15967992872691, 0
167, 0.58701756204191, -0.16290360209214, 0
168, 0.57956778370043, -0.16579844255364, 0
169, 0.57208917498749, -0.16841050962546, 0
170, 0.56436529461847, -0.17081011874, 0
171, 0.55648621611813, -0.17295584070259, 0
172, 0.54856115745063, -0.1748150648284, 0
173, 0.54055928559951, -0.17639554698362, 0
174, 0.5325880133543, -0.17767964509333, 0
175, 0.52457735392478, -0.17868308478754, 0
176, 0.51641781885131, -0.17941328428779, 0
177, 0.50824216718758, -0.17985227124504, 0
178, 0.50003794978926, -0.17999999686876, 0
179, 0.49172506335491, -0.17985109385187, 0
180, 0.48347805310599, -0.17940580872664, 0
181, 0.47527212455269, -0.17866685768026, 0
182, 0.46687871166995, -0.1776026795716, 0
183, 0.45855378829295, -0.17623485793594, 0
184, 0.45046346526845, -0.17460216179182, 0
185, 0.44237601595537, -0.17266449162809, 0
186, 0.43422010006221, -0.17039284056359, 0
187, 0.42606573449958, -0.16779284619085, 0
188, 0.41796922501547, -0.16487426912239, 0
189, 0.41006961414092, -0.16168969122283, 0
190, 0.40232389700483, -0.15822914949894, 0
191, 0.39481339185658, -0.1545379607634, 0
192, 0.38774311407878, -0.15074459280391, 0
193, 0.38089515332276, -0.14675882533967, 0
194, 0.37415184165511, -0.14251555951215, 0
195, 0.36765287342074, -0.13810698414714, 0
196, 0.36131538079293, -0.13348453812384, 0
197, 0.35504934583239, -0.12857577463152, 0
198, 0.34897260420842, -0.1234667846379, 0
199, 0.34298764593783, -0.11806879707318, 0
200, 0.33698529140582, -0.11225352004405, 0
201, 0.33124569768299, -0.10627535142529, 0
202, 0.32588151521333, -0.10027559056864, 0
203, 0.32072979196475, -0.094090916262983, 0
204, 0.31581084911097, -0.087747436052467, 0
205, 0.31112975797104, -0.081255594223959, 0
206, 0.30667470029103, -0.074600673622322, 0
207, 0.30252027268667, -0.06790571167513, 0
208, 0.29861929130074, -0.061111700343454, 0
209, 0.29487374741846, -0.054034708092237, 0
210, 0.29133950255696, -0.046751210742723, 0
211, 0.28807247097284, -0.039368463378223, 0
212, 0.28505949507997, -0.031857064196409, 0
213, 0.28230571265502, -0.024223962959415, 0
214, 0.27981320179607, -0.01646633163197, 0
215, 0.27758734146424, -0.0085884689842975, 0
216, 0.27566202869206, -0.00071956338358768, 0
217, 0.27402539883811, 0.0071575058364039, 0
218, 0.27265270623823, 0.015168866332382, 0
219, 0.27156308695066, 0.023231048803501, 0
220, 0.27075863248695, 0.031334647152265, 0
221, 0.27023653581935, 0.039571657174563, 0
222, 0.27001067398085, 0.047784248471572, 0
223, 0.27007565854287, 0.055898868859984, 0
224, 0.27042788446323, 0.064022950107406, 0
225, 0.27106279890299, 0.072085228730955, 0
226, 0.2719735541911, 0.080065586251314, 0
227, 0.27316541497801, 0.0880272362865, 0
228, 0.27463221442284, 0.095927781521488, 0
229, 0.27635391674788, 0.1036882617637, 0
230, 0.27834807025496, 0.11140376160461, 0
231, 0.28063326518103, 0.11912478075352, 0
232, 0.28320590050132, 0.12681352688097, 0
233, 0.28610320248069, 0.13454678824912, 0
234, 0.28927541046771, 0.14216912015029, 0
235, 0.29265291481528, 0.14953484652062, 0
236, 0.29627276415918, 0.1567483626545, 0
237, 0.30023759705091, 0.1639955353104, 0
238, 0.30459677220484, 0.17131602698494, 0
239, 0.3091965545706, 0.17842914441874, 0
240, 0.31398973307356, 0.18527816005105, 0
241, 0.31905739705699, 0.19198512033637, 0
242, 0.3244758380082, 0.19863131721583, 0
243, 0.33011943565587, 0.20505029404267, 0
244, 0.33576363229672, 0.21101681641704, 0
245, 0.34151891828683, 0.21668457098668, 0
246, 0.34753585925668, 0.22220535750315, 0
247, 0.35378435469232, 0.22754150053795, 0
248, 0.36017862863938, 0.23261977861577, 0
249, 0.36673605616059, 0.23745858440859, 0
250, 0.3735756646051, 0.24213767767941, 0
251, 0.38060964857568, 0.24658571642089, 0
252, 0.38767370488903, 0.25070576325912, 0
253, 0.3948482008121, 0.25455585804345, 0
254, 0.4022642880625, 0.258201177699, 0
255, 0.40980436996185, 0.26157681330799, 0
256, 0.41727706357608, 0.26460874920303, 0
257, 0.42477008743567, 0.26734870506406, 0
258, 0.43230259373225, 0.26981142048547, 0
259, 0.43997579311863, 0.27202948944205, 0
260, 0.44799901592056, 0.27404440945136, 0
261, 0.45628853070875, 0.27580812058379, 0
262, 0.46473370267834, 0.2772801975579, 0
263, 0.47312724650643, 0.27842472527361, 0
264, 0.48146534461131, 0.27925197172777, 0
265, 0.48985083816825, 0.27977596561813, 0
266, 0.49815411436511, 0.27999259211292, 0
267, 0.50631535270754, 0.27991327895968, 0
268, 0.51456970092466, 0.27953806488494, 0
269, 0.52288033512044, 0.27885910432089, 0
270, 0.53092716142156, 0.27791118893503, 0
271, 0.53897627765893, 0.27667344187136, 0
272, 0.54718822915938, 0.27510724254093, 0
273, 0.55508886298492, 0.27330521040507, 0
274, 0.56263057556881, 0.27130840700012, 0
275, 0.57019728993233, 0.26902588974143, 0
276, 0.57779388514562, 0.26644424488335, 0
277, 0.58533462566056, 0.26358370999169, 0
278, 0.59292578538348, 0.26039200982153, 0
279, 0.60047537062808, 0.25689296568755, 0
280, 0.60778876735478, 0.25317869229494, 0
281, 0.61486305900093, 0.2492648417844, 0
282, 0.62177055382999, 0.24512030119754, 0
283, 0.62857436516508, 0.2407056174254, 0
284, 0.63517243966318, 0.23608710741409, 0
285, 0.64149402853219, 0.23132688644921, 0
286, 0.64766229345523, 0.22634014495102, 0
287, 0.65372464734031, 0.22108106925544, 0
288, 0.65957707840805, 0.21563561034329, 0
289, 0.66520096863254, 0.21002699576194, 0
290, 0.6706067042037, 0.20425093862777, 0
291, 0.6758766963787, 0.19821399212479, 0
292, 0.68110806817835, 0.19177400171361, 0
293, 0.68607317902876, 0.18519161230061, 0
294, 0.69065427439986, 0.17865048593706, 0
295, 0.69500436788345, 0.17195612398279, 0
296, 0.6991754119575, 0.16501806264547, 0
297, 0.70309762170278, 0.15794144437977, 0
298, 0.70673026337401, 0.15080970971909, 0
299, 0.71010686697743, 0.14356871236464, 0
300, 0.713290912185, 0.13606385100196, 0
301, 0.7162852940162, 0.12823471995696, 0
302, 0.71895392720725, 0.1204214291767, 0
303, 0.72130374493408, 0.11264704687445, 0
304, 0.72343168572146, 0.10457363592563, 0
305, 0.72526821161347, 0.096413711508189, 0
306, 0.72679764862843, 0.088246911503143, 0
307, 0.72807682498318, 0.079680991327767, 0
308, 0.72904074423103, 0.070984226155055, 0
309, 0.72965475388757, 0.062597243889331, 0
310, 0.72995918903151, 0.04566865301061, 0
311, 0.72984366995547, 0.058478706015183, 0
312, 0.7293920595155, 0.066711734794856, 0
313, 0.72860985643846, 0.075249427228947, 0
314, 0.7274578986808, 0.084101377377888, 0
315, 0.72606185036314, 0.092379705224461, 0
316, 0.72440259207971, 0.10043288701096, 0
317, 0.72238437765381, 0.10869572354104, 0
318, 0.72015290845838, 0.11657849679784, 0
319, 0.71768786809325, 0.12424278754594, 0
320, 0.71480952197338, 0.13220017523769, 0
321, 0.7117028145933, 0.13989948816075, 0
322, 0.70844733143717, 0.14720961843584, 0
323, 0.70495102618057, 0.15437948492903, 0
324, 0.70118232013525, 0.16147050702075, 0
325, 0.69710595553204, 0.1685294984287, 0
326, 0.69284321543294, 0.17534549754982, 0
327, 0.688408696203, 0.18191725642996, 0
328, 0.68368076114009, 0.1884246269131, 0
329, 0.67847430650477, 0.19507557108039, 0
330, 0.67322390428426, 0.20130591052195, 0
331, 0.66793944181633, 0.20715070385337, 0
332, 0.66241324188411, 0.21285557671327, 0
333, 0.65669333804801, 0.21836626077054, 0
334, 0.65070892993393, 0.22374354141434, 0
335, 0.64457092748229, 0.22888333191815, 0
336, 0.63837583503114, 0.23371752129984, 0
337, 0.63192847386214, 0.23840084164941, 0
338, 0.6251800009385, 0.2429506849591, 0
339, 0.61832351267292, 0.24722967829038, 0
340, 0.61136761142596, 0.25123929778699, 0
341, 0.60417616272163, 0.25505444915663, 0
342, 0.59674214650629, 0.25866470009032, 0
343, 0.58907859948519, 0.26204952955463, 0
344, 0.58156424364445, 0.26505179339203, 0
345, 0.57399976989099, 0.26777059836373, 0
346, 0.56637353172789, 0.27021478977313, 0
347, 0.55886961595338, 0.27233840810224, 0
348, 0.55129225072311, 0.27420772646783, 0
349, 0.54306846143041, 0.27593164310981, 0
350, 0.53487135037945, 0.27734112866769, 0
351, 0.52697368786077, 0.27841282836627, 0
352, 0.51877964939698, 0.27923203251094, 0
353, 0.51035484536399, 0.27976678828527, 0
354, 0.50227390951317, 0.27998875833457, 0
355, 0.49403491150354, 0.27992263302742, 0
356, 0.48567012778947, 0.27955316192637, 0
357, 0.47726678809076, 0.27887376528887, 0
358, 0.46899651251588, 0.27790081858927, 0
359, 0.46048326420337, 0.27657984681964, 0
360, 0.45210882912134, 0.27495874117007, 0
361, 0.44390662820695, 0.27305500047015, 0
362, 0.43606368355356, 0.27093471259533, 0
363, 0.42856122072945, 0.26862410840829, 0
364, 0.42100170617316, 0.2660075682377, 0
365, 0.41357717414551, 0.2631457128979, 0
366, 0.40606003190179, 0.25994113926429, 0
367, 0.39850075715982, 0.25639259471592, 0
368, 0.39122887027809, 0.25265448596716, 0
369, 0.38415344208712, 0.24869467624926, 0
370, 0.3771042375646, 0.24441355669761, 0
371, 0.3700892268002, 0.23979776226302, 0
372, 0.36342499451946, 0.23506017297009, 0
373, 0.35697585850834, 0.23012244410056, 0
374, 0.35063941420613, 0.22490401770878, 0
375, 0.34448105310318, 0.21945163646867, 0
376, 0.33860600701038, 0.21386573403069, 0
377, 0.33297153881321, 0.20811860329053, 0
378, 0.32732368966454, 0.20193054755704, 0
379, 0.32169101472914, 0.19527871539967, 0
380, 0.3164846100101, 0.18864379168674, 0
381, 0.31155657544941, 0.18186764231213, 0
382, 0.30689926980513, 0.1749484190325, 0
383, 0.30236259608712, 0.16764121752583, 0
384, 0.29817984045339, 0.16031148077744, 0
385, 0.29442858755923, 0.15315228650997, 0
386, 0.29094089013555, 0.14588685291003, 0
387, 0.28767603507952, 0.13842247394804, 0
388, 0.28460110624082, 0.13064314267213, 0
389, 0.28187877493231, 0.12295978925484, 0
390, 0.27945517717065, 0.11526852698316, 0
391, 0.27730868476672, 0.10752023553249, 0
392, 0.27546508516145, 0.09984045935919, 0
393, 0.2738675213896, 0.092001209696232, 0
394, 0.27253314055132, 0.084041555997185, 0
395, 0.27148345831466, 0.076080454067728, 0
396, 0.2707119813107, 0.068083265849157, 0
397, 0.2702156809232, 0.059958242918268, 0
398, 0.27000734197382, 0.051837655163994, 0
399, 0.27008543804985, 0.043731530000688, 0
400, 0.27046289399237, 0.035415200248707, 0
401, 0.27112690902061, 0.027260000287938, 0
402, 0.27207018538288, 0.019210407995862, 0
403, 0.27330688582429, 0.011138303237256, 0
404, 0.27481381058832, 0.0031899604922086, 0
405, 0.27657811444252, -0.0046137433942728, 0
406, 0.27866727131442, -0.012544569879184, 0
407, 0.28102861287415, -0.020367119729519, 0
408, 0.28365073715315, -0.028057646892248, 0
409, 0.28653497033621, -0.035631073109965, 0
410, 0.28967540196711, -0.043078262053474, 0
411, 0.29306774110641, -0.050394420074853, 0
412, 0.296743788691, -0.057642519257032, 0
413, 0.30055400153147, -0.064548213691452, 0
414, 0.30454305833483, -0.071229467588424, 0
415, 0.30886448011003, -0.07793440906198, 0
416, 0.31345273636892, -0.084536680323417, 0
417, 0.31822421607669, -0.090916869406991, 0
418, 0.32329078406503, -0.09722042152626, 0
419, 0.32852506237882, -0.10328517591025, 0
420, 0.33401847022168, -0.1092172451113, 0
421, 0.34000764728258, -0.115234519628, 0
422, 0.34601784683282, -0.12084933720037, 0
423, 0.35197184659434, -0.12603313760807, 0
424, 0.35817051003221, -0.13106461749068, 0
425, 0.36450153083895, -0.13584984484316, 0
426, 0.37084180650955, -0.14031069546085, 0
427, 0.37749950686636, -0.14466285910972, 0
428, 0.38432665254157, -0.14879556346396, 0
429, 0.39119240713491, -0.15263491081386, 0
430, 0.39846764987883, -0.15637631001434, 0
431, 0.40621394113245, -0.16000993950409, 0
432, 0.41395535666496, -0.16329866154958, 0
433, 0.42201192596584, -0.16637435167903, 0
434, 0.43014532245439, -0.16913540072098, 0
435, 0.43831748967454, -0.17157451989646, 0
436, 0.44645377827351, -0.17368013354149, 0
437, 0.45448900310654, -0.17545232117169, 0
438, 0.46263199793318, -0.17694411697339, 0
439, 0.47113698840477, -0.17818178340644, 0
440, 0.47941536365928, -0.17907700088734, 0
441, 0.48754593142963, -0.17966256897647, 0
442, 0.49590693290296, -0.17996357570158, 0
443, 0.50416895443015, -0.179962212467, 0
444, 0.51231279300691, -0.17967018648534, 0
445, 0.52051759428732, -0.17908301536229, 0
446, 0.52862938194879, -0.17821121413936, 0
447, 0.5365368173234, -0.17707941547153, 0
448, 0.54456899012689, -0.17564043324252, 0
449, 0.55253806968238, -0.17391907266318, 0
450, 0.56041672749133, -0.17192300178377, 0
451, 0.56829338430234, -0.16962698637342, 0
452, 0.57586331397327, -0.16712843423003, 0
453, 0.58324895072474, -0.16440525083335, 0
454, 0.5907591011632, -0.16133571643888, 0
455, 0.59825384562702, -0.15795716259941, 0
456, 0.60584144790332, -0.15419987190192, 0
457, 0.61328446773272, -0.15016650379777, 0
458, 0.62023960914255, -0.14606742818665, 0
459, 0.62697993724156, -0.14177094523101, 0
460, 0.63356929420152, -0.13724113683965, 0
461, 0.63993084213441, -0.13253591118423, 0
462, 0.64608476079977, -0.12764921052767, 0
463, 0.65214863884132, -0.12248417636542, 0
464, 0.65802690820869, -0.11711521732012, 0
465, 0.66373971896687, -0.11152183825927, 0
466, 0.6694995123956, -0.10546676568294, 0
467, 0.67491005389256, -0.099353517021165, 0
468, 0.68005335702792, -0.093111105520153, 0
469, 0.68517868981349, -0.086414268404975, 0
470, 0.68990602389687, -0.079752463102481, 0
471, 0.69432560453216, -0.073034787159092, 0
472, 0.6986154438538, -0.065982346951657, 0
473, 0.70262466619503, -0.058826669507722, 0
474, 0.70638287572426, -0.051519003451534, 0
475, 0.70982822030098, -0.044191918896444, 0
476, 0.71289196885602, -0.037046019379176, 0
477, 0.71572230666483, -0.029773970789927, 0
478, 0.71832907855422, -0.022335421976061, 0
479, 0.72069691914052, -0.014752370475302, 0
480, 0.72281547132126, -0.0070374014314794, 0
481, 0.72468595344542, 0.00084492203195606, 0
482, 0.72625230348808, 0.0086491291211545, 0
483, 0.72756849992651, 0.016644678178212, 0
484, 0.72863177639517, 0.024949846537777, 0
485, 0.72937733281246, 0.033087290525087, 0
486, 0.72983686293732, 0.041338841193952, 0
487, 0.42229891912728, 0.28780837860751, 0
488, 0.067490895476132, -0.22891836043353, 0
489, 0.1332840000678, -0.2298171975057, 0
490, 0.19527132483047, -0.22984410261634, 0
491, 0.46951771160246, -0.18584197288621, 0
492, 0.5600706428067, 0.29227067958792, 0
493, 0.5938870340539, -0.20218017450114, 0
494, 0.068133150965088, 0.22740862552406, 0
495, 0.13530594303644, 0.23131065277971, 0
496, 0.26290625519111, 0.2628458758026, 0
497, 0.30814802657225, 0.26899437715459, 0
498, 0.33410702288583, 0.26842027423421, 0
499, 0.3535171248807, 0.25303267718696, 0
500, 0.34387364617453, 0.25556461179979, 0
501, 0.46568283824677, 0.28271666023878, 0
502, 0.47029465409314, 0.28296081556182, 0
503, 0.47214479500095, 0.28805447758415, 0
504, 0.45141178862058, 0.28725923308131, 0
505, 0.38292877634468, 0.26775797895241, 0
506, 0.43991656529341, 0.28588107925297, 0
507, 0.068354065952431, 0.15092335782475, 0
508, 0.14905910460445, 0.034116029490429, 0
509, 0.25130731180393, -0.23175643743563, 0
510, 0.070601010332904, -0.15730986685038, 0
511, 0.082665274417161, -0.077671487458015, 0
512, 0.06645868485146, -0.0019221642882976, 0
513, 0.45648195054643, -0.1820115149157, 0
514, 0.29244994833525, -0.20183827970679, 0
515, 0.37827155977874, -0.2419911449698, 0
516, 0.92809579749409, 0.16024807222395, 0
517, 0.9281371109573, 0.23177999152479, 0
518, 0.7784673068298, 0.21566704031964, 0
519, 0.73515361115659, 0.16166700966807, 0
520, 0.77701477859328, 0.12928710068514, 0
521, 0.66193086271599, 0.267465015283, 0
522, 0.69601105772289, 0.26102068107148, 0
523, 0.591970529965, 0.27937638952581, 0
524, 0.50127532362756, 0.28969582297836, 0
525, 0.51111748058017, 0.28968211610087, 0
526, 0.53924057643621, 0.29283161042764, 0
527, 0.53083432253925, 0.28822217624535, 0
528, 0.54058736007675, 0.28540890443102, 0
529, 0.6296855869794, 0.25855111842827, 0
530, 0.62472806557652, 0.26033782541979, 0
531, 0.74642888328716, 0.087544328409735, 0
532, 0.74468969468182, 0.079223714083644, 0
533, 0.75455963821531, 0.020037339700667, 0
534, 0.74190623630209, 0.05678383993316, 0
535, 0.73797980692723, -0.061199039436971, 0
536, 0.92000825866098, -0.080312503788922, 0
537, 0.58781970781112, -0.20399015757617, 0
538, 0.59735748501235, -0.16951804106091, 0
539, 0.65533976542919, -0.25813248340972, 0
540, 0.676942177152, -0.24835043238812, 0
541, 0.92964024674393, -0.15864457466524, 0
542, 0.79564262886697, -0.24058499018763, 0
543, 0.73321491719791, -0.25720956515151, 0
544, 0.86298814819485, -0.2340289233431, 0
545, 0.93107224244331, -0.2297768255081, 0
546, 0.2387356277411, 0.2550810529746, 0
547, 0.28484041380742, 0.17278244701535, 0
548, 0.24977925499603, 0.14695461303187, 0
549, 0.27555789576361, 0.14221935150061, 0
550, 0.18841956990516, 0.1393120286138, 0
551, 0.20556232426498, 0.14719185925545, 0
552, 0.29228756338321, 0.1923491095565, 0
553, 0.3230561778146, 0.22981810948664, 0
554, 0.33084487797178, 0.23167379537223, 0
555, 0.32276133727463, 0.24255510277675, 0
556, 0.33152518483331, 0.25641848709932, 0
557, 0.33644908398425, 0.22621423010226, 0
558, 0.35604535977319, 0.24802825272686, 0
559, 0.3709117318579, 0.25659000410158, 0
560, 0.34626024116444, 0.23523874109539, 0
561, 0.34277035224541, 0.23215517359101, 0
562, 0.35108074762999, 0.24545124054802, 0
563, 0.41624827524594, 0.27589047960964, 0
564, 0.34768303394699, 0.25027825658416, 0
565, 0.37909643448004, 0.27587772591392, 0
566, 0.34128431942125, 0.28024052486807, 0
567, 0.38468226371148, 0.28000781090813, 0
568, 0.37973850173018, 0.26386542356125, 0
569, 0.37823892467217, 0.25228733823722, 0
570, 0.43058392171462, 0.28846745711555, 0
571, 0.32722700318443, 0.2769524749989, 0
572, 0.42488826767981, 0.27806580534834, 0
573, 0.43272779498176, 0.28032157016737, 0
574, 0.37576815742228, 0.2470693593254, 0
575, 0.40160033261881, 0.29257162623049, 0
576, 0.3036445976828, 0.21996287765531, 0
577, 0.27899734415425, 0.19201908978343, 0
578, 0.30116231895379, 0.18396968250454, 0
579, 0.3106880438443, 0.19119448653754, 0
580, 0.28041739558699, 0.2059624316759, 0
581, 0.29689236955338, 0.18764606493429, 0
582, 0.31762126697418, 0.22785495901366, 0
583, 0.32147827938671, 0.22233870499795, 0
584, 0.32225979102584, 0.21476160500402, 0
585, 0.32976524695175, 0.22088379221047, 0
586, 0.3082401144189, 0.18966514038471, 0
587, 0.28623797681754, 0.18730189664096, 0
588, 0.31186717871969, 0.21472704039093, 0
589, 0.27692081710491, 0.14956451848749, 0
590, 0.28253854045779, 0.13666519161604, 0
591, 0.27208415260405, 0.13792662098802, 0
592, 0.28564795664342, 0.15290507988644, 0
593, 0.27203858362587, 0.12572405892101, 0
594, 0.26577094296387, 0.08249429343567, 0
595, 0.2685182456055, 0.17544853533318, 0
596, 0.29700547486452, 0.1694357118274, 0
597, 0.26003161809874, 0.12943989214189, 0
598, 0.28416349244991, 0.14537371183125, 0
599, 0.28894452946379, 0.14960283563783, 0
600, 0.25251879578702, 0.13229858621013, 0
601, 0.27572141373689, 0.11994081504536, 0
602, 0.26666490832781, 0.16655282442362, 0
603, 0.28142740859136, 0.15177888028037, 0
604, 0.20698355852564, 0.16192200093489, 0
605, 0.21164196195594, 0.089145179489558, 0
606, 0.17897674693599, 0.088928427885006, 0
607, 0.21286102177699, 0.1171531933878, 0
608, 0.26064030657879, 0.10054048546127, 0
609, 0.27375758805083, 0.11113961722253, 0
610, 0.25717425351116, 0.11466175695247, 0
611, 0.27017794020949, 0.095131573441564, 0
612, 0.26427565321837, 0.095303656350886, 0
613, 0.27028174277224, 0.10152130116754, 0
614, 0.26490104338896, 0.077821466557863, 0
615, 0.22018769169082, 0.052838656062847, 0
616, 0.23166939207302, 0.057121431196119, 0
617, 0.26701684593321, 0.014948032685854, 0
618, 0.23933628552183, 0.068011725484875, 0
619, 0.25137364885598, 0.055883539779648, 0
620, 0.26520577063439, 0.050314873211828, 0
621, 0.26676886396112, 0.032228180692031, 0
622, 0.2497682338583, 0.028247611733595, 0
623, 0.22609120036158, 0.10125046288386, 0
624, 0.26161525342081, 0.0097980656646927, 0
625, 0.23844750166637, 0.016062991536969, 0
626, 0.25685759589373, 0.06856988185708, 0
627, 0.26136163313281, 0.038832650367235, 0
628, 0.26292673923439, 0.033412544468119, 0
629, 0.2476675566388, 0.047050984904311, 0
630, 0.17701823583483, 0.028932224255828, 0
631, 0.14694881690133, 0.06052556330787, 0
632, 0.13652549302607, 0.082855224051373, 0
633, 0.20605027038445, -0.15010560966551, 0
634, 0.30527630848006, -0.17828386458655, 0
635, 0.28216518611062, -0.082699725974479, 0
636, 0.13737239914735, -0.16131569629765, 0
637, 0.16286220362892, 2.2848802193887e-05, 0
638, 0.13173850844046, -0.073651086892094, 0
639, 0.14571274886069, -0.10444378431616, 0
640, 0.27366573324525, -0.010728089299212, 0
641, 0.26311937918169, -0.011925760250565, 0
642, 0.26752980077992, -0.05033213944309, 0
643, 0.27595653946279, -0.021332285370086, 0
644, 0.2786382713163, -0.024059318969869, 0
645, 0.22970993851286, 0.027392869095582, 0
646, 0.26394608966557, -7.846403412373e-05, 0
647, 0.26662182331573, 0.019418480461836, 0
648, 0.22781321887836, 0.007009250342822, 0
649, 0.24794606238053, 0.022027191652938, 0
650, 0.18714231685705, -0.026575016109024, 0
651, 0.12598226509922, -0.022798658420355, 0
652, 0.26756465885877, -0.039234528183479, 0
653, 0.21547635271226, -0.036131316161881, 0
654, 0.25861908327367, -0.044144792808044, 0
655, 0.26764317775962, -0.0091080277628505, 0
656, 0.27963408164995, -0.031590271516642, 0
657, 0.26833720543766, -0.034145532785652, 0
658, 0.14573425430152, -0.058174683829754, 0
659, 0.27819203589547, -0.020858192790692, 0
660, 0.28541261432486, -0.097786092682205, 0
661, 0.29126214725586, -0.064695930677735, 0
662, 0.29290102618494, -0.11949320892554, 0
663, 0.24493531744709, -0.12723934948638, 0
664, 0.15813342892511, -0.048395258850181, 0
665, 0.17347644676717, -0.086226944656934, 0
666, 0.19648983108807, -0.1008139635913, 0
667, 0.26950762550701, -0.084151787748722, 0
668, 0.38399351444636, -0.20631448771153, 0
669, 0.41926562387874, -0.18568735878107, 0
670, 0.46772070971908, -0.19390092685347, 0
671, 0.39062201277681, -0.18884634490916, 0
672, 0.44084638811979, -0.18949070082366, 0
673, 0.43961796498921, -0.18548722263785, 0
674, 0.44350183412737, -0.18200934952541, 0
675, 0.44728981374845, -0.19003416707308, 0
676, 0.45795052254121, -0.23788813812677, 0
677, 0.40096844178212, -0.22870565604162, 0
678, 0.48881827265545, -0.1991447485182, 0
679, 0.49989969542308, -0.20033032178721, 0
680, 0.47801734660436, -0.19699945670073, 0
681, 0.4772331319433, -0.21830152734122, 0
682, 0.50865905846371, -0.22347038963553, 0
683, 0.49253880230416, -0.22184423350729, 0
684, 0.56218450950381, -0.20373145848884, 0
685, 0.33834135062562, -0.18592386714155, 0
686, 0.36821401582123, -0.20500891073075, 0
687, 0.38503414922951, -0.16154441614831, 0
688, 0.37779383088528, -0.1576139523237, 0
689, 0.36309503795104, -0.16136319857187, 0
690, 0.37284221956614, -0.16697179084223, 0
691, 0.38063189199059, -0.16816707132608, 0
692, 0.37347853838498, -0.1818748095609, 0
693, 0.35451748413995, -0.14440457454894, 0
694, 0.34045269138831, -0.13252977241087, 0
695, 0.35357240545692, -0.17208500665055, 0
696, 0.27504769222488, -0.16398613858711, 0
697, 0.30476100447743, -0.16288707870048, 0
698, 0.27514774350503, -0.11814193179287, 0
699, 0.2673152318197, -0.044662443253687, 0
700, 0.25306754011458, -0.16221142132312, 0
701, 0.31815360087856, -0.12872112220814, 0
702, 0.31007685172923, -0.088993601942894, 0
703, 0.32978205475394, -0.12189440561961, 0
704, 0.37047024744137, -0.15289190533325, 0
705, 0.35061170717527, -0.14382906742436, 0
706, 0.36130688534914, -0.1447702885714, 0
707, 0.33156717707879, -0.13429196349401, 0
708, 0.35249012748588, -0.13927094313127, 0
709, 0.35724742446112, -0.14468971152036, 0
710, 0.29427940410392, -0.15806053952854, 0
711, 0.40788680944436, -0.1743041113761, 0
712, 0.38527225374733, -0.17412870427302, 0
713, 0.39334573852002, -0.17939763833957, 0
714, 0.40064194024599, -0.18438054820196, 0
715, 0.44671665407705, -0.18350619735641, 0
716, 0.42295833608648, -0.19379387592165, 0
717, 0.41616700921284, -0.19275078782614, 0
718, 0.44311563399419, -0.19409780592327, 0
719, 0.4473341736704, -0.23303454803728, 0
720, 0.39205853324981, -0.16587970151275, 0
721, 0.39971389680197, -0.17018879560961, 0
722, 0.42172666704851, -0.17931241438837, 0
723, 0.31596881166986, -0.094456533682068, 0
724, 0.2749870041717, -0.072949088271525, 0
725, 0.28736614871359, -0.10912320113972, 0
726, 0.31065017867951, -0.096022853708683, 0
727, 0.31987376041566, -0.10278185481582, 0
728, 0.30758556893772, -0.10589956595768, 0
729, 0.24782593235297, -0.068237267636767, 0
730, 0.16428751998867, -0.05768135649935, 0
731, 0.25861943624657, -0.13265826972102, 0
732, 0.2986415704072, -0.075914054075331, 0
733, 0.30698853097526, -0.11178390963402, 0
734, 0.31546871350311, -0.12286823677802, 0
735, 0.30086777279367, -0.11148367508543, 0
736, 0.32466903193575, -0.10485927896946, 0
737, 0.30051800073863, -0.11907516532725, 0
738, 0.32148361228401, -0.12044134275389, 0
739, 0.25413588000491, -0.084738785877181, 0
740, 0.79524762189202, 0.27714499660243, 0
741, 0.76850148071557, 0.27936721683582, 0
742, 0.80659241566237, 0.11455407495704, 0
743, 0.73239004318073, 0.18960920403344, 0
744, 0.74773594438065, 0.14515123687871, 0
745, 0.76360073328755, 0.11953480055869, 0
746, 0.73821802451215, 0.13835378538847, 0
747, 0.72627138771654, 0.2287996431732, 0
748, 0.70630762211345, 0.22763776751118, 0
749, 0.67933202605225, 0.25016227642157, 0
750, 0.66331724620302, 0.22904503464644, 0
751, 0.67470752526249, 0.22383749491077, 0
752, 0.6666038106537, 0.22536790901344, 0
753, 0.66930113987683, 0.22161727819513, 0
754, 0.63577615083499, 0.24546126630765, 0
755, 0.64300410756699, 0.2421370449054, 0
756, 0.66150838610534, 0.22195668378952, 0
757, 0.63850717968473, 0.25115201890011, 0
758, 0.64565771875353, 0.25147571523327, 0
759, 0.61412324516746, 0.26029814438782, 0
760, 0.60048008819175, 0.28821479611279, 0
761, 0.62317624879734, 0.2563684912177, 0
762, 0.61681987069651, 0.25165759104338, 0
763, 0.60858080130037, 0.28663487779998, 0
764, 0.585835798173, 0.29046884246879, 0
765, 0.62126255209733, 0.27160964599969, 0
766, 0.62791102371901, 0.28230661840598, 0
767, 0.6217562499631, 0.25299450039887, 0
768, 0.62362982299998, 0.24817134734413, 0
769, 0.61585270578625, 0.2548449224331, 0
770, 0.69304960155517, 0.18723281043154, 0
771, 0.70162532444013, 0.1721433339217, 0
772, 0.72860744014206, 0.15294376275992, 0
773, 0.71444641576671, 0.21479001066185, 0
774, 0.75661773964016, 0.153915145253, 0
775, 0.68248197963339, 0.20647137628425, 0
776, 0.69172333072996, 0.21383091074714, 0
777, 0.66961816410982, 0.21261808937247, 0
778, 0.679088321148, 0.20960812109062, 0
779, 0.71579936289792, 0.19502107592922, 0
780, 0.70450976634466, 0.16875181093264, 0
781, 0.70160757527449, 0.190592399258, 0
782, 0.72321377678121, 0.14152227711652, 0
783, 0.75487821814167, 0.12205777019595, 0
784, 0.71490537170977, 0.17834613766506, 0
785, 0.71670830802125, 0.20403697273867, 0
786, 0.75837411104502, 0.11196445441375, 0
787, 0.75069721038273, 0.1392188188, 0
788, 0.78118911725488, 0.080839776764861, 0
789, 0.6967847370143, 0.20854272629938, 0
790, 0.76435393592868, 0.16565594077787, 0
791, 0.69868220664881, 0.18157440681855, 0
792, 0.75876886434865, 0.18924362421822, 0
793, 0.68339244593427, 0.1970056060293, 0
794, 0.73528562508484, 0.14335836097808, 0
795, 0.68066670181808, 0.20048388586875, 0
796, 0.77114232030667, 0.085779287726844, 0
797, 0.77088198979969, 0.070434868248125, 0
798, 0.75772389158067, 0.074510263465996, 0
799, 0.76033768101112, 0.084070411896265, 0
800, 0.74575893340156, 0.11395752258745, 0
801, 0.76160115287114, 0.10339374185553, 0
802, 0.74661073779377, 0.10504276190427, 0
803, 0.76151499167362, 0.093026078733649, 0
804, 0.74690436858752, 0.096221020242215, 0
805, 0.74800962745249, 0.0054392835746027, 0
806, 0.74072097957552, -0.026953491972806, 0
807, 0.7366962191545, 0.077312745611835, 0
808, 0.75441141240535, 0.0082145009958193, 0
809, 0.763563413143, -0.02197829981406, 0
810, 0.73648908266474, -0.012683959418757, 0
811, 0.74593565095199, 0.065971982905025, 0
812, 0.74539670230539, 0.061040654064774, 0
813, 0.75749866722016, 0.048819798730296, 0
814, 0.73657310960978, 0.044276176903006, 0
815, 0.73016841380244, -0.029345783928827, 0
816, 0.76704962565314, 0.062962363446198, 0
817, 0.77022074658602, 0.043902873284525, 0
818, 0.81236283823004, 0.030495192020203, 0
819, 0.79381061152843, 0.06810327885662, 0
820, 0.88537932414955, 0.081375617865852, 0
821, 0.85754821416812, 0.056355824164194, 0
822, 0.86249737586871, -0.10735424343002, 0
823, 0.86512143387271, -0.060054491440047, 0
824, 0.74018145961781, -0.054103043316918, 0
825, 0.93065556629552, 0.00041195121408238, 0
826, 0.66563657091862, -0.12211405296463, 0
827, 0.80526422056401, -0.104797199651, 0
828, 0.72415149484753, -0.019126931942419, 0
829, 0.73751457272893, -0.0077489212351939, 0
830, 0.73304576727115, -0.0029593305521982, 0
831, 0.72155666981913, -0.068360218758262, 0
832, 0.71812844576846, -0.060678588713093, 0
833, 0.72718393811198, -0.023444728619385, 0
834, 0.7260218324732, -0.029971806329955, 0
835, 0.73963128628605, -0.019177142471384, 0
836, 0.81835608438571, -0.013095944445791, 0
837, 0.72111660207526, -0.029996737360345, 0
838, 0.7501178463166, -0.063233409684235, 0
839, 0.84007198464907, 0.016071629365599, 0
840, 0.81574815834402, -0.036555322619995, 0
841, 0.71828840132606, -0.041753739592161, 0
842, 0.72754852225551, -0.0072507664992213, 0
843, 0.73581959144456, 0.065315690773636, 0
844, 0.78855279016475, 0.038510049072603, 0
845, 0.74249009876831, 0.032995568500051, 0
846, 0.73528985028536, 0.010423597872496, 0
847, 0.73790309060348, -0.0026942018330681, 0
848, 0.77415228294872, 0.058052048709454, 0
849, 0.72435696067926, -0.047045081329424, 0
850, 0.84253345404985, -0.0096209806275724, 0
851, 0.7151981968358, -0.064688297893545, 0
852, 0.70568655390206, -0.07855295779849, 0
853, 0.71016884728039, -0.13877316842702, 0
854, 0.71599583968723, -0.07922714309484, 0
855, 0.70937902929588, -0.071644756623427, 0
856, 0.67550840866256, -0.13361522216811, 0
857, 0.6606893149644, -0.12767710842649, 0
858, 0.70383346769614, -0.12413403117056, 0
859, 0.67404815732372, -0.14256992059887, 0
860, 0.65616169561971, -0.12119134972432, 0
861, 0.69665121910091, -0.12830710950177, 0
862, 0.64410294082863, -0.13527222731208, 0
863, 0.70874875553589, -0.096960819252249, 0
864, 0.64721235591944, -0.13245583061123, 0
865, 0.69810777463031, -0.096930498909256, 0
866, 0.53893838539115, -0.18575748322267, 0
867, 0.51722657518837, -0.23603547900191, 0
868, 0.58126247779658, -0.19970766492273, 0
869, 0.60200350787838, -0.20203445816752, 0
870, 0.5470860158057, -0.18313590943983, 0
871, 0.60971910047321, -0.18000076366842, 0
872, 0.59829850384575, -0.19829577351374, 0
873, 0.49087396179739, -0.24652017180854, 0
874, 0.60387573685617, -0.18675667167772, 0
875, 0.5799579863514, -0.20887793004121, 0
876, 0.64811655170287, -0.22578140321119, 0
877, 0.58007422450418, -0.16923577676043, 0
878, 0.55372044908687, -0.18863523643656, 0
879, 0.65096937372852, -0.16629774565453, 0
880, 0.58909470808071, -0.18448228874736, 0
881, 0.5110444225115, -0.20055262489985, 0
882, 0.53230599961981, -0.19778310596598, 0
883, 0.52196746512987, -0.19972155798599, 0
884, 0.53875448227223, -0.21950949118524, 0
885, 0.60000371291454, -0.22373046300954, 0
886, 0.52464123319893, -0.22271756019654, 0
887, 0.58071951253932, -0.20412568746628, 0
888, 0.70480955274549, -0.26768461595493, 0
889, 0.61542948068121, -0.23398600698246, 0
890, 0.5800301749848, -0.1797480567719, 0
891, 0.59937895656359, -0.21747167488288, 0
892, 0.54171985038336, -0.19476099200462, 0
893, 0.64337882187006, -0.21616723286326, 0
894, 0.58445276102164, -0.17208792303193, 0
895, 0.55120018843714, -0.22819507328465, 0
896, 0.6994775563263, -0.23261170140222, 0
897, 0.55377561740362, -0.19892444983503, 0
898, 0.58843080427573, -0.20875723405753, 0
899, 0.64317855792856, -0.16478037707243, 0
900, 0.69526230090614, -0.18318662581651, 0
901, 0.65154191351955, -0.13460707243996, 0
902, 0.66519249026193, -0.12754350588369, 0
903, 0.67897186070428, -0.15634705556373, 0
904, 0.72970762719479, -0.12423036385293, 0
905, 0.71382316475032, -0.16007995493755, 0
906, 0.62814093295763, -0.15463109304738, 0
907, 0.63470671914084, -0.14890207679572, 0
908, 0.67866834113764, -0.11590993457785, 0
909, 0.64138354971427, -0.14379812157391, 0
910, 0.68215027525772, -0.13290367987067, 0
911, 0.64821202533066, -0.15168856887119, 0
912, 0.64043532375506, -0.15439186970824, 0
913, 0.62023009496759, -0.1604373392403, 0
914, 0.63716091006381, -0.16211445150891, 0
915, 0.62859490186183, -0.17233267503047, 0
916, 0.61124117226957, -0.16517470021168, 0
917, 0.6157629200681, -0.17915206252507, 0
918, 0.59569666822804, -0.20641645711917, 0
919, 0.65858185629559, -0.12046225609694, 0
920, 0.65525862446387, -0.20325510680215, 0
921, 0.5875020179697, -0.19250686656227, 0
922, 0.54309042101109, -0.18453879134321, 0
923, 0.86208179793991, -0.16666207554347, 0
924, 0.75868679788827, -0.13185903199042, 0
925, 0.7238006465982, -0.19833952888494, 0
926, 0.78668258975555, -0.16331668582359, 0
927, 0.35130945079174, -0.19804766545443, 0
928, 0.30456981836979, -0.23307278841002, 0
929, 0.29028312419094, -0.17508998057239, 0
930, 0.63779505755953, -0.20723219312897, 0
931, 0.61602607569556, -0.24223890555467, 0
932, 0.69326890139504, 0.18470990185296, 0
933, 0.19333685512867, 0.030887557302246, 0
934, 0.2671271517732, 0.036003233406922, 0
935, 0.69135340724884, -0.091498404178084, 0
936, 0.28437930058499, 0.22199408573067, 0
937, 0.27631935659404, 0.23337970485362, 0
938, 0.31861210437154, 0.21105721723907, 0
939, 0.72906152419429, -0.026849612592642, 0
940, 0.89856640007189, -0.0015944649004987, 0
941, 0.72061449105255, -0.056308603362255, 0
942, 0.66227981423274, 0.28017595393558, 0
943, 0.62911083266156, 0.24941613817525, 0
944, 0.23123893686339, -0.15772852466051, 0
945, 0.26568256200223, -0.11507367522077, 0
946, 0.3320266650385, -0.11514530749642, 0
947, 0.2892572661413, -0.077124743022324, 0
948, 0.28713771675702, -0.056624056904164, 0
949, 0.24952916472907, 0.2379552451822, 0
950, 0.30358304959367, 0.25455248606276, 0
951, 0.24581611898402, 0.21241969728461, 0
952, 0.26056429067462, 0.048403204620527, 0
953, 0.212589346008, 0.018544717921253, 0
954, 0.26374701317315, 0.041269531768622, 0
955, 0.72863082725836, -0.084418436885512, 0
956, 0.71593882649697, -0.11119041107231, 0
957, 0.75522009207883, -0.181211726171, 0
958, 0.57025944280901, 0.2840951475639, 0
959, 0.57562539084859, 0.28326387806082, 0
960, 0.59734684966342, 0.27743269972421, 0
961, 0.53309971168058, 0.28245383339746, 0
962, 0.54640670566544, 0.27885786031354, 0
963, 0.32717224561581, -0.19397329029084, 0
964, 0.33621000749848, -0.23116387516172, 0
965, 0.32677827813031, -0.15682784604268, 0
966, 0.28673638525084, 0.25220952442516, 0
967, 0.25888154484083, 0.20415721743809, 0
968, 0.26899796441588, 0.24687750343833, 0
969, 0.73832110154108, 0.012772816955698, 0
970, 0.44251437243085, -0.18488384894974, 0
971, 0.46555801652288, -0.20268756433601, 0
972, 0.44445900298738, -0.18705409975747, 0
973, 0.41141669152768, -0.2010076007621, 0
974, 0.43698209951845, -0.17636344774569, 0
975, 0.44643134112115, -0.19922281856141, 0
976, 0.19773308728688, 0.0036654767233998, 0
977, 0.12224655687341, -0.00051857695066257, 0
978, 0.20678162544762, -0.022595669043236, 0
979, 0.40619833186936, 0.26637696268095, 0
980, 0.36855507617119, 0.24356249270455, 0
981, 0.32339328176149, 0.26198751689229, 0
982, 0.56629228086051, 0.2921377314269, 0
983, 0.59508138568366, 0.26839741415731, 0
984, 0.60313112700519, 0.26372178273617, 0
985, 0.46066921390693, -0.18336935589783, 0
986, 0.3691020272098, -0.22057506124115, 0
987, 0.46872561947536, -0.24160842434572, 0
988, 0.31675930889996, 0.21902735583058, 0
989, 0.29751305400157, 0.18011406698, 0
990, 0.29069655372218, 0.23923358685077, 0
991, 0.19506904859424, 0.14901830092057, 0
992, 0.18228234337534, 0.12460091524906, 0
993, 0.17644980550031, 0.1509669529315, 0
994, 0.40320409231042, 0.27858112001925, 0
995, 0.33253497685155, 0.24635901387657, 0
996, 0.33868903323846, 0.23556912086685, 0
997, 0.65118894628214, 0.23806172180462, 0
998, 0.68610431105066, 0.21750933347881, 0
999, 0.65542843519465, 0.23546613026157, 0
1000, 0.81481013925905, 0.18953226980876, 0
1001, 0.790478246717, 0.14838575916682, 0
1002, 0.79053017829543, 0.088039712203687, 0
1003, 0.20924522169443, 0.1803589495324, 0
1004, 0.24092843085907, 0.15776505916659, 0
1005, 0.16422598485603, 0.13349281420308, 0
1006, 0.41864520066651, 0.27085908958857, 0
1007, 0.362848079082, 0.24562991968259, 0
1008, 0.37229494290234, 0.24544815935034, 0
1009, 0.57632704349222, -0.17011036075094, 0
1010, 0.56337275366995, -0.1899834452411, 0
1011, 0.59297962349169, -0.17050276344946, 0
1012, 0.61397860534391, -0.22611285411549, 0
1013, 0.36331513016619, -0.15380114992483, 0
1014, 0.35630772049798, -0.15278345057162, 0
1015, 0.3198882724499, -0.14673336748656, 0
1016, 0.48478801281463, -0.22027085810259, 0
1017, 0.53275911460565, -0.28823068727844, 0
1018, 0.55687188333379, -0.22442807265035, 0
1019, 0.36037813802311, -0.15044143883978, 0
1020, 0.34442317235639, -0.21193275285141, 0
1021, 0.82076201154874, 0.24802584198362, 0
1022, 0.76565231008951, 0.23988197206224, 0
1023, 0.78706865957616, 0.23376213158226, 0
1024, 0.78022048402099, 0.068717554038732, 0
1025, 0.74960857274312, 0.030395060940956, 0
1026, 0.47872555641551, 0.28233093484196, 0
1027, 0.48413503821884, 0.28265434300759, 0
1028, 0.42209357772972, 0.29315304993772, 0
1029, 0.42946410058314, 0.29339399853907, 0
1030, 0.42658566900174, 0.28788237523675, 0
1031, 0.30391983985647, -0.13587975188898, 0
1032, 0.31220142953468, -0.15165525620262, 0
1033, 0.31533058047428, -0.16180111579692, 0
1034, 0.29589696775289, -0.14011652263234, 0
1035, 0.30033476394472, -0.14906821440968, 0
1036, 0.3056062686948, -0.15462265167712, 0
1037, 0.24949896500089, 0.082922883835734, 0
1038, 0.53331785589154, 0.29374038813896, 0
1039, 0.52589246995535, 0.28885472090452, 0
1040, 0.66123837813749, -0.13876950825576, 0
1041, 0.71026180812907, -0.090686523122018, 0
1042, 0.14689019443633, -0.018376560662359, 0
1043, 0.17506531408788, -0.07038031520735, 0
1044, 0.11770617175726, -0.096483553888385, 0
1045, 0.69218479480396, 0.19076050320562, 0
1046, 0.70051419611274, 0.18569525275052, 0
1047, 0.7155906875269, 0.15386716800882, 0
1048, 0.41601374475862, -0.23612348620791, 0
1049, 0.41001529917823, -0.19048959854293, 0
1050, 0.43997937135546, -0.18145922130436, 0
1051, 0.17548973963519, 0.041447244928863, 0
1052, 0.15734249240969, 0.046646786256099, 0
1053, 0.1645305993068, 0.06855760798054, 0
1054, 0.23248040268521, 0.14147634187162, 0
1055, 0.27221878119932, 0.14623442285028, 0
1056, 0.27911891571757, 0.14564981570941, 0
1057, 0.71066324033078, -0.079968813699309, 0
1058, 0.70716419020495, -0.074871779972368, 0
1059, 0.71350146339402, -0.074733557169841, 0
1060, 0.74286982901138, 0.071261633498068, 0
1061, 0.77944492079649, 0.0035960551044962, 0
1062, 0.8170470134603, 0.0093849877449357, 0
1063, 0.44200991742353, -0.26549978538648, 0
1064, 0.46021553476175, -0.22425535959168, 0
1065, 0.73838123167606, -0.035157942683133, 0
1066, 0.83944263663461, -0.059648915228428, 0
1067, 0.63389232523134, -0.18005798604128, 0
1068, 0.67844036520895, -0.274973218861, 0
1069, 0.57094859857481, -0.22975466850074, 0
1070, 0.89029500697638, -0.10218269501726, 0
1071, 0.86174932284009, -0.083358256461807, 0
1072, 0.89121445349181, -0.063540396096606, 0
1073, 0.83083994610955, 0.12215129938261, 0
1074, 0.92675771603967, 0.080766743909267, 0
1075, 0.53468028606453, -0.18686975245055, 0
1076, 0.62268884820508, -0.21070574549517, 0
1077, 0.5777435630708, -0.29120242760692, 0
1078, 0.70840163732765, -0.18990089574182, 0
1079, 0.5965238190454, -0.25308626079241, 0
1080, 0.48144344428258, 0.28529131660311, 0
1081, 0.48578881378009, 0.28776515970231, 0
1082, 0.41389024860849, 0.28120486142679, 0
1083, 0.73726543487516, -0.11294647896899, 0
1084, 0.7692465254544, -0.1148502073394, 0
1085, 0.65288613366663, -0.14079349473516, 0
1086, 0.72003222389396, 0.1748411576285, 0
1087, 0.72638504629538, 0.18140783173925, 0
1088, 0.77525159486759, 0.12087461278794, 0
1089, 0.70587159117883, 0.17634748942812, 0
1090, 0.77899210676191, 0.10152242918774, 0
1091, 0.57726417542453, 0.2747606849821, 0
1092, 0.57253122658838, 0.29177952498306, 0
1093, 0.22642447151905, 0.076963048492948, 0
1094, 0.25596155179618, 0.096257501161614, 0
1095, 0.23838065725521, 0.076819727082988, 0
1096, 0.25700997003205, 0.074259313593671, 0
1097, 0.22575752213292, 0.088506812954503, 0
1098, 0.26401167344033, 0.063676960343285, 0
1099, 0.57740948440132, -0.19087796649997, 0
1100, 0.55002643272144, -0.19086584431901, 0
1101, 0.56824162696306, -0.18412891118051, 0
1102, 0.28055983993609, 0.13272025377725, 0
1103, 0.24069702222759, -0.019191673221174, 0
1104, 0.25139018433625, -0.0045896220939626, 0
1105, 0.25875094254479, -0.024006925741087, 0
1106, 0.26736724879574, 0.039317984936544, 0
1107, 0.25353924091894, 0.050461690894516, 0
1108, 0.24302033940742, 0.031364499366531, 0
1109, 0.86626178767323, 0.024731972631715, 0
1110, 0.74470460302765, -0.031419718171995, 0
1111, 0.73133448007932, -0.032889495031018, 0
1112, 0.51679498934911, -0.22342424484081, 0
1113, 0.61446714901535, -0.25919073356759, 0
1114, 0.59870242969653, -0.24552649161825, 0
1115, 0.73835041264714, -0.079919130249293, 0
1116, 0.69208570023729, -0.11784938477355, 0
1117, 0.71047067666188, -0.11842403168415, 0
1118, 0.54474423139698, -0.21695331092151, 0
1119, 0.60882938940652, -0.21218305760451, 0
1120, 0.61570757955972, -0.25069460726211, 0
1121, 0.31667854253041, -0.10274537258443, 0
1122, 0.30137192825832, -0.079405991294819, 0
1123, 0.72534807361528, -0.063875089168639, 0
1124, 0.76557490973746, 0.083668448405611, 0
1125, 0.76062870944636, 0.088579123011028, 0
1126, 0.76762431627256, 0.09065516662002, 0
1127, 0.26652347401161, 0.028124772880636, 0
1128, 0.2591396214755, 0.05288462032498, 0
1129, 0.26104914418399, 0.014853705379624, 0
1130, 0.26461200118315, 0.054604291394228, 0
1131, 0.24414118997631, 0.053043365916091, 0
1132, 0.26594108853083, 0.0462754369865, 0
1133, 0.27449041753885, -0.030917429006697, 0
1134, 0.27212494530107, -0.0067424379771331, 0
1135, 0.71331131701504, -0.053917965989022, 0
1136, 0.74322123080489, -0.0080695318472978, 0
1137, 0.76663481994763, 0.0014156525553753, 0
1138, 0.32594048084036, 0.24972128736776, 0
1139, 0.36095703716466, 0.23916871346971, 0
1140, 0.33757424010001, 0.25140824386428, 0
1141, 0.730087447837, -0.016093162691149, 0
1142, 0.30657171442327, 0.19310279427426, 0
1143, 0.30570097188582, 0.20318642415421, 0
1144, 0.31281014673828, 0.2022700894823, 0
1145, 0.22749909958206, 0.1784286704353, 0
1146, 0.28717057500634, 0.16156672387115, 0
1147, 0.2498388371175, 0.1233197234514, 0
1148, 0.62246199286292, -0.17684954322278, 0
1149, 0.57707273611002, -0.2192280731271, 0
1150, 0.43490357783571, 0.28843052134959, 0
1151, 0.43641092163218, 0.28200654360513, 0
1152, 0.4312041577524, 0.28426653864049, 0
1153, 0.28695490989099, 0.19834724420185, 0
1154, 0.69076354099201, 0.19475511751841, 0
1155, 0.7098695064064, 0.18135677235916, 0
1156, 0.72768639073498, 0.13282950571553, 0
1157, 0.67750034216277, -0.28777040797891, 0
1158, 0.57337181836551, -0.18592127335748, 0
1159, 0.3910163034789, -0.18364701469431, 0
1160, 0.39723545624425, -0.18140433586277, 0
1161, 0.3964034872443, -0.18784078125767, 0
1162, 0.46867547704937, 0.29394413102765, 0
1163, 0.48145068465164, 0.28132611562451, 0
1164, 0.49110088299674, 0.28895226374117, 0
1165, 0.49521882794762, 0.29458453037628, 0
1166, 0.51152578268871, 0.29480554053667, 0
1167, 0.50621120453151, 0.28974486230196, 0
1168, 0.50077437234944, 0.29478056020138, 0
1169, 0.50617177901628, 0.29483464986025, 0
1170, 0.5605328711121, -0.19300459311271, 0
1171, 0.61179093392521, -0.21880317172308, 0
1172, 0.70524491636434, -0.28412428639111, 0
1173, 0.6558435122201, -0.18166438646387, 0
1174, 0.96450697630961, -0.15401904244361, 0
1175, 0.92698135866048, -0.12199084889237, 0
1176, 0.96188221879427, -0.076514306151386, 0
1177, 0.96322293392243, -0.11607661625366, 0
1178, 0.034124848388852, 0.15084705007684, 0
1179, 0.068413491664044, 0.11139126526322, 0
1180, 0.034238881508494, 0.072634403588622, 0
1181, 0.034194513848173, 0.11180887318695, 0
1182, 0.035524728632872, -0.15538148960953, 0
1183, 0.038705383059044, -0.078888079161918, 0
1184, 0.074682706319077, -0.12016591473259, 0
1185, 0.03723334355701, -0.11785966224109, 0
1186, 0.067230711706808, -0.26447321298625, 0
1187, 0.10071951415952, -0.22949612266279, 0
1188, 0.13320388964986, -0.26491099026849, 0
1189, 0.10047045543285, -0.26471917907883, 0
1190, 0.46184468312233, 0.28806078731401, 0
1191, 0.47468824426209, 0.29362009835088, 0
1192, 0.48929155633174, 0.29407364035269, 0
1193, 0.93100939662475, -0.26497124819938, 0
1194, 0.96546701211481, -0.22770575869937, 0
1195, 0.96544032770389, -0.26392062185115, 0
1196, 0.9286181335773, -0.037555546391932, 0
1197, 0.96503539539986, 0.0022049760377673, 0
1198, 0.96405451615419, -0.036569140481872, 0
1199, 0.56380059650548, 0.27782678479264, 0
1200, 0.51603485973201, 0.28952364786815, 0
1201, 0.51689816897093, 0.29470821206068, 0
1202, 0.033885924662425, -0.22831063574246, 0
1203, 0.033699839844439, -0.26420126991464, 0
1204, 0.27079978505284, -0.025434532293688, 0
1205, 0.24794937692365, -0.025051421795904, 0
1206, 0.27215318693179, -0.01663489464894, 0
1207, 0.6308715084548, -0.14542277725918, 0
1208, 0.63146925922627, -0.15167413867469, 0
1209, 0.62406302773846, -0.15040229050805, 0
1210, 0.62750083445926, -0.14790285488481, 0
1211, 0.23901130662517, 0.1132849883018, 0
1212, 0.26846602823468, 0.091282714987258, 0
1213, 0.24132097685646, 0.099157429394083, 0
1214, 0.26945070904746, 0.11553653792038, 0
1215, 0.65499457478276, 0.22798969548821, 0
1216, 0.67780760517954, 0.20376231767959, 0
1217, 0.67500232992545, 0.20681691744924, 0
1218, 0.66943303978186, 0.25526702948496, 0
1219, 0.033840043007702, -0.0029515868212291, 0
1220, 0.066582925302159, 0.03328775832812, 0
1221, 0.033553286116074, 0.034320032372607, 0
1222, 0.73295332912194, 0.0055257833382819, 0
1223, 0.7516947698313, -0.053657439091202, 0
1224, 0.73198739894272, 0.018506057981163, 0
1225, 0.26665308213829, -0.022970947294744, 0
1226, 0.28245799206281, -0.04402972502142, 0
1227, 0.27505121874717, -0.044590671863757, 0
1228, 0.28657072265171, 0.14363460398623, 0
1229, 0.25601194669073, 0.16429505860656, 0
1230, 0.28092037553593, 0.15626185731529, 0
1231, 0.26920761959266, 0.1514745360445, 0
1232, 0.54978055149412, -0.20170659942595, 0
1233, 0.56148107221866, -0.17661126529578, 0
1234, 0.60411257684204, -0.18023167195836, 0
1235, 0.58458768342532, -0.17998456540088, 0
1236, 0.65967651237064, 0.24081950563428, 0
1237, 0.66467704184939, 0.23737864202949, 0
1238, 0.67974462080203, 0.23099331084396, 0
1239, 0.67080531321923, 0.24302145895348, 0
1240, 0.37480956779039, 0.24976347253849, 0
1241, 0.33778750139125, 0.24280767228586, 0
1242, 0.35358423763468, 0.2341124581709, 0
1243, 0.36111510561929, 0.2500982303433, 0
1244, 0.73242186109394, -0.0074693000590804, 0
1245, 0.71692328117898, -0.045825420520272, 0
1246, 0.81366493035213, -0.05984872735921, 0
1247, 0.40369651168521, -0.1723165827176, 0
1248, 0.40298745364857, -0.16516321098339, 0
1249, 0.41103081795031, -0.16882528807787, 0
1250, 0.40697271925362, -0.16700813803522, 0
1251, 0.37866053534869, 0.2485409268116, 0
1252, 0.42066567305106, 0.27702355375869, 0
1253, 0.42667801901224, 0.27332491612794, 0
1254, 0.42269715030598, 0.27212315735817, 0
1255, 0.32774226890071, 0.21127661798519, 0
1256, 0.32614511084737, 0.21802067629154, 0
1257, 0.33417546483857, 0.21727322128894, 0
1258, 0.33099975209684, 0.21436958058877, 0
1259, 0.96385925577279, 0.080794704622383, 0
1260, 0.89567631942177, 0.034736867885527, 0
1261, 0.96479285199775, 0.041117948330663, 0
1262, 0.36530248666856, 0.26692722564671, 0
1263, 0.37997827048118, 0.25504447376153, 0
1264, 0.41163029768054, 0.28693748886257, 0
1265, 0.45211301273682, -0.21953723708916, 0
1266, 0.44499787216206, -0.2135355597644, 0
1267, 0.52578116600145, -0.1885753172955, 0
1268, 0.52724664262195, -0.19893313314511, 0
1269, 0.51651462927199, -0.18961760924347, 0
1270, 0.52117620121038, -0.18915383407616, 0
1271, 0.070899845585424, -0.036956785073012, 0
1272, 0.035652216527071, -0.040169726460218, 0
1273, 0.25799015791615, 0.057796742541911, 0
1274, 0.24975255440718, 0.061948836100734, 0
1275, 0.26403857435511, 0.068363912597394, 0
1276, 0.2413136873308, 0.060077856363811, 0
1277, 0.64702214018281, 0.24026723158341, 0
1278, 0.6888887511649, 0.22368607931148, 0
1279, 0.64077504275663, 0.23786826049147, 0
1280, 0.64431821096056, 0.23567601948918, 0
1281, 0.3510516304249, -0.15492593708114, 0
1282, 0.36146220319858, -0.13931202889736, 0
1283, 0.36741211946359, -0.14401239780971, 0
1284, 0.36441203765632, -0.14159632719045, 0
1285, 0.26194634449593, 0.029294644446621, 0
1286, 0.26094017849661, 0.019867707722163, 0
1287, 0.25233735042611, 0.033710234284124, 0
1288, 0.72836051283057, -0.0030898139377963, 0
1289, 0.74149688043089, 0.015957785542871, 0
1290, 0.73181964152362, 0.011373163509496, 0
1291, 0.78849593813694, -0.037851059452914, 0
1292, 0.55429951081507, 0.28503205969113, 0
1293, 0.55934098324189, 0.27853147040241, 0
1294, 0.54102755871073, 0.27979709134604, 0
1295, 0.35465698684679, -0.14841600549088, 0
1296, 0.34138585924205, -0.12492823607523, 0
1297, 0.34825428194686, -0.13043174996339, 0
1298, 0.34480343899828, -0.12779272245655, 0
1299, 0.63753686463286, -0.14050088433257, 0
1300, 0.6379988119349, -0.14635138571378, 0
1301, 0.63419867019834, -0.14297139475992, 0
1302, 0.26215331187091, 0.044469021901281, 0
1303, 0.22743627777837, 0.017229400785147, 0
1304, 0.39299895211863, 0.26694097780236, 0
1305, 0.3919421699371, 0.28268363862156, 0
1306, 0.40865808403814, 0.28004512048725, 0
1307, 0.3541766660628, 0.2409797496257, 0
1308, 0.2745910771899, 0.11553836749078, 0
1309, 0.26727359236665, 0.09888914394413, 0
1310, 0.39585554092676, -0.16800874299046, 0
1311, 0.39534317503628, -0.16118062481857, 0
1312, 0.39913766688706, -0.16316170498438, 0
1313, 0.51654546013659, -0.20023049713241, 0
1314, 0.5070643268915, -0.19001329235152, 0
1315, 0.51179845356619, -0.1898672232789, 0
1316, 0.68651574912798, 0.24178860367406, 0
1317, 0.6478986188122, 0.23331276858446, 0
1318, 0.79064773700848, 0.12343529722333, 0
1319, 0.76903323377659, 0.18141445677333, 0
1320, 0.68563518507107, 0.20286985461636, 0
1321, 0.59297462995221, 0.28947505219907, 0
1322, 0.61403785995957, 0.25327563612372, 0
1323, 0.58651036803446, 0.28094766035785, 0
1324, 0.57907596799149, 0.29122157568379, 0
1325, 0.45985337079533, -0.28448828233166, 0
1326, 0.47305425366406, -0.27100649767106, 0
1327, 0.4770228600981, -0.28570934409809, 0
1328, 0.26206811547342, -0.071665808414434, 0
1329, 0.27890053390578, -0.05921227662265, 0
1330, 0.26940781953989, -0.029515756977782, 0
1331, 0.6693154278553, -0.13365489530615, 0
1332, 0.71072669771621, -0.084820966838278, 0
1333, 0.70070054678762, -0.092156059370096, 0
1334, 0.25618092674857, -0.10982764913402, 0
1335, 0.27721689002353, -0.054352088143248, 0
1336, 0.28016472448131, -0.10667472408468, 0
1337, 0.78648843862904, 0.11188070225898, 0
1338, 0.70161638262011, 0.1962471451633, 0
1339, 0.72514786043178, 0.1708871886036, 0
1340, 0.76061287998539, 0.14676017229116, 0
1341, 0.53649973933957, -0.23388876141937, 0
1342, 0.56322120248966, -0.18163137265406, 0
1343, 0.57297965844907, -0.20275413965082, 0
1344, 0.74336727947917, 0.043063428622517, 0
1345, 0.73603614981178, 0.057364775091811, 0
1346, 0.74663297882851, 0.10067261801153, 0
1347, 0.73656998987078, 0.098261303984003, 0
1348, 0.73563118227228, 0.10674272945128, 0
1349, 0.73601416267866, 0.10252833690051, 0
1350, 0.25508031355969, -0.029292027514407, 0
1351, 0.27276559454112, -0.10303976612425, 0
1352, 0.26998819366418, -0.061887514514328, 0
1353, 0.67541770570122, -0.12562794249423, 0
1354, 0.67571444421628, -0.1089428508604, 0
1355, 0.67423061364072, -0.11844422163308, 0
1356, 0.28567185428177, 0.14947527736739, 0
1357, 0.66166316612875, -0.12323541348176, 0
1358, 0.66374472413454, -0.13314772913537, 0
1359, 0.65015878585496, -0.1295006434635, 0
1360, 0.26420126232171, 0.059074209211665, 0
1361, 0.26646564236427, 0.023829007562607, 0
1362, 0.38810234016156, -0.157172027863, 0
1363, 0.38148490852484, -0.15960307025755, 0
1364, 0.38102846355243, -0.15316522559903, 0
1365, 0.38456578808848, -0.15519315551686, 0
1366, 0.54425719641721, 0.28231424250948, 0
1367, 0.6329272373543, 0.26279463785351, 0
1368, 0.61750254918154, 0.28469634269845, 0
1369, 0.5682678030073, 0.27695229750201, 0
1370, 0.25804852848232, 0.10715412965688, 0
1371, 0.28600787530034, 0.14711432910324, 0
1372, 0.27453301760141, 0.16039520830369, 0
1373, 0.73212869282561, -0.047601094118093, 0
1374, 0.72198715183891, -0.026352016124711, 0
1375, 0.7088874608121, -0.061632197413373, 0
1376, 0.71113700055239, -0.057834079006709, 0
1377, 0.24884223862257, -0.042858201859006, 0
1378, 0.31873530895574, -0.096831836849268, 0
1379, 0.32278876298578, -0.10170765861231, 0
1380, 0.4566676202612, 0.28772742269658, 0
1381, 0.4515514180939, 0.29364618037468, 0
1382, 0.45726877899152, 0.29384841874383, 0
1383, 0.96423516666322, 0.22993341969558, 0
1384, 0.96413012120491, 0.15761625918865, 0
1385, 0.92772275569729, 0.19650813502417, 0
1386, 0.96402270131922, 0.19413096485364, 0
1387, 0.73287688897266, -0.02133045698725, 0
1388, 0.75665016945681, -0.031215174756685, 0
1389, 0.27437390565484, -0.035237900805983, 0
1390, 0.11246691970183, -0.055369877499448, 0
1391, 0.27436191188872, -0.089469970706538, 0
1392, 0.28635046305206, -0.086908476900639, 0
1393, 0.16490998521763, -0.22981771699395, 0
1394, 0.19663775611904, -0.26511187337383, 0
1395, 0.16535756984352, -0.26496514071561, 0
1396, 0.78212250059395, 0.050670234044106, 0
1397, 0.73691298046943, 0.081475043214933, 0
1398, 0.75117470792356, -0.044776585188655, 0
1399, 0.77028612599047, 0.15714147296125, 0
1400, 0.80345879044091, 0.16456584762145, 0
1401, 0.39882429452524, 0.2846025146905, 0
1402, 0.36605926990141, 0.27316794302085, 0
1403, 0.39209026548709, 0.27437252426514, 0
1404, 0.38104157411633, 0.25069161581596, 0
1405, 0.61071472833037, 0.26819250751331, 0
1406, 0.63248913660919, 0.24736868589407, 0
1407, 0.63388084907657, 0.24197242351885, 0
1408, 0.63051600676781, 0.24405104837756, 0
1409, 0.42393731575292, -0.1734395942439, 0
1410, 0.40325237175787, -0.21006780900859, 0
1411, 0.41368554736399, -0.21524249535102, 0
1412, 0.45019378488549, -0.18550992658006, 0
1413, 0.35514439284489, -0.13507655054888, 0
1414, 0.33986847140481, -0.1684469101435, 0
1415, 0.35173231418414, -0.13284916577171, 0
1416, 0.74706104615534, 0.057297828624007, 0
1417, 0.74099412182937, 0.064255874897549, 0
1418, 0.73765698934612, 0.0022293352658946, 0
1419, 0.74306329562534, 0.047966380029974, 0
1420, 0.30558589947066, 0.19762138473096, 0
1421, 0.31318075775654, 0.19001611009229, 0
1422, 0.30812085828509, 0.18430776687867, 0
1423, 0.31090398776372, 0.18729984526269, 0
1424, 0.47476213355695, 0.2829031602366, 0
1425, 0.49625352302475, 0.28947839051272, 0
1426, 0.27593837664157, -0.049455445784878, 0
1427, 0.25015047043749, -0.076739985192083, 0
1428, 0.29687800307273, -0.10306837650259, 0
1429, 0.27072193279503, -0.0026059625488065, 0
1430, 0.55814317193253, -0.17834010517259, 0
1431, 0.5891069074114, -0.1756898455686, 0
1432, 0.57287382956712, -0.17085868546752, 0
1433, 0.5901175676145, -0.19602950269514, 0
1434, 0.26405434776419, 0.036829298278132, 0
1435, 0.2475793255551, 0.0084835946761513, 0
1436, 0.255062262489, 0.0091446111267393, 0
1437, 0.26125690206585, 0.024724851054146, 0
1438, 0.77377598451448, -0.027984598756349, 0
1439, 0.7042551948595, -0.068822824329534, 0
1440, 0.70650621835335, -0.065270325196467, 0
1441, 0.27240665281901, -0.022042127150111, 0
1442, 0.2838212080276, -0.048251715384714, 0
1443, 0.26950303421089, 0.0016582289042602, 0
1444, 0.2546054575699, -0.010353848024435, 0
1445, 0.29657183319634, 0.20255225739579, 0
1446, 0.32150725250075, 0.20438381292815, 0
1447, 0.31655312770457, 0.19682668433276, 0
1448, 0.31883449774996, 0.20062695730949, 0
1449, 0.28118589642425, 0.16140062551811, 0
1450, 0.26288876637725, 0.14686259665841, 0
1451, 0.63947655834525, 0.28009907628065, 0
1452, 0.62737976572029, 0.25476923588028, 0
1453, 0.62012508684294, 0.25001988760249, 0
1454, 0.69576430816161, 0.19576338733193, 0
1455, 0.77471396716585, 0.14793293187534, 0
1456, 0.26002596461329, -0.037889533389177, 0
1457, 0.39611379874644, -0.20295652349835, 0
1458, 0.46884409551044, -0.22791770175494, 0
1459, 0.43544664093296, -0.18621534367339, 0
1460, 0.33328841569198, 0.2235527696744, 0
1461, 0.34041645369646, 0.22286908460371, 0
1462, 0.33732726088803, 0.22008171250407, 0
1463, 0.26930420639346, 0.10566184828349, 0
1464, 0.2719834174621, 0.098331521746303, 0
1465, 0.33961534090534, 0.22909263669447, 0
1466, 0.34674541920852, 0.22855310357496, 0
1467, 0.34358127102752, 0.22569382422761, 0
1468, 0.44103077555713, -0.17715534991954, 0
1469, 0.47407146024257, -0.18687827296677, 0
1470, 0.43694365336075, -0.22650622998928, 0
1471, 0.26433498015012, 0.073092315858849, 0
1472, 0.10195877680493, 0.22880483885805, 0
1473, 0.068697016855911, 0.26396893617735, 0
1474, 0.13625079128335, 0.26606914555715, 0
1475, 0.10265390744166, 0.2647543896712, 0
1476, 0.70014999158718, -0.075999361916841, 0
1477, 0.70208652870777, -0.072341581459978, 0
1478, 0.6879396925531, 0.18978004209992, 0
1479, 0.4289029147526, 0.27911099148115, 0
1480, 0.43443173401514, 0.27576244566791, 0
1481, 0.43057604637603, 0.27451017085595, 0
1482, 0.4975400765375, -0.18981303597175, 0
1483, 0.49433541307453, -0.19982709202518, 0
1484, 0.4880341109753, -0.18907554360672, 0
1485, 0.49277736503939, -0.18951417597682, 0
1486, 0.60843179215751, -0.17305369664184, 0
1487, 0.57276145723044, -0.17574635810699, 0
1488, 0.48336981930668, -0.19815864838606, 0
1489, 0.47868315129643, -0.18774450733723, 0
1490, 0.48333559466599, -0.18849523423498, 0
1491, 0.55881055611003, -0.20742525372833, 0
1492, 0.7254224813642, -0.015306544279552, 0
1493, 0.7182715227018, -0.085420237949541, 0
1494, 0.69823176546, -0.079792591801162, 0
1495, 0.70006715413014, -0.1421394000138, 0
1496, 0.69612664822452, -0.083651616792864, 0
1497, 0.65766922488414, -0.14407150477729, 0
1498, 0.68928681796317, -0.13117481613642, 0
1499, 0.6948870452107, -0.10146328694442, 0
1500, 0.7542251766073, 0.12750744514844, 0
1501, 0.72964114440189, 0.12841780068346, 0
1502, 0.26903901647127, 0.11046391769455, 0
1503, 0.76139320076916, 0.057583296781286, 0
1504, 0.74838920944507, -0.037295340059113, 0
1505, 0.61177392566058, 0.25556220020151, 0
1506, 0.5287268827461, 0.28321777411226, 0
1507, 0.63377236268379, 0.25602945862195, 0
1508, 0.36540532915451, 0.25620231958172, 0
1509, 0.34232173927816, 0.24681634772101, 0
1510, 0.3979059351104, 0.26258451059997, 0
1511, 0.32919557298046, 0.24090671757709, 0
1512, 0.66001203813729, 0.25747524363867, 0
1513, 0.6828792025413, 0.21298147929581, 0
1514, 0.67218818086041, 0.20971751543517, 0
1515, 0.65657513031523, -0.12734103545331, 0
1516, 0.65618282661055, -0.13666514167932, 0
1517, 0.36748844838709, 0.28013302021485, 0
1518, 0.23195137244598, -0.061670957832532, 0
1519, 0.25482886892522, 0.020689043679306, 0
1520, 0.25722020515603, 0.063054934472108, 0
1521, 0.42342553668117, -0.28040995830174, 0
1522, 0.43593943197579, -0.19165754722877, 0
1523, 0.44225740186216, -0.28277009240736, 0
1524, 0.35086633905139, 0.25858955812312, 0
1525, 0.34799916089545, 0.26486048749933, 0
1526, 0.37547255089268, 0.27090819203831, 0
1527, 0.57858709707397, -0.18716158675074, 0
1528, 0.587531785927, -0.2256990517665, 0
1529, 0.57568043090573, -0.17926406080062, 0
1530, 0.37412590681745, -0.15535249392873, 0
1531, 0.37402369965171, -0.14876981314245, 0
1532, 0.37750428093821, -0.15102420495601, 0
1533, 0.26512369220147, 0.10359985997407, 0
1534, 0.25925927691819, 0.08567209118906, 0
1535, 0.034102794629699, 0.22693058612768, 0
1536, 0.034413840389915, 0.26364842777013, 0
1537, 0.22419093432965, -0.23057705743318, 0
1538, 0.2563096255348, -0.2660112904473, 0
1539, 0.22690036357669, -0.26548667623282, 0
1540, 0.25837448574817, -0.057811409119061, 0
1541, 0.2861937531184, -0.072968379416726, 0
1542, 0.23274112503102, -0.11788414049503, 0
1543, 0.67895697187478, 0.21525289863093, 0
1544, 0.3023633136855, 0.17739295442028, 0
1545, 0.30523158663879, 0.18100489596795, 0
1546, 0.92765472856905, 0.12220091387519, 0
1547, 0.96389880696673, 0.1198607783869, 0
1548, 0.59071178410104, 0.27029946307243, 0
1549, 0.62547640995976, 0.25135454813079, 0
1550, 0.33500471503138, -0.1185553626527, 0
1551, 0.32685911477806, -0.10822193509886, 0
1552, 0.31936970268494, -0.10042576220641, 0
1553, 0.53712577126409, -0.19635552068275, 0
1554, 0.5302749999709, -0.187771715498, 0
1555, 0.79997523915318, 0.10003757220132, 0
1556, 0.78567291850707, 0.16064127191969, 0
1557, 0.66226939364435, -0.21259999252531, 0
1558, 0.3584553333779, -0.13716914037074, 0
1559, 0.32108916427176, -0.098988807606925, 0
1560, 0.30480364172384, 0.1871678080991, 0
1561, 0.31471145927009, 0.19321584757277, 0
1562, 0.74187339553752, -0.013885576700183, 0
1563, 0.68729405288383, -0.10954684244694, 0
1564, 0.67011880904659, -0.1268862258237, 0
1565, 0.89690291152157, -0.23189908893089, 0
1566, 0.86295934333919, -0.26723954672418, 0
1567, 0.89682348022044, -0.2660489640798, 0
1568, 0.82910828687217, -0.23652040752736, 0
1569, 0.79685071176915, -0.27104891282308, 0
1570, 0.82962822329846, -0.26872374882408, 0
1571, 0.9289659527682, 0.26613607044695, 0
1572, 0.96451891830488, 0.26510761442389, 0
1573, 0.41225769094333, -0.17627446408682, 0
1574, 0.41523390170987, -0.17051475663777, 0
1575, 0.29273584339337, 0.16113762437936, 0
1576, 0.29418874146999, 0.17580967898927, 0
1577, 0.29958931865886, 0.17350392394184, 0
1578, 0.63921465049835, 0.24379821852079, 0
1579, 0.6372780304956, 0.23994157563573, 0
1580, 0.89136279398815, 0.2345477395577, 0
1581, 0.79414113610134, 0.17957473265055, 0
1582, 0.89331329258441, 0.26765996363529, 0
1583, 0.24153653673332, 0.042352688166957, 0
1584, 0.63093905557365, 0.27134679781585, 0
1585, 0.60180453344912, -0.19302707837043, 0
1586, 0.54599018003643, -0.19285721884948, 0
1587, 0.74883473302018, 0.06309522592899, 0
1588, 0.74511244862898, 0.011295020245728, 0
1589, 0.73242619248961, 0.008998761076917, 0
1590, 0.59474482942555, -0.1953699879591, 0
1591, 0.48697782660239, -0.23299068809883, 0
1592, 0.63145892815778, -0.19872031980146, 0
1593, 0.26260960062984, 0.0047959582261058, 0
1594, 0.2684740592487, 0.0060293040037106, 0
1595, 0.51978783423198, 0.28417446224944, 0
1596, 0.57276119252921, 0.27592669174344, 0
1597, 0.52427405649658, 0.28376974416498, 0
1598, 0.76355485674806, -0.24771649606425, 0
1599, 0.73419271411363, -0.27918094096863, 0
1600, 0.76496279065056, -0.27455346725581, 0
1601, 0.5548876834639, 0.2790171982813, 0
1602, 0.52096053967657, 0.28926032656181, 0
1603, 0.25790790231174, 0.1222141857177, 0
1604, 0.27873659111116, 0.12856953132919, 0
1605, 0.46503329335705, -0.18466596155637, 0
1606, 0.43041148654335, -0.18667086070692, 0
1607, 0.44488334153265, -0.17804483875817, 0
1608, 0.50548309081562, -0.20059836919713, 0
1609, 0.50230733959001, -0.1900054322162, 0
1610, 0.34446173703903, -0.14906016992108, 0
1611, 0.37064256104277, -0.14641831101962, 0
1612, 0.74480911272192, 0.11863117187636, 0
1613, 0.7337246777081, 0.11536800568494, 0
1614, 0.73249455485043, 0.11971624397089, 0
1615, 0.74651592351188, 0.091920805702022, 0
1616, 0.73692602431107, 0.089866695595287, 0
1617, 0.73668113690708, 0.094090459998245, 0
1618, 0.72024763751059, -0.13291589633446, 0
1619, 0.29442561843637, -0.1106583001911, 0
1620, 0.32089804559149, -0.10606452177843, 0
1621, 0.62436298220431, -0.15759693043729, 0
1622, 0.6166416990382, -0.15522877122796, 0
1623, 0.62043759726445, -0.15286110558479, 0
1624, 0.37166905248802, 0.2610461459938, 0
1625, 0.40541786713058, 0.28597227717428, 0
1626, 0.70020679595706, 0.20239561175856, 0
1627, 0.76332793033821, 0.13942844720022, 0
1628, 0.60854190615508, -0.15951068959627, 0
1629, 0.67855760765221, -0.26190562637418, 0
1630, 0.55093269173205, -0.18162350272932, 0
1631, 0.55462100418685, -0.18001758916688, 0
1632, 0.72033196685217, -0.033794487358269, 0
1633, 0.72654152763408, -0.011343449573556, 0
1634, 0.38534240743907, 0.26119611569341, 0
1635, 0.38890408226519, 0.26419539640259, 0
1636, 0.61584649453545, -0.16300782980746, 0
1637, 0.61264358051401, -0.15746193040539, 0
1638, 0.68918009703403, -0.15893451620874, 0
1639, 0.43272605229843, -0.17556240579435, 0
1640, 0.4565617165654, -0.20872461995296, 0
1641, 0.41688904056195, -0.17798934792739, 0
1642, 0.23591611401423, -0.083264632751764, 0
1643, 0.30884983325045, -0.10066663042236, 0
1644, 0.44595219886507, 0.28665947869101, 0
1645, 0.4398419943447, 0.29337571199055, 0
1646, 0.44571563073875, 0.29343232920059, 0
1647, 0.70272832324971, -0.08735202066319, 0
1648, 0.74979839511017, 0.015002876988431, 0
1649, 0.72534700821481, -0.04238948407602, 0
1650, 0.73540241685053, 0.016020516551528, 0
1651, 0.72894343674509, 0.001041667510428, 0
1652, 0.74597808161574, 0.10953220678463, 0
1653, 0.73474786599495, 0.11104844953675, 0
1654, 0.27902000297173, 0.13913561376507, 0
1655, 0.27640901246633, 0.13504468719353, 0
1656, 0.71821445054123, 0.14985984048629, 0
1657, 0.75284670897392, 0.13328918234813, 0
1658, 0.38853394425778, -0.16361226995478, 0
1659, 0.39168641187595, -0.15916752773392, 0
1660, 0.72392507819207, 0.1928727467461, 0
1661, 0.73206218484586, 0.14823530961723, 0
1662, 0.37541853823905, -0.27216993878245, 0
1663, 0.40563936652274, -0.25445843248621, 0
1664, 0.40139368469713, -0.27694957757987, 0
1665, 0.33298317821016, -0.12575757281598, 0
1666, 0.33809605106931, -0.12183428585629, 0
1667, 0.30187418329439, 0.19098364526221, 0
1668, 0.32455235599929, 0.20795115880728, 0
1669, 0.74870814202596, 0.052827305131421, 0
1670, 0.74565495177019, 0.083345540257682, 0
1671, 0.7369832644509, 0.085664492334666, 0
1672, 0.16852355997669, 0.23482119808897, 0
1673, 0.20262120317163, 0.2706830280485, 0
1674, 0.16935742217756, 0.26794524371745, 0
1675, 0.27763453266721, -0.23277970982, 0
1676, 0.31441241226005, -0.26697226558582, 0
1677, 0.28512948651381, -0.2665012598189, 0
1678, 0.59779554934466, -0.21161923258658, 0
1679, 0.52609276400568, -0.27575912486804, 0
1680, 0.50278346923424, -0.24806972117624, 0
1681, 0.59128104480219, -0.19328862164756, 0
1682, 0.068600492476109, -0.1931823667534, 0
1683, 0.034493559776784, -0.19200244895643, 0
1684, 0.6059316340933, -0.28381798598692, 0
1685, 0.49446317649385, -0.28665174010919, 0
1686, 0.60191121132871, -0.16835060973128, 0
1687, 0.65177326212169, -0.29015322510519, 0
1688, 0.34464760142931, -0.2682269032801, 0
1689, 0.068058291713883, 0.18980665355712, 0
1690, 0.03403419222495, 0.18924605886223, 0
1691, 0.79270280131951, 0.25472040094101, 0
1692, 0.81168709854486, 0.2238158520196, 0
1693, 0.74494019819121, 0.24350691104451, 0
1694, 0.6506991360783, 0.2654740431297, 0
1695, 0.64700524487345, 0.2736678840975, 0
1696, 0.37127229808174, 0.24883886238431, 0
1697, 0.37491613970635, 0.25277395601846, 0
1698, 0.35676167879775, 0.26661859712781, 0
1699, 0.383761236121, 0.25311738539389, 0
1700, 0.93066231845984, -0.19433040267625, 0
1701, 0.96517351343775, -0.19105686522087, 0
1702, 0.63742269660042, 0.25927773154237, 0
1703, 0.58625940174937, 0.27197063960856, 0
1704, 0.60928204368551, 0.25819274789489, 0
1705, 0.5810454614484, 0.28222457548414, 0
1706, 0.38236114246798, 0.25808740349642, 0
1707, 0.32166507331646, 0.28773849693478, 0
1708, 0.37079837624246, 0.25251907462597, 0
1709, 0.54893349298805, 0.2843092439275, 0
1710, 0.59605912059151, -0.16451323160328, 0
1711, 0.57167595284374, -0.17840534891085, 0
1712, 0.59841722620707, -0.17475238653603, 0
1713, 0.58426477033636, -0.18400672109973, 0
1714, 0.2129419292713, 0.076107862707481, 0
1715, 0.26377096256731, 0.11527646220454, 0
1716, 0.2485750419723, 0.075575221995519, 0
1717, 0.54348793492173, 0.27811387538859, 0
1718, 0.55964446032713, 0.28506729906278, 0
1719, 0.62693016199946, 0.26514284927088, 0
1720, 0.2588465756066, 0.28086301446675, 0
1721, 0.23277189465759, 0.27677131175159, 0
1722, 0.71364901253635, 0.1695602172489, 0
1723, 0.79660175672351, 0.20528587127131, 0
1724, 0.24706764111387, 0.037377781998083, 0
1725, 0.25149243683568, 0.042135444017131, 0
1726, 0.27907196061068, -0.027685472454504, 0
1727, 0.26193785058796, -0.032228692711456, 0
1728, 0.25798395024736, -0.0021158373186591, 0
1729, 0.30306210994513, 0.28471326037156, 0
1730, 0.38705920933076, 0.2713553559841, 0
1731, 0.20610935813207, 0.04773666716261, 0
1732, 0.25867343151174, 0.041849213309444, 0
1733, 0.28122655807856, 0.28323336769421, 0
1734, 0.69799409055983, 0.28097868541664, 0
1735, 0.6758171597706, 0.26670720634373, 0
1736, 0.67903649705447, 0.28197021069814, 0
1737, 0.71975455468884, 0.18483690535933, 0
1738, 0.73765685674906, 0.19976367730285, 0
1739, 0.73961452161918, 0.17238656573294, 0
1740, 0.74405258430005, 0.15094040614771, 0
1741, 0.72076134157509, 0.14574418731832, 0
1742, 0.70973518004857, 0.1731136979065, 0
1743, 0.46286556206786, -0.191985862046, 0
1744, 0.42662039812731, -0.1802791056237, 0
1745, 0.42691016032026, -0.21730176127296, 0
1746, 0.25180237449094, 0.09028643983429, 0
1747, 0.23886193801015, 0.086814785237863, 0
1748, 0.25101239985998, 0.10418072062488, 0
1749, 0.57104810330827, -0.20713063364168, 0
1750, 0.47779155839816, -0.23080906051411, 0
1751, 0.29604021766994, -0.072300409638761, 0
1752, 0.19503356526431, -0.08361400791324, 0
1753, 0.31930365080451, -0.11562096931711, 0
1754, 0.25972410989243, -0.064816731774773, 0
1755, 0.44242382233717, 0.27889992961687, 0
1756, 0.45167332377627, 0.28098735070059, 0
1757, 0.44699741409607, 0.28009427810686, 0
1758, 0.29117542042111, -0.10077248796341, 0
1759, 0.2853577753872, -0.052460882976334, 0
1760, 0.26536117081275, -0.078168799449758, 0
1761, 0.32246852040695, -0.10981969233207, 0
1762, 0.50179068097659, 0.28477736908791, 0
1763, 0.5107457898759, 0.28466610489392, 0
1764, 0.50627109731253, 0.28477105959338, 0
1765, 0.57455214265378, -0.19854476260962, 0
1766, 0.60331714620078, -0.17406018099014, 0
1767, 0.54430118367287, -0.24730095262869, 0
1768, 0.60440279971983, -0.16135686187722, 0
1769, 0.37496071898228, -0.16211128062851, 0
1770, 0.36771975154893, -0.16479569010006, 0
1771, 0.36685729015439, -0.15703283749248, 0
1772, 0.37074447690181, -0.15991705765115, 0
1773, 0.77280694976421, 0.033804944199652, 0
1774, 0.7500821881487, 0.047736390107825, 0
1775, 0.75168740333316, 0.076856255488355, 0
1776, 0.77330295858741, 0.019898201295191, 0
1777, 0.61383931863208, -0.17150733276393, 0
1778, 0.58033580945658, -0.17616253987984, 0
1779, 0.50576027564779, -0.27427688393263, 0
1780, 0.5699962843463, -0.17164351975313, 0
1781, 0.75496007240155, 0.1038462896592, 0
1782, 0.76240590040848, 0.097957966848536, 0
1783, 0.75516723317635, 0.094513830849179, 0
1784, 0.75554683484691, 0.099097481919553, 0
1785, 0.73491366795152, -0.017274751879135, 0
1786, 0.52922352981894, -0.20992405909078, 0
1787, 0.54041132006108, -0.20654592522365, 0
1788, 0.53499249411775, -0.20836083436476, 0
1789, 0.53577128318183, 0.28718849830395, 0
1790, 0.5649506220851, 0.28471138936631, 0
1791, 0.22844357423644, 0.12803480536759, 0
1792, 0.27047622032042, 0.12066827176144, 0
1793, 0.28243618949364, 0.16699047172572, 0
1794, 0.24377244780161, 0.17632823328857, 0
1795, 0.27711652710889, 0.12431042755585, 0
1796, 0.75400307259473, 0.085574323117647, 0
1797, 0.75446440149533, 0.090064497419138, 0
1798, 0.68369399021048, -0.20557061961383, 0
1799, 0.60571513636771, -0.20667377959014, 0
1800, 0.73070914352675, 0.014987361560795, 0
1801, 0.7294385749872, 0.0086966266797861, 0
1802, 0.74263629029053, 0.052491153203451, 0
1803, 0.65321820491116, -0.14854175247909, 0
1804, 0.68244600674966, -0.10252021279337, 0
1805, 0.24004948271716, 0.12516761047129, 0
1806, 0.29114526861049, 0.15709113182063, 0
1807, 0.27328556828477, 0.10690557754142, 0
1808, 0.26696948034384, 0.087025546085747, 0
1809, 0.26390267459616, 0.10918439997034, 0
1810, 0.50337133009697, -0.21155451036705, 0
1811, 0.50051454367808, -0.22298057034492, 0
1812, 0.49018587215399, -0.21008593164215, 0
1813, 0.49673766678639, -0.21099263047433, 0
1814, 0.64838782702114, -0.13796158063991, 0
1815, 0.64085271727062, -0.13795069143781, 0
1816, 0.64493018512078, -0.1410325611739, 0
1817, 0.49270254250944, 0.28435525650701, 0
1818, 0.46699666696173, 0.28821064355241, 0
1819, 0.41996493900143, -0.20306940632696, 0
1820, 0.47278776165341, -0.19559491046188, 0
1821, 0.42836041792257, -0.17458105880658, 0
1822, 0.71219718814889, -0.068330095185953, 0
1823, 0.71941261281344, -0.037728113753146, 0
1824, 0.27457176916648, -0.03982225242423, 0
1825, 0.26243353362825, -0.019618019717459, 0
1826, 0.35403502463552, -0.16086909631562, 0
1827, 0.33185311998264, -0.14505700099979, 0
1828, 0.35002831307403, -0.14906677181181, 0
1829, 0.25839925455263, -0.015390019387546, 0
1830, 0.24377123154321, -0.007678844362094, 0
1831, 0.26033904872503, -0.0072589626560339, 0
1832, 0.58463186076345, -0.17599914536026, 0
1833, 0.64731835505158, -0.17676826548215, 0
1834, 0.53205292486519, -0.22151667339374, 0
1835, 0.5166314729384, -0.21158161219461, 0
1836, 0.52303825936925, -0.21089563014805, 0
1837, 0.73341860314347, -0.027105110846906, 0
1838, 0.79639388063714, -0.014692667785588, 0
1839, 0.72927343395829, 0.0050131325027191, 0
1840, 0.78847811054425, -0.060543284993917, 0
1841, 0.25705558586242, 0.14051296580209, 0
1842, 0.29125349128893, 0.17115110160607, 0
1843, 0.46102424139834, 0.28228092696296, 0
1844, 0.21391410671297, 0.0058292378914789, 0
1845, 0.23530960665468, 0.03596341074733, 0
1846, 0.23873968067137, 0.0077992764863085, 0
1847, 0.32416770862053, -0.12527883933754, 0
1848, 0.26985743771322, -0.013113630334901, 0
1849, 0.27834307666397, -0.078028976292527, 0
1850, 0.28444469162787, -0.11933312989811, 0
1851, 0.74125829488697, 0.060695285991636, 0
1852, 0.74251604234915, 0.0035181536100373, 0
1853, 0.54442888594127, -0.23139664221355, 0
1854, 0.29434133448984, 0.21185681917396, 0
1855, 0.21728526833971, -0.0058632146548158, 0
1856, 0.29967958301575, -0.087954100212065, 0
1857, 0.21828351381225, -0.091624572437987, 0
1858, 0.270230526141, 0.197726256916, 0
1859, 0.5222934246389, 0.29453254111443, 0
1860, 0.72691406164741, 0.20271673891528, 0
1861, 0.34109003300673, -0.14085339565103, 0
1862, 0.30780380163292, -0.14400444872277, 0
1863, 0.35839837930594, -0.14718183508439, 0
1864, 0.34453524952188, -0.13523559286448, 0
1865, 0.3268603357035, -0.11788203171756, 0
1866, 0.29605312537283, -0.084631321160909, 0
1867, 0.39638372479087, -0.17502467445898, 0
1868, 0.38913923175435, -0.17712167759321, 0
1869, 0.38871109843432, -0.17027327351127, 0
1870, 0.39251415169854, -0.17265038746313, 0
1871, 0.73077391120278, -0.02461124262382, 0
1872, 0.72965604080334, 0.011924342512659, 0
1873, 0.39764175201484, 0.27672180357633, 0
1874, 0.39025711300736, 0.25806921164703, 0
1875, 0.36701415302953, -0.15024238394786, 0
1876, 0.34603664034464, -0.14271683078826, 0
1877, 0.72264278442591, -0.051704375416453, 0
1878, 0.73386069053822, -0.06770859314429, 0
1879, 0.51526665739378, 0.28446839972509, 0
1880, 0.5665218525472, -0.2349699530588, 0
1881, 0.26614299637713, -0.016021173580142, 0
1882, 0.74493543662211, -0.14590182666389, 0
1883, 0.73583308903178, 0.061402120147185, 0
1884, 0.74981842670287, 0.072818951850491, 0
1885, 0.76599252942266, 0.051678015997521, 0
1886, 0.76096861167993, 0.066711491754299, 0
1887, 0.64365439688569, -0.15351042541136, 0
1888, 0.63800187166873, -0.15201649509287, 0
1889, 0.64496558660955, -0.14737948358888, 0
1890, 0.64117245813084, -0.14978014939617, 0
1891, 0.66917565118475, 0.2332417173121, 0
1892, 0.67575529002479, 0.2196563809698, 0
1893, 0.65952695045332, 0.23244485907748, 0
1894, 0.73305397244278, 0.17725167243244, 0
1895, 0.77833084660962, 0.17180735615414, 0
1896, 0.78184968287138, 0.19178424825353, 0
1897, 0.25458680214948, 0.01496513812825, 0
1898, 0.26763021019741, 0.010467223635596, 0
1899, 0.19002964240728, 0.04449162898149, 0
1900, 0.43984353170811, -0.20618957787675, 0
1901, 0.3897224914405, -0.21786083465681, 0
1902, 0.40446978537227, -0.17955263439602, 0
1903, 0.40043121402462, -0.17712515986807, 0
1904, 0.6381254506416, 0.2677554885895, 0
1905, 0.60739918743246, 0.27208699941041, 0
1906, 0.35848103776629, 0.24345961652765, 0
1907, 0.41454000280077, 0.2694976997023, 0
1908, 0.41038758085152, 0.26801390620558, 0
1909, 0.66984296249931, -0.12053173295707, 0
1910, 0.65499098629181, -0.12353091767687, 0
1911, 0.38246212870011, -0.16531421255557, 0
1912, 0.3774432423623, -0.16792170254986, 0
1913, 0.37904403543019, -0.16371794269294, 0
1914, 0.6897191845279, 0.23202835784958, 0
1915, 0.68038434957957, 0.21933789117215, 0
1916, 0.67343375669957, 0.21491128667864, 0
1917, 0.22666274390201, 0.042962152193698, 0
1918, 0.59862445257078, -0.18577079109019, 0
1919, 0.62431132048787, -0.18975411431631, 0
1920, 0.23636054658469, -0.040509301664585, 0
1921, 0.30147005755608, -0.12734311337658, 0
1922, 0.1834971326774, -0.012565980714549, 0
1923, 0.30236488818848, -0.10475207563339, 0
1924, 0.417295688647, 0.28753744585241, 0
1925, 0.41633298612144, 0.29346774981209, 0
1926, 0.42978688568654, -0.19336533085779, 0
1927, 0.25335249202037, -0.019694401526168, 0
1928, 0.35890422575988, -0.14243494364578, 0
1929, 0.34860506273955, -0.13745848636839, 0
1930, 0.43833724603122, 0.27719422591574, 0
1931, 0.26755300102767, 0.14171162153603, 0
1932, 0.28460039665478, 0.14036608418571, 0
1933, 0.27509057050549, 0.16708978724395, 0
1934, 0.49726297130854, 0.28465852772427, 0
1935, 0.59198896456918, -0.16586620770501, 0
1936, 0.56505862317525, -0.19999831570796, 0
1937, 0.51002215972374, -0.21170928457662, 0
1938, 0.45635558647848, 0.28170273056164, 0
1939, 0.67633751161587, 0.23748093902463, 0
1940, 0.68694084260051, 0.20969836972723, 0
1941, 0.67254806996026, 0.22855173006159, 0
1942, 0.61934090057786, 0.26098440719666, 0
1943, 0.72554658591114, 0.13720334530561, 0
1944, 0.68851310021925, 0.19889411679803, 0
1945, 0.80975170354648, 0.13083091597876, 0
1946, 0.69333388420337, 0.18098567889506, 0
1947, 0.75686608046084, 0.062239192140433, 0
1948, 0.45095181707829, -0.20421355531053, 0
1949, 0.43140313106904, -0.18091990729546, 0
1950, 0.44862946357667, -0.17922761305211, 0
1951, 0.47745740618733, -0.20711383040856, 0
1952, 0.48374603270906, -0.20873674683815, 0
1953, 0.24720591378293, 0.01533485069194, 0
1954, 0.26506029715681, 0.039137867441628, 0
1955, 0.22335129344602, 0.16060964864587, 0
1956, 0.28254364253681, 0.14812963635314, 0
1957, 0.74074725493463, 0.0085806046857185, 0
1958, 0.79650594808243, 0.0052458358508209, 0
1959, 0.72603058845252, -0.033747146339482, 0
1960, 0.31408569402513, -0.098002405595945, 0
1961, 0.31690712548841, -0.10660244448822, 0
1962, 0.2684378542177, -0.05611266240149, 0
1963, 0.29635045895814, 0.22842508781963, 0
1964, 0.3035249904116, 0.24255522854593, 0
1965, 0.4048535413438, -0.1874599715565, 0
1966, 0.40890935343717, -0.18196068613193, 0
1967, 0.74111065640434, 0.21224236838789, 0
1968, 0.76101307403788, 0.11499761717286, 0
1969, 0.75410787579799, 0.11271631092488, 0
1970, 0.75425343544186, 0.11720095006113, 0
1971, 0.24701943415667, -0.050996324975921, 0
1972, 0.19131254943214, -0.040348149040255, 0
1973, 0.23465743643925, -0.011597576312461, 0
1974, 0.27538227172486, -0.023666974011425, 0
1975, 0.26564841392539, -0.0047362266993816, 0
1976, 0.27484919437144, -0.02698945722149, 0
1977, 0.31304653816306, -0.091833377236827, 0
1978, 0.30332497222995, -0.090959972831156, 0
1979, 0.28126126027177, 0.1811824550375, 0
1980, 0.29226296619124, 0.18337812758388, 0
1981, 0.2882400697516, 0.17838157302756, 0
1982, 0.41166939407037, 0.27460394464612, 0
1983, 0.38684323124766, 0.25561392405391, 0
1984, 0.68182795202358, -0.14363658027573, 0
1985, 0.65739528229289, -0.15437626956136, 0
1986, 0.29915540101117, 0.1959764014216, 0
1987, 0.32607649936492, 0.22497018900718, 0
1988, 0.31521488075687, 0.20681003808411, 0
1989, 0.89206898935205, 0.16453840814567, 0
1990, 0.70829553834791, 0.19607890891189, 0
1991, 0.88968475309366, 0.19991363327528, 0
1992, 0.29471525429056, 0.16529481259389, 0
1993, 0.28611112813503, 0.15702160470531, 0
1994, 0.55714740477887, -0.18632970513705, 0
1995, 0.58793145354063, -0.16710505056715, 0
1996, 0.68588057080116, 0.19338295779976, 0
1997, 0.69656593335549, 0.19104672376535, 0
1998, 0.77156993919028, 0.11404593303549, 0
1999, 0.69065738555186, -0.14352884112573, 0
2000, 0.70205238206364, -0.10875795265998, 0
2001, 0.21156040042315, 0.1029017162675, 0
2002, 0.22647836354706, 0.11483415324583, 0
2003, 0.27365852521575, 0.10040335840201, 0
2004, 0.27323477472799, 0.10311082485382, 0
2005, 0.76472257760561, 0.13219857061348, 0
2006, 0.71759891682023, 0.16570378265434, 0
2007, 0.7433745360438, -0.0021605794503971, 0
2008, 0.74973502881733, -0.0085448005152471, 0
2009, 0.3757946270564, 0.2561988393081, 0
2010, 0.3394223154, 0.2615138498741, 0
2011, 0.37738979917274, 0.25994658066876, 0
2012, 0.28911205157647, -0.06071412784856, 0
2013, 0.2721818388856, -0.06753658187916, 0
2014, 0.76662078037929, -0.050229556295779, 0
2015, 0.73597385721775, 0.06925119965646, 0
2016, 0.89571596434624, -0.16364211540508, 0
2017, 0.86251780623955, -0.20023496845509, 0
2018, 0.89650980108353, -0.19757353480446, 0
2019, 0.24902244772922, 0.0017627647781332, 0
2020, 0.25623006413067, 0.0034026356267097, 0
2021, 0.43429256396953, 0.29382022273056, 0
2022, 0.67232620222761, -0.17158251475824, 0
2023, 0.68561042445866, -0.099025087803979, 0
2024, 0.65284462892222, -0.12645809941824, 0
2025, 0.45519324093453, -0.19669350018686, 0
2026, 0.46012454318795, -0.19985847570398, 0
2027, 0.74801931178783, -0.015604145382313, 0
2028, 0.75055665781883, -0.025731205116749, 0
2029, 0.75748773725767, -0.0092935028395372, 0
2030, 0.72611666396307, -0.026625371869534, 0
2031, 0.6964480252805, 0.18689410897632, 0
2032, 0.70426676212606, 0.21192019116391, 0
2033, 0.35721859556469, 0.23671644369521, 0
2034, 0.33768793558356, 0.28966527150715, 0
2035, 0.72498011108118, 0.15745664481217, 0
2036, 0.63346544640556, -0.16721122448391, 0
2037, 0.62413727191164, -0.166014161492, 0
2038, 0.6323169198095, -0.15859505186451, 0
2039, 0.62850728102182, -0.162357014948, 0
2040, 0.31774954636307, -0.1109543821746, 0
2041, 0.31079013952913, 0.19398564106638, 0
2042, 0.639299816574, -0.1576073547913, 0
2043, 0.63544825500612, -0.15504507879586, 0
2044, 0.75073198399743, 0.042258982769376, 0
2045, 0.73529765106613, 0.030804053062658, 0
2046, 0.73651286983965, 0.048776898955618, 0
2047, 0.75189656070274, 0.05920995628668, 0
2048, 0.10463332901424, -0.16000042638038, 0
2049, 0.13447103996694, -0.19510107258252, 0
2050, 0.10199941129673, -0.19445380509513, 0
2051, 0.76477336623704, 0.12542925956923, 0
2052, 0.75510742302342, -0.018147111302437, 0
2053, 0.71739653396931, -0.071992328315204, 0
2054, 0.73090170796229, -0.053238565496156, 0
2055, 0.43591982912458, -0.18122008195532, 0
2056, 0.45771674034339, -0.26868221301764, 0
2057, 0.34640035623122, 0.24243519799304, 0
2058, 0.35008597269103, 0.23821312210412, 0
2059, 0.34223061486948, 0.23907334574775, 0
2060, 0.17007314096079, -0.15930261301104, 0
2061, 0.19710951606713, -0.19313620274792, 0
2062, 0.1664078397477, -0.19447801974609, 0
2063, 0.73951509862204, 0.023624160834161, 0
2064, 0.76227374713924, 0.01238503344381, 0
2065, 0.69383806317432, -0.087570757490661, 0
2066, 0.67005533688196, -0.15276267709696, 0
2067, 0.82726923584618, -0.16723223657877, 0
2068, 0.79288723241202, -0.20653279511045, 0
2069, 0.82788172309798, -0.20254442509148, 0
2070, 0.61906958169802, -0.16917783926001, 0
2071, 0.30772943873306, 0.20929835510763, 0
2072, 0.2494568389191, -0.19712653524872, 0
2073, 0.22477052800536, -0.194786103302, 0
2074, 0.36404075176774, -0.14740752730668, 0
2075, 0.34776740767645, -0.16462582192937, 0
2076, 0.75918794764696, 0.079406134720621, 0
2077, 0.75272444602814, 0.081265265953537, 0
2078, 0.75989451547644, 0.10840129967102, 0
2079, 0.75402418671625, 0.10847282420673, 0
2080, 0.63735539889755, 0.24865564904879, 0
2081, 0.64132914443649, 0.25139915752782, 0
2082, 0.6447172161402, 0.24661701100813, 0
2083, 0.64066645166356, 0.24761758000898, 0
2084, 0.74258164836704, -0.09938094619121, 0
2085, 0.32176754386729, -0.13448469851463, 0
2086, 0.32767342227378, -0.12993297351124, 0
2087, 0.73020722142838, -0.23202703031259, 0
2088, 0.76044238144311, -0.21744389231683, 0
2089, 0.31476033100813, 0.23487595747319, 0
2090, 0.70440579325535, -0.08279664087698, 0
2091, 0.72030716515375, -0.093827007968073, 0
2092, 0.38235678639286, -0.17082618420537, 0
2093, 0.38543807787412, -0.16763467446866, 0
2094, 0.42335334422573, 0.28284665121912, 0
2095, 0.41881103637865, 0.28211321305921, 0
2096, 0.75996948660873, 0.034577915460064, 0
2097, 0.73436914182508, 0.026509637387801, 0
2098, 0.750667391124, 0.036364555554456, 0
2099, 0.75485030868218, 0.054480395681377, 0
2100, 0.71331147314288, 0.18751479030414, 0
2101, 0.6959491814984, 0.1783009450785, 0
2102, 0.29256086177898, -0.081017570218649, 0
2103, 0.30711490384463, -0.085960699784109, 0
2104, 0.26571765766692, -0.098120861323963, 0
2105, 0.32775881035384, 0.23103222628582, 0
2106, 0.33318824996614, 0.22928141905157, 0
2107, 0.32999304812302, 0.22715135695298, 0
2108, 0.86257336855211, -0.13530977219361, 0
2109, 0.79787056294861, -0.12978173328657, 0
2110, 0.83395481563711, -0.10791048310606, 0
2111, 0.83049528253826, -0.13527234787595, 0
2112, 0.24661516422337, -0.059574715752326, 0
2113, 0.27531242974931, -0.0144713015642, 0
2114, 0.2835499579933, -0.13190762499285, 0
2115, 0.25170744449928, -0.035550154321485, 0
2116, 0.14097501741241, -0.13058096172742, 0
2117, 0.17195865731409, -0.105515378331, 0
2118, 0.20010764579264, -0.12120804420667, 0
2119, 0.17122889598719, -0.12931745705009, 0
2120, 0.10340875558842, 0.15176087149608, 0
2121, 0.13525651485093, 0.19519849959383, 0
2122, 0.10214089093625, 0.19152769957709, 0
2123, 0.24086602492075, -0.093388616304009, 0
2124, 0.31712921238978, -0.099515536556784, 0
2125, 0.32932567024836, -0.11166538622944, 0
2126, 0.18567384447287, 0.057840102789343, 0
2127, 0.20117007299812, 0.060899910375027, 0
2128, 0.6518026105073, -0.23610323088621, 0
2129, 0.68089458133608, -0.12379453084631, 0
2130, 0.59270102398395, -0.18948787605205, 0
2131, 0.59345119255104, -0.26058929745654, 0
2132, 0.10152117608233, -0.029024568322315, 0
2133, 0.30739816782127, -0.11826303847811, 0
2134, 0.19401199382305, -0.068503233403155, 0
2135, 0.22299746536329, -0.016617706068217, 0
2136, 0.32443810372741, -0.11381121970395, 0
2137, 0.27087159360185, 0.21444923240587, 0
2138, 0.76207590067387, -0.076899785659493, 0
2139, 0.7453509163025, -0.072276953126105, 0
2140, 0.75537103350293, 0.069970452006085, 0
2141, 0.73751173443048, 0.019545966942066, 0
2142, 0.74487219830615, -0.021881837232077, 0
2143, 0.89669943284701, -0.034385301969659, 0
2144, 0.19276691650932, 0.20536751970005, 0
2145, 0.16509690501263, 0.20230124857021, 0
2146, 0.73244055473785, -0.042173155845784, 0
2147, 0.86836214921965, -0.0338972985125, 0
2148, 0.73604064541244, -0.030625632472266, 0
2149, 0.42748570803921, 0.28351582608856, 0
2150, 0.28038626270007, -0.035655610905469, 0
2151, 0.29535457255344, -0.09385006385666, 0
2152, 0.27211013654408, -0.19939607590955, 0
2153, 0.10745983386862, 0.068170503777131, 0
2154, 0.62711880416943, 0.24615221738704, 0
2155, 0.61268479112235, 0.26403939984391, 0
2156, 0.61984311119507, 0.2656025749764, 0
2157, 0.2907856187985, -0.090627167693524, 0
2158, 0.15895981895578, -0.068036171960977, 0
2159, 0.31362847832427, -0.11710628238968, 0
2160, 0.1913153487896, 0.16046069029427, 0
2161, 0.21544289444336, 0.13105140211001, 0
2162, 0.19798064210209, 0.11989755029448, 0
2163, 0.71520537267488, -0.049889549756382, 0
2164, 0.74813427811383, 0.069028878255252, 0
2165, 0.73644629504885, 0.07320673809812, 0
2166, 0.57430935278312, -0.22436881590644, 0
2167, 0.60943922286424, -0.18785884891069, 0
2168, 0.57169585721963, -0.18931505121621, 0
2169, 0.43018704743447, -0.24305312857853, 0
2170, 0.47136948122522, -0.20513370299311, 0
2171, 0.46992466709249, -0.21574873924953, 0
2172, 0.61757375765065, -0.20390079923639, 0
2173, 0.68324059670057, -0.17730591573753, 0
2174, 0.66506412055281, -0.1883739714739, 0
2175, 0.16225005310089, 0.01523139513671, 0
2176, 0.17867540580929, 0.01558503110265, 0
2177, 0.63671840252383, 0.25331517532156, 0
2178, 0.59929918604547, 0.2662228601528, 0
2179, 0.63447294143955, 0.2505215883252, 0
2180, 0.24822286151527, -0.014227072938263, 0
2181, 0.17291448787453, -0.04396889510927, 0
2182, 0.63966653556052, -0.17212638136685, 0
2183, 0.58956689886556, -0.26798664456814, 0
2184, 0.84157400378124, 0.082280518118635, 0
2185, 0.82398629554565, 0.063616501992503, 0
2186, 0.72753535585865, 0.21468934359039, 0
2187, 0.82346762409617, 0.10114136142981, 0
2188, 0.75728855575894, 0.17322963477228, 0
2189, 0.7435761010993, 0.22688736838566, 0
2190, 0.85404327855054, 0.23907190791677, 0
2191, 0.69552985087767, 0.18350164632477, 0
2192, 0.56586032875186, -0.1793230240455, 0
2193, 0.56974773343275, -0.19277008258996, 0
2194, 0.59360925546504, -0.17527105306476, 0
2195, 0.65519997793652, -0.26921047802569, 0
2196, 0.67437843982352, -0.19622362947347, 0
2197, 0.13370137468811, 0.11374610859569, 0
2198, 0.17905371416369, 0.10690269337063, 0
2199, 0.15942362163974, 0.087571013247546, 0
2200, 0.15907862738233, 0.11023020186452, 0
2201, 0.59369407207485, -0.18498810563994, 0
2202, 0.59714831202974, -0.19097887445916, 0
2203, 0.46297387416189, -0.2125747337625, 0
2204, 0.45405117625845, -0.18772037972269, 0
2205, 0.45088760921027, -0.19337412928572, 0
2206, 0.19624422489798, 0.089265309789046, 0
2207, 0.1962514896835, 0.10466845871981, 0
2208, 0.58396498349734, -0.16823117359256, 0
2209, 0.60020834230599, -0.16301929722166, 0
2210, 0.58862406458116, -0.17135623159512, 0
2211, 0.56155960409635, -0.22028120514068, 0
2212, 0.58927297961425, -0.18009136717589, 0
2213, 0.79284329479189, 0.023170943138002, 0
2214, 0.74964337901474, -0.001356242663299, 0
2215, 0.8100740931593, -0.082134038811752, 0
2216, 0.83638993317031, -0.08332031597357, 0
2217, 0.23471156320763, 0.19638959563008, 0
2218, 0.21623558792605, 0.20189968571563, 0
2219, 0.41954861770218, -0.17206518429025, 0
2220, 0.47015125179976, -0.25613965872954, 0
2221, 0.85814037203806, 0.27007934585685, 0
2222, 0.72031715082812, 0.28104246180258, 0
2223, 0.69119989320542, 0.18342258091559, 0
2224, 0.42915001875014, -0.20211154881024, 0
2225, 0.42488530973013, -0.18659140556568, 0
2226, 0.7286505900861, -0.019954018338309, 0
2227, 0.74017270827306, -0.040690595113299, 0
2228, 0.39211882895377, -0.19552514144831, 0
2229, 0.37012201295026, -0.19268945631015, 0
2230, 0.38298445386664, -0.1875668179617, 0
2231, 0.38225684957675, -0.19596497414731, 0
2232, 0.32613480452574, -0.14006782225772, 0
2233, 0.36201600496771, -0.17811014310461, 0
2234, 0.31109196922415, 0.22475109817813, 0
2235, 0.71964443504898, -0.1028174698103, 0
2236, 0.64899473027161, -0.14442513064277, 0
2237, 0.70589373896564, -0.10306982216655, 0
2238, 0.49643765204086, -0.23460241698737, 0
2239, 0.40449557004884, -0.19710006371548, 0
2240, 0.73670476581769, -0.023657703710019, 0
2241, 0.64508499341583, 0.25679337847589, 0
2242, 0.67617863321556, 0.21662184296749, 0
2243, 0.65106347262085, 0.25100789939224, 0
2244, 0.65166938920349, 0.25768816943372, 0
2245, 0.74327944376931, 0.28063538480764, 0
2246, 0.77244931983889, 0.078515315907423, 0
2247, 0.763989704456, 0.072226744525626, 0
2248, 0.76567907727181, 0.078135936686997, 0
2249, 0.16570478380573, -0.015257652680712, 0
2250, 0.23317175533455, -0.072544278394773, 0
2251, 0.21375354929091, -0.051049045515018, 0
2252, 0.65375021392335, -0.27980816321033, 0
2253, 0.48873317376269, -0.27281901236324, 0
2254, 0.35951764077541, 0.25501386862492, 0
2255, 0.35905137384724, -0.15730800415104, 0
2256, 0.33828019087814, -0.14793898252087, 0
2257, 0.25754350972409, 0.17616730105355, 0
2258, 0.89397628021826, -0.13119116998801, 0
2259, 0.10260279730534, 0.11152832487235, 0
2260, 0.56990291622059, -0.17493527764219, 0
2261, 0.60657564947792, -0.1669311192129, 0
2262, 0.27176552908024, -0.1342183061442, 0
2263, 0.57655728929101, -0.17308105008844, 0
2264, 0.7796755478473, -0.012469995704623, 0
2265, 0.73324616145884, 0.022388391229013, 0
2266, 0.18179497791005, 0.072490840405712, 0
2267, 0.19804302947167, 0.074637926572381, 0
2268, 0.70721473367845, 0.18942601363295, 0
2269, 0.79234365831504, 0.13571659909493, 0
2270, 0.69079156686193, 0.20551237659508, 0
2271, 0.61832400233976, 0.25417999524196, 0
2272, 0.35888688352154, -0.16624399859922, 0
2273, 0.34468766845062, -0.15662670379241, 0
2274, 0.74245139015794, 0.12833368773528, 0
2275, 0.6896513174801, 0.18639937807355, 0
2276, 0.10957836576169, -0.1267227234126, 0
2277, 0.23033759214303, -0.0027022671190299, 0
2278, 0.24062696717235, -0.00021556935441372, 0
2279, 0.38088299626536, -0.17770942697875, 0
2280, 0.38596410352836, -0.18152552709772, 0
2281, 0.24360512439989, 0.13649220143, 0
2282, 0.27740274330235, 0.1742508664657, 0
2283, 0.28989142355747, 0.15319994581227, 0
2284, 0.68090635721704, 0.22467296507127, 0
2285, 0.6644064250954, 0.21879929812633, 0
2286, 0.80485492582375, 0.04986201369486, 0
2287, 0.85547444526562, 0.10766996945228, 0
2288, 0.65745289644353, 0.24971512624295, 0
2289, 0.66421950536219, 0.24714244844064, 0
2290, 0.67593655047665, 0.21232366269706, 0
2291, 0.34671692011951, -0.17869699710697, 0
2292, 0.25918742164245, 0.035380081024049, 0
2293, 0.23987955969084, 0.02411720028101, 0
2294, 0.24874193934676, 0.068540860663008, 0
2295, 0.71015736129561, 0.16154804070325, 0
2296, 0.70211378014706, 0.17921643312665, 0
2297, 0.77637893519888, 0.091030714963453, 0
2298, 0.30447756048597, -0.098858788920853, 0
2299, 0.29994651760564, -0.096588504353128, 0
2300, 0.21908067963441, 0.14493421258653, 0
2301, 0.27528266744952, 0.15448580619464, 0
2302, 0.64937222027183, 0.24529402767907, 0
2303, 0.72886779728977, -0.15591566390308, 0
2304, 0.61519091576162, 0.25715444066695, 0
2305, 0.60643642711049, 0.26097746557144, 0
2306, 0.31152684017707, -0.13224439577122, 0
2307, 0.30420564169528, -0.082759312229945, 0
2308, 0.25803455574673, -0.050849580028215, 0
2309, 0.74754228518125, 0.024776791351624, 0
2310, 0.7571490482064, -0.00020818899636402, 0
2311, 0.75852997035673, 0.026702956673557, 0
2312, 0.73339804704943, 0.013208291354322, 0
2313, 0.73202554761922, -0.037202785515487, 0
2314, 0.73641679643455, 0.039726667443485, 0
2315, 0.75941861945597, 0.042141133276869, 0
2316, 0.37180319050067, -0.17313595244398, 0
2317, 0.36490434538779, -0.17064049726888, 0
2318, 0.28169349976107, 0.14263990024909, 0
2319, 0.2664286025348, 0.12735358509224, 0
2320, 0.26465031205821, 0.12140285674282, 0
2321, 0.26262244354808, 0.18767369816105, 0
2322, 0.27289712368909, 0.18427818771622, 0
2323, 0.13373503111872, -0.04282407466244, 0
2324, 0.201300617934, -0.009518448349295, 0
2325, 0.31245151762406, -0.10652535756076, 0
2326, 0.28097605430752, -0.063971657247274, 0
2327, 0.24226814466701, -0.031796178890436, 0
2328, 0.27973507570234, -0.094026736563967, 0
2329, 0.74124670828168, 0.028133169920539, 0
2330, 0.58866380450972, -0.21982677170105, 0
2331, 0.26149811360002, 0.090869282161832, 0
2332, 0.25778707207597, 0.080019898553327, 0
2333, 0.76273347334093, -0.039099664418382, 0
2334, 0.76634847081553, -0.063693590289921, 0
2335, 0.24918796518162, 0.11387196657067, 0
2336, 0.26337948643293, 0.13613865126064, 0
2337, 0.66714936891101, -0.14080215546548, 0
2338, 0.70079368144661, -0.16036638296478, 0
2339, 0.19533692925647, 0.017113560098895, 0
2340, 0.77667400278191, 0.13856298746066, 0
2341, 0.82684643564814, 0.16824391075218, 0
2342, 0.69736938470827, -0.11370883450543, 0
2343, 0.2813069420992, -0.039820697318272, 0
2344, 0.26415402132163, -0.027246349821626, 0
2345, 0.28341880017376, -0.068572312492557, 0
2346, 0.30886218171616, -0.1251617432989, 0
2347, 0.40945864659884, 0.29321123082226, 0
2348, 0.40202064916821, 0.26457345572078, 0
2349, 0.27403699339608, 0.13051661854423, 0
2350, 0.25939820857098, -0.091959160604681, 0
2351, 0.21568784117588, 0.063991568930235, 0
2352, 0.72122882344105, 0.16175693262263, 0
2353, 0.73980771392808, 0.15647048768437, 0
2354, 0.14390379437167, -0.00055171572653839, 0
2355, 0.29357690013235, -0.068561529719703, 0
2356, 0.30702732106737, -0.093661047181163, 0
2357, 0.22401464022932, -0.10513033396105, 0
2358, 0.1242848976329, 0.022856952085326, 0
2359, 0.096717523631941, -0.00049160650358854, 0
2360, 0.1704190192462, 0.053562574004331, 0
2361, 0.098222065319914, 0.03039023015672, 0
2362, 0.71290211449832, 0.15776428879955, 0
2363, 0.70340526979003, 0.24432866935669, 0
2364, 0.72188860986519, 0.26241374980485, 0
2365, 0.72858110727714, -0.073169310081016, 0
2366, 0.72224773687737, -0.077007075022632, 0
2367, 0.60041024587867, -0.23072279768509, 0
2368, 0.85951568841398, 0.13870315746001, 0
2369, 0.75487848503767, 0.20769518577664, 0
2370, 0.74095389459526, 0.18524052254488, 0
2371, 0.83146771205533, 0.14527210923036, 0
2372, 0.26673480665903, 0.042581905467266, 0
2373, 0.25602455744398, 0.04575682374551, 0
2374, 0.35602327772643, -0.14081603860281, 0
2375, 0.80877302747688, 0.14789260026862, 0
2376, 0.74165888413167, 0.067685344674546, 0
2377, 0.72299324808182, -0.022777095530644, 0
2378, 0.74082540360796, 0.13327212519664, 0
2379, 0.76846352534293, 0.20100894091138, 0
2380, 0.69875360123313, 0.17533851637469, 0
2381, 0.33207819796984, 0.23464959120718, 0
2382, 0.3357755065948, 0.23219068258411, 0
2383, 0.22839248078029, 0.066514258491587, 0
2384, 0.27431056588165, -0.019479672155229, 0
2385, 0.30651688404336, 0.23262965988852, 0
2386, 0.31667055423745, 0.25284562115171, 0
2387, 0.67220801115346, -0.11183563874269, 0
2388, 0.65882915230575, -0.13221645894311, 0
2389, 0.66511517234059, -0.11688091917774, 0
2390, 0.67914117093653, -0.10582787552866, 0
2391, 0.68653212569074, -0.12119118519548, 0
2392, 0.73672417444492, 0.0066845854179177, 0
2393, 0.73630297556743, 0.05315011365001, 0
2394, 0.74429599965514, 0.063685618513275, 0
2395, 0.5277461433267, 0.29423915689121, 0
2396, 0.31260825959839, -0.1116035820194, 0
2397, 0.21397008062185, -0.064613049122124, 0
2398, 0.233032974239, -0.050791379184456, 0
2399, 0.19299570508512, -0.054393877646086, 0
2400, 0.57631463552838, -0.17610901593987, 0
2401, 0.57327148900523, -0.17327212509183, 0
2402, 0.65432966631884, -0.13102069905987, 0
2403, 0.36608969755136, 0.25161871347106, 0
2404, 0.65053495476841, -0.15764239476761, 0
2405, 0.65807130634973, -0.12376472108414, 0
2406, 0.66136096061032, -0.16535381163991, 0
2407, 0.6976256603396, 0.21938363657507, 0
2408, 0.7458808062001, 0.166838698585, 0
2409, 0.66707357684446, 0.21565571125079, 0
2410, 0.67147398401758, 0.21804744164025, 0
2411, 0.65447562667937, 0.24343213373129, 0
2412, 0.74414178681738, 0.12334891385891, 0
2413, 0.76901707799154, 0.10330564408039, 0
2414, 0.76904680153228, 0.096221725576187, 0
2415, 0.16488627515701, 0.038754350659782, 0
2416, 0.16300285903103, 0.02873204739823, 0
2417, 0.61896211569584, 0.25723439611279, 0
2418, 0.33713434588888, -0.15745331595477, 0
2419, 0.33651659905206, -0.12934852345358, 0
2420, 0.35008303720137, 0.23137625597359, 0
2421, 0.33433967887928, 0.23859028802915, 0
2422, 0.81152553433699, 0.083206956857637, 0
2423, 0.8251570108816, 0.27381827581954, 0
2424, 0.24983081425294, 0.19138788751276, 0
2425, 0.069130748547896, 0.071268288349836, 0
2426, 0.31512036576427, -0.13934468062669, 0
2427, 0.84190715682515, -0.035116626005418, 0
2428, 0.15182957421165, -0.034828106668399, 0
2429, 0.16923066189155, -0.030111264166721, 0
2430, 0.55486015475077, -0.21099611477226, 0
2431, 0.23135427811885, -0.025761715818146, 0
2432, 0.18028434722959, 0.0014570362727115, 0
2433, 0.36511600987526, 0.26129022545136, 0
2434, 0.14473362919321, 0.017620607664042, 0
2435, 0.78465478340484, -0.079655122656164, 0
2436, 0.34490353955921, 0.2719695666258, 0
2437, 0.3218968778122, 0.2357472427561, 0
2438, 0.32765263088454, 0.23563924866545, 0
2439, 0.31425852103989, 0.24335668096519, 0
2440, 0.39951512249989, -0.19242549816687, 0
2441, 0.89191999515976, 0.12763616299549, 0
2442, 0.70736589003303, 0.16520669794783, 0
2443, 0.69127454637726, -0.10571092413273, 0
2444, 0.39395870278466, 0.26040639042312, 0
2445, 0.58037249030343, -0.17267430721623, 0
2446, 0.66331564446549, -0.14798206111503, 0
2447, 0.76094232212315, 0.22256430552048, 0
2448, 0.64018688756268, 0.25528275674377, 0
2449, 0.65835726092869, 0.22504407430129, 0
2450, 0.29319673589534, -0.1295450897931, 0
2451, 0.64432412654589, -0.15841290932649, 0
2452, 0.33626327063129, -0.1380200065101, 0
2453, 0.37790418807679, -0.17274939422586, 0
2454, 0.75162575977035, 0.1606551982349, 0
2455, 0.60252446140274, 0.2750348143414, 0
2456, 0.56862521594286, -0.21161742686391, 0
2457, 0.31295742565537, -0.101986568701, 0
2458, 0.26929859957827, -0.019435121126908, 0
2459, 0.76562939497958, 0.11030114222856, 0
2460, 0.73318903063216, 0.001436609040113, 0
2461, 0.73596845424071, 0.035241768114362, 0
2462, 0.74319956942303, 0.038025713730151, 0
2463, 0.75241532520355, 0.066053425574112, 0
2464, 0.60681408533554, -0.19566700925519, 0
2465, 0.31194421653441, -0.20044518876628, 0
2466, 0.57013851075208, -0.1812128269995, 0
2467, 0.74858399722716, 0.19522496228449, 0
2468, 0.21367083894712, 0.03351606203511, 0
2469, 0.6830686298074, -0.11293508449888, 0
2470, 0.22939225297741, 0.22290261365355, 0
2471, 0.9297335944416, 0.039016033026345, 0
2472, 0.64279090891754, 0.26249062712503, 0
2473, 0.24769476539221, -0.1024669948223, 0
2474, 0.23608677483268, 0.048922974881295, 0
2475, 0.66865354159402, -0.11448915750203, 0
2476, 0.55367605585036, 0.29203626486349, 0
2477, 0.26070529729903, 0.2248687443758, 0
2478, 0.73146578078238, -0.011875924449297, 0
2479, 0.45703422316317, -0.25291935429093, 0
2480, 0.42514560789773, -0.26103855899434, 0
2481, 0.21523367349779, -0.078038672577555, 0
2482, 0.35558801779055, 0.27348817789685, 0
2483, 0.45828681659444, -0.18988630205041, 0
2484, 0.16686506353847, 0.17232234837345, 0
2485, 0.35807243541739, 0.26048295335202, 0
2486, 0.65148788134791, 0.23075173913488, 0
2487, 0.69389729025078, 0.20072005932143, 0
2488, 0.20168368457978, 0.13425627349348, 0
2489, 0.35419596486026, 0.28131754953292, 0
2490, 0.59892776468568, -0.18022272783821, 0
2491, 0.56745942548455, -0.17314978086412, 0
2492, 0.33032264118772, -0.17212303992549, 0
2493, 0.56557695854132, -0.21612372382221, 0
2494, 0.35716815457554, -0.18716514203369, 0
2495, 0.76821134299971, 0.25909044956744, 0
2496, 0.74387824223731, 0.075137295300538, 0
2497, 0.47729079708736, 0.28730163014307, 0
2498, 0.4260041135115, 0.2917849933536, 0
2499, 0.28669830759621, -0.14693792830251, 0
2500, 0.31898866415534, -0.17628658750648, 0
2501, 0.53732585532999, 0.28135922554797, 0
2502, 0.66171103241821, -0.11891320455912, 0
2503, 0.15205584631198, -0.083681002882182, 0
2504, 0.74483508240214, 0.26160340507576, 0
2505, 0.41384230129874, -0.18416564429901, 0
2506, 0.13205121967433, 0.045086624346905, 0
2507, 0.26700394229153, 0.1581902516692, 0
2508, 0.71042609564064, -0.076508024677829, 0
2509, 0.74466237933414, 0.019959935408952, 0
2510, 0.45247084118094, -0.18059561699633, 0
2511, 0.74102185697883, -0.047122843185391, 0
2512, 0.5573468661093, -0.19600207861767, 0
2513, 0.88214455557168, -0.082868404363537, 0
2514, 0.83405677209783, 0.041048966514987, 0
2515, 0.5675133296486, -0.19629134743252, 0
2516, 0.46294843981233, 0.29397133007365, 0
2517, 0.68857691844261, -0.095327335631314, 0
2518, 0.70771376941861, 0.20369707508303, 0
2519, 0.74934599895285, 0.17977927792179, 0
2520, 0.63122349307229, 0.25271756189786, 0
2521, 0.25537303626747, 0.038264544920982, 0
2522, 0.56031731426808, -0.18398759463201, 0
2523, 0.25847623590608, 0.15405830590337, 0
2524, 0.86919291622865, -0.0054023126265186, 0
2525, 0.56079033318223, -0.23979594791815, 0
2526, 0.77827773160537, -0.097592390422269, 0
2527, 0.57606451547025, -0.19465414742864, 0
2528, 0.17612249168325, -0.056689947022949, 0
2529, 0.76498390370757, 0.087472995318601, 0
2530, 0.25728016188971, 0.031087292721416, 0
2531, 0.27690793270897, -0.017865338172166, 0
2532, 0.72870285062484, -0.058785143079238, 0
2533, 0.36474960597329, 0.24146067725551, 0
2534, 0.31137598352009, 0.19782993824871, 0
2535, 0.26898592258403, 0.13298431804257, 0
2536, 0.58839195442281, -0.18865586587102, 0
2537, 0.43429107688931, 0.28489580346074, 0
2538, 0.70503217133125, 0.18382401547783, 0
2539, 0.56810879443574, -0.17703504580323, 0
2540, 0.39474063392624, -0.18448631749636, 0
2541, 0.35200814445487, 0.29020488553027, 0
2542, 0.37311637592308, 0.26586600014682, 0
2543, 0.75453774773771, -0.089223785050893, 0
2544, 0.73136267441512, 0.12401148353252, 0
2545, 0.85716608046063, 0.16966343198059, 0
2546, 0.73022745188272, 0.16648328982252, 0
2547, 0.72440168471622, 0.24496313975555, 0
2548, 0.84584967386001, 0.20421223528583, 0
2549, 0.28426213572688, 0.26714483695885, 0
2550, 0.20624367139459, 0.23747604807445, 0
2551, 0.18914699764785, 0.17966798472087, 0
2552, 0.14060525782538, 0.15317383570654, 0
2553, 0.57104423364237, -0.17326762448763, 0
2554, 0.59390976918774, -0.18014206208718, 0
2555, 0.56460533446959, -0.17486061430325, 0
2556, 0.58176868733362, 0.27344839480241, 0
2557, 0.64078151402192, -0.18745125264481, 0
2558, 0.57879812611657, -0.21393490056022, 0
2559, 0.65423999392067, -0.24698645765506, 0
2560, 0.51279614157179, -0.28742286485963, 0
2561, 0.47966335660455, -0.24441989315256, 0
2562, 0.69249282407245, -0.21722480784779, 0
2563, 0.5808066069602, -0.28285747523635, 0
2564, 0.58875291721908, -0.21403617040799, 0
2565, 0.61235834180291, -0.26759885748699, 0
2566, 0.5534890471399, -0.24399366712269, 0
2567, 0.64785942188927, -0.1949306096876, 0
2568, 0.60233963217574, -0.29184988735919, 0
2569, 0.52740478527337, -0.23553090718432, 0
2570, 0.5746772082422, -0.18253762795694, 0
2571, 0.66853507000662, -0.22320414315505, 0
2572, 0.58353690960433, -0.18793599563914, 0
2573, 0.56596335038693, -0.18704695783784, 0
2574, 0.54532463409169, -0.20426218602204, 0
2575, 0.57942804305515, -0.18341760461732, 0
2576, 0.70333084454254, -0.25075650515337, 0
2577, 0.58200485251426, -0.19573573432827, 0
2578, 0.67358032317828, -0.23519987708202, 0
2579, 0.59999051185887, -0.2380299281717, 0
2580, 0.53265787836037, -0.24919583657658, 0
2581, 0.43733646567566, -0.19813510087549, 0
2582, 0.44379727814274, -0.24865787491171, 0
2583, 0.25577920566785, 0.026130444033968, 0
2584, 0.48817064861772, 0.28374591455089, 0
2585, 0.48189701095773, 0.29250621862091, 0
2586, 0.58703971384999, -0.19615752858245, 0
2587, 0.6266446583321, -0.21831809840206, 0
2588, 0.63019779802692, -0.22677768416908, 0
2589, 0.63279094439301, -0.23580106812666, 0
2590, 0.63433392717734, -0.24521950273382, 0
2591, 0.63477263748804, -0.25482980430708, 0
2592, 0.63412266541415, -0.26442014747614, 0
2593, 0.616205016831, -0.18901086943408, 0
2594, 0.59181504371182, -0.19860501949645, 0
2595, 0.58716350011458, -0.19976324408095, 0
2596, 0.55013210908448, -0.21413679997039, 0
2597, 0.58598419235724, -0.23206600624378, 0
2598, 0.58348181223565, -0.23852934704717, 0
2599, 0.57985691750693, -0.24493469200914, 0
2600, 0.57488497778797, -0.25110658202433, 0
2601, 0.56793647390877, -0.25658906511438, 0
2602, 0.55892759370808, -0.26153476498032, 0
2603, 0.50662307677225, -0.23572836145285, 0
2604, 0.5180327607758, -0.24944641607923, 0
2605, 0.48352469827212, -0.25863943617118, 0
2606, 0.49790621208022, -0.26055451647163, 0
2607, 0.51554163827164, -0.26227605873354, 0
2608, 0.60948829502358, -0.27584037312174, 0
2609, 0.58493589552951, -0.27524928909418, 0
2610, 0.62987314364264, -0.28285616691284, 0
2611, 0.62661208731438, -0.29159046331963, 0
2612, 0.55478495897504, -0.28938927699741, 0
2613, 0.55209754423245, -0.27808414579696, 0
2614, 0.61230645805459, -0.19913833044101, 0
2615, 0.58265695962421, -0.19178185496243, 0
2616, 0.63244106310343, -0.27379626134435, 0
2617, 0.54624065502826, -0.26517560380303, 0
2618, 0.76713741541128, -0.010512239116259, 0
2619, 0.72586450633836, -0.037916921607796, 0
2620, 0.55048932612742, 0.27918420390666, 0
2621, 0.54612696561013, 0.29091503170668, 0
2622, 0.28815301041805, 0.14646990944359, 0
2623, 0.28882419094996, 0.16630175585834, 0
2624, 0.40222092538208, 0.27137720665237, 0
2625, 0.40697163763225, 0.27311858512238, 0
2626, 0.39298222900515, 0.29160896035313, 0
2627, 0.38291838219206, 0.29021650431051, 0
2628, 0.37722772292138, 0.25019283585572, 0
2629, 0.36717337168439, 0.24744027861405, 0
2630, 0.39750164073723, 0.26934091093686, 0
2631, 0.36973369513886, 0.28805712995195, 0
******* E L E M E N T S *************
*ELEMENT, type=CPS4, ELSET=Surface1
1, 1192, 1164, 1425, 1165
2, 1164, 1817, 1934, 1425
3, 2585, 84, 96, 1191
4, 1938, 261, 359, 1843
5, 94, 1168, 1169, 82
6, 82, 1169, 1166, 93
7, 1169, 1167, 525, 1166
8, 1168, 524, 1167, 1169
9, 887, 868, 1765, 1343
10, 2367, 885, 1528, 2597
11, 1355, 908, 1354, 2387
12, 931, 2589, 2588, 889
13, 53, 1176, 1177, 45
14, 45, 1177, 1174, 52
15, 1177, 1175, 541, 1174
16, 1176, 536, 1175, 1177
17, 129, 1180, 1181, 121
18, 121, 1181, 1178, 128
19, 1181, 1179, 507, 1178
20, 2425, 1179, 1181, 1180
21, 510, 1184, 1185, 1182
22, 1182, 1185, 124, 132
23, 1185, 1183, 131, 124
24, 1184, 511, 1183, 1185
25, 17, 11, 1189, 1186
26, 1186, 1189, 1187, 488
27, 1189, 1188, 489, 1187
28, 11, 18, 1188, 1189
29, 1191, 1162, 1818, 503
30, 501, 262, 358, 502
31, 1080, 1026, 1163, 1027
32, 2497, 1424, 1026, 1080
33, 42, 36, 1195, 1193
34, 1193, 1195, 1194, 545
35, 1195, 43, 51, 1194
36, 36, 4, 43, 1195
37, 54, 1197, 1198, 46
38, 46, 1198, 1176, 53
39, 1198, 1196, 536, 1176
40, 1958, 1062, 818, 2213
41, 525, 1200, 1201, 1166
42, 1166, 1201, 81, 93
43, 1709, 1366, 962, 2620
44, 2621, 528, 1366, 1709
45, 1, 10, 1203, 126
46, 126, 1203, 1202, 133
47, 1203, 1186, 488, 1202
48, 10, 17, 1186, 1203
49, 2384, 643, 659, 2531
50, 699, 642, 1426, 1227
51, 653, 1972, 2399, 2251
52, 1831, 1975, 646, 1728
53, 459, 162, 1210, 1207
54, 1207, 1210, 1208, 907
55, 1210, 1209, 906, 1208
56, 162, 458, 1209, 1210
57, 1502, 1463, 1807, 609
58, 2294, 626, 1096, 1716
59, 1213, 623, 1097, 1747
60, 1239, 1939, 1316, 749
61, 290, 1217, 1514, 331
62, 334, 1215, 2486, 286
63, 512, 1220, 1221, 1219
64, 1219, 1221, 122, 130
65, 1221, 1180, 129, 122
66, 1052, 2415, 1051, 2360
67, 1291, 1840, 1246, 840
68, 2240, 1387, 1871, 1837
69, 2096, 2315, 2044, 2098
70, 1224, 137, 483, 1800
71, 2344, 1330, 1204, 1225
72, 1456, 654, 699, 652
73, 1442, 210, 410, 1226
74, 1389, 2150, 656, 1133
75, 2535, 2319, 593, 2349
76, 597, 1603, 2320, 2319
77, 548, 1841, 1450, 2523
78, 2208, 453, 168, 877
79, 2578, 2562, 1798, 2571
80, 2195, 1629, 540, 539
81, 1118, 2596, 1787, 1788
82, 2284, 1915, 998, 1278
83, 778, 1513, 1543, 2290
84, 1139, 372, 249, 2533
85, 2631, 2541, 2489, 1517
86, 1140, 556, 1138, 995
87, 2034, 1707, 571, 566
88, 1135, 2163, 146, 474
89, 1398, 1504, 2227, 2511
90, 2028, 2142, 806, 1110
91, 711, 1249, 1250, 1247
92, 1247, 1250, 1248, 721
93, 1250, 189, 431, 1248
94, 1249, 432, 189, 1250
95, 2348, 1510, 254, 366
96, 2627, 2626, 111, 102
97, 1254, 1253, 572, 1252
98, 257, 363, 1253, 1254
99, 377, 244, 1258, 1255
100, 1255, 1258, 1256, 584
101, 1258, 1257, 585, 1256
102, 244, 376, 1257, 1258
103, 2029, 2310, 2214, 2008
104, 1259, 1261, 47, 55
105, 1261, 1197, 54, 47
106, 2163, 1245, 475, 146
107, 2347, 1264, 1924, 1925
108, 1730, 505, 1635, 1304
109, 1304, 1635, 2444, 1510
110, 498, 981, 556, 2010
111, 718, 675, 972, 672
112, 2595, 2586, 2577, 868
113, 2483, 985, 513, 2204
114, 2505, 669, 722, 1641
115, 445, 176, 1270, 1267
116, 1267, 1270, 1268, 882
117, 1270, 1269, 883, 1268
118, 176, 444, 1269, 1270
119, 511, 1271, 1272, 1183
120, 1183, 1272, 123, 131
121, 1272, 1219, 130, 123
122, 1271, 512, 1219, 1272
123, 1129, 617, 647, 1286
124, 1127, 401, 220, 621
125, 620, 1132, 222, 398
126, 1434, 934, 1106, 1954
127, 755, 1279, 1280, 1277
128, 1941, 751, 2284, 1238
129, 287, 2449, 1215, 334
130, 1279, 336, 285, 1280
131, 693, 709, 1928, 2374
132, 1876, 705, 708, 1929
133, 1284, 195, 425, 1282
134, 1283, 426, 195, 1284
135, 1731, 615, 2351, 2127
136, 1845, 1108, 1724, 1583
137, 1562, 810, 1785, 835
138, 2463, 2164, 811, 1587
139, 841, 1823, 476, 145
140, 526, 1038, 527, 1789
141, 2395, 1859, 1602, 1039
142, 1859, 92, 81, 1201
143, 1038, 91, 80, 2395
144, 700, 944, 2073, 2072
145, 2232, 707, 2086, 2085
146, 1298, 198, 422, 1296
147, 1297, 423, 198, 1298
148, 460, 161, 1301, 1299
149, 1299, 1301, 1300, 909
150, 1301, 1207, 907, 1300
151, 161, 459, 1207, 1301
152, 2372, 1106, 221, 399
153, 2292, 628, 1434, 627
154, 649, 1519, 2583, 622
155, 1108, 622, 1287, 1724
156, 2630, 1304, 1510, 2348
157, 1699, 1404, 369, 252
158, 568, 2011, 1706, 1634
159, 1262, 2433, 1624, 2542
160, 1471, 225, 395, 614
161, 1211, 2335, 1147, 1805
162, 431, 190, 1312, 1248
163, 1248, 1312, 1310, 721
164, 1312, 1311, 720, 1310
165, 190, 430, 1311, 1312
166, 444, 177, 1315, 1269
167, 1269, 1315, 1313, 883
168, 1315, 1314, 881, 1313
169, 177, 443, 1314, 1315
170, 1914, 1278, 2407, 748
171, 1893, 1237, 1236, 999
172, 333, 756, 2449, 287
173, 1891, 1941, 1238, 1939
174, 1998, 1088, 2051, 745
175, 2518, 1626, 1338, 1990
176, 1090, 1002, 1555, 1337
177, 2472, 1702, 2448, 2241
178, 2580, 1767, 2569, 867
179, 2597, 1528, 2166, 1069
180, 1327, 1325, 27, 24
181, 677, 1901, 986, 515
182, 732, 1122, 206, 414
183, 1541, 947, 1751, 2355
184, 1923, 728, 1643, 2298
185, 1456, 652, 657, 1727
186, 1359, 2024, 158, 462
187, 2502, 156, 464, 919
188, 935, 469, 152, 2517
189, 2450, 1034, 1031, 1921
190, 2104, 1334, 945, 1351
191, 735, 737, 2133, 733
192, 2103, 702, 416, 205
193, 1740, 2353, 772, 1661
194, 2032, 2407, 776, 789
195, 1894, 1087, 1086, 1339
196, 792, 2379, 2369, 2467
197, 2167, 874, 1585, 2464
198, 2572, 1527, 1099, 2615
199, 1120, 2590, 2589, 931
200, 1486, 1777, 916, 2261
201, 1773, 817, 2315, 2096
202, 811, 2376, 1417, 2394
203, 848, 1024, 797, 816
204, 802, 1348, 1349, 1346
205, 1346, 1349, 1347, 804
206, 1349, 304, 316, 1347
207, 1348, 317, 304, 1349
208, 1351, 945, 698, 1336
209, 945, 731, 2262, 698
210, 1564, 1909, 826, 902
211, 2024, 1910, 463, 158
212, 1331, 1564, 902, 1358
213, 856, 1353, 1564, 1331
214, 1054, 1791, 1805, 2281
215, 1231, 1055, 589, 2301
216, 2281, 1805, 1147, 600
217, 2406, 2066, 2446, 1985
218, 1516, 2388, 2402, 901
219, 1985, 1803, 911, 2404
220, 1519, 1897, 1129, 1286
221, 1435, 2019, 2020, 1436
222, 1098, 1360, 397, 224
223, 615, 616, 2383, 2351
224, 429, 192, 1365, 1362
225, 1362, 1365, 1363, 687
226, 1365, 1364, 688, 1363
227, 192, 428, 1364, 1365
228, 523, 1703, 1548, 960
229, 982, 1790, 958, 1092
230, 1405, 984, 2305, 2155
231, 767, 2271, 762, 1453
232, 2535, 2349, 1655, 591
233, 1450, 1931, 1055, 1231
234, 596, 1992, 237, 383
235, 1883, 843, 312, 309
236, 1648, 2509, 1289, 1588
237, 1291, 840, 836, 1838
238, 1878, 2365, 1115, 2139
239, 147, 473, 1375, 1376
240, 724, 1849, 1541, 2345
241, 1760, 667, 1849, 724
242, 734, 701, 1847, 738
243, 98, 1381, 1382, 86
244, 1424, 263, 357, 1026
245, 1190, 1380, 1938, 1843
246, 1381, 504, 1380, 1382
247, 517, 1385, 1386, 1383
248, 1383, 1386, 49, 57
249, 1386, 1384, 56, 49
250, 1385, 516, 1384, 1386
251, 1061, 1776, 2064, 1137
252, 1438, 2264, 2618, 809
253, 1066, 2216, 1071, 823
254, 635, 1392, 2102, 947
255, 653, 2431, 2135, 978
256, 1856, 1978, 2103, 2307
257, 2104, 1351, 2328, 1391
258, 2157, 2151, 1856, 1866
259, 18, 12, 1395, 1188
260, 1188, 1395, 1393, 489
261, 1395, 1394, 490, 1393
262, 12, 19, 1394, 1395
263, 2097, 2045, 485, 136
264, 845, 2462, 2314, 2461
265, 1886, 2247, 798, 2140
266, 1802, 534, 1345, 2393
267, 1086, 784, 1742, 1722
268, 1339, 1086, 1722, 2006
269, 2295, 2442, 324, 297
270, 1946, 2223, 327, 294
271, 2631, 1517, 565, 567
272, 500, 1140, 1509, 564
273, 2033, 248, 372, 1139
274, 1526, 2542, 568, 505
275, 2155, 2305, 1704, 759
276, 984, 342, 279, 2305
277, 1408, 1407, 754, 1406
278, 283, 337, 1407, 1408
279, 1409, 1821, 434, 187
280, 1820, 1469, 491, 670
281, 1745, 1048, 2169, 1470
282, 2026, 1743, 2483, 2025
283, 424, 197, 1415, 1413
284, 2074, 1283, 1284, 706
285, 1013, 1875, 2074, 1019
286, 197, 423, 1297, 1415
287, 1851, 1417, 843, 1883
288, 2376, 2015, 843, 1417
289, 2334, 838, 2139, 2138
290, 816, 797, 2247, 1886
291, 1143, 1420, 2534, 1144
292, 1560, 1422, 1423, 586
293, 1423, 240, 380, 1421
294, 1422, 381, 240, 1423
295, 1081, 1080, 1027, 2584
296, 1026, 357, 264, 1163
297, 1165, 1425, 524, 1168
298, 1843, 359, 262, 501
299, 1336, 698, 1850, 725
300, 2115, 1456, 1727, 1350
301, 1592, 1076, 2587, 930
302, 1234, 871, 1486, 1766
303, 2490, 1234, 1766, 1712
304, 2521, 2292, 627, 1732
305, 1273, 1128, 1130, 1360
306, 2365, 2366, 955, 1115
307, 1440, 148, 472, 1439
308, 1375, 473, 148, 1440
309, 2308, 1540, 1962, 642
310, 1976, 1726, 644, 1974
311, 1105, 1825, 1829, 1927
312, 1848, 1206, 2113, 640
313, 580, 1858, 577, 1153
314, 1448, 242, 378, 1446
315, 1447, 379, 242, 1448
316, 1841, 600, 597, 2336
317, 601, 231, 389, 1795
318, 766, 1451, 73, 64
319, 1879, 268, 352, 1595
320, 765, 2156, 1719, 1584
321, 759, 1704, 1505, 2304
322, 2031, 770, 932, 2191
323, 1945, 1073, 2371, 2375
324, 1399, 790, 2454, 774
325, 1825, 1225, 2458, 1881
326, 1103, 2180, 1830, 1973
327, 1226, 410, 211, 2343
328, 1518, 2397, 2481, 2250
329, 1926, 1522, 1459, 1606
330, 2203, 2171, 2170, 971
331, 1966, 2505, 1641, 1573
332, 1470, 2169, 2582, 719
333, 585, 1257, 1462, 1460
334, 1460, 1462, 1461, 557
335, 1462, 245, 375, 1461
336, 1257, 376, 245, 1462
337, 1370, 1809, 1715, 610
338, 1094, 2331, 612, 608
339, 1214, 1308, 601, 1792
340, 557, 1461, 1467, 1465
341, 1241, 995, 1511, 2421
342, 2058, 2057, 2059, 560
343, 1461, 375, 246, 1467
344, 719, 676, 1064, 1265
345, 2239, 1049, 1965, 2440
346, 1265, 1064, 2203, 1640
347, 2025, 2483, 2204, 2205
348, 396, 225, 1471, 1275
349, 1360, 1130, 223, 397
350, 1213, 1747, 1037, 1746
351, 2004, 2003, 392, 229
352, 495, 1474, 1475, 1472
353, 1472, 1475, 1473, 494
354, 1475, 108, 118, 1473
355, 1474, 117, 108, 1475
356, 472, 149, 1477, 1439
357, 1439, 1477, 1058, 855
358, 1477, 1476, 852, 1058
359, 149, 471, 1476, 1477
360, 2487, 2270, 1320, 1944
361, 1581, 1000, 1723, 1896
362, 1656, 1047, 298, 322
363, 783, 2412, 1612, 1970
364, 363, 258, 1481, 1253
365, 1253, 1481, 1479, 572
366, 1481, 1480, 573, 1479
367, 258, 362, 1480, 1481
368, 442, 179, 1485, 1482
369, 1482, 1485, 1483, 679
370, 1485, 1484, 678, 1483
371, 179, 441, 1484, 1485
372, 1554, 1075, 446, 175
373, 1009, 452, 169, 1432
374, 874, 1234, 2490, 1918
375, 37, 31, 1687, 2611
376, 441, 180, 1490, 1484
377, 1484, 1490, 1488, 678
378, 1490, 1489, 680, 1488
379, 180, 440, 1489, 1490
380, 2464, 1585, 872, 869
381, 1919, 2172, 1076, 1592
382, 2598, 2597, 1069, 1880
383, 2575, 2570, 1158, 1527
384, 847, 830, 1244, 829
385, 1065, 2148, 1111, 2313
386, 840, 2427, 850, 836
387, 1647, 1496, 2065, 1333
388, 1909, 2475, 2389, 826
389, 853, 1495, 2338, 905
390, 2337, 1331, 1358, 1040
391, 2084, 955, 1493, 2091
392, 1499, 2517, 2023, 2443
393, 2402, 1515, 2024, 1359
394, 1216, 330, 291, 795
395, 2188, 2519, 1739, 2408
396, 594, 226, 394, 1808
397, 1370, 608, 1533, 1809
398, 1309, 611, 1464, 613
399, 2310, 808, 805, 2214
400, 2064, 533, 1648, 808
401, 2392, 846, 1589, 1222
402, 1291, 1438, 2333, 2014
403, 1324, 1092, 958, 959
404, 1694, 2472, 2241, 2244
405, 2421, 1511, 2438, 2381
406, 2433, 2485, 2254, 1508
407, 996, 2421, 2381, 2382
408, 2011, 2009, 1263, 1706
409, 995, 1138, 555, 1511
410, 561, 996, 2382, 1465
411, 565, 1526, 505, 1730
412, 2420, 560, 561, 1466
413, 1238, 2284, 1278, 1914
414, 1217, 778, 2290, 1514
415, 1892, 2242, 1543, 1915
416, 2449, 750, 1893, 1215
417, 2236, 1816, 909, 1889
418, 1355, 2387, 2475, 1909
419, 1508, 2403, 1708, 559
420, 1635, 1634, 1874, 2444
421, 567, 565, 1730, 1403
422, 562, 2057, 2058, 1307
423, 1829, 641, 1831, 1444
424, 652, 699, 1227, 1824
425, 1204, 1976, 1974, 1441
426, 1759, 411, 210, 1442
427, 1132, 2372, 399, 222
428, 1594, 217, 403, 1898
429, 1519, 1286, 1437, 2583
430, 2170, 1820, 670, 971
431, 1325, 1523, 23, 27
432, 1523, 1521, 2, 23
433, 1468, 1607, 436, 185
434, 1517, 2489, 2482, 1402
435, 1517, 1402, 1526, 565
436, 1404, 1251, 251, 369
437, 2541, 2034, 566, 2489
438, 1079, 1120, 931, 1114
439, 2261, 1768, 2209, 1686
440, 2209, 455, 166, 1710
441, 688, 1364, 1532, 1530
442, 1530, 1532, 1531, 704
443, 1532, 193, 427, 1531
444, 1364, 428, 193, 1532
445, 614, 395, 226, 594
446, 609, 1807, 391, 230
447, 494, 1473, 1536, 1535
448, 1535, 1536, 119, 127
449, 1536, 109, 8, 119
450, 1473, 118, 109, 1536
451, 19, 13, 1539, 1394
452, 1394, 1539, 1537, 490
453, 1539, 1538, 509, 1537
454, 13, 20, 1538, 1539
455, 727, 1379, 1559, 1552
456, 1759, 948, 209, 411
457, 1915, 1543, 1513, 998
458, 1939, 1238, 1914, 1316
459, 1916, 2242, 1892, 2410
460, 1278, 998, 776, 2407
461, 382, 239, 1545, 1544
462, 1980, 1981, 1576, 989
463, 584, 938, 1668, 1255
464, 239, 381, 1422, 1545
465, 516, 1546, 1547, 1384
466, 1384, 1547, 48, 56
467, 1547, 1259, 55, 48
468, 1704, 341, 280, 1505
469, 2455, 983, 2178, 1905
470, 766, 765, 1584, 1451
471, 653, 1920, 2327, 2431
472, 1379, 202, 418, 1559
473, 652, 1824, 1389, 657
474, 2168, 2573, 1010, 2193
475, 1553, 1554, 1267, 882
476, 1554, 175, 445, 1267
477, 2491, 1780, 451, 170
478, 2191, 932, 2223, 1946
479, 1156, 1943, 300, 320
480, 745, 783, 1970, 1968
481, 520, 2340, 1627, 2005
482, 2252, 1068, 1629, 2195
483, 867, 2569, 1112, 682
484, 929, 514, 2465, 634
485, 706, 1284, 1282, 1928
486, 1558, 196, 424, 1413
487, 1282, 425, 196, 1558
488, 1334, 663, 731, 945
489, 1642, 1857, 2357, 2123
490, 948, 2012, 412, 209
491, 1121, 727, 1552, 2124
492, 1854, 2071, 588, 576
493, 1561, 241, 379, 1447
494, 1421, 380, 241, 1561
495, 1785, 1141, 2226, 1387
496, 1137, 2064, 808, 2310
497, 832, 941, 1135, 1376
498, 2390, 467, 154, 1354
499, 905, 2338, 900, 1078
500, 544, 1566, 1567, 1565
501, 1565, 1567, 1193, 545
502, 1567, 35, 42, 1193
503, 1566, 41, 35, 1567
504, 542, 1569, 1570, 1568
505, 1568, 1570, 1566, 544
506, 1570, 34, 41, 1566
507, 1569, 40, 34, 1570
508, 57, 50, 1572, 1383
509, 1383, 1572, 1571, 517
510, 1572, 58, 68, 1571
511, 50, 5, 58, 1572
512, 1745, 2224, 1819, 1411
513, 716, 2225, 669, 717
514, 1574, 1249, 711, 1573
515, 188, 432, 1249, 1574
516, 2300, 551, 2488, 2161
517, 238, 382, 1544, 1577
518, 337, 284, 1579, 1407
519, 1407, 1579, 1578, 754
520, 1579, 1279, 755, 1578
521, 284, 336, 1279, 1579
522, 1023, 1022, 2447, 518
523, 59, 1582, 1571, 68
524, 1582, 1580, 517, 1571
525, 1860, 785, 779, 1660
526, 1464, 228, 392, 2003
527, 1583, 1724, 1725, 629
528, 953, 1844, 648, 1303
529, 1453, 762, 281, 339
530, 2417, 2271, 767, 761
531, 2593, 2167, 2464, 2614
532, 1995, 167, 453, 2208
533, 1431, 2210, 894, 1832
534, 2210, 1995, 2208, 894
535, 1222, 1589, 1801, 1839
536, 2311, 2096, 2098, 1025
537, 836, 850, 839, 1062
538, 1935, 454, 167, 1995
539, 2566, 2525, 1853, 1341
540, 2599, 1114, 2579, 2598
541, 646, 1443, 1594, 1593
542, 1917, 2474, 616, 615
543, 649, 1953, 1897, 1519
544, 1443, 404, 217, 1594
545, 2476, 492, 89, 78
546, 1506, 351, 270, 961
547, 765, 1405, 2155, 2156
548, 543, 1599, 1600, 1598
549, 1598, 1600, 1569, 542
550, 1600, 33, 40, 1569
551, 1599, 39, 33, 1600
552, 1694, 2244, 1512, 521
553, 2156, 1942, 530, 1719
554, 760, 75, 66, 1321
555, 1505, 280, 340, 1322
556, 528, 1789, 961, 2501
557, 1595, 352, 269, 1597
558, 1790, 1199, 1369, 958
559, 961, 270, 350, 2501
560, 1655, 1102, 590, 1654
561, 2319, 2320, 1792, 593
562, 1993, 592, 2283, 1806
563, 1211, 1805, 1791, 2002
564, 1228, 234, 386, 2622
565, 1792, 601, 1795, 593
566, 1654, 590, 1932, 2318
567, 1640, 2203, 971, 2026
568, 1821, 1639, 186, 434
569, 2224, 2581, 1522, 1926
570, 1470, 719, 1265, 1266
571, 881, 1314, 1609, 1608
572, 1608, 1609, 1482, 679
573, 1609, 178, 442, 1482
574, 1314, 443, 178, 1609
575, 427, 194, 1611, 1531
576, 2418, 2273, 1610, 2256
577, 1414, 2291, 695, 2075
578, 194, 426, 1283, 1611
579, 2005, 1627, 787, 1657
580, 1318, 2269, 2340, 520
581, 1614, 1613, 800, 1612
582, 302, 318, 1613, 1614
583, 316, 305, 1617, 1347
584, 1347, 1617, 1615, 804
585, 1617, 1616, 531, 1615
586, 305, 315, 1616, 1617
587, 865, 935, 2517, 1499
588, 1332, 2090, 1647, 1041
589, 2517, 152, 468, 2023
590, 1563, 1804, 2390, 2469
591, 1351, 1336, 660, 2328
592, 2250, 2481, 1857, 1642
593, 1825, 1881, 641, 1829
594, 1866, 1856, 2307, 1122
595, 906, 1209, 1623, 1621
596, 1621, 1623, 1622, 913
597, 1623, 163, 457, 1622
598, 1209, 458, 163, 1623
599, 499, 564, 562, 558
600, 1697, 1240, 2628, 569
601, 1625, 1306, 1082, 1264
602, 2044, 1774, 1419, 1344
603, 2315, 813, 1774, 2044
604, 2393, 1345, 311, 134
605, 807, 307, 313, 2165
606, 1895, 1319, 2188, 790
607, 1998, 745, 1968, 2459
608, 1628, 456, 165, 1768
609, 871, 917, 1777, 1486
610, 2493, 2456, 1491, 2430
611, 1235, 1832, 1778, 890
612, 538, 1710, 1935, 1011
613, 2610, 2252, 2195, 2616
614, 874, 1918, 2202, 1585
615, 832, 1376, 1375, 851
616, 1123, 832, 851, 831
617, 2403, 2629, 1696, 1708
618, 571, 497, 981, 498
619, 2010, 556, 1140, 500
620, 2489, 566, 2436, 2482
621, 913, 1622, 1637, 1636
622, 1636, 1637, 1628, 916
623, 1637, 164, 456, 1628
624, 1622, 457, 164, 1637
625, 1496, 470, 151, 2065
626, 864, 1359, 462, 159
627, 2084, 1083, 924, 1084
628, 2405, 919, 860, 1910
629, 2406, 1173, 2174, 2022
630, 2342, 2443, 1563, 1116
631, 2066, 903, 1984, 859
632, 1117, 2000, 2342, 858
633, 2205, 2204, 1412, 675
634, 2169, 2480, 1063, 2582
635, 1819, 716, 717, 973
636, 2600, 2599, 2525, 2566
637, 1050, 674, 1607, 1468
638, 722, 1744, 1821, 1409
639, 1900, 975, 718, 2581
640, 2298, 1643, 726, 2356
641, 696, 2499, 2114, 2262
642, 2040, 1753, 2136, 1761
643, 726, 1960, 723, 1977
644, 99, 1645, 1646, 87
645, 87, 1646, 1381, 98
646, 1646, 1644, 504, 1381
647, 1645, 506, 1644, 1646
648, 1110, 806, 2148, 1065
649, 1882, 2303, 925, 957
650, 902, 826, 1357, 857
651, 1057, 852, 2090, 1332
652, 2165, 313, 308, 2015
653, 2496, 807, 2165, 1060
654, 1123, 2532, 941, 832
655, 780, 771, 325, 296
656, 2352, 2006, 2295, 2362
657, 1320, 795, 793, 1944
658, 2460, 1222, 1839, 1651
659, 1651, 1839, 139, 481
660, 2509, 2063, 2141, 1289
661, 1650, 1224, 1800, 2312
662, 800, 1613, 1653, 1652
663, 1652, 1653, 1348, 802
664, 1653, 303, 317, 1348
665, 1613, 318, 303, 1653
666, 1931, 591, 549, 1055
667, 589, 1056, 1956, 603
668, 1793, 1449, 1146, 2623
669, 784, 1155, 1089, 1742
670, 1047, 2362, 323, 298
671, 1895, 1581, 1896, 1319
672, 743, 1660, 1737, 1087
673, 430, 191, 1659, 1311
674, 1311, 1659, 1658, 720
675, 1659, 1362, 687, 1658
676, 191, 429, 1362, 1659
677, 1338, 1454, 1997, 781
678, 1090, 1337, 1088, 1998
679, 1661, 772, 1656, 1741
680, 22, 16, 1664, 1662
681, 1662, 1664, 1663, 515
682, 1743, 1605, 985, 2483
683, 16, 2, 1521, 1664
684, 1665, 1666, 1550, 703
685, 1666, 199, 421, 1550
686, 1296, 422, 199, 1666
687, 378, 243, 1668, 1446
688, 2041, 579, 1421, 1561
689, 1858, 967, 2424, 2321
690, 243, 377, 1255, 1668
691, 1773, 844, 1396, 817
692, 1418, 2460, 830, 847
693, 2511, 2227, 2146, 1373
694, 1419, 1802, 2393, 2046
695, 531, 1616, 1671, 1670
696, 1670, 1671, 1397, 532
697, 1671, 306, 314, 1397
698, 1616, 315, 306, 1671
699, 2470, 2218, 2217, 951
700, 1672, 1674, 1474, 495
701, 1674, 107, 117, 1474
702, 1673, 116, 107, 1674
703, 20, 14, 1677, 1538
704, 1538, 1677, 1675, 509
705, 1020, 927, 685, 963
706, 14, 21, 1676, 1677
707, 1100, 878, 870, 922
708, 2617, 2609, 2183, 2602
709, 2128, 2571, 1557, 876
710, 875, 887, 1343, 1749
711, 488, 1682, 1683, 1202
712, 1202, 1683, 125, 133
713, 1683, 1182, 132, 125
714, 1682, 510, 1182, 1683
715, 1918, 2490, 2554, 2201
716, 1113, 2591, 2590, 1120
717, 38, 32, 1172, 1157
718, 1432, 169, 451, 1780
719, 2564, 898, 875, 2558
720, 1171, 885, 2367, 1012
721, 21, 15, 1688, 1676
722, 710, 697, 1036, 1035
723, 964, 928, 1676, 1688
724, 15, 22, 1662, 1688
725, 128, 1178, 1690, 120
726, 120, 1690, 1535, 127
727, 1690, 1689, 494, 1535
728, 1178, 507, 1689, 1690
729, 794, 1661, 1741, 782
730, 2190, 2221, 2423, 1021
731, 62, 72, 1734, 2222
732, 1022, 2495, 2504, 1693
733, 2476, 1292, 1718, 492
734, 1452, 1549, 943, 2520
735, 1451, 1695, 942, 73
736, 1367, 529, 1507, 1702
737, 1706, 1263, 1699, 1983
738, 1006, 1907, 256, 364
739, 1402, 1262, 2542, 1526
740, 52, 1174, 1701, 44
741, 44, 1701, 1194, 51
742, 1701, 1700, 545, 1194
743, 1174, 541, 1700, 1701
744, 1368, 763, 960, 2455
745, 492, 982, 77, 89
746, 529, 1452, 2520, 1507
747, 1695, 1904, 2472, 1694
748, 764, 76, 67, 1324
749, 1703, 344, 277, 1548
750, 2485, 1524, 499, 2254
751, 1696, 1008, 574, 1240
752, 2482, 2436, 1525, 1698
753, 1294, 271, 349, 1717
754, 916, 1628, 1768, 2261
755, 890, 1778, 2400, 1529
756, 2616, 2195, 539, 2592
757, 2596, 2430, 2574, 1787
758, 1095, 1093, 2383, 618
759, 2556, 276, 344, 1703
760, 1584, 1719, 1367, 1904
761, 1039, 1602, 1595, 1597
762, 1596, 275, 345, 1091
763, 1548, 277, 343, 983
764, 2621, 90, 79, 526
765, 1445, 1153, 552, 1986
766, 546, 949, 968, 496
767, 1721, 106, 116, 1673
768, 1720, 115, 106, 1721
769, 1693, 2547, 747, 2189
770, 2006, 1722, 2442, 2295
771, 2423, 60, 70, 740
772, 740, 70, 61, 741
773, 2468, 1917, 615, 1731
774, 2468, 953, 1303, 645
775, 1330, 1133, 1976, 1204
776, 977, 2359, 2132, 651
777, 2626, 575, 101, 111
778, 2533, 249, 371, 980
779, 564, 1509, 2057, 562
780, 2444, 1874, 253, 367
781, 1303, 648, 1846, 625
782, 2373, 1732, 1302, 952
783, 1725, 2521, 1732, 2373
784, 1953, 1435, 1436, 1897
785, 1986, 1667, 1142, 1420
786, 2549, 966, 950, 497
787, 1733, 105, 115, 1720
788, 1729, 114, 105, 1733
789, 72, 63, 1736, 1734
790, 1734, 1736, 1735, 522
791, 1736, 942, 521, 1735
792, 63, 73, 942, 1736
793, 2504, 2245, 2222, 2364
794, 2101, 1946, 294, 326
795, 2548, 1692, 1723, 1000
796, 1154, 1996, 1478, 1045
797, 1501, 1156, 320, 301
798, 742, 2187, 1073, 1945
799, 2544, 1501, 301, 319
800, 1556, 1400, 1581, 1895
801, 2562, 1078, 900, 1798
802, 1745, 1470, 1266, 1900
803, 676, 987, 1458, 1064
804, 1412, 2510, 1950, 715
805, 1037, 1716, 1096, 2332
806, 1748, 1094, 608, 1370
807, 1308, 609, 230, 390
808, 1749, 1343, 1936, 684
809, 1919, 2593, 2614, 2172
810, 2609, 2608, 2565, 2183
811, 896, 925, 1078, 2562
812, 665, 2503, 639, 2117
813, 640, 2113, 406, 215
814, 2458, 1441, 2384, 1206
815, 1335, 1329, 948, 1759
816, 1809, 1533, 1463, 1502
817, 1213, 1746, 1094, 1748
818, 1093, 1714, 2351, 2383
819, 1534, 2332, 614, 594
820, 361, 260, 1757, 1755
821, 1755, 1757, 1644, 506
822, 1757, 1756, 504, 1644
823, 260, 360, 1756, 1757
824, 1427, 739, 1760, 1328
825, 1643, 2457, 1960, 726
826, 1978, 2356, 702, 2103
827, 739, 2123, 2473, 2350
828, 354, 267, 1764, 1762
829, 1762, 1764, 1167, 524
830, 1764, 1763, 525, 1167
831, 267, 353, 1763, 1764
832, 1711, 1487, 2260, 2539
833, 866, 922, 447, 174
834, 899, 2451, 2042, 914
835, 688, 1530, 1772, 1769
836, 1769, 1772, 1770, 690
837, 1772, 1771, 689, 1770
838, 1530, 704, 1771, 1772
839, 1776, 1773, 2096, 2311
840, 1344, 1419, 2046, 814
841, 2400, 2263, 2401, 1487
842, 1681, 921, 2586, 1433
843, 1778, 2445, 2263, 2400
844, 802, 1346, 1784, 1781
845, 1781, 1784, 1782, 801
846, 1784, 1783, 803, 1782
847, 1346, 804, 1783, 1784
848, 2429, 2249, 1042, 2428
849, 1809, 1502, 1214, 1715
850, 1562, 1136, 829, 810
851, 1651, 481, 140, 1288
852, 1649, 2619, 1823, 841
853, 2619, 1959, 1632, 1823
854, 2166, 1149, 2493, 2211
855, 1118, 1788, 1786, 884
856, 1788, 1268, 883, 1786
857, 1787, 882, 1268, 1788
858, 526, 79, 91, 1038
859, 982, 1092, 6, 77
860, 2395, 80, 92, 1859
861, 1859, 1201, 1200, 1602
862, 1230, 603, 592, 1993
863, 548, 2281, 600, 1841
864, 1463, 613, 2004, 1807
865, 1055, 549, 1056, 589
866, 1794, 2257, 2321, 2424
867, 2507, 1231, 2301, 1372
868, 1212, 227, 393, 611
869, 804, 1615, 1797, 1783
870, 1783, 1797, 1125, 803
871, 1797, 1796, 799, 1125
872, 1615, 531, 1796, 1797
873, 1918, 2201, 2130, 2202
874, 1529, 1711, 2466, 2570
875, 888, 543, 2087, 2576
876, 2591, 2559, 2128, 2590
877, 1418, 2392, 1222, 2460
878, 817, 1885, 813, 2315
879, 813, 2099, 1669, 1774
880, 2338, 1638, 2173, 900
881, 1495, 861, 1498, 1999
882, 1618, 853, 905, 2303
883, 2388, 857, 1515, 2402
884, 1933, 1793, 547, 2282
885, 1794, 2424, 2217, 1145
886, 1056, 2318, 598, 1956
887, 610, 1715, 2320, 1603
888, 1715, 1214, 1792, 2320
889, 2332, 1096, 1471, 614
890, 679, 1483, 1813, 1810
891, 1810, 1813, 1811, 682
892, 1813, 1812, 683, 1811
893, 1483, 678, 1812, 1813
894, 856, 910, 2129, 1353
895, 1358, 902, 857, 2388
896, 857, 1357, 2405, 1515
897, 1162, 2516, 1190, 1818
898, 1934, 1817, 355, 266
899, 1762, 1934, 266, 354
900, 2584, 1027, 356, 265
901, 1950, 184, 436, 1607
902, 2055, 1050, 1468, 974
903, 1745, 1411, 677, 1048
904, 1410, 973, 2239, 1457
905, 809, 2618, 2029, 2052
906, 831, 851, 1822, 2053
907, 1441, 1974, 643, 2384
908, 2113, 2531, 214, 406
909, 2359, 512, 1271, 2132
910, 2374, 1928, 1282, 1558
911, 1014, 1019, 1863, 1295
912, 1864, 1929, 1415, 1297
913, 708, 2374, 1558, 1413
914, 725, 1850, 662, 1619
915, 2181, 664, 730, 2528
916, 2299, 2298, 2356, 1978
917, 1922, 2432, 637, 2249
918, 1881, 2458, 1206, 1848
919, 1973, 1830, 2278, 2277
920, 1920, 2398, 1971, 1377
921, 1157, 1172, 888, 1068
922, 2263, 1009, 1432, 2401
923, 2599, 2598, 1880, 2525
924, 893, 920, 2567, 930
925, 626, 1275, 1471, 1096
926, 623, 2002, 607, 2001
927, 1748, 1370, 610, 2335
928, 883, 1313, 1836, 1786
929, 1786, 1836, 1834, 884
930, 1836, 1835, 886, 1834
931, 1313, 881, 1835, 1836
932, 2213, 818, 2286, 844
933, 1060, 2165, 2015, 2376
934, 2099, 2047, 1416, 1669
935, 1932, 387, 234, 1228
936, 2161, 2488, 2162, 607
937, 1842, 2623, 1992, 596
938, 1229, 602, 595, 2257
939, 2585, 1191, 503, 2497
940, 2585, 2497, 1080, 1081
941, 2516, 97, 86, 1382
942, 1192, 1165, 83, 95
943, 1437, 1361, 1127, 1285
944, 1520, 1273, 1360, 1098
945, 617, 218, 402, 647
946, 2325, 1961, 1121, 2457
947, 1619, 735, 1923, 1428
948, 1031, 1862, 2426, 2306
949, 969, 1650, 2312, 846
950, 2463, 2140, 1884, 2164
951, 824, 2511, 1373, 2054
952, 890, 1529, 2570, 2575
953, 2211, 2493, 2430, 2596
954, 2525, 1880, 895, 1853
955, 1142, 586, 579, 2041
956, 1858, 2321, 2322, 577
957, 1336, 725, 1758, 660
958, 1350, 1727, 2344, 1105
959, 1824, 2343, 2150, 1389
960, 662, 2450, 1921, 737
961, 1854, 1445, 1143, 2071
962, 552, 587, 1980, 581
963, 1199, 1293, 347, 274
964, 1718, 1293, 1199, 1790
965, 1292, 1601, 1293, 1718
966, 1597, 269, 351, 1506
967, 1737, 2100, 1155, 784
968, 789, 776, 1940, 2270
969, 1827, 2452, 707, 2232
970, 1610, 1828, 705, 1876
971, 2492, 685, 2291, 1414
972, 929, 634, 697, 710
973, 1428, 1923, 2298, 2299
974, 1862, 1032, 1015, 2426
975, 703, 1550, 946, 1865
976, 660, 1758, 2151, 2157
977, 721, 1310, 1870, 1867
978, 1867, 1870, 1868, 713
979, 1870, 1869, 712, 1868
980, 1310, 720, 1869, 1870
981, 2214, 805, 1852, 2007
982, 846, 2312, 1290, 1589
983, 1957, 969, 846, 2392
984, 1306, 1982, 563, 1082
985, 1707, 104, 114, 1729
986, 2452, 1861, 1864, 694
987, 1875, 1611, 1283, 2074
988, 831, 2053, 2366, 2365
989, 840, 1246, 1066, 2427
990, 2014, 1223, 838, 2334
991, 1366, 1294, 1717, 962
992, 268, 1879, 1763, 353
993, 1879, 1200, 525, 1763
994, 528, 2501, 1294, 1366
995, 2554, 2212, 880, 2201
996, 1727, 657, 1330, 2344
997, 1972, 2181, 2528, 2399
998, 641, 655, 1975, 1831
999, 2022, 2174, 2196, 2173
1000, 1084, 924, 926, 2109
1001, 1947, 1886, 2140, 2463
1002, 2462, 1344, 814, 2314
1003, 2015, 308, 312, 843
1004, 817, 1396, 848, 1885
1005, 911, 1889, 1890, 1887
1006, 1887, 1890, 1888, 912
1007, 1890, 1300, 907, 1888
1008, 1889, 909, 1300, 1890
1009, 335, 1317, 1280, 285
1010, 331, 1514, 777, 289
1011, 330, 1216, 1217, 290
1012, 286, 2486, 1317, 335
1013, 2297, 796, 2246, 788
1014, 2467, 1738, 743, 2370
1015, 2353, 519, 2035, 772
1016, 785, 2518, 1990, 779
1017, 2293, 625, 1953, 649
1018, 2399, 2528, 1043, 2134
1019, 668, 2231, 2229, 686
1020, 1459, 673, 1050, 2055
1021, 1063, 2480, 1521, 1523
1022, 719, 2582, 2479, 676
1023, 711, 1247, 1903, 1902
1024, 1902, 1903, 1160, 714
1025, 1903, 1867, 713, 1160
1026, 1247, 721, 1867, 1903
1027, 530, 761, 1452, 529
1028, 1904, 1367, 1702, 2472
1029, 2178, 278, 342, 984
1030, 2520, 943, 1406, 2179
1031, 1402, 2482, 1698, 1262
1032, 2624, 2630, 2348, 979
1033, 1525, 2010, 500, 1524
1034, 1983, 1699, 252, 368
1035, 2475, 155, 465, 2389
1036, 901, 2402, 1359, 864
1037, 1040, 1358, 2388, 1516
1038, 910, 1498, 2391, 2129
1039, 687, 1363, 1913, 1911
1040, 1911, 1913, 1912, 691
1041, 1913, 1769, 690, 1912
1042, 1363, 688, 1769, 1913
1043, 2127, 2267, 2266, 2126
1044, 2331, 1808, 1212, 612
1045, 625, 1846, 1435, 1953
1046, 2126, 2266, 1053, 2360
1047, 1216, 775, 778, 1217
1048, 1236, 1237, 1239, 2289
1049, 751, 1892, 1915, 2284
1050, 1302, 954, 2372, 1132
1051, 621, 220, 400, 934
1052, 1724, 1287, 2521, 1725
1053, 1131, 619, 1274, 1276
1054, 1712, 1766, 1686, 538
1055, 2539, 2260, 2491, 2555
1056, 1832, 894, 2445, 1778
1057, 2431, 2327, 1205, 1103
1058, 2308, 1971, 2112, 1540
1059, 1753, 738, 1865, 2136
1060, 2356, 726, 1977, 702
1061, 1254, 1006, 364, 257
1062, 1242, 373, 248, 2033
1063, 1925, 1028, 7, 100
1064, 1924, 487, 1028, 1925
1065, 1049, 2505, 1966, 1965
1066, 642, 1962, 1335, 1426
1067, 2150, 409, 212, 656
1068, 1206, 2384, 2531, 2113
1069, 1295, 1863, 709, 693
1070, 1281, 1826, 2255, 1014
1071, 705, 693, 2374, 708
1072, 361, 1755, 1930, 259
1073, 259, 1930, 1480, 362
1074, 1930, 1151, 573, 1480
1075, 1755, 506, 1151, 1930
1076, 1793, 2623, 1842, 547
1077, 602, 2507, 1372, 1933
1078, 2282, 547, 1981, 1979
1079, 1162, 85, 97, 2516
1080, 502, 358, 263, 1424
1081, 1191, 96, 85, 1162
1082, 1027, 1163, 264, 356
1083, 1687, 1157, 1068, 2252
1084, 880, 1713, 2572, 2536
1085, 886, 1835, 1937, 1112
1086, 1112, 1937, 1810, 682
1087, 1937, 1608, 679, 1810
1088, 1835, 881, 1608, 1937
1089, 504, 1756, 1938, 1380
1090, 2585, 1192, 95, 84
1091, 1425, 1934, 1762, 524
1092, 1756, 360, 261, 1938
1093, 2409, 2410, 753, 2285
1094, 288, 2285, 756, 333
1095, 998, 1513, 1940, 776
1096, 997, 2411, 2302, 1277
1097, 2621, 526, 1789, 528
1098, 492, 1718, 1790, 982
1099, 2621, 2476, 78, 90
1100, 1090, 2413, 2414, 2297
1101, 772, 2035, 1047, 1656
1102, 2311, 1025, 2309, 533
1103, 1438, 809, 1388, 2333
1104, 2063, 2329, 2045, 2097
1105, 1959, 834, 837, 1632
1106, 1744, 1949, 1639, 1821
1107, 1606, 1459, 2055, 1949
1108, 1605, 182, 438, 985
1109, 513, 183, 437, 2510
1110, 678, 1488, 1952, 1812
1111, 1812, 1952, 1016, 683
1112, 1952, 1951, 681, 1016
1113, 1488, 680, 1951, 1952
1114, 1131, 629, 1107, 619
1115, 1107, 2373, 952, 1128
1116, 1618, 1117, 858, 853
1117, 1956, 598, 1371, 1356
1118, 1449, 1230, 1993, 1146
1119, 1004, 1054, 2281, 548
1120, 613, 1464, 2003, 2004
1121, 1877, 849, 1245, 2163
1122, 2265, 484, 137, 1224
1123, 2314, 814, 310, 486
1124, 1444, 1831, 1728, 1104
1125, 1205, 1927, 2180, 1103
1126, 1881, 1848, 655, 641
1127, 1752, 665, 2117, 666
1128, 1964, 2439, 2386, 950
1129, 2439, 555, 1138, 2386
1130, 1854, 576, 1963, 936
1131, 587, 1979, 1981, 1980
1132, 974, 1468, 185, 435
1133, 1048, 677, 515, 1663
1134, 1966, 1902, 714, 1965
1135, 1573, 711, 1902, 1966
1136, 2412, 2274, 1501, 2544
1137, 1970, 1969, 786, 1968
1138, 1612, 800, 1969, 1970
1139, 2123, 2357, 1542, 2473
1140, 627, 1434, 1954, 954
1141, 1974, 644, 659, 643
1142, 2020, 1728, 646, 1593
1143, 2396, 2159, 1753, 2040
1144, 1335, 1759, 1442, 1426
1145, 947, 2102, 732, 1751
1146, 2350, 2473, 1334, 2104
1147, 1992, 1575, 384, 237
1148, 549, 1654, 2318, 1056
1149, 2071, 1143, 1144, 1988
1150, 576, 588, 988, 2234
1151, 563, 1006, 1254, 1252
1152, 994, 2625, 1982, 1306
1153, 1082, 563, 1252, 2095
1154, 2629, 980, 1008, 1696
1155, 1085, 1516, 901, 1814
1156, 1299, 1815, 160, 460
1157, 2022, 2173, 1638, 903
1158, 2089, 2437, 555, 2439
1159, 1420, 1142, 2041, 2534
1160, 988, 584, 1256, 583
1161, 582, 583, 1987, 553
1162, 785, 773, 2032, 2518
1163, 1580, 1991, 1385, 517
1164, 1991, 1989, 516, 1385
1165, 1692, 1023, 518, 1723
1166, 602, 1933, 2282, 595
1167, 1533, 1309, 613, 1463
1168, 1229, 2523, 2507, 602
1169, 1146, 1993, 1806, 1575
1170, 1994, 2522, 1631, 1630
1171, 2602, 2183, 2131, 2601
1172, 1766, 1486, 2261, 1686
1173, 1342, 2192, 1233, 1430
1174, 2296, 791, 2101, 2380
1175, 1739, 1894, 1339, 2546
1176, 2186, 747, 748, 773
1177, 2378, 746, 1943, 1156
1178, 858, 2342, 1116, 861
1179, 2558, 875, 1749, 2456
1180, 2084, 2091, 2235, 1083
1181, 1095, 618, 2294, 1716
1182, 1097, 605, 1714, 1093
1183, 608, 612, 1309, 1533
1184, 612, 1212, 611, 1309
1185, 1822, 1440, 1439, 855
1186, 1123, 831, 2365, 1878
1187, 2148, 1837, 815, 1111
1188, 829, 1244, 2478, 810
1189, 1943, 782, 321, 300
1190, 2270, 1940, 775, 1320
1191, 2377, 478, 143, 1374
1192, 1823, 1632, 144, 476
1193, 1838, 1958, 1061, 2264
1194, 850, 2524, 1109, 839
1195, 1708, 1696, 1240, 1697
1196, 1510, 2444, 367, 254
1197, 733, 2396, 2325, 728
1198, 1962, 1352, 1329, 1335
1199, 1328, 1760, 724, 2013
1200, 1122, 2307, 415, 206
1201, 1840, 2435, 2215, 1246
1202, 1885, 1503, 2099, 813
1203, 1289, 2141, 1650, 969
1204, 923, 2017, 2018, 2016
1205, 2016, 2018, 1700, 541
1206, 2018, 1565, 545, 1700
1207, 2017, 544, 1565, 2018
1208, 2531, 659, 407, 214
1209, 1898, 403, 218, 617
1210, 1593, 1594, 1898, 624
1211, 1426, 1442, 1226, 1227
1212, 99, 88, 2021, 1645
1213, 1645, 2021, 1150, 506
1214, 2021, 1029, 570, 1150
1215, 88, 7, 1029, 2021
1216, 2129, 2391, 2469, 908
1217, 1333, 2065, 935, 865
1218, 1910, 860, 157, 463
1219, 1411, 1819, 973, 1410
1220, 1048, 1663, 2480, 2169
1221, 1948, 1640, 2026, 2025
1222, 2581, 718, 672, 1522
1223, 810, 2478, 1141, 1785
1224, 2442, 780, 296, 324
1225, 1090, 1998, 2459, 2413
1226, 1997, 1045, 770, 2031
1227, 1403, 1730, 1304, 2630
1228, 1243, 558, 1906, 1007
1229, 2347, 1925, 100, 110
1230, 2269, 1945, 2375, 1001
1231, 2340, 1455, 1340, 1627
1232, 1896, 1723, 518, 2379
1233, 914, 2038, 2039, 2036
1234, 2036, 2039, 2037, 915
1235, 2039, 1621, 913, 2037
1236, 2038, 906, 1621, 2039
1237, 733, 2133, 2159, 2396
1238, 1540, 1754, 1352, 1962
1239, 2328, 660, 2157, 1392
1240, 1865, 946, 2125, 2136
1241, 790, 2188, 2408, 2454
1242, 1155, 2538, 2296, 1089
1243, 1500, 1657, 2378, 2274
1244, 1667, 581, 578, 1560
1245, 1576, 1577, 1544, 989
1246, 1445, 1986, 1420, 1143
1247, 912, 1888, 2043, 2042
1248, 2042, 2043, 2038, 914
1249, 2043, 1208, 906, 2038
1250, 1888, 907, 1208, 2043
1251, 1223, 1398, 2511, 824
1252, 1801, 1872, 138, 482
1253, 814, 2046, 9, 310
1254, 2142, 835, 2240, 806
1255, 1587, 811, 2394, 812
1256, 1397, 314, 307, 807
1257, 488, 1187, 2050, 1682
1258, 1682, 2050, 2048, 510
1259, 2050, 2049, 636, 2048
1260, 1187, 489, 2049, 2050
1261, 2370, 743, 1087, 1894
1262, 2519, 2370, 1894, 1739
1263, 1967, 2189, 747, 2186
1264, 787, 744, 794, 746
1265, 2460, 1651, 1288, 830
1266, 2226, 828, 2377, 833
1267, 2427, 1066, 823, 2147
1268, 824, 2054, 2532, 535
1269, 2056, 1325, 1327, 1326
1270, 1641, 722, 1409, 2219
1271, 669, 2225, 1744, 722
1272, 373, 1242, 2420, 247
1273, 980, 371, 250, 1008
1274, 575, 2347, 110, 101
1275, 979, 2348, 366, 255
1276, 489, 1393, 2062, 2049
1277, 2049, 2062, 2060, 636
1278, 2062, 2061, 633, 2060
1279, 1393, 490, 2061, 2062
1280, 2427, 2147, 2524, 850
1281, 1852, 1957, 2392, 1418
1282, 833, 2377, 1374, 2030
1283, 904, 1618, 2303, 1882
1284, 1814, 901, 864, 862
1285, 926, 2068, 2069, 2067
1286, 2067, 2069, 2017, 923
1287, 2069, 1568, 544, 2017
1288, 2068, 542, 1568, 2069
1289, 915, 2037, 2070, 1148
1290, 1148, 2070, 1777, 917
1291, 2070, 1636, 916, 1777
1292, 2037, 913, 1636, 2070
1293, 578, 1545, 1422, 1560
1294, 490, 1537, 2073, 2061
1295, 2061, 2073, 944, 633
1296, 697, 1033, 1032, 1036
1297, 1537, 509, 2072, 2073
1298, 965, 1827, 2232, 1015
1299, 694, 1864, 1297, 1298
1300, 2075, 695, 2272, 1826
1301, 799, 1796, 2077, 2076
1302, 2076, 2077, 1775, 798
1303, 2077, 1670, 532, 1775
1304, 1796, 531, 1670, 2077
1305, 786, 1969, 2079, 2078
1306, 2078, 2079, 1781, 801
1307, 2079, 1652, 802, 1781
1308, 1969, 800, 1652, 2079
1309, 754, 1578, 2083, 2080
1310, 2080, 2083, 2081, 757
1311, 2083, 2082, 758, 2081
1312, 1578, 755, 2082, 2083
1313, 2091, 1493, 1332, 1041
1314, 1084, 2109, 827, 2526
1315, 2543, 2138, 2139, 1115
1316, 2389, 465, 156, 2502
1317, 1771, 704, 1875, 1013
1318, 2085, 2086, 1847, 701
1319, 2086, 1665, 703, 1847
1320, 965, 2418, 2256, 1827
1321, 542, 2068, 2088, 1598
1322, 1598, 2088, 2087, 543
1323, 2088, 957, 925, 2087
1324, 2068, 926, 957, 2088
1325, 938, 1988, 1446, 1668
1326, 2234, 582, 2089, 2385
1327, 990, 966, 968, 937
1328, 586, 1423, 1421, 579
1329, 2023, 468, 153, 1804
1330, 1476, 471, 150, 1494
1331, 863, 1333, 865, 2237
1332, 720, 1658, 2093, 1869
1333, 1869, 2093, 2092, 712
1334, 2093, 1911, 691, 2092
1335, 1658, 687, 1911, 2093
1336, 1982, 1907, 1006, 563
1337, 1707, 1729, 497, 571
1338, 2095, 2094, 487, 1924
1339, 1252, 572, 2094, 2095
1340, 2045, 2461, 135, 485
1341, 1947, 2463, 1587, 2047
1342, 1738, 1860, 1660, 743
1343, 779, 1990, 2268, 2100
1344, 1614, 2544, 319, 302
1345, 2357, 2118, 633, 1542
1346, 646, 1975, 1429, 1443
1347, 1133, 656, 1726, 1976
1348, 1378, 1559, 418, 203
1349, 585, 1460, 2107, 1987
1350, 1987, 2107, 2105, 553
1351, 2107, 2106, 554, 2105
1352, 1460, 557, 2106, 2107
1353, 822, 2110, 2111, 2108
1354, 2108, 2111, 2067, 923
1355, 2111, 2109, 926, 2067
1356, 2110, 827, 2109, 2111
1357, 651, 2132, 1390, 2323
1358, 1390, 511, 1044, 638
1359, 1429, 1134, 405, 216
1360, 2102, 1866, 1122, 732
1361, 633, 2118, 2119, 2060
1362, 2060, 2119, 2116, 636
1363, 2119, 2117, 639, 2116
1364, 2118, 666, 2117, 2119
1365, 2484, 993, 2160, 2551
1366, 2120, 2122, 1689, 507
1367, 2122, 1472, 494, 1689
1368, 2121, 495, 1472, 2122
1369, 1977, 723, 417, 204
1370, 2151, 2299, 1978, 1856
1371, 2326, 2345, 661, 2012
1372, 953, 2339, 976, 1844
1373, 2583, 1437, 1285, 2530
1374, 1274, 1520, 626, 2294
1375, 648, 2277, 2278, 1846
1376, 872, 1590, 2594, 493
1377, 1527, 1158, 2168, 1099
1378, 2430, 1491, 1232, 2574
1379, 895, 1018, 1118, 884
1380, 1920, 1377, 2115, 2327
1381, 1754, 729, 1427, 1328
1382, 1377, 654, 1456, 2115
1383, 1761, 1551, 736, 1620
1384, 2470, 951, 2477, 949
1385, 2550, 2470, 949, 546
1386, 2550, 2144, 2218, 2470
1387, 2477, 2137, 936, 937
1388, 2052, 2027, 2142, 2028
1389, 2014, 2333, 1398, 1223
1390, 852, 1476, 1494, 2090
1391, 1837, 1871, 939, 815
1392, 1376, 1135, 474, 147
1393, 1196, 2143, 1072, 536
1394, 1885, 848, 816, 1503
1395, 2461, 2314, 486, 135
1396, 2552, 2120, 2259, 2197
1397, 550, 2488, 551, 991
1398, 2145, 1672, 495, 2121
1399, 940, 825, 2471, 1260
1400, 2147, 823, 1072, 2143
1401, 487, 2094, 2149, 1030
1402, 1030, 2149, 1152, 570
1403, 2149, 1479, 573, 1152
1404, 2094, 572, 1479, 2149
1405, 2323, 1390, 638, 658
1406, 977, 2354, 2434, 2358
1407, 1329, 2326, 2012, 948
1408, 2396, 2040, 1961, 2325
1409, 509, 1675, 2152, 2072
1410, 696, 2152, 514, 929
1411, 964, 2465, 514, 928
1412, 927, 2494, 2291, 685
1413, 2153, 2361, 2358, 2506
1414, 632, 631, 1053, 2199
1415, 2305, 279, 341, 1704
1416, 763, 65, 75, 760
1417, 1406, 943, 2154, 1408
1418, 1091, 345, 276, 2556
1419, 2346, 2306, 701, 734
1420, 2180, 1444, 1104, 1830
1421, 1005, 992, 550, 993
1422, 1841, 2336, 1931, 1450
1423, 2198, 2207, 2162, 992
1424, 2551, 2160, 604, 1003
1425, 1633, 141, 479, 1492
1426, 849, 1649, 841, 1245
1427, 838, 535, 1878, 2139
1428, 842, 480, 141, 1633
1429, 877, 168, 452, 1009
1430, 1076, 1171, 1012, 2587
1431, 2515, 2193, 1010, 1170
1432, 1557, 2196, 2174, 920
1433, 2582, 1063, 2056, 2479
1434, 1522, 672, 673, 1459
1435, 1926, 1606, 2225, 716
1436, 717, 669, 2505, 1049
1437, 1114, 931, 889, 2579
1438, 2212, 1235, 1713, 880
1439, 2182, 1833, 879, 899
1440, 2522, 2573, 1101, 1342
1441, 2324, 1855, 1844, 976
1442, 1850, 2114, 2450, 662
1443, 2153, 2425, 1220, 2361
1444, 2197, 632, 2199, 2200
1445, 1705, 1091, 2556, 1323
1446, 2177, 2179, 2080, 757
1447, 2179, 1406, 754, 2080
1448, 1321, 66, 76, 764
1449, 1855, 2277, 648, 1844
1450, 2428, 2323, 658, 664
1451, 2431, 1103, 1973, 2135
1452, 1068, 888, 2576, 1629
1453, 2604, 2580, 867, 2603
1454, 2611, 1687, 2252, 2610
1455, 891, 1678, 2564, 2330
1456, 2185, 2422, 819, 2286
1457, 820, 2441, 2368, 2287
1458, 820, 821, 1109, 1260
1459, 2514, 2185, 2286, 818
1460, 1411, 1410, 1901, 677
1461, 715, 1950, 1607, 674
1462, 972, 715, 674, 970
1463, 1612, 2412, 2544, 1614
1464, 1400, 2341, 1000, 1581
1465, 1691, 740, 741, 2495
1466, 1586, 1100, 922, 866
1467, 2554, 2194, 1431, 2212
1468, 2589, 876, 893, 2588
1469, 1678, 918, 898, 2564
1470, 1799, 869, 918, 1678
1471, 2598, 2579, 2367, 2597
1472, 2172, 2614, 1799, 1119
1473, 1919, 1148, 917, 2593
1474, 629, 1725, 2373, 1107
1475, 2144, 2551, 1003, 2218
1476, 992, 2162, 2488, 550
1477, 631, 1052, 2360, 1053
1478, 2557, 2567, 1173, 1833
1479, 1553, 892, 1075, 1554
1480, 2182, 899, 914, 2036
1481, 675, 1412, 715, 972
1482, 2510, 437, 184, 1950
1483, 673, 970, 674, 1050
1484, 975, 1948, 2025, 2205
1485, 606, 2206, 2207, 2198
1486, 2207, 2001, 607, 2162
1487, 2552, 2121, 2122, 2120
1488, 2206, 605, 2001, 2207
1489, 868, 2577, 2527, 1765
1490, 1686, 2209, 1710, 538
1491, 2201, 880, 2536, 2130
1492, 1119, 1799, 1678, 891
1493, 1075, 866, 174, 446
1494, 2329, 845, 2461, 2045
1495, 1503, 1947, 2047, 2099
1496, 1776, 2213, 844, 1773
1497, 1838, 836, 1062, 1958
1498, 1071, 2216, 2110, 822
1499, 2216, 2215, 827, 2110
1500, 2618, 1137, 2310, 2029
1501, 2318, 1932, 1228, 598
1502, 577, 2322, 1979, 587
1503, 1986, 552, 581, 1667
1504, 2552, 2197, 2200, 1005
1505, 1951, 680, 1820, 2170
1506, 1410, 1457, 668, 1901
1507, 2219, 1409, 187, 433
1508, 676, 2479, 2220, 987
1509, 1626, 789, 2270, 2487
1510, 1455, 1399, 774, 1340
1511, 1692, 1021, 1691, 1023
1512, 971, 670, 1743, 2026
1513, 1901, 668, 686, 986
1514, 1489, 440, 181, 1469
1515, 1469, 181, 439, 491
1516, 1573, 1641, 2219, 1574
1517, 1266, 1265, 1640, 1948
1518, 2204, 513, 2510, 1412
1519, 851, 1375, 1440, 1822
1520, 2054, 1373, 849, 1877
1521, 2366, 854, 1493, 955
1522, 671, 2230, 2231, 2228
1523, 973, 717, 1049, 2239
1524, 670, 491, 1605, 1743
1525, 2230, 692, 2229, 2231
1526, 963, 685, 2492, 2500
1527, 1861, 1876, 1929, 1864
1528, 964, 1688, 1662, 515
1529, 1826, 2272, 689, 2255
1530, 1964, 950, 966, 990
1531, 588, 938, 584, 988
1532, 2237, 865, 1499, 2000
1533, 2236, 1085, 1814, 1816
1534, 2387, 466, 155, 2475
1535, 1457, 2239, 2440, 2228
1536, 1949, 2055, 974, 1639
1537, 2615, 1099, 2527, 2577
1538, 2052, 2029, 2008, 2027
1539, 1111, 815, 834, 1959
1540, 758, 2243, 2244, 2241
1541, 1408, 2154, 338, 283
1542, 2410, 1892, 751, 753
1543, 1316, 1914, 748, 2363
1544, 519, 2546, 2352, 2035
1545, 2548, 1991, 1580, 2190
1546, 2548, 2545, 1989, 1991
1547, 2495, 741, 2245, 2504
1548, 799, 2076, 2248, 1124
1549, 1124, 2248, 2246, 796
1550, 2248, 2247, 797, 2246
1551, 2076, 798, 2247, 2248
1552, 2251, 2399, 2134, 2397
1553, 1971, 2398, 1518, 2112
1554, 2132, 1271, 511, 1390
1555, 2354, 977, 651, 1042
1556, 1767, 2566, 1341, 2569
1557, 539, 540, 2578, 2559
1558, 2131, 1113, 1120, 1079
1559, 869, 872, 493, 918
1560, 1907, 1908, 365, 256
1561, 1982, 2625, 1908, 1907
1562, 2542, 1624, 2011, 568
1563, 1908, 979, 255, 365
1564, 2256, 1610, 1876, 1861
1565, 593, 1795, 1604, 2349
1566, 2523, 1450, 1231, 2507
1567, 1955, 1145, 1003, 604
1568, 1576, 1842, 596, 1577
1569, 541, 1175, 2258, 2016
1570, 2016, 2258, 2108, 923
1571, 2258, 1070, 822, 2108
1572, 1175, 536, 1070, 2258
1573, 507, 1179, 2259, 2120
1574, 2160, 991, 551, 604
1575, 2199, 1053, 2266, 606
1576, 2200, 2199, 606, 2198
1577, 1172, 1599, 543, 888
1578, 2588, 893, 930, 2587
1579, 2124, 1552, 1559, 1378
1580, 2324, 976, 2432, 1922
1581, 1018, 2211, 2596, 1118
1582, 1011, 1935, 1995, 2210
1583, 870, 1630, 448, 173
1584, 2212, 1431, 1832, 1235
1585, 1589, 1290, 1872, 1801
1586, 1588, 1289, 969, 1957
1587, 2524, 940, 1260, 1109
1588, 1958, 2213, 1776, 1061
1589, 1285, 1127, 621, 628
1590, 2266, 2267, 2206, 606
1591, 1714, 605, 2206, 2267
1592, 1789, 527, 1506, 961
1593, 1369, 346, 275, 1596
1594, 943, 1549, 768, 2154
1595, 1340, 774, 1740, 744
1596, 2222, 1734, 522, 2364
1597, 2518, 2032, 789, 1626
1598, 1088, 520, 2005, 2051
1599, 793, 329, 292, 1996
1600, 745, 2051, 1500, 783
1601, 1996, 292, 328, 1478
1602, 960, 1548, 983, 2455
1603, 766, 64, 74, 1368
1604, 965, 2492, 1414, 2418
1605, 2500, 2492, 965, 1033
1606, 2418, 1414, 2075, 2273
1607, 707, 2452, 694, 2419
1608, 2369, 2447, 2189, 1967
1609, 2454, 2408, 519, 2353
1610, 2408, 1739, 2546, 519
1611, 639, 1044, 2276, 2116
1612, 2116, 2276, 2048, 636
1613, 2276, 1184, 510, 2048
1614, 1044, 511, 1184, 2276
1615, 2468, 933, 2339, 953
1616, 616, 1276, 618, 2383
1617, 2343, 211, 409, 2150
1618, 712, 2279, 2280, 1868
1619, 1868, 2280, 1159, 713
1620, 2280, 2230, 671, 1159
1621, 2279, 692, 2230, 2280
1622, 1577, 596, 383, 238
1623, 2623, 1146, 1575, 1992
1624, 1604, 232, 388, 1102
1625, 1356, 1371, 2622, 599
1626, 752, 1941, 1891, 750
1627, 2290, 1543, 2242, 1916
1628, 756, 752, 750, 2449
1629, 1237, 1891, 1939, 1239
1630, 781, 1997, 2031, 1046
1631, 2287, 2368, 2371, 1073
1632, 1074, 2471, 1261, 1259
1633, 2285, 753, 752, 756
1634, 761, 767, 1549, 1452
1635, 777, 1916, 2410, 2409
1636, 2411, 1236, 2289, 2288
1637, 1929, 708, 1413, 1415
1638, 928, 1675, 1677, 1676
1639, 2255, 689, 1771, 1013
1640, 2134, 1043, 665, 1752
1641, 624, 1898, 617, 1129
1642, 1732, 627, 954, 1302
1643, 1083, 904, 1882, 924
1644, 853, 858, 861, 1495
1645, 2268, 781, 1046, 2538
1646, 1657, 787, 746, 2378
1647, 792, 2467, 2370, 2519
1648, 1002, 819, 2422, 1555
1649, 1542, 633, 944, 663
1650, 2397, 2134, 1752, 2481
1651, 2336, 597, 2319, 2535
1652, 600, 1147, 1603, 597
1653, 1933, 1372, 1449, 1793
1654, 1808, 394, 227, 1212
1655, 2243, 2288, 1512, 2244
1656, 1277, 2302, 2082, 755
1657, 2302, 2243, 758, 2082
1658, 750, 1891, 1237, 1893
1659, 1515, 2405, 1910, 2024
1660, 2303, 905, 1078, 925
1661, 1041, 1647, 1333, 863
1662, 1497, 1040, 1516, 1085
1663, 1549, 767, 1453, 768
1664, 1368, 74, 65, 763
1665, 766, 1905, 1405, 765
1666, 2271, 769, 1322, 762
1667, 2013, 724, 2345, 2326
1668, 1392, 2157, 1866, 2102
1669, 738, 1847, 703, 1865
1670, 1427, 1642, 2123, 739
1671, 2494, 2233, 695, 2291
1672, 927, 686, 2229, 2494
1673, 1828, 1295, 693, 705
1674, 532, 1397, 807, 2496
1675, 1871, 833, 2030, 939
1676, 1416, 812, 1851, 534
1677, 2312, 1800, 1872, 1290
1678, 805, 1588, 1957, 1852
1679, 1074, 1259, 1547, 1546
1680, 1245, 841, 145, 475
1681, 2333, 1388, 1504, 1398
1682, 1776, 2311, 533, 2064
1683, 695, 2233, 2317, 2272
1684, 2272, 2317, 1770, 689
1685, 2317, 2316, 690, 1770
1686, 2233, 692, 2316, 2317
1687, 1102, 388, 233, 590
1688, 1004, 1955, 2300, 1054
1689, 1791, 2161, 607, 2002
1690, 1004, 548, 2523, 1229
1691, 2257, 595, 2322, 2321
1692, 576, 2234, 2385, 1963
1693, 1988, 1144, 1448, 1446
1694, 728, 2325, 2457, 1643
1695, 1225, 1204, 1441, 2458
1696, 1134, 640, 215, 405
1697, 1551, 201, 419, 736
1698, 2307, 2103, 205, 415
1699, 664, 658, 2158, 730
1700, 2040, 1761, 1620, 1961
1701, 1849, 635, 947, 1541
1702, 2097, 136, 484, 2265
1703, 2046, 2393, 134, 9
1704, 1632, 837, 477, 144
1705, 1839, 1801, 482, 139
1706, 1067, 2182, 2036, 915
1707, 2594, 1433, 2586, 2595
1708, 899, 879, 2404, 2451
1709, 2536, 2572, 2615, 921
1710, 920, 2174, 1173, 2567
1711, 2445, 877, 1009, 2263
1712, 2192, 2539, 2555, 1233
1713, 1710, 166, 454, 1935
1714, 1747, 1097, 1093, 1095
1715, 1213, 1748, 2335, 1211
1716, 1840, 2334, 2138, 2435
1717, 806, 2240, 1837, 2148
1718, 533, 2309, 2509, 1648
1719, 2027, 2008, 1136, 1562
1720, 1806, 2283, 385, 236
1721, 1955, 604, 551, 2300
1722, 619, 1273, 1520, 1274
1723, 1897, 1436, 624, 1129
1724, 2526, 827, 2215, 2435
1725, 1116, 1563, 2469, 2391
1726, 2456, 1749, 684, 1491
1727, 934, 400, 221, 1106
1728, 1287, 2530, 2292, 2521
1729, 2127, 2351, 1714, 2267
1730, 1693, 2504, 2364, 2547
1731, 2221, 69, 60, 2423
1732, 1337, 1555, 742, 1318
1733, 1087, 1737, 784, 1086
1734, 919, 464, 157, 860
1735, 2019, 1104, 1728, 2020
1736, 1350, 1105, 1927, 1205
1737, 1550, 421, 200, 946
1738, 2012, 661, 208, 412
1739, 656, 212, 408, 1726
1740, 739, 2350, 667, 1760
1741, 667, 1391, 635, 1849
1742, 1698, 1525, 1524, 2485
1743, 1263, 569, 1404, 1699
1744, 2254, 499, 558, 1243
1745, 598, 1228, 2622, 1371
1746, 2301, 589, 603, 1230
1747, 1145, 2217, 2218, 1003
1748, 1033, 965, 1015, 1032
1749, 2457, 1121, 2124, 1960
1750, 736, 419, 202, 1379
1751, 2159, 734, 738, 1753
1752, 1097, 623, 2001, 605
1753, 1899, 1051, 630, 933
1754, 1436, 2020, 1593, 624
1755, 1213, 1211, 2002, 623
1756, 2546, 1339, 2006, 2352
1757, 1319, 1896, 2379, 792
1758, 1846, 2278, 2019, 1435
1759, 1042, 651, 2323, 2428
1760, 2528, 730, 2158, 1043
1761, 978, 2324, 1922, 650
1762, 1961, 1620, 727, 1121
1763, 1754, 1328, 2013, 1352
1764, 2125, 420, 201, 1551
1765, 2506, 2358, 2434, 508
1766, 2354, 637, 2175, 2434
1767, 2361, 1220, 512, 2359
1768, 2506, 508, 1052, 631
1769, 1627, 1340, 744, 787
1770, 1319, 792, 2519, 2188
1771, 1045, 1478, 2275, 770
1772, 1136, 2007, 847, 829
1773, 834, 2030, 1374, 837
1774, 2053, 1059, 854, 2366
1775, 830, 1288, 842, 1244
1776, 1291, 1838, 2264, 1438
1777, 1919, 1067, 915, 1148
1778, 1528, 2330, 1149, 2166
1779, 2183, 2565, 1113, 2131
1780, 1487, 2401, 2553, 2260
1781, 2245, 71, 62, 2222
1782, 2184, 2187, 2422, 2185
1783, 647, 402, 219, 1361
1784, 2468, 1731, 1899, 933
1785, 1361, 219, 401, 1127
1786, 1020, 986, 686, 927
1787, 2229, 692, 2233, 2494
1788, 2499, 710, 1035, 1034
1789, 1014, 2255, 1013, 1019
1790, 2100, 2268, 2538, 1155
1791, 1002, 788, 1024, 819
1792, 2487, 1944, 1154, 1454
1793, 2008, 2214, 2007, 1136
1794, 1504, 1110, 1065, 2227
1795, 1669, 1416, 534, 1802
1796, 1025, 2098, 2462, 845
1797, 1001, 1556, 1399, 1455
1798, 1944, 793, 1996, 1154
1799, 2375, 2371, 2341, 1400
1800, 569, 2628, 1251, 1404
1801, 1465, 2382, 2106, 557
1802, 2382, 2381, 554, 2106
1803, 1509, 1140, 995, 1241
1804, 645, 2293, 1108, 1845
1805, 622, 2583, 2530, 1287
1806, 1899, 2126, 2360, 1051
1807, 1975, 655, 1134, 1429
1808, 1726, 408, 213, 644
1809, 655, 1848, 640, 1134
1810, 654, 2308, 642, 699
1811, 1153, 577, 587, 552
1812, 2386, 981, 497, 950
1813, 1138, 556, 981, 2386
1814, 1083, 2235, 956, 904
1815, 1494, 150, 470, 1496
1816, 2443, 2023, 1804, 1563
1817, 859, 856, 1331, 2337
1818, 1985, 2446, 1497, 1803
1819, 2147, 2143, 940, 2524
1820, 815, 939, 2030, 834
1821, 1223, 824, 535, 838
1822, 1373, 2146, 1649, 849
1823, 2509, 2309, 2329, 2063
1824, 1775, 532, 2496, 1884
1825, 1884, 2496, 1060, 2164
1826, 1601, 2620, 348, 273
1827, 1719, 530, 529, 1367
1828, 766, 1368, 2455, 1905
1829, 657, 1389, 1133, 1330
1830, 2473, 1542, 663, 1334
1831, 661, 2355, 413, 208
1832, 653, 2251, 2398, 1920
1833, 978, 2135, 1855, 2324
1834, 2355, 1751, 207, 413
1835, 637, 2432, 2176, 2175
1836, 645, 1303, 625, 2293
1837, 1830, 1104, 2019, 2278
1838, 1043, 2158, 2503, 665
1839, 723, 1378, 203, 417
1840, 1936, 2515, 1170, 2512
1841, 2554, 2490, 1712, 2194
1842, 922, 870, 173, 447
1843, 2555, 2491, 170, 450
1844, 2569, 1341, 886, 1112
1845, 1529, 2400, 1487, 1711
1846, 2084, 2543, 1115, 955
1847, 2543, 2526, 2435, 2138
1848, 1804, 153, 467, 2390
1849, 1634, 1706, 1983, 1874
1850, 560, 2059, 996, 561
1851, 1466, 561, 1465, 1467
1852, 574, 370, 251, 1251
1853, 859, 1984, 910, 856
1854, 1816, 1815, 1299, 909
1855, 1803, 2236, 1889, 911
1856, 2467, 2369, 1967, 1738
1857, 2538, 1046, 791, 2296
1858, 2379, 518, 2447, 2369
1859, 753, 751, 1941, 752
1860, 2486, 999, 997, 1317
1861, 2302, 2411, 2288, 2243
1862, 289, 777, 2409, 332
1863, 1090, 2297, 788, 1002
1864, 2547, 2363, 748, 747
1865, 2548, 2190, 1021, 1692
1866, 1089, 2296, 2380, 771
1867, 1478, 328, 293, 2275
1868, 1126, 2414, 1782, 803
1869, 2414, 2413, 801, 1782
1870, 2035, 2352, 2362, 1047
1871, 2425, 1180, 1221, 1220
1872, 508, 2434, 2175, 2416
1873, 760, 1321, 1323, 523
1874, 2304, 1505, 1322, 769
1875, 1324, 67, 6, 1092
1876, 1695, 1694, 521, 942
1877, 700, 731, 663, 944
1878, 2273, 2075, 1826, 1281
1879, 558, 562, 1307, 1906
1880, 559, 1708, 1697, 2009
1881, 374, 1466, 1467, 246
1882, 1008, 250, 370, 574
1883, 2297, 2414, 1126, 796
1884, 1860, 2186, 773, 785
1885, 821, 2184, 2185, 2514
1886, 741, 61, 71, 2245
1887, 2274, 2378, 1156, 1501
1888, 1555, 2422, 2187, 742
1889, 1004, 1229, 2257, 1794
1890, 951, 967, 2137, 2477
1891, 2550, 1673, 1674, 1672
1892, 1286, 647, 1361, 1437
1893, 508, 2416, 2415, 1052
1894, 2175, 2176, 630, 2416
1895, 696, 2262, 731, 700
1896, 2306, 2426, 2085, 701
1897, 1019, 2074, 706, 1863
1898, 2465, 963, 2500, 634
1899, 1387, 2226, 833, 1871
1900, 820, 2287, 2184, 821
1901, 2264, 1061, 1137, 2618
1902, 1492, 479, 142, 828
1903, 1972, 650, 2429, 2181
1904, 2249, 637, 2354, 1042
1905, 1377, 1971, 2308, 654
1906, 1430, 1233, 171, 449
1907, 878, 1994, 1630, 870
1908, 2600, 1079, 1114, 2599
1909, 1592, 930, 2567, 2557
1910, 977, 2358, 2361, 2359
1911, 2135, 1973, 2277, 1855
1912, 653, 978, 650, 1972
1913, 1921, 1031, 2306, 2346
1914, 2345, 1541, 2355, 661
1915, 2350, 2104, 1391, 667
1916, 2403, 1243, 1007, 2629
1917, 2625, 2624, 979, 1908
1918, 1307, 2033, 1139, 1906
1919, 2153, 2259, 1179, 2425
1920, 2153, 632, 2197, 2259
1921, 1540, 2112, 729, 1754
1922, 698, 2262, 2114, 1850
1923, 1246, 2215, 2216, 1066
1924, 535, 2532, 1123, 1878
1925, 826, 2389, 2502, 1357
1926, 924, 1882, 957, 926
1927, 2059, 1241, 2421, 996
1928, 2631, 2627, 102, 112
1929, 1262, 1698, 2485, 2433
1930, 1508, 2254, 1243, 2403
1931, 554, 2381, 2438, 2105
1932, 2105, 2438, 2437, 553
1933, 2057, 1509, 1241, 2059
1934, 1242, 2058, 560, 2420
1935, 1963, 990, 937, 936
1936, 2385, 2089, 2439, 1964
1937, 580, 2137, 967, 1858
1938, 671, 2228, 2440, 1161
1939, 1161, 2440, 1965, 714
1940, 2225, 1606, 1949, 1744
1941, 491, 439, 182, 1605
1942, 2364, 522, 2363, 2547
1943, 2441, 1546, 516, 1989
1944, 828, 142, 478, 2377
1945, 2287, 1073, 2187, 2184
1946, 771, 2380, 295, 325
1947, 2545, 2368, 2441, 1989
1948, 783, 1500, 2274, 2412
1949, 1357, 2502, 919, 2405
1950, 2090, 1494, 1496, 1647
1951, 2406, 2022, 903, 2066
1952, 862, 864, 159, 461
1953, 2009, 1697, 569, 1263
1954, 2436, 498, 2010, 1525
1955, 1524, 500, 564, 499
1956, 2541, 103, 113, 2034
1957, 2194, 1011, 2210, 1431
1958, 2260, 2553, 1780, 2491
1959, 1341, 1853, 1834, 886
1960, 1768, 165, 455, 2209
1961, 908, 2469, 2390, 1354
1962, 1816, 1814, 862, 1815
1963, 1353, 1355, 1909, 1564
1964, 1803, 1497, 1085, 2236
1965, 1023, 1691, 2495, 1022
1966, 1021, 2423, 740, 1691
1967, 2380, 2101, 326, 295
1968, 757, 2081, 2448, 2177
1969, 1323, 2556, 1703, 523
1970, 1451, 1584, 1904, 1695
1971, 2081, 758, 2241, 2448
1972, 749, 1316, 2363, 522
1973, 1317, 997, 1277, 1280
1974, 2289, 1239, 749, 1218
1975, 1218, 749, 522, 1735
1976, 737, 1921, 2346, 2133
1977, 1352, 2013, 2326, 1329
1978, 1620, 736, 1379, 727
1979, 2136, 2125, 1551, 1761
1980, 332, 2409, 2285, 288
1981, 2288, 2289, 1218, 1512
1982, 775, 1940, 1513, 778
1983, 1215, 1893, 999, 2486
1984, 1235, 890, 2575, 1713
1985, 885, 891, 2330, 1528
1986, 2451, 1887, 912, 2042
1987, 2404, 911, 1887, 2451
1988, 704, 1531, 1611, 1875
1989, 1863, 706, 1928, 709
1990, 2419, 694, 1298, 1296
1991, 1827, 2256, 1861, 2452
1992, 691, 1912, 2453, 2092
1993, 2092, 2453, 2279, 712
1994, 2453, 2316, 692, 2279
1995, 1912, 690, 2316, 2453
1996, 788, 2246, 797, 1024
1997, 1318, 742, 1945, 2269
1998, 1556, 1895, 790, 1399
1999, 768, 1453, 339, 282
2000, 1905, 2178, 984, 1405
2001, 1321, 764, 1705, 1323
2002, 2565, 2592, 2591, 1113
2003, 876, 1557, 920, 893
2004, 1354, 154, 466, 2387
2005, 918, 493, 537, 898
2006, 1857, 666, 2118, 2357
2007, 1391, 2328, 1392, 635
2008, 1619, 662, 737, 735
2009, 725, 1619, 1428, 1758
2010, 592, 1356, 599, 2283
2011, 591, 1655, 1654, 549
2012, 603, 1956, 1356, 592
2013, 590, 233, 387, 1932
2014, 1443, 1429, 216, 404
2015, 1105, 2344, 1225, 1825
2016, 2398, 2251, 2397, 1518
2017, 2413, 2459, 2078, 801
2018, 2459, 1968, 786, 2078
2019, 2362, 2295, 297, 323
2020, 611, 393, 228, 1464
2021, 1807, 2004, 229, 391
2022, 534, 1851, 1883, 1345
2023, 2313, 1111, 1959, 2619
2024, 2098, 2044, 1344, 2462
2025, 1396, 819, 1024, 848
2026, 1774, 1669, 1802, 1419
2027, 2146, 2313, 2619, 1649
2028, 1503, 816, 1886, 1947
2029, 2063, 2097, 2265, 2141
2030, 1800, 483, 138, 1872
2031, 2007, 1852, 1418, 847
2032, 1345, 1883, 309, 311
2033, 844, 2286, 819, 1396
2034, 2140, 798, 1775, 1884
2035, 2164, 1060, 2376, 811
2036, 1491, 684, 897, 1232
2037, 889, 2588, 2587, 1012
2038, 2571, 1798, 2196, 1557
2039, 1099, 2168, 2193, 2527
2040, 964, 1020, 963, 2465
2041, 964, 515, 986, 1020
2042, 892, 1586, 866, 1075
2043, 2579, 889, 1012, 2367
2044, 1101, 2466, 2192, 1342
2045, 782, 1741, 299, 321
2046, 744, 1740, 1661, 794
2047, 1722, 1742, 780, 2442
2048, 2339, 2176, 2432, 976
2049, 2293, 649, 622, 1108
2050, 1815, 862, 461, 160
2051, 903, 1638, 1999, 1984
2052, 861, 1116, 2391, 1498
2053, 2534, 2041, 1561, 1447
2054, 582, 553, 2437, 2089
2055, 496, 2549, 1733, 1720
2056, 940, 2143, 1196, 825
2057, 774, 2454, 2353, 1740
2058, 983, 343, 278, 2178
2059, 1942, 2417, 761, 530
2060, 1702, 1507, 2177, 2448
2061, 2133, 2346, 734, 2159
2062, 1758, 1428, 2299, 2151
2063, 735, 733, 728, 1923
2064, 644, 213, 407, 659
2065, 946, 200, 420, 2125
2066, 1733, 2549, 497, 1729
2067, 496, 968, 966, 2549
2068, 949, 2477, 937, 968
2069, 1128, 952, 620, 1130
2070, 626, 1520, 1098, 1275
2071, 2084, 1084, 2526, 2543
2072, 941, 1877, 2163, 1135
2073, 763, 760, 523, 960
2074, 1602, 1200, 1879, 1595
2075, 2501, 350, 271, 1294
2076, 1293, 1601, 273, 347
2077, 1038, 2395, 1039, 527
2078, 1665, 2419, 1296, 1666
2079, 2086, 707, 2419, 1665
2080, 2550, 1672, 2145, 2144
2081, 2071, 1988, 938, 588
2082, 951, 2217, 2424, 967
2083, 808, 1648, 1588, 805
2084, 2480, 1663, 1664, 1521
2085, 672, 972, 970, 673
2086, 1063, 1523, 1325, 2056
2087, 2224, 1926, 716, 1819
2088, 1457, 2228, 2231, 668
2089, 702, 1977, 204, 416
2090, 2327, 2115, 1350, 1205
2091, 2112, 1518, 2250, 729
2092, 2433, 1508, 559, 1624
2093, 2058, 1242, 2033, 1307
2094, 1624, 559, 2009, 2011
2095, 959, 958, 1369, 1596
2096, 764, 1324, 959, 1705
2097, 1942, 759, 2304, 2417
2098, 1900, 1266, 1948, 975
2099, 975, 2205, 675, 718
2100, 985, 438, 183, 513
2101, 2385, 1964, 990, 1963
2102, 583, 1256, 585, 1987
2103, 2234, 988, 583, 582
2104, 599, 2622, 386, 235
2105, 1005, 2200, 2198, 992
2106, 2552, 1005, 993, 2484
2107, 575, 1625, 1264, 2347
2108, 1007, 2533, 980, 2629
2109, 1906, 1139, 2533, 1007
2110, 1512, 1218, 1735, 521
2111, 1514, 2290, 1916, 777
2112, 999, 1236, 2411, 997
2113, 773, 748, 2407, 2032
2114, 1990, 1338, 781, 2268
2115, 775, 1216, 795, 1320
2116, 1575, 1806, 236, 384
2117, 993, 550, 991, 2160
2118, 1795, 389, 232, 1604
2119, 2034, 113, 104, 1707
2120, 1874, 1983, 368, 253
2121, 2631, 112, 103, 2541
2122, 684, 1936, 2512, 897
2123, 2194, 1712, 538, 1011
2124, 1631, 1430, 449, 172
2125, 1853, 895, 884, 1834
2126, 2602, 2601, 1767, 2580
2127, 1034, 1035, 1862, 1031
2128, 2273, 1281, 1828, 1610
2129, 1281, 1014, 1295, 1828
2130, 31, 38, 1157, 1687
2131, 2593, 917, 871, 2167
2132, 1629, 2576, 896, 540
2133, 928, 514, 2152, 1675
2134, 634, 2500, 1033, 697
2135, 2190, 1580, 1582, 2221
2136, 1742, 1089, 771, 780
2137, 1022, 1693, 2189, 2447
2138, 2309, 1025, 845, 2329
2139, 2047, 1587, 812, 1416
2140, 2497, 503, 502, 1424
2141, 1818, 1190, 1843, 501
2142, 1165, 1168, 94, 83
2143, 487, 1030, 2498, 1028
2144, 1028, 2498, 1029, 7
2145, 1030, 570, 1029, 2498
2146, 696, 700, 2072, 2152
2147, 1035, 1036, 1032, 1862
2148, 696, 929, 710, 2499
2149, 1015, 2232, 2085, 2426
2150, 2499, 1034, 2450, 2114
2151, 1275, 1098, 224, 396
2152, 601, 1308, 390, 231
2153, 1369, 1199, 274, 346
2154, 962, 1717, 349, 272
2155, 2620, 962, 272, 348
2156, 956, 2237, 2000, 1117
2157, 2065, 151, 469, 935
2158, 1495, 1999, 1638, 2338
2159, 638, 1044, 639, 2503
2160, 1960, 2124, 1378, 723
2161, 658, 638, 2503, 2158
2162, 2221, 1582, 59, 69
2163, 770, 2275, 2223, 932
2164, 791, 2191, 1946, 2101
2165, 1574, 2219, 433, 188
2166, 1064, 1458, 2171, 2203
2167, 680, 1489, 1469, 1820
2168, 619, 1107, 1128, 1273
2169, 2153, 2506, 631, 632
2170, 2416, 630, 1051, 2415
2171, 595, 2282, 1979, 2322
2172, 1004, 1794, 1145, 1955
2173, 2335, 610, 1603, 1147
2174, 854, 1059, 2508, 1057
2175, 1057, 2508, 1058, 852
2176, 1059, 855, 1058, 2508
2177, 812, 2394, 1417, 1851
2178, 1141, 1492, 828, 2226
2179, 2141, 2265, 1224, 1650
2180, 1639, 974, 435, 186
2181, 1745, 1900, 2581, 2224
2182, 1388, 2028, 1110, 1504
2183, 1244, 842, 1633, 2478
2184, 835, 1785, 1387, 2240
2185, 2570, 2466, 1101, 1158
2186, 540, 896, 2562, 2578
2187, 536, 1072, 2513, 1070
2188, 1070, 2513, 1071, 822
2189, 1072, 823, 1071, 2513
2190, 820, 1260, 2471, 1074
2191, 820, 1074, 1546, 2441
2192, 2592, 539, 2559, 2591
2193, 894, 2208, 877, 2445
2194, 2522, 1342, 1430, 1631
2195, 1765, 2527, 2193, 2515
2196, 1880, 1069, 1018, 895
2197, 2590, 2128, 876, 2589
2198, 1817, 2584, 265, 355
2199, 503, 1818, 501, 502
2200, 2516, 1382, 1380, 1190
2201, 1240, 574, 1251, 2628
2202, 2091, 1041, 863, 2235
2203, 904, 956, 1117, 1618
2204, 2446, 2337, 1040, 1497
2205, 1493, 854, 1057, 1332
2206, 2066, 859, 2337, 2446
2207, 1454, 1154, 1045, 1997
2208, 2269, 1001, 1455, 2340
2209, 746, 794, 782, 1943
2210, 1001, 2375, 1400, 1556
2211, 1738, 1967, 2186, 1860
2212, 2417, 2304, 769, 2271
2213, 2154, 768, 282, 338
2214, 762, 1322, 340, 281
2215, 1746, 1534, 2331, 1094
2216, 1534, 594, 1808, 2331
2217, 1746, 1037, 2332, 1534
2218, 1130, 620, 398, 223
2219, 2468, 645, 1845, 1917
2220, 933, 630, 2176, 2339
2221, 2401, 1432, 1780, 2553
2222, 1067, 2557, 1833, 2182
2223, 1372, 2301, 1230, 1449
2224, 547, 1842, 1576, 1981
2225, 2481, 1752, 666, 1857
2226, 1227, 1226, 2343, 1824
2227, 1927, 1829, 1444, 2180
2228, 628, 621, 934, 1434
2229, 2530, 1285, 628, 2292
2230, 1502, 609, 1308, 1214
2231, 825, 1196, 1198, 1197
2232, 2275, 293, 327, 2223
2233, 825, 1197, 1261, 2471
2234, 1507, 2520, 2179, 2177
2235, 527, 1039, 1597, 1506
2236, 2156, 2155, 759, 1942
2237, 1288, 140, 480, 842
2238, 2532, 2054, 1877, 941
2239, 2478, 1633, 1492, 1141
2240, 2330, 2564, 2558, 1149
2241, 2576, 2087, 925, 896
2242, 1919, 1592, 2557, 1067
2243, 2235, 863, 2237, 956
2244, 2000, 1499, 2443, 2342
2245, 1984, 1999, 1498, 910
2246, 2559, 2578, 2571, 2128
2247, 1149, 2558, 2456, 2493
2248, 1751, 732, 414, 207
2249, 650, 1922, 2249, 2429
2250, 1062, 839, 2514, 818
2251, 1291, 2014, 2334, 1840
2252, 839, 1109, 821, 2514
2253, 796, 1126, 2529, 1124
2254, 1124, 2529, 1125, 799
2255, 1126, 803, 1125, 2529
2256, 952, 1302, 1132, 620
2257, 1276, 1274, 2294, 618
2258, 1917, 1845, 1583, 2474
2259, 2474, 1131, 1276, 616
2260, 2474, 1583, 629, 1131
2261, 1747, 1095, 1716, 1037
2262, 2181, 2429, 2428, 664
2263, 729, 2250, 1642, 1427
2264, 809, 2052, 2028, 1388
2265, 837, 1374, 143, 477
2266, 2227, 1065, 2313, 2146
2267, 505, 568, 1634, 1635
2268, 1511, 555, 2437, 2438
2269, 247, 2420, 1466, 374
2270, 2053, 1822, 855, 1059
2271, 581, 1980, 989, 578
2272, 1854, 580, 1153, 1445
2273, 1667, 1560, 586, 1142
2274, 1054, 2300, 2161, 1791
2275, 2336, 2535, 591, 1931
2276, 921, 2615, 2577, 2586
2277, 2614, 2464, 869, 1799
2278, 2167, 871, 1234, 874
2279, 570, 1152, 2537, 1150
2280, 1150, 2537, 1151, 506
2281, 1152, 573, 1151, 2537
2282, 1144, 2534, 1447, 1448
2283, 989, 1544, 1545, 578
2284, 1854, 936, 2137, 580
2285, 1660, 779, 2100, 1737
2286, 2051, 2005, 1657, 1500
2287, 795, 291, 329, 793
2288, 1069, 2166, 2211, 1018
2289, 2466, 1711, 2539, 2192
2290, 1798, 900, 2173, 2196
2291, 671, 1161, 2540, 1159
2292, 1159, 2540, 1160, 713
2293, 1161, 714, 1160, 2540
2294, 1264, 1082, 2095, 1924
2295, 566, 571, 498, 2436
2296, 1353, 2129, 908, 1355
2297, 2545, 2341, 2371, 2368
2298, 1741, 1656, 322, 299
2299, 1046, 2031, 2191, 791
2300, 1337, 1318, 520, 1088
2301, 1626, 2487, 1454, 1338
2302, 2548, 1000, 2341, 2545
2303, 546, 496, 1720, 1721
2304, 2550, 546, 1721, 1673
2305, 2484, 2551, 2144, 2145
2306, 2552, 2484, 2145, 2121
2307, 2172, 1119, 1171, 1076
2308, 1233, 2555, 450, 171
2309, 1630, 1631, 172, 448
2310, 1705, 959, 1596, 1091
2311, 2574, 1553, 882, 1787
2312, 493, 2594, 2595, 537
2313, 32, 39, 1599, 1172
2314, 1010, 2573, 2522, 1994
2315, 1170, 1010, 1994, 878
2316, 2512, 1170, 878, 1100
2317, 897, 2512, 1100, 1586
2318, 1232, 897, 1586, 892
2319, 2574, 1232, 892, 1553
2320, 2202, 2130, 1681, 1590
2321, 2130, 2536, 921, 1681
2322, 1119, 891, 885, 1171
2323, 1833, 1173, 2406, 879
2324, 1585, 2202, 1590, 872
2325, 1158, 1101, 2573, 2168
2326, 879, 2406, 1985, 2404
2327, 1590, 1681, 1433, 2594
2328, 1343, 1765, 2515, 1936
2329, 1713, 2575, 1527, 2572
2330, 537, 2595, 868, 887
2331, 2608, 2616, 2592, 2565
2332, 2603, 867, 682, 1811
2333, 2601, 2600, 2566, 1767
2334, 898, 537, 887, 875
2335, 2601, 2131, 1079, 2600
2336, 2171, 681, 1951, 2170
2337, 2479, 2056, 1326, 2220
2338, 1731, 2127, 2126, 1899
2339, 954, 1954, 1106, 2372
2340, 1081, 2584, 1817, 1164
2341, 2585, 1081, 1164, 1192
2342, 2617, 2602, 2580, 2604
2343, 1750, 681, 2171, 1458
2344, 1591, 1016, 681, 1750
2345, 2238, 683, 1016, 1591
2346, 2603, 1811, 683, 2238
2347, 2561, 1750, 1458, 987
2348, 873, 1591, 1750, 2561
2349, 1680, 2238, 1591, 873
2350, 2604, 2603, 2238, 1680
2351, 2605, 2561, 987, 2220
2352, 2606, 873, 2561, 2605
2353, 2607, 1680, 873, 2606
2354, 2617, 2604, 1680, 2607
2355, 1685, 1327, 24, 28
2356, 2253, 1326, 1327, 1685
2357, 2605, 2220, 1326, 2253
2358, 2560, 1685, 28, 25
2359, 1779, 2253, 1685, 2560
2360, 2606, 2605, 2253, 1779
2361, 1017, 2560, 25, 29
2362, 1679, 1779, 2560, 1017
2363, 2607, 2606, 1779, 1679
2364, 2612, 1017, 29, 26
2365, 2613, 1679, 1017, 2612
2366, 2617, 2607, 1679, 2613
2367, 2568, 30, 37, 2611
2368, 1077, 3, 30, 2568
2369, 2612, 26, 3, 1077
2370, 1684, 2568, 2611, 2610
2371, 2563, 1077, 2568, 1684
2372, 2613, 2612, 1077, 2563
2373, 2608, 1684, 2610, 2616
2374, 2609, 2563, 1684, 2608
2375, 2617, 2613, 2563, 2609
2376, 2027, 1562, 835, 2142
2377, 1709, 2620, 1601, 1292
2378, 2621, 1709, 1292, 2476
2379, 2283, 599, 235, 385
2380, 2349, 1604, 1102, 1655
2381, 1401, 994, 1306, 1625
2382, 2626, 1401, 1625, 575
2383, 1873, 2624, 2625, 994
2384, 1305, 1873, 994, 1401
2385, 2627, 1305, 1401, 2626
2386, 1403, 2630, 2624, 1873
2387, 567, 1403, 1873, 1305
2388, 2631, 567, 1305, 2627
*ELSET,ELSET=contact_source
117, 118, 119, 120, 121, 122, 123, 124, 125, 126, 
127, 128, 129, 130, 131, 132, 
*ELSET,ELSET=contact_drain
37, 38, 39, 40, 41, 42, 43, 44, 45, 46, 
47, 48, 49, 50, 51, 52, 
*ELSET,ELSET=probe_A
73, 74, 75, 76, 77, 78, 79, 80, 81, 82, 
83, 84, 85, 86, 87, 88, 89, 90, 91, 92, 
93, 94, 95, 96, 
*ELSET,ELSET=probe_B
15, 16, 17, 18, 19, 20, 21, 22, 
*ELSET,ELSET=walls
1, 2, 3, 4, 5, 6, 7, 8, 9, 10, 
11, 12, 13, 14, 23, 24, 25, 26, 27, 28, 
29, 30, 31, 32, 33, 34, 35, 36, 53, 54, 
55, 56, 57, 58, 59, 60, 61, 62, 63, 64, 
65, 66, 67, 68, 69, 70, 71, 72, 97, 98, 
99, 100, 101, 102, 103, 104, 105, 106, 107, 108, 
109, 110, 111, 112, 113, 114, 115, 116, 133, 134, 
135, 136, 137, 138, 139, 140, 141, 142, 143, 144, 
145, 146, 147, 148, 149, 150, 151, 152, 153, 154, 
155, 156, 157, 158, 159, 160, 161, 162, 163, 164, 
165, 166, 167, 168, 169, 170, 171, 172, 173, 174, 
175, 176, 177, 178, 179, 180, 181, 182, 183, 184, 
185, 186, 187, 188, 189, 190, 191, 192, 193, 194, 
195, 196, 197, 198, 199, 200, 201, 202, 203, 204, 
205, 206, 207, 208, 209, 210, 211, 212, 213, 214, 
215, 216, 217, 218, 219, 220, 221, 222, 223, 224, 
225, 226, 227, 228, 229, 230, 231, 232, 233, 234, 
235, 236, 237, 238, 239, 240, 241, 242, 243, 244, 
245, 246, 247, 248, 249, 250, 251, 252, 253, 254, 
255, 256, 257, 258, 259, 260, 261, 262, 263, 264, 
265, 266, 267, 268, 269, 270, 271, 272, 273, 274, 
275, 276, 277, 278, 279, 280, 281, 282, 283, 284, 
285, 286, 287, 288, 289, 290, 291, 292, 293, 294, 
295, 296, 297, 298, 299, 300, 301, 302, 303, 304, 
305, 306, 307, 308, 309, 310, 311, 312, 313, 314, 
315, 316, 317, 318, 319, 320, 321, 322, 323, 324, 
325, 326, 327, 328, 329, 330, 331, 332, 333, 334, 
335, 336, 337, 338, 339, 340, 341, 342, 343, 344, 
345, 346, 347, 348, 349, 350, 351, 352, 353, 354, 
355, 356, 357, 358, 359, 360, 361, 362, 363, 364, 
365, 366, 367, 368, 369, 370, 371, 372, 373, 374, 
375, 376, 377, 378, 379, 380, 381, 382, 383, 384, 
385, 386, 387, 388, 389, 390, 391, 392, 393, 394, 
395, 396, 397, 398, 399, 400, 401, 402, 403, 404, 
405, 406, 407, 408, 409, 410, 411, 412, 413, 414, 
415, 416, 417, 418, 419, 420, 421, 422, 423, 424, 
425, 426, 427, 428, 429, 430, 431, 432, 433, 434, 
435, 436, 437, 438, 439, 440, 441, 442, 443, 444, 
445, 446, 447, 448, 449, 450, 451, 452, 453, 454, 
455, 456, 457, 458, 459, 460, 461, 462, 463, 464, 
465, 466, 467, 468, 469, 470, 471, 472, 473, 474, 
475, 476, 477, 478, 479, 480, 481, 482, 483, 484, 
485, 486, 
*ELSET,ELSET=domain
487, 488, 489, 490, 491, 492, 493, 494, 495, 496, 
497, 498, 499, 500, 501, 502, 503, 504, 505, 506, 
507, 508, 509, 510, 511, 512, 513, 514, 515, 516, 
517, 518, 519, 520, 521, 522, 523, 524, 525, 526, 
527, 528, 529, 530, 531, 532, 533, 534, 535, 536, 
537, 538, 539, 540, 541, 542, 543, 544, 545, 546, 
547, 548, 549, 550, 551, 552, 553, 554, 555, 556, 
557, 558, 559, 560, 561, 562, 563, 564, 565, 566, 
567, 568, 569, 570, 571, 572, 573, 574, 575, 576, 
577, 578, 579, 580, 581, 582, 583, 584, 585, 586, 
587, 588, 589, 590, 591, 592, 593, 594, 595, 596, 
597, 598, 599, 600, 601, 602, 603, 604, 605, 606, 
607, 608, 609, 610, 611, 612, 613, 614, 615, 616, 
617, 618, 619, 620, 621, 622, 623, 624, 625, 626, 
627, 628, 629, 630, 631, 632, 633, 634, 635, 636, 
637, 638, 639, 640, 641, 642, 643, 644, 645, 646, 
647, 648, 649, 650, 651, 652, 653, 654, 655, 656, 
657, 658, 659, 660, 661, 662, 663, 664, 665, 666, 
667, 668, 669, 670, 671, 672, 673, 674, 675, 676, 
677, 678, 679, 680, 681, 682, 683, 684, 685, 686, 
687, 688, 689, 690, 691, 692, 693, 694, 695, 696, 
697, 698, 699, 700, 701, 702, 703, 704, 705, 706, 
707, 708, 709, 710, 711, 712, 713, 714, 715, 716, 
717, 718, 719, 720, 721, 722, 723, 724, 725, 726, 
727, 728, 729, 730, 731, 732, 733, 734, 735, 736, 
737, 738, 739, 740, 741, 742, 743, 744, 745, 746, 
747, 748, 749, 750, 751, 752, 753, 754, 755, 756, 
757, 758, 759, 760, 761, 762, 763, 764, 765, 766, 
767, 768, 769, 770, 771, 772, 773, 774, 775, 776, 
777, 778, 779, 780, 781, 782, 783, 784, 785, 786, 
787, 788, 789, 790, 791, 792, 793, 794, 795, 796, 
797, 798, 799, 800, 801, 802, 803, 804, 805, 806, 
807, 808, 809, 810, 811, 812, 813, 814, 815, 816, 
817, 818, 819, 820, 821, 822, 823, 824, 825, 826, 
827, 828, 829, 830, 831, 832, 833, 834, 835, 836, 
837, 838, 839, 840, 841, 842, 843, 844, 845, 846, 
847, 848, 849, 850, 851, 852, 853, 854, 855, 856, 
857, 858, 859, 860, 861, 862, 863, 864, 865, 866, 
867, 868, 869, 870, 871, 872, 873, 874, 875, 876, 
877, 878, 879, 880, 881, 882, 883, 884, 885, 886, 
887, 888, 889, 890, 891, 892, 893, 894, 895, 896, 
897, 898, 899, 900, 901, 902, 903, 904, 905, 906, 
907, 908, 909, 910, 911, 912, 913, 914, 915, 916, 
917, 918, 919, 920, 921, 922, 923, 924, 925, 926, 
927, 928, 929, 930, 931, 932, 933, 934, 935, 936, 
937, 938, 939, 940, 941, 942, 943, 944, 945, 946, 
947, 948, 949, 950, 951, 952, 953, 954, 955, 956, 
957, 958, 959, 960, 961, 962, 963, 964, 965, 966, 
967, 968, 969, 970, 971, 972, 973, 974, 975, 976, 
977, 978, 979, 980, 981, 982, 983, 984, 985, 986, 
987, 988, 989, 990, 991, 992, 993, 994, 995, 996, 
997, 998, 999, 1000, 1001, 1002, 1003, 1004, 1005, 1006, 
1007, 1008, 1009, 1010, 1011, 1012, 1013, 1014, 1015, 1016, 
1017, 1018, 1019, 1020, 1021, 1022, 1023, 1024, 1025, 1026, 
1027, 1028, 1029, 1030, 1031, 1032, 1033, 1034, 1035, 1036, 
1037, 1038, 1039, 1040, 1041, 1042, 1043, 1044, 1045, 1046, 
1047, 1048, 1049, 1050, 1051, 1052, 1053, 1054, 1055, 1056, 
1057, 1058, 1059, 1060, 1061, 1062, 1063, 1064, 1065, 1066, 
1067, 1068, 1069, 1070, 1071, 1072, 1073, 1074, 1075, 1076, 
1077, 1078, 1079, 1080, 1081, 1082, 1083, 1084, 1085, 1086, 
1087, 1088, 1089, 1090, 1091, 1092, 1093, 1094, 1095, 1096, 
1097, 1098, 1099, 1100, 1101, 1102, 1103, 1104, 1105, 1106, 
1107, 1108, 1109, 1110, 1111, 1112, 1113, 1114, 1115, 1116, 
1117, 1118, 1119, 1120, 1121, 1122, 1123, 1124, 1125, 1126, 
1127, 1128, 1129, 1130, 1131, 1132, 1133, 1134, 1135, 1136, 
1137, 1138, 1139, 1140, 1141, 1142, 1143, 1144, 1145, 1146, 
1147, 1148, 1149, 1150, 1151, 1152, 1153, 1154, 1155, 1156, 
1157, 1158, 1159, 1160, 1161, 1162, 1163, 1164, 1165, 1166, 
1167, 1168, 1169, 1170, 1171, 1172, 1173, 1174, 1175, 1176, 
1177, 1178, 1179, 1180, 1181, 1182, 1183, 1184, 1185, 1186, 
1187, 1188, 1189, 1190, 1191, 1192, 1193, 1194, 1195, 1196, 
1197, 1198, 1199, 1200, 1201, 1202, 1203, 1204, 1205, 1206, 
1207, 1208, 1209, 1210, 1211, 1212, 1213, 1214, 1215, 1216, 
1217, 1218, 1219, 1220, 1221, 1222, 1223, 1224, 1225, 1226, 
1227, 1228, 1229, 1230, 1231, 1232, 1233, 1234, 1235, 1236, 
1237, 1238, 1239, 1240, 1241, 1242, 1243, 1244, 1245, 1246, 
1247, 1248, 1249, 1250, 1251, 1252, 1253, 1254, 1255, 1256, 
1257, 1258, 1259, 1260, 1261, 1262, 1263, 1264, 1265, 1266, 
1267, 1268, 1269, 1270, 1271, 1272, 1273, 1274, 1275, 1276, 
1277, 1278, 1279, 1280, 1281, 1282, 1283, 1284, 1285, 1286, 
1287, 1288, 1289, 1290, 1291, 1292, 1293, 1294, 1295, 1296, 
1297, 1298, 1299, 1300, 1301, 1302, 1303, 1304, 1305, 1306, 
1307, 1308, 1309, 1310, 1311, 1312, 1313, 1314, 1315, 1316, 
1317, 1318, 1319, 1320, 1321, 1322, 1323, 1324, 1325, 1326, 
1327, 1328, 1329, 1330, 1331, 1332, 1333, 1334, 1335, 1336, 
1337, 1338, 1339, 1340, 1341, 1342, 1343, 1344, 1345, 1346, 
1347, 1348, 1349, 1350, 1351, 1352, 1353, 1354, 1355, 1356, 
1357, 1358, 1359, 1360, 1361, 1362, 1363, 1364, 1365, 1366, 
1367, 1368, 1369, 1370, 1371, 1372, 1373, 1374, 1375, 1376, 
1377, 1378, 1379, 1380, 1381, 1382, 1383, 1384, 1385, 1386, 
1387, 1388, 1389, 1390, 1391, 1392, 1393, 1394, 1395, 1396, 
1397, 1398, 1399, 1400, 1401, 1402, 1403, 1404, 1405, 1406, 
1407, 1408, 1409, 1410, 1411, 1412, 1413, 1414, 1415, 1416, 
1417, 1418, 1419, 1420, 1421, 1422, 1423, 1424, 1425, 1426, 
1427, 1428, 1429, 1430, 1431, 1432, 1433, 1434, 1435, 1436, 
1437, 1438, 1439, 1440, 1441, 1442, 1443, 1444, 1445, 1446, 
1447, 1448, 1449, 1450, 1451, 1452, 1453, 1454, 1455, 1456, 
1457, 1458, 1459, 1460, 1461, 1462, 1463, 1464, 1465, 1466, 
1467, 1468, 1469, 1470, 1471, 1472, 1473, 1474, 1475, 1476, 
1477, 1478, 1479, 1480, 1481, 1482, 1483, 1484, 1485, 1486, 
1487, 1488, 1489, 1490, 1491, 1492, 1493, 1494, 1495, 1496, 
1497, 1498, 1499, 1500, 1501, 1502, 1503, 1504, 1505, 1506, 
1507, 1508, 1509, 1510, 1511, 1512, 1513, 1514, 1515, 1516, 
1517, 1518, 1519, 1520, 1521, 1522, 1523, 1524, 1525, 1526, 
1527, 1528, 1529, 1530, 1531, 1532, 1533, 1534, 1535, 1536, 
1537, 1538, 1539, 1540, 1541, 1542, 1543, 1544, 1545, 1546, 
1547, 1548, 1549, 1550, 1551, 1552, 1553, 1554, 1555, 1556, 
1557, 1558, 1559, 1560, 1561, 1562, 1563, 1564, 1565, 1566, 
1567, 1568, 1569, 1570, 1571, 1572, 1573, 1574, 1575, 1576, 
1577, 1578, 1579, 1580, 1581, 1582, 1583, 1584, 1585, 1586, 
1587, 1588, 1589, 1590, 1591, 1592, 1593, 1594, 1595, 1596, 
1597, 1598, 1599, 1600, 1601, 1602, 1603, 1604, 1605, 1606, 
1607, 1608, 1609, 1610, 1611, 1612, 1613, 1614, 1615, 1616, 
1617, 1618, 1619, 1620, 1621, 1622, 1623, 1624, 1625, 1626, 
1627, 1628, 1629, 1630, 1631, 1632, 1633, 1634, 1635, 1636, 
1637, 1638, 1639, 1640, 1641, 1642, 1643, 1644, 1645, 1646, 
1647, 1648, 1649, 1650, 1651, 1652, 1653, 1654, 1655, 1656, 
1657, 1658, 1659, 1660, 1661, 1662, 1663, 1664, 1665, 1666, 
1667, 1668, 1669, 1670, 1671, 1672, 1673, 1674, 1675, 1676, 
1677, 1678, 1679, 1680, 1681, 1682, 1683, 1684, 1685, 1686, 
1687, 1688, 1689, 1690, 1691, 1692, 1693, 1694, 1695, 1696, 
1697, 1698, 1699, 1700, 1701, 1702, 1703, 1704, 1705, 1706, 
1707, 1708, 1709, 1710, 1711, 1712, 1713, 1714, 1715, 1716, 
1717, 1718, 1719, 1720, 1721, 1722, 1723, 1724, 1725, 1726, 
1727, 1728, 1729, 1730, 1731, 1732, 1733, 1734, 1735, 1736, 
1737, 1738, 1739, 1740, 1741, 1742, 1743, 1744, 1745, 1746, 
1747, 1748, 1749, 1750, 1751, 1752, 1753, 1754, 1755, 1756, 
1757, 1758, 1759, 1760, 1761, 1762, 1763, 1764, 1765, 1766, 
1767, 1768, 1769, 1770, 1771, 1772, 1773, 1774, 1775, 1776, 
1777, 1778, 1779, 1780, 1781, 1782, 1783, 1784, 1785, 1786, 
1787, 1788, 1789, 1790, 1791, 1792, 1793, 1794, 1795, 1796, 
1797, 1798, 1799, 1800, 1801, 1802, 1803, 1804, 1805, 1806, 
1807, 1808, 1809, 1810, 1811, 1812, 1813, 1814, 1815, 1816, 
1817, 1818, 1819, 1820, 1821, 1822, 1823, 1824, 1825, 1826, 
1827, 1828, 1829, 1830, 1831, 1832, 1833, 1834, 1835, 1836, 
1837, 1838, 1839, 1840, 1841, 1842, 1843, 1844, 1845, 1846, 
1847, 1848, 1849, 1850, 1851, 1852, 1853, 1854, 1855, 1856, 
1857, 1858, 1859, 1860, 1861, 1862, 1863, 1864, 1865, 1866, 
1867, 1868, 1869, 1870, 1871, 1872, 1873, 1874, 1875, 1876, 
1877, 1878, 1879, 1880, 1881, 1882, 1883, 1884, 1885, 1886, 
1887, 1888, 1889, 1890, 1891, 1892, 1893, 1894, 1895, 1896, 
1897, 1898, 1899, 1900, 1901, 1902, 1903, 1904, 1905, 1906, 
1907, 1908, 1909, 1910, 1911, 1912, 1913, 1914, 1915, 1916, 
1917, 1918, 1919, 1920, 1921, 1922, 1923, 1924, 1925, 1926, 
1927, 1928, 1929, 1930, 1931, 1932, 1933, 1934, 1935, 1936, 
1937, 1938, 1939, 1940, 1941, 1942, 1943, 1944, 1945, 1946, 
1947, 1948, 1949, 1950, 1951, 1952, 1953, 1954, 1955, 1956, 
1957, 1958, 1959, 1960, 1961, 1962, 1963, 1964, 1965, 1966, 
1967, 1968, 1969, 1970, 1971, 1972, 1973, 1974, 1975, 1976, 
1977, 1978, 1979, 1980, 1981, 1982, 1983, 1984, 1985, 1986, 
1987, 1988, 1989, 1990, 1991, 1992, 1993, 1994, 1995, 1996, 
1997, 1998, 1999, 2000, 2001, 2002, 2003, 2004, 2005, 2006, 
2007, 2008, 2009, 2010, 2011, 2012, 2013, 2014, 2015, 2016, 
2017, 2018, 2019, 2020, 2021, 2022, 2023, 2024, 2025, 2026, 
2027, 2028, 2029, 2030, 2031, 2032, 2033, 2034, 2035, 2036, 
2037, 2038, 2039, 2040, 2041, 2042, 2043, 2044, 2045, 2046, 
2047, 2048, 2049, 2050, 2051, 2052, 2053, 2054, 2055, 2056, 
2057, 2058, 2059, 2060, 2061, 2062, 2063, 2064, 2065, 2066, 
2067, 2068, 2069, 2070, 2071, 2072, 2073, 2074, 2075, 2076, 
2077, 2078, 2079, 2080, 2081, 2082, 2083, 2084, 2085, 2086, 
2087, 2088, 2089, 2090, 2091, 2092, 2093, 2094, 2095, 2096, 
2097, 2098, 2099, 2100, 2101, 2102, 2103, 2104, 2105, 2106, 
2107, 2108, 2109, 2110, 2111, 2112, 2113, 2114, 2115, 2116, 
2117, 2118, 2119, 2120, 2121, 2122, 2123, 2124, 2125, 2126, 
2127, 2128, 2129, 2130, 2131, 2132, 2133, 2134, 2135, 2136, 
2137, 2138, 2139, 2140, 2141, 2142, 2143, 2144, 2145, 2146, 
2147, 2148, 2149, 2150, 2151, 2152, 2153, 2154, 2155, 2156, 
2157, 2158, 2159, 2160, 2161, 2162, 2163, 2164, 2165, 2166, 
2167, 2168, 2169, 2170, 2171, 2172, 2173, 2174, 2175, 2176, 
2177, 2178, 2179, 2180, 2181, 2182, 2183, 2184, 2185, 2186, 
2187, 2188, 2189, 2190, 2191, 2192, 2193, 2194, 2195, 2196, 
2197, 2198, 2199, 2200, 2201, 2202, 2203, 2204, 2205, 2206, 
2207, 2208, 2209, 2210, 2211, 2212, 2213, 2214, 2215, 2216, 
2217, 2218, 2219, 2220, 2221, 2222, 2223, 2224, 2225, 2226, 
2227, 2228, 2229, 2230, 2231, 2232, 2233, 2234, 2235, 2236, 
2237, 2238, 2239, 2240, 2241, 2242, 2243, 2244, 2245, 2246, 
2247, 2248, 2249, 2250, 2251, 2252, 2253, 2254, 2255, 2256, 
2257, 2258, 2259, 2260, 2261, 2262, 2263, 2264, 2265, 2266, 
2267, 2268, 2269, 2270, 2271, 2272, 2273, 2274, 2275, 2276, 
2277, 2278, 2279, 2280, 2281, 2282, 2283, 2284, 2285, 2286, 
2287, 2288, 2289, 2290, 2291, 2292, 2293, 2294, 2295, 2296, 
2297, 2298, 2299, 2300, 2301, 2302, 2303, 2304, 2305, 2306, 
2307, 2308, 2309, 2310, 2311, 2312, 2313, 2314, 2315, 2316, 
2317, 2318, 2319, 2320, 2321, 2322, 2323, 2324, 2325, 2326, 
2327, 2328, 2329, 2330, 2331, 2332, 2333, 2334, 2335, 2336, 
2337, 2338, 2339, 2340, 2341, 2342, 2343, 2344, 2345, 2346, 
2347, 2348, 2349, 2350, 2351, 2352, 2353, 2354, 2355, 2356, 
2357, 2358, 2359, 2360, 2361, 2362, 2363, 2364, 2365, 2366, 
2367, 2368, 2369, 2370, 2371, 2372, 2373, 2374, 2375, 2376, 
2377, 2378, 2379, 2380, 2381, 2382, 2383, 2384, 2385, 2386, 
2387, 2388, 2389, 2390, 2391, 2392, 2393, 2394, 2395, 2396, 
2397, 2398, 2399, 2400, 2401, 2402, 2403, 2404, 2405, 2406, 
2407, 2408, 2409, 2410, 2411, 2412, 2413, 2414, 2415, 2416, 
2417, 2418, 2419, 2420, 2421, 2422, 2423, 2424, 2425, 2426, 
2427, 2428, 2429, 2430, 2431, 2432, 2433, 2434, 2435, 2436, 
2437, 2438, 2439, 2440, 2441, 2442, 2443, 2444, 2445, 2446, 
2447, 2448, 2449, 2450, 2451, 2452, 2453, 2454, 2455, 2456, 
2457, 2458, 2459, 2460, 2461, 2462, 2463, 2464, 2465, 2466, 
2467, 2468, 2469, 2470, 2471, 2472, 2473, 2474, 2475, 2476, 
2477, 2478, 2479, 2480, 2481, 2482, 2483, 2484, 2485, 2486, 
2487, 2488, 2489, 2490, 2491, 2492, 2493, 2494, 2495, 2496, 
2497, 2498, 2499, 2500, 2501, 2502, 2503, 2504, 2505, 2506, 
2507, 2508, 2509, 2510, 2511, 2512, 2513, 2514, 2515, 2516, 
2517, 2518, 2519, 2520, 2521, 2522, 2523, 2524, 2525, 2526, 
2527, 2528, 2529, 2530, 2531, 2532, 2533, 2534, 2535, 2536, 
2537, 2538, 2539, 2540, 2541, 2542, 2543, 2544, 2545, 2546, 
2547, 2548, 2549, 2550, 2551, 2552, 2553, 2554, 2555, 2556, 
2557, 2558, 2559, 2560, 2561, 2562, 2563, 2564, 2565, 2566, 
2567, 2568, 2569, 2570, 2571, 2572, 2573, 2574, 2575, 2576, 
2577, 2578, 2579, 2580, 2581, 2582, 2583, 2584, 2585, 2586, 
2587, 2588, 2589, 2590, 2591, 2592, 2593, 2594, 2595, 2596, 
2597, 2598, 2599, 2600, 2601, 2602, 2603, 2604, 2605, 2606, 
2607, 2608, 2609, 2610, 2611, 2612, 2613, 2614, 2615, 2616, 
2617, 2618, 2619, 2620, 2621, 2622, 2623, 2624, 2625, 2626, 
2627, 2628, 2629, 2630, 2631, 2632, 2633, 2634, 2635, 2636, 
2637, 2638, 2639, 2640, 2641, 2642, 2643, 2644, 2645, 2646, 
2647, 2648, 2649, 2650, 2651, 2652, 2653, 2654, 2655, 2656, 
2657, 2658, 2659, 2660, 2661, 2662, 2663, 2664, 2665, 2666, 
2667, 2668, 2669, 2670, 2671, 2672, 2673, 2674, 2675, 2676, 
2677, 2678, 2679, 2680, 2681, 2682, 2683, 2684, 2685, 2686, 
2687, 2688, 2689, 2690, 2691, 2692, 2693, 2694, 2695, 2696, 
2697, 2698, 2699, 2700, 2701, 2702, 2703, 2704, 2705, 2706, 
2707, 2708, 2709, 2710, 2711, 2712, 2713, 2714, 2715, 2716, 
2717, 2718, 2719, 2720, 2721, 2722, 2723, 2724, 2725, 2726, 
2727, 2728, 2729, 2730, 2731, 2732, 2733, 2734, 2735, 2736, 
2737, 2738, 2739, 2740, 2741, 2742, 2743, 2744, 2745, 2746, 
2747, 2748, 2749, 2750, 2751, 2752, 2753, 2754, 2755, 2756, 
2757, 2758, 2759, 2760, 2761, 2762, 2763, 2764, 2765, 2766, 
2767, 2768, 2769, 2770, 2771, 2772, 2773, 2774, 2775, 2776, 
2777, 2778, 2779, 2780, 2781, 2782, 2783, 2784, 2785, 2786, 
2787, 2788, 2789, 2790, 2791, 2792, 2793, 2794, 2795, 2796, 
2797, 2798, 2799, 2800, 2801, 2802, 2803, 2804, 2805, 2806, 
2807, 2808, 2809, 2810, 2811, 2812, 2813, 2814, 2815, 2816, 
2817, 2818, 2819, 2820, 2821, 2822, 2823, 2824, 2825, 2826, 
2827, 2828, 2829, 2830, 2831, 2832, 2833, 2834, 2835, 2836, 
2837, 2838, 2839, 2840, 2841, 2842, 2843, 2844, 2845, 2846, 
2847, 2848, 2849, 2850, 2851, 2852, 2853, 2854, 2855, 2856, 
2857, 2858, 2859, 2860, 2861, 2862, 2863, 2864, 2865, 2866, 
2867, 2868, 2869, 2870, 2871, 2872, 2873, 2874, 
*NSET,NSET=contact_source
1, 8, 119, 120, 121, 122, 123, 124, 125, 126, 
127, 128, 129, 130, 131, 132, 133, 
*NSET,NSET=contact_drain
4, 5, 43, 44, 45, 46, 47, 48, 49, 50, 
51, 52, 53, 54, 55, 56, 57, 
*NSET,NSET=probe_A
6, 7, 77, 78, 79, 80, 81, 82, 83, 84, 
85, 86, 87, 88, 89, 90, 91, 92, 93, 94, 
95, 96, 97, 98, 99, 
*NSET,NSET=probe_B
2, 3, 23, 24, 25, 26, 27, 28, 29, 
*NSET,NSET=walls
1, 2, 3, 4, 5, 6, 7, 8, 9, 10, 
11, 12, 13, 14, 15, 16, 17, 18, 19, 20, 
21, 22, 30, 31, 32, 33, 34, 35, 36, 37, 
38, 39, 40, 41, 42, 58, 59, 60, 61, 62, 
63, 64, 65, 66, 67, 68, 69, 70, 71, 72, 
73, 74, 75, 76, 100, 101, 102, 103, 104, 105, 
106, 107, 108, 109, 110, 111, 112, 113, 114, 115, 
116, 117, 118, 134, 135, 136, 137, 138, 139, 140, 
141, 142, 143, 144, 145, 146, 147, 148, 149, 150, 
151, 152, 153, 154, 155, 156, 157, 158, 159, 160, 
161, 162, 163, 164, 165, 166, 167, 168, 169, 170, 
171, 172, 173, 174, 175, 176, 177, 178, 179, 180, 
181, 182, 183, 184, 185, 186, 187, 188, 189, 190, 
191, 192, 193, 194, 195, 196, 197, 198, 199, 200, 
201, 202, 203, 204, 205, 206, 207, 208, 209, 210, 
211, 212, 213, 214, 215, 216, 217, 218, 219, 220, 
221, 222, 223, 224, 225, 226, 227, 228, 229, 230, 
231, 232, 233, 234, 235, 236, 237, 238, 239, 240, 
241, 242, 243, 244, 245, 246, 247, 248, 249, 250, 
251, 252, 253, 254, 255, 256, 257, 258, 259, 260, 
261, 262, 263, 264, 265, 266, 267, 268, 269, 270, 
271, 272, 273, 274, 275, 276, 277, 278, 279, 280, 
281, 282, 283, 284, 285, 286, 287, 288, 289, 290, 
291, 292, 293, 294, 295, 296, 297, 298, 299, 300, 
301, 302, 303, 304, 305, 306, 307, 308, 309, 310, 
311, 312, 313, 314, 315, 316, 317, 318, 319, 320, 
321, 322, 323, 324, 325, 326, 327, 328, 329, 330, 
331, 332, 333, 334, 335, 336, 337, 338, 339, 340, 
341, 342, 343, 344, 345, 346, 347, 348, 349, 350, 
351, 352, 353, 354, 355, 356, 357, 358, 359, 360, 
361, 362, 363, 364, 365, 366, 367, 368, 369, 370, 
371, 372, 373, 374, 375, 376, 377, 378, 379, 380, 
381, 382, 383, 384, 385, 386, 387, 388, 389, 390, 
391, 392, 393, 394, 395, 396, 397, 398, 399, 400, 
401, 402, 403, 404, 405, 406, 407, 408, 409, 410, 
411, 412, 413, 414, 415, 416, 417, 418, 419, 420, 
421, 422, 423, 424, 425, 426, 427, 428, 429, 430, 
431, 432, 433, 434, 435, 436, 437, 438, 439, 440, 
441, 442, 443, 444, 445, 446, 447, 448, 449, 450, 
451, 452, 453, 454, 455, 456, 457, 458, 459, 460, 
461, 462, 463, 464, 465, 466, 467, 468, 469, 470, 
471, 472, 473, 474, 475, 476, 477, 478, 479, 480, 
481, 482, 483, 484, 485, 486, 
*NSET,NSET=domain
1, 2, 3, 4, 5, 6, 7, 8, 9, 10, 
11, 12, 13, 14, 15, 16, 17, 18, 19, 20, 
21, 22, 23, 24, 25, 26, 27, 28, 29, 30, 
31, 32, 33, 34, 35, 36, 37, 38, 39, 40, 
41, 42, 43, 44, 45, 46, 47, 48, 49, 50, 
51, 52, 53, 54, 55, 56, 57, 58, 59, 60, 
61, 62, 63, 64, 65, 66, 67, 68, 69, 70, 
71, 72, 73, 74, 75, 76, 77, 78, 79, 80, 
81, 82, 83, 84, 85, 86, 87, 88, 89, 90, 
91, 92, 93, 94, 95, 96, 97, 98, 99, 100, 
101, 102, 103, 104, 105, 106, 107, 108, 109, 110, 
111, 112, 113, 114, 115, 116, 117, 118, 119, 120, 
121, 122, 123, 124, 125, 126, 127, 128, 129, 130, 
131, 132, 133, 134, 135, 136, 137, 138, 139, 140, 
141, 142, 143, 144, 145, 146, 147, 148, 149, 150, 
151, 152, 153, 154, 155, 156, 157, 158, 159, 160, 
161, 162, 163, 164, 165, 166, 167, 168, 169, 170, 
171, 172, 173, 174, 175, 176, 177, 178, 179, 180, 
181, 182, 183, 184, 185, 186, 187, 188, 189, 190, 
191, 192, 193, 194, 195, 196, 197, 198, 199, 200, 
201, 202, 203, 204, 205, 206, 207, 208, 209, 210, 
211, 212, 213, 214, 215, 216, 217, 218, 219, 220, 
221, 222, 223, 224, 225, 226, 227, 228, 229, 230, 
231, 232, 233, 234, 235, 236, 237, 238, 239, 240, 
241, 242, 243, 244, 245, 246, 247, 248, 249, 250, 
251, 252, 253, 254, 255, 256, 257, 258, 259, 260, 
261, 262, 263, 264, 265, 266, 267, 268, 269, 270, 
271, 272, 273, 274, 275, 276, 277, 278, 279, 280, 
281, 282, 283, 284, 285, 286, 287, 288, 289, 290, 
291, 292, 293, 294, 295, 296, 297, 298, 299, 300, 
301, 302, 303, 304, 305, 306, 307, 308, 309, 310, 
311, 312, 313, 314, 315, 316, 317, 318, 319, 320, 
321, 322, 323, 324, 325, 326, 327, 328, 329, 330, 
331, 332, 333, 334, 335, 336, 337, 338, 339, 340, 
341, 342, 343, 344, 345, 346, 347, 348, 349, 350, 
351, 352, 353, 354, 355, 356, 357, 358, 359, 360, 
361, 362, 363, 364, 365, 366, 367, 368, 369, 370, 
371, 372, 373, 374, 375, 376, 377, 378, 379, 380, 
381, 382, 383, 384, 385, 386, 387, 388, 389, 390, 
391, 392, 393, 394, 395, 396, 397, 398, 399, 400, 
401, 402, 403, 404, 405, 406, 407, 408, 409, 410, 
411, 412, 413, 414, 415, 416, 417, 418, 419, 420, 
421, 422, 423, 424, 425, 426, 427, 428, 429, 430, 
431, 432, 433, 434, 435, 436, 437, 438, 439, 440, 
441, 442, 443, 444, 445, 446, 447, 448, 449, 450, 
451, 452, 453, 454, 455, 456, 457, 458, 459, 460, 
461, 462, 463, 464, 465, 466, 467, 468, 469, 470, 
471, 472, 473, 474, 475, 476, 477, 478, 479, 480, 
481, 482, 483, 484, 485, 486, 487, 488, 489, 490, 
491, 492, 493, 494, 495, 496, 497, 498, 499, 500, 
501, 502, 503, 504, 505, 506, 507, 508, 509, 510, 
511, 512, 513, 514, 515, 516, 517, 518, 519, 520, 
521, 522, 523, 524, 525, 526, 527, 528, 529, 530, 
531, 532, 533, 534, 535, 536, 537, 538, 539, 540, 
541, 542, 543, 544, 545, 546, 547, 548, 549, 550, 
551, 552, 553, 554, 555, 556, 557, 558, 559, 560, 
561, 562, 563, 564, 565, 566, 567, 568, 569, 570, 
571, 572, 573, 574, 575, 576, 577, 578, 579, 580, 
581, 582, 583, 584, 585, 586, 587, 588, 589, 590, 
591, 592, 593, 594, 595, 596, 597, 598, 599, 600, 
601, 602, 603, 604, 605, 606, 607, 608, 609, 610, 
611, 612, 613, 614, 615, 616, 617, 618, 619, 620, 
621, 622, 623, 624, 625, 626, 627, 628, 629, 630, 
631, 632, 633, 634, 635, 636, 637, 638, 639, 640, 
641, 642, 643, 644, 645, 646, 647, 648, 649, 650, 
651, 652, 653, 654, 655, 656, 657, 658, 659, 660, 
661, 662, 663, 664, 665, 666, 667, 668, 669, 670, 
671, 672, 673, 674, 675, 676, 677, 678, 679, 680, 
681, 682, 683, 684, 685, 686, 687, 688, 689, 690, 
691, 692, 693, 694, 695, 696, 697, 698, 699, 700, 
701, 702, 703, 704, 705, 706, 707, 708, 709, 710, 
711, 712, 713, 714, 715, 716, 717, 718, 719, 720, 
721, 722, 723, 724, 725, 726, 727, 728, 729, 730, 
731, 732, 733, 734, 735, 736, 737, 738, 739, 740, 
741, 742, 743, 744, 745, 746, 747, 748, 749, 750, 
751, 752, 753, 754, 755, 756, 757, 758, 759, 760, 
761, 762, 763, 764, 765, 766, 767, 768, 769, 770, 
771, 772, 773, 774, 775, 776, 777, 778, 779, 780, 
781, 782, 783, 784, 785, 786, 787, 788, 789, 790, 
791, 792, 793, 794, 795, 796, 797, 798, 799, 800, 
801, 802, 803, 804, 805, 806, 807, 808, 809, 810, 
811, 812, 813, 814, 815, 816, 817, 818, 819, 820, 
821, 822, 823, 824, 825, 826, 827, 828, 829, 830, 
831, 832, 833, 834, 835, 836, 837, 838, 839, 840, 
841, 842, 843, 844, 845, 846, 847, 848, 849, 850, 
851, 852, 853, 854, 855, 856, 857, 858, 859, 860, 
861, 862, 863, 864, 865, 866, 867, 868, 869, 870, 
871, 872, 873, 874, 875, 876, 877, 878, 879, 880, 
881, 882, 883, 884, 885, 886, 887, 888, 889, 890, 
891, 892, 893, 894, 895, 896, 897, 898, 899, 900, 
901, 902, 903, 904, 905, 906, 907, 908, 909, 910, 
911, 912, 913, 914, 915, 916, 917, 918, 919, 920, 
921, 922, 923, 924, 925, 926, 927, 928, 929, 930, 
931, 932, 933, 934, 935, 936, 937, 938, 939, 940, 
941, 942, 943, 944, 945, 946, 947, 948, 949, 950, 
951, 952, 953, 954, 955, 956, 957, 958, 959, 960, 
961, 962, 963, 964, 965, 966, 967, 968, 969, 970, 
971, 972, 973, 974, 975, 976, 977, 978, 979, 980, 
981, 982, 983, 984, 985, 986, 987, 988, 989, 990, 
991, 992, 993, 994, 995, 996, 997, 998, 999, 1000, 
1001, 1002, 1003, 1004, 1005, 1006, 1007, 1008, 1009, 1010, 
1011, 1012, 1013, 1014, 1015, 1016, 1017, 1018, 1019, 1020, 
1021, 1022, 1023, 1024, 1025, 1026, 1027, 1028, 1029, 1030, 
1031, 1032, 1033, 1034, 1035, 1036, 1037, 1038, 1039, 1040, 
1041, 1042, 1043, 1044, 1045, 1046, 1047, 1048, 1049, 1050, 
1051, 1052, 1053, 1054, 1055, 1056, 1057, 1058, 1059, 1060, 
1061, 1062, 1063, 1064, 1065, 1066, 1067, 1068, 1069, 1070, 
1071, 1072, 1073, 1074, 1075, 1076, 1077, 1078, 1079, 1080, 
1081, 1082, 1083, 1084, 1085, 1086, 1087, 1088, 1089, 1090, 
1091, 1092, 1093, 1094, 1095, 1096, 1097, 1098, 1099, 1100, 
1101, 1102, 1103, 1104, 1105, 1106, 1107, 1108, 1109, 1110, 
1111, 1112, 1113, 1114, 1115, 1116, 1117, 1118, 1119, 1120, 
1121, 1122, 1123, 1124, 1125, 1126, 1127, 1128, 1129, 1130, 
1131, 1132, 1133, 1134, 1135, 1136, 1137, 1138, 1139, 1140, 
1141, 1142, 1143, 1144, 1145, 1146, 1147, 1148, 1149, 1150, 
1151, 1152, 1153, 1154, 1155, 1156, 1157, 1158, 1159, 1160, 
1161, 1162, 1163, 1164, 1165, 1166, 1167, 1168, 1169, 1170, 
1171, 1172, 1173, 1174, 1175, 1176, 1177, 1178, 1179, 1180, 
1181, 1182, 1183, 1184, 1185, 1186, 1187, 1188, 1189, 1190, 
1191, 1192, 1193, 1194, 1195, 1196, 1197, 1198, 1199, 1200, 
1201, 1202, 1203, 1204, 1205, 1206, 1207, 1208, 1209, 1210, 
1211, 1212, 1213, 1214, 1215, 1216, 1217, 1218, 1219, 1220, 
1221, 1222, 1223, 1224, 1225, 1226, 1227, 1228, 1229, 1230, 
1231, 1232, 1233, 1234, 1235, 1236, 1237, 1238, 1239, 1240, 
1241, 1242, 1243, 1244, 1245, 1246, 1247, 1248, 1249, 1250, 
1251, 1252, 1253, 1254, 1255, 1256, 1257, 1258, 1259, 1260, 
1261, 1262, 1263, 1264, 1265, 1266, 1267, 1268, 1269, 1270, 
1271, 1272, 1273, 1274, 1275, 1276, 1277, 1278, 1279, 1280, 
1281, 1282, 1283, 1284, 1285, 1286, 1287, 1288, 1289, 1290, 
1291, 1292, 1293, 1294, 1295, 1296, 1297, 1298, 1299, 1300, 
1301, 1302, 1303, 1304, 1305, 1306, 1307, 1308, 1309, 1310, 
1311, 1312, 1313, 1314, 1315, 1316, 1317, 1318, 1319, 1320, 
1321, 1322, 1323, 1324, 1325, 1326, 1327, 1328, 1329, 1330, 
1331, 1332, 1333, 1334, 1335, 1336, 1337, 1338, 1339, 1340, 
1341, 1342, 1343, 1344, 1345, 1346, 1347, 1348, 1349, 1350, 
1351, 1352, 1353, 1354, 1355, 1356, 1357, 1358, 1359, 1360, 
1361, 1362, 1363, 1364, 1365, 1366, 1367, 1368, 1369, 1370, 
1371, 1372, 1373, 1374, 1375, 1376, 1377, 1378, 1379, 1380, 
1381, 1382, 1383, 1384, 1385, 1386, 1387, 1388, 1389, 1390, 
1391, 1392, 1393, 1394, 1395, 1396, 1397, 1398, 1399, 1400, 
1401, 1402, 1403, 1404, 1405, 1406, 1407, 1408, 1409, 1410, 
1411, 1412, 1413, 1414, 1415, 1416, 1417, 1418, 1419, 1420, 
1421, 1422, 1423, 1424, 1425, 1426, 1427, 1428, 1429, 1430, 
1431, 1432, 1433, 1434, 1435, 1436, 1437, 1438, 1439, 1440, 
1441, 1442, 1443, 1444, 1445, 1446, 1447, 1448, 1449, 1450, 
1451, 1452, 1453, 1454, 1455, 1456, 1457, 1458, 1459, 1460, 
1461, 1462, 1463, 1464, 1465, 1466, 1467, 1468, 1469, 1470, 
1471, 1472, 1473, 1474, 1475, 1476, 1477, 1478, 1479, 1480, 
1481, 1482, 1483, 1484, 1485, 1486, 1487, 1488, 1489, 1490, 
1491, 1492, 1493, 1494, 1495, 1496, 1497, 1498, 1499, 1500, 
1501, 1502, 1503, 1504, 1505, 1506, 1507, 1508, 1509, 1510, 
1511, 1512, 1513, 1514, 1515, 1516, 1517, 1518, 1519, 1520, 
1521, 1522, 1523, 1524, 1525, 1526, 1527, 1528, 1529, 1530, 
1531, 1532, 1533, 1534, 1535, 1536, 1537, 1538, 1539, 1540, 
1541, 1542, 1543, 1544, 1545, 1546, 1547, 1548, 1549, 1550, 
1551, 1552, 1553, 1554, 1555, 1556, 1557, 1558, 1559, 1560, 
1561, 1562, 1563, 1564, 1565, 1566, 1567, 1568, 1569, 1570, 
1571, 1572, 1573, 1574, 1575, 1576, 1577, 1578, 1579, 1580, 
1581, 1582, 1583, 1584, 1585, 1586, 1587, 1588, 1589, 1590, 
1591, 1592, 1593, 1594, 1595, 1596, 1597, 1598, 1599, 1600, 
1601, 1602, 1603, 1604, 1605, 1606, 1607, 1608, 1609, 1610, 
1611, 1612, 1613, 1614, 1615, 1616, 1617, 1618, 1619, 1620, 
1621, 1622, 1623, 1624, 1625, 1626, 1627, 1628, 1629, 1630, 
1631, 1632, 1633, 1634, 1635, 1636, 1637, 1638, 1639, 1640, 
1641, 1642, 1643, 1644, 1645, 1646, 1647, 1648, 1649, 1650, 
1651, 1652, 1653, 1654, 1655, 1656, 1657, 1658, 1659, 1660, 
1661, 1662, 1663, 1664, 1665, 1666, 1667, 1668, 1669, 1670, 
1671, 1672, 1673, 1674, 1675, 1676, 1677, 1678, 1679, 1680, 
1681, 1682, 1683, 1684, 1685, 1686, 1687, 1688, 1689, 1690, 
1691, 1692, 1693, 1694, 1695, 1696, 1697, 1698, 1699, 1700, 
1701, 1702, 1703, 1704, 1705, 1706, 1707, 1708, 1709, 1710, 
1711, 1712, 1713, 1714, 1715, 1716, 1717, 1718, 1719, 1720, 
1721, 1722, 1723, 1724, 1725, 1726, 1727, 1728, 1729, 1730, 
1731, 1732, 1733, 1734, 1735, 1736, 1737, 1738, 1739, 1740, 
1741, 1742, 1743, 1744, 1745, 1746, 1747, 1748, 1749, 1750, 
1751, 1752, 1753, 1754, 1755, 1756, 1757, 1758, 1759, 1760, 
1761, 1762, 1763, 1764, 1765, 1766, 1767, 1768, 1769, 1770, 
1771, 1772, 1773, 1774, 1775, 1776, 1777, 1778, 1779, 1780, 
1781, 1782, 1783, 1784, 1785, 1786, 1787, 1788, 1789, 1790, 
1791, 1792, 1793, 1794, 1795, 1796, 1797, 1798, 1799, 1800, 
1801, 1802, 1803, 1804, 1805, 1806, 1807, 1808, 1809, 1810, 
1811, 1812, 1813, 1814, 1815, 1816, 1817, 1818, 1819, 1820, 
1821, 1822, 1823, 1824, 1825, 1826, 1827, 1828, 1829, 1830, 
1831, 1832, 1833, 1834, 1835, 1836, 1837, 1838, 1839, 1840, 
1841, 1842, 1843, 1844, 1845, 1846, 1847, 1848, 1849, 1850, 
1851, 1852, 1853, 1854, 1855, 1856, 1857, 1858, 1859, 1860, 
1861, 1862, 1863, 1864, 1865, 1866, 1867, 1868, 1869, 1870, 
1871, 1872, 1873, 1874, 1875, 1876, 1877, 1878, 1879, 1880, 
1881, 1882, 1883, 1884, 1885, 1886, 1887, 1888, 1889, 1890, 
1891, 1892, 1893, 1894, 1895, 1896, 1897, 1898, 1899, 1900, 
1901, 1902, 1903, 1904, 1905, 1906, 1907, 1908, 1909, 1910, 
1911, 1912, 1913, 1914, 1915, 1916, 1917, 1918, 1919, 1920, 
1921, 1922, 1923, 1924, 1925, 1926, 1927, 1928, 1929, 1930, 
1931, 1932, 1933, 1934, 1935, 1936, 1937, 1938, 1939, 1940, 
1941, 1942, 1943, 1944, 1945, 1946, 1947, 1948, 1949, 1950, 
1951, 1952, 1953, 1954, 1955, 1956, 1957, 1958, 1959, 1960, 
1961, 1962, 1963, 1964, 1965, 1966, 1967, 1968, 1969, 1970, 
1971, 1972, 1973, 1974, 1975, 1976, 1977, 1978, 1979, 1980, 
1981, 1982, 1983, 1984, 1985, 1986, 1987, 1988, 1989, 1990, 
1991, 1992, 1993, 1994, 1995, 1996, 1997, 1998, 1999, 2000, 
2001, 2002, 2003, 2004, 2005, 2006, 2007, 2008, 2009, 2010, 
2011, 2012, 2013, 2014, 2015, 2016, 2017, 2018, 2019, 2020, 
2021, 2022, 2023, 2024, 2025, 2026, 2027, 2028, 2029, 2030, 
2031, 2032, 2033, 2034, 2035, 2036, 2037, 2038, 2039, 2040, 
2041, 2042, 2043, 2044, 2045, 2046, 2047, 2048, 2049, 2050, 
2051, 2052, 2053, 2054, 2055, 2056, 2057, 2058, 2059, 2060, 
2061, 2062, 2063, 2064, 2065, 2066, 2067, 2068, 2069, 2070, 
2071, 2072, 2073, 2074, 2075, 2076, 2077, 2078, 2079, 2080, 
2081, 2082, 2083, 2084, 2085, 2086, 2087, 2088, 2089, 2090, 
2091, 2092, 2093, 2094, 2095, 2096, 2097, 2098, 2099, 2100, 
2101, 2102, 2103, 2104, 2105, 2106, 2107, 2108, 2109, 2110, 
2111, 2112, 2113, 2114, 2115, 2116, 2117, 2118, 2119, 2120, 
2121, 2122, 2123, 2124, 2125, 2126, 2127, 2128, 2129, 2130, 
2131, 2132, 2133, 2134, 2135, 2136, 2137, 2138, 2139, 2140, 
2141, 2142, 2143, 2144, 2145, 2146, 2147, 2148, 2149, 2150, 
2151, 2152, 2153, 2154, 2155, 2156, 2157, 2158, 2159, 2160, 
2161, 2162, 2163, 2164, 2165, 2166, 2167, 2168, 2169, 2170, 
2171, 2172, 2173, 2174, 2175, 2176, 2177, 2178, 2179, 2180, 
2181, 2182, 2183, 2184, 2185, 2186, 2187, 2188, 2189, 2190, 
2191, 2192, 2193, 2194, 2195, 2196, 2197, 2198, 2199, 2200, 
2201, 2202, 2203, 2204, 2205, 2206, 2207, 2208, 2209, 2210, 
2211, 2212, 2213, 2214, 2215, 2216, 2217, 2218, 2219, 2220, 
2221, 2222, 2223, 2224, 2225, 2226, 2227, 2228, 2229, 2230, 
2231, 2232, 2233, 2234, 2235, 2236, 2237, 2238, 2239, 2240, 
2241, 2242, 2243, 2244, 2245, 2246, 2247, 2248, 2249, 2250, 
2251, 2252, 2253, 2254, 2255, 2256, 2257, 2258, 2259, 2260, 
2261, 2262, 2263, 2264, 2265, 2266, 2267, 2268, 2269, 2270, 
2271, 2272, 2273, 2274, 2275, 2276, 2277, 2278, 2279, 2280, 
2281, 2282, 2283, 2284, 2285, 2286, 2287, 2288, 2289, 2290, 
2291, 2292, 2293, 2294, 2295, 2296, 2297, 2298, 2299, 2300, 
2301, 2302, 2303, 2304, 2305, 2306, 2307, 2308, 2309, 2310, 
2311, 2312, 2313, 2314, 2315, 2316, 2317, 2318, 2319, 2320, 
2321, 2322, 2323, 2324, 2325, 2326, 2327, 2328, 2329, 2330, 
2331, 2332, 2333, 2334, 2335, 2336, 2337, 2338, 2339, 2340, 
2341, 2342, 2343, 2344, 2345, 2346, 2347, 2348, 2349, 2350, 
2351, 2352, 2353, 2354, 2355, 2356, 2357, 2358, 2359, 2360, 
2361, 2362, 2363, 2364, 2365, 2366, 2367, 2368, 2369, 2370, 
2371, 2372, 2373, 2374, 2375, 2376, 2377, 2378, 2379, 2380, 
2381, 2382, 2383, 2384, 2385, 2386, 2387, 2388, 2389, 2390, 
2391, 2392, 2393, 2394, 2395, 2396, 2397, 2398, 2399, 2400, 
2401, 2402, 2403, 2404, 2405, 2406, 2407, 2408, 2409, 2410, 
2411, 2412, 2413, 2414, 2415, 2416, 2417, 2418, 2419, 2420, 
2421, 2422, 2423, 2424, 2425, 2426, 2427, 2428, 2429, 2430, 
2431, 2432, 2433, 2434, 2435, 2436, 2437, 2438, 2439, 2440, 
2441, 2442, 2443, 2444, 2445, 2446, 2447, 2448, 2449, 2450, 
2451, 2452, 2453, 2454, 2455, 2456, 2457, 2458, 2459, 2460, 
2461, 2462, 2463, 2464, 2465, 2466, 2467, 2468, 2469, 2470, 
2471, 2472, 2473, 2474, 2475, 2476, 2477, 2478, 2479, 2480, 
2481, 2482, 2483, 2484, 2485, 2486, 2487, 2488, 2489, 2490, 
2491, 2492, 2493, 2494, 2495, 2496, 2497, 2498, 2499, 2500, 
2501, 2502, 2503, 2504, 2505, 2506, 2507, 2508, 2509, 2510, 
2511, 2512, 2513, 2514, 2515, 2516, 2517, 2518, 2519, 2520, 
2521, 2522, 2523, 2524, 2525, 2526, 2527, 2528, 2529, 2530, 
2531, 2532, 2533, 2534, 2535, 2536, 2537, 2538, 2539, 2540, 
2541, 2542, 2543, 2544, 2545, 2546, 2547, 2548, 2549, 2550, 
2551, 2552, 2553, 2554, 2555, 2556, 2557, 2558, 2559, 2560, 
2561, 2562, 2563, 2564, 2565, 2566, 2567, 2568, 2569, 2570, 
2571, 2572, 2573, 2574, 2575, 2576, 2577, 2578, 2579, 2580, 
2581, 2582, 2583, 2584, 2585, 2586, 2587, 2588, 2589, 2590, 
2591, 2592, 2593, 2594, 2595, 2596, 2597, 2598, 2599, 2600, 
2601, 2602, 2603, 2604, 2605, 2606, 2607, 2608, 2609, 2610, 
2611, 2612, 2613, 2614, 2615, 2616, 2617, 2618, 2619, 2620, 
2621, 2622, 2623, 2624, 2625, 2626, 2627, 2628, 2629, 2630, 
2631, 
