*Heading
 /Users/juliagao/geometry-optimization-net/scripts/../runs/fourier10/shape_2.inp
*NODE
1, 0, -0.3, 0
2, 0.425, -0.3, 0
3, 0.575, -0.3, 0
4, 1, -0.3, 0
5, 1, 0.3, 0
6, 0.575, 0.3, 0
7, 0.425, 0.3, 0
8, 0, 0.3, 0
9, 0.6982289725, 0.0555984757, 0
10, 0.024545300687908, -0.3, 0
11, 0.074763280688638, -0.3, 0
12, 0.12717017329652, -0.3, 0
13, 0.18055701457405, -0.3, 0
14, 0.2331493177257, -0.3, 0
15, 0.28379437137064, -0.3, 0
16, 0.33090190255795, -0.3, 0
17, 0.37247844036861, -0.3, 0
18, 0.40832641273387, -0.3, 0
19, 0.049090601375816, -0.3, 0
20, 0.10043596000146, -0.3, 0
21, 0.15390438659157, -0.3, 0
22, 0.20720964255652, -0.3, 0
23, 0.25908899289488, -0.3, 0
24, 0.30849974984641, -0.3, 0
25, 0.35330405526949, -0.3, 0
26, 0.39165282546773, -0.3, 0
27, 0.43899653682108, -0.3, 0
28, 0.46677806742601, -0.3, 0
29, 0.49497638783624, -0.3, 0
30, 0.52505556805866, -0.3, 0
31, 0.55786071082735, -0.3, 0
32, 0.45299307364216, -0.3, 0
33, 0.48056306120986, -0.3, 0
34, 0.50938971446262, -0.3, 0
35, 0.5407214216547, -0.3, 0
36, 0.59535134040559, -0.3, 0
37, 0.63733145120108, -0.3, 0
38, 0.68234624882244, -0.3, 0
39, 0.73050065354301, -0.3, 0
40, 0.78050381031909, -0.3, 0
41, 0.83070617917219, -0.3, 0
42, 0.88010548461115, -0.3, 0
43, 0.92840141703694, -0.3, 0
44, 0.97613281679495, -0.3, 0
45, 0.61570268081118, -0.3, 0
46, 0.65896022159098, -0.3, 0
47, 0.7057322760539, -0.3, 0
48, 0.75526903103213, -0.3, 0
49, 0.80573858960605, -0.3, 0
50, 0.85567376873833, -0.3, 0
51, 0.90453720048397, -0.3, 0
52, 0.9522656335899, -0.3, 0
53, 1, -0.27315747103271, 0
54, 1, -0.21822725811645, 0
55, 1, -0.16200136769244, 0
56, 1, -0.10671473863739, 0
57, 1, -0.052756724316691, 0
58, 1, 0.001037752690523, 0
59, 1, 0.055592093284544, 0
60, 1, 0.11133307013424, 0
61, 1, 0.16693924707475, 0
62, 1, 0.22081947217783, 0
63, 1, 0.27363252093129, 0
64, 1, -0.24631494206542, 0
65, 1, -0.19013957416749, 0
66, 1, -0.1338631612174, 0
67, 1, -0.079566316057378, 0
68, 1, -0.025947132576004, 0
69, 1, 0.02802263795705, 0
70, 1, 0.083161548612038, 0
71, 1, 0.13950459165644, 0
72, 1, 0.19437390249307, 0
73, 1, 0.24726504186258, 0
74, 0.97465453417912, 0.3, 0
75, 0.92261582224358, 0.3, 0
76, 0.8689669684021, 0.3, 0
77, 0.81760133804727, 0.3, 0
78, 0.77299339167911, 0.3, 0
79, 0.7370467653204, 0.3, 0
80, 0.70861319273704, 0.3, 0
81, 0.68518110967931, 0.3, 0
82, 0.66479744174562, 0.3, 0
83, 0.64597746249461, 0.3, 0
84, 0.62725781126387, 0.3, 0
85, 0.60734501997079, 0.3, 0
86, 0.58598417774909, 0.3, 0
87, 0.94930906835824, 0.3, 0
88, 0.89592257612891, 0.3, 0
89, 0.84201136067529, 0.3, 0
90, 0.79319131541925, 0.3, 0
91, 0.75279546793897, 0.3, 0
92, 0.72129806270183, 0.3, 0
93, 0.69592832277226, 0.3, 0
94, 0.67443389658636, 0.3, 0
95, 0.65516098690488, 0.3, 0
96, 0.63679393808434, 0.3, 0
97, 0.61772168444341, 0.3, 0
98, 0.59696835549817, 0.3, 0
99, 0.56454295000541, 0.3, 0
100, 0.5451051157808, 0.3, 0
101, 0.52847817818715, 0.3, 0
102, 0.51403732948863, 0.3, 0
103, 0.5009881907244, 0.3, 0
104, 0.48878383900115, 0.3, 0
105, 0.47670722470901, 0.3, 0
106, 0.46398657395801, 0.3, 0
107, 0.44988470460749, 0.3, 0
108, 0.43368839000488, 0.3, 0
109, 0.55408590001083, 0.3, 0
110, 0.53612433155077, 0.3, 0
111, 0.52083202482352, 0.3, 0
112, 0.50724263415373, 0.3, 0
113, 0.49473374729507, 0.3, 0
114, 0.48283393070723, 0.3, 0
115, 0.47058051871079, 0.3, 0
116, 0.45739262920522, 0.3, 0
117, 0.44237678000976, 0.3, 0
118, 0.41512239994803, 0.3, 0
119, 0.39416075783352, 0.3, 0
120, 0.37070365707271, 0.3, 0
121, 0.34502775520361, 0.3, 0
122, 0.31767857454297, 0.3, 0
123, 0.28842029777291, 0.3, 0
124, 0.25614878326238, 0.3, 0
125, 0.21897156899235, 0.3, 0
126, 0.17555306929554, 0.3, 0
127, 0.12694913585132, 0.3, 0
128, 0.076090878220205, 0.3, 0
129, 0.025267846688119, 0.3, 0
130, 0.40524479989606, 0.3, 0
131, 0.38307671577099, 0.3, 0
132, 0.35833059837443, 0.3, 0
133, 0.33172491203279, 0.3, 0
134, 0.30363223705314, 0.3, 0
135, 0.27320835849267, 0.3, 0
136, 0.23908920803208, 0.3, 0
137, 0.19885392995262, 0.3, 0
138, 0.15225220863846, 0.3, 0
139, 0.10164606306417, 0.3, 0
140, 0.050535693376238, 0.3, 0
141, 0, 0.27387359465029, 0
142, 0, 0.2212022504709, 0
143, 0, 0.16714448628999, 0
144, 0, 0.11144944038883, 0
145, 0, 0.055496263392834, 0
146, 0, 0.0004004915590895, 0
147, 0, -0.054425251307257, 0
148, 0, -0.10990991118575, 0
149, 0, -0.16562753099495, 0
150, 0, -0.2203264947868, 0
151, 0, -0.27364578558464, 0
152, 0, 0.24774718930059, 0
153, 0, 0.19465731164121, 0
154, 0, 0.13963166093877, 0
155, 0, 0.083267219838892, 0
156, 0, 0.027725306946776, 0
157, 0, -0.026924323828597, 0
158, 0, -0.081926178785918, 0
159, 0, -0.13789364358558, 0
160, 0, -0.19336141840431, 0
161, 0, -0.24729157116928, 0
162, 0.70014317887803, 0.058976069937303, 0
163, 0.69527049229837, 0.044742150281094, 0
164, 0.69648412884246, 0.037586909687139, 0
165, 0.6998809439207, 0.030769421478325, 0
166, 0.70462661271215, 0.024161145751052, 0
167, 0.70979616697308, 0.018036017834828, 0
168, 0.71495476785508, 0.012317999371128, 0
169, 0.72011927376299, 0.006687655828461, 0
170, 0.72526459588649, 0.0010123753536227, 0
171, 0.73034006613225, -0.0047862415251902, 0
172, 0.73524207481771, -0.010700395370412, 0
173, 0.73992940106705, -0.016790802041686, 0
174, 0.74436823879405, -0.023154233518336, 0
175, 0.74846564235284, -0.029838069798677, 0
176, 0.7520958409843, -0.03692641931023, 0
177, 0.75504482176699, -0.044425566816303, 0
178, 0.75698538633456, -0.05221384043287, 0
179, 0.75759204961577, -0.060152167498362, 0
180, 0.7564789665289, -0.068090027067017, 0
181, 0.75345718878198, -0.075515014274901, 0
182, 0.74878857198417, -0.08184361591746, 0
183, 0.7429547542116, -0.087011774311881, 0
184, 0.73630477034788, -0.091174148999471, 0
185, 0.72918457020788, -0.094488595116893, 0
186, 0.72192997606002, -0.097098898187075, 0
187, 0.71463459311012, -0.09920805450504, 0
188, 0.70712690184219, -0.10102676010699, 0
189, 0.6994114617535, -0.10268437399473, 0
190, 0.69181730721837, -0.10425665465583, 0
191, 0.68448632661012, -0.10587032855288, 0
192, 0.67719788429667, -0.10774353136724, 0
193, 0.66986510668496, -0.11012011264358, 0
194, 0.66276075709161, -0.113162060323, 0
195, 0.65608882173799, -0.11692429271925, 0
196, 0.64985101425797, -0.12134901480944, 0
197, 0.64394622067431, -0.12619751820798, 0
198, 0.63812066161085, -0.13118121203556, 0
199, 0.63210757432967, -0.13597786857867, 0
200, 0.62568891604645, -0.14025234582109, 0
201, 0.61872196354948, -0.1436979100205, 0
202, 0.61125430317193, -0.14605173458324, 0
203, 0.60352033124013, -0.14721035419736, 0
204, 0.59576938794409, -0.147291204539, 0
205, 0.5881188594696, -0.14653060364739, 0
206, 0.58057972737458, -0.14517740902053, 0
207, 0.57311164701622, -0.14347684924936, 0
208, 0.56554103822436, -0.14167369507205, 0
209, 0.55783667811059, -0.14015533293928, 0
210, 0.55022752775834, -0.13951588252051, 0
211, 0.54268556334509, -0.1404059347204, 0
212, 0.53550833095572, -0.14323658376301, 0
213, 0.52926377255375, -0.14747517159497, 0
214, 0.52376568200894, -0.15241113582635, 0
215, 0.51859480053598, -0.15774681378204, 0
216, 0.51353598949575, -0.16328608304525, 0
217, 0.50843827549286, -0.1688920399432, 0
218, 0.50312825973618, -0.17451240686499, 0
219, 0.4975030616942, -0.18003281826608, 0
220, 0.49156936853063, -0.18522693891071, 0
221, 0.48534211112148, -0.18988434979813, 0
222, 0.47873987989263, -0.19385804544965, 0
223, 0.47164498911577, -0.19696644525671, 0
224, 0.46408236616717, -0.19889033006132, 0
225, 0.45626387209433, -0.19930262175051, 0
226, 0.44848446661006, -0.19803302718263, 0
227, 0.44108338661337, -0.19515708777933, 0
228, 0.43429452513261, -0.19099634686962, 0
229, 0.42812082527535, -0.1858795124611, 0
230, 0.42257021087355, -0.18017907943531, 0
231, 0.41755608534021, -0.17418215763703, 0
232, 0.41288389427254, -0.16798059351346, 0
233, 0.4084742344325, -0.16175606816658, 0
234, 0.404207053892, -0.15560245149702, 0
235, 0.39990370571113, -0.14949695729278, 0
236, 0.39545582602012, -0.14349674101306, 0
237, 0.39078944988125, -0.13766417671652, 0
238, 0.38587977852613, -0.13204022587283, 0
239, 0.38075586557877, -0.1265996006902, 0
240, 0.37549316588915, -0.12123159054618, 0
241, 0.37024008372797, -0.11579667462978, 0
242, 0.36513957677371, -0.11010015744659, 0
243, 0.36033529335733, -0.10395271864752, 0
244, 0.35601248963879, -0.097296483368604, 0
245, 0.35235923185809, -0.090315560455628, 0
246, 0.34940632523791, -0.08327551375021, 0
247, 0.34696744227951, -0.076176065971369, 0
248, 0.34476861184047, -0.068758699858553, 0
249, 0.34262074076103, -0.061162608496765, 0
250, 0.34034835825938, -0.05382115033678, 0
251, 0.33768484399232, -0.046808418129625, 0
252, 0.33441176819155, -0.040122364309215, 0
253, 0.33050424012797, -0.033814983855449, 0
254, 0.32609347568395, -0.027797250769092, 0
255, 0.32145251281803, -0.021924782556708, 0
256, 0.31689519976277, -0.01601007719933, 0
257, 0.31267685870395, -0.0097843548514851, 0
258, 0.30910318057745, -0.0030316826113022, 0
259, 0.30653519937022, 0.004356154638847, 0
260, 0.3053050266039, 0.012217330426004, 0
261, 0.30545739047134, 0.020084898809064, 0
262, 0.30669909462728, 0.027777666937572, 0
263, 0.3086413137296, 0.035311552528672, 0
264, 0.31079583624552, 0.042612804431729, 0
265, 0.3126725735071, 0.049895808745641, 0
266, 0.31365130206137, 0.057397014993633, 0
267, 0.31306772541713, 0.064891075572144, 0
268, 0.31086975111028, 0.071952654223188, 0
269, 0.30752325633872, 0.078554541341834, 0
270, 0.30346494453544, 0.084890848695301, 0
271, 0.29906237817356, 0.091019644781894, 0
272, 0.2945049115758, 0.0970785021548, 0
273, 0.28979646346513, 0.10333291478052, 0
274, 0.28497221321627, 0.10996335119269, 0
275, 0.28028685418145, 0.11685766351526, 0
276, 0.2760274003314, 0.12379692856143, 0
277, 0.27226482670629, 0.13085660007684, 0
278, 0.26908365936542, 0.13813222662813, 0
279, 0.266642924733, 0.14566320772234, 0
280, 0.26515387189071, 0.15357229459245, 0
281, 0.26497030664306, 0.16174229363575, 0
282, 0.26639931746235, 0.16967793644227, 0
283, 0.26946844169493, 0.1769690593087, 0
284, 0.27405556139891, 0.18344917386271, 0
285, 0.27983757392725, 0.18896308608681, 0
286, 0.2864014451991, 0.19350937214848, 0
287, 0.29338306705256, 0.19719916326336, 0
288, 0.30057635714218, 0.2002194836235, 0
289, 0.30803417440544, 0.20279793475401, 0
290, 0.31571732721715, 0.20507076315039, 0
291, 0.32341309279773, 0.20712201106379, 0
292, 0.33106323314494, 0.20908018249666, 0
293, 0.33870013961725, 0.21108930298573, 0
294, 0.3461966116995, 0.21324127778585, 0
295, 0.35346277218828, 0.2156048036927, 0
296, 0.36060464181308, 0.21826638268107, 0
297, 0.36779177774177, 0.22129363312863, 0
298, 0.37512814267514, 0.22466442456398, 0
299, 0.38242240181801, 0.22813647336646, 0
300, 0.38952837191631, 0.23146166483799, 0
301, 0.39676061883927, 0.23466349558496, 0
302, 0.40412922042314, 0.23769843037695, 0
303, 0.41136972866237, 0.24050973663903, 0
304, 0.41841130795656, 0.24319609750567, 0
305, 0.42533594307009, 0.2459352120479, 0
306, 0.43218695696493, 0.24887830627959, 0
307, 0.43891265520726, 0.25208431207425, 0
308, 0.44570855047338, 0.25564744181647, 0
309, 0.45256509717684, 0.25945782564035, 0
310, 0.4593697143667, 0.26323108488676, 0
311, 0.46624838329276, 0.26675375842867, 0
312, 0.47338738610011, 0.26979998181025, 0
313, 0.48094620242085, 0.27205872125606, 0
314, 0.48891121412104, 0.2731011481636, 0
315, 0.49703746387683, 0.27252755365855, 0
316, 0.50484611863086, 0.27024072030427, 0
317, 0.5119485840827, 0.26655036652121, 0
318, 0.51827688094358, 0.26188763217428, 0
319, 0.5240435362086, 0.25649400146503, 0
320, 0.5294719200344, 0.25049619656236, 0
321, 0.53472798750635, 0.24406758278595, 0
322, 0.53991315079679, 0.23760212886361, 0
323, 0.54515506683786, 0.23168966847203, 0
324, 0.55091309969205, 0.22686334181765, 0
325, 0.55748683947466, 0.22401246178071, 0
326, 0.56441461210061, 0.2236073143785, 0
327, 0.57146403467551, 0.22504723068274, 0
328, 0.57864628696137, 0.22758153519431, 0
329, 0.58594343913308, 0.23070384153243, 0
330, 0.59325174007518, 0.23403103790183, 0
331, 0.60044365561191, 0.23727166922529, 0
332, 0.60768570419126, 0.24034822113505, 0
333, 0.61505212283207, 0.2431605592053, 0
334, 0.62253232975121, 0.24557705391848, 0
335, 0.63021223475102, 0.24747224306391, 0
336, 0.63808569611098, 0.24864355771871, 0
337, 0.64598517560103, 0.24881539066632, 0
338, 0.65380040443214, 0.24765190273004, 0
339, 0.66127301573765, 0.24475624823919, 0
340, 0.66774586196448, 0.23996030689775, 0
341, 0.67269065356734, 0.23368211114951, 0
342, 0.67610663415227, 0.22656911277751, 0
343, 0.67832029213096, 0.21908162489621, 0
344, 0.67970296572668, 0.21142286466745, 0
345, 0.68055112934495, 0.20374317159494, 0
346, 0.68113518996014, 0.1961333424103, 0
347, 0.68172494096062, 0.18858473656806, 0
348, 0.68262549740963, 0.18105090117521, 0
349, 0.68421007189981, 0.17363111089171, 0
350, 0.68687165026433, 0.16647690681425, 0
351, 0.69086593305903, 0.15973414296626, 0
352, 0.69586277454874, 0.15371510105381, 0
353, 0.70122889481603, 0.14836468502752, 0
354, 0.7066911884631, 0.14322654194004, 0
355, 0.71219163725466, 0.13777416793888, 0
356, 0.71753754434206, 0.13150178860478, 0
357, 0.72203107806142, 0.12423401482541, 0
358, 0.72480801676211, 0.11630075936395, 0
359, 0.72552441886291, 0.10806388602689, 0
360, 0.72428504949517, 0.099867174323363, 0
361, 0.72150853869241, 0.092026146673083, 0
362, 0.7176970191312, 0.084664639210172, 0
363, 0.71337857558817, 0.077893466482515, 0
364, 0.70887835199315, 0.071563811458837, 0
365, 0.70437614738686, 0.065379211491662, 0
366, 0.69665356049121, 0.052088734374705, 0
367, 0.70222443861993, 0.062252879151169, 0
368, 0.70659772044346, 0.068456030303629, 0
369, 0.7111381924824, 0.074686812811504, 0
370, 0.715539243014, 0.081154519786685, 0
371, 0.71969451087374, 0.088268763240168, 0
372, 0.7230610870349, 0.095899575897189, 0
373, 0.72512590960334, 0.10393410307132, 0
374, 0.72542374919438, 0.11221265284043, 0
375, 0.72368723241664, 0.12028023518515, 0
376, 0.71995189895987, 0.12798132868323, 0
377, 0.71486072021819, 0.13482579052828, 0
378, 0.70940383037903, 0.14061001139425, 0
379, 0.70394553884905, 0.14580826128243, 0
380, 0.69854771914155, 0.15095846066822, 0
381, 0.69330932176444, 0.15659463302514, 0
382, 0.68868721069228, 0.16306387490957, 0
383, 0.68537086105246, 0.17003963961589, 0
384, 0.68331239069068, 0.1772965594375, 0
385, 0.68211203047067, 0.18483246069008, 0
386, 0.68141214247661, 0.19234380621696, 0
387, 0.68086036318119, 0.19992302996936, 0
388, 0.68017849769856, 0.20755773807606, 0
389, 0.67909530841424, 0.21526964893439, 0
390, 0.6773414763064, 0.22284679436532, 0
391, 0.67457824576336, 0.23018162149806, 0
392, 0.67043194118356, 0.23695678917708, 0
393, 0.66468034189225, 0.24257552344833, 0
394, 0.65759904313577, 0.24644810937138, 0
395, 0.64989296921548, 0.24842894525266, 0
396, 0.64205944761443, 0.24887244947597, 0
397, 0.63413445594438, 0.24816594707586, 0
398, 0.62632710873076, 0.24659535653613, 0
399, 0.61877571415155, 0.24442628156995, 0
400, 0.61136265538145, 0.24179877482719, 0
401, 0.60403636578538, 0.23882965221991, 0
402, 0.59686808437752, 0.23567481831737, 0
403, 0.58963911164515, 0.23237912276616, 0
404, 0.58222850775469, 0.22907154077809, 0
405, 0.57501926919308, 0.22620319726946, 0
406, 0.56783833684395, 0.22413251054331, 0
407, 0.56094873945199, 0.22353173582674, 0
408, 0.55416207227888, 0.22509692194196, 0
409, 0.54795731030851, 0.22907893108879, 0
410, 0.5425523777223, 0.23449710025178, 0
411, 0.53735158794014, 0.24077114740326, 0
412, 0.5320870308536, 0.24735018238783, 0
413, 0.52677746381697, 0.2535747279305, 0
414, 0.52119029484551, 0.25929710874293, 0
415, 0.51521835960338, 0.26430564535287, 0
416, 0.50851382494136, 0.26853450206195, 0
417, 0.50102952812908, 0.27158277448113, 0
418, 0.49296661032724, 0.2730343576042, 0
419, 0.48487048732804, 0.27275760183829, 0
420, 0.47709140453913, 0.27104682894219, 0
421, 0.46975961845113, 0.26834719912149, 0
422, 0.46279453125214, 0.26503996637191, 0
423, 0.45597492813842, 0.26136664683861, 0
424, 0.44915572500604, 0.25754818759414, 0
425, 0.44223732146316, 0.25379088301514, 0
426, 0.4355558182767, 0.25044185444102, 0
427, 0.42878798633752, 0.24738136934274, 0
428, 0.42186302501922, 0.24454002339176, 0
429, 0.4149514656009, 0.24187327977081, 0
430, 0.4077920283109, 0.23913561475515, 0
431, 0.40048145718459, 0.23622343561158, 0
432, 0.3930612568989, 0.23305329610147, 0
433, 0.38601250406009, 0.22983283605983, 0
434, 0.3788384371657, 0.22642720889145, 0
435, 0.37140577074553, 0.22292722731029, 0
436, 0.36415146777405, 0.21971946064737, 0
437, 0.35702757839928, 0.216889377837, 0
438, 0.34987136195753, 0.2143966217546, 0
439, 0.3425021759239, 0.21215062043512, 0
440, 0.33488640800541, 0.210070922781, 0
441, 0.32723676159454, 0.20810228886504, 0
442, 0.31959424916049, 0.20612304851837, 0
443, 0.31185504009494, 0.20396582610221, 0
444, 0.30424080447954, 0.20154337356342, 0
445, 0.29695591384621, 0.19877930046911, 0
446, 0.28988293792388, 0.19546349833176, 0
447, 0.28304293146794, 0.19135007799001, 0
448, 0.27682689581297, 0.18633406578795, 0
449, 0.27157878659786, 0.18030697485309, 0
450, 0.26773257230572, 0.17342143918412, 0
451, 0.26548321865905, 0.16581147974736, 0
452, 0.26487500821226, 0.15764273263152, 0
453, 0.26576505512033, 0.14953885214688, 0
454, 0.26776346091032, 0.14185099347359, 0
455, 0.2705844014891, 0.13448277038219, 0
456, 0.27408403736349, 0.12729818457661, 0
457, 0.27807563683437, 0.12035606390055, 0
458, 0.28257884337716, 0.11341171157907, 0
459, 0.28742140010274, 0.10655445960105, 0
460, 0.29219735559583, 0.10013059952023, 0
461, 0.29681268978436, 0.09402657306201, 0
462, 0.30127929310699, 0.087988424189864, 0
463, 0.30556844561159, 0.081736685428196, 0
464, 0.30931971636739, 0.075279897406563, 0
465, 0.31213637396091, 0.068506553539817, 0
466, 0.31357780203021, 0.061191558319062, 0
467, 0.31332313540199, 0.053616857556973, 0
468, 0.31179835018401, 0.046221871498677, 0
469, 0.30973319143069, 0.039021202143553, 0
470, 0.30761442230684, 0.031583203186338, 0
471, 0.30596194532513, 0.023933218535347, 0
472, 0.30522319405806, 0.016210210700194, 0
473, 0.30573996038699, 0.0082469804026894, 0
474, 0.30767966483726, 0.00055350180260733, 0
475, 0.31079475479394, -0.0064979795779327, 0
476, 0.31473432057298, -0.012963419605908, 0
477, 0.31914749815664, -0.018989504327947, 0
478, 0.32377557611607, -0.024845737006275, 0
479, 0.32835696372622, -0.030790869848153, 0
480, 0.33253139014465, -0.036921142192102, 0
481, 0.33612853335451, -0.043414249540096, 0
482, 0.33908050955118, -0.050271526641481, 0
483, 0.34150333605744, -0.057408884257769, 0
484, 0.34369125008052, -0.064929890993362, 0
485, 0.34587186370208, -0.072580169199779, 0
486, 0.34813992117608, -0.079747717418307, 0
487, 0.35078873541247, -0.086759600401488, 0
488, 0.35408101352463, -0.093800903039595, 0
489, 0.35810898453177, -0.10069570192558, 0
490, 0.36270298597549, -0.10710835484649, 0
491, 0.36767487601004, -0.11300861435699, 0
492, 0.37285773786803, -0.11853542431118, 0
493, 0.37813801732495, -0.12391848967127, 0
494, 0.38334594758331, -0.12930759186406, 0
495, 0.38836000770011, -0.1348216369771, 0
496, 0.39315569867341, -0.14055954141194, 0
497, 0.39770111947644, -0.14647603443756, 0
498, 0.4020697943656, -0.1525441195699, 0
499, 0.40633243918943, -0.15866903460258, 0
500, 0.41063117670638, -0.16483255412534, 0
501, 0.41518257866082, -0.17109528449444, 0
502, 0.4200067902367, -0.17720822830148, 0
503, 0.42524280166198, -0.18305232504117, 0
504, 0.43114676980741, -0.18854822931964, 0
505, 0.43760799949633, -0.19321586534238, 0
506, 0.44471938994997, -0.19677878614602, 0
507, 0.45236174714738, -0.19888133146006, 0
508, 0.4601887326166, -0.19930355595602, 0
509, 0.46791611196357, -0.19809702492143, 0
510, 0.475267891598, -0.19553340213283, 0
511, 0.48209742514487, -0.19196442320156, 0
512, 0.48847869117999, -0.18764494425128, 0
513, 0.4945650064924, -0.1826923434958, 0
514, 0.5003638098111, -0.17729044510818, 0
515, 0.50583967077034, -0.17168265496259, 0
516, 0.51100982771823, -0.16607651508221, 0
517, 0.516065106163, -0.16049832404632, 0
518, 0.52116416296002, -0.15503219194328, 0
519, 0.52645334850569, -0.1498781701502, 0
520, 0.53222837965182, -0.14526394641724, 0
521, 0.53899543254631, -0.14158674690368, 0
522, 0.54649847509861, -0.13972088378663, 0
523, 0.5539568265719, -0.13968345241693, 0
524, 0.56168351464491, -0.14084234955466, 0
525, 0.56938225453366, -0.14257668882105, 0
526, 0.57684604363959, -0.1443561829234, 0
527, 0.58433155804843, -0.14591193222756, 0
528, 0.59192770979523, -0.14700024490121, 0
529, 0.59962147550166, -0.14737201915622, 0
530, 0.60739868158577, -0.1467772207969, 0
531, 0.61504037861662, -0.14502243567726, 0
532, 0.62228966061426, -0.14209192351849, 0
533, 0.62896302999375, -0.13819897964999, 0
534, 0.63515319158896, -0.13362350331854, 0
535, 0.64104524701181, -0.1286879640522, 0
536, 0.64687255392951, -0.12373678510857, 0
537, 0.65291394930149, -0.11907015950108, 0
538, 0.65937259548752, -0.11494862270681, 0
539, 0.66624095506779, -0.11156236075724, 0
540, 0.67355201987997, -0.10884755131806, 0
541, 0.68087580393452, -0.1067520250831, 0
542, 0.68811139467056, -0.10505078770991, 0
543, 0.69552809551639, -0.10348572040848, 0
544, 0.70329174251317, -0.10186815407784, 0
545, 0.71095069581143, -0.1001349653369, 0
546, 0.71829763266651, -0.098201619415828, 0
547, 0.72552573060533, -0.09588184170274, 0
548, 0.73277708202844, -0.092931699872912, 0
549, 0.73971780038571, -0.089202489649026, 0
550, 0.74600018799286, -0.084560729088098, 0
551, 0.75127839493479, -0.078849810446298, 0
552, 0.75519627626826, -0.071930251705045, 0
553, 0.75727609698969, -0.064120937277544, 0
554, 0.75747793218784, -0.056173435630852, 0
555, 0.75616561711358, -0.048309472471739, 0
556, 0.75367222141876, -0.040623769473163, 0
557, 0.75034092090161, -0.033310608012483, 0
558, 0.74645915186587, -0.026439796316049, 0
559, 0.74218217792183, -0.019931266023709, 0
560, 0.73760368516039, -0.013704016576872, 0
561, 0.73282708618184, -0.0077395571309402, 0
562, 0.7278134051419, -0.001866794087348, 0
563, 0.72269037269639, 0.003868826494239, 0
564, 0.71754003493674, 0.0094990313835019, 0
565, 0.71237948342631, 0.015146101904217, 0
566, 0.7072595803846, 0.020967129875893, 0
567, 0.70211645391182, 0.027453220565573, 0
568, 0.69791328724764, 0.034252635351477, 0
569, 0.69556290711632, 0.041099807890545, 0
570, 0.69562093563167, 0.048379403965191, 0
571, 0.50041849967713, -0.25967812180491, 0
572, 0.44299073301603, 0.26192458971925, 0
573, 0.095864314453646, -0.24683561500377, 0
574, 0.047401370574107, -0.24681650596666, 0
575, 0.14623972913926, -0.24705176719073, 0
576, 0.19909939238612, -0.24766226652676, 0
577, 0.25612194226744, -0.24970228046367, 0
578, 0.32185096603461, -0.25090700048525, 0
579, 0.70214102532158, 0.053566635351496, 0
580, 0.59685451555907, 0.24158259775895, 0
581, 0.5753104797889, -0.26324777307388, 0
582, 0.044091225781412, 0.20094618067761, 0
583, 0.093970968981111, 0.25626564596898, 0
584, 0.046721139101414, 0.25156494396344, 0
585, 0.14809439003175, 0.13476862810371, 0
586, 0.2273137864855, 0.24438035681666, 0
587, 0.30694652938049, 0.21341785912233, 0
588, 0.37942782150309, 0.24657393148338, 0
589, 0.37532253558622, 0.25309337436655, 0
590, 0.44827749149072, 0.25908790581581, 0
591, 0.42421361772865, 0.26980664985852, 0
592, 0.42612746065803, 0.25808611487762, 0
593, 0.43496964498169, 0.25553584123353, 0
594, 0.40518842759983, 0.24857073261087, 0
595, 0.044344577138997, 0.14655389240477, 0
596, 0.047093233150974, 0.086516995043701, 0
597, 0.046412375704252, 0.027292931132994, 0
598, 0.045347271016047, -0.19288339902849, 0
599, 0.044203921700265, -0.13792275231344, 0
600, 0.044104941107699, -0.082615103344771, 0
601, 0.044927725108511, -0.027855671938998, 0
602, 0.47101607483215, -0.20074557613961, 0
603, 0.43952649284869, -0.21687986304386, 0
604, 0.39909840143381, -0.27270061933702, 0
605, 0.36738879239791, -0.2664794230978, 0
606, 0.88146494886726, 0.25365395905458, 0
607, 0.97826390128419, 0.10272798097922, 0
608, 0.90481071693011, 0.25213081645893, 0
609, 0.85087182457276, 0.096150186272346, 0
610, 0.72223491466696, 0.23154620782211, 0
611, 0.72844395112733, 0.26058894642863, 0
612, 0.69270725941213, 0.2333287374791, 0
613, 0.65996655079892, 0.29281228423072, 0
614, 0.70769387096403, 0.26748095163793, 0
615, 0.64099859750376, 0.27181655401693, 0
616, 0.6571813162177, 0.26505031240946, 0
617, 0.52135341301991, 0.29204657059569, 0
618, 0.59678605993966, 0.23869224151058, 0
619, 0.53822228666701, 0.28133058030929, 0
620, 0.6642015561495, 0.26422429656084, 0
621, 0.6870816013694, 0.21248359429587, 0
622, 0.6983712855138, 0.15670923418171, 0
623, 0.69781301926724, 0.19088424160197, 0
624, 0.70935785568776, 0.17421327709718, 0
625, 0.69391713353875, 0.16449405079273, 0
626, 0.72421413213261, 0.15344808536282, 0
627, 0.714865714609, 0.14816751400778, 0
628, 0.73837621250403, 0.079455984656017, 0
629, 0.80876527437836, 0.1097826292017, 0
630, 0.71472142944835, 0.16068405457393, 0
631, 0.72708351053325, 0.068482985849834, 0
632, 0.73058340104837, 0.039861244481328, 0
633, 0.73343263367774, 0.13069051618297, 0
634, 0.7353949431601, 0.12679526667895, 0
635, 0.79526292173942, 0.1620980508874, 0
636, 0.7327628696139, 0.093182545444092, 0
637, 0.85076498447192, 0.27749335312925, 0
638, 0.75932104690128, -0.028037212462773, 0
639, 0.96362196289553, 0.021269325325277, 0
640, 0.86246315139038, -0.1599667879663, 0
641, 0.54270073918892, -0.26715366317746, 0
642, 0.51294787909814, -0.27157901502155, 0
643, 0.6110217451573, -0.25788206718542, 0
644, 0.68788880374595, -0.16372509797666, 0
645, 0.98245263730978, -0.0008658934708532, 0
646, 0.95956617221871, -0.17198809695468, 0
647, 0.91884143185732, -0.19186935449382, 0
648, 0.85285409015552, -0.052382182661138, 0
649, 0.79942266846207, 0.019257380818578, 0
650, 0.91117260707058, -0.10776176602136, 0
651, 0.81545027972176, -0.2090144676122, 0
652, 0.16647994555765, 0.12569899198502, 0
653, 0.22943946733336, 0.21551243263116, 0
654, 0.32549106434404, 0.21873581825631, 0
655, 0.25455981005669, 0.20491483809698, 0
656, 0.26743487312868, 0.19460458766799, 0
657, 0.21938349817131, 0.19300127429072, 0
658, 0.2421602476721, 0.19237678931631, 0
659, 0.11398570982142, 0.23721551604749, 0
660, 0.22137130030172, 0.18052127595073, 0
661, 0.21372373841325, 0.1699744848094, 0
662, 0.25935882643373, 0.18636076479017, 0
663, 0.25331622860987, 0.17685533624353, 0
664, 0.23504900110987, 0.17942699505209, 0
665, 0.23062582881819, 0.16751338587029, 0
666, 0.2491720595502, 0.16678006552807, 0
667, 0.24673328807651, 0.1564735058851, 0
668, 0.22647468502076, 0.15484264621589, 0
669, 0.20812782469244, 0.15377580610204, 0
670, 0.14506084610861, 0.15639642907129, 0
671, 0.17638142167751, 0.18964237772272, 0
672, 0.24617285596034, 0.13595352743907, 0
673, 0.16294232604756, 0.16323892489629, 0
674, 0.20051031630884, 0.16350900635386, 0
675, 0.088464121317682, 0.20936726931066, 0
676, 0.20391384584589, 0.19665945703637, 0
677, 0.21077822548786, 0.27048749774463, 0
678, 0.22758903920971, 0.23024227509426, 0
679, 0.26740155319138, 0.20344850627658, 0
680, 0.31147016906966, 0.22133249749728, 0
681, 0.27335462382921, 0.20662843676909, 0
682, 0.24933799436846, 0.27357999283748, 0
683, 0.28372596846932, 0.22407976439365, 0
684, 0.33350061534229, 0.27769008566507, 0
685, 0.28165928821038, 0.2033602325494, 0
686, 0.26358363057123, 0.26168714698976, 0
687, 0.23096071205916, 0.27234879079609, 0
688, 0.37814712108778, 0.2364162019026, 0
689, 0.3980877196556, 0.24370014633876, 0
690, 0.39250580282846, 0.28572633497864, 0
691, 0.27713943515, 0.21557482889576, 0
692, 0.30918526498255, 0.24184194963524, 0
693, 0.31500776287976, 0.20652058166411, 0
694, 0.38922300710322, 0.23454905857155, 0
695, 0.30101979992548, 0.20900147023407, 0
696, 0.40733354620356, 0.28027370981601, 0
697, 0.37831481003595, 0.23148475822106, 0
698, 0.41688102705888, 0.27496279306643, 0
699, 0.3572206949527, 0.24566411112732, 0
700, 0.3920623156951, 0.24314366918017, 0
701, 0.39761817687469, 0.25636993602896, 0
702, 0.35605805062367, 0.25302998197473, 0
703, 0.48921941110967, 0.28538272534295, 0
704, 0.43895828512503, 0.26143333932787, 0
705, 0.4541820774907, 0.27237754097831, 0
706, 0.43971675328807, 0.26615254575294, 0
707, 0.44808190248482, 0.29069557062161, 0
708, 0.36789681598443, 0.28914104953475, 0
709, 0.42993532729202, 0.2708398781972, 0
710, 0.46251629482959, 0.27145235602448, 0
711, 0.448512719974, 0.26517872112963, 0
712, 0.37433509611451, 0.23019896149695, 0
713, 0.38354156202065, 0.25776869963751, 0
714, 0.36490727673574, 0.23356335001089, 0
715, 0.38705878802179, 0.26385244894385, 0
716, 0.391994044221, 0.27020578973657, 0
717, 0.41844771868151, 0.26822752079578, 0
718, 0.37848789261705, 0.24140236547822, 0
719, 0.43555421787295, 0.27132205316283, 0
720, 0.30990052385049, 0.20959064602147, 0
721, 0.31519653585117, 0.24748082259107, 0
722, 0.31398110919985, 0.21603053514846, 0
723, 0.32571845476702, 0.26488300253952, 0
724, 0.29094995154851, 0.21230735293947, 0
725, 0.28416853811097, 0.21718412767408, 0
726, 0.32943056561115, 0.2208701741897, 0
727, 0.30833878125359, 0.22781990621141, 0
728, 0.3054425075707, 0.2229617118842, 0
729, 0.29298556209856, 0.088666571069316, 0
730, 0.24856490591734, 0.089368475466969, 0
731, 0.26359966940664, 0.06234259020766, 0
732, 0.29642334916113, 0.067765071312357, 0
733, 0.29746533339531, 0.063480040859206, 0
734, 0.21593640659793, 0.12472562945154, 0
735, 0.30684584375555, 0.059260780432328, 0
736, 0.30853777550592, 0.054356228135797, 0
737, 0.30552857261617, 0.05014663560911, 0
738, 0.30082379299036, 0.055819086871034, 0
739, 0.25259445435596, 0.083756276379301, 0
740, 0.30224598222153, 0.076185993586459, 0
741, 0.29881947720636, 0.084047940786325, 0
742, 0.29227136991865, 0.07683617560672, 0
743, 0.29702208216619, 0.08033267255963, 0
744, 0.23284026730968, -0.0050249552256721, 0
745, 0.28024257755566, -0.012140001215284, 0
746, 0.28295385811413, -0.0050595715146547, 0
747, 0.28701312131405, 0.042401405041796, 0
748, 0.29630448651765, -0.0049920217912562, 0
749, 0.30240416027405, -0.0087504694290216, 0
750, 0.29764538443037, 0.053345491436666, 0
751, 0.27384259399821, -0.0031422189631097, 0
752, 0.22873207676021, 0.096374999425224, 0
753, 0.21148986887313, 0.11936354173011, 0
754, 0.30607019925823, 0.074085253580824, 0
755, 0.24250697471932, 0.10071017318973, 0
756, 0.22895095054551, 0.051151193695055, 0
757, 0.30121887761638, 0.064884479969917, 0
758, 0.30293029473897, 0.073123395142372, 0
759, 0.24585977354236, 0.14615786155498, 0
760, 0.22605951179644, 0.14246321967707, 0
761, 0.20849313448272, 0.13699081313453, 0
762, 0.21540717256661, 0.095353923844917, 0
763, 0.10862585024711, 0.1904125150433, 0
764, 0.28996608528516, 0.083189135680716, 0
765, 0.1615726647053, 0.089782811190053, 0
766, 0.24799608138988, 0.12612164423546, 0
767, 0.23657105873433, 0.12810089156622, 0
768, 0.25559911526095, 0.10700210118635, 0
769, 0.23276055775487, 0.082082419231981, 0
770, 0.27948903074642, 0.099507863873636, 0
771, 0.29737177663644, 0.035821746469669, 0
772, 0.3004281075502, 0.049957553328263, 0
773, 0.19811607642635, 0.065986705556807, 0
774, 0.2954728011953, -0.059253603721606, 0
775, 0.17471573034898, 0.053617611069333, 0
776, 0.2926816222339, -0.0024379295076579, 0
777, 0.30479595880679, 0.066109830537932, 0
778, 0.19775545679074, 0.15290041014437, 0
779, 0.087335575099112, 0.15763527387041, 0
780, 0.28562628795095, -0.039657598376882, 0
781, 0.094688699138278, 0.024474283686271, 0
782, 0.18899480347066, -0.19329254089901, 0
783, 0.25109641167301, -0.19251186965864, 0
784, 0.30995757817792, -0.052067184732244, 0
785, 0.18006613958691, -0.1382015665482, 0
786, 0.1393861150959, -0.19297955883713, 0
787, 0.089151522351637, -0.13787720093826, 0
788, 0.091654930684692, -0.1928578364999, 0
789, 0.091118543606202, -0.02828246591475, 0
790, 0.1349721444889, -0.13764933741207, 0
791, 0.089286916023756, -0.082367284885878, 0
792, 0.26458491504197, 0.040486447833607, 0
793, 0.28690419240009, 0.051222499359717, 0
794, 0.24763468455839, 0.021679800778106, 0
795, 0.19057987864628, -0.015975247467664, 0
796, 0.13959188180745, -0.026252135331039, 0
797, 0.27272156759709, -0.078906719077848, 0
798, 0.31800413962615, -0.043858650011332, 0
799, 0.13436751571605, -0.10933748112853, 0
800, 0.28640392405967, -0.073087455328401, 0
801, 0.30814585200195, -0.033762562611658, 0
802, 0.41739719879646, -0.22028518964195, 0
803, 0.47023165943355, -0.20441772313322, 0
804, 0.47596928253291, -0.21375124350044, 0
805, 0.37744361631987, -0.14408237718373, 0
806, 0.36323200343358, -0.22646172670355, 0
807, 0.44740335558722, -0.222896292295, 0
808, 0.46393175519067, -0.20622586757835, 0
809, 0.45403886260438, -0.23760622248846, 0
810, 0.45002038854372, -0.21090101176107, 0
811, 0.45771235692252, -0.22639648267066, 0
812, 0.47130080584608, -0.23611654789629, 0
813, 0.4748362538734, -0.19987340535981, 0
814, 0.46938354207259, -0.22546922458654, 0
815, 0.44007472068567, -0.22377759681908, 0
816, 0.44447408079004, -0.20599607410299, 0
817, 0.49308821734635, -0.22728644674279, 0
818, 0.43116235773199, -0.25152279854245, 0
819, 0.46079850085189, -0.24696238296306, 0
820, 0.48256005001175, -0.19700896530134, 0
821, 0.48142739531401, -0.21379267425019, 0
822, 0.34254432819238, -0.12674317212743, 0
823, 0.37825467931231, -0.17860010858321, 0
824, 0.39848909681644, -0.19766165777686, 0
825, 0.37744041696945, -0.16026183789498, 0
826, 0.34505737309419, -0.14501709759298, 0
827, 0.34898810883904, -0.13769949381695, 0
828, 0.33849001514477, -0.12368446240384, 0
829, 0.20185215075059, -0.13904298946969, 0
830, 0.35790215236284, -0.13095019618367, 0
831, 0.36708986916368, -0.15209416252975, 0
832, 0.40101160282483, -0.16086623734334, 0
833, 0.31554262984274, -0.12754280718638, 0
834, 0.36945284615842, -0.16606993384727, 0
835, 0.28029583487833, -0.1636804707045, 0
836, 0.34411921022113, -0.11884397465122, 0
837, 0.32244184563461, -0.13257977202061, 0
838, 0.3922742219649, -0.15150789566306, 0
839, 0.33699036647707, -0.11145104715677, 0
840, 0.31658676355929, -0.14081183362889, 0
841, 0.35468390437752, -0.12790848726632, 0
842, 0.37019251585651, -0.14678506129343, 0
843, 0.3768781093984, -0.16606990881325, 0
844, 0.36398919604198, -0.15813533968249, 0
845, 0.37982761159707, -0.13339281381083, 0
846, 0.39151364578422, -0.23067113180474, 0
847, 0.41434221013601, -0.22880788876216, 0
848, 0.40731727288105, -0.24877099383689, 0
849, 0.403475178619, -0.21353128935937, 0
850, 0.39000548818876, -0.25710639773221, 0
851, 0.39509165323399, -0.17845240765242, 0
852, 0.3440883372116, -0.13353468249623, 0
853, 0.33317483518, -0.20905148474915, 0
854, 0.38373947001378, -0.21051839379135, 0
855, 0.38850367344206, -0.14073150975115, 0
856, 0.35674381157227, -0.15546585698603, 0
857, 0.38427299525784, -0.15115689738592, 0
858, 0.39921471226581, -0.15737317954729, 0
859, 0.4029382730554, -0.16441301570506, 0
860, 0.39168529447088, -0.14847515885592, 0
861, 0.49925983242821, -0.19292761220241, 0
862, 0.49537860982479, -0.19581760164311, 0
863, 0.47323228909842, -0.26134952742051, 0
864, 0.31486793359869, -0.10985949366691, 0
865, 0.30201739316554, -0.062380052424818, 0
866, 0.34644428743883, -0.18280704818902, 0
867, 0.30599537355449, -0.11408619725231, 0
868, 0.3628140310725, -0.12681559927357, 0
869, 0.35640475730843, -0.1209104505077, 0
870, 0.33903674541326, -0.13199873965208, 0
871, 0.33879706419113, -0.15706625642288, 0
872, 0.3502514776891, -0.11457153599397, 0
873, 0.39721942938442, -0.16681888214138, 0
874, 0.32346832954631, -0.10603032920223, 0
875, 0.34433165409137, -0.10747449583834, 0
876, 0.33939235756031, -0.099496449663705, 0
877, 0.32807564366919, -0.051422643318284, 0
878, 0.31207687426171, -0.10349664287421, 0
879, 0.31092274370608, -0.027200998791293, 0
880, 0.28995703510523, -0.045106385615953, 0
881, 0.21121694540124, -0.027341221159271, 0
882, 0.34506796779084, -0.092771584468033, 0
883, 0.30594369015392, -0.056919664772081, 0
884, 0.32886889146975, -0.060118758739418, 0
885, 0.33635235957424, -0.051261278973969, 0
886, 0.29074146280217, -0.10049669837672, 0
887, 0.28792665819886, -0.024695531025427, 0
888, 0.29231048714421, -0.10973351274315, 0
889, 0.24302843479636, -0.059990493900382, 0
890, 0.31719272412051, -0.061583059062889, 0
891, 0.30246780755177, -0.037065907641746, 0
892, 0.2831266952574, -0.05032272548253, 0
893, 0.32642672587674, -0.07797625271387, 0
894, 0.32100344424976, -0.10056855181137, 0
895, 0.32780187907627, -0.092903794263322, 0
896, 0.32213824972768, -0.052913071867286, 0
897, 0.31864764991049, -0.089192690825453, 0
898, 0.29373635663529, -0.013128987214325, 0
899, 0.26088955243775, -0.058219574929683, 0
900, 0.26035693653455, -0.033571696090655, 0
901, 0.26688468537763, 0.0070258729330276, 0
902, 0.29251289214935, 0.021141131859076, 0
903, 0.28797419546738, 0.001005695030982, 0
904, 0.29378996953542, 0.026420886310794, 0
905, 0.29878498230358, -0.0066574567019699, 0
906, 0.26018124097088, 0.01870122013332, 0
907, 0.23251023854343, -0.074210146835243, 0
908, 0.28987460183353, -0.030496178651396, 0
909, 0.8269938346868, 0.21300614412665, 0
910, 0.78944618430526, 0.210173563153, 0
911, 0.74466663774676, 0.11971361573331, 0
912, 0.70725207743425, 0.17019756549772, 0
913, 0.74644628147585, 0.11441798370405, 0
914, 0.81382154746717, 0.16057795178558, 0
915, 0.7938199167602, 0.14584205768844, 0
916, 0.73392936647014, 0.11722107930272, 0
917, 0.88044225261202, 0.13524491017081, 0
918, 0.89011498401177, 0.14556604689693, 0
919, 0.71133629103292, 0.17857190738392, 0
920, 0.7727247199027, 0.24400236496996, 0
921, 0.77887148644352, 0.28127461529077, 0
922, 0.68939658269815, 0.22680322430484, 0
923, 0.68510356521857, 0.23471165724316, 0
924, 0.70659857504341, 0.25248151382784, 0
925, 0.68073305874818, 0.24288094324259, 0
926, 0.74445485637322, 0.18321375864155, 0
927, 0.69610142644981, 0.27688975648853, 0
928, 0.67935794897815, 0.27044003905261, 0
929, 0.67038282931877, 0.27082356588947, 0
930, 0.71563006559958, 0.28265204290784, 0
931, 0.67325429783964, 0.25421192226526, 0
932, 0.62685113226373, 0.25727967877561, 0
933, 0.74315311855496, 0.23717835886936, 0
934, 0.56808573162361, 0.25187088147143, 0
935, 0.5903284979967, 0.25119912656232, 0
936, 0.72557933414694, 0.29057587263798, 0
937, 0.64429962282884, 0.25397897415036, 0
938, 0.65146139039437, 0.27877136525989, 0
939, 0.58517454976063, 0.25078504986358, 0
940, 0.56829987817266, 0.28665271774662, 0
941, 0.52791377542131, 0.26793493078873, 0
942, 0.50102220878585, 0.29219445442354, 0
943, 0.50046562741981, 0.28447536993672, 0
944, 0.49862451043525, 0.27791224687272, 0
945, 0.59856526269775, 0.27334535114789, 0
946, 0.55232708569561, 0.25792221126927, 0
947, 0.5354840735781, 0.26084675606605, 0
948, 0.54724686404552, 0.26838787270472, 0
949, 0.56052132811277, 0.254935186408, 0
950, 0.5729914477165, 0.23453865119358, 0
951, 0.58501306364634, 0.24259900177455, 0
952, 0.64384808677368, 0.27867159910015, 0
953, 0.56086687188551, 0.27923227446068, 0
954, 0.64188845238174, 0.25949492921063, 0
955, 0.63280475291407, 0.26457666188668, 0
956, 0.56686138218429, 0.25680783945762, 0
957, 0.55475213171984, 0.27118912312911, 0
958, 0.57323936099883, 0.25826126862579, 0
959, 0.59733544227949, 0.24447386213851, 0
960, 0.59993962235235, 0.24198388319034, 0
961, 0.5932037506756, 0.24085092018056, 0
962, 0.56173420355176, 0.23900979414058, 0
963, 0.55881255901065, 0.22906516103272, 0
964, 0.5653722995903, 0.23175784158962, 0
965, 0.62229182407745, 0.25583946264016, 0
966, 0.63436107659892, 0.27124574492487, 0
967, 0.54118855192479, 0.25306192301923, 0
968, 0.54544326043152, 0.24564991583561, 0
969, 0.55565704330012, 0.24708127363702, 0
970, 0.54950907740424, 0.23982045710898, 0
971, 0.55449413723911, 0.23437609587418, 0
972, 0.69682732884924, 0.17830337765806, 0
973, 0.74476608958415, 0.14655979604975, 0
974, 0.70447709994109, 0.15128998811424, 0
975, 0.74580665138727, 0.1401345024557, 0
976, 0.69008418059292, 0.17986138753172, 0
977, 0.71952314434922, 0.15729152682862, 0
978, 0.7107200302891, 0.2322299657928, 0
979, 0.70060368972196, 0.22026338695352, 0
980, 0.74010480413739, 0.22160224068658, 0
981, 0.6931194031681, 0.21826276184461, 0
982, 0.70652213889041, 0.27567798106775, 0
983, 0.70531498492214, 0.18506459023587, 0
984, 0.70306570635277, 0.17648620218564, 0
985, 0.7326673062831, 0.18556002731959, 0
986, 0.72408704002216, 0.16071024838769, 0
987, 0.72309766988356, 0.14700288485231, 0
988, 0.71836448002008, 0.16439666107015, 0
989, 0.75955500058477, 0.20409288790611, 0
990, 0.69743154005162, 0.19992947081208, 0
991, 0.71040450682746, 0.058300197341093, 0
992, 0.73913998618434, 0.071690227453238, 0
993, 0.72177711216435, 0.082709103162581, 0
994, 0.70649068738338, 0.040081194603698, 0
995, 0.70117941218665, 0.045215522716659, 0
996, 0.7129297564113, 0.034357022378671, 0
997, 0.75119300207711, 0.049338581987748, 0
998, 0.81450698086759, 0.006138804053924, 0
999, 0.7955332915723, -0.017050555911803, 0
1000, 0.72020167373968, 0.028334468185006, 0
1001, 0.76643595738427, -0.020130329039283, 0
1002, 0.8107677946595, 0.12695658479161, 0
1003, 0.74098075356677, 0.10237862410463, 0
1004, 0.75265094368579, 0.13804834698644, 0
1005, 0.68907132119579, 0.19997233079304, 0
1006, 0.76750684370968, 0.12724720383299, 0
1007, 0.78650408860427, 0.094235057661944, 0
1008, 0.77709897681401, 0.1509256201159, 0
1009, 0.74374366690929, 0.16324971212884, 0
1010, 0.73507477789436, 0.10282324123999, 0
1011, 0.94348817063859, 0.040476112542621, 0
1012, 0.74313717706183, 0.13071508981881, 0
1013, 0.74765872517144, 0.10216565655203, 0
1014, 0.86465179528442, 0.14367886366982, 0
1015, 0.77437267041704, 0.13754419511967, 0
1016, 0.69619720694306, 0.17450571851057, 0
1017, 0.74749303105828, 0.10849205368001, 0
1018, 0.73149262391149, 0.13468475703977, 0
1019, 0.74448628133869, 0.090018575503959, 0
1020, 0.7328122325847, 0.055557402881672, 0
1021, 0.72081937733427, 0.059110893161452, 0
1022, 0.75995409327268, 0.025143484086565, 0
1023, 0.74115422844349, 0.032249325925801, 0
1024, 0.77933125826179, 0.035476115528335, 0
1025, 0.80353161923883, -0.023529935438085, 0
1026, 0.79309550778615, 0.038303860442922, 0
1027, 0.72388416299632, 0.025174615481317, 0
1028, 0.77126295231256, 0.059992664359997, 0
1029, 0.7169817947323, 0.0510649230903, 0
1030, 0.77977739820098, 0.082152318506343, 0
1031, 0.72141405578474, 0.068726553280661, 0
1032, 0.7613544870419, 0.054079866010366, 0
1033, 0.77167718694968, 0.072328324058792, 0
1034, 0.72278309973413, 0.049624780183863, 0
1035, 0.74626492536244, 0.012816158309418, 0
1036, 0.79920957318422, 0.0098975217803657, 0
1037, 0.83352742920102, 0.044172130814774, 0
1038, 0.82656572639373, 0.27793806136827, 0
1039, 0.81932543962359, 0.074307808219132, 0
1040, 0.89978547283115, 0.13291022659543, 0
1041, 0.97607434474872, 0.22108374935103, 0
1042, 0.83476717866941, 0.25543060694689, 0
1043, 0.93743637861491, 0.084938954476366, 0
1044, 0.77646831108694, -0.020914047177291, 0
1045, 0.95802211774411, -0.22760522153732, 0
1046, 0.75781561548165, -0.18454994851997, 0
1047, 0.75835546087403, -0.00064503471034472, 0
1048, 0.89645219535799, -0.15915382291648, 0
1049, 0.84253427517948, -0.09792298074853, 0
1050, 0.83787579881973, -0.024342370163621, 0
1051, 0.90041695398572, -0.079590389623536, 0
1052, 0.75922717466672, -0.11659761906826, 0
1053, 0.81536603914492, -0.087886973706127, 0
1054, 0.7167503947144, -0.13621913448047, 0
1055, 0.73213386658692, -0.12637473101969, 0
1056, 0.70979628791762, -0.10709370888986, 0
1057, 0.73986667865232, -0.16308337521365, 0
1058, 0.75795906431358, -0.11061789612522, 0
1059, 0.74886101199061, -0.091425955148055, 0
1060, 0.75206286353418, -0.088714998961133, 0
1061, 0.76251640078961, -0.25955206989358, 0
1062, 0.75492459985941, -0.085695644512484, 0
1063, 0.98289902591443, -0.078252062390052, 0
1064, 0.80536850502568, -0.2250807041919, 0
1065, 0.77520805817505, -0.08781123071238, 0
1066, 0.82408041687484, -0.24463288655137, 0
1067, 0.87669838659964, -0.15279649588283, 0
1068, 0.89778073811159, -0.098015915276559, 0
1069, 0.77804335126632, -0.083318138403955, 0
1070, 0.8115877389182, -0.10983212637246, 0
1071, 0.76466729408386, -0.086741245126019, 0
1072, 0.80047729472838, -0.089312320918356, 0
1073, 0.81388718445499, -0.098019731620521, 0
1074, 0.77215115655861, -0.069526941410866, 0
1075, 0.76947758249604, -0.078745477638795, 0
1076, 0.75700085782334, -0.12044389299256, 0
1077, 0.75022103088388, 0.0043279004087823, 0
1078, 0.80111140080922, -0.034795686233582, 0
1079, 0.75830823308139, -0.013909090254, 0
1080, 0.75796473666537, 0.00395983495189, 0
1081, 0.78864979873241, -0.050838782198466, 0
1082, 0.77064563507567, -0.049793753796052, 0
1083, 0.77250126104421, -0.059664897894168, 0
1084, 0.79172803009151, -0.063844971177195, 0
1085, 0.90053704928132, -0.060915276605019, 0
1086, 0.81554073394634, -0.069128313433616, 0
1087, 0.81069516803398, -0.051082878177135, 0
1088, 0.88475719426859, -0.28042475440635, 0
1089, 0.8377492889365, 0.029115749052884, 0
1090, 0.91107143466902, -0.0050470550847661, 0
1091, 0.73381024408214, 0.0028093033231263, 0
1092, 0.74408910866859, 0.0002261209898678, 0
1093, 0.77403082801357, 0.019946971870303, 0
1094, 0.82360385201453, -0.028147572249786, 0
1095, 0.75091741784193, -0.012516576726363, 0
1096, 0.84149516270647, -0.004073380547592, 0
1097, 0.76592837856754, 0.0027930095303059, 0
1098, 0.77436096925414, 0.00080521154733682, 0
1099, 0.78286347091282, -0.038894521320002, 0
1100, 0.87671409786653, -0.022615170757049, 0
1101, 0.89125231409219, -0.004957487320695, 0
1102, 0.74350127403462, 0.017009958342211, 0
1103, 0.77376169370772, 0.042522151061071, 0
1104, 0.75584157299384, 0.030572669426387, 0
1105, 0.74889632717277, -0.12781410475118, 0
1106, 0.73080271546369, -0.13513814659372, 0
1107, 0.75040224664122, -0.16008318640623, 0
1108, 0.71061982361653, -0.12076066266459, 0
1109, 0.72233304257814, -0.11209970008703, 0
1110, 0.7834177240046, -0.11705977137894, 0
1111, 0.73760250484762, -0.13355512658169, 0
1112, 0.73780574281215, -0.12457651610698, 0
1113, 0.68615578647732, -0.10989209040077, 0
1114, 0.70126793466837, -0.12691636838509, 0
1115, 0.69320671581044, -0.10888521614825, 0
1116, 0.68309625844211, -0.12014085436777, 0
1117, 0.68349859556623, -0.1283024706804, 0
1118, 0.67125361664561, -0.11505362139907, 0
1119, 0.66808682897172, -0.12004415902573, 0
1120, 0.66219725714073, -0.11992708276004, 0
1121, 0.65907974709164, -0.12477310438505, 0
1122, 0.521198684044, -0.19601944214757, 0
1123, 0.54612125174507, -0.14577947251261, 0
1124, 0.53478491048542, -0.15832593592934, 0
1125, 0.53316048761859, -0.14695400898955, 0
1126, 0.54793586682423, -0.16289658368626, 0
1127, 0.53694771784357, -0.16455449715776, 0
1128, 0.54324883780926, -0.16145647786001, 0
1129, 0.62425404402802, -0.16855154371756, 0
1130, 0.59983603793074, -0.16407097373407, 0
1131, 0.65338218883497, -0.16504333541816, 0
1132, 0.63103452930569, -0.14377952086305, 0
1133, 0.61285382857812, -0.16153715348814, 0
1134, 0.56236362641548, -0.15315975947258, 0
1135, 0.58825807440282, -0.16098174238782, 0
1136, 0.61088727738072, -0.16794109712792, 0
1137, 0.59187273143631, -0.15412829117443, 0
1138, 0.58555425443616, -0.15725243361059, 0
1139, 0.57634763194969, -0.17142137253118, 0
1140, 0.56343697785141, -0.16559760973881, 0
1141, 0.60451432470025, -0.19748615448733, 0
1142, 0.63754400846028, -0.1646448551297, 0
1143, 0.59138478242615, -0.17234163467103, 0
1144, 0.60927954245152, -0.15575044092255, 0
1145, 0.55105660144339, -0.17779023129155, 0
1146, 0.5416035132341, -0.15077140484483, 0
1147, 0.52198035837427, -0.18438298335758, 0
1148, 0.53268727828105, -0.16233312685347, 0
1149, 0.51813585035665, -0.17358300038535, 0
1150, 0.52819990318289, -0.185865050668, 0
1151, 0.51240435664382, -0.18003818536228, 0
1152, 0.51942946396796, -0.18788488273776, 0
1153, 0.50627349749495, -0.1865369002093, 0
1154, 0.53533959426942, -0.20386593163538, 0
1155, 0.53733354584791, -0.19170807834289, 0
1156, 0.50968108858989, -0.2207312735052, 0
1157, 0.5471653748005, -0.19636659155777, 0
1158, 0.504202552187, -0.20492605935047, 0
1159, 0.45402157110169, -0.2209349424921, 0
1160, 0.5365496807853, -0.1776425053614, 0
1161, 0.57140880116764, -0.22767182715946, 0
1162, 0.58194541318703, -0.14949198298417, 0
1163, 0.68912500054046, -0.15463174896775, 0
1164, 0.77655472167924, -0.11816684982907, 0
1165, 0.75513001891151, -0.11352104958088, 0
1166, 0.70735762247997, -0.16162774482048, 0
1167, 0.66687197645111, -0.12890093215295, 0
1168, 0.61045828990325, -0.15081450384588, 0
1169, 0.58761738833796, -0.19461734817717, 0
1170, 0.6174008468714, -0.16878254567908, 0
1171, 0.63309826398728, -0.14989032629014, 0
1172, 0.58351348363129, -0.15345750420435, 0
1173, 0.59610842065725, -0.16835643191245, 0
1174, 0.57010133758272, -0.14832033581117, 0
1175, 0.60309530760818, -0.18220764871693, 0
1176, 0.62718288482763, -0.14589205355828, 0
1177, 0.65845744854161, -0.13480885570181, 0
1178, 0.63736797908428, -0.14730577824608, 0
1179, 0.66589237540608, -0.148038631063, 0
1180, 0.61473942862433, -0.15018036413483, 0
1181, 0.58906343044924, -0.15582055086216, 0
1182, 0.672266691455, -0.17509631356765, 0
1183, 0.69468215005645, -0.19197468339353, 0
1184, 0.7086415524083, -0.17254825021788, 0
1185, 0.65151692888453, -0.24954846366185, 0
1186, 0.58904251567636, -0.14941987536544, 0
1187, 0.67941481923801, -0.15836510916685, 0
1188, 0.82885933108686, -0.17937628091226, 0
1189, 0.85978112617327, -0.14620004992884, 0
1190, 0.79293795980919, -0.14819013994372, 0
1191, 0.9487853562673, -0.026256728481048, 0
1192, 0.87536837368267, -0.2242707983135, 0
1193, 0.76286076511758, -0.12310151597002, 0
1194, 0.74365087003692, -0.13104035291575, 0
1195, 0.79550754969299, -0.17407809790464, 0
1196, 0.85153370054805, -0.12480879344478, 0
1197, 0.82692595805167, -0.061485167110392, 0
1198, 0.9020383440058, -0.12697478720401, 0
1199, 0.96604901743965, -0.076375611333098, 0
1200, 0.63216841578649, -0.17678358096844, 0
1201, 0.86644230022105, 0.13078510356672, 0
1202, 0.87495896844934, 0.083432521036926, 0
1203, 0.85788959987885, 0.25481853473628, 0
1204, 0.35583730351099, -0.14614636035419, 0
1205, 0.41317296084192, -0.19967586133354, 0
1206, 0.40867552738373, -0.1960349872235, 0
1207, 0.87986395979248, -0.16899692317004, 0
1208, 0.76509333615067, -0.026453247785035, 0
1209, 0.83039601668522, -0.12739852663407, 0
1210, 0.79476546539277, 0.079000536881869, 0
1211, 0.76850453464492, 0.084439232097625, 0
1212, 0.79395486343089, 0.061473568916849, 0
1213, 0.67637459710389, -0.16650370246706, 0
1214, 0.65147634705233, -0.13460475158122, 0
1215, 0.55701893486032, -0.2121755535432, 0
1216, 0.52909380433504, -0.19207767297027, 0
1217, 0.5494093972858, -0.18606387867123, 0
1218, 0.80887096878142, -0.0032711037571486, 0
1219, 0.82515613571906, -0.011987895229143, 0
1220, 0.75477496630779, -0.011717188475271, 0
1221, 0.76148195178754, 0.23452529236712, 0
1222, 0.67786148612394, 0.24779525873165, 0
1223, 0.71512342560193, 0.22673263375459, 0
1224, 0.14928344830688, 0.180548179014, 0
1225, 0.2282732573177, 0.12617746410659, 0
1226, 0.14157904808205, 0.26189585830073, 0
1227, 0.72752200637255, 0.032164742258299, 0
1228, 0.72517836513083, 0.054578126602104, 0
1229, 0.72565144810681, 0.059202848922286, 0
1230, 0.39578483093085, -0.24548961745649, 0
1231, 0.38435935364085, -0.24089506036046, 0
1232, 0.34977171411597, -0.20534166488188, 0
1233, 0.54521024863601, -0.20939766921763, 0
1234, 0.53188317497374, -0.17373241132802, 0
1235, 0.71371462362048, 0.14271458932023, 0
1236, 0.77695684303392, 0.16487865449556, 0
1237, 0.75507272834614, 0.10250162725482, 0
1238, 0.6576841281617, -0.21784997577129, 0
1239, 0.68554131321104, -0.17327034117973, 0
1240, 0.28568821601566, 0.24003158733966, 0
1241, 0.24732889229534, 0.23628015264747, 0
1242, 0.29145409425217, 0.20692587111743, 0
1243, 0.92745923413167, 0.015972297299254, 0
1244, 0.7684503821351, -0.030567809957618, 0
1245, 0.75403396692451, -0.021263417278811, 0
1246, 0.57619483768721, 0.2400956754938, 0
1247, 0.58970339976897, 0.24730898826144, 0
1248, 0.54361752048784, 0.27422138645087, 0
1249, 0.51444190601813, 0.28438797320967, 0
1250, 0.50334956222017, 0.27641510912088, 0
1251, 0.28691207873582, 0.0711075284246, 0
1252, 0.34322177683186, 0.23438464538641, 0
1253, 0.45158244899434, -0.2157462735677, 0
1254, 0.48641403090223, -0.22012635722149, 0
1255, 0.56421348382013, 0.24528636404333, 0
1256, 0.6526648312605, 0.25913129915548, 0
1257, 0.60952241619247, 0.25483253636149, 0
1258, 0.44525705048744, 0.2830385227565, 0
1259, 0.48908493125677, 0.29253126501922, 0
1260, 0.45103759682893, 0.26868363206887, 0
1261, 0.6018295881611, 0.25376682989822, 0
1262, 0.59419099528283, 0.24760589592602, 0
1263, 0.62874042564047, 0.27750048686399, 0
1264, 0.38414308999567, 0.245817533784, 0
1265, 0.42009853657162, 0.26216207983367, 0
1266, 0.39281205373738, 0.23895270706791, 0
1267, 0.31493424501366, 0.26050024832859, 0
1268, 0.29310038203535, 0.23122283733534, 0
1269, 0.3281790406558, 0.23578641491118, 0
1270, 0.5855484184233, 0.2551192910423, 0
1271, 0.704427220811, 0.22813362914097, 0
1272, 0.70045053432106, 0.29210181932057, 0
1273, 0.76727775847397, -0.082906908468145, 0
1274, 0.78624921157041, -0.1058596818304, 0
1275, 0.36374897476381, 0.26977360472377, 0
1276, 0.38104549210718, 0.25202311649649, 0
1277, 0.35037789808853, -0.13162814528742, 0
1278, 0.26788142364901, -0.17641143887057, 0
1279, 0.29068839351033, -0.1527922699914, 0
1280, 0.6147949346606, 0.24742463778697, 0
1281, 0.57816428942666, 0.28702550915241, 0
1282, 0.56654258039732, 0.29320847422418, 0
1283, 0.55339908890242, -0.15801028060193, 0
1284, 0.53462830340379, -0.1691734989449, 0
1285, 0.28323942948015, -0.061805572727585, 0
1286, 0.33828157021193, -0.065030635631282, 0
1287, 0.37331844625528, -0.14198377279681, 0
1288, 0.40148173593493, -0.1749861733731, 0
1289, 0.3865684913006, -0.14382146802874, 0
1290, 0.6665727628828, -0.183828030855, 0
1291, 0.69129309683891, -0.20584789640929, 0
1292, 0.82998776087356, 0.19426339321832, 0
1293, 0.91365871898364, 0.097298312823971, 0
1294, 0.84194459358347, 0.23340858690955, 0
1295, 0.55786558289684, -0.17942591000823, 0
1296, 0.55724754060483, -0.19902517052585, 0
1297, 0.61530867134377, -0.1771458955955, 0
1298, 0.71282450009835, 0.16744430971797, 0
1299, 0.71116951595069, 0.15736054942415, 0
1300, 0.69765533816053, 0.18652871710418, 0
1301, 0.69189936113987, 0.25004708557741, 0
1302, 0.75990892778498, 0.27114032113917, 0
1303, 0.75722249850328, 0.25718692815856, 0
1304, 0.84361549595003, -0.087061217813906, 0
1305, 0.97727233037502, -0.27482771708071, 0
1306, 0.86424366497871, -0.10897206917369, 0
1307, 0.32040186973221, 0.22222031611047, 0
1308, 0.3228695762689, 0.21153169941897, 0
1309, 0.73452926466574, 0.19289650668515, 0
1310, 0.75588459437731, 0.21604629083432, 0
1311, 0.69886993224872, 0.25485200986539, 0
1312, 0.7395836296949, 0.25456366876776, 0
1313, 0.72180363695646, 0.24394230152915, 0
1314, 0.29495273358431, 0.042986123698108, 0
1315, 0.71855462780631, 0.22069039360064, 0
1316, 0.66225534076254, 0.27146681226989, 0
1317, 0.78735708750239, -0.088972781285182, 0
1318, 0.80052377567206, -0.11305478131065, 0
1319, 0.23009196158667, -0.019960375122129, 0
1320, 0.27365083010633, -0.03734197752905, 0
1321, 0.25786784857704, -0.13336504943246, 0
1322, 0.46658199748965, 0.27371532245213, 0
1323, 0.44622530016897, 0.27034056025176, 0
1324, 0.46802222867946, 0.28212691990729, 0
1325, 0.55622449091512, 0.22749265604523, 0
1326, 0.56028137717962, 0.22650454011922, 0
1327, 0.31456675846932, -0.22938083680403, 0
1328, 0.37631988930913, -0.25260432378723, 0
1329, 0.39042650122167, -0.2165022743045, 0
1330, 0.11011960953936, 0.1386441401651, 0
1331, 0.16535753216855, 0.26493728203976, 0
1332, 0.43816309110298, 0.28409564955259, 0
1333, 0.47153835735495, 0.29141789192605, 0
1334, 0.43493693680049, 0.26577086054503, 0
1335, 0.69867889698325, 0.047202999728551, 0
1336, 0.69878545237253, 0.042761894194182, 0
1337, 0.15776461649325, -0.13772360179307, 0
1338, 0.24850214411782, -0.039663383377476, 0
1339, 0.16264247612059, -0.048172421160376, 0
1340, 0.48999595100385, -0.19280683452476, 0
1341, 0.48463242476521, -0.22833137452242, 0
1342, 0.4783412398455, -0.20346040749063, 0
1343, 0.7829892943217, 0.027937513826923, 0
1344, 0.71837630699488, 0.044873625385414, 0
1345, 0.49491419543442, 0.29245575414595, 0
1346, 0.51503596972221, 0.27367116173398, 0
1347, 0.51197569228091, 0.27408137834024, 0
1348, 0.49128522433079, -0.19836461849583, 0
1349, 0.49884443504583, -0.20832575547034, 0
1350, 0.48952502725785, -0.24851347177607, 0
1351, 0.71760633337946, 0.27363273587841, 0
1352, 0.71052037670733, 0.24234698061147, 0
1353, 0.68946190878786, 0.29242555248147, 0
1354, 0.38457075102818, 0.2750602732128, 0
1355, 0.39074229770636, 0.24853803470032, 0
1356, 0.53176223095303, -0.14906326500412, 0
1357, 0.53794023429069, -0.15039709422443, 0
1358, 0.528701184626, -0.16003452484283, 0
1359, 0.29338780091493, 0.061757791868963, 0
1360, 0.29593998775361, 0.072135302983822, 0
1361, 0.15598638812014, 0.11612188469984, 0
1362, 0.17603733862622, 0.11246080715978, 0
1363, 0.17744017805446, 0.16534704285502, 0
1364, 0.18400899444439, 0.1209169417718, 0
1365, 0.31369591780722, 0.20918000000576, 0
1366, 0.34839654270969, 0.2360845482678, 0
1367, 0.31162762736869, 0.21282557541447, 0
1368, 0.38596767675052, 0.23731412753168, 0
1369, 0.42353194202684, 0.25118872995926, 0
1370, 0.68742082415749, -0.11280321681658, 0
1371, 0.68938853290709, -0.12353249971597, 0
1372, 0.12811332380858, 0.17287406150591, 0
1373, 0.17519477862229, 0.14836478697821, 0
1374, 0.16110572564609, 0.24612066060889, 0
1375, 0.76840890846551, -0.09541344885278, 0
1376, 0.81845386592162, -0.15161683974971, 0
1377, 0.76456754366222, -0.11811784405034, 0
1378, 0.40586571565834, 0.2553554020332, 0
1379, 0.39137473848243, 0.2372313564167, 0
1380, 0.40836695229679, 0.24460032568172, 0
1381, 0.81586401587685, -0.078321308121759, 0
1382, 0.86978262409094, -0.0047680280335492, 0
1383, 0.91815177889703, 0.077292357535489, 0
1384, 0.71945043512422, 0.079191777185398, 0
1385, 0.75705880312789, 0.044286793296048, 0
1386, 0.70674587512284, 0.045893470262036, 0
1387, 0.33740216567533, -0.057542364629709, 0
1388, 0.24141112491197, -0.13708529092179, 0
1389, 0.16109934394415, -0.077624755470936, 0
1390, 0.75004313434173, 0.13183492521553, 0
1391, 0.79491944808431, 0.17797579023958, 0
1392, 0.73622784726118, 0.13557554590434, 0
1393, 0.45358579997971, -0.20617173314713, 0
1394, 0.48267849238605, -0.20224831237673, 0
1395, 0.26819775764574, -0.11522085895809, 0
1396, 0.33113659926653, -0.053152632737037, 0
1397, 0.29276806652433, -0.035893560971499, 0
1398, 0.70589171195078, 0.18983728879825, 0
1399, 0.72157419436877, 0.21404592096082, 0
1400, 0.69468539477194, 0.21375453203744, 0
1401, 0.80616701331214, -0.042485353717054, 0
1402, 0.9495065014872, -0.049270847197952, 0
1403, 0.94920337784164, -0.073420134426748, 0
1404, 0.31909520574263, -0.078049434853842, 0
1405, 0.32429624653808, -0.058817953912815, 0
1406, 0.36127457138358, -0.14955983529848, 0
1407, 0.36530867881312, -0.14438328399401, 0
1408, 0.39421802382322, -0.15880017333163, 0
1409, 0.72427450513391, 0.13750750399897, 0
1410, 0.76253393459737, 0.15455239618354, 0
1411, 0.73441460810381, 0.16931146499383, 0
1412, 0.54970936135444, 0.24731007330383, 0
1413, 0.55266599961563, 0.24247533525944, 0
1414, 0.54719126674323, 0.24245651229672, 0
1415, 0.2803435563518, -0.09117558700442, 0
1416, 0.28951382289944, -0.0071176503604699, 0
1417, 0.27085455246489, -0.029453695582942, 0
1418, 0.33330323128475, -0.06091586520237, 0
1419, 0.29074636442438, -0.065671660630325, 0
1420, 0.7752598196734, 0.013315954800215, 0
1421, 0.8684845383461, -0.097390977672792, 0
1422, 0.89662025145036, -0.22038818742952, 0
1423, 0.39599989707419, -0.15068772179816, 0
1424, 0.29015329033347, -0.18896501491601, 0
1425, 0.46497314117523, 0.29032460504771, 0
1426, 0.44668326233672, 0.26189528606753, 0
1427, 0.27954753286887, -0.10166885833293, 0
1428, 0.30577057387719, -0.070566215755519, 0
1429, 0.33307597414493, -0.073242344369008, 0
1430, 0.27678462401229, 0.2009353877609, 0
1431, 0.29732354180086, 0.21844003983043, 0
1432, 0.32228306907174, 0.24150113011154, 0
1433, 0.30060612922432, 0.20457624332986, 0
1434, 0.34224544061636, 0.2503097915113, 0
1435, 0.2698095682491, 0.21312800921, 0
1436, 0.3814441919323, -0.14585734932311, 0
1437, 0.37652510516427, -0.1375572017548, 0
1438, 0.39315505933054, -0.14504487117896, 0
1439, 0.81856578284741, -0.13886449676899, 0
1440, 0.83100539324185, -0.22709924719846, 0
1441, 0.74937860716821, -0.022462258953644, 0
1442, 0.78602256807019, -0.18552541485442, 0
1443, 0.98002424265312, -0.16640237106105, 0
1444, 0.89121702627232, -0.11447843104775, 0
1445, 0.78689154694052, -0.031104372684786, 0
1446, 0.7565485854192, -0.0085725467573874, 0
1447, 0.29981861162427, 0.079177779742229, 0
1448, 0.26694479045481, 0.054066078160638, 0
1449, 0.30346071247787, 0.079801871388783, 0
1450, 0.2967194726691, -0.028023521007212, 0
1451, 0.32947016851913, -0.097820980744205, 0
1452, 0.27719628447154, 0.041758269810181, 0
1453, 0.29897117311955, 0.059453362106094, 0
1454, 0.69720058087512, 0.23651700782357, 0
1455, 0.71425424354569, 0.24885792607204, 0
1456, 0.58611776183821, 0.25965808597892, 0
1457, 0.74871191444427, 0.0085410841280434, 0
1458, 0.75756549181429, -0.0048009544472911, 0
1459, 0.74211316881152, 0.0039347407084074, 0
1460, 0.3868253220581, -0.19799241641674, 0
1461, 0.39919871619202, -0.17090320889189, 0
1462, 0.4214768360417, -0.19676364790101, 0
1463, 0.70408525535012, 0.2103057258549, 0
1464, 0.68786722598899, 0.20833519214788, 0
1465, 0.30164676704874, -0.083794751523444, 0
1466, 0.33086357674351, -0.043016967449099, 0
1467, 0.30518800926025, -0.04885013599066, 0
1468, 0.30875761499346, 0.206286481199, 0
1469, 0.31956364361804, 0.20983847002869, 0
1470, 0.28815487510123, 0.20019920762922, 0
1471, 0.73228338732709, -0.11782035996171, 0
1472, 0.7818202961295, -0.14524226434018, 0
1473, 0.74041899202061, -0.10603541586676, 0
1474, 0.21584466376596, 0.10284286811816, 0
1475, 0.22695805278691, 0.13098328143692, 0
1476, 0.70039196140163, 0.16883667735849, 0
1477, 0.7376289349273, 0.13173874741704, 0
1478, 0.75019680470259, 0.15483740564884, 0
1479, 0.3921453920094, 0.23536732129807, 0
1480, 0.2038822807474, 0.10552918462141, 0
1481, 0.17162914988926, 0.020025898386484, 0
1482, 0.19954077539229, 0.087960467140248, 0
1483, 0.62367310473724, -0.17794955404104, 0
1484, 0.57243619697753, -0.15946703158604, 0
1485, 0.60215906528173, -0.15092111972164, 0
1486, 0.59184492673696, -0.15871218768449, 0
1487, 0.57465419763583, -0.18810354551704, 0
1488, 0.75488992792731, 0.079164730652912, 0
1489, 0.71832709005285, 0.03820235745684, 0
1490, 0.78169914992271, 0.06778173838718, 0
1491, 0.52490248810624, -0.15762301710098, 0
1492, 0.52765036789867, -0.170235666002, 0
1493, 0.68976109334682, -0.13080809488272, 0
1494, 0.67224574677315, -0.1200978782599, 0
1495, 0.68298377354113, -0.11139715495364, 0
1496, 0.71668240956917, 0.13953604576842, 0
1497, 0.69725874404477, 0.16229172236321, 0
1498, 0.69583580051515, 0.20920064968994, 0
1499, 0.60195740569652, 0.24680601495057, 0
1500, 0.5941000766331, 0.26388741517523, 0
1501, 0.6039375319941, 0.24944334350448, 0
1502, 0.75672287478318, 0.16748506621325, 0
1503, 0.69786799554594, 0.19530265517446, 0
1504, 0.72890676053737, 0.16470143356191, 0
1505, 0.85833759828119, -0.11822171311745, 0
1506, 0.78723511263126, -0.011775756664166, 0
1507, 0.9324549610238, -0.047038881378537, 0
1508, 0.24475562375665, -0.081863437281831, 0
1509, 0.29831489150716, -0.068529789791449, 0
1510, 0.31630269064698, -0.034063486283569, 0
1511, 0.27544713776277, 0.024426150278689, 0
1512, 0.39109058650227, -0.16896906049085, 0
1513, 0.35117063846926, -0.12504192940091, 0
1514, 0.733367958179, 0.082093328999565, 0
1515, 0.91580884722473, -0.044698464290754, 0
1516, 0.74025388604275, -0.0070429271656682, 0
1517, 0.91394129607631, -0.024773904780577, 0
1518, 0.29930371106903, -0.032717154807074, 0
1519, 0.33333989093914, -0.077607590830789, 0
1520, 0.27786286124717, -0.044340822961112, 0
1521, 0.25651585978498, 0.21691872910333, 0
1522, 0.26350542573489, 0.22932121683004, 0
1523, 0.3341666711666, 0.21624281841185, 0
1524, 0.62423225799647, -0.16067464432887, 0
1525, 0.57958720880969, -0.15386261793826, 0
1526, 0.28512876621847, -0.12363197435947, 0
1527, 0.51318185894594, -0.19648264120441, 0
1528, 0.53461942267779, -0.14991092598756, 0
1529, 0.52626337471831, -0.16352146447434, 0
1530, 0.26617964373939, 0.027787479819578, 0
1531, 0.25235244045479, -0.068523389807228, 0
1532, 0.23713536152417, 0.043418428563558, 0
1533, 0.7199166928286, -0.12820951801894, 0
1534, 0.75743719035036, -0.10398107710157, 0
1535, 0.764919385521, -0.098627520145327, 0
1536, 0.64718261248199, 0.25950925728734, 0
1537, 0.60010461894326, 0.23968921434296, 0
1538, 0.65070282112472, 0.26549331530173, 0
1539, 0.35646225194092, 0.28947697244058, 0
1540, 0.38223176872254, 0.23698670880368, 0
1541, 0.36224674342084, 0.22604694861537, 0
1542, 0.20744775133634, 0.14513021325999, 0
1543, 0.17931011412281, 0.081048984027648, 0
1544, 0.43621472995329, -0.19823903941704, 0
1545, 0.59653061278477, -0.17723145085933, 0
1546, 0.69754691316764, -0.1685609173766, 0
1547, 0.6077981523939, -0.17489098970561, 0
1548, 0.045670282772681, 0.11725928594707, 0
1549, 0.023331744414315, 0.084900661988671, 0
1550, 0.022272770083641, 0.142761405898, 0
1551, 0.022717163253186, 0.1140758677313, 0
1552, 0.80645881754251, -0.138383537481, 0
1553, 0.85129638674367, -0.1119841885746, 0
1554, 0.82977203917696, -0.082732165285712, 0
1555, 0.8638855356638, -0.038432959734819, 0
1556, 0.63018725245694, 0.28509122967679, 0
1557, 0.58926477444933, 0.23984651027385, 0
1558, 0.5587887091825, 0.2857434956231, 0
1559, 0.65933223067217, 0.27861750338954, 0
1560, 0.84293314205652, -0.19413486660628, 0
1561, 0.84239689203391, -0.12742834232752, 0
1562, 0.87168684788578, -0.13888985266077, 0
1563, 0.92165087445351, 0.057028230109958, 0
1564, 0.9254739745732, 0.13057405313208, 0
1565, 0.98094839667354, 0.049980267435977, 0
1566, 0.84947440680538, 0.15880483342301, 0
1567, 0.52094825371406, -0.17032373970331, 0
1568, 0.51455442375033, -0.16981890079844, 0
1569, 0.52239387739269, -0.16067406077658, 0
1570, 0.51721633917326, -0.16678926171659, 0
1571, 0.023009905708784, 0.027654099035357, 0
1572, 0.045480934905143, -0.00055612325964319, 0
1573, 0.022321487379649, -0.027443586574274, 0
1574, 0.022711711631218, -3.1228848186016e-06, 0
1575, 0.60139471562424, -0.1718059126187, 0
1576, 0.64874809952246, -0.15733583699486, 0
1577, 0.58402595220397, -0.16289104953188, 0
1578, 0.66456493401248, -0.16693480896521, 0
1579, 0.42361999906507, 0.27645610368435, 0
1580, 0.43020608411026, 0.27725303543903, 0
1581, 0.28224845719838, 0.046995968420466, 0
1582, 0.30846977007053, 0.048118117815386, 0
1583, 0.30552503344644, 0.041223965014287, 0
1584, 0.30703157331709, 0.044770473163979, 0
1585, 0.0438962345635, -0.11027726116301, 0
1586, 0.021994234224541, -0.13790345670215, 0
1587, 0.021923544353593, -0.082383446193574, 0
1588, 0.021952127979621, -0.11011354171582, 0
1589, 0.36079876490152, -0.14143521219284, 0
1590, 0.38522343893845, -0.14725699767884, 0
1591, 0.3910544920012, -0.14294378626999, 0
1592, 0.38368717602941, -0.15551046614416, 0
1593, 0.34620728560518, 0.22051067794049, 0
1594, 0.26202788357023, 0.25006195207391, 0
1595, 0.2965318376586, 0.21314932028174, 0
1596, 0.30308850651623, 0.27086463096917, 0
1597, 0.097485078707927, 0.27844903481069, 0
1598, 0.0703610870058, 0.25379245659748, 0
1599, 0.048494910085158, 0.27596899770066, 0
1600, 0.072984853561923, 0.27714771069622, 0
1601, 0.91758384221536, -0.21493786708129, 0
1602, 0.98171920123419, 0.024487206834085, 0
1603, 0.87392095968731, -0.11758636872715, 0
1604, 0.7372442532967, -0.1160686183605, 0
1605, 0.70318001262065, -0.11402872229914, 0
1606, 0.70275575731692, -0.13448956722222, 0
1607, 0.70131538690814, -0.10817188532775, 0
1608, 0.54888364762956, -0.1572038426264, 0
1609, 0.54043157739031, -0.1553700575546, 0
1610, 0.54454330938663, -0.15629379196924, 0
1611, 0.30482784172835, 0.077175490785383, 0
1612, 0.27575127815665, 0.088320460829233, 0
1613, 0.25776950916969, 0.078534804832278, 0
1614, 0.73191005102028, 0.028718355017314, 0
1615, 0.79229820258608, -0.0057269919952527, 0
1616, 0.044284472054575, -0.055197057822894, 0
1617, 0.022135491788137, -0.054851776175692, 0
1618, 0.70778943989507, 0.15423865902877, 0
1619, 0.73333305798367, 0.20918880470688, 0
1620, 0.7347511610781, 0.23026927097751, 0
1621, 0.77096946354588, 0.026639583060677, 0
1622, 0.77073612988551, -0.024052009368378, 0
1623, 0.75538797060235, -0.016577852628281, 0
1624, 0.93067502883423, -0.093067351606386, 0
1625, 0.91513859686689, -0.23698869046575, 0
1626, 0.82336311192386, -0.19389580001784, 0
1627, 0.69717301170238, -0.10855910513487, 0
1628, 0.67941473959746, -0.11313848165296, 0
1629, 0.68567770174673, -0.11542226993792, 0
1630, 0.67710789588261, -0.12013855820786, 0
1631, 0.45461042108611, -0.28728865627625, 0
1632, 0.47298716237921, -0.20852534519947, 0
1633, 0.48281046768732, -0.28689555320908, 0
1634, 0.46872815589596, -0.28712689217111, 0
1635, 0.83733241920767, -0.05126843569182, 0
1636, 0.84139126737133, -0.10828045279349, 0
1637, 0.84682254620584, -0.15044745337664, 0
1638, 0.35588305244061, 0.2310127334706, 0
1639, 0.37720559727808, 0.25969937190354, 0
1640, 0.29156921240317, 0.22443405791152, 0
1641, 0.3582308173513, 0.2246526342982, 0
1642, 0.73761017797881, 0.063677547903603, 0
1643, 0.74903594753269, 0.063527843644773, 0
1644, 0.70420384242453, 0.05689507542466, 0
1645, 0.72442992317653, 0.042766745046118, 0
1646, 0.31675113980275, 0.23726922073272, 0
1647, 0.29092746849849, 0.21812966670043, 0
1648, 0.30888797751365, 0.21736982487637, 0
1649, 0.62720089948221, 0.26344293527404, 0
1650, 0.60525358539155, 0.2421167404041, 0
1651, 0.57391104216198, 0.25339350507957, 0
1652, 0.59608560835148, 0.26850890802045, 0
1653, 0.73994178157687, 0.0076521713881815, 0
1654, 0.7515341983503, -0.018266433701453, 0
1655, 0.75599177780344, -0.032757340013962, 0
1656, 0.77449310582432, -0.039840543428705, 0
1657, 0.047036175033321, 0.056138712207486, 0
1658, 0.023244209148499, 0.055941679868034, 0
1659, 0.41518003247254, 0.26024031804472, 0
1660, 0.40913296560855, 0.25083169838888, 0
1661, 0.89873052926461, 0.071032962785005, 0
1662, 0.84688544120407, 0.21256335905653, 0
1663, 0.85820717378491, 0.046254025979361, 0
1664, 0.87769001734791, 0.066326624879684, 0
1665, 0.60646761371962, 0.25214639887667, 0
1666, 0.57092079036399, 0.27441790243432, 0
1667, 0.61583264698691, 0.26623269149896, 0
1668, 0.15006746119553, -0.27360648306858, 0
1669, 0.17248509118454, -0.2472064145311, 0
1670, 0.2033016286194, -0.27398210387271, 0
1671, 0.17648352857252, -0.27375263600708, 0
1672, 0.76164750271849, -0.022704706884024, 0
1673, 0.73615745011995, 0.025009135485172, 0
1674, 0.35021188316588, 0.22189035885491, 0
1675, 0.2922887853057, 0.20190121935068, 0
1676, 0.3884414549169, -0.15162732110668, 0
1677, 0.36615917030663, -0.1296635930131, 0
1678, 0.36782092180704, -0.12264891189668, 0
1679, 0.37080298696008, -0.12542256112374, 0
1680, 0.12090369958893, -0.24688449100499, 0
1681, 0.098343963880387, -0.27345202284711, 0
1682, 0.12407772762096, -0.27349044848619, 0
1683, 0.35923742942013, -0.17334585507746, 0
1684, 0.37680126958187, -0.13080218884592, 0
1685, 0.38937155171908, -0.14530888702807, 0
1686, 0.69480989187811, 0.16752535170314, 0
1687, 0.71928861100661, 0.15076600363233, 0
1688, 0.68975586477174, 0.19170375364121, 0
1689, 0.69062876116925, 0.16360564564064, 0
1690, 0.39781575250152, 0.23886985384813, 0
1691, 0.40115451677736, 0.24083049463656, 0
1692, 0.41007350276934, 0.27265576062592, 0
1693, 0.45536592419438, 0.26627915043859, 0
1694, 0.59833169330547, -0.15807333657311, 0
1695, 0.59376265910966, -0.20532606474164, 0
1696, 0.59197973209604, -0.14926615344088, 0
1697, 0.62244315990595, 0.25046697877683, 0
1698, 0.5706608224292, 0.24282266916934, 0
1699, 0.64891445592587, 0.25374734875562, 0
1700, 0.59673071552627, 0.25480388158876, 0
1701, 0.044591124230529, -0.16551301455562, 0
1702, 0.022674433162241, -0.19299585777374, 0
1703, 0.022309540242547, -0.16552314232756, 0
1704, 0.2937232536107, 0.081689288214403, 0
1705, 0.25157472834605, 0.053505415239244, 0
1706, 0.25849425867737, 0.10242454747098, 0
1707, 0.87102218222908, -0.24320147856418, 0
1708, 0.93262482803945, -0.069361476514093, 0
1709, 0.59383510931098, -0.15220121561731, 0
1710, 0.56766454252164, -0.15951924473891, 0
1711, 0.64832701817149, -0.19979486772592, 0
1712, 0.61149115874396, -0.18686416696705, 0
1713, 0.78606982923188, 0.012203188125762, 0
1714, 0.72749551832723, 0.021891907127783, 0
1715, 0.023267083704292, 0.24956220161573, 0
1716, 0.024216446218181, 0.27489338530494, 0
1717, 0.3158032852323, 0.21166624965062, 0
1718, 0.59982111043447, 0.25056390300829, 0
1719, 0.60768617351184, 0.24780499306282, 0
1720, 0.56268860582524, 0.27314231550227, 0
1721, 0.4034639176383, 0.26934221203394, 0
1722, 0.3737736390377, 0.24116613574727, 0
1723, 0.37026206021053, 0.26088418642679, 0
1724, 0.81752295514353, -0.2627433602151, 0
1725, 0.85590945364163, -0.13438820586019, 0
1726, 0.86285892093629, -0.1750771225106, 0
1727, 0.78541119063342, -0.28059115750187, 0
1728, 0.59174610135701, -0.16469458257856, 0
1729, 0.56197433183762, -0.14711216623345, 0
1730, 0.58208863143587, -0.16984453209532, 0
1731, 0.71479457652798, 0.072795847975799, 0
1732, 0.70350175377285, 0.048207574971387, 0
1733, 0.72331350332274, 0.076991193249152, 0
1734, 0.35154709035896, -0.16281174163265, 0
1735, 0.37844558733815, -0.15496361544082, 0
1736, 0.92938522788676, 0.22505994575813, 0
1737, 0.84953729005416, 0.14339031633876, 0
1738, 0.35968265037182, -0.1238631158004, 0
1739, 0.36202836662812, -0.11687762952444, 0
1740, 0.36490064070534, -0.11980226753507, 0
1741, 0.40505606720541, -0.16795713610374, 0
1742, 0.40116050715819, -0.23499599142732, 0
1743, 0.38857627833289, -0.15552375843692, 0
1744, 0.38281173832292, -0.13592100788099, 0
1745, 0.3610813033573, -0.16521974505419, 0
1746, 0.96501855816817, -0.0025273027833929, 0
1747, 0.94759717340315, -0.0038790650366434, 0
1748, 0.88038165049429, -0.10502270182073, 0
1749, 0.87093369236023, -0.084158328445472, 0
1750, 0.36308923361065, 0.24647115332597, 0
1751, 0.40167906951612, 0.25247140755129, 0
1752, 0.36270507217756, 0.25359440388949, 0
1753, 0.58565234376354, -0.17567046074349, 0
1754, 0.62988263566854, -0.15908783196628, 0
1755, 0.56675138433717, -0.15361049091241, 0
1756, 0.33025922522464, 0.21473341642314, 0
1757, 0.28001513741957, 0.1958761362842, 0
1758, 0.33360456944887, -0.057312275759354, 0
1759, 0.32491804211441, -0.043237759132083, 0
1760, 0.30991194527283, -0.090315608785949, 0
1761, 0.32796365285631, -0.064212044247573, 0
1762, 0.34966369936739, -0.15105565889802, 0
1763, 0.27495365440257, 0.059376043865997, 0
1764, 0.27004668425131, 0.10992629065259, 0
1765, 0.28108020711675, 0.069916309665481, 0
1766, 0.2184712400079, 0.068737771644112, 0
1767, 0.50289374496195, -0.18981029979249, 0
1768, 0.49692241706169, -0.1876240321395, 0
1769, 0.50326499639161, -0.18184717894922, 0
1770, 0.50016680174791, -0.1847848941864, 0
1771, 0.37406030124909, -0.19609978630224, 0
1772, 0.40979125997321, -0.17502640231137, 0
1773, 0.41523844503968, -0.18184218884819, 0
1774, 0.41241081511109, -0.17848925146935, 0
1775, 0.5152853201972, -0.17680399025373, 0
1776, 0.50907869002593, -0.17584151236655, 0
1777, 0.51184570725896, -0.17284480680992, 0
1778, 0.34680847429736, 0.22808587005925, 0
1779, 0.27597076738929, 0.2503998036432, 0
1780, 0.22707003815175, -0.2483279898767, 0
1781, 0.2577222854772, -0.27500714479128, 0
1782, 0.2302555959673, -0.2744286042256, 0
1783, 0.78486382370243, 0.0048840877032456, 0
1784, 0.74955295312077, -0.015570748926627, 0
1785, 0.74665187184563, -0.0068429309153561, 0
1786, 0.7439731256754, 0.2121274527083, 0
1787, 0.70240452923311, 0.21542462571561, 0
1788, 0.70758337974607, 0.14852691493483, 0
1789, 0.58913420926202, 0.28665299478752, 0
1790, 0.57973979350408, 0.25448424979513, 0
1791, 0.59832209127588, 0.24745977228966, 0
1792, 0.5385403525142, 0.25696100127669, 0
1793, 0.53651167924837, 0.25023196499143, 0
1794, 0.53093040373444, 0.25710643350157, 0
1795, 0.53382829096158, 0.2537060020326, 0
1796, 0.38680887595624, 0.24092493629544, 0
1797, 0.36920394428388, 0.25360952752535, 0
1798, 0.68598602871924, 0.21663671496606, 0
1799, 0.72106750776545, 0.1813388805231, 0
1800, 0.70531375375685, 0.2050827744883, 0
1801, 0.76045408336483, 0.19224464668705, 0
1802, 0.26742034734607, 0.11378697855853, 0
1803, 0.26307914789853, 0.12191506542171, 0
1804, 0.26509898619367, 0.11779156535927, 0
1805, 0.70514596155735, 0.16642975602051, 0
1806, 0.73434156564371, -0.17554928087803, 0
1807, 0.71351488632255, -0.1281755874181, 0
1808, 0.74319604553257, -0.12238752567552, 0
1809, 0.7617009086631, -0.10863853434382, 0
1810, 0.2960096479742, 0.086307918172926, 0
1811, 0.043763506864497, 0.17433229239604, 0
1812, 0.022084420116155, 0.19756976959531, 0
1813, 0.021976896139321, 0.17052094069828, 0
1814, 0.40719001483922, 0.2633768899357, 0
1815, 0.36383015805087, 0.23984729900677, 0
1816, 0.30976491048548, -0.014560864765357, 0
1817, 0.31034427385851, -0.08387608888223, 0
1818, 0.34352478230909, -0.088865082969449, 0
1819, 0.4073554959796, -0.17149774726668, 0
1820, 0.42380733198533, 0.2917292194717, 0
1821, 0.47090255290143, 0.27555222806271, 0
1822, 0.45877283608524, 0.26892115456045, 0
1823, 0.47339749378835, 0.2836643813928, 0
1824, 0.333847772634, -0.082029392725213, 0
1825, 0.32116630550713, -0.03092075885908, 0
1826, 0.30269817407195, -0.10655978921278, 0
1827, 0.75189644453492, -0.0072117837437681, 0
1828, 0.75377974531566, -0.029117185426843, 0
1829, 0.7668384775991, -0.040331356112137, 0
1830, 0.50942384948262, -0.18327929376627, 0
1831, 0.50622501553634, -0.17884447208835, 0
1832, 0.45232953934432, 0.26364294007487, 0
1833, 0.62859015519118, -0.15211792822505, 0
1834, 0.64023037982456, -0.15384537415156, 0
1835, 0.54347851368118, 0.24924435276598, 0
1836, 0.54138034652808, 0.24336455860133, 0
1837, 0.53902012502595, 0.2467497925997, 0
1838, 0.27605392437763, -0.056748470016732, 0
1839, 0.28221090824102, -0.033473335271814, 0
1840, 0.30808605654812, -0.011096684697903, 0
1841, 0.9506820044075, 0.27457462722766, 0
1842, 0.84977676376043, 0.17523598634421, 0
1843, 0.73428813216604, -0.25760786613385, 0
1844, 0.70663916798926, -0.27675289801872, 0
1845, 0.73254351551419, -0.27858572664938, 0
1846, 0.1357186971755, 0.088590376327525, 0
1847, 0.14657832637116, 0.28135004954353, 0
1848, 0.12206704951095, 0.27985712253114, 0
1849, 0.42736419833879, 0.25269406987654, 0
1850, 0.39558702185344, -0.16275401249819, 0
1851, 0.31904087458417, -0.16668145721822, 0
1852, 0.91281462601369, 0.14865596425368, 0
1853, 0.88344720202795, 0.16858494097395, 0
1854, 0.9049297995216, 0.18088531395733, 0
1855, 0.88680452573229, 0.2083234821378, 0
1856, 0.76726015857066, -0.13140924019387, 0
1857, 0.74209120181935, -0.11411190449693, 0
1858, 0.25958748253314, 0.13027200555359, 0
1859, 0.2611941346414, 0.12605045029089, 0
1860, 0.73424931159553, 0.097907759722526, 0
1861, 0.75945004308315, 0.18024930792004, 0
1862, 0.72955057018921, 0.15641212847084, 0
1863, 0.66464628039134, -0.11998580068902, 0
1864, 0.66100080929562, -0.11779462981824, 0
1865, 0.66742352332906, -0.11585500710607, 0
1866, 0.66397534241027, -0.1167185814974, 0
1867, 0.4775470327027, 0.29205504448885, 0
1868, 0.17693534894103, 0.068268752857581, 0
1869, 0.25733897388308, 0.13899109958031, 0
1870, 0.25839940584712, 0.13463119817628, 0
1871, 0.41748561720103, 0.25482138361778, 0
1872, 0.41589127716268, 0.24803741287099, 0
1873, 0.30073681733633, -0.091148409462158, 0
1874, 0.2988404650244, -0.013082062476384, 0
1875, 0.46102663773768, -0.20480406394813, 0
1876, 0.45962018534725, -0.21810365188724, 0
1877, 0.44340102227804, -0.26271298550869, 0
1878, 0.92820957788953, 0.25041105425084, 0
1879, 0.89864931472001, 0.16082378130992, 0
1880, 0.32609767570904, -0.054894478327768, 0
1881, 0.31174338904372, -0.01797038934182, 0
1882, 0.32992103790695, -0.056392752823199, 0
1883, 0.66852862512079, -0.14227501979297, 0
1884, 0.57918907523813, -0.17819068102634, 0
1885, 0.61316132724621, 0.27374011132868, 0
1886, 0.63636513705601, 0.27827044435364, 0
1887, 0.71566206154407, 0.17162074903896, 0
1888, 0.73429238614522, 0.15139509728232, 0
1889, 0.72933634370368, 0.13879788244505, 0
1890, 0.52116964587371, 0.28442589878989, 0
1891, 0.52349331743432, 0.27061644047403, 0
1892, 0.52442909423737, 0.26334274729971, 0
1893, 0.5208705421396, 0.26597926859933, 0
1894, 0.4320811651283, 0.29193150229331, 0
1895, 0.023659141711142, -0.24694495133585, 0
1896, 0.048472063692631, -0.27344397387175, 0
1897, 0.024143065879006, -0.27351931043515, 0
1898, 0.65596098259666, -0.12212104765982, 0
1899, 0.65682346488031, -0.12789649018016, 0
1900, 0.65328343408771, -0.1247634801082, 0
1901, 0.29397505183865, 0.25914980196441, 0
1902, 0.31857182920348, 0.21411065304438, 0
1903, 0.24715816512778, 0.13110808036905, 0
1904, 0.30025202299999, 0.068727446886501, 0
1905, 0.71355449070802, 0.024696070201766, 0
1906, 0.78213177349772, -0.016897078993622, 0
1907, 0.76724488738037, 0.032956065926778, 0
1908, 0.30255000412296, 0.033511593913458, 0
1909, 0.29494134633174, -0.049778387289871, 0
1910, 0.30400906707564, 0.037465764298444, 0
1911, 0.78437168382769, -0.1357804211226, 0
1912, 0.72158330695892, -0.12004751726507, 0
1913, 0.74437405388284, -0.10384048138258, 0
1914, 0.35135151832269, -0.10393268225221, 0
1915, 0.341799972649, -0.10357151018664, 0
1916, 0.34697794389425, -0.096588654453037, 0
1917, 0.34900603565423, -0.10033088270067, 0
1918, 0.7888431726892, -0.021997149177031, 0
1919, 0.77575440495955, -0.012775758284477, 0
1920, 0.79139873392077, -0.037066913494953, 0
1921, 0.35328937648912, -0.1178214036035, 0
1922, 0.35650567948916, -0.11068907595214, 0
1923, 0.35927297896738, -0.11383596171039, 0
1924, 0.28427515107159, 0.022194622619363, 0
1925, 0.30017959154113, 0.025027465862514, 0
1926, 0.3012443356695, 0.029362436321722, 0
1927, 0.28279069394451, -0.081592005407217, 0
1928, 0.31159957791753, -0.059525952055336, 0
1929, 0.32144066951506, -0.046688751822671, 0
1930, 0.71793752521127, 0.06345107474976, 0
1931, 0.70584509743237, 0.051488177173608, 0
1932, 0.72412981880929, 0.071348537617667, 0
1933, 0.72852150198299, 0.0092845224636522, 0
1934, 0.77513646958606, 0.0069148395246659, 0
1935, 0.42612326093829, -0.28735271329883, 0
1936, 0.43495529351372, -0.20368631339117, 0
1937, 0.44042001763667, -0.28742812333118, 0
1938, 0.34478087102781, 0.27889333900941, 0
1939, 0.33216518839615, 0.28866674714582, 0
1940, 0.34461488919004, 0.28929692887937, 0
1941, 0.53030591092734, -0.16633286643738, 0
1942, 0.5388702852547, -0.15993488219527, 0
1943, 0.34712251830866, -0.11115155361016, 0
1944, 0.35379524837298, -0.10739744879519, 0
1945, 0.07152949978688, -0.24677043706782, 0
1946, 0.073218109053882, -0.27343181789586, 0
1947, 0.43871346531647, 0.25683868200364, 0
1948, 0.43475152954604, 0.26056969073295, 0
1949, 0.30096842651321, -0.021508274835414, 0
1950, 0.31959606412569, -0.057032772079569, 0
1951, 0.29485619037828, -0.023079718934615, 0
1952, 0.3047305410873, 0.20555949636148, 0
1953, 0.30292539320736, 0.28617228844847, 0
1954, 0.31850732861308, 0.28756852703156, 0
1955, 0.69422842050901, -0.11367053398714, 0
1956, 0.67725098995482, -0.13309356989196, 0
1957, 0.62133240442456, 0.26858119224103, 0
1958, 0.59865293553101, 0.25859180745222, 0
1959, 0.65480707473062, 0.27189161678601, 0
1960, 0.31398455803829, -0.04774015376516, 0
1961, 0.31866308473924, -0.027784569511329, 0
1962, 0.7475936523257, -0.17344103195991, 0
1963, 0.76170955006603, -0.090226654431614, 0
1964, 0.77659695854938, -0.15400346764694, 0
1965, 0.75159197353882, -0.098900421911699, 0
1966, 0.48723927592522, -0.21286936624999, 0
1967, 0.44870360195497, -0.20207071247328, 0
1968, 0.44115376879002, -0.23156539220329, 0
1969, 0.3018844472687, 0.21351740972224, 0
1970, 0.33794742012774, 0.22473161863035, 0
1971, 0.44101342323094, 0.27118690652274, 0
1972, 0.68322932862695, 0.22471253594848, 0
1973, 0.69127348740355, 0.22263905141374, 0
1974, 0.68467297698702, 0.22072708139394, 0
1975, 0.42144030094743, -0.18818457854697, 0
1976, 0.38007214027548, -0.18523070201725, 0
1977, 0.41824043967729, -0.18508836738677, 0
1978, 0.71406491001637, -0.10638073133127, 0
1979, 0.77704609228894, -0.12603456072648, 0
1980, 0.59272895084328, -0.2609104391705, 0
1981, 0.6140018099745, -0.27881133595982, 0
1982, 0.57593251802926, -0.28164032630715, 0
1983, 0.59452467197497, -0.2803730161169, 0
1984, 0.64344612355046, -0.16127107501417, 0
1985, 0.42847911144887, -0.19376969457845, 0
1986, 0.42581920037736, -0.19944668984395, 0
1987, 0.42487091781344, -0.19108746621478, 0
1988, 0.59030084816139, -0.18209493288218, 0
1989, 0.62316846293355, -0.14770224265554, 0
1990, 0.6542850039354, -0.131213542114, 0
1991, 0.61849201921823, -0.1614941455004, 0
1992, 0.73572486365042, 0.15966411304533, 0
1993, 0.70705121378355, 0.16027610264438, 0
1994, 0.70423808940076, 0.15705237567378, 0
1995, 0.70070871686029, 0.15976149986652, 0
1996, 0.23030111522708, 0.089301699199106, 0
1997, 0.53195418695286, 0.26457529780546, 0
1998, 0.52780101398856, 0.26034796580232, 0
1999, 0.25921306162255, -0.01321903352068, 0
2000, 0.31927961129146, -0.094929680131934, 0
2001, 0.28643096102216, -0.25156361002497, 0
2002, 0.31308219184667, -0.27624895889294, 0
2003, 0.28517379903945, -0.275710276981, 0
2004, 0.76892116771605, -0.044964362843254, 0
2005, 0.7628736569171, -0.048963911838289, 0
2006, 0.76150668680388, -0.044657974590519, 0
2007, 0.44999246992266, -0.22978614798341, 0
2008, 0.45639188015808, -0.27449946822563, 0
2009, 0.46395962507343, -0.214838807362, 0
2010, 0.27245082333254, 0.19023176700212, 0
2011, 0.32647191701773, 0.21316495883933, 0
2012, 0.27535429646213, 0.22288442070303, 0
2013, 0.50036659621312, -0.21590178612586, 0
2014, 0.43031647401341, -0.20177818998086, 0
2015, 0.43226436214125, -0.19616677367252, 0
2016, 0.31861502399459, 0.22902620699881, 0
2017, 0.33358491871552, 0.22287055069612, 0
2018, 0.50752110183114, 0.29186273734893, 0
2019, 0.59315064374216, 0.23749650948932, 0
2020, 0.57463295806147, 0.24876225698722, 0
2021, 0.62358880305595, 0.29238183066139, 0
2022, 0.70974681693896, -0.18484426350053, 0
2023, 0.65663190987046, -0.27509981958863, 0
2024, 0.68085404553556, -0.2741757744628, 0
2025, 0.57111888430766, -0.15389892956543, 0
2026, 0.56284343615197, -0.15923312593611, 0
2027, 0.27449235476278, 0.24034438417325, 0
2028, 0.33490011489597, -0.048661774030408, 0
2029, 0.29917235979525, 0.015920989420254, 0
2030, 0.29943395958113, 0.020534481868048, 0
2031, 0.45834324590164, -0.26140071189314, 0
2032, 0.50203319713514, -0.23508218066069, 0
2033, 0.49311982636142, -0.21102732006523, 0
2034, 0.46594854505205, -0.20712332011396, 0
2035, 0.48236570634798, -0.20778569865761, 0
2036, 0.46813053885107, -0.2174466119873, 0
2037, 0.57223097190332, -0.17972021580495, 0
2038, 0.60501562568084, -0.16630476842253, 0
2039, 0.38285766883869, 0.24133088314557, 0
2040, 0.55801158391239, -0.15263460458943, 0
2041, 0.54955580396732, -0.15160408558971, 0
2042, 0.55792718767838, -0.14655417648209, 0
2043, 0.40209951039871, 0.26006974265388, 0
2044, 0.41272164651747, 0.2660970682915, 0
2045, 0.68509169811164, 0.24970424439317, 0
2046, 0.68309637645767, 0.25584815336684, 0
2047, 0.67764643587152, -0.12663495233409, 0
2048, 0.67531333797477, -0.11421002607981, 0
2049, 0.73085661765206, 0.088644621243182, 0
2050, 0.73428387954181, 0.067816332388853, 0
2051, 0.72767482952235, 0.094603346508823, 0
2052, 0.725997131241, 0.090422760124342, 0
2053, 0.74975912869215, 0.072934020461831, 0
2054, 0.72073693729969, 0.073771904568835, 0
2055, 0.76257469005937, 0.094559272467069, 0
2056, 0.72979969905557, 0.10338642842532, 0
2057, 0.72899089457721, 0.098925283957499, 0
2058, 0.77174442356451, -0.054638111800717, 0
2059, 0.76435901042981, -0.057741924683276, 0
2060, 0.76385436502399, -0.053345225641294, 0
2061, 0.60315219212086, 0.2435991426003, 0
2062, 0.56425395933783, 0.26741284179254, 0
2063, 0.58551503601845, 0.23472325482761, 0
2064, 0.29191942073293, 0.015532513944213, 0
2065, 0.3065784089869, -0.0076538350793066, 0
2066, 0.32615659785906, -0.037049521607907, 0
2067, 0.56975928194648, 0.28036984274385, 0
2068, 0.57991474365725, 0.24995791832153, 0
2069, 0.58936093206557, 0.24354356298837, 0
2070, 0.63885878721091, 0.28551425685568, 0
2071, 0.63045050014557, -0.25403561840577, 0
2072, 0.63464144455141, -0.27692005924073, 0
2073, 0.67967749924796, 0.23243323407718, 0
2074, 0.68719349318669, 0.23083232178482, 0
2075, 0.68150840669324, 0.22862051128822, 0
2076, 0.72447431843765, 0.20018742983259, 0
2077, 0.28977407607586, 0.091135164411785, 0
2078, 0.3083614876273, 0.067278594725467, 0
2079, 0.30726642130092, 0.070746765103888, 0
2080, 0.24583595174822, 0.1410182081968, 0
2081, 0.25624711829906, 0.14797474645472, 0
2082, 0.25655595507868, 0.14341933671176, 0
2083, 0.75762210110446, -0.082434111123768, 0
2084, 0.73609824346769, -0.10791414828378, 0
2085, 0.75845098204922, -0.093363059047325, 0
2086, 0.76002782627536, -0.12826230392809, 0
2087, 0.30644964820812, -0.019819823929039, 0
2088, 0.66091470446517, -0.12198539793747, 0
2089, 0.65851866417406, -0.11972798281592, 0
2090, 0.45759223263382, -0.20558868190473, 0
2091, 0.51151315532227, -0.28582173738969, 0
2092, 0.49705532850859, -0.28647771874427, 0
2093, 0.62656448168503, 0.25170142589355, 0
2094, 0.58772878375244, 0.26946266295669, 0
2095, 0.5805973349964, 0.24143243821441, 0
2096, 0.57781406576423, 0.23181351702633, 0
2097, 0.63974771778503, 0.25386032528501, 0
2098, 0.43045934714919, 0.25943325502614, 0
2099, 0.38915097169428, 0.23738296196106, 0
2100, 0.30136882432969, -0.0055404410239842, 0
2101, 0.30357403445785, -0.00084072430700581, 0
2102, 0.30513027904627, -0.0042551975319701, 0
2103, 0.39509036004801, -0.28602833822796, 0
2104, 0.41366221305198, -0.27420559625463, 0
2105, 0.41090361543085, -0.28690864107362, 0
2106, 0.35134223555512, 0.22959617205451, 0
2107, 0.2696307895216, 0.28684627960409, 0
2108, 0.28607760857396, 0.28654007101278, 0
2109, 0.6483976941019, -0.13798970308891, 0
2110, 0.46735956617816, -0.2012714938552, 0
2111, 0.46678786193506, -0.20431815530286, 0
2112, 0.50161480306271, -0.24680026499406, 0
2113, 0.45880594383857, -0.20880053633323, 0
2114, 0.30724502311591, 0.052634722153116, 0
2115, 0.31059932587337, 0.054045518164849, 0
2116, 0.30972850465406, 0.051225025790801, 0
2117, 0.30051315250584, 0.0068817113127934, 0
2118, 0.30194666399421, 0.0028415696327886, 0
2119, 0.70764433947234, 0.030844511777982, 0
2120, 0.71649779542054, 0.031399179945423, 0
2121, 0.71054957657938, 0.027755493961319, 0
2122, 0.75521270097749, -0.096299029264537, 0
2123, 0.71611884568086, -0.12060204506222, 0
2124, 0.51364049897173, 0.27001972211298, 0
2125, 0.52037294687499, 0.27780476681535, 0
2126, 0.49465432488208, 0.28518137704538, 0
2127, 0.24594078165252, 0.15124742659772, 0
2128, 0.25635929695199, 0.15713879654762, 0
2129, 0.25607405830695, 0.15252139546017, 0
2130, 0.43118040321278, 0.25414423973291, 0
2131, 0.45221252173396, 0.28063791101906, 0
2132, 0.48910290346365, 0.27886439639401, 0
2133, 0.44428399505419, 0.26599025754098, 0
2134, 0.4626670045357, 0.27975475856969, 0
2135, 0.69034946371699, -0.11323268654855, 0
2136, 0.25110345849959, 0.1718767352717, 0
2137, 0.261095597177, 0.17511192481736, 0
2138, 0.25787383713866, 0.16629108910039, 0
2139, 0.25928583595869, 0.17076946618206, 0
2140, 0.77098506960013, -0.074202319757838, 0
2141, 0.76168947018017, -0.074949295978766, 0
2142, 0.76408860355761, -0.066599479151935, 0
2143, 0.76313115823876, -0.07085833522523, 0
2144, 0.25601834783799, 0.18170812623893, 0
2145, 0.26597365028033, 0.18321561847659, 0
2146, 0.26334544028813, 0.17927843612395, 0
2147, 0.066305350333058, -0.082688280134693, 0
2148, 0.067972162927977, -0.028132002778448, 0
2149, 0.090167115861261, -0.054991303419431, 0
2150, 0.066968155767575, -0.055277750570401, 0
2151, 0.70427121602146, 0.18065835858371, 0
2152, 0.69056087780322, 0.16906192036583, 0
2153, 0.27552128273907, 0.076916307446309, 0
2154, 0.51509793127874, 0.27817839046561, 0
2155, 0.50726272782778, 0.27390783838851, 0
2156, 0.045185438922693, 0.22661040077167, 0
2157, 0.022560589359346, 0.22380126278904, 0
2158, 0.50726146587115, 0.28285107526232, 0
2159, 0.51047948449152, 0.27711868719963, 0
2160, 0.48491770431319, -0.27381920577625, 0
2161, 0.4639997393145, -0.20953351973615, 0
2162, 0.52968026810557, -0.15173927835858, 0
2163, 0.52728789975312, -0.19980941447008, 0
2164, 0.54157328521826, -0.16675141911881, 0
2165, 0.52522163560614, -0.18148246802707, 0
2166, 0.52749203154079, -0.26955891954032, 0
2167, 0.54220580169296, -0.28378879598887, 0
2168, 0.52658479036676, -0.28489567198898, 0
2169, 0.26314296135671, 0.19069117670842, 0
2170, 0.26902497247034, 0.18688287366027, 0
2171, 0.18874863138622, 0.26792445036829, 0
2172, 0.19338947733921, 0.28426065415573, 0
2173, 0.17026485243815, 0.28284469071108, 0
2174, 0.72987964535513, 0.11233466731973, 0
2175, 0.72789243492208, 0.12087719695692, 0
2176, 0.72910588602678, 0.11669543733242, 0
2177, 0.52366709346071, -0.16695334615406, 0
2178, 0.55214809457467, -0.1706022014521, 0
2179, 0.53096273056526, -0.15657540316652, 0
2180, 0.24764129746049, 0.16161290738304, 0
2181, 0.25685930275065, 0.16171474087157, 0
2182, 0.44882237478223, 0.27511724822164, 0
2183, 0.43003492103945, 0.2649430062099, 0
2184, 0.47868861625813, 0.28464050761417, 0
2185, 0.68987072852863, 0.18769547833772, 0
2186, 0.7243111363974, 0.1288047571044, 0
2187, 0.72201486264203, 0.13256575907497, 0
2188, 0.47649866294492, -0.22773203422635, 0
2189, 0.49343786654776, -0.21860288515968, 0
2190, 0.29948876779666, 0.011301926068138, 0
2191, 0.55867703072844, -0.26518325914031, 0
2192, 0.55869734110797, -0.28271591800184, 0
2193, 0.68653560376052, 0.24463310270937, 0
2194, 0.72900330334674, 0.2376792754028, 0
2195, 0.69178662477063, 0.24516534206542, 0
2196, 0.34846637059321, -0.26073349057822, 0
2197, 0.35950502000123, -0.28234743695283, 0
2198, 0.33808149840686, -0.27935837690363, 0
2199, 0.5868609033972, 0.26442883584344, 0
2200, 0.57674419499207, 0.2934421064607, 0
2201, 0.60413056010113, 0.26640500437759, 0
2202, 0.6682016572715, 0.24755581730225, 0
2203, 0.67518292421055, 0.24005363541115, 0
2204, 0.67212992878755, 0.24390716786229, 0
2205, 0.23452126327039, 0.28625624889214, 0
2206, 0.25252265890718, 0.28674927208722, 0
2207, 0.61725216814091, 0.25978264356685, 0
2208, 0.579667216522, 0.2592295390789, 0
2209, 0.57949584610698, 0.27501750912473, 0
2210, 0.58937355868786, 0.23615694641145, 0
2211, 0.57963687700851, 0.26947186438087, 0
2212, 0.77252478848835, -0.064581077906026, 0
2213, 0.76446156644292, -0.062190050812447, 0
2214, 0.75395615500425, 0.095149263155346, 0
2215, 0.72626970738525, 0.1249161225165, 0
2216, 0.76317773731896, 0.1124682929513, 0
2217, 0.73011944694624, 0.10787079650426, 0
2218, 0.31003772042868, 0.060285356148747, 0
2219, 0.30583644994558, 0.062580999389099, 0
2220, 0.30931340797621, 0.063755951365386, 0
2221, 0.53756437573486, 0.29126469185726, 0
2222, 0.52850478908851, 0.28349103251412, 0
2223, 0.52897219800323, 0.29171980649582, 0
2224, 0.68290176486353, 0.23862144840682, 0
2225, 0.67759513429145, 0.23622332140631, 0
2226, 0.97430011574284, 0.16210966966139, 0
2227, 0.80215970190109, 0.27879925009957, 0
2228, 0.90709488003276, 0.20421705640444, 0
2229, 0.88569991735773, 0.12246403379486, 0
2230, 0.97588001006596, 0.24782693424528, 0
2231, 0.87203404427846, 0.1003953274768, 0
2232, 0.56909477114511, 0.23312944219376, 0
2233, 0.56673574227603, 0.22808546946174, 0
2234, 0.57033588991913, 0.22918115008039, 0
2235, 0.24715326569068, 0.26067471710601, 0
2236, 0.33524694273459, 0.24806496605247, 0
2237, 0.26633225145458, 0.27397407762779, 0
2238, 0.71829444334506, 0.070820866695305, 0
2239, 0.74568002389875, 0.054036268465518, 0
2240, 0.066368226585477, -0.13797602296113, 0
2241, 0.088699134665905, -0.11014960725989, 0
2242, 0.066313135732346, -0.11026053434794, 0
2243, 0.94559770197956, 0.018414258337621, 0
2244, 0.86206123175308, 0.029619870181498, 0
2245, 0.90544252154291, 0.033359771475578, 0
2246, 0.97908553138661, -0.22284559063734, 0
2247, 0.70955819544735, 0.037257518646714, 0
2248, 0.70251894922704, 0.037035728191804, 0
2249, 0.70494209588046, 0.033944261285267, 0
2250, 0.44285942052733, 0.27672515230944, 0
2251, 0.43090512086562, 0.28428864689216, 0
2252, 0.58108445070616, 0.23734102235202, 0
2253, 0.62764690085342, 0.27023839531838, 0
2254, 0.70609811446338, 0.19982760982504, 0
2255, 0.30779859823339, 0.056386844203842, 0
2256, 0.31050816206257, 0.056993763664678, 0
2257, 0.8667493081901, 0.17299773342747, 0
2258, 0.73735361345677, 0.011341294794059, 0
2259, 0.28413866205782, 0.23169725808463, 0
2260, 0.21460771225218, 0.2854159088042, 0
2261, 0.75985340432925, -0.07882893433963, 0
2262, 0.60802227465282, 0.27025021540414, 0
2263, 0.5528907900127, -0.16410039516485, 0
2264, 0.79713256660792, -0.24276540285039, 0
2265, 0.8707790107862, -0.069538003156654, 0
2266, 0.60059077512896, 0.24430972097198, 0
2267, 0.63084746924816, 0.25269755956888, 0
2268, 0.55658859827978, 0.29268962558273, 0
2269, 0.04639330540496, -0.21994807212254, 0
2270, 0.023160150250023, -0.22007210464486, 0
2271, 0.38382409921164, -0.27020787819811, 0
2272, 0.37798604531566, -0.28449929646422, 0
2273, 0.093628304364966, -0.21997009320422, 0
2274, 0.11506501462373, -0.19297092246961, 0
2275, 0.1427228063549, -0.22015437464415, 0
2276, 0.11769635096229, -0.22010143873823, 0
2277, 0.56191114208636, 0.23041619898086, 0
2278, 0.56334624857247, 0.22719492040209, 0
2279, 0.37979318013064, -0.15017103463781, 0
2280, 0.39141547681581, -0.1462705952262, 0
2281, 0.68801192012952, 0.24049964443965, 0
2282, 0.72850592605394, 0.2805929342353, 0
2283, 0.68629539808923, 0.27756808189232, 0
2284, 0.70372526709414, 0.042761912575898, 0
2285, 0.70046529099154, 0.040007299918756, 0
2286, 0.54610645320977, 0.23726595422928, 0
2287, 0.54366980166538, 0.24018885920545, 0
2288, 0.55201567510288, 0.23712545623093, 0
2289, 0.55124604333466, 0.23191096344085, 0
2290, 0.54864335963186, 0.23451481828805, 0
2291, 0.37377028552596, -0.12815127244335, 0
2292, 0.3898703768029, -0.16427915766815, 0
2293, 0.67671827913113, 0.27793824065425, 0
2294, 0.690380336634, 0.26277784768516, 0
2295, 0.87922558992105, 0.15382703271651, 0
2296, 0.94108791328543, 0.062484755832138, 0
2297, 0.97601463184919, 0.13135609687561, 0
2298, 0.68137223189831, 0.26297544183929, 0
2299, 0.71416154234345, 0.20589466072596, 0
2300, 0.072086400922491, 0.088102710616785, 0
2301, 0.066152767249821, 0.15139085096253, 0
2302, 0.0907689781507, 0.12833644272664, 0
2303, 0.068348107280606, 0.1215409179926, 0
2304, 0.98295901160246, -0.026289051830574, 0
2305, 0.54998611373198, -0.14584170820653, 0
2306, 0.54664229048008, -0.16886533713603, 0
2307, 0.32313159930245, 0.2325719589578, 0
2308, 0.28404088361214, 0.19819154865482, 0
2309, 0.18966233762377, 0.1647757317016, 0
2310, 0.31471440847051, 0.22524644195572, 0
2311, 0.18800238135683, 0.18334674769293, 0
2312, 0.22857509219531, 0.25838990624345, 0
2313, 0.86343658334174, 0.2324787370975, 0
2314, 0.38572082498598, -0.13837639314424, 0
2315, 0.37715607216366, -0.17219670096635, 0
2316, 0.38904968666471, -0.15976908306807, 0
2317, 0.78338310394725, 0.22688030837279, 0
2318, 0.72663646418766, 0.22483671227665, 0
2319, 0.71031257415582, 0.2176795850951, 0
2320, 0.070024151883222, 0.026245537289592, 0
2321, 0.0923138056669, -0.0020981383781616, 0
2322, 0.06885773596555, -0.0011836344545494, 0
2323, 0.5568067062317, 0.23166896348152, 0
2324, 0.55382677264887, 0.22953919593477, 0
2325, 0.82869777017087, -0.11553863628172, 0
2326, 0.831883849045, -0.039490925272493, 0
2327, 0.89886266371103, -0.19990330050553, 0
2328, 0.5736575406592, -0.24513454158703, 0
2329, 0.60666343242015, -0.2378045410444, 0
2330, 0.58986503524951, -0.24216627418946, 0
2331, 0.85581139226544, -0.021881636947933, 0
2332, 0.77903680857585, -0.033430871611431, 0
2333, 0.78173362207469, -0.025653704751569, 0
2334, 0.73836191557636, -0.0037786233626141, 0
2335, 0.40692075233645, -0.18298510244019, 0
2336, 0.38302459820173, -0.19169918967366, 0
2337, 0.32855952623454, 0.24513666751477, 0
2338, 0.2761267057784, 0.19322662617906, 0
2339, 0.29578541160001, 0.23845226552598, 0
2340, 0.7346668881852, 0.075090068633183, 0
2341, 0.7126385498198, 0.069717017236552, 0
2342, 0.33906417460732, 0.25844907673622, 0
2343, 0.29628688158126, 0.20814281491649, 0
2344, 0.11241676725254, -0.081671300281407, 0
2345, 0.11486366596491, -0.02788457171377, 0
2346, 0.11333259807064, -0.054233474062901, 0
2347, 0.28084063849018, -0.11271483878085, 0
2348, 0.31497068962376, -0.066556501164288, 0
2349, 0.29091020037104, -0.091525186260927, 0
2350, 0.3162250190404, -0.024587930707326, 0
2351, 0.95640039271732, -0.25247072982247, 0
2352, 0.97966777739209, -0.19537518214956, 0
2353, 0.76628937992271, -0.23937424919664, 0
2354, 0.79482976858285, -0.13730650114579, 0
2355, 0.829272668793, -0.093255275616473, 0
2356, 0.80543869165609, -0.15047916993488, 0
2357, 0.25325388919129, 0.11177520037524, 0
2358, 0.22797827942076, 0.10319457240989, 0
2359, 0.21680711678542, 0.10957823811126, 0
2360, 0.23246801233928, 0.024717753648775, 0
2361, 0.41211315890792, 0.24636325845075, 0
2362, 0.3890513211213, 0.25530879248562, 0
2363, 0.35491560647272, 0.26983371568237, 0
2364, 0.36285050251877, 0.26133506333828, 0
2365, 0.79641764164744, 0.0015378961559929, 0
2366, 0.75990086855457, -0.04053232930505, 0
2367, 0.74545632916984, -0.003377948681887, 0
2368, 0.88773454384813, 0.01323484179621, 0
2369, 0.49181433009436, -0.23726036036606, 0
2370, 0.47961515710822, -0.22036946722756, 0
2371, 0.44915589604411, -0.20634144218674, 0
2372, 0.44576567222352, -0.21673383295015, 0
2373, 0.71657690109185, 0.23746921529479, 0
2374, 0.69797832176512, 0.26915513178042, 0
2375, 0.09693892207153, 0.052501019373023, 0
2376, 0.071563131003119, 0.055448766012404, 0
2377, 0.70432190343271, -0.14274822719609, 0
2378, 0.68992969057592, -0.13831146266262, 0
2379, 0.68985490068184, -0.11762640866672, 0
2380, 0.69860034927678, -0.11396213315032, 0
2381, 0.72387557499918, -0.13609308543532, 0
2382, 0.74630017484828, -0.11168875649538, 0
2383, 0.75004255112545, -0.10903646189115, 0
2384, 0.71757171607809, -0.11296846250416, 0
2385, 0.77514266838486, -0.028576361317603, 0
2386, 0.73993480192155, 0.021106585712539, 0
2387, 0.76230519297907, 0.038895321906995, 0
2388, 0.81351246427027, -0.059861368292805, 0
2389, 0.8026866645323, -0.066139777973786, 0
2390, 0.79035457009273, -0.057140495197684, 0
2391, 0.79883031902966, -0.050894894617413, 0
2392, 0.80145364072385, -0.058509928353336, 0
2393, 0.32627542784576, -0.11123931549475, 0
2394, 0.33165719535142, -0.10259506481274, 0
2395, 0.33412426467122, -0.10717226362817, 0
2396, 0.51033754139352, 0.27159247014075, 0
2397, 0.5190721379473, 0.27253286231285, 0
2398, 0.27890415698764, 0.26135359538112, 0
2399, 0.6894731864268, 0.19581476805104, 0
2400, 0.76297585012715, 0.14327725275098, 0
2401, 0.31023789535862, -0.096948635945912, 0
2402, 0.37506697755583, -0.148711812897, 0
2403, 0.39456983357847, -0.14765767434585, 0
2404, 0.34806397072307, -0.17225560755469, 0
2405, 0.75155992160333, -0.025693953838156, 0
2406, 0.41040161676735, 0.25796377801171, 0
2407, 0.64457018977204, 0.26556450485175, 0
2408, 0.59250625835566, 0.25947090750327, 0
2409, 0.58519639098813, 0.2386596733196, 0
2410, 0.58163702967396, 0.23325307613441, 0
2411, 0.65362216322126, 0.25310871119922, 0
2412, 0.60747400727618, 0.26026516723294, 0
2413, 0.21730204442264, 0.15429729171039, 0
2414, 0.22590009093206, 0.14857010989563, 0
2415, 0.21710291396807, 0.14015778179963, 0
2416, 0.21622670386925, 0.14693746459632, 0
2417, 0.22798071562802, 0.10973990013924, 0
2418, 0.29961433199813, 0.072535448503283, 0
2419, 0.21897471088334, 0.11597922975819, 0
2420, 0.74556660445304, -0.093942123510361, 0
2421, 0.74779518926327, -0.11961949061675, 0
2422, 0.75344038070262, -0.12424291201807, 0
2423, 0.72702561796503, -0.11096203362312, 0
2424, 0.77910318679679, -0.050362487666877, 0
2425, 0.78147225811111, -0.061609768100661, 0
2426, 0.78049459710097, -0.055870882465621, 0
2427, 0.78586459929209, -0.04458105115522, 0
2428, 0.76348717890057, -0.0067548530812231, 0
2429, 0.77688994488552, -0.044882931787743, 0
2430, 0.74012794175148, 0.096864515322843, 0
2431, 0.69021554488266, 0.17609143926795, 0
2432, 0.25047637840728, 0.2255095855404, 0
2433, 0.33332633841714, 0.23024127727011, 0
2434, 0.33363355774739, 0.23859768702851, 0
2435, 0.35155785165895, -0.14199023156948, 0
2436, 0.38337393944979, -0.14197580662118, 0
2437, 0.22158215441771, 0.12154045809533, 0
2438, 0.198218557908, 0.077411632332192, 0
2439, 0.2072287208365, 0.1128580798711, 0
2440, 0.71246678426999, 0.061643673965855, 0
2441, 0.81341132974655, -0.018371742648389, 0
2442, 0.7453429094368, -0.016357141831424, 0
2443, 0.3552806133314, -0.21636140123085, 0
2444, 0.38597418959519, -0.1762713832094, 0
2445, 0.40401296959298, -0.17905574011353, 0
2446, 0.37461000512462, -0.21788159109734, 0
2447, 0.23890903736484, 0.11195091910691, 0
2448, 0.23754499587576, 0.11727269027378, 0
2449, 0.34781826425985, -0.13428893997473, 0
2450, 0.33679494225807, -0.13850491062985, 0
2451, 0.75957028024342, -0.15531547944755, 0
2452, 0.75179242799984, -0.11661072251398, 0
2453, 0.72864503877113, -0.14470982479606, 0
2454, 0.30854763847664, -0.023560600388384, 0
2455, 0.29641588239149, -0.040776696560444, 0
2456, 0.26900781898158, -0.064747897050293, 0
2457, 0.70732379259253, -0.1277720706185, 0
2458, 0.67176614696838, -0.13092061793524, 0
2459, 0.70514849742053, -0.12054246901199, 0
2460, 0.22788613590343, 0.11558288703941, 0
2461, 0.28781365090668, 0.077278228005503, 0
2462, 0.25102402209898, 0.11644517619348, 0
2463, 0.32790396163448, -0.1258367745289, 0
2464, 0.347088226885, -0.1938598859106, 0
2465, 0.37288355454845, -0.15385206823707, 0
2466, 0.64014205205041, -0.17395672957941, 0
2467, 0.60754113354932, -0.16090905911786, 0
2468, 0.59543914920693, -0.16149050117936, 0
2469, 0.72245536397272, -0.10447613913269, 0
2470, 0.72610079579347, -0.1275679811282, 0
2471, 0.74276207300074, -0.15147468394132, 0
2472, 0.57411792466044, -0.1488493557324, 0
2473, 0.59487736199279, -0.1498405132987, 0
2474, 0.63325001934239, -0.1889529883251, 0
2475, 0.56757233641353, -0.19954294742828, 0
2476, 0.11944102173442, 0.021549628596313, 0
2477, 0.144464180998, 0.019449682130198, 0
2478, 0.11663726321362, -0.0027937040321406, 0
2479, 0.75134984801514, 0.035645885200012, 0
2480, 0.71657773769694, 0.021668103314008, 0
2481, 0.68871551562903, 0.27005348014999, 0
2482, 0.69731073896625, 0.18232891489499, 0
2483, 0.70408015795328, 0.28396565513075, 0
2484, 0.30827232322262, -0.13477274117392, 0
2485, 0.88921688074233, -0.26063731729906, 0
2486, 0.98203618563602, -0.1059617886368, 0
2487, 0.9590235741308, -0.20117333203884, 0
2488, 0.25396646770646, -0.11687210418812, 0
2489, 0.31352882473429, -0.030706387920272, 0
2490, 0.32856546004753, -0.040054658385156, 0
2491, 0.26358460355432, 0.073278880919249, 0
2492, 0.28294956434183, 0.096503494929007, 0
2493, 0.24090472874167, 0.067907537075616, 0
2494, 0.30061891189969, -0.045096054980845, 0
2495, 0.30994475013863, -0.044578605738517, 0
2496, 0.30531399108981, -0.029877226516398, 0
2497, 0.3220355356583, -0.040336733244882, 0
2498, 0.72297953456732, 0.18718500557103, 0
2499, 0.74292369208715, 0.27717508841464, 0
2500, 0.73459538769483, 0.24536150470991, 0
2501, 0.31998666060087, -0.072791122982695, 0
2502, 0.33396636067935, -0.05422046317445, 0
2503, 0.74809361654955, -0.10145624968247, 0
2504, 0.72423250574931, -0.15414085818518, 0
2505, 0.76968941455079, -0.12498829592785, 0
2506, 0.75746857532568, 0.28653329835497, 0
2507, 0.69813614123438, 0.22495852986349, 0
2508, 0.28518237429723, 0.21096230735431, 0
2509, 0.41489594076833, 0.29100370870066, 0
2510, 0.35534156126977, 0.27933465369087, 0
2511, 0.28884974274466, 0.059541058972057, 0
2512, 0.27810177260671, 0.052612514413522, 0
2513, 0.73613271376537, 0.036267479161139, 0
2514, 0.71619136354132, 0.067928867149993, 0
2515, 0.74395162409953, 0.067760286372498, 0
2516, 0.74626955637804, 0.040400963894844, 0
2517, 0.31209338603034, 0.23264182157035, 0
2518, 0.33938418733238, 0.24097531173292, 0
2519, 0.33600301627835, 0.26754334700989, 0
2520, 0.7077600612396, 0.22307162832835, 0
2521, 0.71781781137167, 0.26473369104115, 0
2522, 0.74628396551467, 0.20218198896721, 0
2523, 0.68849432078157, 0.20417279500199, 0
2524, 0.72357989059795, 0.20712907896582, 0
2525, 0.50690747860056, -0.21215475831573, 0
2526, 0.49714737876714, -0.20177760920799, 0
2527, 0.50165852649931, -0.1986676600468, 0
2528, 0.87872904437492, -0.20546587025328, 0
2529, 0.73356438264428, -0.1534103260713, 0
2530, 0.75930372693769, -0.16861555241776, 0
2531, 0.73059313944388, -0.10180185555095, 0
2532, 0.31205482532874, -0.19419037601424, 0
2533, 0.37328804871468, -0.23469387260372, 0
2534, 0.72038635866675, -0.14492297195643, 0
2535, 0.70554692273662, -0.1076933586049, 0
2536, 0.78483344693317, -0.1262281284122, 0
2537, 0.97552888915184, 0.19310765213802, 0
2538, 0.93302857031743, 0.10739066368242, 0
2539, 0.90825092347255, 0.11625647521273, 0
2540, 0.22325883346857, 0.12539376041596, 0
2541, 0.26597558440656, 0.094194593901064, 0
2542, 0.56503642407949, -0.18015032401549, 0
2543, 0.3302821971094, -0.048448554148907, 0
2544, 0.2816970210817, 0.062841548966842, 0
2545, 0.12247955974242, 0.045180074712551, 0
2546, 0.31048033440154, -0.15045486085441, 0
2547, 0.34354167263593, -0.13882902050489, 0
2548, 0.33166007799972, -0.18205513395867, 0
2549, 0.74657998813359, 0.095952633557762, 0
2550, 0.73492417489978, 0.11256593084287, 0
2551, 0.81265486498812, 0.14410177360112, 0
2552, 0.70140687338843, 0.15399951827601, 0
2553, 0.63817685024208, -0.13882800565977, 0
2554, 0.22628428537404, 0.1364867104745, 0
2555, 0.23522196407954, 0.14419870516757, 0
2556, 0.23554087520146, 0.13873623457815, 0
2557, 0.4638814350323, -0.20418079241167, 0
2558, 0.35135362819168, 0.24447623018204, 0
2559, 0.39514184976334, 0.24123021436279, 0
2560, 0.35359184558452, 0.23755765676778, 0
2561, 0.74729702156586, -0.019371635923904, 0
2562, 0.79493171044693, -0.027797165217719, 0
2563, 0.76459699798175, -0.03602070587139, 0
2564, 0.75522389246495, 0.12720648403172, 0
2565, 0.8310529489356, 0.1271090145741, 0
2566, 0.8322934352841, 0.1596275585891, 0
2567, 0.23651783555866, 0.1556519937246, 0
2568, 0.23588626284418, 0.14998049318149, 0
2569, 0.74958773578653, 0.023333440746568, 0
2570, 0.73104599931556, 0.018481236956196, 0
2571, 0.23559544210198, 0.13320266218728, 0
2572, 0.71496838594299, 0.19408361527026, 0
2573, 0.16381164784253, -0.19313459027289, 0
2574, 0.19465176966806, -0.22065736772056, 0
2575, 0.16819854878482, -0.2203399078251, 0
2576, 0.60471068113094, -0.15534654734696, 0
2577, 0.6625848868269, -0.15386703997825, 0
2578, 0.77118541161934, -0.016845289902018, 0
2579, 0.74820565771816, -0.012959366102971, 0
2580, 0.73612735556334, -0.00047959897193621, 0
2581, 0.3211991265217, -0.067808193503036, 0
2582, 0.25710780069557, -0.086827582208355, 0
2583, 0.2459319114896, -0.015656900119897, 0
2584, 0.79182085059969, -0.070352484123067, 0
2585, 0.7798967713872, -0.078242464373962, 0
2586, 0.78148544870267, -0.067194788400649, 0
2587, 0.65572393228052, -0.138891434897, 0
2588, 0.56882682730874, -0.1656736986695, 0
2589, 0.64148281143773, -0.13610458335483, 0
2590, 0.316769565708, 0.20811899977921, 0
2591, 0.35421231735308, 0.22326824469015, 0
2592, 0.27439321944188, 0.2311712798754, 0
2593, 0.73251002402154, 0.12160209659851, 0
2594, 0.71823124271873, 0.14484549714617, 0
2595, 0.74073635268607, 0.13598741289895, 0
2596, 0.69612822383166, -0.13286521947796, 0
2597, 0.69981666667743, -0.11998977637588, 0
2598, 0.21168760249137, 0.13013268332146, 0
2599, 0.21839448992948, 0.13386030200745, 0
2600, 0.70796193412621, -0.11392488505581, 0
2601, 0.7665794426968, -0.1488770906207, 0
2602, 0.72693941028058, -0.11907727238998, 0
2603, 0.73653003968499, -0.1433147984904, 0
2604, 0.2830745394966, 0.27335981281689, 0
2605, 0.27931287738744, 0.20910723589765, 0
2606, 0.33820111356722, 0.23243892766927, 0
2607, 0.39380480774821, 0.25248906404487, 0
2608, 0.39478472934375, 0.23696215449168, 0
2609, 0.37952439000729, 0.28809710742425, 0
2610, 0.75299277983172, 0.018533151712434, 0
2611, 0.75806589885563, -0.0365778886691, 0
2612, 0.28640798970846, 0.093733412153525, 0
2613, 0.26194491891241, 0.098112848435011, 0
2614, 0.090922731775209, 0.23329984454803, 0
2615, 0.066409670907398, 0.2048803639072, 0
2616, 0.06809491685446, 0.22976637494584, 0
2617, 0.31855232033377, -0.11582419731326, 0
2618, 0.33260020995767, -0.050548420922717, 0
2619, 0.36952125464017, -0.1324437283399, 0
2620, 0.48702851183189, -0.20052861208751, 0
2621, 0.4397261747108, -0.2050910389155, 0
2622, 0.46906255638469, -0.20799365912488, 0
2623, 0.54213348882399, -0.18240700636247, 0
2624, 0.52173446635846, -0.17744683610742, 0
2625, 0.52475838291188, -0.17395437846077, 0
2626, 0.74102593651911, 0.10791162907815, 0
2627, 0.73079197942784, 0.1257326824001, 0
2628, 0.44270707021673, -0.24048226515186, 0
2629, 0.48709727481745, -0.2609426952691, 0
2630, 0.47413346858716, -0.20418558843638, 0
2631, 0.44416697052519, -0.2508108943742, 0
2632, 0.20129759280473, 0.097248321508646, 0
2633, 0.13026684731035, 0.19698529171411, 0
2634, 0.18659774025638, 0.1512513930879, 0
2635, 0.64888762272185, -0.14680956237837, 0
2636, 0.65723945570887, -0.14821307223013, 0
2637, 0.64723085105399, -0.16987021156983, 0
2638, 0.42970735726481, -0.26292755648129, 0
2639, 0.46089373029675, -0.21188862125766, 0
2640, 0.64481209170676, -0.15052034041354, 0
2641, 0.58564195123211, -0.14954285074559, 0
2642, 0.72855147106698, 0.084415046533806, 0
2643, 0.70844051783384, 0.063439272689855, 0
2644, 0.72387531924033, 0.066342527579765, 0
2645, 0.36930399990566, -0.18065039568792, 0
2646, 0.41100062168726, -0.2382948831047, 0
2647, 0.32765697791271, -0.045968294259308, 0
2648, 0.29239531865502, 0.0098546875018253, 0
2649, 0.33880274792521, -0.068980224929706, 0
2650, 0.89558919176796, -0.023597642058109, 0
2651, 0.76611006544184, 0.0081502840890469, 0
2652, 0.56604609280573, -0.14773272420013, 0
2653, 0.66313812710315, -0.1384318954025, 0
2654, 0.67454248171271, -0.14625845595362, 0
2655, 0.39311610605755, -0.15501582027699, 0
2656, 0.33399858915628, -0.12014380112608, 0
2657, 0.34107511460095, -0.08096044931405, 0
2658, 0.30150229718478, 0.043727484288644, 0
2659, 0.22115417946463, -0.062966764278644, 0
2660, 0.76408045488904, 0.10338615634985, 0
2661, 0.74223195208346, 0.12438290987826, 0
2662, 0.73974791542872, 0.12830564826329, 0
2663, 0.73462366060354, 0.20097738029462, 0
2664, 0.28043667644473, 0.0058707517088171, 0
2665, 0.28909647332581, -0.055271728025563, 0
2666, 0.29941081521599, 0.039954734374046, 0
2667, 0.29718659595757, 0.00076425144077634, 0
2668, 0.29460482622749, 0.0048410427652186, 0
2669, 0.78997642329346, 0.10876418637317, 0
2670, 0.82643225653526, 0.093139091276022, 0
2671, 0.66046409691448, -0.1433201417564, 0
2672, 0.6140748467728, -0.15566320206566, 0
2673, 0.39718407024594, -0.20903311408389, 0
2674, 0.40596595918245, -0.22563539501393, 0
2675, 0.32321303273668, -0.15516557177593, 0
2676, 0.68338450081806, -0.13561889605517, 0
2677, 0.69467653502284, -0.11905605399072, 0
2678, 0.81604241799605, 0.017599560695761, 0
2679, 0.79527498272922, -0.043614878310885, 0
2680, 0.70181611252064, 0.17249971839271, 0
2681, 0.71529027844242, 0.15419674077347, 0
2682, 0.70962056294211, 0.049323910949549, 0
2683, 0.71650203965093, 0.060144579632609, 0
2684, 0.71400396257344, 0.040857177179589, 0
2685, 0.45671365884642, -0.21404109936912, 0
2686, 0.54216221000425, -0.24957882824597, 0
2687, 0.55777489583168, -0.247202380515, 0
2688, 0.69552590799116, 0.17090381053653, 0
2689, 0.73195886551018, 0.14457611177343, 0
2690, 0.36134687978815, -0.13400577437279, 0
2691, 0.38002506879248, -0.1398618268585, 0
2692, 0.43941521298594, -0.21071566446108, 0
2693, 0.72950420439519, 0.27038948184477, 0
2694, 0.66931062659255, 0.29273140723545, 0
2695, 0.77365149866252, 0.20707070336738, 0
2696, 0.75092796881353, 0.24601030162963, 0
2697, 0.81112866475865, 0.25575726608094, 0
2698, 0.73736544073654, 0.12267037427732, 0
2699, 0.75288232242498, 0.14599280667106, 0
2700, 0.50903335938632, -0.20083733603896, 0
2701, 0.50951040822794, -0.19139648606767, 0
2702, 0.50579706074957, -0.1951286811516, 0
2703, 0.291208522665, 0.054598397248665, 0
2704, 0.22106223049526, 0.12896764415935, 0
2705, 0.2406716937733, 0.10651312051104, 0
2706, 0.29068455896959, 0.046703354938133, 0
2707, 0.25396716006596, 0.0082115893109669, 0
2708, 0.29454976127087, -0.0086543452074062, 0
2709, 0.20169638204964, -0.11248994450289, 0
2710, 0.33300227344231, -0.045904906279917, 0
2711, 0.7652494351993, -0.0022718813173672, 0
2712, 0.77983879520399, -0.0078418196486833, 0
2713, 0.83975316261521, 0.013619615670626, 0
2714, 0.43304636171883, -0.21623641309941, 0
2715, 0.5137496759285, -0.25737222875533, 0
2716, 0.45286162531963, -0.20244717770017, 0
2717, 0.42341818004559, 0.28378408695049, 0
2718, 0.47534694895653, 0.27696578888723, 0
2719, 0.73839490573723, 0.091620960745145, 0
2720, 0.74175113308973, 0.084439761185609, 0
2721, 0.73137329606112, 0.060668385315964, 0
2722, 0.73604674749041, 0.086686928683721, 0
2723, 0.44235675954211, 0.25798696372868, 0
2724, 0.5870586665251, -0.15280421381355, 0
2725, 0.58726467065502, -0.16753643961349, 0
2726, 0.29543496990887, 0.031312768799118, 0
2727, 0.29523675222652, 0.05729568198104, 0
2728, 0.52457234088236, -0.1871159102192, 0
2729, 0.51582647213152, -0.18409912861422, 0
2730, 0.51872398570454, -0.18073663387671, 0
2731, 0.74141597129217, 0.15334841668283, 0
2732, 0.69669954597106, 0.20460124891001, 0
2733, 0.72139809238358, 0.14127942870366, 0
2734, 0.36039688250048, 0.23233855055374, 0
2735, 0.86534431268654, 0.012752172626812, 0
2736, 0.48155084669372, -0.23773223151717, 0
2737, 0.44448621953427, -0.20123165275894, 0
2738, 0.43390356038225, -0.20963593572134, 0
2739, 0.29426413959179, 0.05032738726452, 0
2740, 0.29211328861959, 0.038718629137677, 0
2741, 0.29958709050853, -0.0026016412496465, 0
2742, 0.21662693229923, -0.19313743376743, 0
2743, 0.25403831568063, -0.22313249680796, 0
2744, 0.22295332601119, -0.22129654028566, 0
2745, 0.22830253215665, 0.16126661661087, 0
2746, 0.239956278975, 0.16717204902514, 0
2747, 0.23806073530611, 0.16145263131351, 0
2748, 0.35319101360407, -0.13479386187763, 0
2749, 0.82951345813521, 0.11049537586771, 0
2750, 0.42031707955774, -0.21259194533269, 0
2751, 0.39783009944872, -0.18311835779772, 0
2752, 0.33865598439524, -0.22323602194062, 0
2753, 0.39086227504147, -0.18735693015202, 0
2754, 0.31479404296406, -0.054784875199078, 0
2755, 0.57780899236694, -0.19802322091664, 0
2756, 0.52617816407821, -0.23811322933586, 0
2757, 0.52752469587871, -0.25396321372094, 0
2758, 0.29963504090996, -0.14331782025179, 0
2759, 0.36883771453883, -0.17312858991955, 0
2760, 0.38347038255681, -0.16027871594782, 0
2761, 0.57187023660172, 0.23863542126793, 0
2762, 0.60175866177337, 0.27837495615734, 0
2763, 0.61805930117609, 0.25410369264529, 0
2764, 0.43243564602872, -0.22360516123435, 0
2765, 0.46319670008355, -0.23184420403935, 0
2766, 0.13329619672183, 0.12396562951293, 0
2767, 0.10756339141248, 0.16510739346256, 0
2768, 0.23693373589174, 0.12271337903904, 0
2769, 0.18483932895586, 0.25092529367382, 0
2770, 0.71825629023199, -0.10549529434135, 0
2771, 0.7536018492219, -0.10639858525378, 0
2772, 0.31011259377288, -0.12122848503852, 0
2773, 0.31910031100709, -0.037286787340178, 0
2774, 0.70026533547402, 0.050271027629916, 0
2775, 0.7332549454268, 0.049457247550035, 0
2776, 0.72294559818239, 0.035323419919003, 0
2777, 0.71019464424292, 0.043432891124972, 0
2778, 0.74383126516726, 0.076397909680867, 0
2779, 0.47749117877247, -0.20850601053512, 0
2780, 0.42663968738926, -0.21475408878033, 0
2781, 0.42843373208295, -0.20794265844632, 0
2782, 0.87584619845005, 0.2769056555101, 0
2783, 0.90078251948828, 0.27617822876596, 0
2784, 0.9242547945652, 0.17125357729815, 0
2785, 0.9753450897657, 0.27402117276737, 0
2786, 0.30379126127409, 0.069680406956381, 0
2787, 0.24496449315012, 0.094866819606707, 0
2788, 0.54482766199421, -0.17523691167958, 0
2789, 0.51281932767845, -0.18767699684779, 0
2790, 0.75993474444489, 0.12069171559675, 0
2791, 0.20467141863555, 0.12495066225295, 0
2792, 0.20543649518849, 0.17312171699889, 0
2793, 0.19695319243409, 0.17759935566388, 0
2794, 0.21522027274812, 0.08686716359913, 0
2795, 0.59469572399977, -0.15617548987877, 0
2796, 0.64761763274057, -0.13040327805326, 0
2797, 0.65050181620842, -0.12754780086563, 0
2798, 0.47669956616474, -0.24873222333465, 0
2799, 0.75160336126673, -0.010267802413489, 0
2800, 0.74737035591606, -0.010038471562049, 0
2801, 0.79079785517707, -0.26145448414481, 0
2802, 0.91193575445145, -0.25840790743273, 0
2803, 0.97988475520525, 0.075836573793747, 0
2804, 0.3286821334539, 0.22779170062425, 0
2805, 0.26160276237772, 0.19949677662027, 0
2806, 0.23810526321343, -0.11715964281562, 0
2807, 0.26904909959255, -0.089754610099779, 0
2808, 0.31389991537489, -0.021318073213941, 0
2809, 0.26415021931485, -0.042595577980247, 0
2810, 0.7929006927488, 0.1939861115711, 0
2811, 0.7143271102791, 0.18850460111743, 0
2812, 0.7758182709183, 0.19313972544766, 0
2813, 0.74004918306748, 0.14056520621584, 0
2814, 0.37828459772351, -0.20359101009446, 0
2815, 0.41010314917342, -0.18678597858447, 0
2816, 0.41030041033273, -0.21725818103849, 0
2817, 0.39440298088282, -0.19262898162135, 0
2818, 0.29881036684979, 0.22402397939952, 0
2819, 0.087357602670585, 0.18430721763637, 0
2820, 0.065627926201928, 0.17888734224504, 0
2821, 0.71769001304748, -0.16360916932499, 0
2822, 0.70583229976396, -0.15169896750268, 0
2823, 0.71212889789319, -0.14414485315368, 0
2824, 0.71495748866237, -0.15356565938002, 0
2825, 0.18386836319096, -0.16562496289904, 0
2826, 0.13675317577346, -0.16547183417722, 0
2827, 0.15995314629854, -0.1656411578736, 0
2828, 0.79736197049017, 0.028911965464419, 0
2829, 0.81094707220358, 0.041320392089275, 0
2830, 0.7631436016075, 0.019495482660238, 0
2831, 0.82371280373652, -0.051208556645466, 0
2832, 0.81520673594448, 0.02941814536684, 0
2833, 0.75139378771672, 0.00020521913582389, 0
2834, 0.75272311642279, -0.014208204113132, 0
2835, 0.77216769325152, -0.091933940587436, 0
2836, 0.79142925169589, -0.076964478338118, 0
2837, 0.79138375179757, -0.11541592304431, 0
2838, 0.28222698896656, 0.014931568602126, 0
2839, 0.27996587212631, -0.026674101677252, 0
2840, 0.33941511922041, -0.072983992331285, 0
2841, 0.27764222386161, -0.069617137501598, 0
2842, 0.33782514564197, -0.061196155772294, 0
2843, 0.23619489347679, 0.0748482234956, 0
2844, 0.81835857600498, -0.041075187303426, 0
2845, 0.91558303118688, -0.086096304914726, 0
2846, 0.95444210539455, -0.27647092625688, 0
2847, 0.43210329742219, -0.23183036619331, 0
2848, 0.44195479063785, -0.27499998258031, 0
2849, 0.73780467138328, 0.14594746943583, 0
2850, 0.74017727846251, 0.17537778166332, 0
2851, 0.33696366252291, -0.054193315559772, 0
2852, 0.58174192468925, -0.2100189818641, 0
2853, 0.64191583576931, -0.22594605866037, 0
2854, 0.68575941675735, -0.22218349305898, 0
2855, 0.67216901970777, -0.15309213640949, 0
2856, 0.66881877232114, -0.15993118191772, 0
2857, 0.7123426074381, 0.052902953230597, 0
2858, 0.72143240932286, 0.062546051174742, 0
2859, 0.65908685979994, -0.17381061163859, 0
2860, 0.64135919080114, -0.14442621714694, 0
2861, 0.56413425391067, -0.17241658805208, 0
2862, 0.5792760962304, -0.16434336307854, 0
2863, 0.58284211428975, -0.18577457026353, 0
2864, 0.32368230447003, -0.034006968324156, 0
2865, 0.75146623533768, 0.088239767499533, 0
2866, 0.76778507353015, 0.048675333771357, 0
2867, 0.74790215256398, 0.081992316135081, 0
2868, 0.8039292108153, 0.093578315742322, 0
2869, 0.70988772650795, 0.16374028228899, 0
2870, 0.28655851438487, 0.20533326909674, 0
2871, 0.21043245808031, 0.1623082977625, 0
2872, 0.2216966891636, 0.16819985001557, 0
2873, 0.21949017286061, 0.16156948956745, 0
2874, 0.73380245909368, -0.21886789092435, 0
2875, 0.70712830846132, -0.25363803749538, 0
2876, 0.72462807888587, -0.18783126820445, 0
2877, 0.77118572632124, -0.17755832750068, 0
2878, 0.7287169968071, -0.20227141239459, 0
2879, 0.61310903233526, 0.25741225360991, 0
2880, 0.65842457030468, 0.25197505256171, 0
2881, 0.61280545312785, 0.29213709552053, 0
2882, 0.23275870235932, 0.17346096828386, 0
2883, 0.24450061861007, 0.1783875141914, 0
2884, 0.24214817629149, 0.17280841942123, 0
2885, 0.28773192121676, -0.012698324948405, 0
2886, 0.30033810093081, -0.053695673993271, 0
2887, 0.3272254742233, -0.068590305429769, 0
2888, 0.40332677856599, -0.26020680116409, 0
2889, 0.41909469357172, -0.25072949859044, 0
2890, 0.41649907480485, -0.2620771057486, 0
2891, 0.91676479591979, -0.06517506541343, 0
2892, 0.85555355724614, -0.06585963695247, 0
2893, 0.90821787190441, 0.014310230166144, 0
2894, 0.85139866387925, 0.079196201526066, 0
2895, 0.92583998035798, 0.27533352502486, 0
2896, 0.18776461400927, 0.10283644542754, 0
2897, 0.40856066734156, -0.20624798466508, 0
2898, 0.28511349828375, -0.22859575583906, 0
2899, 0.75066428064914, 0.22718715035421, 0
2900, 0.69547516216876, 0.22932248443327, 0
2901, 0.70111647896123, 0.24077493019706, 0
2902, 0.71496312162623, 0.1999075400243, 0
2903, 0.73914918536388, 0.11812349255646, 0
2904, 0.7530317094061, 0.1166541320079, 0
2905, 0.74055319789917, 0.2890014396587, 0
2906, 0.58499971067048, 0.24662509438365, 0
2907, 0.66768859983536, 0.2782767423322, 0
2908, 0.55807709727684, -0.1650124203561, 0
2909, 0.55806172274351, -0.15868962085111, 0
2910, 0.72886087391522, 0.12970743131745, 0
2911, 0.77332052913878, 0.11739841158632, 0
2912, 0.39754472442297, -0.15396177915747, 0
2913, 0.34045255836626, -0.11533227452578, 0
2914, 0.28528954176184, -0.20709396985455, 0
2915, 0.44484800221701, -0.21113692569766, 0
2916, 0.49887386758731, -0.27297930426294, 0
2917, 0.48736516537517, -0.20643529672886, 0
2918, 0.67674986864669, -0.19464283479559, 0
2919, 0.66901961405208, -0.20632943702939, 0
2920, 0.28382607396449, 0.056591945374391, 0
2921, 0.24740141175474, 0.037408038252857, 0
2922, 0.19574820014074, 0.0054432961775063, 0
2923, 0.82755522897042, 0.059068495076396, 0
2924, 0.78684651605402, 0.046878883935682, 0
2925, 0.80374666147926, 0.052474451756059, 0
2926, 0.28576247463951, 0.084795670940867, 0
2927, 0.30355692660381, 0.047131587060548, 0
2928, 0.64461826054211, -0.13327217040432, 0
2929, 0.57709719204311, -0.15910368923927, 0
2930, 0.59630386518431, -0.18917293286431, 0
2931, 0.55802968942708, -0.17183870713056, 0
2932, 0.61899701322468, -0.14913802233466, 0
2933, 0.4278651272038, -0.2749544131465, 0
2934, 0.50153501371716, -0.22473784349522, 0
2935, 0.47870947403583, -0.19862411711034, 0
2936, 0.47079639024328, -0.27423598931964, 0
2937, 0.22128056817349, 0.202837567399, 0
2938, 0.18747090199353, 0.1384900281038, 0
2939, 0.27361721376712, 0.067460864494337, 0
2940, 0.58151968413582, -0.1583699598771, 0
2941, 0.58999688433583, -0.15197795359704, 0
2942, 0.15736405255372, 0.22609774436164, 0
2943, 0.20757104156097, 0.18751084195103, 0
2944, 0.21222052150331, 0.18075999923377, 0
2945, 0.73538691521807, -0.23767678730021, 0
2946, 0.77943635895283, 0.054103100396389, 0
2947, 0.73035468208246, 0.077992720225897, 0
2948, 0.69005825053186, 0.23699373155212, 0
2949, 0.69407128391837, 0.23960906824558, 0
2950, 0.80270014957844, -0.01106470557454, 0
2951, 0.84915140394467, 0.19315306369626, 0
2952, 0.86531967257967, 0.15723361709888, 0
2953, 0.63469908079696, -0.14140691130996, 0
2954, 0.57808207376394, -0.14925673458931, 0
2955, 0.068489366593299, -0.19280806212054, 0
2956, 0.069995069115826, -0.21988522489507, 0
2957, 0.24913353719754, 0.12115529827187, 0
2958, 0.178907346936, 0.21336181337655, 0
2959, 0.13739343269401, 0.24149637543294, 0
2960, 0.69271396943774, 0.161886096618, 0
2961, 0.27137837171325, 0.016306466818251, 0
2962, 0.1418603133769, -0.0024469528133392, 0
2963, 0.32692180395381, -0.087887387830999, 0
2964, 0.25383167017559, -0.049853147437267, 0
2965, 0.31807831670105, -0.050518606144736, 0
2966, 0.59680089052645, -0.15342945870718, 0
2967, 0.42314969104788, -0.23083460918824, 0
2968, 0.42308301494998, -0.20570284227962, 0
2969, 0.4249040386241, -0.22234196398264, 0
2970, 0.2138535593562, -0.008861344415357, 0
2971, 0.31861673322689, -0.08353746790545, 0
2972, 0.13745930939893, -0.052287014913915, 0
2973, 0.55925857128642, 0.24282805835432, 0
2974, 0.55792151167396, 0.23669735623987, 0
2975, 0.55542920350429, 0.23977874821261, 0
2976, 0.40470179023385, 0.24275443107909, 0
2977, 0.40147211565317, 0.24618324876456, 0
2978, 0.95104482866403, 0.19368584036268, 0
2979, 0.8948623796848, 0.089366838918304, 0
2980, 0.95222937883647, 0.2223379874927, 0
2981, 0.86890810832422, 0.11643904401595, 0
2982, 0.70428010389985, 0.24612818705545, 0
2983, 0.84959408106891, 0.12843248629807, 0
2984, 0.46392140285834, -0.20160333699393, 0
2985, 0.45683659638371, -0.20239764621268, 0
2986, 0.93136093856653, -0.025605459240799, 0
2987, 0.74372663202717, -0.01336341747764, 0
2988, 0.55217209527418, 0.27733644807456, 0
2989, 0.61073264658815, 0.2500116970018, 0
2990, 0.56606073763988, 0.24105091164104, 0
2991, 0.61419998935621, 0.25213745418929, 0
2992, 0.60108056177115, 0.26247775362717, 0
2993, 0.66336102589695, 0.2502039665386, 0
2994, 0.64776033110316, 0.27201841314872, 0
2995, 0.39280755249554, 0.26022673084231, 0
2996, 0.39762434971969, 0.26500914677883, 0
2997, 0.39889308408701, 0.27631234197116, 0
2998, 0.52323279519359, -0.20782453855567, 0
2999, 0.54000736740293, -0.22838926256381, 0
3000, 0.5166128172599, -0.19199881402752, 0
3001, 0.72894272752905, -0.1644313127935, 0
3002, 0.77548269818925, -0.13397711868315, 0
3003, 0.73454500600278, -0.10015314996579, 0
3004, 0.32253698622081, 0.2523012657874, 0
3005, 0.60198186843978, 0.24204344761802, 0
3006, 0.63525600783004, 0.25342525232532, 0
3007, 0.59125710450335, 0.25524637555926, 0
3008, 0.21805301169562, 0.17633794784296, 0
3009, 0.22704302690677, 0.18008869377368, 0
3010, 0.22490691851425, 0.17443111686269, 0
3011, 0.20785673583247, 0.026962109242259, 0
3012, 0.25675224538224, 0.032138382511354, 0
3013, 0.48393670739067, 0.28519631756002, 0
3014, 0.44013182728981, 0.29164653737869, 0
3015, 0.80731154720803, 0.21240572282786, 0
3016, 0.81114722949265, 0.19445786379674, 0
3017, 0.72656708969684, -0.1032463575384, 0
3018, 0.7718958028027, -0.19571223565399, 0
3019, 0.77029839204188, -0.11851774997699, 0
3020, 0.62419254864835, -0.23176591313958, 0
3021, 0.84717232765186, -0.038393716057499, 0
3022, 0.73425929145229, 0.014966238953857, 0
3023, 0.3039810345055, -0.16136820426228, 0
3024, 0.33116022317454, -0.19514725883511, 0
3025, 0.55647189851926, -0.22885262110696, 0
3026, 0.41969979420716, 0.24963976525709, 0
3027, 0.3472868418596, 0.26011643013965, 0
3028, 0.34575687124926, 0.26909753926198, 0
3029, 0.15589939847688, 0.075409331570545, 0
3030, 0.57700306649179, 0.23595291500946, 0
3031, 0.54708033682215, 0.29195577313649, 0
3032, 0.55695030897443, 0.26550687112051, 0
3033, 0.5637187844822, 0.23535432325239, 0
3034, 0.5676808473332, 0.23704664526976, 0
3035, 0.54079731728558, 0.26471077077166, 0
3036, 0.55005170604042, 0.26303848174765, 0
3037, 0.54637798704581, 0.25565801564601, 0
3038, 0.54387642952263, 0.26013849538968, 0
3039, 0.65553932138273, 0.28572609105722, 0
3040, 0.7466143473848, 0.19229766046071, 0
3041, 0.70293621344312, 0.16299692693843, 0
3042, 0.7600111735311, 0.13399345815689, 0
3043, 0.23151128891127, -0.16340722484205, 0
3044, 0.2073972958963, -0.16534620403005, 0
3045, 0.56612246195496, -0.18896934704318, 0
3046, 0.85452353947734, -0.10282744782512, 0
3047, 0.96601181737217, -0.026491519707058, 0
3048, 0.55373327856653, -0.1521035014527, 0
3049, 0.54549693986713, -0.15115002129418, 0
3050, 0.58020318168446, 0.24562150246734, 0
3051, 0.60285041670167, 0.24056198419842, 0
3052, 0.8905919895555, -0.1422631221881, 0
3053, 0.9664325611648, -0.050902667361132, 0
3054, 0.83753692814498, -0.21019861318527, 0
3055, 0.84126490517169, -0.063474834905967, 0
3056, 0.55419098619188, 0.25278572940251, 0
3057, 0.5656180266284, 0.26198502510244, 0
3058, 0.55883483314765, 0.26012039525564, 0
3059, 0.22282944175019, 0.059818106564316, 0
3060, 0.28108213402276, 0.086527338315898, 0
3061, 0.16503642585683, -0.02259410294925, 0
3062, 0.21617681821672, 0.077939937567649, 0
3063, 0.33309464209439, -0.064836574920382, 0
3064, 0.27227235577183, -0.12869395846111, 0
3065, 0.26682745167793, -0.14941216258824, 0
3066, 0.25114920631573, -0.15725827027118, 0
3067, 0.39790997984972, -0.22155534829516, 0
3068, 0.36519467013075, -0.13689082502069, 0
3069, 0.74385436740618, -0.14082322164658, 0
3070, 0.73169700408701, -0.10961566770252, 0
3071, 0.57256863274484, 0.26337528966957, 0
3072, 0.69888445366281, 0.16543183776769, 0
3073, 0.7886834400378, 0.12723770948284, 0
3074, 0.72612849615811, 0.17324191655422, 0
3075, 0.77506078012144, 0.10538632233624, 0
3076, 0.39016588153663, 0.24016392520638, 0
3077, 0.39791496358172, 0.2494170147739, 0
3078, 0.40511426304554, 0.28949007893578, 0
3079, 0.72712696034832, 0.074441108989865, 0
3080, 0.72401657575067, 0.086442228748253, 0
3081, 0.71931824934382, 0.06630644880759, 0
3082, 0.23806561357512, 0.18575461657188, 0
3083, 0.25137341690929, 0.18955588789639, 0
3084, 0.24753604338615, 0.18400902041011, 0
3085, 0.26224145443151, 0.20966712935466, 0
3086, 0.28873320051328, 0.249111851021, 0
3087, 0.72971767717248, 0.17897439728653, 0
3088, 0.39284924517246, -0.17370808730908, 0
3089, 0.41325393460251, 0.25291257001503, 0
3090, 0.18283348975461, 0.0925005526542, 0
3091, 0.19196227494548, 0.12757252260981, 0
3092, 0.38618291801554, 0.25048619849627, 0
3093, 0.38840850281146, 0.24466028291999, 0
3094, 0.29216574505031, 0.066626421710318, 0
3095, 0.77018646574683, -0.10431032592197, 0
3096, 0.32669509638822, -0.073194334650701, 0
3097, 0.55391856479027, -0.14611080282318, 0
3098, 0.53877655660694, -0.14633352414305, 0
3099, 0.36626687662086, 0.22744921475411, 0
3100, 0.41363368114749, -0.19035582613352, 0
3101, 0.38812470230292, -0.18182013248604, 0
3102, 0.12685128015928, 0.06853637243723, 0
3103, 0.1538765860977, 0.20437137845567, 0
3104, 0.38265026090852, -0.22487441078089, 0
3105, 0.32972949425115, -0.11600180934511, 0
3106, 0.5304004768389, -0.21564914107292, 0
3107, 0.710249361611, -0.19851945119944, 0
3108, 0.72091670606848, -0.17497215007575, 0
3109, 0.69543632201191, 0.15938932666665, 0
3110, 0.74653912497279, 0.12729389790918, 0
3111, 0.090239512363413, -0.16545267365952, 0
3112, 0.067234013455927, -0.16549358487948, 0
3113, 0.71257677735142, 0.29152815368502, 0
3114, 0.69887637514462, 0.26172672409771, 0
3115, 0.77173738246137, -0.035111309621188, 0
3116, 0.68134488456343, -0.15040123190955, 0
3117, 0.65845397561253, -0.15959902266552, 0
3118, 0.30288635093054, -0.025769584480757, 0
3119, 0.27074314991405, -0.012076330677831, 0
3120, 0.53277728164998, -0.18283218198194, 0
3121, 0.53940439375513, -0.1721814277811, 0
3122, 0.70633422894603, 0.060194803836006, 0
3123, 0.92461665704257, -0.12079678587264, 0
3124, 0.69038664426257, 0.17246812014823, 0
3125, 0.2761268079701, 0.1027600494335, 0
3126, 0.28730540622397, 0.065095131512727, 0
3127, 0.69767429244381, -0.15837804081054, 0
3128, 0.6450402248198, -0.14130032436772, 0
3129, 0.63108866557203, -0.16715511801825, 0
3130, 0.76600165113721, -0.10671646256258, 0
3131, 0.7404969213273, 0.11313151841389, 0
3132, 0.1738434069042, 0.037907855825609, 0
3133, 0.22262121769133, -0.13906671455161, 0
3134, 0.26245363951165, -0.074688734651885, 0
3135, 0.71945730066537, 0.13616281117927, 0
3136, 0.71259807440319, 0.21186930876817, 0
3137, 0.37224959719336, 0.26883162739985, 0
3138, 0.2208120052376, 0.0087568797573657, 0
3139, 0.27166022125633, 0.047298860536303, 0
3140, 0.71647364409971, 0.25637884768, 0
3141, 0.66266488977238, -0.12692640252511, 0
3142, 0.66525831175021, -0.13359087652912, 0
3143, 0.66075639738821, -0.13077409243187, 0
3144, 0.60264951426456, -0.1596969416311, 0
3145, 0.55759685301907, -0.18833133449017, 0
3146, 0.30301557530819, 0.052694972317001, 0
3147, 0.29863402327521, -0.009403629387983, 0
3148, 0.2893822491948, 0.033887724485938, 0
3149, 0.23903088208716, 0.0091003039398288, 0
3150, 0.85678906614775, -0.091796004729525, 0
3151, 0.78970370890659, -0.083123658248339, 0
3152, 0.78849055356693, -0.15870948570445, 0
3153, 0.83259774602561, -0.15189660879312, 0
3154, 0.5273456089443, -0.1546355979036, 0
3155, 0.53557843072583, -0.14676494508909, 0
3156, 0.46707182467695, -0.21142095954865, 0
3157, 0.45800880673134, 0.27618864884406, 0
3158, 0.44573902015484, 0.25883779954842, 0
3159, 0.43662601352444, 0.27737278595472, 0
3160, 0.53202024550493, 0.27350235701821, 0
3161, 0.52609027424594, 0.27627706448049, 0
3162, 0.30386526425266, 0.057787720528124, 0
3163, 0.30243809107802, 0.061182873014171, 0
3164, 0.74502963372973, 0.1347520539231, 0
3165, 0.51714950325553, -0.21495478658572, 0
3166, 0.5219789304485, -0.22488819356354, 0
3167, 0.34754285113126, -0.12208901762525, 0
3168, 0.33462880059709, -0.086476220875395, 0
3169, 0.33366125387687, -0.12938607808335, 0
3170, 0.2963447212465, -0.1186877127401, 0
3171, 0.83165354967625, -0.16523788460235, 0
3172, 0.78282372140513, -0.0018858529432974, 0
3173, 0.31459416298709, -0.040757341312745, 0
3174, 0.3373705887346, -0.095258109709715, 0
3175, 0.30185299940999, 0.078387015257199, 0
3176, 0.15091600207524, 0.05847991847191, 0
3177, 0.2718742621636, 0.035395915227531, 0
3178, 0.66783303796431, -0.12435969515198, 0
3179, 0.68950331878097, -0.10924869039187, 0
3180, 0.71134646330795, 0.15129070337735, 0
3181, 0.32482185275053, -0.049228956251809, 0
3182, 0.34222775921981, -0.084921403265495, 0
3183, 0.77178144305213, -0.14158106788694, 0
3184, 0.70955609837193, -0.13555486070459, 0
3185, 0.7455428911863, 0.027933710840876, 0
3186, 0.71432705817295, 0.064886476218163, 0
3187, 0.72940488130033, 0.064973101387386, 0
3188, 0.72267118226225, 0.015555707614758, 0
3189, 0.88430477429738, -0.057114557814493, 0
3190, 0.84641626023362, -0.17872971244891, 0
3191, 0.64719700411961, 0.28571698898039, 0
3192, 0.57403506505141, 0.23043942158183, 0
3193, 0.70599196383244, 0.2369407624871, 0
3194, 0.70756481720775, 0.25965418978886, 0
3195, 0.33453537062998, -0.1694702225442, 0
3196, 0.34672255517995, -0.12924843586529, 0
3197, 0.37297588314836, -0.13508862562261, 0
3198, 0.41741737597596, -0.19370711031762, 0
3199, 0.26731092734696, -0.10200979377551, 0
3200, 0.21962220099213, 0.18549682535532, 0
3201, 0.23106583438805, 0.19394999842998, 0
3202, 0.228651986112, 0.18647344348705, 0
3203, 0.9067967073418, 0.22813423297439, 0
3204, 0.77683268032223, 0.17903030483031, 0
3205, 0.88525543285952, 0.23064639962536, 0
3206, 0.30606273961986, -0.041023456647369, 0
3207, 0.54925947570772, 0.28420700365025, 0
3208, 0.37424859169074, 0.24694477763014, 0
3209, 0.36885591977063, 0.2406394868017, 0
3210, 0.35520525107261, 0.26106457933949, 0
3211, 0.38452357246175, -0.17075310230109, 0
3212, 0.29246225547717, -0.083116812267774, 0
3213, 0.33616318931086, -0.14663748689627, 0
3214, 0.28008366732192, -0.14145600671267, 0
3215, 0.20769390574715, 0.25528801310687, 0
3216, 0.19862454485865, 0.11885481171447, 0
3217, 0.13618425600726, -0.080268095835227, 0
3218, 0.31142341890329, -0.077730034822012, 0
3219, 0.98314696132565, -0.051945163232011, 0
3220, 0.82877064220781, -0.10418192909142, 0
3221, 0.63524460735863, -0.15676095167476, 0
3222, 0.65329361669155, -0.15287197152086, 0
3223, 0.75004195569531, 0.1225887639273, 0
3224, 0.27293754990781, 0.10622889720653, 0
3225, 0.38216008004827, 0.23265338072295, 0
3226, 0.95200194035775, 0.24882885776208, 0
3227, 0.77213185453886, -0.0045842373072187, 0
3228, 0.9083022219677, -0.2793774157841, 0
3229, 0.69796660476626, 0.24873851236562, 0
3230, 0.40095673012937, -0.18769476872172, 0
3231, 0.34925618739209, 0.25193925047911, 0
3232, 0.60050917196933, -0.15453963552303, 0
3233, 0.5703214144782, -0.17232917098908, 0
3234, 0.73529032642406, 0.10775677896247, 0
3235, 0.68970734316357, -0.14616123301962, 0
3236, 0.69736073403361, -0.14911667280454, 0
3237, 0.32939895087545, -0.13640681906636, 0
3238, 0.34235108227954, 0.2264670561873, 0
3239, 0.29645007166377, 0.20335876890615, 0
3240, 0.3045545931367, 0.23586322598267, 0
3241, 0.34013855627464, -0.07698029351176, 0
3242, 0.71937218344162, 0.055205749840849, 0
3243, 0.71962986191386, 0.018624639116371, 0
3244, 0.75201427793096, -0.0036955068763835, 0
3245, 0.86675537169927, 0.21106536899421, 0
3246, 0.85427933545357, 0.062712349689787, 0
3247, 0.77302146664712, 0.094264579464135, 0
3248, 0.30855540735483, -0.064776331110086, 0
3249, 0.54835841566498, 0.25133585209764, 0
3250, 0.45704882437649, 0.28827732809295, 0
3251, 0.48445097378008, 0.27862253886208, 0
3252, 0.47987035851523, 0.27798572010737, 0
3253, 0.71045276037211, -0.21447395404087, 0
3254, 0.3654411081753, 0.27901370567837, 0
3255, 0.38584091717552, 0.23368051199238, 0
3256, 0.32184108828267, 0.2164765682519, 0
3257, 0.31241447729077, 0.20666485242874, 0
3258, 0.27201104460376, 0.1980244053407, 0
3259, 0.26954403227712, -0.050359777263144, 0
3260, 0.78561504661985, 0.01997814736338, 0
3261, 0.88537202848666, -0.073954702242529, 0
3262, 0.75533227540974, 0.013658832979779, 0
3263, 0.89327214679416, -0.24062933642323, 0
3264, 0.31127402010154, -0.037392637136448, 0
3265, 0.51434959840314, 0.29205794565703, 0
3266, 0.75851476373773, -0.019473736808443, 0
3267, 0.76194135223298, -0.031838191381883, 0
3268, 0.76357678069893, -0.13779773808078, 0
3269, 0.73844629626727, -0.098338253306632, 0
3270, 0.261987291079, -0.0028726937858233, 0
3271, 0.28672133433369, 0.028416602010215, 0
3272, 0.64342347549387, -0.18538124118509, 0
3273, 0.84485818214633, -0.13822674696761, 0
3274, 0.34216467194925, 0.21912110854438, 0
3275, 0.75824363473686, -0.14354725675129, 0
3276, 0.75133677340046, -0.14830016144038, 0
3277, 0.77459460237535, -0.10143918104648, 0
3278, 0.78107431128274, -0.072839875924289, 0
3279, 0.80277190387043, -0.081937138342138, 0
3280, 0.59831889283624, -0.15047991876024, 0
3281, 0.60436370727076, 0.25702349092105, 0
3282, 0.60512002240754, 0.24561577773512, 0
3283, 0.57182464097932, 0.26875313658674, 0
3284, 0.63169843197961, 0.25837941816128, 0
3285, 0.86609673570221, -0.26216838769556, 0
3286, 0.86088975565906, -0.28110817063139, 0
3287, 0.83160586946598, 0.14347713580802, 0
3288, 0.20270936388824, 0.20919021744476, 0
3289, 0.75727238542929, 0.008718175748205, 0
3290, 0.20534325305899, 0.2398971948428, 0
3291, 0.20285185144018, 0.040983409269104, 0
3292, 0.16772700854903, -0.00019166115372354, 0
3293, 0.33815124001877, 0.21770295649323, 0
3294, 0.803273722052, -0.074060217612966, 0
3295, 0.76328893845701, 0.064925637408496, 0
3296, 0.72154871037195, 0.065073227641126, 0
3297, 0.88445066824311, -0.090307825928858, 0
3298, 0.69625486995552, 0.24360107520072, 0
3299, 0.69313681306673, 0.28468601468609, 0
3300, 0.62024718731474, 0.27625391655063, 0
3301, 0.51277656892268, -0.20729987299275, 0
3302, 0.26633950726355, 0.22062030652477, 0
3303, 0.32434603527478, 0.22510690093416, 0
3304, 0.11179120969309, -0.1378115227306, 0
3305, 0.11304046926753, -0.16553605579414, 0
3306, 0.58926934723816, 0.28048662855668, 0
3307, 0.35999404728782, -0.19152150478777, 0
3308, 0.38867108843549, -0.14818643289741, 0
3309, 0.75587037784287, -0.13314432646871, 0
3310, 0.67619241218877, -0.13958607704034, 0
3311, 0.57413766631379, -0.1652361114238, 0
3312, 0.67040668254322, -0.136502051649, 0
3313, 0.47340525816008, -0.21940451816544, 0
3314, 0.86540701252493, -0.12736304661406, 0
3315, 0.36799141997546, -0.20971839931128, 0
3316, 0.40319723532875, -0.2022612587585, 0
3317, 0.24524795657254, 0.21068582803376, 0
3318, 0.24748804964941, 0.19895957402727, 0
3319, 0.23647047815705, 0.20238710610495, 0
3320, 0.60810044906833, 0.24389328937588, 0
3321, 0.16791425739266, 0.10184302929718, 0
3322, 0.48633744091052, -0.19504000305962, 0
3323, 0.1176504094745, 0.2589755355087, 0
3324, 0.2003477394656, 0.13295593866306, 0
3325, 0.11065434281425, 0.21438126119109, 0
3326, 0.48334840417426, 0.29240543430684, 0
3327, 0.36310881292754, -0.2007730680676, 0
3328, 0.31466624475187, -0.17975237674328, 0
3329, 0.36915690599145, -0.13959522884864, 0
3330, 0.91149731845235, -0.14349047271986, 0
3331, 0.88444919747133, 0.031160470386803, 0
3332, 0.30616766290044, 0.2536731104013, 0
3333, 0.77927618389566, -0.098050259272179, 0
3334, 0.79725306943415, -0.096361117905543, 0
3335, 0.24626616646341, 0.060923380871886, 0
3336, 0.76234924789838, -0.016785521789989, 0
3337, 0.8114339619162, -0.28124443449088, 0
3338, 0.11138443864033, -0.10983706899952, 0
3339, 0.27065671430326, 0.090879744834625, 0
3340, 0.12812240816925, 0.14822816639318, 0
3341, 0.29176473970663, 0.071731786977837, 0
3342, 0.31692484583953, 0.21917784509057, 0
3343, 0.38013461213553, 0.26689975718079, 0
3344, 0.37520894314026, 0.27774592426059, 0
3345, 0.37030943538256, 0.22884003466113, 0
3346, 0.86804420686318, 0.19092338020719, 0
3347, 0.20387902709091, 0.22446804806815, 0
3348, 0.13382199819579, 0.21995531705451, 0
3349, 0.27937644795173, 0.031372970218071, 0
3350, 0.76272095184383, 0.076012408880502, 0
3351, 0.32648208799535, -0.082890909277442, 0
3352, 0.49234367573824, -0.2044025547783, 0
3353, 0.96429279134877, -0.10428699865527, 0
3354, 0.2560950779636, 0.19480350631034, 0
3355, 0.88144434006029, -0.040009012837612, 0
3356, 0.82929640460694, -0.072237309413918, 0
3357, 0.32591018466233, -0.14499826608169, 0
3358, 0.56938284971647, 0.24721356805407, 0
3359, 0.7404987385768, 0.13281835869237, 0
3360, 0.51761773483929, -0.20178235799359, 0
3361, 0.70819300753605, 0.054871402659883, 0
3362, 0.28325830948575, 0.037323742486276, 0
3363, 0.7250969317092, 0.063177041352989, 0
3364, 0.42124673185873, -0.24031738569204, 0
3365, 0.53694576219903, 0.26929532845893, 0
3366, 0.56008778130678, 0.23355635046956, 0
3367, 0.30332348679412, 0.21817462109602, 0
3368, 0.34837813348753, -0.2364416757472, 0
3369, 0.63498365968012, -0.20569329126241, 0
3370, 0.30340145113547, -0.076911110649824, 0
3371, 0.54235174930574, -0.145962872429, 0
3372, 0.29718385605454, -0.17389215656199, 0
3373, 0.68258130946378, -0.14281989351355, 0
3374, 0.30543399406162, 0.054873406347812, 0
3375, 0.37094847006127, -0.15960984202982, 0
3376, 0.66401925483526, -0.12330006102934, 0
3377, 0.73120038667242, 0.0060707890799366, 0
3378, 0.6790287491734, 0.29260948463358, 0
3379, 0.75054489945822, -0.13749790037119, 0
3380, 0.78363707024615, -0.093910018162414, 0
3381, 0.84996478748014, 0.1128059741516, 0
3382, 0.37100323108996, -0.18840609546235, 0
3383, 0.84351381520999, -0.075601558050306, 0
3384, 0.75927881283329, 0.086426160747912, 0
3385, 0.68194424603437, -0.1835071289583, 0
3386, 0.52347810671488, -0.19081734433791, 0
3387, 0.74206159590631, -0.010248622412902, 0
3388, 0.67329987436017, 0.28537184273863, 0
3389, 0.1976832561744, 0.14240593573015, 0
3390, 0.75617409096032, 0.069149250946263, 0
3391, 0.40463903458791, -0.1919845582384, 0
3392, 0.81309163170027, 0.17734284636949, 0
3393, 0.70919313323224, -0.23271986035657, 0
3394, 0.30115973873187, 0.22986366830787, 0
3395, 0.92961978662358, -0.0046765217991031, 0
3396, 0.62196259745648, 0.26182803145533, 0
3397, 0.51722428878554, 0.26820461545671, 0
3398, 0.34535943870482, 0.24292440040781, 0
3399, 0.51214565862449, -0.23119410239099, 0
3400, 0.61851590545968, 0.24902996184418, 0
3401, 0.57905814906372, 0.28085505288335, 0
3402, 0.36879970959483, 0.24690082782845, 0
3403, 0.33069082295897, 0.25591459729818, 0
3404, 0.67231154229292, 0.26305460498522, 0
3405, 0.79181796479245, -0.1016872704526, 0
3406, 0.35873131012029, 0.23881481284592, 0
3407, 0.32256860730824, -0.12130805448227, 0
3408, 0.52868724299553, -0.17794939802362, 0
3409, 0.41796085736952, -0.20294202676925, 0
3410, 0.65255257301697, -0.14293597270583, 0
3411, 0.92850155028924, 0.19891292244919, 0
3412, 0.6586970251524, -0.19216853680261, 0
3413, 0.72839827972036, 0.14919515383014, 0
3414, 0.74260422270204, 0.26532825269722, 0
3415, 0.84749956516158, -0.16401750205454, 0
3416, 0.24633518549888, 0.24816389297321, 0
3417, 0.73060853433532, 0.21725438260399, 0
3418, 0.72555070593777, 0.25169723325869, 0
3419, 0.60051556566692, 0.29225368309978, 0
3420, 0.32265448728409, -0.063137865964092, 0
3421, 0.42507162303723, 0.26372996247067, 0
3422, 0.55798601305182, 0.22595057945776, 0
3423, 0.36232757954325, -0.24607544692148, 0
3424, 0.19254613140065, 0.11131195840257, 0
3425, 0.69751634943146, 0.044900296462704, 0
3426, 0.158008474933, -0.10875596037551, 0
3427, 0.45475945615096, -0.21005870285148, 0
3428, 0.49382843538331, 0.27866247793769, 0
3429, 0.69141082958894, 0.25601172339141, 0
3430, 0.42179379206673, 0.25653863065394, 0
3431, 0.53298467580935, -0.15318474927606, 0
3432, 0.11847855041623, 0.11017657788429, 0
3433, 0.29997364650747, 0.24602234435866, 0
3434, 0.41557742358633, 0.28253460631941, 0
3435, 0.7127622238234, -0.11356827334079, 0
3436, 0.3694255546466, 0.23466893166311, 0
3437, 0.88283708621228, -0.12856097630693, 0
3438, 0.88084521554375, 0.048945896219656, 0
3439, 0.74126839088742, 0.05895482669467, 0
3440, 0.8318497291276, 0.17645731380733, 0
3441, 0.43175922681133, -0.24115993520061, 0
3442, 0.220710327808, -0.11564319148566, 0
3443, 0.71291685767797, 0.18342790473991, 0
3444, 0.83194106747972, -0.13931933645325, 0
3445, 0.35652526058608, -0.13823208814143, 0
3446, 0.71066576385064, 0.14569236646836, 0
3447, 0.5500293348082, 0.24413226124027, 0
3448, 0.75882867151874, -0.27965644382648, 0
3449, 0.35883731370558, -0.18220064166854, 0
3450, 0.44981307895156, 0.2611396719617, 0
3451, 0.29503959386486, -0.075434226884114, 0
3452, 0.32074053439422, 0.27546090573529, 0
3453, 0.38367543729433, -0.16540822466294, 0
3454, 0.80200419546627, -0.16244649101827, 0
3455, 0.78136200856647, -0.16866457149122, 0
3456, 0.76631225221752, -0.013539996642725, 0
3457, 0.28248044700046, 0.077488687962645, 0
3458, 0.29131101902223, -0.13406986783808, 0
3459, 0.2961013440673, 0.076386184739066, 0
3460, 0.66416073250446, 0.28558155974077, 0
3461, 0.76493219741181, 0.013825923277416, 0
3462, 0.39168563247829, -0.20374382578329, 0
3463, 0.68995581291835, 0.18375100035253, 0
3464, 0.23542486192161, -0.048768329336615, 0
3465, 0.26196793362894, 0.23920466950258, 0
3466, 0.76134287124778, -0.10149323787101, 0
3467, 0.22792344884795, 0.12094987495248, 0
3468, 0.75489855678339, 0.10975802346086, 0
3469, 0.39467358097364, 0.24627299647341, 0
3470, 0.71052063196249, 0.066617196131309, 0
3471, 0.51983317165618, -0.16374212476462, 0
3472, 0.69689780019123, -0.14074049814088, 0
3473, 0.7264282753923, 0.14299486632618, 0
3474, 0.5796567140006, 0.26421734027333, 0
3475, 0.72403300025776, 0.19360088221464, 0
3476, 0.84060449454466, -0.1178015559653, 0
3477, 0.14787550080076, 0.039950582326545, 0
3478, 0.31161769934392, -0.21069444045378, 0
3479, 0.33300756294694, -0.068968426273747, 0
3480, 0.65202894308078, -0.18004908251393, 0
3481, 0.30146915932957, -0.12723526451366, 0
3482, 0.53656418963092, -0.15435000619761, 0
3483, 0.76931727160287, -0.16211915046393, 0
3484, 0.56218100573499, 0.24987461624729, 0
3485, 0.37384272259882, 0.23563201414783, 0
3486, 0.14554878059806, 0.10397060553182, 0
3487, 0.46052854221506, -0.20203830501035, 0
3488, 0.61897485133101, -0.15503620833799, 0
3489, 0.41429349096122, -0.20971091584184, 0
3490, 0.73076710653953, 0.07143325744846, 0
3491, 0.713706805715, 0.047107581736903, 0
3492, 0.7420764105688, -0.096236166769542, 0
3493, 0.76433074916183, -0.11316839680202, 0
3494, 0.76897874069353, -0.11226552460501, 0
3495, 0.77432326348298, -0.11085316472205, 0
3496, 0.78014108539408, -0.10875915127825, 0
3497, 0.76069586610347, -0.11355665822542, 0
3498, 0.71709123335728, 0.075919716791938, 0
3499, 0.71465989291689, 0.056575438497313, 0
3500, 0.75478234558917, 0.059000228954398, 0
3501, 0.7260146841637, 0.080517530920776, 0
3502, 0.74024470873529, 0.044980873771875, 0
3503, 0.75655037971079, -0.024455312157101, 0
3504, 0.769601008468, -0.0094488632461147, 0
3505, 0.76113515256876, -0.010654718405353, 0
3506, 0.72560719362182, 0.012446709837324, 0
3507, 0.17746105045201, 0.13321648200954, 0
3508, 0.18189594558518, 0.23301950261485, 0
3509, 0.81587877227851, -0.16434770563275, 0
3510, 0.81125416807027, -0.17759887775818, 0
3511, 0.80356421449447, -0.19107516031347, 0
3512, 0.79150701170753, -0.20476247431374, 0
3513, 0.8050795016261, -0.12597291110826, 0
3514, 0.79435771189774, -0.12627619292275, 0
3515, 0.74143805981421, -0.18805932785341, 0
3516, 0.75165144161776, -0.20210087716879, 0
3517, 0.8684541777211, -0.054221684608239, 0
3518, 0.978275255797, -0.24929699659376, 0
3519, 0.81680660571552, -0.12579671330306, 0
3520, 0.76979713068905, -0.21784978295448, 0
3521, 0.70632817307886, 0.19468521756073, 0
3522, 0.82110480382987, 0.2332463374188, 0
3523, 0.30559580748801, 0.20949746661917, 0
3524, 0.16236604195492, 0.14306688090169, 0
3525, 0.10073255419957, 0.089476665622972, 0
3526, 0.60624040093993, -0.15105272184849, 0
3527, 0.69649006137961, -0.17950473451091, 0
3528, 0.67664672731414, -0.24344382397997, 0
3529, 0.94683483100784, -0.10037279718608, 0
3530, 0.98046939832568, -0.13583209377394, 0
3531, 0.95997396394151, -0.13795185630157, 0
3532, 0.88008110706678, -0.18661179638541, 0
3533, 0.89889546620941, -0.17870466097751, 0
3534, 0.91755449154086, -0.16566282825629, 0
3535, 0.85813976980113, -0.20875079999823, 0
3536, 0.85354795949013, -0.22649113474598, 0
3537, 0.84809546909978, -0.24456256136464, 0
3538, 0.8423311832314, -0.26290534902749, 0
3539, 0.83655232090633, -0.28144046676875, 0
3540, 0.93149799321305, -0.27804867340407, 0
3541, 0.93435689734806, -0.25563978544495, 0
3542, 0.93677633613856, -0.23250516364326, 0
3543, 0.93846848697887, -0.20805571255883, 0
3544, 0.93878728159808, -0.1803194926739, 0
3545, 0.84759338992047, -0.11808750770386, 0
3546, 0.85701328219998, -0.079215464130407, 0
3547, 0.86169211788636, -0.19169244623957, 0
3548, 0.93752163938051, -0.14110668071272, 0
3549, 0.493530447238, -0.19032590634689, 0
3550, 0.47110932928873, -0.21290015558041, 0
3551, 0.46194631207242, -0.20739535395733, 0
3552, 0.51365216215598, -0.24358902346043, 0
3553, 0.46376619971323, -0.22204539065969, 0
3554, 0.44031149877126, -0.19993699410335, 0
3555, 0.90213745347331, 0.052350629303711, 0
3556, 0.92471265031895, 0.036576917415412, 0
3557, 0.96208205411742, 0.045006351986583, 0
3558, 0.96020218538561, 0.068952884675933, 0
3559, 0.95741385124247, 0.093802891852075, 0
3560, 0.95316103377914, 0.12086578126742, 0
3561, 0.87491340539402, 0.14421735742237, 0
3562, 0.88604318334148, 0.18723980230127, 0
3563, 0.89035976012538, 0.10690590821988, 0
3564, 0.94575970046817, 0.15569055122196, 0
3565, 0.20003268340363, 0.05410575378168, 0
3566, 0.25788033193361, 0.04660395240773, 0
3567, 0.29940797227769, 0.07609382553506, 0
3568, 0.24861700394015, -0.0033632293695504, 0
3569, 0.29770943181322, 0.046716996398732, 0
3570, 0.30135687613025, 0.08188713050528, 0
3571, 0.72669632197347, 0.13363973601953, 0
3572, 0.69071667002338, 0.165978801743, 0
3573, 0.76894039024127, 0.22108013296686, 0
3574, 0.70085035809804, 0.2326447150614, 0
3575, 0.89910315311257, -0.042375957003873, 0
3576, 0.81170970023515, -0.031797495465723, 0
3577, 0.80057139100338, 0.23184960826193, 0
3578, 0.69126889967015, 0.2417513058508, 0
3579, 0.68298573477581, 0.28511462561419, 0
3580, 0.72222661749569, 0.16849480473074, 0
3581, 0.78452041625635, 0.25665336574061, 0
3582, 0.69526066765031, -0.12551565091043, 0
3583, 0.67238683753951, -0.12541753074061, 0
3584, 0.5876421498633, 0.29331918057568, 0
3585, 0.58861627262861, 0.27480071570693, 0
3586, 0.62026167654722, 0.28442725966255, 0
3587, 0.57540079404087, 0.24434558058064, 0
3588, 0.59525379764194, 0.25113978582973, 0
3589, 0.59352698066126, 0.24419878720309, 0
3590, 0.6584694496346, 0.25829620391032, 0
3591, 0.6649154754064, 0.25685027107248, 0
3592, 0.6510254473571, 0.29284107307244, 0
3593, 0.64219221877324, 0.29278049786462, 0
3594, 0.63863514340265, 0.26526464997791, 0
3595, 0.63313143720335, 0.29262180309161, 0
3596, 0.61130774665372, 0.24569366462944, 0
3597, 0.61125355793572, 0.26338773154087, 0
3598, 0.63672923781304, 0.25911746819071, 0
3599, 0.60636035281987, 0.28351805735496, 0
3600, 0.73451606498907, 0.1399318307634, 0
3601, 0.71841271476604, 0.17626478151355, 0
3602, 0.31301027809905, -0.071944544557887, 0
3603, 0.30091993336168, -0.098828962454497, 0
3604, 0.62194831571699, -0.18980721758585, 0
3605, 0.56940366277639, -0.21229419781425, 0
3606, 0.25392629507002, -0.10108926277821, 0
3607, 0.23936031205857, -0.098401064035326, 0
3608, 0.22428501262572, -0.093249389419829, 0
3609, 0.20819369556206, -0.084947713095288, 0
3610, 0.18144844889036, -0.10889966319607, 0
3611, 0.29960589324934, -0.017217194931281, 0
3612, 0.29382963212085, -0.018040063164782, 0
3613, 0.28735543593136, -0.018674046623356, 0
3614, 0.27943403621598, -0.019469947928738, 0
3615, 0.26984853049286, -0.020925849675437, 0
3616, 0.25864209229792, -0.023614220161555, 0
3617, 0.24611566923336, -0.028024991110143, 0
3618, 0.23092184460635, -0.035032078861703, 0
3619, 0.21371162317724, -0.046903975092016, 0
3620, 0.30348774946796, -0.012282965384932, 0
3621, 0.18860172499424, -0.039879752554481, 0
3622, 0.33429996923338, -0.05201078133385, 0
3623, 0.33572269478944, -0.090910372760049, 0
3624, 0.30473903848743, -0.016029136020736, 0
3625, 0.19039499692535, -0.071847572909924, 0
3626, 0.58612307292323, -0.2247972851955, 0
3627, 0.60116747718148, -0.21935693542286, 0
3628, 0.59194361935639, -0.15114692921442, 0
3629, 0.62383918818916, -0.15383364579637, 0
3630, 0.57541510415963, -0.15398720444747, 0
3631, 0.6174439421835, -0.20900329121573, 0
******* E L E M E N T S *************
*ELEMENT, type=CPS4, ELSET=Surface1
1, 595, 1550, 1551, 1548
2, 1548, 1551, 1549, 596
3, 1551, 144, 155, 1549
4, 1550, 154, 144, 1551
5, 1516, 561, 172, 3387
6, 2356, 1552, 2354, 1190
7, 1746, 645, 1602, 639
8, 3052, 3437, 1562, 1067
9, 3229, 1301, 2195, 3298
10, 2234, 327, 405, 3192
11, 3585, 2209, 2211, 2094
12, 2201, 2992, 2412, 3597
13, 3461, 3262, 3289, 2651
14, 3153, 3444, 1439, 1376
15, 3547, 1726, 3190, 1560
16, 1841, 2785, 74, 87
17, 2539, 1040, 2229, 3563
18, 3267, 638, 1828, 1655
19, 1555, 3021, 648, 3517
20, 2306, 1126, 1128, 2164
21, 1567, 1570, 1568, 1149
22, 1570, 216, 516, 1568
23, 3431, 1528, 1356, 2162
24, 156, 146, 1574, 1571
25, 1571, 1574, 1572, 597
26, 1574, 1573, 601, 1572
27, 146, 157, 1573, 1574
28, 1177, 3143, 1899, 1990
29, 1525, 1172, 1162, 2954
30, 3013, 3251, 2132, 703
31, 3014, 117, 108, 1894
32, 705, 1260, 1693, 1822
33, 710, 1822, 422, 311
34, 2739, 3569, 772, 750
35, 1396, 2502, 3622, 2618
36, 1584, 264, 468, 1582
37, 1583, 469, 264, 1584
38, 600, 1587, 1588, 1585
39, 1585, 1588, 1586, 599
40, 1588, 148, 159, 1586
41, 1587, 158, 148, 1588
42, 2675, 2546, 3023, 1851
43, 1406, 831, 842, 1407
44, 1745, 834, 3375, 844
45, 2291, 1684, 239, 493
46, 2307, 2016, 3303, 2804
47, 1432, 1646, 2307, 1269
48, 3004, 2337, 2236, 3403
49, 1901, 2398, 1779, 3086
50, 139, 128, 1600, 1597
51, 1597, 1600, 1598, 583
52, 1600, 1599, 584, 1598
53, 128, 140, 1599, 1600
54, 1626, 1188, 3510, 3511
55, 3548, 3544, 646, 3531
56, 3415, 1637, 3153, 3171
57, 1635, 2831, 1197, 3055
58, 3184, 1054, 1807, 2457
59, 1111, 1194, 1112, 1055
60, 1629, 2379, 2135, 1370
61, 2677, 2597, 2380, 1955
62, 1128, 1610, 1609, 1942
63, 3482, 1357, 1528, 3431
64, 2163, 1122, 3360, 2998
65, 3155, 212, 520, 1125
66, 3224, 458, 275, 1764
67, 757, 3163, 2219, 777
68, 2843, 1766, 3059, 2493
69, 2712, 3227, 3504, 1919
70, 1103, 1024, 1026, 2924
71, 1044, 2578, 1001, 1622
72, 1906, 1919, 2578, 1044
73, 601, 1573, 1617, 1616
74, 1616, 1617, 1587, 600
75, 1617, 147, 158, 1587
76, 1573, 157, 147, 1617
77, 3042, 1004, 1390, 2564
78, 1786, 1310, 2899, 980
79, 1464, 388, 345, 2523
80, 2386, 2569, 3185, 1673
81, 565, 3243, 2480, 167
82, 638, 3503, 2405, 1828
83, 1714, 1673, 1614, 1027
84, 3513, 3519, 1070, 1318
85, 1064, 651, 3512, 3520
86, 3330, 1198, 3052, 1048
87, 1061, 1843, 1845, 3448
88, 2377, 2822, 2824, 2823
89, 1118, 193, 539, 1865
90, 2596, 3472, 2377, 1606
91, 33, 1633, 1634, 28
92, 28, 1634, 1631, 32
93, 1253, 2685, 3427, 810
94, 1342, 2935, 813, 2630
95, 3055, 1197, 3356, 3383
96, 1077, 1459, 1092, 2833
97, 1553, 1636, 3476, 3545
98, 1047, 2833, 3244, 1458
99, 3452, 684, 1939, 1954
100, 589, 1797, 3402, 3208
101, 3209, 1815, 714, 3436
102, 2017, 726, 1523, 3293
103, 2050, 992, 2340, 3490
104, 2053, 1488, 2867, 2778
105, 3363, 2644, 3296, 2858
106, 1031, 2238, 2514, 3081
107, 1365, 3257, 693, 2590
108, 3240, 3394, 727, 2517
109, 1970, 2017, 3293, 3274
110, 959, 580, 960, 2266
111, 1697, 3400, 334, 398
112, 3584, 86, 6, 2200
113, 1651, 934, 3358, 2020
114, 3266, 1623, 1654, 1245
115, 1920, 1099, 2427, 2679
116, 3172, 1098, 3227, 2712
117, 1654, 1784, 2442, 2561
118, 155, 145, 1658, 1549
119, 1549, 1658, 1657, 596
120, 1658, 1571, 597, 1657
121, 145, 156, 1571, 1658
122, 2996, 2995, 701, 2043
123, 3485, 712, 697, 688
124, 3557, 639, 1602, 1565
125, 637, 1038, 1042, 1203
126, 1853, 2257, 2952, 2295
127, 2441, 1025, 3576, 1094
128, 1247, 2906, 951, 2069
129, 3006, 2267, 397, 336
130, 3320, 1650, 332, 400
131, 580, 618, 1537, 960
132, 21, 13, 1671, 1668
133, 1668, 1671, 1669, 575
134, 1671, 1670, 576, 1669
135, 13, 22, 1670, 1671
136, 3576, 1078, 1401, 2844
137, 1446, 1827, 2799, 1220
138, 1420, 3461, 2651, 1934
139, 168, 3188, 3243, 565
140, 725, 691, 2605, 2508
141, 1521, 3317, 655, 3085
142, 2606, 3238, 1778, 1252
143, 871, 3195, 2404, 1734
144, 1679, 1678, 868, 1677
145, 240, 492, 1678, 1679
146, 573, 1681, 1682, 1680
147, 1680, 1682, 1668, 575
148, 1682, 12, 21, 1668
149, 1681, 20, 12, 1682
150, 3453, 2292, 2316, 2760
151, 1589, 3068, 2690, 3445
152, 834, 2759, 2315, 843
153, 1851, 3023, 3372, 3328
154, 1799, 3443, 919, 3601
155, 3042, 2564, 2790, 1006
156, 3475, 2076, 2902, 2572
157, 985, 1309, 3475, 2498
158, 2559, 1266, 2608, 1690
159, 572, 2723, 3158, 1426
160, 1796, 1368, 2099, 3076
161, 3250, 1425, 106, 116
162, 1323, 2133, 711, 1260
163, 3604, 1483, 1297, 1712
164, 1483, 1200, 3129, 1129
165, 1883, 2654, 3310, 3312
166, 951, 2095, 2252, 2409
167, 2200, 6, 99, 1282
168, 3587, 1698, 2761, 1246
169, 1281, 2200, 1282, 940
170, 159, 149, 1703, 1586
171, 1586, 1703, 1701, 599
172, 1703, 1702, 598, 1701
173, 149, 160, 1702, 1703
174, 2787, 1706, 768, 755
175, 2492, 2612, 460, 273
176, 754, 464, 269, 1611
177, 2939, 1763, 2544, 1765
178, 1724, 1066, 2264, 2801
179, 3531, 3530, 2486, 3353
180, 1561, 3476, 2325, 1209
181, 1048, 3052, 1067, 1207
182, 1162, 2641, 527, 206
183, 1141, 1712, 1175, 2930
184, 3480, 2859, 1131, 2637
185, 1035, 2258, 1653, 1457
186, 2569, 1022, 1104, 3185
187, 2800, 3387, 2987, 2579
188, 140, 129, 1716, 1599
189, 1599, 1716, 1715, 584
190, 1716, 141, 152, 1715
191, 129, 8, 141, 1716
192, 3367, 1969, 587, 1648
193, 2236, 2518, 3398, 1434
194, 1307, 3342, 3256, 654
195, 2763, 2991, 3400, 1697
196, 2906, 3050, 2095, 951
197, 2411, 1699, 395, 338
198, 2208, 958, 1651, 1790
199, 2039, 1540, 1368, 1796
200, 718, 688, 1540, 2039
201, 3345, 435, 298, 712
202, 1506, 2712, 1919, 1906
203, 3150, 1304, 1049, 3046
204, 1443, 2352, 65, 55
205, 1096, 1382, 2735, 2713
206, 2930, 1175, 1545, 1988
207, 1485, 203, 529, 3280
208, 3412, 1290, 2859, 3480
209, 2466, 2637, 1984, 1142
210, 994, 2777, 1386, 2284
211, 2721, 3187, 3363, 1229
212, 2720, 2722, 1514, 628
213, 1407, 842, 1287, 3329
214, 3453, 3211, 1512, 2292
215, 805, 1436, 2436, 2691
216, 3289, 1457, 1077, 1080
217, 1040, 918, 917, 2229
218, 2785, 63, 5, 74
219, 3245, 1662, 2951, 3346
220, 868, 1678, 1740, 1738
221, 1738, 1740, 1739, 869
222, 1740, 241, 491, 1739
223, 1678, 492, 241, 1740
224, 1745, 1683, 2759, 834
225, 2674, 1742, 2646, 847
226, 1328, 3423, 2196, 605
227, 2403, 497, 236, 1438
228, 1287, 805, 2691, 1437
229, 2619, 3197, 1684, 2291
230, 825, 2760, 1592, 1735
231, 3520, 3516, 2878, 2874
232, 2246, 3518, 64, 54
233, 1440, 3054, 651, 1064
234, 2986, 1507, 1402, 1191
235, 3383, 3356, 1554, 1304
236, 2834, 1095, 2579, 1784
237, 650, 2845, 1051, 1068
238, 2995, 2362, 2607, 701
239, 594, 2977, 2976, 1380
240, 690, 3078, 130, 119
241, 1947, 307, 425, 2723
242, 3233, 2588, 1140, 2861
243, 2652, 1174, 525, 208
244, 1181, 1137, 2941, 2724
245, 1952, 444, 289, 1468
246, 3004, 721, 1432, 2337
247, 2337, 1432, 1269, 2434
248, 2659, 907, 889, 3464
249, 3612, 1951, 1949, 3611
250, 1286, 484, 249, 2842
251, 3618, 3464, 1338, 3617
252, 2404, 866, 3449, 1683
253, 3068, 2619, 1677, 2690
254, 1204, 1589, 3445, 2435
255, 1996, 752, 762, 2794
256, 766, 1858, 1870, 1903
257, 729, 1810, 271, 461
258, 1704, 743, 741, 1810
259, 1153, 1769, 1770, 1767
260, 1767, 1770, 1768, 861
261, 1770, 219, 513, 1768
262, 1769, 514, 219, 1770
263, 1460, 2814, 854, 3462
264, 851, 3101, 2753, 2751
265, 1774, 231, 501, 1772
266, 1773, 502, 231, 1774
267, 1149, 1568, 1777, 1775
268, 1775, 1777, 1776, 1151
269, 1777, 217, 515, 1776
270, 1568, 516, 217, 1777
271, 3465, 1241, 2432, 1522
272, 3416, 586, 678, 1241
273, 2591, 1674, 295, 437
274, 22, 14, 1782, 1670
275, 1670, 1782, 1780, 576
276, 1782, 1781, 577, 1780
277, 14, 23, 1781, 1782
278, 2563, 3267, 1655, 2611
279, 2562, 1918, 2333, 1445
280, 1653, 3377, 1091, 1459
281, 1400, 621, 1464, 1498
282, 2319, 2520, 979, 1787
283, 2400, 3042, 1006, 1015
284, 3591, 3590, 2880, 2993
285, 618, 402, 331, 1537
286, 1303, 3414, 1312, 2696
287, 947, 1794, 1795, 1792
288, 1792, 1795, 1793, 967
289, 1795, 320, 412, 1793
290, 1794, 413, 320, 1795
291, 2044, 1659, 1265, 717
292, 1660, 594, 1380, 2361
293, 2364, 3210, 702, 1752
294, 1502, 2850, 1411, 1009
295, 2299, 3136, 1463, 1800
296, 1620, 933, 2500, 2194
297, 457, 276, 1804, 1802
298, 2417, 2447, 2448, 2460
299, 276, 456, 1803, 1804
300, 3443, 2811, 1398, 983
301, 2813, 3600, 1392, 2595
302, 627, 3446, 1235, 2594
303, 3473, 2733, 1409, 1889
304, 1809, 1058, 3497, 3493
305, 3019, 1377, 1193, 2505
306, 2603, 1106, 2381, 2453
307, 1534, 2771, 1058, 1809
308, 1611, 269, 463, 1449
309, 730, 2787, 1996, 769
310, 582, 1812, 1813, 1811
311, 1811, 1813, 1550, 595
312, 1813, 143, 154, 1550
313, 1812, 153, 143, 1813
314, 2609, 131, 120, 708
315, 3093, 1796, 3076, 700
316, 1723, 2364, 1752, 1797
317, 1826, 867, 864, 878
318, 2489, 1510, 1825, 1961
319, 1817, 2971, 1404, 3218
320, 501, 232, 1819, 1772
321, 2817, 1460, 3462, 824
322, 232, 500, 1741, 1819
323, 707, 3014, 1332, 1258
324, 2723, 425, 308, 3158
325, 1820, 7, 118, 2509
326, 3351, 1824, 1519, 893
327, 2851, 250, 482, 885
328, 3227, 2711, 2428, 3504
329, 1713, 1420, 1934, 1783
330, 2442, 2987, 560, 173
331, 1420, 1093, 2830, 3461
332, 1151, 1776, 1831, 1830
333, 1830, 1831, 1769, 1153
334, 1831, 218, 514, 1769
335, 1776, 515, 218, 1831
336, 593, 426, 307, 1947
337, 2131, 1258, 2250, 2182
338, 2859, 1578, 3117, 1131
339, 1754, 3221, 1171, 1833
340, 1180, 531, 202, 1168
341, 412, 321, 1837, 1793
342, 1793, 1837, 1835, 967
343, 1837, 1836, 968, 1835
344, 321, 411, 1836, 1837
345, 2618, 3622, 885, 2028
346, 2348, 2581, 3420, 890
347, 876, 1916, 882, 3174
348, 2710, 2028, 251, 481
349, 1664, 1202, 2894, 3246
350, 2230, 73, 63, 2785
351, 2313, 1294, 1662, 3245
352, 2537, 72, 62, 1041
353, 2859, 1290, 1182, 1578
354, 3518, 1305, 53, 64
355, 1067, 1562, 1189, 640
356, 1844, 47, 39, 1845
357, 1224, 1372, 3340, 670
358, 2726, 1926, 1908, 771
359, 1848, 127, 139, 1597
360, 1847, 138, 127, 1848
361, 711, 1426, 3450, 1832
362, 1693, 1832, 423, 310
363, 591, 717, 1265, 3421
364, 3250, 116, 107, 707
365, 843, 3453, 2760, 825
366, 1437, 2691, 1744, 845
367, 2314, 855, 237, 495
368, 843, 2315, 3211, 3453
369, 2295, 2952, 1014, 3561
370, 2229, 917, 1201, 2981
371, 1663, 1037, 1089, 2244
372, 3205, 2313, 3245, 1855
373, 1857, 2382, 1473, 2084
374, 2504, 2534, 2823, 2824
375, 3069, 1111, 1106, 2603
376, 2457, 1807, 1108, 2459
377, 456, 277, 1859, 1803
378, 2768, 766, 1903, 767
379, 1904, 757, 777, 2786
380, 277, 455, 1858, 1859
381, 2868, 1210, 1039, 2670
382, 1017, 913, 3131, 2626
383, 2523, 345, 387, 1005
384, 2572, 2902, 2254, 3521
385, 1119, 1865, 1866, 1863
386, 1863, 1866, 1864, 1120
387, 1866, 194, 538, 1864
388, 1865, 539, 194, 1866
389, 1426, 3158, 590, 3450
390, 1971, 719, 1334, 706
391, 2251, 2717, 1579, 1580
392, 2182, 1323, 1260, 705
393, 2957, 1859, 1858, 766
394, 752, 755, 2705, 2358
395, 1870, 278, 454, 1869
396, 1858, 455, 278, 1870
397, 1814, 2043, 1378, 2406
398, 1641, 296, 436, 1541
399, 689, 2559, 1690, 1691
400, 701, 2607, 3077, 1751
401, 801, 3264, 1510, 2489
402, 1840, 1816, 476, 257
403, 2456, 2841, 1285, 1838
404, 1465, 1817, 3218, 3370
405, 1254, 2189, 2033, 1966
406, 2371, 1393, 2716, 1967
407, 2007, 807, 815, 1968
408, 818, 2889, 2890, 2638
409, 77, 90, 2227, 1038
410, 1663, 3246, 2923, 1037
411, 3564, 2978, 3411, 2784
412, 1852, 1879, 918, 1040
413, 877, 1396, 2618, 2543
414, 784, 2754, 2965, 1960
415, 1531, 3134, 2456, 899
416, 1545, 1575, 1173, 1143
417, 2672, 1180, 1168, 1144
418, 3222, 3117, 2577, 2636
419, 1699, 937, 337, 395
420, 1282, 99, 109, 2268
421, 3071, 3057, 956, 958
422, 940, 1282, 2268, 1558
423, 1618, 1994, 2552, 974
424, 1009, 1992, 2731, 1478
425, 2733, 1496, 3135, 1409
426, 1410, 2400, 1015, 1008
427, 3397, 1893, 1891, 2397
428, 1249, 2154, 2125, 1890
429, 1893, 1892, 941, 1891
430, 318, 414, 1892, 1893
431, 2183, 3421, 592, 2098
432, 1822, 1693, 310, 422
433, 1849, 427, 306, 2130
434, 161, 151, 1897, 1895
435, 1895, 1897, 1896, 574
436, 1897, 10, 19, 1896
437, 151, 1, 10, 1897
438, 537, 196, 1900, 1898
439, 1898, 1900, 1899, 1121
440, 3412, 2919, 2918, 1290
441, 3631, 3627, 2329, 3020
442, 723, 3403, 2342, 2519
443, 1593, 3274, 294, 438
444, 2308, 286, 446, 1470
445, 1705, 1532, 2921, 3566
446, 2359, 2417, 2460, 2419
447, 2461, 742, 1704, 764
448, 2429, 1656, 1829, 2004
449, 1335, 2774, 366, 570
450, 3355, 1555, 3517, 3189
451, 1673, 3185, 1023, 1614
452, 470, 263, 1910, 1908
453, 1881, 2808, 477, 256
454, 263, 469, 1583, 1910
455, 3529, 3353, 1199, 1403
456, 3275, 3379, 3069, 3276
457, 1106, 1111, 1055, 2470
458, 2535, 1056, 188, 544
459, 489, 244, 1917, 1914
460, 1914, 1917, 1915, 875
461, 1917, 1916, 876, 1915
462, 244, 488, 1916, 1917
463, 649, 2828, 1343, 3260
464, 2735, 2368, 3331, 2244
465, 2711, 1047, 1458, 2428
466, 2950, 1615, 1506, 999
467, 869, 1739, 1923, 1921
468, 1921, 1923, 1922, 872
469, 1923, 242, 490, 1922
470, 1739, 491, 242, 1923
471, 776, 1416, 2708, 748
472, 1926, 262, 470, 1908
473, 1925, 471, 262, 1926
474, 3620, 3624, 1816, 1840
475, 2857, 3499, 991, 3361
476, 628, 1514, 2947, 2340
477, 1001, 3336, 3266, 1672
478, 2004, 1829, 2366, 2006
479, 1623, 2834, 1784, 1654
480, 2, 27, 1937, 1935
481, 2620, 3322, 820, 1394
482, 3427, 2113, 2090, 1393
483, 27, 32, 1631, 1937
484, 133, 1939, 1940, 121
485, 1872, 2361, 429, 304
486, 1639, 1723, 1797, 589
487, 3293, 1523, 293, 439
488, 1145, 1217, 3145, 1295
489, 1154, 2163, 2998, 3106
490, 1941, 1529, 2177, 1492
491, 872, 1922, 1944, 1943
492, 1943, 1944, 1914, 875
493, 1944, 243, 489, 1914
494, 1922, 490, 243, 1944
495, 574, 1896, 1946, 1945
496, 1945, 1946, 1681, 573
497, 1946, 11, 20, 1681
498, 1896, 19, 11, 1946
499, 1894, 1820, 2717, 2251
500, 1332, 2251, 1580, 3159
501, 707, 107, 117, 3014
502, 2842, 249, 483, 1387
503, 3264, 3173, 2773, 1510
504, 2349, 1873, 1465, 3212
505, 134, 1953, 1954, 122
506, 122, 1954, 1939, 133
507, 2604, 2108, 2107, 2237
508, 1778, 1674, 2591, 2106
509, 2378, 3235, 3236, 3472
510, 2676, 1956, 3310, 3373
511, 2135, 3179, 1113, 1370
512, 953, 2988, 957, 1720
513, 931, 3591, 2993, 2202
514, 3358, 1255, 2990, 1698
515, 1927, 3212, 3451, 800
516, 3619, 2659, 3464, 3618
517, 3623, 1818, 3182, 3168
518, 3466, 1534, 1809, 3130
519, 1165, 1058, 2771, 2383
520, 2421, 2452, 2382, 1857
521, 1912, 2602, 1109, 2384
522, 3551, 808, 2557, 1875
523, 2737, 1967, 226, 506
524, 2933, 2104, 2105, 1935
525, 2765, 814, 3553, 811
526, 3303, 1307, 654, 726
527, 1756, 2011, 292, 440
528, 2310, 680, 3342, 1307
529, 1308, 1469, 291, 441
530, 1333, 1823, 2184, 1867
531, 1823, 2718, 3252, 2184
532, 706, 1334, 1948, 704
533, 390, 343, 1974, 1972
534, 1972, 1974, 1973, 922
535, 1974, 1798, 981, 1973
536, 343, 389, 1798, 1974
537, 503, 230, 1977, 1975
538, 1986, 2968, 2781, 2014
539, 3409, 3489, 2750, 2968
540, 230, 502, 1773, 1977
541, 2451, 3276, 2471, 1107
542, 3379, 1194, 1111, 3069
543, 3130, 1809, 3493, 3494
544, 3495, 3494, 3019, 1164
545, 581, 1982, 1983, 1980
546, 1980, 1983, 1981, 643
547, 1983, 36, 45, 1981
548, 1982, 3, 36, 1983
549, 1136, 1133, 2467, 2038
550, 2587, 1177, 1990, 1214
551, 3311, 1484, 1710, 2588
552, 2796, 2797, 536, 197
553, 504, 229, 1987, 1985
554, 1850, 832, 858, 1408
555, 229, 503, 1975, 1987
556, 1833, 1176, 1989, 3629
557, 1834, 2640, 2860, 1178
558, 1129, 3129, 1754, 1524
559, 1179, 2855, 2654, 1883
560, 2663, 1619, 2524, 2076
561, 3601, 919, 624, 1887
562, 2185, 347, 385, 3463
563, 1005, 387, 346, 2399
564, 1765, 2544, 3126, 1251
565, 733, 1453, 3163, 757
566, 2079, 268, 464, 754
567, 941, 1892, 1998, 1997
568, 1997, 1998, 1794, 947
569, 1998, 319, 413, 1794
570, 1892, 414, 319, 1998
571, 1838, 1285, 2665, 892
572, 2454, 879, 2350, 2808
573, 2028, 885, 482, 251
574, 3063, 1286, 2842, 1418
575, 23, 15, 2003, 1781
576, 1781, 2003, 2001, 577
577, 2003, 2002, 578, 2001
578, 15, 24, 2002, 2003
579, 1244, 1208, 638, 3267
580, 1441, 2561, 559, 174
581, 2006, 2005, 1082, 2004
582, 177, 555, 2005, 2006
583, 2032, 3399, 1156, 2934
584, 862, 3549, 1340, 1348
585, 2692, 2915, 816, 2621
586, 1350, 2112, 2032, 2369
587, 692, 3240, 2517, 1646
588, 726, 654, 1756, 1523
589, 1646, 2517, 2016, 2307
590, 1596, 2604, 2398, 1901
591, 2639, 2161, 3551, 2113
592, 2915, 810, 2371, 816
593, 228, 504, 1985, 2015
594, 1717, 1365, 2590, 1469
595, 1435, 3085, 679, 681
596, 944, 3428, 418, 315
597, 943, 2126, 3428, 944
598, 3265, 617, 111, 102
599, 2762, 3306, 3585, 945
600, 2948, 2281, 2224, 923
601, 2982, 3229, 3298, 2901
602, 1261, 1718, 1501, 1665
603, 1143, 1173, 1728, 2725
604, 2653, 1883, 3312, 3142
605, 2024, 38, 47, 1844
606, 2023, 46, 38, 2024
607, 1575, 2038, 1130, 1173
608, 1241, 678, 653, 2432
609, 654, 3256, 2011, 1756
610, 3086, 1240, 2339, 3433
611, 3616, 900, 1417, 3615
612, 897, 2963, 3351, 2971
613, 884, 1418, 1758, 1882
614, 1415, 2349, 3212, 1927
615, 472, 261, 2030, 2029
616, 3608, 3442, 2806, 3607
617, 261, 471, 1925, 2030
618, 821, 1966, 2917, 2035
619, 571, 2916, 642, 2715
620, 3313, 804, 3550, 2036
621, 2628, 1968, 2847, 3441
622, 2112, 571, 2715, 3552
623, 3549, 220, 512, 1340
624, 1968, 815, 2764, 2847
625, 819, 2031, 863, 2798
626, 2932, 201, 531, 1180
627, 3631, 3604, 1712, 1141
628, 1547, 1136, 2038, 1575
629, 2607, 1355, 3469, 3077
630, 3076, 2099, 1379, 1266
631, 2406, 3089, 1871, 1659
632, 1266, 1379, 1479, 2608
633, 1134, 1729, 2042, 2040
634, 2998, 3360, 3301, 3165
635, 2179, 3431, 2162, 3154
636, 1729, 524, 209, 2042
637, 2043, 701, 1751, 1378
638, 702, 3231, 2558, 699
639, 2993, 2880, 394, 339
640, 2694, 613, 3460, 3388
641, 1115, 190, 542, 3179
642, 2676, 3373, 3235, 2378
643, 1493, 2378, 3472, 2596
644, 636, 2051, 2052, 2049
645, 2642, 3080, 993, 3501
646, 2777, 3491, 2682, 1386
647, 2051, 372, 361, 2052
648, 992, 2778, 628, 2340
649, 3500, 3295, 3390, 1643
650, 2054, 3498, 1731, 2238
651, 1344, 3491, 2777, 2684
652, 1801, 989, 2522, 3040
653, 2595, 1392, 1477, 3359
654, 2057, 360, 372, 2051
655, 2056, 373, 360, 2057
656, 555, 178, 2060, 2005
657, 2005, 2060, 2058, 1082
658, 2060, 2059, 1083, 2058
659, 178, 554, 2059, 2060
660, 3589, 961, 580, 959
661, 1257, 1665, 2989, 2991
662, 3599, 3419, 3584, 1789
663, 1280, 3596, 333, 399
664, 2647, 2543, 2710, 1466
665, 2455, 2494, 3206, 891
666, 1761, 3063, 1418, 884
667, 2991, 2989, 1280, 3400
668, 2994, 1538, 616, 1959
669, 1700, 3588, 1718, 1261
670, 2253, 955, 3594, 966
671, 643, 1981, 2072, 2071
672, 3528, 1185, 2023, 2024
673, 2072, 37, 46, 2023
674, 1981, 45, 37, 2072
675, 391, 342, 2075, 2073
676, 2073, 2075, 2074, 923
677, 2075, 1972, 922, 2074
678, 342, 390, 1972, 2075
679, 2318, 1620, 2194, 610
680, 987, 2594, 2733, 3473
681, 990, 2732, 2523, 1005
682, 770, 2492, 273, 459
683, 1359, 2727, 1453, 733
684, 1251, 3126, 3094, 3341
685, 3567, 740, 3175, 1447
686, 762, 752, 2358, 1474
687, 2080, 2082, 2081, 759
688, 2082, 279, 453, 2081
689, 1869, 454, 279, 2082
690, 1964, 2601, 2451, 3483
691, 1607, 2535, 544, 189
692, 3003, 3269, 548, 185
693, 1913, 2503, 3492, 3269
694, 1825, 2864, 479, 254
695, 890, 3420, 1405, 1950
696, 2808, 2350, 255, 477
697, 2581, 2887, 1761, 3420
698, 538, 195, 2089, 1864
699, 1864, 2089, 2088, 1120
700, 2089, 1898, 1121, 2088
701, 195, 537, 1898, 2089
702, 2798, 1350, 2369, 2736
703, 810, 3427, 1393, 2371
704, 2092, 29, 34, 2091
705, 1633, 33, 29, 2092
706, 1789, 1281, 3401, 3306
707, 2879, 1257, 2991, 2763
708, 932, 965, 2093, 2267
709, 1501, 1499, 3282, 1719
710, 1556, 2070, 3595, 2021
711, 3599, 2762, 1885, 3300
712, 2062, 3032, 3058, 3057
713, 1537, 331, 401, 3051
714, 1378, 1751, 594, 1660
715, 1264, 2039, 1796, 3093
716, 1354, 3344, 3137, 3343
717, 906, 1530, 3012, 794
718, 2102, 258, 474, 2101
719, 2065, 475, 258, 2102
720, 26, 18, 2105, 2103
721, 2103, 2105, 2104, 604
722, 2621, 816, 2737, 3554
723, 18, 2, 1935, 2105
724, 135, 2107, 2108, 123
725, 123, 2108, 1953, 134
726, 2235, 2312, 586, 3416
727, 1267, 3332, 721, 3004
728, 2577, 2856, 2855, 1179
729, 2941, 3628, 1696, 1186
730, 1884, 1139, 3233, 2037
731, 2862, 1577, 2940, 2929
732, 2798, 863, 2629, 1350
733, 2014, 1936, 1544, 2015
734, 819, 812, 2765, 809
735, 737, 1582, 2116, 2114
736, 2114, 2116, 2115, 736
737, 2116, 265, 467, 2115
738, 1582, 468, 265, 2116
739, 3212, 1465, 3370, 3451
740, 2118, 259, 473, 2117
741, 2101, 474, 259, 2118
742, 567, 166, 2121, 2119
743, 2119, 2121, 2120, 996
744, 2121, 1905, 1000, 2120
745, 166, 566, 1905, 2121
746, 1194, 1105, 1808, 1112
747, 2384, 1109, 2770, 1978
748, 2600, 3435, 1056, 2535
749, 3070, 2084, 2531, 3017
750, 2018, 3265, 102, 112
751, 617, 2223, 101, 111
752, 1345, 113, 104, 1259
753, 759, 2081, 2129, 2127
754, 2127, 2129, 2128, 667
755, 2129, 280, 452, 2128
756, 2081, 453, 280, 2129
757, 3326, 1259, 104, 114
758, 3450, 590, 424, 309
759, 3158, 308, 424, 590
760, 1867, 3326, 114, 105
761, 1116, 1371, 2379, 1629
762, 1627, 543, 190, 1115
763, 1114, 1606, 3184, 2457
764, 3582, 1114, 2597, 2677
765, 666, 2138, 2139, 2136
766, 2136, 2139, 2137, 663
767, 2139, 282, 450, 2137
768, 2138, 451, 282, 2139
769, 1074, 2142, 2143, 2140
770, 2140, 2143, 2141, 1075
771, 2143, 180, 552, 2141
772, 2142, 553, 180, 2143
773, 450, 283, 2146, 2137
774, 2137, 2146, 2144, 663
775, 2146, 2145, 662, 2144
776, 283, 449, 2145, 2146
777, 791, 2149, 2150, 2147
778, 2147, 2150, 1616, 600
779, 2150, 2148, 601, 1616
780, 2149, 789, 2148, 2150
781, 3223, 3110, 2661, 911
782, 3413, 987, 3473, 2689
783, 988, 1298, 2869, 630
784, 742, 3459, 743, 1704
785, 2077, 729, 461, 272
786, 2159, 1347, 1346, 2154
787, 2158, 2159, 2154, 1249
788, 2154, 1346, 2397, 2125
789, 584, 1715, 2157, 2156
790, 2156, 2157, 1812, 582
791, 2157, 142, 153, 1812
792, 1715, 152, 142, 2157
793, 2158, 943, 944, 1250
794, 1250, 944, 315, 417
795, 317, 415, 3397, 2124
796, 942, 103, 113, 1345
797, 809, 2007, 1968, 2628
798, 2188, 1341, 1254, 2370
799, 1966, 2033, 3352, 2917
800, 602, 223, 509, 2110
801, 1126, 1608, 1610, 1128
802, 3154, 2162, 519, 214
803, 3098, 521, 212, 3155
804, 642, 2091, 2168, 2166
805, 2166, 2168, 2167, 641
806, 2168, 30, 35, 2167
807, 2091, 34, 30, 2168
808, 449, 284, 2170, 2145
809, 2145, 2170, 2169, 662
810, 2170, 2010, 656, 2169
811, 284, 448, 2010, 2170
812, 3325, 675, 2819, 763
813, 2942, 3348, 2633, 3103
814, 2173, 126, 138, 1847
815, 2172, 137, 126, 2173
816, 2911, 1006, 2790, 2216
817, 984, 972, 1016, 2680
818, 2176, 358, 374, 2174
819, 2175, 375, 358, 2176
820, 1609, 1146, 1357, 3482
821, 2305, 210, 522, 1123
822, 1124, 3482, 3431, 2179
823, 667, 2128, 2181, 2180
824, 2180, 2181, 2138, 666
825, 2181, 281, 451, 2138
826, 2128, 452, 281, 2181
827, 1579, 698, 717, 591
828, 2718, 1821, 312, 420
829, 3157, 705, 1822, 710
830, 1894, 108, 7, 1820
831, 2699, 973, 975, 1004
832, 2661, 2662, 634, 2698
833, 2187, 356, 376, 2186
834, 1300, 623, 1688, 2185
835, 2985, 3487, 508, 225
836, 816, 2371, 1967, 2737
837, 861, 1768, 3549, 862
838, 2779, 1342, 2630, 1632
839, 473, 260, 2190, 2117
840, 904, 1925, 1926, 2726
841, 260, 472, 2029, 2190
842, 641, 2167, 2192, 2191
843, 2191, 2192, 1982, 581
844, 2192, 31, 3, 1982
845, 2167, 35, 31, 2192
846, 1698, 2990, 3034, 2761
847, 3113, 80, 93, 1272
848, 1454, 2949, 2948, 612
849, 2520, 1271, 2507, 979
850, 24, 16, 2198, 2002
851, 2002, 2198, 2196, 578
852, 2198, 2197, 605, 2196
853, 16, 25, 2197, 2198
854, 1499, 2266, 2061, 3282
855, 3598, 3284, 3006, 2097
856, 3032, 3036, 946, 3058
857, 2407, 1536, 1256, 1538
858, 393, 340, 2204, 2202
859, 2202, 2204, 1222, 931
860, 2204, 2203, 925, 1222
861, 340, 392, 2203, 2204
862, 1331, 1226, 2959, 1374
863, 2206, 124, 136, 2205
864, 2107, 135, 124, 2206
865, 3586, 1556, 2021, 2881
866, 2761, 3034, 2232, 950
867, 2211, 3283, 3071, 3474
868, 1718, 1791, 1499, 1501
869, 2881, 2021, 97, 85
870, 3400, 1280, 399, 334
871, 2267, 2093, 335, 397
872, 1083, 2059, 2213, 2212
873, 2212, 2213, 2142, 1074
874, 2213, 179, 553, 2142
875, 2059, 554, 179, 2213
876, 915, 2551, 914, 635
877, 2214, 1237, 1013, 2549
878, 2215, 357, 375, 2175
879, 2186, 376, 357, 2215
880, 635, 914, 3392, 1391
881, 3075, 2660, 2055, 3247
882, 2217, 359, 373, 2056
883, 2174, 374, 359, 2217
884, 466, 267, 2220, 2218
885, 2218, 2220, 2219, 735
886, 1448, 3139, 2512, 1763
887, 110, 101, 2223, 2221
888, 2221, 2223, 2222, 619
889, 1249, 1890, 617, 3265
890, 943, 942, 1345, 2126
891, 392, 341, 2225, 2203
892, 2203, 2225, 2224, 925
893, 2225, 2073, 923, 2224
894, 341, 391, 2073, 2225
895, 972, 976, 2431, 1016
896, 3558, 3557, 1565, 2803
897, 610, 2373, 978, 1223
898, 3131, 2903, 916, 2550
899, 2228, 3203, 3205, 1855
900, 2257, 1842, 1566, 2952
901, 1042, 2697, 3522, 1294
902, 3203, 608, 606, 3205
903, 964, 2233, 2234, 2232
904, 1263, 966, 615, 1886
905, 1886, 615, 2994, 952
906, 2233, 406, 327, 2234
907, 1468, 289, 443, 3257
908, 1433, 288, 444, 1952
909, 3295, 1028, 1490, 1033
910, 1733, 1384, 3498, 2054
911, 3498, 363, 369, 1731
912, 3502, 2516, 1385, 997
913, 787, 2241, 2242, 2240
914, 2240, 2242, 1585, 599
915, 2242, 2147, 600, 1585
916, 2241, 791, 2147, 2242
917, 1198, 1444, 3437, 3052
918, 2830, 1022, 2569, 2610
919, 3542, 3541, 2351, 1045
920, 3530, 1443, 55, 66
921, 994, 2248, 2249, 2247
922, 2247, 2249, 2119, 996
923, 2249, 165, 567, 2119
924, 2248, 568, 165, 2249
925, 709, 591, 3421, 2183
926, 1821, 1322, 421, 312
927, 1334, 2183, 2098, 1948
928, 950, 3192, 2096, 3030
929, 3039, 1559, 2907, 3460
930, 3443, 983, 2151, 919
931, 2076, 2524, 2299, 2902
932, 3087, 985, 2498, 1799
933, 1862, 626, 3413, 1888
934, 467, 266, 2256, 2115
935, 2115, 2256, 2255, 736
936, 2256, 2218, 735, 2255
937, 266, 466, 2218, 2256
938, 3563, 2229, 2981, 2231
939, 608, 2783, 2782, 606
940, 3562, 3346, 2257, 1853
941, 2981, 1201, 2983, 3381
942, 1847, 1848, 3323, 1226
943, 2260, 125, 137, 2172
944, 2205, 136, 125, 2260
945, 552, 181, 2261, 2141
946, 2141, 2261, 1273, 1075
947, 2261, 2083, 1071, 1273
948, 181, 551, 2083, 2261
949, 2021, 3595, 84, 97
950, 3484, 949, 3056, 969
951, 957, 948, 3036, 3032
952, 1538, 1256, 3590, 616
953, 1491, 3154, 214, 518
954, 3386, 2728, 1147, 1152
955, 1941, 1148, 1358, 1529
956, 3444, 1209, 3519, 1439
957, 1635, 2326, 2844, 2831
958, 2487, 1045, 2246, 2352
959, 645, 58, 69, 1602
960, 3592, 3039, 3460, 613
961, 935, 1247, 1262, 3588
962, 3284, 932, 2267, 3006
963, 935, 939, 2906, 1247
964, 160, 150, 2270, 1702
965, 1702, 2270, 2269, 598
966, 2270, 1895, 574, 2269
967, 150, 161, 1895, 2270
968, 25, 17, 2272, 2197
969, 2197, 2272, 2271, 605
970, 2272, 2103, 604, 2271
971, 17, 26, 2103, 2272
972, 575, 2275, 2276, 1680
973, 1680, 2276, 2273, 573
974, 2276, 2274, 788, 2273
975, 2275, 786, 2274, 2276
976, 963, 1326, 2278, 2277
977, 2277, 2278, 2233, 964
978, 2278, 326, 406, 2233
979, 1326, 407, 326, 2278
980, 3068, 3329, 3197, 2619
981, 2760, 2316, 1743, 1592
982, 1734, 1745, 844, 856
983, 2900, 612, 2074, 922
984, 2187, 3135, 377, 356
985, 995, 1336, 2285, 2284
986, 2284, 2285, 2248, 994
987, 2285, 164, 568, 2248
988, 1336, 569, 164, 2285
989, 411, 322, 2287, 1836
990, 1836, 2287, 1414, 968
991, 2287, 2286, 970, 1414
992, 322, 410, 2286, 2287
993, 410, 323, 2290, 2286
994, 2286, 2290, 2288, 970
995, 2290, 2289, 971, 2288
996, 323, 409, 2289, 2290
997, 1734, 2404, 1683, 1745
998, 3197, 1437, 845, 1684
999, 871, 1734, 856, 1762
1000, 1683, 3449, 2645, 2759
1001, 2046, 931, 1222, 2045
1002, 1398, 3521, 1503, 623
1003, 1497, 625, 2960, 3109
1004, 1353, 81, 94, 3378
1005, 2226, 61, 72, 2537
1006, 3226, 1841, 2895, 1878
1007, 1294, 3522, 909, 1662
1008, 2782, 637, 1203, 606
1009, 2680, 1016, 2688, 1476
1010, 1271, 3574, 2900, 2507
1011, 3388, 3460, 2907, 2293
1012, 978, 3193, 3574, 1271
1013, 1498, 1464, 2523, 2732
1014, 3136, 2319, 1787, 1463
1015, 2524, 1399, 3136, 2299
1016, 626, 1687, 987, 3413
1017, 2300, 2303, 1548, 596
1018, 2303, 2301, 595, 1548
1019, 2302, 779, 2301, 2303
1020, 2264, 1064, 3520, 2353
1021, 1188, 3171, 3509, 3510
1022, 2164, 1128, 1942, 1127
1023, 1570, 3471, 517, 216
1024, 1641, 2591, 437, 296
1025, 3342, 722, 1902, 3256
1026, 683, 2012, 691, 725
1027, 1902, 1717, 1469, 1308
1028, 725, 2508, 724, 1647
1029, 3332, 3433, 692, 721
1030, 2793, 2309, 674, 2792
1031, 1268, 1640, 2818, 3394
1032, 3226, 2230, 2785, 1841
1033, 1854, 2228, 1855, 3562
1034, 1203, 1042, 1294, 2313
1035, 2803, 1565, 59, 70
1036, 2691, 2436, 2314, 1744
1037, 871, 2675, 1851, 3195
1038, 1762, 1204, 2435, 826
1039, 860, 2403, 1438, 2280
1040, 612, 2948, 923, 2074
1041, 3414, 2693, 611, 1312
1042, 3194, 3114, 1311, 924
1043, 789, 2321, 2322, 2148
1044, 2148, 2322, 1572, 601
1045, 2322, 2320, 597, 1572
1046, 2321, 781, 2320, 2322
1047, 408, 1325, 2324, 324
1048, 324, 2324, 2289, 409
1049, 2324, 2323, 971, 2289
1050, 1325, 963, 2323, 2324
1051, 1046, 2877, 2530, 1962
1052, 1045, 2351, 3518, 2246
1053, 2331, 1555, 3355, 1100
1054, 3575, 3355, 3189, 1085
1055, 643, 2329, 2330, 1980
1056, 1980, 2330, 2328, 581
1057, 2467, 1144, 2576, 3144
1058, 1296, 3145, 1217, 1157
1059, 1208, 1672, 3503, 638
1060, 2684, 2777, 994, 2247
1061, 2578, 3456, 3336, 1001
1062, 1907, 1621, 1343, 1024
1063, 1985, 1986, 2014, 2015
1064, 3198, 1205, 3409, 1462
1065, 850, 1328, 605, 2271
1066, 870, 852, 3196, 822
1067, 1675, 287, 445, 3239
1068, 2518, 1252, 1366, 3398
1069, 1267, 3004, 3403, 723
1070, 1434, 3398, 2558, 3231
1071, 3491, 1029, 2857, 2682
1072, 2340, 2947, 3079, 3490
1073, 1384, 370, 363, 3498
1074, 3242, 1021, 2683, 3499
1075, 2606, 2433, 1970, 3238
1076, 3433, 2339, 3240, 692
1077, 2590, 693, 290, 442
1078, 2344, 2346, 2149, 791
1079, 2346, 2345, 789, 2149
1080, 3096, 1429, 3479, 2887
1081, 2347, 1526, 3170, 888
1082, 2000, 894, 1451, 895
1083, 2350, 1961, 478, 255
1084, 797, 1927, 800, 2841
1085, 1505, 1553, 3545, 1196
1086, 1197, 2388, 1086, 3356
1087, 1049, 2355, 3220, 1636
1088, 3331, 3438, 1663, 2244
1089, 1421, 3150, 3046, 1306
1090, 1749, 3546, 3150, 1421
1091, 2355, 1053, 1073, 3220
1092, 3046, 1049, 1636, 1553
1093, 2448, 2957, 766, 2768
1094, 1869, 2082, 2080, 672
1095, 1870, 1869, 672, 1903
1096, 3469, 700, 2559, 689
1097, 1948, 2098, 2130, 593
1098, 696, 1692, 698, 3434
1099, 2570, 2386, 1673, 1714
1100, 1919, 3504, 3456, 2578
1101, 1080, 1077, 2833, 1047
1102, 2034, 2111, 2557, 808
1103, 2007, 811, 1159, 807
1104, 817, 2934, 2013, 2189
1105, 3579, 3388, 2293, 2283
1106, 3298, 2195, 3578, 2949
1107, 2693, 1351, 2521, 611
1108, 611, 2521, 3140, 3418
1109, 781, 2375, 2376, 2320
1110, 2320, 2376, 1657, 597
1111, 2376, 2300, 596, 1657
1112, 755, 768, 2357, 2705
1113, 1114, 2457, 2459, 2597
1114, 3179, 542, 191, 1113
1115, 1117, 2047, 1956, 2676
1116, 2602, 1471, 2423, 1109
1117, 3548, 3529, 1624, 3123
1118, 2835, 1375, 3277, 3333
1119, 3333, 3277, 3496, 1274
1120, 1245, 1654, 2561, 1441
1121, 1024, 1343, 2828, 1026
1122, 2480, 1027, 1000, 1905
1123, 1087, 2391, 2392, 2388
1124, 2388, 2392, 2389, 1086
1125, 2392, 2390, 1084, 2389
1126, 2391, 1081, 2390, 2392
1127, 1589, 1407, 3329, 3068
1128, 2393, 2395, 2394, 874
1129, 2395, 1915, 876, 2394
1130, 3105, 2656, 2913, 839
1131, 415, 318, 1893, 3397
1132, 1250, 417, 316, 2155
1133, 3428, 2132, 314, 418
1134, 2259, 2592, 2012, 683
1135, 2237, 2107, 2206, 682
1136, 679, 2805, 656, 3258
1137, 3446, 1788, 379, 354
1138, 1004, 975, 3164, 1390
1139, 981, 1798, 621, 1400
1140, 1619, 1786, 980, 3417
1141, 2490, 1466, 252, 480
1142, 2488, 1321, 3064, 1395
1143, 3624, 2087, 1881, 1816
1144, 907, 1508, 1531, 889
1145, 2912, 498, 235, 1423
1146, 857, 1676, 3308, 1590
1147, 1820, 2509, 3434, 2717
1148, 2124, 3397, 2397, 1346
1149, 1260, 711, 1832, 1693
1150, 1890, 2125, 3161, 2222
1151, 2893, 1243, 3556, 2245
1152, 1382, 1100, 2650, 1101
1153, 3343, 1639, 713, 715
1154, 3092, 1264, 3093, 1355
1155, 1247, 2069, 3589, 1262
1156, 3306, 3401, 2209, 3585
1157, 2068, 2020, 3587, 3050
1158, 1270, 1790, 2068, 939
1159, 1958, 1700, 1261, 3281
1160, 3007, 935, 3588, 1700
1161, 934, 3484, 1255, 3358
1162, 2232, 2234, 3192, 950
1163, 761, 2415, 2416, 1542
1164, 1542, 2416, 2413, 669
1165, 2416, 2414, 668, 2413
1166, 2415, 760, 2414, 2416
1167, 734, 2704, 2599, 2598
1168, 777, 2078, 2079, 2786
1169, 2381, 1106, 2470, 1533
1170, 2530, 1107, 1057, 1962
1171, 1274, 3496, 1110, 2837
1172, 1473, 1913, 3269, 3003
1173, 1082, 2058, 2426, 2424
1174, 2424, 2426, 2390, 1081
1175, 2426, 2425, 1084, 2390
1176, 2058, 1083, 2425, 2426
1177, 1459, 1091, 2580, 1092
1178, 2427, 2429, 2424, 1081
1179, 2429, 2004, 1082, 2424
1180, 1829, 2563, 2611, 2366
1181, 2670, 1039, 2894, 609
1182, 2216, 3468, 1237, 2660
1183, 2055, 2214, 2865, 3384
1184, 2106, 2591, 1641, 1638
1185, 3086, 1779, 2027, 1240
1186, 682, 2206, 2205, 687
1187, 3023, 1279, 835, 3372
1188, 3237, 2450, 870, 3169
1189, 836, 3167, 1921, 872
1190, 822, 3196, 1513, 3167
1191, 2477, 3477, 2545, 2476
1192, 2664, 751, 746, 903
1193, 1474, 2358, 2417, 2359
1194, 672, 2080, 2556, 2571
1195, 1102, 3022, 2258, 1035
1196, 2561, 2442, 173, 559
1197, 3185, 1104, 2479, 1023
1198, 3243, 1714, 1027, 2480
1199, 802, 847, 2967, 2969
1200, 2445, 2751, 3230, 2335
1201, 2419, 2460, 3467, 2437
1202, 2460, 2448, 2768, 3467
1203, 2705, 2357, 2462, 2447
1204, 1763, 2512, 2920, 2544
1205, 2436, 1289, 855, 2314
1206, 3237, 3169, 2463, 837
1207, 2484, 833, 2772, 3481
1208, 834, 843, 825, 3375
1209, 3496, 3495, 1164, 1110
1210, 2383, 2771, 2503, 1913
1211, 1108, 2123, 3435, 2600
1212, 1057, 2529, 2504, 3001
1213, 888, 3170, 867, 1826
1214, 1285, 1419, 774, 2665
1215, 1508, 2582, 3134, 1531
1216, 1429, 2840, 2649, 3479
1217, 3095, 3130, 3494, 3495
1218, 2423, 3070, 3017, 2469
1219, 1607, 189, 543, 1627
1220, 1630, 1494, 3583, 2047
1221, 762, 1474, 1480, 2632
1222, 2613, 2541, 3125, 3224
1223, 2706, 1314, 3569, 2739
1224, 783, 2743, 2898, 2914
1225, 1423, 235, 497, 2403
1226, 2464, 3024, 853, 1232
1227, 3626, 2852, 3605, 1161
1228, 2861, 2931, 1295, 2542
1229, 3627, 3626, 2330, 2329
1230, 1214, 1990, 2797, 2796
1231, 1472, 3183, 2601, 1964
1232, 2420, 3492, 2503, 1965
1233, 3017, 2531, 547, 186
1234, 2123, 1912, 2384, 3435
1235, 1133, 2672, 1144, 2467
1236, 2860, 2553, 2953, 1178
1237, 1140, 2908, 2931, 2861
1238, 1728, 2468, 1486, 1135
1239, 1846, 3029, 765, 3486
1240, 2345, 2478, 2321, 789
1241, 2478, 2476, 781, 2321
1242, 999, 1506, 1906, 1918
1243, 3022, 3506, 1933, 2258
1244, 3186, 2514, 2341, 3470
1245, 1828, 2405, 558, 175
1246, 1455, 924, 2982, 1352
1247, 2499, 2282, 2693, 3414
1248, 921, 78, 91, 2506
1249, 3169, 870, 822, 828
1250, 2913, 836, 872, 1943
1251, 1590, 3308, 1685, 1289
1252, 3308, 860, 2280, 1685
1253, 3515, 1046, 1962, 1806
1254, 2245, 3556, 1563, 3555
1255, 1190, 2354, 1911, 1472
1256, 3543, 3542, 1045, 2487
1257, 2690, 1677, 868, 830
1258, 1395, 3064, 1526, 2347
1259, 886, 888, 1826, 3603
1260, 756, 3291, 3011, 1532
1261, 769, 1996, 2794, 3062
1262, 1613, 3339, 2541, 739
1263, 1131, 3117, 3222, 1576
1264, 1711, 1238, 2919, 3412
1265, 882, 245, 487, 1818
1266, 3199, 1395, 2347, 1427
1267, 3181, 877, 2543, 2647
1268, 2665, 774, 2886, 1909
1269, 2905, 79, 92, 936
1270, 2193, 925, 2224, 2281
1271, 2481, 928, 2298, 2294
1272, 3418, 3140, 1455, 1313
1273, 3173, 798, 2497, 2773
1274, 1929, 3181, 2647, 1759
1275, 2965, 896, 3181, 1929
1276, 1509, 1428, 3248, 865
1277, 2534, 1054, 3184, 2823
1278, 1965, 2503, 2771, 1534
1279, 2085, 2122, 3466, 1535
1280, 3494, 3493, 1377, 3019
1281, 936, 92, 80, 3113
1282, 2283, 2293, 928, 2481
1283, 2499, 2905, 936, 2282
1284, 2151, 2482, 972, 984
1285, 1522, 2432, 1521, 3302
1286, 2342, 1434, 3231, 3027
1287, 3255, 433, 300, 694
1288, 1639, 589, 1276, 713
1289, 699, 2558, 2560, 3406
1290, 2977, 689, 1691, 2976
1291, 3570, 1449, 463, 270
1292, 3094, 1359, 733, 732
1293, 2613, 3224, 1764, 1706
1294, 1514, 2642, 3501, 2947
1295, 3361, 991, 3122, 1644
1296, 2644, 1031, 3081, 3296
1297, 2513, 1227, 1614, 1023
1298, 2432, 653, 3317, 1521
1299, 2195, 2193, 2281, 3578
1300, 2507, 2900, 922, 1973
1301, 1410, 1478, 2699, 2400
1302, 983, 1300, 2482, 2151
1303, 1800, 1463, 1498, 2732
1304, 1967, 2716, 507, 226
1305, 2090, 1875, 3487, 2985
1306, 1877, 2638, 2933, 2848
1307, 1096, 1219, 1050, 2331
1308, 3277, 3095, 3495, 3496
1309, 1856, 2086, 3309, 3268
1310, 2452, 1165, 2383, 2382
1311, 3489, 2816, 802, 2750
1312, 1206, 3316, 2897, 1205
1313, 1279, 3214, 3065, 835
1314, 3088, 2444, 3101, 851
1315, 2382, 2383, 1913, 1473
1316, 1535, 3466, 3130, 3095
1317, 2531, 3003, 185, 547
1318, 1110, 1164, 1979, 2536
1319, 1202, 2231, 609, 2894
1320, 3557, 1011, 2243, 639
1321, 1854, 3562, 1853, 1879
1322, 767, 2571, 1475, 1225
1323, 1487, 2037, 2542, 3045
1324, 1173, 1130, 2468, 1728
1325, 1610, 3049, 1146, 1609
1326, 1695, 1169, 2755, 2852
1327, 2806, 1388, 1321, 2488
1328, 1387, 483, 250, 2851
1329, 1824, 2657, 3241, 1519
1330, 2401, 878, 894, 2000
1331, 750, 738, 1453, 2727
1332, 2476, 2545, 2375, 781
1333, 1363, 1373, 2634, 2309
1334, 2787, 755, 752, 1996
1335, 2656, 828, 836, 2913
1336, 2402, 2279, 1436, 805
1337, 634, 633, 2910, 2627
1338, 1409, 3135, 2187, 3571
1339, 1619, 3417, 1399, 2524
1340, 2627, 2910, 2186, 2215
1341, 1186, 1696, 528, 205
1342, 768, 1802, 1804, 2357
1343, 2554, 2556, 2555, 760
1344, 2556, 2080, 759, 2555
1345, 2161, 2034, 808, 3551
1346, 2764, 2714, 2780, 2969
1347, 1340, 512, 221, 3322
1348, 3026, 1872, 304, 428
1349, 1430, 3258, 2338, 1757
1350, 3115, 1244, 3267, 2563
1351, 2334, 171, 561, 1516
1352, 1219, 2441, 1094, 1050
1353, 1382, 1101, 2368, 2735
1354, 1235, 3446, 354, 378
1355, 1888, 3413, 2689, 2849
1356, 3124, 349, 383, 2152
1357, 760, 2555, 2568, 2414
1358, 2414, 2568, 2567, 668
1359, 2568, 2127, 667, 2567
1360, 2555, 759, 2127, 2568
1361, 1827, 1785, 2800, 2799
1362, 1020, 2721, 1229, 1228
1363, 1475, 2554, 2599, 2704
1364, 2477, 2476, 2478, 2962
1365, 3180, 1618, 974, 1788
1366, 1300, 2185, 3463, 2482
1367, 575, 1669, 2575, 2275
1368, 2275, 2575, 2573, 786
1369, 2575, 2574, 782, 2573
1370, 1669, 576, 2574, 2575
1371, 3280, 529, 204, 2473
1372, 1129, 1524, 1991, 1170
1373, 2636, 2577, 1179, 2671
1374, 2386, 2570, 3022, 1102
1375, 3377, 563, 170, 1091
1376, 2840, 485, 248, 2649
1377, 865, 3248, 1928, 883
1378, 1419, 1509, 865, 774
1379, 1083, 2212, 2586, 2425
1380, 2425, 2586, 2584, 1084
1381, 1053, 1381, 3294, 3279
1382, 2585, 3278, 1074, 2140
1383, 1169, 2863, 1487, 2755
1384, 2855, 1187, 3116, 2654
1385, 1171, 1132, 1176, 1833
1386, 695, 1433, 1952, 3523
1387, 686, 2235, 3416, 1594
1388, 684, 1938, 1940, 1939
1389, 1901, 3086, 3433, 3332
1390, 2012, 3302, 1435, 691
1391, 722, 1367, 1717, 1902
1392, 1861, 3204, 2812, 1801
1393, 1992, 1862, 1888, 2731
1394, 1116, 1630, 2047, 1117
1395, 2380, 1627, 1115, 1955
1396, 1956, 2458, 3312, 3310
1397, 2598, 2599, 2415, 761
1398, 2599, 2554, 760, 2415
1399, 2437, 3467, 1225, 2540
1400, 1604, 1857, 2084, 3070
1401, 3309, 1105, 1194, 3379
1402, 3183, 3268, 3275, 2601
1403, 1515, 2891, 1708, 1507
1404, 1374, 2959, 3348, 2942
1405, 2433, 2804, 2017, 1970
1406, 1366, 2106, 1638, 2560
1407, 3288, 676, 2937, 653
1408, 3137, 1275, 2364, 1723
1409, 1539, 132, 121, 1940
1410, 1276, 588, 1264, 3092
1411, 1721, 1814, 2044, 1692
1412, 1656, 3115, 2563, 1829
1413, 3504, 2428, 3505, 3456
1414, 2006, 2366, 556, 177
1415, 3567, 2418, 758, 740
1416, 1766, 3062, 2438, 773
1417, 582, 2615, 2616, 2156
1418, 2156, 2616, 1598, 584
1419, 2616, 2614, 583, 1598
1420, 2615, 675, 2614, 2616
1421, 1679, 2291, 493, 240
1422, 2617, 864, 867, 2772
1423, 3214, 3458, 1526, 3064
1424, 839, 2913, 1943, 875
1425, 2035, 1394, 1342, 2779
1426, 2370, 821, 804, 3313
1427, 814, 3313, 2036, 3553
1428, 1349, 1158, 2527, 2526
1429, 3471, 1569, 215, 517
1430, 3000, 1152, 2729, 2789
1431, 2625, 1567, 1149, 2624
1432, 1529, 1358, 1491, 1569
1433, 3073, 1002, 2551, 915
1434, 1502, 1009, 1478, 1410
1435, 3110, 1012, 2662, 2661
1436, 2112, 3552, 3399, 2032
1437, 863, 2936, 2160, 2629
1438, 2622, 803, 2111, 2034
1439, 807, 2372, 603, 815
1440, 3507, 1364, 3091, 2938
1441, 2792, 674, 2871, 661
1442, 764, 1704, 1810, 729
1443, 3335, 756, 1532, 1705
1444, 3232, 1485, 3280, 2966
1445, 3117, 1578, 2856, 2577
1446, 2640, 2635, 3128, 2860
1447, 2113, 3551, 1875, 2090
1448, 1137, 1709, 3628, 2941
1449, 3630, 1525, 2954, 2472
1450, 1145, 1295, 2931, 2178
1451, 2683, 1930, 3186, 2440
1452, 1032, 2866, 2946, 1028
1453, 993, 362, 370, 1384
1454, 3502, 632, 2513, 2516
1455, 3196, 1277, 841, 1513
1456, 2675, 3357, 840, 2546
1457, 3462, 854, 1329, 2673
1458, 3606, 3199, 2807, 2582
1459, 2543, 2618, 2028, 2710
1460, 1818, 487, 246, 3182
1461, 2570, 3188, 3506, 3022
1462, 2366, 2611, 176, 556
1463, 1524, 1754, 1833, 3629
1464, 2588, 1710, 2026, 1140
1465, 2435, 3445, 2748, 827
1466, 2393, 3105, 839, 2395
1467, 3449, 3307, 3382, 2645
1468, 2617, 3407, 3105, 2393
1469, 2666, 1910, 1583, 2658
1470, 3271, 904, 2726, 3148
1471, 1887, 624, 912, 1298
1472, 2399, 346, 386, 1688
1473, 2749, 2670, 609, 3381
1474, 2064, 2029, 2030, 902
1475, 3608, 3607, 1508, 907
1476, 1924, 3271, 3349, 1511
1477, 2219, 2220, 2078, 777
1478, 2707, 3149, 744, 3568
1479, 1518, 891, 801, 2496
1480, 3271, 3148, 3362, 3349
1481, 2911, 2216, 2660, 3075
1482, 2566, 1566, 1842, 3440
1483, 1788, 974, 353, 379
1484, 2593, 2627, 2215, 2175
1485, 1486, 2795, 1137, 1181
1486, 2109, 1214, 2796, 2928
1487, 2474, 3272, 2466, 1200
1488, 806, 3368, 3423, 2533
1489, 1772, 2445, 2335, 1774
1490, 2335, 3230, 3391, 2815
1491, 1371, 1493, 2596, 3582
1492, 1494, 1119, 3178, 3583
1493, 2379, 2677, 1955, 2135
1494, 3583, 3178, 1167, 2458
1495, 1445, 2333, 2385, 2332
1496, 1401, 2679, 2391, 1087
1497, 2679, 2427, 1081, 2391
1498, 1078, 1920, 2679, 1401
1499, 624, 984, 2680, 912
1500, 989, 1310, 1786, 2522
1501, 2850, 926, 985, 3087
1502, 1687, 627, 2594, 987
1503, 2239, 3500, 1643, 3439
1504, 2775, 1034, 1344, 1645
1505, 3439, 1643, 2515, 1642
1506, 1385, 2387, 1103, 2866
1507, 803, 602, 2110, 2111
1508, 581, 2328, 2687, 2191
1509, 2191, 2687, 2686, 641
1510, 2724, 2941, 1186, 2641
1511, 1861, 1801, 3040, 926
1512, 919, 2151, 984, 624
1513, 1993, 3041, 1995, 1994
1514, 1003, 2626, 3234, 1010
1515, 3407, 2463, 2656, 3105
1516, 3375, 825, 1735, 2465
1517, 1684, 845, 494, 239
1518, 828, 822, 3167, 836
1519, 2917, 2620, 1394, 2035
1520, 1632, 2630, 803, 2622
1521, 813, 510, 223, 602
1522, 1544, 3554, 227, 505
1523, 82, 95, 613, 2694
1524, 3581, 3577, 3522, 2697
1525, 3577, 3015, 909, 3522
1526, 2045, 1222, 925, 2193
1527, 2865, 2214, 2549, 1019
1528, 1862, 986, 977, 626
1529, 3440, 1842, 2951, 1292
1530, 2698, 634, 2627, 2593
1531, 727, 728, 680, 2310
1532, 1596, 1953, 2108, 2604
1533, 1648, 587, 1367, 722
1534, 2623, 1217, 1145, 2788
1535, 2738, 2692, 2621, 1936
1536, 2701, 1153, 1767, 2702
1537, 1511, 3349, 3177, 1530
1538, 750, 772, 3146, 738
1539, 772, 2927, 737, 3146
1540, 2741, 2100, 2102, 2101
1541, 2447, 2462, 2957, 2448
1542, 2358, 2705, 2447, 2417
1543, 2419, 2437, 734, 753
1544, 2706, 2739, 2703, 793
1545, 2664, 901, 3270, 751
1546, 758, 754, 1611, 740
1547, 749, 2065, 2102, 2100
1548, 3138, 2970, 744, 3149
1549, 1314, 2666, 2658, 3569
1550, 1530, 3177, 792, 3012
1551, 886, 3603, 1873, 2349
1552, 3206, 2495, 3173, 3264
1553, 3625, 3621, 1339, 1389
1554, 893, 1519, 1429, 3096
1555, 3106, 3166, 2756, 2999
1556, 3301, 3360, 1527, 2700
1557, 2177, 3471, 1570, 1567
1558, 2263, 2908, 2909, 1283
1559, 2799, 2800, 2579, 1095
1560, 2368, 2893, 2245, 3331
1561, 2833, 1092, 2367, 3244
1562, 1093, 1621, 1022, 2830
1563, 1341, 817, 2189, 1254
1564, 2716, 2985, 225, 507
1565, 3487, 2984, 224, 508
1566, 3399, 3552, 2756, 3166
1567, 1324, 1821, 2718, 1823
1568, 3250, 2131, 3157, 2134
1569, 3252, 2718, 420, 313
1570, 3421, 1265, 3430, 592
1571, 636, 2049, 2722, 2719
1572, 2719, 2722, 2720, 1019
1573, 991, 2440, 2643, 3122
1574, 3079, 1733, 2054, 1932
1575, 1580, 1579, 591, 709
1576, 592, 3430, 1369, 1849
1577, 572, 704, 1947, 2723
1578, 1578, 1182, 1213, 2856
1579, 1712, 1297, 1547, 1175
1580, 2755, 1487, 3045, 2475
1581, 1132, 533, 200, 1176
1582, 901, 2707, 3568, 3270
1583, 1234, 1492, 2625, 3408
1584, 2788, 2306, 2164, 3121
1585, 2730, 1775, 1151, 2729
1586, 2624, 1149, 1775, 2730
1587, 3135, 1496, 355, 377
1588, 976, 348, 384, 2431
1589, 622, 3109, 381, 352
1590, 2594, 1235, 1496, 2733
1591, 1354, 3343, 715, 716
1592, 1814, 2406, 1659, 2044
1593, 2609, 708, 3254, 3344
1594, 1784, 2579, 2987, 2442
1595, 1445, 2332, 1099, 1920
1596, 3506, 564, 169, 1933
1597, 1091, 170, 562, 2580
1598, 2934, 1156, 2525, 2013
1599, 821, 2035, 2779, 804
1600, 2935, 222, 510, 813
1601, 2372, 1253, 810, 2915
1602, 2921, 2360, 794, 3012
1603, 3607, 3606, 2582, 1508
1604, 3362, 3148, 2740, 747
1605, 3459, 3567, 1447, 743
1606, 3621, 795, 3061, 1339
1607, 2838, 2064, 902, 1924
1608, 576, 1780, 2744, 2574
1609, 2574, 2744, 2742, 782
1610, 2744, 2743, 783, 2742
1611, 1780, 577, 2743, 2744
1612, 667, 2180, 2747, 2567
1613, 2567, 2747, 2745, 668
1614, 2747, 2746, 665, 2745
1615, 2180, 666, 2746, 2747
1616, 2546, 2758, 1279, 3023
1617, 835, 3065, 3066, 1278
1618, 2655, 2912, 1423, 838
1619, 1512, 3088, 1461, 873
1620, 776, 748, 2741, 2667
1621, 3148, 2726, 771, 2740
1622, 747, 2740, 1314, 2706
1623, 3073, 2911, 3075, 2669
1624, 3287, 1737, 1566, 2566
1625, 1012, 3359, 1477, 2662
1626, 2216, 2790, 2904, 3468
1627, 1329, 3104, 846, 3067
1628, 1205, 2897, 3489, 3409
1629, 2753, 2336, 1460, 2817
1630, 1288, 851, 2751, 2445
1631, 1950, 1405, 1880, 896
1632, 3610, 785, 829, 2709
1633, 3259, 1838, 892, 1520
1634, 899, 2456, 1838, 3259
1635, 2473, 204, 528, 1696
1636, 1729, 2652, 208, 524
1637, 2852, 2755, 2475, 3605
1638, 641, 2686, 2757, 2166
1639, 2166, 2757, 2715, 642
1640, 819, 809, 2628, 2631
1641, 2788, 1145, 2178, 2306
1642, 1676, 838, 860, 3308
1643, 826, 2435, 827, 2547
1644, 1536, 954, 937, 1699
1645, 2063, 329, 403, 2210
1646, 1665, 1501, 1719, 2989
1647, 2070, 952, 938, 3191
1648, 2916, 2092, 2091, 642
1649, 1768, 513, 220, 3549
1650, 1350, 2629, 571, 2112
1651, 3215, 2312, 687, 677
1652, 753, 734, 2598, 2791
1653, 2938, 3091, 3324, 3389
1654, 677, 687, 2205, 2260
1655, 1471, 1604, 3070, 2423
1656, 2469, 3017, 186, 546
1657, 2470, 1055, 2602, 1912
1658, 1109, 2423, 2469, 2770
1659, 2758, 3458, 3214, 1279
1660, 2773, 2497, 2066, 2864
1661, 3442, 3133, 1388, 2806
1662, 2649, 248, 484, 1286
1663, 2643, 3470, 368, 365
1664, 1034, 1029, 3491, 1344
1665, 2387, 1907, 1024, 1103
1666, 1228, 1229, 1021, 3242
1667, 2284, 1386, 1732, 995
1668, 2516, 2479, 2387, 1385
1669, 2947, 3501, 1733, 3079
1670, 1229, 3363, 2858, 1021
1671, 807, 1159, 1253, 2372
1672, 1875, 2557, 2984, 3487
1673, 3104, 2533, 1231, 846
1674, 1408, 858, 2912, 2655
1675, 1565, 1602, 69, 59
1676, 607, 2803, 70, 60
1677, 918, 2295, 3561, 917
1678, 1736, 1878, 608, 3203
1679, 1360, 732, 1904, 2418
1680, 2541, 3339, 770, 3125
1681, 731, 1705, 3566, 1448
1682, 3360, 1122, 3000, 1527
1683, 1155, 2623, 1160, 3120
1684, 2789, 1830, 1153, 2701
1685, 2729, 1151, 1830, 2789
1686, 1007, 3247, 1211, 1030
1687, 2660, 1237, 2214, 2055
1688, 635, 1391, 3204, 1236
1689, 3525, 3102, 1846, 3432
1690, 3290, 586, 2312, 3215
1691, 585, 3524, 673, 670
1692, 1138, 1181, 2724, 1172
1693, 3410, 2587, 1214, 2109
1694, 1176, 200, 532, 1989
1695, 3352, 1348, 2620, 2917
1696, 2189, 2013, 1349, 2033
1697, 2009, 3156, 2161, 2639
1698, 3441, 2847, 2967, 3364
1699, 1101, 1090, 2893, 2368
1700, 1079, 1220, 2834, 1623
1701, 1097, 1080, 1047, 2711
1702, 1101, 2650, 1517, 1090
1703, 2351, 2846, 1305, 3518
1704, 3455, 3152, 1964, 3483
1705, 3053, 3219, 2304, 3047
1706, 1305, 44, 4, 53
1707, 89, 77, 1038, 637
1708, 2331, 1050, 3021, 1555
1709, 3041, 3072, 1497, 1995
1710, 1662, 909, 1292, 2951
1711, 1596, 1267, 723, 3452
1712, 1594, 3416, 1241, 3465
1713, 1470, 446, 287, 1675
1714, 878, 864, 874, 894
1715, 1388, 3066, 3065, 1321
1716, 3617, 1338, 900, 3616
1717, 910, 2695, 2812, 2810
1718, 3247, 2055, 3384, 1211
1719, 974, 2552, 380, 353
1720, 1009, 1411, 1504, 1992
1721, 3574, 1454, 612, 2900
1722, 2696, 1312, 2500, 933
1723, 920, 1303, 2696, 1221
1724, 831, 2465, 2402, 842
1725, 1204, 1406, 1407, 1589
1726, 1819, 1288, 2445, 1772
1727, 587, 3523, 720, 1367
1728, 3394, 2818, 728, 727
1729, 1757, 447, 286, 2308
1730, 595, 2301, 2820, 1811
1731, 1811, 2820, 2615, 582
1732, 2820, 2819, 675, 2615
1733, 2301, 779, 2819, 2820
1734, 3540, 43, 52, 2846
1735, 1055, 1112, 1471, 2602
1736, 2824, 2822, 1166, 2821
1737, 2597, 2459, 1605, 2380
1738, 1760, 897, 2971, 1817
1739, 2825, 2827, 2573, 782
1740, 2827, 2826, 786, 2573
1741, 1337, 790, 2826, 2827
1742, 3395, 1747, 2243, 1243
1743, 1934, 2651, 1097, 1098
1744, 1066, 1440, 1064, 2264
1745, 3548, 3123, 3330, 3534
1746, 3537, 3536, 1440, 1066
1747, 3123, 650, 1198, 3330
1748, 1622, 1001, 1672, 1208
1749, 1317, 1069, 1065, 3380
1750, 1070, 3334, 3405, 1318
1751, 1069, 1075, 1273, 1065
1752, 748, 905, 2100, 2741
1753, 908, 1397, 1518, 1450
1754, 3457, 2461, 764, 2926
1755, 749, 3620, 1840, 2065
1756, 1909, 2886, 1467, 2494
1757, 3614, 2839, 887, 3613
1758, 2494, 1467, 2495, 3206
1759, 2922, 795, 2970, 3138
1760, 3011, 3291, 3132, 1481
1761, 1373, 3507, 2938, 2634
1762, 3477, 3176, 3102, 2545
1763, 1727, 2801, 1061, 3448
1764, 3556, 1011, 2296, 1563
1765, 3531, 646, 1443, 3530
1766, 1876, 2009, 2639, 2685
1767, 2936, 1634, 1633, 2160
1768, 2526, 862, 1348, 3352
1769, 1159, 1876, 2685, 1253
1770, 1309, 2663, 2076, 3475
1771, 3072, 1686, 625, 1497
1772, 3087, 1799, 3601, 3074
1773, 2849, 2689, 3600, 2813
1774, 2360, 3138, 3149, 794
1775, 1338, 2964, 2809, 900
1776, 2927, 1584, 1582, 737
1777, 2876, 3108, 1184, 2022
1778, 3385, 1239, 1213, 1182
1779, 3528, 2875, 3393, 2854
1780, 2671, 2653, 1177, 2587
1781, 2776, 2120, 1000, 1227
1782, 632, 2776, 1227, 2513
1783, 1034, 1228, 3242, 1029
1784, 3470, 2341, 364, 368
1785, 3369, 1711, 3272, 2474
1786, 1135, 1486, 1181, 1138
1787, 1711, 3412, 3480, 3272
1788, 2553, 534, 199, 2953
1789, 1019, 2720, 2867, 2865
1790, 2774, 579, 9, 366
1791, 1930, 3081, 2514, 3186
1792, 2549, 1013, 1003, 2430
1793, 1210, 1490, 1212, 1039
1794, 2565, 2983, 1737, 3287
1795, 2804, 3303, 726, 2017
1796, 2010, 448, 285, 2338
1797, 668, 2745, 2873, 2413
1798, 2413, 2873, 2871, 669
1799, 2873, 2872, 661, 2871
1800, 2745, 665, 2872, 2873
1801, 2801, 2264, 2353, 1061
1802, 1172, 2724, 2641, 1162
1803, 1130, 3144, 1694, 2468
1804, 1552, 3513, 3514, 2354
1805, 2096, 328, 404, 2410
1806, 1667, 3597, 2207, 3396
1807, 3282, 2061, 1650, 3320
1808, 2262, 2201, 3597, 1667
1809, 666, 2136, 2884, 2746
1810, 2746, 2884, 2882, 665
1811, 2884, 2883, 664, 2882
1812, 2136, 663, 2883, 2884
1813, 1960, 2965, 1929, 798
1814, 1519, 3241, 2840, 1429
1815, 903, 746, 1416, 776
1816, 2809, 3259, 1520, 1320
1817, 2685, 2639, 2113, 3427
1818, 2372, 2915, 2692, 603
1819, 1987, 1462, 1986, 1985
1820, 3368, 2752, 1327, 578
1821, 3297, 3261, 2265, 1749
1822, 3530, 66, 56, 2486
1823, 3219, 57, 68, 2304
1824, 2713, 2735, 2244, 1089
1825, 1036, 649, 3260, 1713
1826, 3564, 2784, 1852, 1564
1827, 1038, 2227, 2697, 1042
1828, 3346, 2951, 1842, 2257
1829, 2766, 3486, 1361, 585
1830, 3348, 3325, 763, 2633
1831, 2767, 779, 2302, 1330
1832, 2171, 2172, 2173, 1331
1833, 2443, 2752, 3368, 806
1834, 824, 3462, 2673, 3316
1835, 2968, 2750, 2780, 2781
1836, 1462, 3409, 2968, 1986
1837, 840, 837, 833, 2484
1838, 1327, 2898, 2001, 578
1839, 2898, 2743, 577, 2001
1840, 3327, 1232, 2443, 3315
1841, 3114, 2294, 3429, 1311
1842, 986, 988, 630, 977
1843, 1351, 982, 614, 2521
1844, 2949, 3578, 2281, 2948
1845, 3571, 2187, 2186, 2910
1846, 3073, 2669, 629, 1002
1847, 2551, 3287, 2566, 914
1848, 2070, 3191, 3593, 3595
1849, 615, 2407, 1538, 2994
1850, 3281, 1261, 1665, 1257
1851, 2164, 1127, 1284, 3121
1852, 1358, 2179, 3154, 1491
1853, 1139, 3311, 2588, 3233
1854, 1237, 3468, 1017, 1013
1855, 626, 977, 2681, 1687
1856, 2688, 3124, 2152, 1686
1857, 3073, 1015, 1006, 2911
1858, 3328, 2532, 3024, 2548
1859, 1232, 853, 2752, 2443
1860, 603, 2692, 2738, 2714
1861, 2110, 509, 224, 2984
1862, 2008, 2848, 1937, 1631
1863, 2369, 2032, 2934, 817
1864, 3528, 2854, 2919, 1238
1865, 1175, 1547, 1575, 1545
1866, 3569, 2658, 2927, 772
1867, 1764, 275, 457, 1802
1868, 889, 1531, 899, 2964
1869, 3490, 3079, 1932, 631
1870, 1212, 2925, 2923, 1039
1871, 2925, 2829, 1037, 2923
1872, 2924, 1026, 2829, 2925
1873, 1397, 2455, 891, 1518
1874, 2648, 2668, 2117, 2190
1875, 2635, 3410, 2109, 3128
1876, 2854, 3393, 3253, 1291
1877, 1239, 644, 1187, 1213
1878, 2863, 1884, 2037, 1487
1879, 1755, 2025, 1174, 2652
1880, 2475, 3045, 3145, 1296
1881, 815, 603, 2714, 2764
1882, 2631, 818, 2638, 1877
1883, 2714, 2738, 2781, 2780
1884, 2015, 1544, 505, 228
1885, 3525, 2302, 2303, 2300
1886, 2632, 1480, 3424, 2896
1887, 2766, 585, 670, 3340
1888, 671, 2958, 3103, 1224
1889, 3128, 2109, 2928, 2589
1890, 3128, 2589, 2553, 2860
1891, 671, 673, 1363, 2311
1892, 2958, 3347, 3290, 3508
1893, 1362, 2896, 3424, 1364
1894, 3228, 1088, 42, 51
1895, 1185, 2071, 2072, 2023
1896, 1984, 1576, 2640, 1834
1897, 2877, 3455, 3483, 2530
1898, 1020, 3439, 1642, 2721
1899, 1489, 996, 2120, 2776
1900, 2866, 1103, 2924, 2946
1901, 997, 1385, 2866, 1032
1902, 621, 344, 388, 1464
1903, 979, 2507, 1973, 981
1904, 2498, 3475, 2572, 2811
1905, 1223, 978, 1271, 2520
1906, 2784, 3411, 2228, 1854
1907, 3555, 1661, 1664, 3438
1908, 2719, 2430, 1860, 636
1909, 1655, 1828, 175, 557
1910, 3107, 2878, 2876, 2022
1911, 1991, 3488, 2672, 1133
1912, 3222, 2636, 3410, 2635
1913, 598, 2269, 2956, 2955
1914, 2955, 2956, 2273, 788
1915, 2956, 1945, 573, 2273
1916, 2269, 574, 1945, 2956
1917, 2171, 677, 2260, 2172
1918, 676, 2943, 657, 2937
1919, 3508, 3290, 3215, 2769
1920, 3389, 3324, 761, 1542
1921, 2282, 930, 1351, 2693
1922, 2374, 2481, 2294, 3114
1923, 614, 2374, 3114, 3194
1924, 3596, 3320, 400, 333
1925, 892, 2665, 1909, 880
1926, 2838, 1924, 1511, 2961
1927, 748, 2708, 3147, 905
1928, 2497, 1759, 2490, 2066
1929, 1417, 1320, 1839, 2839
1930, 883, 1928, 2754, 784
1931, 2954, 1162, 206, 526
1932, 1484, 2025, 1755, 1710
1933, 1168, 202, 530, 3526
1934, 3369, 2853, 1238, 1711
1935, 2527, 861, 862, 2526
1936, 820, 511, 222, 2935
1937, 2444, 823, 1976, 3101
1938, 1976, 3382, 1771, 2336
1939, 799, 3338, 3304, 790
1940, 2964, 899, 3259, 2809
1941, 1339, 3061, 796, 2972
1942, 971, 2974, 2975, 2288
1943, 2288, 2975, 1413, 970
1944, 2975, 2973, 969, 1413
1945, 2974, 962, 2973, 2975
1946, 1871, 3089, 1872, 3026
1947, 1752, 702, 699, 1750
1948, 3078, 2509, 118, 130
1949, 1750, 699, 3406, 1815
1950, 76, 89, 637, 2782
1951, 1805, 1476, 3072, 3041
1952, 2784, 1854, 1879, 1852
1953, 3438, 1664, 3246, 1663
1954, 3577, 2317, 910, 3015
1955, 2298, 3404, 931, 2046
1956, 3395, 2986, 1191, 1747
1957, 1041, 62, 73, 2230
1958, 2031, 2008, 2936, 863
1959, 2629, 2160, 2916, 571
1960, 812, 2736, 1341, 2188
1961, 804, 2779, 1632, 3550
1962, 1050, 1094, 2326, 3021
1963, 3262, 2610, 1102, 1035
1964, 3260, 1343, 1621, 1093
1965, 2611, 1655, 557, 176
1966, 2990, 1255, 2973, 962
1967, 3586, 1263, 1886, 1556
1968, 2252, 2410, 2063, 2409
1969, 1652, 1500, 2992, 2201
1970, 3283, 2062, 3057, 3071
1971, 949, 3058, 946, 3056
1972, 2061, 3005, 3051, 1650
1973, 1556, 1886, 952, 2070
1974, 1721, 2996, 2043, 1814
1975, 2608, 1479, 432, 301
1976, 2999, 2756, 2757, 2686
1977, 2165, 2624, 2730, 1147
1978, 1127, 1148, 1941, 1284
1979, 1377, 1052, 1076, 1193
1980, 2505, 1193, 2086, 1856
1981, 1056, 1978, 545, 188
1982, 3483, 2451, 1107, 2530
1983, 1242, 1675, 3239, 2343
1984, 2604, 2237, 686, 2398
1985, 2517, 727, 2310, 2016
1986, 2266, 960, 3005, 2061
1987, 2093, 1697, 398, 335
1988, 2762, 945, 2262, 1885
1989, 939, 2068, 3050, 2906
1990, 2069, 1557, 961, 3589
1991, 3030, 2096, 2410, 2252
1992, 3300, 1885, 1957, 2253
1993, 2202, 2993, 339, 393
1994, 665, 2882, 3010, 2872
1995, 2872, 3010, 3008, 661
1996, 3010, 3009, 660, 3008
1997, 2882, 664, 3009, 3010
1998, 896, 1880, 877, 3181
1999, 1916, 488, 245, 882
2000, 704, 1948, 593, 1947
2001, 2018, 112, 103, 942
2002, 1258, 1332, 3159, 2250
2003, 909, 3015, 3016, 1292
2004, 629, 2868, 2670, 2749
2005, 983, 1398, 623, 1300
2006, 3015, 910, 2810, 3016
2007, 3269, 3492, 184, 548
2008, 1978, 2770, 187, 545
2009, 2529, 2453, 2534, 2504
2010, 2471, 2603, 2453, 2529
2011, 1546, 3127, 1163, 644
2012, 2071, 3020, 2329, 643
2013, 2725, 1728, 1135, 1577
2014, 1291, 3253, 3107, 1183
2015, 1096, 998, 1218, 1219
2016, 2678, 2832, 2828, 649
2017, 1092, 2580, 2334, 2367
2018, 1243, 2243, 1011, 3556
2019, 866, 2464, 3307, 3449
2020, 855, 1591, 496, 237
2021, 1278, 783, 2914, 1424
2022, 845, 1744, 238, 494
2023, 2999, 3025, 1215, 1233
2024, 2999, 2686, 2687, 3025
2025, 3121, 1284, 1234, 1160
2026, 1155, 3120, 1150, 1216
2027, 681, 679, 3258, 1430
2028, 2406, 1378, 1660, 3089
2029, 3225, 299, 433, 3255
2030, 3459, 1360, 2418, 3567
2031, 3029, 1868, 1543, 765
2032, 2992, 1958, 3281, 2412
2033, 1557, 2210, 2019, 961
2034, 2209, 1666, 3283, 2211
2035, 1255, 3484, 969, 2973
2036, 2095, 1246, 3030, 2252
2037, 3594, 954, 1536, 2407
2038, 3034, 3033, 964, 2232
2039, 2990, 962, 3033, 3034
2040, 947, 1792, 3038, 3035
2041, 3035, 3038, 3036, 948
2042, 3038, 3037, 946, 3036
2043, 1792, 967, 3037, 3038
2044, 3590, 1256, 2411, 2880
2045, 2210, 403, 330, 2019
2046, 3007, 1270, 939, 935
2047, 2282, 936, 3113, 930
2048, 2790, 2564, 3223, 2904
2049, 1645, 1489, 2776, 632
2050, 1860, 1010, 2056, 2057
2051, 3615, 1417, 2839, 3614
2052, 3043, 3044, 2742, 783
2053, 3044, 2825, 782, 2742
2054, 1321, 3065, 3214, 3064
2055, 2641, 1186, 205, 527
2056, 2953, 199, 533, 1132
2057, 2468, 1694, 2795, 1486
2058, 771, 1908, 1910, 2666
2059, 2807, 1415, 1927, 797
2060, 1447, 3175, 1449, 3570
2061, 3171, 3153, 1376, 3509
2062, 1220, 2799, 1095, 2834
2063, 3539, 3538, 1724, 3337
2064, 3515, 1806, 3108, 2876
2065, 3371, 211, 521, 3098
2066, 2042, 209, 523, 3097
2067, 1146, 3371, 3098, 1357
2068, 1283, 2909, 2040, 3048
2069, 1885, 2262, 1667, 1957
2070, 3597, 2412, 2879, 2207
2071, 2483, 1272, 1353, 3299
2072, 2199, 3474, 2208, 1456
2073, 648, 3021, 2326, 1635
2074, 2441, 2950, 999, 1025
2075, 3548, 3531, 3353, 3529
2076, 2304, 68, 58, 645
2077, 3419, 98, 86, 3584
2078, 2268, 109, 100, 3031
2079, 2020, 3358, 1698, 3587
2080, 3595, 3593, 96, 84
2081, 3126, 2511, 1359, 3094
2082, 2493, 3059, 756, 3335
2083, 2962, 2478, 2345, 796
2084, 1873, 1760, 1817, 1465
2085, 785, 1337, 2827, 2825
2086, 2065, 1840, 257, 475
2087, 1677, 2619, 2291, 1679
2088, 1278, 3066, 3043, 783
2089, 3625, 3610, 2709, 3609
2090, 1949, 3118, 2454, 2087
2091, 1461, 3088, 851, 1288
2092, 1762, 856, 1406, 1204
2093, 1230, 850, 2888, 848
2094, 2646, 848, 2889, 3364
2095, 40, 1727, 3448, 48
2096, 1962, 1057, 3001, 1806
2097, 3151, 2836, 3278, 2585
2098, 954, 3598, 2097, 937
2099, 2207, 2879, 2763, 965
2100, 958, 956, 934, 1651
2101, 960, 1537, 3051, 3005
2102, 3025, 2687, 2328, 1161
2103, 3605, 2475, 1296, 1215
2104, 2700, 1527, 2701, 2702
2105, 636, 1860, 2057, 2051
2106, 627, 3180, 1788, 3446
2107, 2902, 2299, 1800, 2254
2108, 2564, 1390, 3110, 3223
2109, 3099, 297, 435, 3345
2110, 3402, 1750, 1815, 3209
2111, 3208, 1722, 718, 588
2112, 714, 3099, 3345, 3436
2113, 2722, 2049, 2642, 1514
2114, 995, 1732, 2774, 1335
2115, 2239, 997, 1032, 3500
2116, 1029, 3242, 3499, 2857
2117, 663, 2144, 3084, 2883
2118, 2883, 3084, 3082, 664
2119, 3084, 3083, 658, 3082
2120, 2144, 662, 3083, 3084
2121, 3239, 445, 288, 1433
2122, 1480, 2439, 3216, 3424
2123, 2592, 1522, 3302, 2012
2124, 1478, 2731, 973, 2699
2125, 1502, 1410, 1008, 1236
2126, 3417, 2318, 1315, 1399
2127, 630, 2869, 1993, 1299
2128, 823, 2645, 3382, 1976
2129, 3357, 3213, 2450, 3237
2130, 3382, 3307, 3327, 1771
2131, 1380, 2976, 430, 303
2132, 1815, 3406, 2734, 714
2133, 697, 434, 299, 3225
2134, 3323, 583, 2614, 659
2135, 2959, 659, 3325, 3348
2136, 673, 3524, 1373, 1363
2137, 3524, 652, 3507, 1373
2138, 3078, 696, 3434, 2509
2139, 690, 1354, 716, 2997
2140, 1355, 3093, 700, 3469
2141, 1368, 3255, 694, 2099
2142, 2525, 3301, 2700, 1158
2143, 3399, 3166, 3165, 1156
2144, 2188, 2370, 3313, 814
2145, 1348, 1340, 3322, 2620
2146, 3139, 1452, 1581, 2512
2147, 1810, 741, 462, 271
2148, 742, 3341, 1360, 3459
2149, 3125, 770, 459, 274
2150, 1988, 1545, 1143, 1753
2151, 1142, 1984, 1834, 3221
2152, 2875, 1843, 2945, 3393
2153, 2354, 3514, 2536, 1911
2154, 1164, 3019, 2505, 1979
2155, 1076, 1052, 1165, 2452
2156, 1450, 1518, 2496, 3118
2157, 3451, 3370, 1428, 1509
2158, 800, 3451, 1509, 1419
2159, 1418, 2842, 1387, 1758
2160, 1155, 1154, 1233, 1157
2161, 1942, 1609, 3482, 1124
2162, 2041, 3048, 3097, 2305
2163, 1527, 3000, 2789, 2701
2164, 2362, 3092, 1355, 2607
2165, 1691, 1690, 431, 302
2166, 2099, 694, 1479, 1379
2167, 3430, 1871, 3026, 1369
2168, 3230, 2817, 824, 3391
2169, 3315, 2443, 806, 2446
2170, 847, 2646, 3364, 2967
2171, 2890, 2888, 604, 2104
2172, 2944, 3008, 660, 3200
2173, 671, 3288, 3347, 2958
2174, 2309, 2634, 778, 674
2175, 2437, 2540, 2704, 734
2176, 2450, 2547, 852, 870
2177, 2532, 3478, 853, 3024
2178, 856, 844, 831, 1406
2179, 3423, 3368, 578, 2196
2180, 1122, 3386, 1152, 3000
2181, 1148, 1124, 2179, 1358
2182, 3120, 3408, 2165, 1150
2183, 1054, 2381, 1533, 1807
2184, 3002, 1856, 3268, 3183
2185, 2022, 1184, 1546, 3527
2186, 3528, 2024, 1844, 2875
2187, 3468, 2904, 913, 1017
2188, 2430, 1003, 1010, 1860
2189, 788, 3111, 3112, 2955
2190, 2955, 3112, 1701, 598
2191, 3112, 2240, 599, 1701
2192, 3111, 787, 2240, 3112
2193, 982, 927, 2374, 614
2194, 1221, 2696, 933, 2899
2195, 1312, 611, 3418, 2500
2196, 2506, 91, 79, 2905
2197, 2651, 3289, 1080, 1097
2198, 3262, 1035, 1457, 3289
2199, 1218, 2365, 1615, 2950
2200, 2654, 3116, 3373, 3310
2201, 1989, 532, 201, 2932
2202, 1183, 3107, 2022, 3527
2203, 2589, 2928, 535, 198
2204, 3603, 1826, 878, 2401
2205, 2709, 829, 3133, 3442
2206, 3174, 882, 1818, 3623
2207, 2066, 2490, 480, 253
2208, 1298, 912, 1805, 2869
2209, 980, 2899, 933, 1620
2210, 3417, 980, 1620, 2318
2211, 926, 3040, 1309, 985
2212, 1357, 3098, 3155, 1528
2213, 1155, 1216, 2163, 1154
2214, 631, 1932, 1031, 2644
2215, 1932, 2054, 2238, 1031
2216, 579, 1644, 162, 9
2217, 2049, 2052, 3080, 2642
2218, 1753, 1143, 2725, 1730
2219, 1134, 2040, 2909, 2026
2220, 1216, 1150, 2728, 3386
2221, 1096, 2331, 1100, 1382
2222, 640, 1189, 1637, 3415
2223, 1199, 1063, 3219, 3053
2224, 1304, 1554, 2355, 1049
2225, 3521, 2254, 990, 1503
2226, 2400, 2699, 1004, 3042
2227, 1504, 3580, 988, 986
2228, 1016, 2431, 3124, 2688
2229, 2544, 2920, 2511, 3126
2230, 3339, 1612, 2492, 770
2231, 2153, 3457, 2926, 3060
2232, 2418, 1904, 2786, 758
2233, 644, 1163, 3116, 1187
2234, 2918, 3385, 1182, 1290
2235, 3108, 2821, 1166, 1184
2236, 2797, 1900, 196, 536
2237, 1200, 2466, 1142, 3129
2238, 2671, 1179, 1883, 2653
2239, 1576, 3222, 2635, 2640
2240, 2084, 1473, 3003, 2531
2241, 1979, 2505, 1856, 3002
2242, 1911, 3002, 3183, 1472
2243, 3268, 3309, 3379, 3275
2244, 915, 635, 1236, 1008
2245, 1002, 2565, 3287, 2551
2246, 977, 630, 1299, 2681
2247, 1686, 2152, 3572, 625
2248, 2922, 3292, 3061, 795
2249, 3176, 775, 1868, 3029
2250, 3362, 747, 1581, 1452
2251, 785, 2825, 3044, 829
2252, 3426, 799, 790, 1337
2253, 829, 3044, 3043, 3133
2254, 2886, 883, 784, 1467
2255, 3378, 2694, 3388, 3579
2256, 3429, 2046, 2045, 1301
2257, 2294, 2298, 2046, 3429
2258, 1540, 3225, 3255, 1368
2259, 3208, 3402, 3209, 1722
2260, 3344, 3254, 1275, 3137
2261, 3525, 2300, 2376, 2375
2262, 2462, 1803, 1859, 2957
2263, 3011, 1481, 3292, 2922
2264, 2811, 2572, 3521, 1398
2265, 1496, 1235, 378, 355
2266, 928, 929, 3404, 2298
2267, 924, 1311, 3229, 2982
2268, 2928, 2796, 197, 535
2269, 3143, 3141, 1121, 1899
2270, 3142, 1167, 3141, 3143
2271, 1730, 2725, 1577, 2862
2272, 1569, 1491, 518, 215
2273, 1174, 2472, 207, 525
2274, 2929, 2940, 1525, 3630
2275, 3479, 2649, 1286, 3063
2276, 3370, 3218, 3602, 1428
2277, 2926, 764, 729, 2077
2278, 3420, 1761, 884, 1405
2279, 2491, 3335, 1705, 731
2280, 3516, 3515, 2876, 2878
2281, 3533, 1048, 1207, 3532
2282, 3278, 2586, 2212, 1074
2283, 3380, 1065, 2835, 3333
2284, 1356, 1125, 520, 213
2285, 1608, 1283, 3048, 2041
2286, 3097, 523, 210, 2305
2287, 3049, 1123, 3371, 1146
2288, 819, 2798, 2736, 812
2289, 1936, 2621, 3554, 1544
2290, 3251, 3252, 313, 419
2291, 2717, 3434, 698, 1579
2292, 2131, 2182, 705, 3157
2293, 1867, 2184, 3013, 3326
2294, 2126, 703, 2132, 3428
2295, 3161, 3160, 619, 2222
2296, 1891, 941, 3160, 3161
2297, 2153, 2939, 1765, 3457
2298, 2491, 2153, 3060, 1612
2299, 3163, 3162, 735, 2219
2300, 1453, 738, 3162, 3163
2301, 2669, 3075, 3247, 1007
2302, 1502, 1236, 3204, 1861
2303, 1390, 3164, 1012, 3110
2304, 1801, 2812, 2695, 989
2305, 1160, 1234, 3408, 3120
2306, 3213, 826, 2547, 2450
2307, 2393, 874, 864, 2617
2308, 837, 2463, 3407, 833
2309, 3481, 3170, 1526, 3458
2310, 648, 1635, 3055, 2892
2311, 2610, 2569, 2386, 1102
2312, 1036, 1713, 1783, 2365
2313, 3520, 2874, 2945, 2353
2314, 3118, 2496, 879, 2454
2315, 1816, 1881, 256, 476
2316, 1320, 1520, 780, 1839
2317, 3168, 3182, 2657, 1824
2318, 1474, 2359, 2439, 1480
2319, 3467, 2768, 767, 1225
2320, 2000, 895, 2963, 897
2321, 3505, 1446, 1220, 1079
2322, 650, 1068, 1444, 1198
2323, 1636, 3220, 2325, 3476
2324, 1117, 2676, 2378, 1493
2325, 2048, 540, 193, 1118
2326, 1116, 1117, 1493, 1371
2327, 1116, 1628, 2048, 1630
2328, 2850, 3087, 3074, 1411
2329, 3600, 1889, 1018, 1392
2330, 1502, 1861, 926, 2850
2331, 3580, 1887, 1298, 988
2332, 887, 908, 1450, 1951
2333, 2582, 2807, 797, 3134
2334, 3147, 749, 2100, 905
2335, 2359, 2419, 753, 2439
2336, 1612, 3060, 2612, 2492
2337, 3059, 3565, 3291, 756
2338, 1371, 3582, 2677, 2379
2339, 1375, 1535, 3095, 3277
2340, 3503, 1245, 1441, 2405
2341, 1605, 1607, 1627, 2380
2342, 2258, 1933, 3377, 1653
2343, 1021, 2858, 1930, 2683
2344, 3478, 1327, 2752, 853
2345, 3167, 1513, 869, 1921
2346, 844, 3375, 2465, 831
2347, 827, 2748, 1277, 2449
2348, 2265, 3517, 648, 2892
2349, 1403, 1402, 1507, 1708
2350, 1207, 1067, 640, 1726
2351, 3314, 1505, 1196, 1725
2352, 1791, 959, 2266, 1499
2353, 2067, 953, 1720, 1666
2354, 3192, 405, 328, 2096
2355, 2869, 1805, 3041, 1993
2356, 2231, 2981, 3381, 609
2357, 927, 2283, 2481, 2374
2358, 930, 2483, 982, 1351
2359, 2689, 3473, 1889, 3600
2360, 842, 2402, 805, 1287
2361, 2292, 1512, 873, 1850
2362, 873, 859, 832, 1850
2363, 1773, 2815, 3100, 1977
2364, 2751, 2753, 2817, 3230
2365, 2548, 3024, 2464, 866
2366, 2914, 2898, 1327, 3478
2367, 2841, 800, 1419, 1285
2368, 3609, 3608, 907, 2659
2369, 664, 3082, 3202, 3009
2370, 3009, 3202, 3200, 660
2371, 3202, 3201, 657, 3200
2372, 3082, 658, 3201, 3202
2373, 1855, 3245, 3346, 3562
2374, 1879, 1853, 2295, 918
2375, 917, 3561, 1014, 1201
2376, 1878, 2895, 2783, 608
2377, 1880, 1882, 1396, 877
2378, 1839, 780, 1397, 908
2379, 1427, 2347, 888, 886
2380, 3218, 1404, 2501, 3602
2381, 1262, 3589, 959, 1791
2382, 1558, 2268, 3031, 3207
2383, 956, 949, 3484, 934
2384, 2988, 1248, 948, 957
2385, 1690, 2608, 301, 431
2386, 1638, 1641, 1541, 2734
2387, 1751, 3077, 2977, 594
2388, 2772, 867, 3170, 3481
2389, 1513, 841, 1738, 869
2390, 3625, 1389, 3426, 3610
2391, 2496, 801, 2489, 879
2392, 1903, 672, 2571, 767
2393, 1364, 3424, 3216, 3091
2394, 652, 1362, 1364, 3507
2395, 763, 2819, 779, 2767
2396, 694, 300, 432, 1479
2397, 2997, 1721, 1692, 696
2398, 2134, 3157, 710, 1322
2399, 1951, 1450, 3118, 1949
2400, 2971, 3351, 893, 1404
2401, 2511, 2703, 2727, 1359
2402, 3602, 2501, 2581, 2348
2403, 3054, 1560, 1626, 651
2404, 3532, 1207, 1726, 3547
2405, 2831, 1087, 2388, 1197
2406, 1562, 3314, 1725, 1189
2407, 1495, 1113, 191, 541
2408, 3582, 2596, 1606, 1114
2409, 2458, 1167, 3142, 3312
2410, 1990, 1899, 1900, 2797
2411, 3604, 2474, 1200, 1483
2412, 1577, 1135, 1138, 2940
2413, 2856, 1213, 1187, 2855
2414, 911, 2661, 2698, 2903
2415, 2903, 2698, 2593, 916
2416, 3234, 2550, 2174, 2217
2417, 2662, 1477, 633, 634
2418, 2961, 1511, 1530, 906
2419, 730, 2613, 1706, 2787
2420, 2667, 2741, 2101, 2118
2421, 3159, 1580, 709, 719
2422, 2734, 1541, 3099, 714
2423, 3089, 1660, 2361, 1872
2424, 1797, 1752, 1750, 3402
2425, 606, 1203, 2313, 3205
2426, 2952, 1566, 1737, 1014
2427, 2978, 2537, 1041, 2980
2428, 2978, 2980, 1736, 3411
2429, 1560, 3190, 1188, 1626
2430, 1069, 2585, 2140, 1075
2431, 1063, 67, 57, 3219
2432, 1315, 1223, 2520, 2319
2433, 930, 3113, 1272, 2483
2434, 3564, 2226, 2537, 2978
2435, 2552, 622, 352, 380
2436, 1741, 500, 233, 859
2437, 2759, 2645, 823, 2315
2438, 1289, 1685, 1591, 855
2439, 1774, 2335, 2815, 1773
2440, 2816, 2674, 847, 802
2441, 3211, 2444, 3088, 1512
2442, 1742, 1230, 848, 2646
2443, 1252, 1778, 2106, 1366
2444, 708, 1539, 2510, 3254
2445, 1539, 1940, 1938, 2510
2446, 3274, 3293, 439, 294
2447, 3488, 2932, 1180, 2672
2448, 3272, 3480, 2637, 2466
2449, 2038, 2467, 3144, 1130
2450, 2026, 2909, 2908, 1140
2451, 1002, 629, 2749, 2565
2452, 2904, 3223, 911, 913
2453, 1629, 1370, 1113, 1495
2454, 3236, 3127, 1166, 2822
2455, 3235, 1163, 3127, 3236
2456, 858, 234, 498, 2912
2457, 2547, 827, 2449, 852
2458, 833, 3407, 2617, 2772
2459, 2395, 839, 875, 1915
2460, 3238, 1593, 1674, 1778
2461, 3256, 1902, 1308, 2011
2462, 2508, 2605, 685, 2870
2463, 2343, 3239, 1433, 695
2464, 3241, 247, 485, 2840
2465, 2748, 830, 841, 1277
2466, 830, 868, 1738, 841
2467, 3464, 889, 2964, 1338
2468, 1731, 369, 364, 2341
2469, 2428, 1458, 1446, 3505
2470, 1785, 1516, 3387, 2800
2471, 2226, 2297, 71, 61
2472, 3560, 3559, 607, 2297
2473, 1201, 1014, 1737, 2983
2474, 3411, 1736, 3203, 2228
2475, 1399, 1315, 2319, 3136
2476, 1030, 1033, 1490, 1210
2477, 1644, 3122, 367, 162
2478, 2669, 1007, 2868, 629
2479, 3217, 2344, 3338, 799
2480, 1961, 1825, 254, 478
2481, 968, 1412, 3249, 1835
2482, 1835, 3249, 3037, 967
2483, 3249, 3056, 946, 3037
2484, 1412, 969, 3056, 3249
2485, 2098, 592, 1849, 2130
2486, 1832, 3450, 309, 423
2487, 1333, 1867, 105, 115
2488, 2184, 3252, 3251, 3013
2489, 1709, 2473, 1696, 3628
2490, 1183, 3527, 1239, 3385
2491, 1144, 1168, 3526, 2576
2492, 3527, 1546, 644, 1239
2493, 2976, 1691, 302, 430
2494, 2997, 716, 2996, 1721
2495, 700, 3076, 1266, 2559
2496, 712, 298, 434, 697
2497, 1240, 2259, 1268, 2339
2498, 3292, 2962, 796, 3061
2499, 728, 3367, 1648, 680
2500, 2337, 2434, 2518, 2236
2501, 998, 2678, 649, 1036
2502, 2831, 2844, 1401, 1087
2503, 1517, 1515, 1507, 2986
2504, 2495, 1960, 798, 3173
2505, 780, 880, 2455, 1397
2506, 1520, 892, 880, 780
2507, 1726, 640, 3415, 3190
2508, 3123, 1624, 2845, 650
2509, 1196, 3545, 3476, 1561
2510, 1100, 3355, 3575, 2650
2511, 3611, 1949, 2087, 3624
2512, 1389, 1339, 2972, 3217
2513, 859, 233, 499, 832
2514, 1404, 893, 3096, 2501
2515, 895, 3623, 3168, 2963
2516, 1890, 2222, 2223, 617
2517, 2159, 2155, 2396, 1347
2518, 2158, 1249, 3265, 2018
2519, 1918, 1906, 1044, 2333
2520, 1096, 2713, 2678, 998
2521, 1933, 169, 563, 3377
2522, 1808, 2421, 1857, 1604
2523, 1062, 1060, 2085, 1963
2524, 1105, 2422, 2421, 1808
2525, 1193, 1076, 2422, 2086
2526, 879, 2489, 1961, 2350
2527, 2664, 903, 2668, 2648
2528, 3349, 3362, 1452, 3177
2529, 1467, 784, 1960, 2495
2530, 3144, 2576, 3232, 1694
2531, 3045, 2542, 1295, 3145
2532, 3221, 1834, 1178, 1171
2533, 2025, 3630, 2472, 1174
2534, 1403, 1199, 3053, 1402
2535, 3546, 3383, 1304, 3150
2536, 1306, 3046, 1553, 1505
2537, 1073, 1053, 3279, 1072
2538, 2339, 1268, 3394, 3240
2539, 682, 687, 2312, 2235
2540, 2027, 3465, 1522, 2592
2541, 2536, 1979, 3002, 1911
2542, 2086, 2422, 1105, 3309
2543, 1963, 2085, 1535, 1375
2544, 3493, 3497, 1052, 1377
2545, 2770, 2469, 546, 187
2546, 651, 1626, 3511, 3512
2547, 3279, 3294, 2584, 2836
2548, 2966, 3280, 2473, 1709
2549, 2589, 198, 534, 2553
2550, 3626, 1161, 2328, 2330
2551, 2472, 2954, 526, 207
2552, 965, 2763, 1697, 2093
2553, 1316, 620, 3404, 929
2554, 1456, 2208, 1790, 1270
2555, 2410, 404, 329, 2063
2556, 1256, 1536, 1699, 2411
2557, 940, 1558, 953, 2067
2558, 2412, 3281, 1257, 2879
2559, 1559, 1316, 929, 2907
2560, 49, 3337, 1727, 40
2561, 1624, 1708, 2891, 2845
2562, 1051, 1085, 3189, 3261
2563, 3544, 3543, 2487, 646
2564, 895, 1451, 3174, 3623
2565, 3132, 775, 3176, 3477
2566, 1481, 3132, 3477, 2477
2567, 913, 911, 2903, 3131
2568, 3164, 2595, 3359, 1012
2569, 2152, 383, 350, 3572
2570, 1018, 3571, 2910, 633
2571, 3288, 653, 678, 3347
2572, 2792, 661, 3008, 2944
2573, 731, 1448, 1763, 2939
2574, 3244, 2367, 1785, 1827
2575, 2650, 3575, 1515, 1517
2576, 2713, 1089, 2832, 2678
2577, 3188, 168, 564, 3506
2578, 2920, 793, 2703, 2511
2579, 2311, 2793, 2943, 676
2580, 3321, 3090, 2896, 1362
2581, 671, 2311, 676, 3288
2582, 2220, 267, 465, 2078
2583, 2461, 1251, 3341, 742
2584, 2794, 762, 2632, 1482
2585, 1596, 3452, 1954, 1953
2586, 1523, 1756, 440, 293
2587, 1969, 695, 3523, 587
2588, 680, 1648, 722, 3342
2589, 2491, 1613, 2493, 3335
2590, 3457, 1765, 1251, 2461
2591, 2439, 753, 2791, 3216
2592, 3334, 1072, 3151, 1317
2593, 2584, 3294, 2389, 1084
2594, 3294, 1381, 1086, 2389
2595, 1643, 3390, 2053, 2515
2596, 3187, 2050, 3490, 631
2597, 1219, 1218, 2950, 2441
2598, 3356, 1086, 1381, 1554
2599, 3541, 3540, 2846, 2351
2600, 41, 3539, 3337, 49
2601, 3286, 3539, 41, 50
2602, 1302, 2499, 3414, 1303
2603, 94, 82, 2694, 3378
2604, 1313, 1455, 1352, 2373
2605, 3474, 3071, 958, 2208
2606, 2094, 2211, 3474, 2199
2607, 1889, 1409, 3571, 1018
2608, 2069, 951, 2409, 1557
2609, 1156, 3165, 3301, 2525
2610, 3398, 1366, 2560, 2558
2611, 1779, 1594, 3465, 2027
2612, 2870, 1470, 1675, 1242
2613, 3452, 723, 2519, 684
2614, 786, 2826, 3305, 2274
2615, 2274, 3305, 3111, 788
2616, 3305, 3304, 787, 3111
2617, 2826, 790, 3304, 3305
2618, 1790, 1651, 2020, 2068
2619, 1666, 1720, 2062, 3283
2620, 1720, 957, 3032, 2062
2621, 3419, 2881, 85, 98
2622, 1461, 1741, 859, 873
2623, 3391, 824, 3316, 1206
2624, 846, 1231, 1230, 1742
2625, 1806, 3001, 2821, 3108
2626, 1112, 1808, 1604, 1471
2627, 1060, 1059, 2122, 2085
2628, 2422, 1076, 2452, 2421
2629, 1369, 305, 427, 1849
2630, 2130, 306, 426, 593
2631, 1322, 710, 311, 421
2632, 2133, 706, 704, 572
2633, 1694, 3232, 2966, 2795
2634, 1269, 2307, 2804, 2433
2635, 3523, 1952, 1468, 720
2636, 3599, 3586, 2881, 3419
2637, 1957, 1667, 3396, 1649
2638, 2408, 3007, 1700, 1958
2639, 955, 1649, 3284, 3598
2640, 1393, 2090, 2985, 2716
2641, 2008, 1631, 1634, 2936
2642, 2847, 2764, 2969, 2967
2643, 2031, 1877, 2848, 2008
2644, 3534, 3330, 1048, 3533
2645, 2486, 56, 67, 1063
2646, 3273, 1561, 1209, 3444
2647, 1209, 2325, 1070, 3519
2648, 849, 3067, 2674, 2816
2649, 3195, 2548, 866, 2404
2650, 2673, 1329, 3067, 849
2651, 848, 2888, 2890, 2889
2652, 658, 3318, 3319, 3201
2653, 3201, 3319, 2937, 657
2654, 3319, 3317, 653, 2937
2655, 3318, 655, 3317, 3319
2656, 3193, 2901, 1454, 3574
2657, 1652, 2094, 2199, 1500
2658, 3581, 2697, 2227, 921
2659, 3588, 1262, 1791, 1718
2660, 2793, 2792, 2944, 2943
2661, 1372, 2767, 1330, 3340
2662, 778, 3389, 1542, 669
2663, 2769, 2171, 1331, 1374
2664, 2736, 2369, 817, 1341
2665, 818, 3441, 3364, 2889
2666, 2638, 2890, 2104, 2933
2667, 3103, 2633, 1372, 1224
2668, 2634, 2938, 3389, 778
2669, 3250, 2134, 1324, 1425
2670, 3336, 1079, 1623, 3266
2671, 2405, 1441, 174, 558
2672, 3195, 1851, 3328, 2548
2673, 3445, 2690, 830, 2748
2674, 3134, 797, 2841, 2456
2675, 3613, 887, 1951, 3612
2676, 798, 1929, 1759, 2497
2677, 838, 1423, 2403, 860
2678, 3535, 3547, 1560, 3054
2679, 646, 2487, 2352, 1443
2680, 2605, 681, 1430, 685
2681, 3085, 655, 2805, 679
2682, 2398, 686, 1594, 1779
2683, 1240, 2027, 2592, 2259
2684, 3435, 2384, 1978, 1056
2685, 3334, 1317, 3380, 3405
2686, 3190, 3415, 3171, 1188
2687, 2353, 2945, 1843, 1061
2688, 1766, 773, 3565, 3059
2689, 3566, 2921, 3012, 792
2690, 901, 2961, 906, 2707
2691, 2775, 2239, 3439, 1020
2692, 1098, 1097, 2711, 3227
2693, 2778, 2867, 2720, 628
2694, 1931, 3361, 1644, 579
2695, 3456, 3505, 1079, 3336
2696, 3047, 2304, 645, 1746
2697, 2846, 52, 44, 1305
2698, 1747, 1746, 639, 2243
2699, 1389, 3217, 799, 3426
2700, 3304, 3338, 2241, 787
2701, 3338, 2344, 791, 2241
2702, 900, 2809, 1320, 1417
2703, 2512, 1581, 793, 2920
2704, 743, 1447, 3570, 741
2705, 1226, 3323, 659, 2959
2706, 3011, 2922, 3138, 2360
2707, 2357, 1804, 1803, 2462
2708, 2946, 2924, 2925, 1212
2709, 167, 2480, 1905, 566
2710, 2434, 1269, 2433, 2606
2711, 1674, 1593, 438, 295
2712, 1469, 2590, 442, 291
2713, 2363, 3028, 3027, 3210
2714, 588, 718, 2039, 1264
2715, 589, 3208, 588, 1276
2716, 688, 697, 3225, 1540
2717, 3343, 3137, 1723, 1639
2718, 690, 2609, 3344, 1354
2719, 3073, 915, 1008, 1015
2720, 3564, 3560, 2297, 2226
2721, 3559, 3558, 2803, 607
2722, 2769, 3215, 677, 2171
2723, 671, 1224, 670, 673
2724, 902, 2030, 1925, 904
2725, 1924, 902, 904, 3271
2726, 2739, 750, 2727, 2703
2727, 3080, 371, 362, 993
2728, 2867, 1488, 3384, 2865
2729, 1488, 3350, 1211, 3384
2730, 3217, 2972, 2346, 2344
2731, 894, 874, 2394, 1451
2732, 2972, 796, 2345, 2346
2733, 1928, 890, 1950, 2754
2734, 3607, 2806, 2488, 3606
2735, 2631, 2628, 3441, 818
2736, 2033, 1349, 2526, 3352
2737, 1394, 820, 2935, 1342
2738, 3538, 3537, 1066, 1724
2739, 1088, 3286, 50, 42
2740, 1554, 1381, 1053, 2355
2741, 658, 3083, 3354, 3318
2742, 3318, 3354, 2805, 655
2743, 3354, 2169, 656, 2805
2744, 3083, 662, 2169, 3354
2745, 1713, 3260, 1093, 1420
2746, 2845, 2891, 1085, 1051
2747, 2536, 3514, 2837, 1110
2748, 1725, 1196, 1561, 3273
2749, 2895, 75, 88, 2783
2750, 2980, 1041, 2230, 3226
2751, 2297, 607, 60, 71
2752, 1749, 2265, 2892, 3546
2753, 3536, 3535, 3054, 1440
2754, 3248, 2348, 890, 1928
2755, 2463, 3169, 828, 2656
2756, 1246, 2761, 950, 3030
2757, 1558, 3207, 2988, 953
2758, 3592, 613, 95, 83
2759, 937, 2097, 396, 337
2760, 1992, 1504, 986, 1862
2761, 2565, 2749, 3381, 2983
2762, 914, 2566, 3440, 3392
2763, 3463, 385, 348, 976
2764, 3013, 703, 1259, 3326
2765, 1425, 1333, 115, 106
2766, 2250, 3159, 719, 1971
2767, 1152, 1147, 2730, 2729
2768, 1155, 1157, 1217, 2623
2769, 1154, 3106, 2999, 1233
2770, 2858, 3296, 3081, 1930
2771, 2775, 3502, 997, 2239
2772, 3501, 993, 1384, 1733
2773, 3062, 2794, 1482, 2438
2774, 1481, 2477, 2962, 3292
2775, 3291, 3565, 775, 3132
2776, 2571, 2556, 2554, 1475
2777, 1227, 1000, 1027, 1614
2778, 1642, 2515, 992, 2050
2779, 2440, 3186, 3470, 2643
2780, 1645, 1344, 2684, 1489
2781, 1424, 2914, 3478, 2532
2782, 809, 2765, 811, 2007
2783, 2160, 1633, 2092, 2916
2784, 2750, 802, 2969, 2780
2785, 3508, 2769, 1374, 2942
2786, 1482, 2632, 2896, 3090
2787, 585, 1361, 652, 3524
2788, 2311, 1363, 2309, 2793
2789, 948, 1248, 3365, 3035
2790, 3035, 3365, 1997, 947
2791, 3365, 3160, 941, 1997
2792, 1248, 619, 3160, 3365
2793, 1722, 3485, 688, 718
2794, 2361, 1380, 303, 429
2795, 715, 713, 2362, 2995
2796, 1722, 3209, 3436, 3485
2797, 962, 2974, 3366, 3033
2798, 3033, 3366, 2277, 964
2799, 3366, 2323, 963, 2277
2800, 2974, 971, 2323, 3366
2801, 720, 1468, 3257, 1365
2802, 3238, 1970, 3274, 1593
2803, 2237, 682, 2235, 686
2804, 724, 1242, 2343, 1595
2805, 3100, 1206, 1205, 3198
2806, 2815, 3391, 1206, 3100
2807, 3316, 2673, 849, 2897
2808, 1231, 1328, 850, 1230
2809, 1170, 1991, 1133, 1136
2810, 1510, 2773, 2864, 1825
2811, 880, 1909, 2494, 2455
2812, 2087, 2454, 2808, 1881
2813, 2864, 2066, 253, 479
2814, 1284, 1941, 1492, 1234
2815, 1528, 3155, 1125, 1356
2816, 2162, 1356, 213, 519
2817, 2306, 2178, 2263, 1126
2818, 2316, 1408, 2655, 1743
2819, 1744, 2314, 495, 238
2820, 1743, 2655, 838, 1676
2821, 3357, 3237, 837, 840
2822, 1630, 2048, 1118, 1494
2823, 3472, 3236, 2822, 2377
2824, 3373, 3116, 1163, 3235
2825, 2786, 2079, 754, 758
2826, 2843, 769, 3062, 1766
2827, 736, 2255, 3374, 2114
2828, 2114, 3374, 3146, 737
2829, 3374, 3162, 738, 3146
2830, 2255, 735, 3162, 3374
2831, 852, 2449, 1277, 3196
2832, 1685, 2280, 1438, 1591
2833, 2465, 1735, 2279, 2402
2834, 2292, 1850, 1408, 2316
2835, 1167, 3178, 3376, 3141
2836, 3141, 3376, 2088, 1121
2837, 3376, 1863, 1120, 2088
2838, 3178, 1119, 1863, 3376
2839, 1672, 3266, 1245, 3503
2840, 1025, 999, 1918, 2562
2841, 3387, 172, 560, 2987
2842, 1868, 773, 2438, 1543
2843, 2612, 2077, 272, 460
2844, 740, 1611, 1449, 3175
2845, 1272, 93, 81, 1353
2846, 1352, 2982, 2901, 3193
2847, 2317, 3573, 2695, 910
2848, 3299, 3579, 2283, 927
2849, 1605, 2600, 2535, 1607
2850, 2453, 2381, 1054, 2534
2851, 1059, 2420, 1965, 2122
2852, 2601, 3275, 3276, 2451
2853, 1317, 3151, 2585, 1069
2854, 1065, 1273, 1071, 2835
2855, 1318, 3405, 1274, 2837
2856, 2459, 1108, 2600, 1605
2857, 2037, 3233, 2861, 2542
2858, 2795, 2966, 1709, 1137
2859, 1661, 2979, 1202, 1664
2860, 2979, 3563, 2231, 1202
2861, 2783, 88, 76, 2782
2862, 1977, 3100, 3198, 1975
2863, 1637, 3273, 3444, 3153
2864, 2892, 3055, 3383, 3546
2865, 1444, 1748, 1603, 3437
2866, 2550, 916, 2176, 2174
2867, 1386, 2682, 1931, 1732
2868, 2875, 1844, 1845, 1843
2869, 2653, 3142, 3143, 1177
2870, 1291, 1183, 3385, 2918
2871, 1150, 2165, 1147, 2728
2872, 1492, 2177, 1567, 2625
2873, 3631, 3020, 2853, 3369
2874, 2245, 3555, 3438, 3331
2875, 1517, 2986, 3395, 1090
2876, 1090, 3395, 1243, 2893
2877, 2293, 2907, 929, 928
2878, 765, 1543, 3090, 3321
2879, 3091, 3216, 2791, 3324
2880, 674, 778, 669, 2871
2881, 2775, 1020, 1228, 1034
2882, 2682, 2857, 3361, 1931
2883, 3499, 2683, 2440, 991
2884, 1735, 1592, 857, 2279
2885, 2897, 849, 2816, 3489
2886, 3627, 1695, 2852, 3626
2887, 2623, 2788, 3121, 1160
2888, 1216, 3386, 1122, 2163
2889, 1010, 3234, 2217, 2056
2890, 1019, 2549, 2430, 2719
2891, 3392, 3016, 2810, 1391
2892, 3253, 2874, 2878, 3107
2893, 2854, 1291, 2918, 2919
2894, 1596, 1901, 3332, 1267
2895, 2870, 685, 2308, 1470
2896, 1094, 3576, 2844, 2326
2897, 1615, 3172, 2712, 1506
2898, 1037, 2829, 2832, 1089
2899, 2409, 2063, 2210, 1557
2900, 966, 3594, 2407, 615
2901, 3396, 2207, 965, 932
2902, 2396, 2124, 1346, 1347
2903, 2126, 1345, 1259, 703
2904, 2125, 2397, 1891, 3161
2905, 2633, 763, 2767, 1372
2906, 2434, 2606, 1252, 2518
2907, 1595, 2343, 695, 1969
2908, 2370, 1254, 1966, 821
2909, 100, 110, 2221, 3031
2910, 3031, 2221, 619, 3207
2911, 3207, 619, 1248, 2988
2912, 2155, 316, 416, 2396
2913, 1323, 1971, 706, 2133
2914, 620, 3591, 931, 3404
2915, 1789, 3584, 2200, 1281
2916, 1649, 3396, 932, 3284
2917, 1541, 436, 297, 3099
2918, 1369, 3026, 428, 305
2919, 1692, 2044, 717, 698
2920, 2259, 683, 1640, 1268
2921, 2011, 1308, 441, 292
2922, 2318, 610, 1223, 1315
2923, 1302, 2506, 2905, 2499
2924, 3581, 1302, 1303, 920
2925, 1533, 2470, 1912, 2123
2926, 1070, 1073, 1072, 3334
2927, 713, 1276, 3092, 2362
2928, 716, 715, 2995, 2996
2929, 3328, 3372, 1424, 2532
2930, 3307, 2464, 1232, 3327
2931, 1771, 3327, 3315, 2814
2932, 1719, 3282, 3320, 3596
2933, 952, 2994, 1959, 938
2934, 2019, 330, 402, 618
2935, 3106, 2998, 3165, 3166
2936, 2929, 3630, 2025, 1484
2937, 3048, 2040, 2042, 3097
2938, 1759, 2647, 1466, 2490
2939, 2401, 2000, 897, 1760
2940, 3609, 2709, 3442, 3608
2941, 854, 2446, 3104, 1329
2942, 2533, 3423, 1328, 1231
2943, 3101, 1976, 2336, 2753
2944, 1184, 1166, 3127, 1546
2945, 1185, 2853, 3020, 2071
2946, 2333, 1044, 1622, 2385
2947, 3246, 2894, 1039, 2923
2948, 2980, 3226, 1878, 1736
2949, 2940, 1138, 1172, 1525
2950, 3129, 1142, 3221, 1754
2951, 1161, 3605, 1215, 3025
2952, 2681, 1299, 1618, 3180
2953, 2482, 3463, 976, 972
2954, 1687, 2681, 3180, 627
2955, 2500, 3418, 1313, 2194
2956, 1013, 1017, 2626, 1003
2957, 921, 2227, 90, 78
2958, 1068, 1051, 3261, 3297
2959, 3514, 3513, 1318, 2837
2960, 3448, 1845, 39, 48
2961, 3258, 656, 2010, 2338
2962, 1431, 1595, 1969, 3367
2963, 721, 692, 1646, 1432
2964, 1503, 990, 1005, 2399
2965, 1463, 1787, 1400, 1498
2966, 2431, 384, 349, 3124
2967, 2483, 3299, 927, 982
2968, 1301, 2045, 2193, 2195
2969, 3299, 1353, 3378, 3579
2970, 903, 776, 2667, 2668
2971, 945, 1652, 2201, 2262
2972, 3593, 3592, 83, 96
2973, 3581, 921, 2506, 1302
2974, 2836, 2584, 2586, 3278
2975, 1072, 3279, 2836, 3151
2976, 3405, 3380, 3333, 1274
2977, 3133, 3043, 3066, 1388
2978, 1451, 2394, 876, 3174
2979, 3014, 1894, 2251, 1332
2980, 3250, 707, 1258, 2131
2981, 407, 1326, 3422, 325
2982, 325, 3422, 1325, 408
2983, 1326, 963, 1325, 3422
2984, 3329, 1287, 1437, 3197
2985, 2336, 1771, 2814, 1460
2986, 2446, 806, 2533, 3104
2987, 3347, 678, 586, 3290
2988, 1613, 739, 2843, 2493
2989, 2134, 1322, 1821, 1324
2990, 3251, 419, 314, 2132
2991, 569, 1336, 3425, 163
2992, 163, 3425, 1335, 570
2993, 1336, 995, 1335, 3425
2994, 1427, 886, 2349, 1415
2995, 811, 3553, 1876, 1159
2996, 2630, 813, 602, 803
2997, 3553, 2036, 2009, 1876
2998, 1489, 2684, 2247, 996
2999, 2479, 1104, 1907, 2387
3000, 2158, 1250, 2155, 2159
3001, 416, 317, 2124, 2396
3002, 2158, 2018, 942, 943
3003, 2848, 2933, 1935, 1937
3004, 3550, 1632, 2622, 3156
3005, 2111, 2110, 2984, 2557
3006, 2901, 3298, 2949, 1454
3007, 1311, 3429, 1301, 3229
3008, 2521, 614, 3194, 3140
3009, 1659, 1871, 3430, 1265
3010, 3210, 3027, 3231, 702
3011, 690, 119, 131, 2609
3012, 1127, 1942, 1124, 1148
3013, 3408, 2625, 2624, 2165
3014, 1123, 522, 211, 3371
3015, 3525, 2375, 2545, 3102
3016, 3432, 1846, 3486, 2766
3017, 1532, 3011, 2360, 2921
3018, 3341, 3094, 732, 1360
3019, 1848, 1597, 583, 3323
3020, 1482, 3090, 1543, 2438
3021, 2508, 2870, 1242, 724
3022, 691, 1435, 681, 2605
3023, 3077, 3469, 689, 2977
3024, 3254, 2510, 2363, 1275
3025, 2182, 2250, 1971, 1323
3026, 1116, 1629, 1495, 1628
3027, 1494, 1118, 1865, 1119
3028, 1606, 2377, 2823, 3184
3029, 659, 2614, 675, 3325
3030, 2943, 2944, 3200, 657
3031, 2958, 3508, 2942, 3103
3032, 3001, 2504, 2824, 2821
3033, 2122, 1965, 1534, 3466
3034, 3276, 3069, 2603, 2471
3035, 3436, 3345, 712, 3485
3036, 2510, 1938, 3028, 2363
3037, 3461, 2830, 2610, 3262
3038, 3261, 3189, 3517, 2265
3039, 3297, 1749, 1421, 1748
3040, 1841, 87, 75, 2895
3041, 1564, 1852, 1040, 2539
3042, 2721, 1642, 2050, 3187
3043, 3295, 1033, 3350, 3390
3044, 2238, 1731, 2341, 2514
3045, 1428, 3602, 2348, 3248
3046, 1758, 1387, 2851, 2502
3047, 2810, 2812, 3204, 1391
3048, 2731, 1888, 2849, 973
3049, 3440, 1292, 3016, 3392
3050, 2781, 2738, 1936, 2014
3051, 2013, 2525, 1158, 1349
3052, 1466, 2710, 481, 252
3053, 2963, 3168, 1824, 3351
3054, 3199, 1427, 1415, 2807
3055, 912, 2680, 1476, 1805
3056, 2254, 1800, 2732, 990
3057, 1688, 386, 347, 2185
3058, 3540, 3228, 51, 43
3059, 3353, 2486, 1063, 1199
3060, 2829, 1026, 2828, 2832
3061, 3603, 2401, 1760, 1873
3062, 3625, 3609, 2659, 3619
3063, 2315, 823, 2444, 3211
3064, 1411, 3074, 3580, 1504
3065, 1799, 2498, 2811, 3443
3066, 968, 1414, 3447, 1412
3067, 1412, 3447, 1413, 969
3068, 1414, 970, 1413, 3447
3069, 2740, 771, 2666, 1314
3070, 2707, 906, 794, 3149
3071, 2754, 1950, 896, 2965
3072, 2501, 3096, 2887, 2581
3073, 3220, 1073, 1070, 2325
3074, 1603, 1306, 1505, 3314
3075, 2352, 2246, 54, 65
3076, 871, 3213, 3357, 2675
3077, 1591, 1438, 236, 496
3078, 719, 709, 2183, 1334
3079, 1425, 1324, 1823, 1333
3080, 2133, 572, 1426, 711
3081, 1882, 1758, 2502, 1396
3082, 684, 2519, 3028, 1938
3083, 683, 725, 1647, 1640
3084, 1640, 1647, 1431, 2818
3085, 3302, 1521, 3085, 1435
3086, 2338, 285, 447, 1757
3087, 3403, 2236, 1434, 2342
3088, 2279, 857, 1590, 1436
3089, 1592, 1743, 1676, 857
3090, 832, 499, 234, 858
3091, 1402, 3053, 3047, 1191
3092, 1748, 1421, 1306, 1603
3093, 1189, 1725, 3273, 1637
3094, 2562, 1445, 1920, 1078
3095, 3337, 1724, 2801, 1727
3096, 2367, 2334, 1516, 1785
3097, 2385, 1622, 1208, 1244
3098, 2365, 1783, 3172, 1615
3099, 998, 1036, 2365, 1218
3100, 3139, 792, 3177, 1452
3101, 2078, 465, 268, 2079
3102, 871, 1762, 826, 3213
3103, 3372, 835, 1278, 1424
3104, 2658, 1583, 1584, 2927
3105, 1500, 2408, 1958, 2992
3106, 3050, 3587, 1246, 2095
3107, 961, 2019, 618, 580
3108, 1732, 1931, 579, 2774
3109, 1104, 1022, 1621, 1907
3110, 1025, 2562, 1078, 3576
3111, 1741, 1461, 1288, 1819
3112, 2814, 3315, 2446, 854
3113, 3067, 846, 1742, 2674
3114, 3040, 2522, 2663, 1309
3115, 1995, 1497, 3109, 622
3116, 1299, 1993, 1994, 1618
3117, 1405, 884, 1882, 1880
3118, 891, 3206, 3264, 801
3119, 2657, 486, 247, 3241
3120, 1647, 724, 1595, 1431
3121, 2519, 2342, 3027, 3028
3122, 3257, 443, 290, 693
3123, 1807, 1533, 2123, 1108
3124, 3152, 1190, 1472, 1964
3125, 1052, 3497, 1058, 1165
3126, 3224, 3125, 274, 458
3127, 1448, 3566, 792, 3139
3128, 1007, 1030, 1210, 2868
3129, 2626, 3131, 2550, 3234
3130, 3074, 3601, 1887, 3580
3131, 1275, 2363, 3210, 2364
3132, 1225, 1475, 2704, 2540
3133, 1706, 1764, 1802, 768
3134, 1524, 3629, 3488, 1991
3135, 1710, 1755, 1134, 2026
3136, 1483, 1129, 1170, 1297
3137, 3526, 530, 203, 1485
3138, 1134, 1755, 2652, 1729
3139, 3350, 1033, 1030, 1211
3140, 916, 2593, 2175, 2176
3141, 1392, 1018, 633, 1477
3142, 2178, 2931, 2908, 2263
3143, 1126, 2263, 1283, 1608
3144, 1529, 1569, 3471, 2177
3145, 2047, 3583, 2458, 1956
3146, 1628, 1495, 541, 192
3147, 1994, 1995, 622, 2552
3148, 1310, 3573, 1221, 2899
3149, 625, 3572, 1689, 2960
3150, 1281, 940, 2067, 3401
3151, 973, 2849, 2813, 975
3152, 975, 2813, 2595, 3164
3153, 623, 1503, 2399, 1688
3154, 1191, 3047, 1746, 1747
3155, 3529, 1403, 1708, 1624
3156, 3437, 1603, 3314, 1562
3157, 3060, 2926, 2077, 2612
3158, 2491, 1612, 3339, 1613
3159, 2887, 3479, 3063, 1761
3160, 2664, 2838, 2961, 901
3161, 2664, 2648, 2064, 2838
3162, 2648, 2190, 2029, 2064
3163, 2546, 840, 2484, 2758
3164, 1436, 1590, 1289, 2436
3165, 2758, 2484, 3481, 3458
3166, 3188, 2570, 1714, 3243
3167, 3390, 3350, 1488, 2053
3168, 3575, 1085, 2891, 1515
3169, 2580, 562, 171, 2334
3170, 1458, 3244, 1827, 1446
3171, 3606, 2488, 1395, 3199
3172, 2502, 2851, 885, 3622
3173, 774, 865, 883, 2886
3174, 2818, 1431, 3367, 728
3175, 685, 1430, 1757, 2308
3176, 3629, 1989, 2932, 3488
3177, 1296, 1157, 1233, 1215
3178, 3182, 246, 486, 2657
3179, 2041, 2305, 1123, 3049
3180, 1608, 2041, 3049, 1610
3181, 732, 733, 757, 1904
3182, 747, 2706, 793, 1581
3183, 2668, 2667, 2118, 2117
3184, 741, 3570, 270, 462
3185, 739, 2541, 2613, 730
3186, 1107, 2471, 2529, 1057
3187, 1071, 1963, 1375, 2835
3188, 1068, 3297, 1748, 1444
3189, 3401, 2067, 1666, 2209
3190, 2989, 1719, 3596, 1280
3191, 2253, 1957, 1649, 955
3192, 708, 120, 132, 1539
3193, 3406, 2560, 1638, 2734
3194, 690, 2997, 696, 3078
3195, 3324, 2791, 2598, 761
3196, 2173, 1847, 1226, 1331
3197, 1361, 3321, 1362, 652
3198, 3156, 2622, 2034, 2161
3199, 3393, 2945, 2874, 3253
3200, 3631, 3369, 2474, 3604
3201, 2637, 1131, 1576, 1984
3202, 2888, 850, 2271, 604
3203, 1975, 3198, 1462, 1987
3204, 3500, 1032, 1028, 3295
3205, 3187, 631, 2644, 3363
3206, 2083, 1062, 1963, 1071
3207, 549, 184, 3492, 2420
3208, 183, 549, 2420, 1059
3209, 550, 183, 1059, 1060
3210, 182, 550, 1060, 1062
3211, 551, 182, 1062, 2083
3212, 2052, 361, 371, 3080
3213, 2775, 1645, 632, 3502
3214, 1028, 2946, 1212, 1490
3215, 2516, 2513, 1023, 2479
3216, 3122, 2643, 365, 367
3217, 2515, 2053, 2778, 992
3218, 2332, 3115, 1656, 1099
3219, 1783, 1934, 1098, 3172
3220, 1099, 1656, 2429, 2427
3221, 3486, 765, 3321, 1361
3222, 3454, 2356, 1190, 3152
3223, 1195, 3454, 3152, 3455
3224, 1442, 1195, 3455, 2877
3225, 3018, 1442, 2877, 1046
3226, 3516, 3018, 1046, 3515
3227, 1439, 3519, 3513, 1552
3228, 1376, 1439, 1552, 2356
3229, 3509, 1376, 2356, 3454
3230, 3510, 3509, 3454, 1195
3231, 3511, 3510, 1195, 1442
3232, 3512, 3511, 1442, 3018
3233, 3520, 3512, 3018, 3516
3234, 1798, 389, 344, 621
3235, 2194, 1313, 2373, 610
3236, 1367, 720, 1365, 1717
3237, 2016, 2310, 1307, 3303
3238, 3432, 2766, 3340, 1330
3239, 3525, 3432, 1330, 2302
3240, 2576, 3526, 1485, 3232
3241, 2636, 2671, 2587, 3410
3242, 2862, 2929, 1484, 3311
3243, 3528, 1238, 2853, 1185
3244, 3285, 3538, 3539, 3286
3245, 2485, 3285, 3286, 1088
3246, 2802, 2485, 1088, 3228
3247, 3541, 2802, 3228, 3540
3248, 1707, 3537, 3538, 3285
3249, 3263, 1707, 3285, 2485
3250, 1625, 3263, 2485, 2802
3251, 3542, 1625, 2802, 3541
3252, 1192, 3536, 3537, 1707
3253, 1422, 1192, 1707, 3263
3254, 1601, 1422, 3263, 1625
3255, 3543, 1601, 1625, 3542
3256, 2528, 3535, 3536, 1192
3257, 2327, 2528, 1192, 1422
3258, 647, 2327, 1422, 1601
3259, 3544, 647, 1601, 3543
3260, 3532, 3547, 3535, 2528
3261, 3533, 3532, 2528, 2327
3262, 3534, 3533, 2327, 647
3263, 3548, 3534, 647, 3544
3264, 2036, 3550, 3156, 2009
3265, 819, 2631, 1877, 2031
3266, 812, 2188, 814, 2765
3267, 3554, 2737, 506, 227
3268, 2702, 1767, 861, 2527
3269, 1158, 2700, 2702, 2527
3270, 3552, 2715, 2757, 2756
3271, 3322, 221, 511, 820
3272, 3558, 2296, 1011, 3557
3273, 1383, 1661, 3555, 1563
3274, 1043, 1383, 1563, 2296
3275, 3559, 1043, 2296, 3558
3276, 1293, 2979, 1661, 1383
3277, 2538, 1293, 1383, 1043
3278, 3560, 2538, 1043, 3559
3279, 2539, 3563, 2979, 1293
3280, 1564, 2539, 1293, 2538
3281, 3564, 1564, 2538, 3560
3282, 2491, 731, 2939, 2153
3283, 3102, 3176, 3029, 1846
3284, 739, 730, 769, 2843
3285, 775, 3565, 773, 1868
3286, 3109, 2960, 351, 381
3287, 2522, 1786, 1619, 2663
3288, 2373, 1352, 3193, 978
3289, 3140, 3194, 924, 1455
3290, 2332, 2385, 1244, 3115
3291, 1457, 1653, 1459, 1077
3292, 989, 2695, 3573, 1310
3293, 1476, 2688, 1686, 3072
3294, 1787, 979, 981, 1400
3295, 920, 1221, 3573, 2317
3296, 3581, 920, 2317, 3577
3297, 1628, 192, 540, 2048
3298, 1955, 1115, 3179, 2135
3299, 955, 3598, 954, 3594
3300, 945, 3585, 2094, 1652
3301, 3599, 1789, 3306, 2762
3302, 2880, 2411, 338, 394
3303, 616, 3590, 3591, 620
3304, 1959, 616, 620, 1316
3305, 938, 1959, 1316, 1559
3306, 3191, 938, 1559, 3039
3307, 3593, 3191, 3039, 3592
3308, 1650, 3051, 401, 332
3309, 3057, 3058, 949, 956
3310, 2097, 3006, 336, 396
3311, 1500, 2199, 1456, 2408
3312, 2408, 1456, 1270, 3007
3313, 3300, 2253, 966, 1263
3314, 3599, 3300, 1263, 3586
3315, 3572, 350, 382, 1689
3316, 2960, 1689, 382, 351
3317, 2839, 1839, 908, 887
3318, 3610, 3426, 1337, 785
3319, 1178, 2953, 1132, 1171
3320, 1297, 1170, 1136, 1547
3321, 1874, 3620, 749, 3147
3322, 898, 1874, 3147, 2708
3323, 2885, 898, 2708, 1416
3324, 745, 2885, 1416, 746
3325, 3119, 745, 746, 751
3326, 1999, 3119, 751, 3270
3327, 2583, 1999, 3270, 3568
3328, 1319, 2583, 3568, 744
3329, 881, 1319, 744, 2970
3330, 3621, 881, 2970, 795
3331, 3611, 3624, 3620, 1874
3332, 3612, 3611, 1874, 898
3333, 3613, 3612, 898, 2885
3334, 3614, 3613, 2885, 745
3335, 3615, 3614, 745, 3119
3336, 3616, 3615, 3119, 1999
3337, 3617, 3616, 1999, 2583
3338, 3618, 3617, 2583, 1319
3339, 3619, 3618, 1319, 881
3340, 3625, 3619, 881, 3621
3341, 1730, 2862, 3311, 1139
3342, 1753, 1730, 1139, 1884
3343, 1988, 1753, 1884, 2863
3344, 2930, 1988, 2863, 1169
3345, 1141, 2930, 1169, 1695
3346, 3631, 1141, 1695, 3627
*ELSET,ELSET=contact_source
139, 140, 141, 142, 143, 144, 145, 146, 147, 148, 
149, 150, 151, 152, 153, 154, 155, 156, 157, 158, 
159, 160, 
*ELSET,ELSET=contact_drain
47, 48, 49, 50, 51, 52, 53, 54, 55, 56, 
57, 58, 59, 60, 61, 62, 63, 64, 65, 66, 
67, 68, 
*ELSET,ELSET=probe_A
95, 96, 97, 98, 99, 100, 101, 102, 103, 104, 
105, 106, 107, 108, 109, 110, 111, 112, 113, 114, 
*ELSET,ELSET=probe_B
19, 20, 21, 22, 23, 24, 25, 26, 27, 28, 
*ELSET,ELSET=walls
1, 2, 3, 4, 5, 6, 7, 8, 9, 10, 
11, 12, 13, 14, 15, 16, 17, 18, 29, 30, 
31, 32, 33, 34, 35, 36, 37, 38, 39, 40, 
41, 42, 43, 44, 45, 46, 69, 70, 71, 72, 
73, 74, 75, 76, 77, 78, 79, 80, 81, 82, 
83, 84, 85, 86, 87, 88, 89, 90, 91, 92, 
93, 94, 115, 116, 117, 118, 119, 120, 121, 122, 
123, 124, 125, 126, 127, 128, 129, 130, 131, 132, 
133, 134, 135, 136, 137, 138, 161, 162, 163, 164, 
165, 166, 167, 168, 169, 170, 171, 172, 173, 174, 
175, 176, 177, 178, 179, 180, 181, 182, 183, 184, 
185, 186, 187, 188, 189, 190, 191, 192, 193, 194, 
195, 196, 197, 198, 199, 200, 201, 202, 203, 204, 
205, 206, 207, 208, 209, 210, 211, 212, 213, 214, 
215, 216, 217, 218, 219, 220, 221, 222, 223, 224, 
225, 226, 227, 228, 229, 230, 231, 232, 233, 234, 
235, 236, 237, 238, 239, 240, 241, 242, 243, 244, 
245, 246, 247, 248, 249, 250, 251, 252, 253, 254, 
255, 256, 257, 258, 259, 260, 261, 262, 263, 264, 
265, 266, 267, 268, 269, 270, 271, 272, 273, 274, 
275, 276, 277, 278, 279, 280, 281, 282, 283, 284, 
285, 286, 287, 288, 289, 290, 291, 292, 293, 294, 
295, 296, 297, 298, 299, 300, 301, 302, 303, 304, 
305, 306, 307, 308, 309, 310, 311, 312, 313, 314, 
315, 316, 317, 318, 319, 320, 321, 322, 323, 324, 
325, 326, 327, 328, 329, 330, 331, 332, 333, 334, 
335, 336, 337, 338, 339, 340, 341, 342, 343, 344, 
345, 346, 347, 348, 349, 350, 351, 352, 353, 354, 
355, 356, 357, 358, 359, 360, 361, 362, 363, 364, 
365, 366, 367, 368, 369, 370, 371, 372, 373, 374, 
375, 376, 377, 378, 379, 380, 381, 382, 383, 384, 
385, 386, 387, 388, 389, 390, 391, 392, 393, 394, 
395, 396, 397, 398, 399, 400, 401, 402, 403, 404, 
405, 406, 407, 408, 409, 410, 411, 412, 413, 414, 
415, 416, 417, 418, 419, 420, 421, 422, 423, 424, 
425, 426, 427, 428, 429, 430, 431, 432, 433, 434, 
435, 436, 437, 438, 439, 440, 441, 442, 443, 444, 
445, 446, 447, 448, 449, 450, 451, 452, 453, 454, 
455, 456, 457, 458, 459, 460, 461, 462, 463, 464, 
465, 466, 467, 468, 469, 470, 471, 472, 473, 474, 
475, 476, 477, 478, 479, 480, 481, 482, 483, 484, 
485, 486, 487, 488, 489, 490, 491, 492, 493, 494, 
495, 496, 497, 498, 499, 500, 501, 502, 503, 504, 
505, 506, 507, 508, 509, 510, 511, 512, 513, 514, 
515, 516, 517, 518, 519, 520, 521, 522, 523, 524, 
525, 526, 527, 528, 529, 530, 531, 532, 533, 534, 
535, 536, 537, 538, 539, 540, 541, 542, 543, 544, 
545, 546, 547, 548, 549, 550, 551, 552, 553, 554, 
555, 556, 557, 558, 559, 560, 561, 562, 563, 564, 
565, 566, 567, 568, 569, 570, 
*ELSET,ELSET=domain
571, 572, 573, 574, 575, 576, 577, 578, 579, 580, 
581, 582, 583, 584, 585, 586, 587, 588, 589, 590, 
591, 592, 593, 594, 595, 596, 597, 598, 599, 600, 
601, 602, 603, 604, 605, 606, 607, 608, 609, 610, 
611, 612, 613, 614, 615, 616, 617, 618, 619, 620, 
621, 622, 623, 624, 625, 626, 627, 628, 629, 630, 
631, 632, 633, 634, 635, 636, 637, 638, 639, 640, 
641, 642, 643, 644, 645, 646, 647, 648, 649, 650, 
651, 652, 653, 654, 655, 656, 657, 658, 659, 660, 
661, 662, 663, 664, 665, 666, 667, 668, 669, 670, 
671, 672, 673, 674, 675, 676, 677, 678, 679, 680, 
681, 682, 683, 684, 685, 686, 687, 688, 689, 690, 
691, 692, 693, 694, 695, 696, 697, 698, 699, 700, 
701, 702, 703, 704, 705, 706, 707, 708, 709, 710, 
711, 712, 713, 714, 715, 716, 717, 718, 719, 720, 
721, 722, 723, 724, 725, 726, 727, 728, 729, 730, 
731, 732, 733, 734, 735, 736, 737, 738, 739, 740, 
741, 742, 743, 744, 745, 746, 747, 748, 749, 750, 
751, 752, 753, 754, 755, 756, 757, 758, 759, 760, 
761, 762, 763, 764, 765, 766, 767, 768, 769, 770, 
771, 772, 773, 774, 775, 776, 777, 778, 779, 780, 
781, 782, 783, 784, 785, 786, 787, 788, 789, 790, 
791, 792, 793, 794, 795, 796, 797, 798, 799, 800, 
801, 802, 803, 804, 805, 806, 807, 808, 809, 810, 
811, 812, 813, 814, 815, 816, 817, 818, 819, 820, 
821, 822, 823, 824, 825, 826, 827, 828, 829, 830, 
831, 832, 833, 834, 835, 836, 837, 838, 839, 840, 
841, 842, 843, 844, 845, 846, 847, 848, 849, 850, 
851, 852, 853, 854, 855, 856, 857, 858, 859, 860, 
861, 862, 863, 864, 865, 866, 867, 868, 869, 870, 
871, 872, 873, 874, 875, 876, 877, 878, 879, 880, 
881, 882, 883, 884, 885, 886, 887, 888, 889, 890, 
891, 892, 893, 894, 895, 896, 897, 898, 899, 900, 
901, 902, 903, 904, 905, 906, 907, 908, 909, 910, 
911, 912, 913, 914, 915, 916, 917, 918, 919, 920, 
921, 922, 923, 924, 925, 926, 927, 928, 929, 930, 
931, 932, 933, 934, 935, 936, 937, 938, 939, 940, 
941, 942, 943, 944, 945, 946, 947, 948, 949, 950, 
951, 952, 953, 954, 955, 956, 957, 958, 959, 960, 
961, 962, 963, 964, 965, 966, 967, 968, 969, 970, 
971, 972, 973, 974, 975, 976, 977, 978, 979, 980, 
981, 982, 983, 984, 985, 986, 987, 988, 989, 990, 
991, 992, 993, 994, 995, 996, 997, 998, 999, 1000, 
1001, 1002, 1003, 1004, 1005, 1006, 1007, 1008, 1009, 1010, 
1011, 1012, 1013, 1014, 1015, 1016, 1017, 1018, 1019, 1020, 
1021, 1022, 1023, 1024, 1025, 1026, 1027, 1028, 1029, 1030, 
1031, 1032, 1033, 1034, 1035, 1036, 1037, 1038, 1039, 1040, 
1041, 1042, 1043, 1044, 1045, 1046, 1047, 1048, 1049, 1050, 
1051, 1052, 1053, 1054, 1055, 1056, 1057, 1058, 1059, 1060, 
1061, 1062, 1063, 1064, 1065, 1066, 1067, 1068, 1069, 1070, 
1071, 1072, 1073, 1074, 1075, 1076, 1077, 1078, 1079, 1080, 
1081, 1082, 1083, 1084, 1085, 1086, 1087, 1088, 1089, 1090, 
1091, 1092, 1093, 1094, 1095, 1096, 1097, 1098, 1099, 1100, 
1101, 1102, 1103, 1104, 1105, 1106, 1107, 1108, 1109, 1110, 
1111, 1112, 1113, 1114, 1115, 1116, 1117, 1118, 1119, 1120, 
1121, 1122, 1123, 1124, 1125, 1126, 1127, 1128, 1129, 1130, 
1131, 1132, 1133, 1134, 1135, 1136, 1137, 1138, 1139, 1140, 
1141, 1142, 1143, 1144, 1145, 1146, 1147, 1148, 1149, 1150, 
1151, 1152, 1153, 1154, 1155, 1156, 1157, 1158, 1159, 1160, 
1161, 1162, 1163, 1164, 1165, 1166, 1167, 1168, 1169, 1170, 
1171, 1172, 1173, 1174, 1175, 1176, 1177, 1178, 1179, 1180, 
1181, 1182, 1183, 1184, 1185, 1186, 1187, 1188, 1189, 1190, 
1191, 1192, 1193, 1194, 1195, 1196, 1197, 1198, 1199, 1200, 
1201, 1202, 1203, 1204, 1205, 1206, 1207, 1208, 1209, 1210, 
1211, 1212, 1213, 1214, 1215, 1216, 1217, 1218, 1219, 1220, 
1221, 1222, 1223, 1224, 1225, 1226, 1227, 1228, 1229, 1230, 
1231, 1232, 1233, 1234, 1235, 1236, 1237, 1238, 1239, 1240, 
1241, 1242, 1243, 1244, 1245, 1246, 1247, 1248, 1249, 1250, 
1251, 1252, 1253, 1254, 1255, 1256, 1257, 1258, 1259, 1260, 
1261, 1262, 1263, 1264, 1265, 1266, 1267, 1268, 1269, 1270, 
1271, 1272, 1273, 1274, 1275, 1276, 1277, 1278, 1279, 1280, 
1281, 1282, 1283, 1284, 1285, 1286, 1287, 1288, 1289, 1290, 
1291, 1292, 1293, 1294, 1295, 1296, 1297, 1298, 1299, 1300, 
1301, 1302, 1303, 1304, 1305, 1306, 1307, 1308, 1309, 1310, 
1311, 1312, 1313, 1314, 1315, 1316, 1317, 1318, 1319, 1320, 
1321, 1322, 1323, 1324, 1325, 1326, 1327, 1328, 1329, 1330, 
1331, 1332, 1333, 1334, 1335, 1336, 1337, 1338, 1339, 1340, 
1341, 1342, 1343, 1344, 1345, 1346, 1347, 1348, 1349, 1350, 
1351, 1352, 1353, 1354, 1355, 1356, 1357, 1358, 1359, 1360, 
1361, 1362, 1363, 1364, 1365, 1366, 1367, 1368, 1369, 1370, 
1371, 1372, 1373, 1374, 1375, 1376, 1377, 1378, 1379, 1380, 
1381, 1382, 1383, 1384, 1385, 1386, 1387, 1388, 1389, 1390, 
1391, 1392, 1393, 1394, 1395, 1396, 1397, 1398, 1399, 1400, 
1401, 1402, 1403, 1404, 1405, 1406, 1407, 1408, 1409, 1410, 
1411, 1412, 1413, 1414, 1415, 1416, 1417, 1418, 1419, 1420, 
1421, 1422, 1423, 1424, 1425, 1426, 1427, 1428, 1429, 1430, 
1431, 1432, 1433, 1434, 1435, 1436, 1437, 1438, 1439, 1440, 
1441, 1442, 1443, 1444, 1445, 1446, 1447, 1448, 1449, 1450, 
1451, 1452, 1453, 1454, 1455, 1456, 1457, 1458, 1459, 1460, 
1461, 1462, 1463, 1464, 1465, 1466, 1467, 1468, 1469, 1470, 
1471, 1472, 1473, 1474, 1475, 1476, 1477, 1478, 1479, 1480, 
1481, 1482, 1483, 1484, 1485, 1486, 1487, 1488, 1489, 1490, 
1491, 1492, 1493, 1494, 1495, 1496, 1497, 1498, 1499, 1500, 
1501, 1502, 1503, 1504, 1505, 1506, 1507, 1508, 1509, 1510, 
1511, 1512, 1513, 1514, 1515, 1516, 1517, 1518, 1519, 1520, 
1521, 1522, 1523, 1524, 1525, 1526, 1527, 1528, 1529, 1530, 
1531, 1532, 1533, 1534, 1535, 1536, 1537, 1538, 1539, 1540, 
1541, 1542, 1543, 1544, 1545, 1546, 1547, 1548, 1549, 1550, 
1551, 1552, 1553, 1554, 1555, 1556, 1557, 1558, 1559, 1560, 
1561, 1562, 1563, 1564, 1565, 1566, 1567, 1568, 1569, 1570, 
1571, 1572, 1573, 1574, 1575, 1576, 1577, 1578, 1579, 1580, 
1581, 1582, 1583, 1584, 1585, 1586, 1587, 1588, 1589, 1590, 
1591, 1592, 1593, 1594, 1595, 1596, 1597, 1598, 1599, 1600, 
1601, 1602, 1603, 1604, 1605, 1606, 1607, 1608, 1609, 1610, 
1611, 1612, 1613, 1614, 1615, 1616, 1617, 1618, 1619, 1620, 
1621, 1622, 1623, 1624, 1625, 1626, 1627, 1628, 1629, 1630, 
1631, 1632, 1633, 1634, 1635, 1636, 1637, 1638, 1639, 1640, 
1641, 1642, 1643, 1644, 1645, 1646, 1647, 1648, 1649, 1650, 
1651, 1652, 1653, 1654, 1655, 1656, 1657, 1658, 1659, 1660, 
1661, 1662, 1663, 1664, 1665, 1666, 1667, 1668, 1669, 1670, 
1671, 1672, 1673, 1674, 1675, 1676, 1677, 1678, 1679, 1680, 
1681, 1682, 1683, 1684, 1685, 1686, 1687, 1688, 1689, 1690, 
1691, 1692, 1693, 1694, 1695, 1696, 1697, 1698, 1699, 1700, 
1701, 1702, 1703, 1704, 1705, 1706, 1707, 1708, 1709, 1710, 
1711, 1712, 1713, 1714, 1715, 1716, 1717, 1718, 1719, 1720, 
1721, 1722, 1723, 1724, 1725, 1726, 1727, 1728, 1729, 1730, 
1731, 1732, 1733, 1734, 1735, 1736, 1737, 1738, 1739, 1740, 
1741, 1742, 1743, 1744, 1745, 1746, 1747, 1748, 1749, 1750, 
1751, 1752, 1753, 1754, 1755, 1756, 1757, 1758, 1759, 1760, 
1761, 1762, 1763, 1764, 1765, 1766, 1767, 1768, 1769, 1770, 
1771, 1772, 1773, 1774, 1775, 1776, 1777, 1778, 1779, 1780, 
1781, 1782, 1783, 1784, 1785, 1786, 1787, 1788, 1789, 1790, 
1791, 1792, 1793, 1794, 1795, 1796, 1797, 1798, 1799, 1800, 
1801, 1802, 1803, 1804, 1805, 1806, 1807, 1808, 1809, 1810, 
1811, 1812, 1813, 1814, 1815, 1816, 1817, 1818, 1819, 1820, 
1821, 1822, 1823, 1824, 1825, 1826, 1827, 1828, 1829, 1830, 
1831, 1832, 1833, 1834, 1835, 1836, 1837, 1838, 1839, 1840, 
1841, 1842, 1843, 1844, 1845, 1846, 1847, 1848, 1849, 1850, 
1851, 1852, 1853, 1854, 1855, 1856, 1857, 1858, 1859, 1860, 
1861, 1862, 1863, 1864, 1865, 1866, 1867, 1868, 1869, 1870, 
1871, 1872, 1873, 1874, 1875, 1876, 1877, 1878, 1879, 1880, 
1881, 1882, 1883, 1884, 1885, 1886, 1887, 1888, 1889, 1890, 
1891, 1892, 1893, 1894, 1895, 1896, 1897, 1898, 1899, 1900, 
1901, 1902, 1903, 1904, 1905, 1906, 1907, 1908, 1909, 1910, 
1911, 1912, 1913, 1914, 1915, 1916, 1917, 1918, 1919, 1920, 
1921, 1922, 1923, 1924, 1925, 1926, 1927, 1928, 1929, 1930, 
1931, 1932, 1933, 1934, 1935, 1936, 1937, 1938, 1939, 1940, 
1941, 1942, 1943, 1944, 1945, 1946, 1947, 1948, 1949, 1950, 
1951, 1952, 1953, 1954, 1955, 1956, 1957, 1958, 1959, 1960, 
1961, 1962, 1963, 1964, 1965, 1966, 1967, 1968, 1969, 1970, 
1971, 1972, 1973, 1974, 1975, 1976, 1977, 1978, 1979, 1980, 
1981, 1982, 1983, 1984, 1985, 1986, 1987, 1988, 1989, 1990, 
1991, 1992, 1993, 1994, 1995, 1996, 1997, 1998, 1999, 2000, 
2001, 2002, 2003, 2004, 2005, 2006, 2007, 2008, 2009, 2010, 
2011, 2012, 2013, 2014, 2015, 2016, 2017, 2018, 2019, 2020, 
2021, 2022, 2023, 2024, 2025, 2026, 2027, 2028, 2029, 2030, 
2031, 2032, 2033, 2034, 2035, 2036, 2037, 2038, 2039, 2040, 
2041, 2042, 2043, 2044, 2045, 2046, 2047, 2048, 2049, 2050, 
2051, 2052, 2053, 2054, 2055, 2056, 2057, 2058, 2059, 2060, 
2061, 2062, 2063, 2064, 2065, 2066, 2067, 2068, 2069, 2070, 
2071, 2072, 2073, 2074, 2075, 2076, 2077, 2078, 2079, 2080, 
2081, 2082, 2083, 2084, 2085, 2086, 2087, 2088, 2089, 2090, 
2091, 2092, 2093, 2094, 2095, 2096, 2097, 2098, 2099, 2100, 
2101, 2102, 2103, 2104, 2105, 2106, 2107, 2108, 2109, 2110, 
2111, 2112, 2113, 2114, 2115, 2116, 2117, 2118, 2119, 2120, 
2121, 2122, 2123, 2124, 2125, 2126, 2127, 2128, 2129, 2130, 
2131, 2132, 2133, 2134, 2135, 2136, 2137, 2138, 2139, 2140, 
2141, 2142, 2143, 2144, 2145, 2146, 2147, 2148, 2149, 2150, 
2151, 2152, 2153, 2154, 2155, 2156, 2157, 2158, 2159, 2160, 
2161, 2162, 2163, 2164, 2165, 2166, 2167, 2168, 2169, 2170, 
2171, 2172, 2173, 2174, 2175, 2176, 2177, 2178, 2179, 2180, 
2181, 2182, 2183, 2184, 2185, 2186, 2187, 2188, 2189, 2190, 
2191, 2192, 2193, 2194, 2195, 2196, 2197, 2198, 2199, 2200, 
2201, 2202, 2203, 2204, 2205, 2206, 2207, 2208, 2209, 2210, 
2211, 2212, 2213, 2214, 2215, 2216, 2217, 2218, 2219, 2220, 
2221, 2222, 2223, 2224, 2225, 2226, 2227, 2228, 2229, 2230, 
2231, 2232, 2233, 2234, 2235, 2236, 2237, 2238, 2239, 2240, 
2241, 2242, 2243, 2244, 2245, 2246, 2247, 2248, 2249, 2250, 
2251, 2252, 2253, 2254, 2255, 2256, 2257, 2258, 2259, 2260, 
2261, 2262, 2263, 2264, 2265, 2266, 2267, 2268, 2269, 2270, 
2271, 2272, 2273, 2274, 2275, 2276, 2277, 2278, 2279, 2280, 
2281, 2282, 2283, 2284, 2285, 2286, 2287, 2288, 2289, 2290, 
2291, 2292, 2293, 2294, 2295, 2296, 2297, 2298, 2299, 2300, 
2301, 2302, 2303, 2304, 2305, 2306, 2307, 2308, 2309, 2310, 
2311, 2312, 2313, 2314, 2315, 2316, 2317, 2318, 2319, 2320, 
2321, 2322, 2323, 2324, 2325, 2326, 2327, 2328, 2329, 2330, 
2331, 2332, 2333, 2334, 2335, 2336, 2337, 2338, 2339, 2340, 
2341, 2342, 2343, 2344, 2345, 2346, 2347, 2348, 2349, 2350, 
2351, 2352, 2353, 2354, 2355, 2356, 2357, 2358, 2359, 2360, 
2361, 2362, 2363, 2364, 2365, 2366, 2367, 2368, 2369, 2370, 
2371, 2372, 2373, 2374, 2375, 2376, 2377, 2378, 2379, 2380, 
2381, 2382, 2383, 2384, 2385, 2386, 2387, 2388, 2389, 2390, 
2391, 2392, 2393, 2394, 2395, 2396, 2397, 2398, 2399, 2400, 
2401, 2402, 2403, 2404, 2405, 2406, 2407, 2408, 2409, 2410, 
2411, 2412, 2413, 2414, 2415, 2416, 2417, 2418, 2419, 2420, 
2421, 2422, 2423, 2424, 2425, 2426, 2427, 2428, 2429, 2430, 
2431, 2432, 2433, 2434, 2435, 2436, 2437, 2438, 2439, 2440, 
2441, 2442, 2443, 2444, 2445, 2446, 2447, 2448, 2449, 2450, 
2451, 2452, 2453, 2454, 2455, 2456, 2457, 2458, 2459, 2460, 
2461, 2462, 2463, 2464, 2465, 2466, 2467, 2468, 2469, 2470, 
2471, 2472, 2473, 2474, 2475, 2476, 2477, 2478, 2479, 2480, 
2481, 2482, 2483, 2484, 2485, 2486, 2487, 2488, 2489, 2490, 
2491, 2492, 2493, 2494, 2495, 2496, 2497, 2498, 2499, 2500, 
2501, 2502, 2503, 2504, 2505, 2506, 2507, 2508, 2509, 2510, 
2511, 2512, 2513, 2514, 2515, 2516, 2517, 2518, 2519, 2520, 
2521, 2522, 2523, 2524, 2525, 2526, 2527, 2528, 2529, 2530, 
2531, 2532, 2533, 2534, 2535, 2536, 2537, 2538, 2539, 2540, 
2541, 2542, 2543, 2544, 2545, 2546, 2547, 2548, 2549, 2550, 
2551, 2552, 2553, 2554, 2555, 2556, 2557, 2558, 2559, 2560, 
2561, 2562, 2563, 2564, 2565, 2566, 2567, 2568, 2569, 2570, 
2571, 2572, 2573, 2574, 2575, 2576, 2577, 2578, 2579, 2580, 
2581, 2582, 2583, 2584, 2585, 2586, 2587, 2588, 2589, 2590, 
2591, 2592, 2593, 2594, 2595, 2596, 2597, 2598, 2599, 2600, 
2601, 2602, 2603, 2604, 2605, 2606, 2607, 2608, 2609, 2610, 
2611, 2612, 2613, 2614, 2615, 2616, 2617, 2618, 2619, 2620, 
2621, 2622, 2623, 2624, 2625, 2626, 2627, 2628, 2629, 2630, 
2631, 2632, 2633, 2634, 2635, 2636, 2637, 2638, 2639, 2640, 
2641, 2642, 2643, 2644, 2645, 2646, 2647, 2648, 2649, 2650, 
2651, 2652, 2653, 2654, 2655, 2656, 2657, 2658, 2659, 2660, 
2661, 2662, 2663, 2664, 2665, 2666, 2667, 2668, 2669, 2670, 
2671, 2672, 2673, 2674, 2675, 2676, 2677, 2678, 2679, 2680, 
2681, 2682, 2683, 2684, 2685, 2686, 2687, 2688, 2689, 2690, 
2691, 2692, 2693, 2694, 2695, 2696, 2697, 2698, 2699, 2700, 
2701, 2702, 2703, 2704, 2705, 2706, 2707, 2708, 2709, 2710, 
2711, 2712, 2713, 2714, 2715, 2716, 2717, 2718, 2719, 2720, 
2721, 2722, 2723, 2724, 2725, 2726, 2727, 2728, 2729, 2730, 
2731, 2732, 2733, 2734, 2735, 2736, 2737, 2738, 2739, 2740, 
2741, 2742, 2743, 2744, 2745, 2746, 2747, 2748, 2749, 2750, 
2751, 2752, 2753, 2754, 2755, 2756, 2757, 2758, 2759, 2760, 
2761, 2762, 2763, 2764, 2765, 2766, 2767, 2768, 2769, 2770, 
2771, 2772, 2773, 2774, 2775, 2776, 2777, 2778, 2779, 2780, 
2781, 2782, 2783, 2784, 2785, 2786, 2787, 2788, 2789, 2790, 
2791, 2792, 2793, 2794, 2795, 2796, 2797, 2798, 2799, 2800, 
2801, 2802, 2803, 2804, 2805, 2806, 2807, 2808, 2809, 2810, 
2811, 2812, 2813, 2814, 2815, 2816, 2817, 2818, 2819, 2820, 
2821, 2822, 2823, 2824, 2825, 2826, 2827, 2828, 2829, 2830, 
2831, 2832, 2833, 2834, 2835, 2836, 2837, 2838, 2839, 2840, 
2841, 2842, 2843, 2844, 2845, 2846, 2847, 2848, 2849, 2850, 
2851, 2852, 2853, 2854, 2855, 2856, 2857, 2858, 2859, 2860, 
2861, 2862, 2863, 2864, 2865, 2866, 2867, 2868, 2869, 2870, 
2871, 2872, 2873, 2874, 2875, 2876, 2877, 2878, 2879, 2880, 
2881, 2882, 2883, 2884, 2885, 2886, 2887, 2888, 2889, 2890, 
2891, 2892, 2893, 2894, 2895, 2896, 2897, 2898, 2899, 2900, 
2901, 2902, 2903, 2904, 2905, 2906, 2907, 2908, 2909, 2910, 
2911, 2912, 2913, 2914, 2915, 2916, 2917, 2918, 2919, 2920, 
2921, 2922, 2923, 2924, 2925, 2926, 2927, 2928, 2929, 2930, 
2931, 2932, 2933, 2934, 2935, 2936, 2937, 2938, 2939, 2940, 
2941, 2942, 2943, 2944, 2945, 2946, 2947, 2948, 2949, 2950, 
2951, 2952, 2953, 2954, 2955, 2956, 2957, 2958, 2959, 2960, 
2961, 2962, 2963, 2964, 2965, 2966, 2967, 2968, 2969, 2970, 
2971, 2972, 2973, 2974, 2975, 2976, 2977, 2978, 2979, 2980, 
2981, 2982, 2983, 2984, 2985, 2986, 2987, 2988, 2989, 2990, 
2991, 2992, 2993, 2994, 2995, 2996, 2997, 2998, 2999, 3000, 
3001, 3002, 3003, 3004, 3005, 3006, 3007, 3008, 3009, 3010, 
3011, 3012, 3013, 3014, 3015, 3016, 3017, 3018, 3019, 3020, 
3021, 3022, 3023, 3024, 3025, 3026, 3027, 3028, 3029, 3030, 
3031, 3032, 3033, 3034, 3035, 3036, 3037, 3038, 3039, 3040, 
3041, 3042, 3043, 3044, 3045, 3046, 3047, 3048, 3049, 3050, 
3051, 3052, 3053, 3054, 3055, 3056, 3057, 3058, 3059, 3060, 
3061, 3062, 3063, 3064, 3065, 3066, 3067, 3068, 3069, 3070, 
3071, 3072, 3073, 3074, 3075, 3076, 3077, 3078, 3079, 3080, 
3081, 3082, 3083, 3084, 3085, 3086, 3087, 3088, 3089, 3090, 
3091, 3092, 3093, 3094, 3095, 3096, 3097, 3098, 3099, 3100, 
3101, 3102, 3103, 3104, 3105, 3106, 3107, 3108, 3109, 3110, 
3111, 3112, 3113, 3114, 3115, 3116, 3117, 3118, 3119, 3120, 
3121, 3122, 3123, 3124, 3125, 3126, 3127, 3128, 3129, 3130, 
3131, 3132, 3133, 3134, 3135, 3136, 3137, 3138, 3139, 3140, 
3141, 3142, 3143, 3144, 3145, 3146, 3147, 3148, 3149, 3150, 
3151, 3152, 3153, 3154, 3155, 3156, 3157, 3158, 3159, 3160, 
3161, 3162, 3163, 3164, 3165, 3166, 3167, 3168, 3169, 3170, 
3171, 3172, 3173, 3174, 3175, 3176, 3177, 3178, 3179, 3180, 
3181, 3182, 3183, 3184, 3185, 3186, 3187, 3188, 3189, 3190, 
3191, 3192, 3193, 3194, 3195, 3196, 3197, 3198, 3199, 3200, 
3201, 3202, 3203, 3204, 3205, 3206, 3207, 3208, 3209, 3210, 
3211, 3212, 3213, 3214, 3215, 3216, 3217, 3218, 3219, 3220, 
3221, 3222, 3223, 3224, 3225, 3226, 3227, 3228, 3229, 3230, 
3231, 3232, 3233, 3234, 3235, 3236, 3237, 3238, 3239, 3240, 
3241, 3242, 3243, 3244, 3245, 3246, 3247, 3248, 3249, 3250, 
3251, 3252, 3253, 3254, 3255, 3256, 3257, 3258, 3259, 3260, 
3261, 3262, 3263, 3264, 3265, 3266, 3267, 3268, 3269, 3270, 
3271, 3272, 3273, 3274, 3275, 3276, 3277, 3278, 3279, 3280, 
3281, 3282, 3283, 3284, 3285, 3286, 3287, 3288, 3289, 3290, 
3291, 3292, 3293, 3294, 3295, 3296, 3297, 3298, 3299, 3300, 
3301, 3302, 3303, 3304, 3305, 3306, 3307, 3308, 3309, 3310, 
3311, 3312, 3313, 3314, 3315, 3316, 3317, 3318, 3319, 3320, 
3321, 3322, 3323, 3324, 3325, 3326, 3327, 3328, 3329, 3330, 
3331, 3332, 3333, 3334, 3335, 3336, 3337, 3338, 3339, 3340, 
3341, 3342, 3343, 3344, 3345, 3346, 3347, 3348, 3349, 3350, 
3351, 3352, 3353, 3354, 3355, 3356, 3357, 3358, 3359, 3360, 
3361, 3362, 3363, 3364, 3365, 3366, 3367, 3368, 3369, 3370, 
3371, 3372, 3373, 3374, 3375, 3376, 3377, 3378, 3379, 3380, 
3381, 3382, 3383, 3384, 3385, 3386, 3387, 3388, 3389, 3390, 
3391, 3392, 3393, 3394, 3395, 3396, 3397, 3398, 3399, 3400, 
3401, 3402, 3403, 3404, 3405, 3406, 3407, 3408, 3409, 3410, 
3411, 3412, 3413, 3414, 3415, 3416, 3417, 3418, 3419, 3420, 
3421, 3422, 3423, 3424, 3425, 3426, 3427, 3428, 3429, 3430, 
3431, 3432, 3433, 3434, 3435, 3436, 3437, 3438, 3439, 3440, 
3441, 3442, 3443, 3444, 3445, 3446, 3447, 3448, 3449, 3450, 
3451, 3452, 3453, 3454, 3455, 3456, 3457, 3458, 3459, 3460, 
3461, 3462, 3463, 3464, 3465, 3466, 3467, 3468, 3469, 3470, 
3471, 3472, 3473, 3474, 3475, 3476, 3477, 3478, 3479, 3480, 
3481, 3482, 3483, 3484, 3485, 3486, 3487, 3488, 3489, 3490, 
3491, 3492, 3493, 3494, 3495, 3496, 3497, 3498, 3499, 3500, 
3501, 3502, 3503, 3504, 3505, 3506, 3507, 3508, 3509, 3510, 
3511, 3512, 3513, 3514, 3515, 3516, 3517, 3518, 3519, 3520, 
3521, 3522, 3523, 3524, 3525, 3526, 3527, 3528, 3529, 3530, 
3531, 3532, 3533, 3534, 3535, 3536, 3537, 3538, 3539, 3540, 
3541, 3542, 3543, 3544, 3545, 3546, 3547, 3548, 3549, 3550, 
3551, 3552, 3553, 3554, 3555, 3556, 3557, 3558, 3559, 3560, 
3561, 3562, 3563, 3564, 3565, 3566, 3567, 3568, 3569, 3570, 
3571, 3572, 3573, 3574, 3575, 3576, 3577, 3578, 3579, 3580, 
3581, 3582, 3583, 3584, 3585, 3586, 3587, 3588, 3589, 3590, 
3591, 3592, 3593, 3594, 3595, 3596, 3597, 3598, 3599, 3600, 
3601, 3602, 3603, 3604, 3605, 3606, 3607, 3608, 3609, 3610, 
3611, 3612, 3613, 3614, 3615, 3616, 3617, 3618, 3619, 3620, 
3621, 3622, 3623, 3624, 3625, 3626, 3627, 3628, 3629, 3630, 
3631, 3632, 3633, 3634, 3635, 3636, 3637, 3638, 3639, 3640, 
3641, 3642, 3643, 3644, 3645, 3646, 3647, 3648, 3649, 3650, 
3651, 3652, 3653, 3654, 3655, 3656, 3657, 3658, 3659, 3660, 
3661, 3662, 3663, 3664, 3665, 3666, 3667, 3668, 3669, 3670, 
3671, 3672, 3673, 3674, 3675, 3676, 3677, 3678, 3679, 3680, 
3681, 3682, 3683, 3684, 3685, 3686, 3687, 3688, 3689, 3690, 
3691, 3692, 3693, 3694, 3695, 3696, 3697, 3698, 3699, 3700, 
3701, 3702, 3703, 3704, 3705, 3706, 3707, 3708, 3709, 3710, 
3711, 3712, 3713, 3714, 3715, 3716, 3717, 3718, 3719, 3720, 
3721, 3722, 3723, 3724, 3725, 3726, 3727, 3728, 3729, 3730, 
3731, 3732, 3733, 3734, 3735, 3736, 3737, 3738, 3739, 3740, 
3741, 3742, 3743, 3744, 3745, 3746, 3747, 3748, 3749, 3750, 
3751, 3752, 3753, 3754, 3755, 3756, 3757, 3758, 3759, 3760, 
3761, 3762, 3763, 3764, 3765, 3766, 3767, 3768, 3769, 3770, 
3771, 3772, 3773, 3774, 3775, 3776, 3777, 3778, 3779, 3780, 
3781, 3782, 3783, 3784, 3785, 3786, 3787, 3788, 3789, 3790, 
3791, 3792, 3793, 3794, 3795, 3796, 3797, 3798, 3799, 3800, 
3801, 3802, 3803, 3804, 3805, 3806, 3807, 3808, 3809, 3810, 
3811, 3812, 3813, 3814, 3815, 3816, 3817, 3818, 3819, 3820, 
3821, 3822, 3823, 3824, 3825, 3826, 3827, 3828, 3829, 3830, 
3831, 3832, 3833, 3834, 3835, 3836, 3837, 3838, 3839, 3840, 
3841, 3842, 3843, 3844, 3845, 3846, 3847, 3848, 3849, 3850, 
3851, 3852, 3853, 3854, 3855, 3856, 3857, 3858, 3859, 3860, 
3861, 3862, 3863, 3864, 3865, 3866, 3867, 3868, 3869, 3870, 
3871, 3872, 3873, 3874, 3875, 3876, 3877, 3878, 3879, 3880, 
3881, 3882, 3883, 3884, 3885, 3886, 3887, 3888, 3889, 3890, 
3891, 3892, 3893, 3894, 3895, 3896, 3897, 3898, 3899, 3900, 
3901, 3902, 3903, 3904, 3905, 3906, 3907, 3908, 3909, 3910, 
3911, 3912, 3913, 3914, 3915, 3916, 
*NSET,NSET=contact_source
1, 8, 141, 142, 143, 144, 145, 146, 147, 148, 
149, 150, 151, 152, 153, 154, 155, 156, 157, 158, 
159, 160, 161, 
*NSET,NSET=contact_drain
4, 5, 53, 54, 55, 56, 57, 58, 59, 60, 
61, 62, 63, 64, 65, 66, 67, 68, 69, 70, 
71, 72, 73, 
*NSET,NSET=probe_A
6, 7, 99, 100, 101, 102, 103, 104, 105, 106, 
107, 108, 109, 110, 111, 112, 113, 114, 115, 116, 
117, 
*NSET,NSET=probe_B
2, 3, 27, 28, 29, 30, 31, 32, 33, 34, 
35, 
*NSET,NSET=walls
1, 2, 3, 4, 5, 6, 7, 8, 9, 10, 
11, 12, 13, 14, 15, 16, 17, 18, 19, 20, 
21, 22, 23, 24, 25, 26, 36, 37, 38, 39, 
40, 41, 42, 43, 44, 45, 46, 47, 48, 49, 
50, 51, 52, 74, 75, 76, 77, 78, 79, 80, 
81, 82, 83, 84, 85, 86, 87, 88, 89, 90, 
91, 92, 93, 94, 95, 96, 97, 98, 118, 119, 
120, 121, 122, 123, 124, 125, 126, 127, 128, 129, 
130, 131, 132, 133, 134, 135, 136, 137, 138, 139, 
140, 162, 163, 164, 165, 166, 167, 168, 169, 170, 
171, 172, 173, 174, 175, 176, 177, 178, 179, 180, 
181, 182, 183, 184, 185, 186, 187, 188, 189, 190, 
191, 192, 193, 194, 195, 196, 197, 198, 199, 200, 
201, 202, 203, 204, 205, 206, 207, 208, 209, 210, 
211, 212, 213, 214, 215, 216, 217, 218, 219, 220, 
221, 222, 223, 224, 225, 226, 227, 228, 229, 230, 
231, 232, 233, 234, 235, 236, 237, 238, 239, 240, 
241, 242, 243, 244, 245, 246, 247, 248, 249, 250, 
251, 252, 253, 254, 255, 256, 257, 258, 259, 260, 
261, 262, 263, 264, 265, 266, 267, 268, 269, 270, 
271, 272, 273, 274, 275, 276, 277, 278, 279, 280, 
281, 282, 283, 284, 285, 286, 287, 288, 289, 290, 
291, 292, 293, 294, 295, 296, 297, 298, 299, 300, 
301, 302, 303, 304, 305, 306, 307, 308, 309, 310, 
311, 312, 313, 314, 315, 316, 317, 318, 319, 320, 
321, 322, 323, 324, 325, 326, 327, 328, 329, 330, 
331, 332, 333, 334, 335, 336, 337, 338, 339, 340, 
341, 342, 343, 344, 345, 346, 347, 348, 349, 350, 
351, 352, 353, 354, 355, 356, 357, 358, 359, 360, 
361, 362, 363, 364, 365, 366, 367, 368, 369, 370, 
371, 372, 373, 374, 375, 376, 377, 378, 379, 380, 
381, 382, 383, 384, 385, 386, 387, 388, 389, 390, 
391, 392, 393, 394, 395, 396, 397, 398, 399, 400, 
401, 402, 403, 404, 405, 406, 407, 408, 409, 410, 
411, 412, 413, 414, 415, 416, 417, 418, 419, 420, 
421, 422, 423, 424, 425, 426, 427, 428, 429, 430, 
431, 432, 433, 434, 435, 436, 437, 438, 439, 440, 
441, 442, 443, 444, 445, 446, 447, 448, 449, 450, 
451, 452, 453, 454, 455, 456, 457, 458, 459, 460, 
461, 462, 463, 464, 465, 466, 467, 468, 469, 470, 
471, 472, 473, 474, 475, 476, 477, 478, 479, 480, 
481, 482, 483, 484, 485, 486, 487, 488, 489, 490, 
491, 492, 493, 494, 495, 496, 497, 498, 499, 500, 
501, 502, 503, 504, 505, 506, 507, 508, 509, 510, 
511, 512, 513, 514, 515, 516, 517, 518, 519, 520, 
521, 522, 523, 524, 525, 526, 527, 528, 529, 530, 
531, 532, 533, 534, 535, 536, 537, 538, 539, 540, 
541, 542, 543, 544, 545, 546, 547, 548, 549, 550, 
551, 552, 553, 554, 555, 556, 557, 558, 559, 560, 
561, 562, 563, 564, 565, 566, 567, 568, 569, 570, 
*NSET,NSET=domain
1, 2, 3, 4, 5, 6, 7, 8, 9, 10, 
11, 12, 13, 14, 15, 16, 17, 18, 19, 20, 
21, 22, 23, 24, 25, 26, 27, 28, 29, 30, 
31, 32, 33, 34, 35, 36, 37, 38, 39, 40, 
41, 42, 43, 44, 45, 46, 47, 48, 49, 50, 
51, 52, 53, 54, 55, 56, 57, 58, 59, 60, 
61, 62, 63, 64, 65, 66, 67, 68, 69, 70, 
71, 72, 73, 74, 75, 76, 77, 78, 79, 80, 
81, 82, 83, 84, 85, 86, 87, 88, 89, 90, 
91, 92, 93, 94, 95, 96, 97, 98, 99, 100, 
101, 102, 103, 104, 105, 106, 107, 108, 109, 110, 
111, 112, 113, 114, 115, 116, 117, 118, 119, 120, 
121, 122, 123, 124, 125, 126, 127, 128, 129, 130, 
131, 132, 133, 134, 135, 136, 137, 138, 139, 140, 
141, 142, 143, 144, 145, 146, 147, 148, 149, 150, 
151, 152, 153, 154, 155, 156, 157, 158, 159, 160, 
161, 162, 163, 164, 165, 166, 167, 168, 169, 170, 
171, 172, 173, 174, 175, 176, 177, 178, 179, 180, 
181, 182, 183, 184, 185, 186, 187, 188, 189, 190, 
191, 192, 193, 194, 195, 196, 197, 198, 199, 200, 
201, 202, 203, 204, 205, 206, 207, 208, 209, 210, 
211, 212, 213, 214, 215, 216, 217, 218, 219, 220, 
221, 222, 223, 224, 225, 226, 227, 228, 229, 230, 
231, 232, 233, 234, 235, 236, 237, 238, 239, 240, 
241, 242, 243, 244, 245, 246, 247, 248, 249, 250, 
251, 252, 253, 254, 255, 256, 257, 258, 259, 260, 
261, 262, 263, 264, 265, 266, 267, 268, 269, 270, 
271, 272, 273, 274, 275, 276, 277, 278, 279, 280, 
281, 282, 283, 284, 285, 286, 287, 288, 289, 290, 
291, 292, 293, 294, 295, 296, 297, 298, 299, 300, 
301, 302, 303, 304, 305, 306, 307, 308, 309, 310, 
311, 312, 313, 314, 315, 316, 317, 318, 319, 320, 
321, 322, 323, 324, 325, 326, 327, 328, 329, 330, 
331, 332, 333, 334, 335, 336, 337, 338, 339, 340, 
341, 342, 343, 344, 345, 346, 347, 348, 349, 350, 
351, 352, 353, 354, 355, 356, 357, 358, 359, 360, 
361, 362, 363, 364, 365, 366, 367, 368, 369, 370, 
371, 372, 373, 374, 375, 376, 377, 378, 379, 380, 
381, 382, 383, 384, 385, 386, 387, 388, 389, 390, 
391, 392, 393, 394, 395, 396, 397, 398, 399, 400, 
401, 402, 403, 404, 405, 406, 407, 408, 409, 410, 
411, 412, 413, 414, 415, 416, 417, 418, 419, 420, 
421, 422, 423, 424, 425, 426, 427, 428, 429, 430, 
431, 432, 433, 434, 435, 436, 437, 438, 439, 440, 
441, 442, 443, 444, 445, 446, 447, 448, 449, 450, 
451, 452, 453, 454, 455, 456, 457, 458, 459, 460, 
461, 462, 463, 464, 465, 466, 467, 468, 469, 470, 
471, 472, 473, 474, 475, 476, 477, 478, 479, 480, 
481, 482, 483, 484, 485, 486, 487, 488, 489, 490, 
491, 492, 493, 494, 495, 496, 497, 498, 499, 500, 
501, 502, 503, 504, 505, 506, 507, 508, 509, 510, 
511, 512, 513, 514, 515, 516, 517, 518, 519, 520, 
521, 522, 523, 524, 525, 526, 527, 528, 529, 530, 
531, 532, 533, 534, 535, 536, 537, 538, 539, 540, 
541, 542, 543, 544, 545, 546, 547, 548, 549, 550, 
551, 552, 553, 554, 555, 556, 557, 558, 559, 560, 
561, 562, 563, 564, 565, 566, 567, 568, 569, 570, 
571, 572, 573, 574, 575, 576, 577, 578, 579, 580, 
581, 582, 583, 584, 585, 586, 587, 588, 589, 590, 
591, 592, 593, 594, 595, 596, 597, 598, 599, 600, 
601, 602, 603, 604, 605, 606, 607, 608, 609, 610, 
611, 612, 613, 614, 615, 616, 617, 618, 619, 620, 
621, 622, 623, 624, 625, 626, 627, 628, 629, 630, 
631, 632, 633, 634, 635, 636, 637, 638, 639, 640, 
641, 642, 643, 644, 645, 646, 647, 648, 649, 650, 
651, 652, 653, 654, 655, 656, 657, 658, 659, 660, 
661, 662, 663, 664, 665, 666, 667, 668, 669, 670, 
671, 672, 673, 674, 675, 676, 677, 678, 679, 680, 
681, 682, 683, 684, 685, 686, 687, 688, 689, 690, 
691, 692, 693, 694, 695, 696, 697, 698, 699, 700, 
701, 702, 703, 704, 705, 706, 707, 708, 709, 710, 
711, 712, 713, 714, 715, 716, 717, 718, 719, 720, 
721, 722, 723, 724, 725, 726, 727, 728, 729, 730, 
731, 732, 733, 734, 735, 736, 737, 738, 739, 740, 
741, 742, 743, 744, 745, 746, 747, 748, 749, 750, 
751, 752, 753, 754, 755, 756, 757, 758, 759, 760, 
761, 762, 763, 764, 765, 766, 767, 768, 769, 770, 
771, 772, 773, 774, 775, 776, 777, 778, 779, 780, 
781, 782, 783, 784, 785, 786, 787, 788, 789, 790, 
791, 792, 793, 794, 795, 796, 797, 798, 799, 800, 
801, 802, 803, 804, 805, 806, 807, 808, 809, 810, 
811, 812, 813, 814, 815, 816, 817, 818, 819, 820, 
821, 822, 823, 824, 825, 826, 827, 828, 829, 830, 
831, 832, 833, 834, 835, 836, 837, 838, 839, 840, 
841, 842, 843, 844, 845, 846, 847, 848, 849, 850, 
851, 852, 853, 854, 855, 856, 857, 858, 859, 860, 
861, 862, 863, 864, 865, 866, 867, 868, 869, 870, 
871, 872, 873, 874, 875, 876, 877, 878, 879, 880, 
881, 882, 883, 884, 885, 886, 887, 888, 889, 890, 
891, 892, 893, 894, 895, 896, 897, 898, 899, 900, 
901, 902, 903, 904, 905, 906, 907, 908, 909, 910, 
911, 912, 913, 914, 915, 916, 917, 918, 919, 920, 
921, 922, 923, 924, 925, 926, 927, 928, 929, 930, 
931, 932, 933, 934, 935, 936, 937, 938, 939, 940, 
941, 942, 943, 944, 945, 946, 947, 948, 949, 950, 
951, 952, 953, 954, 955, 956, 957, 958, 959, 960, 
961, 962, 963, 964, 965, 966, 967, 968, 969, 970, 
971, 972, 973, 974, 975, 976, 977, 978, 979, 980, 
981, 982, 983, 984, 985, 986, 987, 988, 989, 990, 
991, 992, 993, 994, 995, 996, 997, 998, 999, 1000, 
1001, 1002, 1003, 1004, 1005, 1006, 1007, 1008, 1009, 1010, 
1011, 1012, 1013, 1014, 1015, 1016, 1017, 1018, 1019, 1020, 
1021, 1022, 1023, 1024, 1025, 1026, 1027, 1028, 1029, 1030, 
1031, 1032, 1033, 1034, 1035, 1036, 1037, 1038, 1039, 1040, 
1041, 1042, 1043, 1044, 1045, 1046, 1047, 1048, 1049, 1050, 
1051, 1052, 1053, 1054, 1055, 1056, 1057, 1058, 1059, 1060, 
1061, 1062, 1063, 1064, 1065, 1066, 1067, 1068, 1069, 1070, 
1071, 1072, 1073, 1074, 1075, 1076, 1077, 1078, 1079, 1080, 
1081, 1082, 1083, 1084, 1085, 1086, 1087, 1088, 1089, 1090, 
1091, 1092, 1093, 1094, 1095, 1096, 1097, 1098, 1099, 1100, 
1101, 1102, 1103, 1104, 1105, 1106, 1107, 1108, 1109, 1110, 
1111, 1112, 1113, 1114, 1115, 1116, 1117, 1118, 1119, 1120, 
1121, 1122, 1123, 1124, 1125, 1126, 1127, 1128, 1129, 1130, 
1131, 1132, 1133, 1134, 1135, 1136, 1137, 1138, 1139, 1140, 
1141, 1142, 1143, 1144, 1145, 1146, 1147, 1148, 1149, 1150, 
1151, 1152, 1153, 1154, 1155, 1156, 1157, 1158, 1159, 1160, 
1161, 1162, 1163, 1164, 1165, 1166, 1167, 1168, 1169, 1170, 
1171, 1172, 1173, 1174, 1175, 1176, 1177, 1178, 1179, 1180, 
1181, 1182, 1183, 1184, 1185, 1186, 1187, 1188, 1189, 1190, 
1191, 1192, 1193, 1194, 1195, 1196, 1197, 1198, 1199, 1200, 
1201, 1202, 1203, 1204, 1205, 1206, 1207, 1208, 1209, 1210, 
1211, 1212, 1213, 1214, 1215, 1216, 1217, 1218, 1219, 1220, 
1221, 1222, 1223, 1224, 1225, 1226, 1227, 1228, 1229, 1230, 
1231, 1232, 1233, 1234, 1235, 1236, 1237, 1238, 1239, 1240, 
1241, 1242, 1243, 1244, 1245, 1246, 1247, 1248, 1249, 1250, 
1251, 1252, 1253, 1254, 1255, 1256, 1257, 1258, 1259, 1260, 
1261, 1262, 1263, 1264, 1265, 1266, 1267, 1268, 1269, 1270, 
1271, 1272, 1273, 1274, 1275, 1276, 1277, 1278, 1279, 1280, 
1281, 1282, 1283, 1284, 1285, 1286, 1287, 1288, 1289, 1290, 
1291, 1292, 1293, 1294, 1295, 1296, 1297, 1298, 1299, 1300, 
1301, 1302, 1303, 1304, 1305, 1306, 1307, 1308, 1309, 1310, 
1311, 1312, 1313, 1314, 1315, 1316, 1317, 1318, 1319, 1320, 
1321, 1322, 1323, 1324, 1325, 1326, 1327, 1328, 1329, 1330, 
1331, 1332, 1333, 1334, 1335, 1336, 1337, 1338, 1339, 1340, 
1341, 1342, 1343, 1344, 1345, 1346, 1347, 1348, 1349, 1350, 
1351, 1352, 1353, 1354, 1355, 1356, 1357, 1358, 1359, 1360, 
1361, 1362, 1363, 1364, 1365, 1366, 1367, 1368, 1369, 1370, 
1371, 1372, 1373, 1374, 1375, 1376, 1377, 1378, 1379, 1380, 
1381, 1382, 1383, 1384, 1385, 1386, 1387, 1388, 1389, 1390, 
1391, 1392, 1393, 1394, 1395, 1396, 1397, 1398, 1399, 1400, 
1401, 1402, 1403, 1404, 1405, 1406, 1407, 1408, 1409, 1410, 
1411, 1412, 1413, 1414, 1415, 1416, 1417, 1418, 1419, 1420, 
1421, 1422, 1423, 1424, 1425, 1426, 1427, 1428, 1429, 1430, 
1431, 1432, 1433, 1434, 1435, 1436, 1437, 1438, 1439, 1440, 
1441, 1442, 1443, 1444, 1445, 1446, 1447, 1448, 1449, 1450, 
1451, 1452, 1453, 1454, 1455, 1456, 1457, 1458, 1459, 1460, 
1461, 1462, 1463, 1464, 1465, 1466, 1467, 1468, 1469, 1470, 
1471, 1472, 1473, 1474, 1475, 1476, 1477, 1478, 1479, 1480, 
1481, 1482, 1483, 1484, 1485, 1486, 1487, 1488, 1489, 1490, 
1491, 1492, 1493, 1494, 1495, 1496, 1497, 1498, 1499, 1500, 
1501, 1502, 1503, 1504, 1505, 1506, 1507, 1508, 1509, 1510, 
1511, 1512, 1513, 1514, 1515, 1516, 1517, 1518, 1519, 1520, 
1521, 1522, 1523, 1524, 1525, 1526, 1527, 1528, 1529, 1530, 
1531, 1532, 1533, 1534, 1535, 1536, 1537, 1538, 1539, 1540, 
1541, 1542, 1543, 1544, 1545, 1546, 1547, 1548, 1549, 1550, 
1551, 1552, 1553, 1554, 1555, 1556, 1557, 1558, 1559, 1560, 
1561, 1562, 1563, 1564, 1565, 1566, 1567, 1568, 1569, 1570, 
1571, 1572, 1573, 1574, 1575, 1576, 1577, 1578, 1579, 1580, 
1581, 1582, 1583, 1584, 1585, 1586, 1587, 1588, 1589, 1590, 
1591, 1592, 1593, 1594, 1595, 1596, 1597, 1598, 1599, 1600, 
1601, 1602, 1603, 1604, 1605, 1606, 1607, 1608, 1609, 1610, 
1611, 1612, 1613, 1614, 1615, 1616, 1617, 1618, 1619, 1620, 
1621, 1622, 1623, 1624, 1625, 1626, 1627, 1628, 1629, 1630, 
1631, 1632, 1633, 1634, 1635, 1636, 1637, 1638, 1639, 1640, 
1641, 1642, 1643, 1644, 1645, 1646, 1647, 1648, 1649, 1650, 
1651, 1652, 1653, 1654, 1655, 1656, 1657, 1658, 1659, 1660, 
1661, 1662, 1663, 1664, 1665, 1666, 1667, 1668, 1669, 1670, 
1671, 1672, 1673, 1674, 1675, 1676, 1677, 1678, 1679, 1680, 
1681, 1682, 1683, 1684, 1685, 1686, 1687, 1688, 1689, 1690, 
1691, 1692, 1693, 1694, 1695, 1696, 1697, 1698, 1699, 1700, 
1701, 1702, 1703, 1704, 1705, 1706, 1707, 1708, 1709, 1710, 
1711, 1712, 1713, 1714, 1715, 1716, 1717, 1718, 1719, 1720, 
1721, 1722, 1723, 1724, 1725, 1726, 1727, 1728, 1729, 1730, 
1731, 1732, 1733, 1734, 1735, 1736, 1737, 1738, 1739, 1740, 
1741, 1742, 1743, 1744, 1745, 1746, 1747, 1748, 1749, 1750, 
1751, 1752, 1753, 1754, 1755, 1756, 1757, 1758, 1759, 1760, 
1761, 1762, 1763, 1764, 1765, 1766, 1767, 1768, 1769, 1770, 
1771, 1772, 1773, 1774, 1775, 1776, 1777, 1778, 1779, 1780, 
1781, 1782, 1783, 1784, 1785, 1786, 1787, 1788, 1789, 1790, 
1791, 1792, 1793, 1794, 1795, 1796, 1797, 1798, 1799, 1800, 
1801, 1802, 1803, 1804, 1805, 1806, 1807, 1808, 1809, 1810, 
1811, 1812, 1813, 1814, 1815, 1816, 1817, 1818, 1819, 1820, 
1821, 1822, 1823, 1824, 1825, 1826, 1827, 1828, 1829, 1830, 
1831, 1832, 1833, 1834, 1835, 1836, 1837, 1838, 1839, 1840, 
1841, 1842, 1843, 1844, 1845, 1846, 1847, 1848, 1849, 1850, 
1851, 1852, 1853, 1854, 1855, 1856, 1857, 1858, 1859, 1860, 
1861, 1862, 1863, 1864, 1865, 1866, 1867, 1868, 1869, 1870, 
1871, 1872, 1873, 1874, 1875, 1876, 1877, 1878, 1879, 1880, 
1881, 1882, 1883, 1884, 1885, 1886, 1887, 1888, 1889, 1890, 
1891, 1892, 1893, 1894, 1895, 1896, 1897, 1898, 1899, 1900, 
1901, 1902, 1903, 1904, 1905, 1906, 1907, 1908, 1909, 1910, 
1911, 1912, 1913, 1914, 1915, 1916, 1917, 1918, 1919, 1920, 
1921, 1922, 1923, 1924, 1925, 1926, 1927, 1928, 1929, 1930, 
1931, 1932, 1933, 1934, 1935, 1936, 1937, 1938, 1939, 1940, 
1941, 1942, 1943, 1944, 1945, 1946, 1947, 1948, 1949, 1950, 
1951, 1952, 1953, 1954, 1955, 1956, 1957, 1958, 1959, 1960, 
1961, 1962, 1963, 1964, 1965, 1966, 1967, 1968, 1969, 1970, 
1971, 1972, 1973, 1974, 1975, 1976, 1977, 1978, 1979, 1980, 
1981, 1982, 1983, 1984, 1985, 1986, 1987, 1988, 1989, 1990, 
1991, 1992, 1993, 1994, 1995, 1996, 1997, 1998, 1999, 2000, 
2001, 2002, 2003, 2004, 2005, 2006, 2007, 2008, 2009, 2010, 
2011, 2012, 2013, 2014, 2015, 2016, 2017, 2018, 2019, 2020, 
2021, 2022, 2023, 2024, 2025, 2026, 2027, 2028, 2029, 2030, 
2031, 2032, 2033, 2034, 2035, 2036, 2037, 2038, 2039, 2040, 
2041, 2042, 2043, 2044, 2045, 2046, 2047, 2048, 2049, 2050, 
2051, 2052, 2053, 2054, 2055, 2056, 2057, 2058, 2059, 2060, 
2061, 2062, 2063, 2064, 2065, 2066, 2067, 2068, 2069, 2070, 
2071, 2072, 2073, 2074, 2075, 2076, 2077, 2078, 2079, 2080, 
2081, 2082, 2083, 2084, 2085, 2086, 2087, 2088, 2089, 2090, 
2091, 2092, 2093, 2094, 2095, 2096, 2097, 2098, 2099, 2100, 
2101, 2102, 2103, 2104, 2105, 2106, 2107, 2108, 2109, 2110, 
2111, 2112, 2113, 2114, 2115, 2116, 2117, 2118, 2119, 2120, 
2121, 2122, 2123, 2124, 2125, 2126, 2127, 2128, 2129, 2130, 
2131, 2132, 2133, 2134, 2135, 2136, 2137, 2138, 2139, 2140, 
2141, 2142, 2143, 2144, 2145, 2146, 2147, 2148, 2149, 2150, 
2151, 2152, 2153, 2154, 2155, 2156, 2157, 2158, 2159, 2160, 
2161, 2162, 2163, 2164, 2165, 2166, 2167, 2168, 2169, 2170, 
2171, 2172, 2173, 2174, 2175, 2176, 2177, 2178, 2179, 2180, 
2181, 2182, 2183, 2184, 2185, 2186, 2187, 2188, 2189, 2190, 
2191, 2192, 2193, 2194, 2195, 2196, 2197, 2198, 2199, 2200, 
2201, 2202, 2203, 2204, 2205, 2206, 2207, 2208, 2209, 2210, 
2211, 2212, 2213, 2214, 2215, 2216, 2217, 2218, 2219, 2220, 
2221, 2222, 2223, 2224, 2225, 2226, 2227, 2228, 2229, 2230, 
2231, 2232, 2233, 2234, 2235, 2236, 2237, 2238, 2239, 2240, 
2241, 2242, 2243, 2244, 2245, 2246, 2247, 2248, 2249, 2250, 
2251, 2252, 2253, 2254, 2255, 2256, 2257, 2258, 2259, 2260, 
2261, 2262, 2263, 2264, 2265, 2266, 2267, 2268, 2269, 2270, 
2271, 2272, 2273, 2274, 2275, 2276, 2277, 2278, 2279, 2280, 
2281, 2282, 2283, 2284, 2285, 2286, 2287, 2288, 2289, 2290, 
2291, 2292, 2293, 2294, 2295, 2296, 2297, 2298, 2299, 2300, 
2301, 2302, 2303, 2304, 2305, 2306, 2307, 2308, 2309, 2310, 
2311, 2312, 2313, 2314, 2315, 2316, 2317, 2318, 2319, 2320, 
2321, 2322, 2323, 2324, 2325, 2326, 2327, 2328, 2329, 2330, 
2331, 2332, 2333, 2334, 2335, 2336, 2337, 2338, 2339, 2340, 
2341, 2342, 2343, 2344, 2345, 2346, 2347, 2348, 2349, 2350, 
2351, 2352, 2353, 2354, 2355, 2356, 2357, 2358, 2359, 2360, 
2361, 2362, 2363, 2364, 2365, 2366, 2367, 2368, 2369, 2370, 
2371, 2372, 2373, 2374, 2375, 2376, 2377, 2378, 2379, 2380, 
2381, 2382, 2383, 2384, 2385, 2386, 2387, 2388, 2389, 2390, 
2391, 2392, 2393, 2394, 2395, 2396, 2397, 2398, 2399, 2400, 
2401, 2402, 2403, 2404, 2405, 2406, 2407, 2408, 2409, 2410, 
2411, 2412, 2413, 2414, 2415, 2416, 2417, 2418, 2419, 2420, 
2421, 2422, 2423, 2424, 2425, 2426, 2427, 2428, 2429, 2430, 
2431, 2432, 2433, 2434, 2435, 2436, 2437, 2438, 2439, 2440, 
2441, 2442, 2443, 2444, 2445, 2446, 2447, 2448, 2449, 2450, 
2451, 2452, 2453, 2454, 2455, 2456, 2457, 2458, 2459, 2460, 
2461, 2462, 2463, 2464, 2465, 2466, 2467, 2468, 2469, 2470, 
2471, 2472, 2473, 2474, 2475, 2476, 2477, 2478, 2479, 2480, 
2481, 2482, 2483, 2484, 2485, 2486, 2487, 2488, 2489, 2490, 
2491, 2492, 2493, 2494, 2495, 2496, 2497, 2498, 2499, 2500, 
2501, 2502, 2503, 2504, 2505, 2506, 2507, 2508, 2509, 2510, 
2511, 2512, 2513, 2514, 2515, 2516, 2517, 2518, 2519, 2520, 
2521, 2522, 2523, 2524, 2525, 2526, 2527, 2528, 2529, 2530, 
2531, 2532, 2533, 2534, 2535, 2536, 2537, 2538, 2539, 2540, 
2541, 2542, 2543, 2544, 2545, 2546, 2547, 2548, 2549, 2550, 
2551, 2552, 2553, 2554, 2555, 2556, 2557, 2558, 2559, 2560, 
2561, 2562, 2563, 2564, 2565, 2566, 2567, 2568, 2569, 2570, 
2571, 2572, 2573, 2574, 2575, 2576, 2577, 2578, 2579, 2580, 
2581, 2582, 2583, 2584, 2585, 2586, 2587, 2588, 2589, 2590, 
2591, 2592, 2593, 2594, 2595, 2596, 2597, 2598, 2599, 2600, 
2601, 2602, 2603, 2604, 2605, 2606, 2607, 2608, 2609, 2610, 
2611, 2612, 2613, 2614, 2615, 2616, 2617, 2618, 2619, 2620, 
2621, 2622, 2623, 2624, 2625, 2626, 2627, 2628, 2629, 2630, 
2631, 2632, 2633, 2634, 2635, 2636, 2637, 2638, 2639, 2640, 
2641, 2642, 2643, 2644, 2645, 2646, 2647, 2648, 2649, 2650, 
2651, 2652, 2653, 2654, 2655, 2656, 2657, 2658, 2659, 2660, 
2661, 2662, 2663, 2664, 2665, 2666, 2667, 2668, 2669, 2670, 
2671, 2672, 2673, 2674, 2675, 2676, 2677, 2678, 2679, 2680, 
2681, 2682, 2683, 2684, 2685, 2686, 2687, 2688, 2689, 2690, 
2691, 2692, 2693, 2694, 2695, 2696, 2697, 2698, 2699, 2700, 
2701, 2702, 2703, 2704, 2705, 2706, 2707, 2708, 2709, 2710, 
2711, 2712, 2713, 2714, 2715, 2716, 2717, 2718, 2719, 2720, 
2721, 2722, 2723, 2724, 2725, 2726, 2727, 2728, 2729, 2730, 
2731, 2732, 2733, 2734, 2735, 2736, 2737, 2738, 2739, 2740, 
2741, 2742, 2743, 2744, 2745, 2746, 2747, 2748, 2749, 2750, 
2751, 2752, 2753, 2754, 2755, 2756, 2757, 2758, 2759, 2760, 
2761, 2762, 2763, 2764, 2765, 2766, 2767, 2768, 2769, 2770, 
2771, 2772, 2773, 2774, 2775, 2776, 2777, 2778, 2779, 2780, 
2781, 2782, 2783, 2784, 2785, 2786, 2787, 2788, 2789, 2790, 
2791, 2792, 2793, 2794, 2795, 2796, 2797, 2798, 2799, 2800, 
2801, 2802, 2803, 2804, 2805, 2806, 2807, 2808, 2809, 2810, 
2811, 2812, 2813, 2814, 2815, 2816, 2817, 2818, 2819, 2820, 
2821, 2822, 2823, 2824, 2825, 2826, 2827, 2828, 2829, 2830, 
2831, 2832, 2833, 2834, 2835, 2836, 2837, 2838, 2839, 2840, 
2841, 2842, 2843, 2844, 2845, 2846, 2847, 2848, 2849, 2850, 
2851, 2852, 2853, 2854, 2855, 2856, 2857, 2858, 2859, 2860, 
2861, 2862, 2863, 2864, 2865, 2866, 2867, 2868, 2869, 2870, 
2871, 2872, 2873, 2874, 2875, 2876, 2877, 2878, 2879, 2880, 
2881, 2882, 2883, 2884, 2885, 2886, 2887, 2888, 2889, 2890, 
2891, 2892, 2893, 2894, 2895, 2896, 2897, 2898, 2899, 2900, 
2901, 2902, 2903, 2904, 2905, 2906, 2907, 2908, 2909, 2910, 
2911, 2912, 2913, 2914, 2915, 2916, 2917, 2918, 2919, 2920, 
2921, 2922, 2923, 2924, 2925, 2926, 2927, 2928, 2929, 2930, 
2931, 2932, 2933, 2934, 2935, 2936, 2937, 2938, 2939, 2940, 
2941, 2942, 2943, 2944, 2945, 2946, 2947, 2948, 2949, 2950, 
2951, 2952, 2953, 2954, 2955, 2956, 2957, 2958, 2959, 2960, 
2961, 2962, 2963, 2964, 2965, 2966, 2967, 2968, 2969, 2970, 
2971, 2972, 2973, 2974, 2975, 2976, 2977, 2978, 2979, 2980, 
2981, 2982, 2983, 2984, 2985, 2986, 2987, 2988, 2989, 2990, 
2991, 2992, 2993, 2994, 2995, 2996, 2997, 2998, 2999, 3000, 
3001, 3002, 3003, 3004, 3005, 3006, 3007, 3008, 3009, 3010, 
3011, 3012, 3013, 3014, 3015, 3016, 3017, 3018, 3019, 3020, 
3021, 3022, 3023, 3024, 3025, 3026, 3027, 3028, 3029, 3030, 
3031, 3032, 3033, 3034, 3035, 3036, 3037, 3038, 3039, 3040, 
3041, 3042, 3043, 3044, 3045, 3046, 3047, 3048, 3049, 3050, 
3051, 3052, 3053, 3054, 3055, 3056, 3057, 3058, 3059, 3060, 
3061, 3062, 3063, 3064, 3065, 3066, 3067, 3068, 3069, 3070, 
3071, 3072, 3073, 3074, 3075, 3076, 3077, 3078, 3079, 3080, 
3081, 3082, 3083, 3084, 3085, 3086, 3087, 3088, 3089, 3090, 
3091, 3092, 3093, 3094, 3095, 3096, 3097, 3098, 3099, 3100, 
3101, 3102, 3103, 3104, 3105, 3106, 3107, 3108, 3109, 3110, 
3111, 3112, 3113, 3114, 3115, 3116, 3117, 3118, 3119, 3120, 
3121, 3122, 3123, 3124, 3125, 3126, 3127, 3128, 3129, 3130, 
3131, 3132, 3133, 3134, 3135, 3136, 3137, 3138, 3139, 3140, 
3141, 3142, 3143, 3144, 3145, 3146, 3147, 3148, 3149, 3150, 
3151, 3152, 3153, 3154, 3155, 3156, 3157, 3158, 3159, 3160, 
3161, 3162, 3163, 3164, 3165, 3166, 3167, 3168, 3169, 3170, 
3171, 3172, 3173, 3174, 3175, 3176, 3177, 3178, 3179, 3180, 
3181, 3182, 3183, 3184, 3185, 3186, 3187, 3188, 3189, 3190, 
3191, 3192, 3193, 3194, 3195, 3196, 3197, 3198, 3199, 3200, 
3201, 3202, 3203, 3204, 3205, 3206, 3207, 3208, 3209, 3210, 
3211, 3212, 3213, 3214, 3215, 3216, 3217, 3218, 3219, 3220, 
3221, 3222, 3223, 3224, 3225, 3226, 3227, 3228, 3229, 3230, 
3231, 3232, 3233, 3234, 3235, 3236, 3237, 3238, 3239, 3240, 
3241, 3242, 3243, 3244, 3245, 3246, 3247, 3248, 3249, 3250, 
3251, 3252, 3253, 3254, 3255, 3256, 3257, 3258, 3259, 3260, 
3261, 3262, 3263, 3264, 3265, 3266, 3267, 3268, 3269, 3270, 
3271, 3272, 3273, 3274, 3275, 3276, 3277, 3278, 3279, 3280, 
3281, 3282, 3283, 3284, 3285, 3286, 3287, 3288, 3289, 3290, 
3291, 3292, 3293, 3294, 3295, 3296, 3297, 3298, 3299, 3300, 
3301, 3302, 3303, 3304, 3305, 3306, 3307, 3308, 3309, 3310, 
3311, 3312, 3313, 3314, 3315, 3316, 3317, 3318, 3319, 3320, 
3321, 3322, 3323, 3324, 3325, 3326, 3327, 3328, 3329, 3330, 
3331, 3332, 3333, 3334, 3335, 3336, 3337, 3338, 3339, 3340, 
3341, 3342, 3343, 3344, 3345, 3346, 3347, 3348, 3349, 3350, 
3351, 3352, 3353, 3354, 3355, 3356, 3357, 3358, 3359, 3360, 
3361, 3362, 3363, 3364, 3365, 3366, 3367, 3368, 3369, 3370, 
3371, 3372, 3373, 3374, 3375, 3376, 3377, 3378, 3379, 3380, 
3381, 3382, 3383, 3384, 3385, 3386, 3387, 3388, 3389, 3390, 
3391, 3392, 3393, 3394, 3395, 3396, 3397, 3398, 3399, 3400, 
3401, 3402, 3403, 3404, 3405, 3406, 3407, 3408, 3409, 3410, 
3411, 3412, 3413, 3414, 3415, 3416, 3417, 3418, 3419, 3420, 
3421, 3422, 3423, 3424, 3425, 3426, 3427, 3428, 3429, 3430, 
3431, 3432, 3433, 3434, 3435, 3436, 3437, 3438, 3439, 3440, 
3441, 3442, 3443, 3444, 3445, 3446, 3447, 3448, 3449, 3450, 
3451, 3452, 3453, 3454, 3455, 3456, 3457, 3458, 3459, 3460, 
3461, 3462, 3463, 3464, 3465, 3466, 3467, 3468, 3469, 3470, 
3471, 3472, 3473, 3474, 3475, 3476, 3477, 3478, 3479, 3480, 
3481, 3482, 3483, 3484, 3485, 3486, 3487, 3488, 3489, 3490, 
3491, 3492, 3493, 3494, 3495, 3496, 3497, 3498, 3499, 3500, 
3501, 3502, 3503, 3504, 3505, 3506, 3507, 3508, 3509, 3510, 
3511, 3512, 3513, 3514, 3515, 3516, 3517, 3518, 3519, 3520, 
3521, 3522, 3523, 3524, 3525, 3526, 3527, 3528, 3529, 3530, 
3531, 3532, 3533, 3534, 3535, 3536, 3537, 3538, 3539, 3540, 
3541, 3542, 3543, 3544, 3545, 3546, 3547, 3548, 3549, 3550, 
3551, 3552, 3553, 3554, 3555, 3556, 3557, 3558, 3559, 3560, 
3561, 3562, 3563, 3564, 3565, 3566, 3567, 3568, 3569, 3570, 
3571, 3572, 3573, 3574, 3575, 3576, 3577, 3578, 3579, 3580, 
3581, 3582, 3583, 3584, 3585, 3586, 3587, 3588, 3589, 3590, 
3591, 3592, 3593, 3594, 3595, 3596, 3597, 3598, 3599, 3600, 
3601, 3602, 3603, 3604, 3605, 3606, 3607, 3608, 3609, 3610, 
3611, 3612, 3613, 3614, 3615, 3616, 3617, 3618, 3619, 3620, 
3621, 3622, 3623, 3624, 3625, 3626, 3627, 3628, 3629, 3630, 
3631, 
