*Heading
 /Users/juliagao/geometry-optimization-net/scripts/../runs/fourier10/shape_34.inp
*NODE
1, 0, -0.3, 0
2, 0.425, -0.3, 0
3, 0.575, -0.3, 0
4, 1, -0.3, 0
5, 1, 0.3, 0
6, 0.575, 0.3, 0
7, 0.425, 0.3, 0
8, 0, 0.3, 0
9, 0.6984871014, 0.0539772928, 0
10, 0.024936920168237, -0.3, 0
11, 0.075982607777545, -0.3, 0
12, 0.12881356038475, -0.3, 0
13, 0.18202702169945, -0.3, 0
14, 0.23387830508341, -0.3, 0
15, 0.28285453352026, -0.3, 0
16, 0.32823452049497, -0.3, 0
17, 0.36948451305106, -0.3, 0
18, 0.40698536991695, -0.3, 0
19, 0.049873840336474, -0.3, 0
20, 0.10209137521862, -0.3, 0
21, 0.15553574555088, -0.3, 0
22, 0.20851829784801, -0.3, 0
23, 0.25923831231881, -0.3, 0
24, 0.30647075472171, -0.3, 0
25, 0.34999828626822, -0.3, 0
26, 0.3889707398339, -0.3, 0
27, 0.4404245638136, -0.3, 0
28, 0.4707043699298, -0.3, 0
29, 0.49998913678601, -0.3, 0
30, 0.52899676605832, -0.3, 0
31, 0.55928743538852, -0.3, 0
32, 0.45584912762719, -0.3, 0
33, 0.48555961223241, -0.3, 0
34, 0.51441866133962, -0.3, 0
35, 0.54357487077703, -0.3, 0
36, 0.59442130050161, -0.3, 0
37, 0.63553221019336, -0.3, 0
38, 0.68067714238537, -0.3, 0
39, 0.72850895309645, -0.3, 0
40, 0.77764061059763, -0.3, 0
41, 0.82735594492328, -0.3, 0
42, 0.8774348020734, -0.3, 0
43, 0.92723458821382, -0.3, 0
44, 0.9759578408689, -0.3, 0
45, 0.61384260100321, -0.3, 0
46, 0.6572218193835, -0.3, 0
47, 0.70413246538725, -0.3, 0
48, 0.75288544080566, -0.3, 0
49, 0.8023957803896, -0.3, 0
50, 0.85231610945696, -0.3, 0
51, 0.90255349468984, -0.3, 0
52, 0.9519156817378, -0.3, 0
53, 1, -0.27364521416584, 0
54, 1, -0.22005627603355, 0
55, 1, -0.16488066402978, 0
56, 1, -0.10881377809056, 0
57, 1, -0.052667484508013, 0
58, 1, 0.0030458923163134, 0
59, 1, 0.05852287108413, 0
60, 1, 0.1139340443488, 0
61, 1, 0.16842208633502, 0
62, 1, 0.22154992444742, 0
63, 1, 0.27390821227289, 0
64, 1, -0.24729042833168, 0
65, 1, -0.19282212373543, 0
66, 1, -0.13693920432413, 0
67, 1, -0.080688351856992, 0
68, 1, -0.024646617159034, 0
69, 1, 0.030738401791661, 0
70, 1, 0.0863073403766, 0
71, 1, 0.14156074832099, 0
72, 1, 0.19528342434905, 0
73, 1, 0.24781642454579, 0
74, 0.97436498057046, 0.3, 0
75, 0.92272344083871, 0.3, 0
76, 0.87115660700473, 0.3, 0
77, 0.82211157870997, 0.3, 0
78, 0.77900300286761, 0.3, 0
79, 0.74355425816817, 0.3, 0
80, 0.71455504562584, 0.3, 0
81, 0.68980294722683, 0.3, 0
82, 0.66764258375148, 0.3, 0
83, 0.64688894590339, 0.3, 0
84, 0.62641626158756, 0.3, 0
85, 0.6056496716748, 0.3, 0
86, 0.58509236111418, 0.3, 0
87, 0.94872996114092, 0.3, 0
88, 0.8967169205365, 0.3, 0
89, 0.84559629347295, 0.3, 0
90, 0.79862686394699, 0.3, 0
91, 0.75937914178823, 0.3, 0
92, 0.7277293745481, 0.3, 0
93, 0.70138071670359, 0.3, 0
94, 0.67822517775008, 0.3, 0
95, 0.65705998975288, 0.3, 0
96, 0.63671790205389, 0.3, 0
97, 0.61611462112123, 0.3, 0
98, 0.59518472222836, 0.3, 0
99, 0.56596529059899, 0.3, 0
100, 0.54881535123942, 0.3, 0
101, 0.53317390430796, 0.3, 0
102, 0.51871217056029, 0.3, 0
103, 0.50509020827911, 0.3, 0
104, 0.49166598370168, 0.3, 0
105, 0.4780200936856, 0.3, 0
106, 0.46399243985082, 0.3, 0
107, 0.44929477289927, 0.3, 0
108, 0.43335832441871, 0.3, 0
109, 0.55693058119797, 0.3, 0
110, 0.54070012128088, 0.3, 0
111, 0.52564768733504, 0.3, 0
112, 0.51177665378555, 0.3, 0
113, 0.49840376277267, 0.3, 0
114, 0.48492820463069, 0.3, 0
115, 0.47111198274051, 0.3, 0
116, 0.45687289696112, 0.3, 0
117, 0.44171664883742, 0.3, 0
118, 0.41621861433681, 0.3, 0
119, 0.39884766931378, 0.3, 0
120, 0.38214998148873, 0.3, 0
121, 0.36602198559461, 0.3, 0
122, 0.34941657984208, 0.3, 0
123, 0.33130690365273, 0.3, 0
124, 0.3110511865486, 0.3, 0
125, 0.28768281524481, 0.3, 0
126, 0.25927030351623, 0.3, 0
127, 0.22360866149613, 0.3, 0
128, 0.17997668613581, 0.3, 0
129, 0.13050642583291, 0.3, 0
130, 0.078528223999448, 0.3, 0
131, 0.026137114732724, 0.3, 0
132, 0.40743722867363, 0.3, 0
133, 0.39025810995394, 0.3, 0
134, 0.37404185302352, 0.3, 0
135, 0.35800211816571, 0.3, 0
136, 0.34083104151846, 0.3, 0
137, 0.321782765787, 0.3, 0
138, 0.30031960731019, 0.3, 0
139, 0.27504602317943, 0.3, 0
140, 0.24349458385302, 0.3, 0
141, 0.20372273913923, 0.3, 0
142, 0.15623063313238, 0.3, 0
143, 0.10478221853345, 0.3, 0
144, 0.052274229465448, 0.3, 0
145, 0, 0.27319333071099, 0
146, 0, 0.21897925282485, 0
147, 0, 0.16392033048145, 0
148, 0, 0.10875231008788, 0
149, 0, 0.053615188532532, 0
150, 0, -0.0018220018312824, 0
151, 0, -0.057542498776472, 0
152, 0, -0.11349731374396, 0
153, 0, -0.1688958568744, 0
154, 0, -0.22239286459151, 0
155, 0, -0.27427111132813, 0
156, 0, 0.24638666142198, 0
157, 0, 0.19157184422771, 0
158, 0, 0.13626881673519, 0
159, 0, 0.081235803440568, 0
160, 0, 0.025994573624496, 0
161, 0, -0.029638577287061, 0
162, 0, -0.085446420265884, 0
163, 0, -0.14154820722203, 0
164, 0, -0.19624350652676, 0
165, 0, -0.24854222265626, 0
166, 0.69594253101274, 0.057112633178384, 0
167, 0.70636587125683, 0.04497127079963, 0
168, 0.71155193373776, 0.039152375750055, 0
169, 0.71668604558989, 0.033243771299081, 0
170, 0.72163320122411, 0.027274708731611, 0
171, 0.72631897957972, 0.021222156959717, 0
172, 0.73075146252605, 0.014983709306443, 0
173, 0.73485888906953, 0.0085656598588039, 0
174, 0.73858334891051, 0.0019639894746771, 0
175, 0.74189020742475, -0.0048691468160193, 0
176, 0.74469741743588, -0.011889102802654, 0
177, 0.7469634819481, -0.019151940050056, 0
178, 0.74863872293061, -0.026810828767152, 0
179, 0.74957719751927, -0.034675023947896, 0
180, 0.74969843518378, -0.04246267109278, 0
181, 0.74897359471578, -0.050249033892641, 0
182, 0.74734692137626, -0.058003627077879, 0
183, 0.74488428226293, -0.065355450772998, 0
184, 0.74157210461404, -0.072391673051664, 0
185, 0.73732356580694, -0.079189432377297, 0
186, 0.73240718783734, -0.085316363578027, 0
187, 0.72699265995877, -0.090703429654155, 0
188, 0.72103641100327, -0.095490802498615, 0
189, 0.71453397190692, -0.099713303047167, 0
190, 0.70754115018822, -0.10335488657434, 0
191, 0.70027997789608, -0.10635227299227, 0
192, 0.69298110671644, -0.10870838047569, 0
193, 0.68575212882085, -0.11050243175974, 0
194, 0.67844744955586, -0.1118576745888, 0
195, 0.67092730093826, -0.11285144431587, 0
196, 0.66326349487411, -0.11352262795184, 0
197, 0.65559092205101, -0.11392933426775, 0
198, 0.64793782038657, -0.11415800954647, 0
199, 0.64029831996123, -0.11431644464569, 0
200, 0.63282488425738, -0.11453833591818, 0
201, 0.62544316256647, -0.11500171769265, 0
202, 0.61794421971202, -0.11599680953445, 0
203, 0.61051363079453, -0.11793353796182, 0
204, 0.60356025832784, -0.12118805298877, 0
205, 0.59747835525645, -0.12578339981384, 0
206, 0.59227672446339, -0.13141859786908, 0
207, 0.58764378186026, -0.13781714398927, 0
208, 0.58343072943053, -0.14449251669241, 0
209, 0.57944024168272, -0.15115316725053, 0
210, 0.57541226005489, -0.15779995921326, 0
211, 0.57125368846395, -0.16426418565475, 0
212, 0.56683876596197, -0.17048950660716, 0
213, 0.56199003197415, -0.17648297455533, 0
214, 0.55657987889391, -0.18213613838823, 0
215, 0.55059407953124, -0.18720714468771, 0
216, 0.54410672596398, -0.19143906669696, 0
217, 0.53708662001886, -0.19471324065495, 0
218, 0.52957673655767, -0.19690264437474, 0
219, 0.52176938029033, -0.19792996660868, 0
220, 0.51394149086904, -0.19786751294301, 0
221, 0.5062907550441, -0.19692097431506, 0
222, 0.49884315349651, -0.19532322909057, 0
223, 0.4916064135457, -0.19329378545219, 0
224, 0.48438346118215, -0.19096474806543, 0
225, 0.47705122731281, -0.18845850280863, 0
226, 0.46983951194013, -0.18600096189639, 0
227, 0.46277134143245, -0.18370039553126, 0
228, 0.45552514272306, -0.18149388727365, 0
229, 0.44799145414948, -0.17932446258557, 0
230, 0.44051454600539, -0.1771755393665, 0
231, 0.43331326386264, -0.17492758071428, 0
232, 0.4260823585849, -0.1722562386027, 0
233, 0.41877155105664, -0.16882036271909, 0
234, 0.41192451237052, -0.16454866892357, 0
235, 0.40587207484599, -0.15948704223905, 0
236, 0.40061779939418, -0.15361776809882, 0
237, 0.39622862694624, -0.14709949808722, 0
238, 0.39268934432646, -0.14014943383339, 0
239, 0.38987148169906, -0.13285696258422, 0
240, 0.38767875387689, -0.1253836138478, 0
241, 0.38599456665736, -0.11786941609714, 0
242, 0.38467652785912, -0.11032445738783, 0
243, 0.38359068155167, -0.10278451545707, 0
244, 0.38258049434588, -0.095279214312012, 0
245, 0.38142793047527, -0.087769092199842, 0
246, 0.3797733206338, -0.080236537562845, 0
247, 0.37708074735755, -0.073083805301858, 0
248, 0.37287940395704, -0.067075596014966, 0
249, 0.36738065477486, -0.062704253182539, 0
250, 0.36107306000394, -0.059587826083465, 0
251, 0.35401574397821, -0.057030972364, 0
252, 0.34655273233862, -0.054605687814374, 0
253, 0.3391889283011, -0.052005685760658, 0
254, 0.33215954876261, -0.048920970788127, 0
255, 0.32560274836087, -0.045005550821363, 0
256, 0.31978545639225, -0.039828477759057, 0
257, 0.31542453655324, -0.033195733078258, 0
258, 0.31320653705425, -0.025477476820209, 0
259, 0.31315021699461, -0.017360710300844, 0
260, 0.31471622952662, -0.0094679351381529, 0
261, 0.31727638625102, -0.0020138689002027, 0
262, 0.3203726343887, 0.0050409810459496, 0
263, 0.3236777401351, 0.011825610308199, 0
264, 0.3269156778019, 0.018551599101722, 0
265, 0.32965618099302, 0.025356767686583, 0
266, 0.33121172429969, 0.03236554236025, 0
267, 0.33071207860033, 0.039452598897962, 0
268, 0.32803316126737, 0.046074620782741, 0
269, 0.32398571683606, 0.052079841766795, 0
270, 0.31922379811266, 0.057775786263238, 0
271, 0.31400205236167, 0.063544715520077, 0
272, 0.30868185648413, 0.069429418122272, 0
273, 0.30360734982452, 0.075377242965541, 0
274, 0.29885962264219, 0.081555529700539, 0
275, 0.29454512253143, 0.088116113010765, 0
276, 0.2908812806677, 0.09509143993026, 0
277, 0.28815240908088, 0.10235742626134, 0
278, 0.28655986884882, 0.10983226367109, 0
279, 0.28624281116158, 0.11758396866081, 0
280, 0.28731123353093, 0.12547150417264, 0
281, 0.28957246078316, 0.13303210757318, 0
282, 0.29257423251747, 0.14005667731767, 0
283, 0.29596337049545, 0.14676290727197, 0
284, 0.29950002319108, 0.1534729971148, 0
285, 0.30292740460977, 0.16041371986831, 0
286, 0.30592011375458, 0.16752422623598, 0
287, 0.30834635680715, 0.17476738126402, 0
288, 0.31027921080407, 0.18224746709223, 0
289, 0.3118288502111, 0.18983731828253, 0
290, 0.31316938442857, 0.19740589525386, 0
291, 0.31449129277828, 0.20490089097639, 0
292, 0.31598262341135, 0.2123401218463, 0
293, 0.31786182589164, 0.21984927708889, 0
294, 0.32032355635192, 0.22730324017744, 0
295, 0.32353423400708, 0.2344626924363, 0
296, 0.32768740489279, 0.2411680023617, 0
297, 0.33288210459844, 0.24712734153026, 0
298, 0.33905964774677, 0.25203741166185, 0
299, 0.34608936908304, 0.25575591058996, 0
300, 0.35378203085699, 0.25825735850472, 0
301, 0.36173900189883, 0.25960395447923, 0
302, 0.36955040637403, 0.26001208444713, 0
303, 0.37720187047135, 0.25974419067324, 0
304, 0.3848267079692, 0.25898441347652, 0
305, 0.39243825130987, 0.25788181769471, 0
306, 0.39998998457645, 0.25659398681505, 0
307, 0.4075658153573, 0.25527110142247, 0
308, 0.41549678981091, 0.25406033910184, 0
309, 0.42361254842991, 0.25327656237141, 0
310, 0.43133677068993, 0.25324545853793, 0
311, 0.43866486036099, 0.254089214101, 0
312, 0.44591399854017, 0.25586397036454, 0
313, 0.45313887609216, 0.25847128893214, 0
314, 0.46026020308555, 0.26156426787669, 0
315, 0.46736476913897, 0.26476098293413, 0
316, 0.47472847293785, 0.26777236816362, 0
317, 0.48242571432776, 0.27023147483352, 0
318, 0.4902265574826, 0.27175229216208, 0
319, 0.49809943188023, 0.27214452217903, 0
320, 0.50609510735037, 0.27129419820911, 0
321, 0.51391523339432, 0.26923511226192, 0
322, 0.52118023396664, 0.26628077534098, 0
323, 0.5279909848498, 0.26270114865867, 0
324, 0.53456979454083, 0.2586648512909, 0
325, 0.54090438007863, 0.25447615152312, 0
326, 0.54722291126506, 0.25030885987544, 0
327, 0.55381907487209, 0.2463383332322, 0
328, 0.56076995446485, 0.24293168040213, 0
329, 0.56799979923825, 0.24044025397921, 0
330, 0.57537404403459, 0.23897380253131, 0
331, 0.58282537616739, 0.23838876337725, 0
332, 0.59025917125833, 0.23844330061406, 0
333, 0.59776358919124, 0.23890236134758, 0
334, 0.60543202905088, 0.23958485021131, 0
335, 0.61309573936616, 0.24032029850269, 0
336, 0.6205400176706, 0.24096760054204, 0
337, 0.62781323627523, 0.24144910841236, 0
338, 0.63510608362612, 0.24171089343333, 0
339, 0.64262209594031, 0.24168302153649, 0
340, 0.65048885001728, 0.24125891826816, 0
341, 0.65835142929302, 0.24035238114811, 0
342, 0.66596108682277, 0.23892783017351, 0
343, 0.67343747177633, 0.23689864581282, 0
344, 0.68071646901493, 0.23418883890373, 0
345, 0.6876505391897, 0.23075500292508, 0
346, 0.69416262386895, 0.22652677704115, 0
347, 0.70014565165302, 0.2214353730759, 0
348, 0.70541454699588, 0.21548362491255, 0
349, 0.70976141223233, 0.20878832980178, 0
350, 0.71304067824971, 0.20157889175855, 0
351, 0.71523595178492, 0.19409537514194, 0
352, 0.71643881904057, 0.18640739178291, 0
353, 0.71673402545506, 0.17852634166351, 0
354, 0.71619872269049, 0.17058508836487, 0
355, 0.71494511781185, 0.16273964293895, 0
356, 0.71311987737758, 0.15514294065428, 0
357, 0.71086337349823, 0.14785332603412, 0
358, 0.70822973753105, 0.14071352677038, 0
359, 0.70520856660213, 0.13350984969661, 0
360, 0.70189543611625, 0.12630543137029, 0
361, 0.69850230236432, 0.11933168081644, 0
362, 0.69515545920949, 0.11257848717245, 0
363, 0.69190605401867, 0.1058278464949, 0
364, 0.6888645671613, 0.098817493404307, 0
365, 0.68638747781661, 0.091443121298556, 0
366, 0.68511603417325, 0.083893630312064, 0
367, 0.68559789944069, 0.076584409324906, 0
368, 0.68780028584296, 0.06980130699157, 0
369, 0.69134566180419, 0.063400398141462, 0
370, 0.70109972877871, 0.050896721666958, 0
371, 0.69348750105796, 0.060319037587865, 0
372, 0.68940159436852, 0.066611064816759, 0
373, 0.68650669622458, 0.07312931019411, 0
374, 0.68513239587209, 0.080126618420717, 0
375, 0.68555194432124, 0.087634008359308, 0
376, 0.68751917564985, 0.095173879828437, 0
377, 0.69035941950613, 0.10240192023154, 0
378, 0.69351767019221, 0.10922356562954, 0
379, 0.6968121761268, 0.11592408267415, 0
380, 0.70017935957182, 0.12274573958699, 0
381, 0.7035722680753, 0.1298838052809, 0
382, 0.70678232710892, 0.13716350558871, 0
383, 0.70959942399424, 0.14429429112301, 0
384, 0.71203314038209, 0.15144446055374, 0
385, 0.7140874441286, 0.1588744289166, 0
386, 0.71565232073347, 0.16663527648624, 0
387, 0.71656424019646, 0.17455583175928, 0
388, 0.71669521340147, 0.18250041604781, 0
389, 0.71595263398037, 0.19029260019791, 0
390, 0.71427491589336, 0.19784400555937, 0
391, 0.71154549741751, 0.20521728182781, 0
392, 0.70771477232233, 0.21221565415855, 0
393, 0.70287597412634, 0.21857005861347, 0
394, 0.69721980388869, 0.22410060562901, 0
395, 0.69095560665145, 0.22875089644966, 0
396, 0.68423516525465, 0.23256447260254, 0
397, 0.67711864789423, 0.23562921560404, 0
398, 0.6697021158652, 0.23799816094327, 0
399, 0.66218611220719, 0.23970797462502, 0
400, 0.65449665030898, 0.24086257409853, 0
401, 0.64647072944858, 0.24153063588832, 0
402, 0.63877089111878, 0.24173907987458, 0
403, 0.63144255511967, 0.24161100498062, 0
404, 0.62418679330696, 0.24123246433353, 0
405, 0.61689617149204, 0.24066529344814, 0
406, 0.6092969878964, 0.23995738323753, 0
407, 0.60156587364855, 0.23922485115973, 0
408, 0.59395714968185, 0.23863260665741, 0
409, 0.58655734384253, 0.23835234565453, 0
410, 0.57909813699913, 0.23858456415506, 0
411, 0.57167937989957, 0.23958328504503, 0
412, 0.56438796582175, 0.24154845038034, 0
413, 0.55724741146309, 0.24454179091, 0
414, 0.55047214444122, 0.24828170666066, 0
415, 0.54401561184625, 0.25240147297269, 0
416, 0.53779396237321, 0.25655204626824, 0
417, 0.53130994585119, 0.26072235371499, 0
418, 0.52460774919681, 0.26456827533797, 0
419, 0.5176741423088, 0.26782659609244, 0
420, 0.51007270526055, 0.27039724822304, 0
421, 0.50206018341973, 0.27188280215686, 0
422, 0.49413045223494, 0.27209590496766, 0
423, 0.48635738215103, 0.27113120360362, 0
424, 0.47855456278498, 0.26910059655973, 0
425, 0.4709588615941, 0.26629220217859, 0
426, 0.46379774891058, 0.26316801737783, 0
427, 0.45671244932517, 0.25998310585842, 0
428, 0.44951825602885, 0.25707513629103, 0
429, 0.44224905854794, 0.25484977140908, 0
430, 0.43504011257541, 0.25355370848877, 0
431, 0.42762194239848, 0.25315576470553, 0
432, 0.41961364165214, 0.2535863180288, 0
433, 0.41139495921083, 0.25464913607742, 0
434, 0.40374314028504, 0.25593138861499, 0
435, 0.39623548471874, 0.25724896821045, 0
436, 0.38863331741444, 0.25846684796581, 0
437, 0.38100944498972, 0.25941706989385, 0
438, 0.37338566881719, 0.2599491536516, 0
439, 0.36571582837236, 0.25990980211225, 0
440, 0.3577861284259, 0.2590695274607, 0
441, 0.34984896764933, 0.25714979868345, 0
442, 0.34246335618584, 0.25404341780282, 0
443, 0.33585528397624, 0.24972619479029, 0
444, 0.33016037517881, 0.24426663494648, 0
445, 0.32547661844617, 0.23787754202567, 0
446, 0.32182235350342, 0.23092702838637, 0
447, 0.31901234620518, 0.2236077022946, 0
448, 0.31685129746751, 0.21605098358032, 0
449, 0.31520113536886, 0.20861001758754, 0
450, 0.31382447693325, 0.20118383074551, 0
451, 0.31251314730683, 0.1936281571856, 0
452, 0.31109543513854, 0.18605562052179, 0
453, 0.30936344597565, 0.17846190637116, 0
454, 0.30719864212958, 0.1711112203989, 0
455, 0.30450781600781, 0.16398778607792, 0
456, 0.30123737135015, 0.15689033281094, 0
457, 0.29771694093753, 0.15007940505058, 0
458, 0.29423770487554, 0.14343173676037, 0
459, 0.29101859752422, 0.13663032347263, 0
460, 0.28833245635612, 0.12935729893407, 0
461, 0.28660271797905, 0.12151616926136, 0
462, 0.28623216604165, 0.1136351410726, 0
463, 0.28720462712659, 0.10607035280801, 0
464, 0.28937420207343, 0.098725791975141, 0
465, 0.29261267203558, 0.091558754240052, 0
466, 0.29664393850528, 0.084772551631111, 0
467, 0.30119158848901, 0.078421942899093, 0
468, 0.3060997578904, 0.072395076591764, 0
469, 0.31130718067781, 0.066502033325443, 0
470, 0.3166986929083, 0.06058901461188, 0
471, 0.32169322465953, 0.05491336281573, 0
472, 0.32613298120123, 0.049133832077355, 0
473, 0.32961193733794, 0.042835387330873, 0
474, 0.33125417203502, 0.035936553541033, 0
475, 0.33063756723119, 0.028844046103759, 0
476, 0.32839580552109, 0.021961802724299, 0
477, 0.32532986836401, 0.015189599949702, 0
478, 0.32202035831435, 0.0084642199740861, 0
479, 0.31879256004443, 0.0015858562202165, 0
480, 0.31590960555598, -0.0056732316736356, 0
481, 0.31377915130656, -0.013334582366566, 0
482, 0.31293204911895, -0.021431185561178, 0
483, 0.31403281048861, -0.029449270938367, 0
484, 0.3173716446181, -0.036685089563921, 0
485, 0.32259471411181, -0.042621681903972, 0
486, 0.32881946508978, -0.047097516284759, 0
487, 0.33560475239765, -0.050535793790759, 0
488, 0.34282489504573, -0.053341477156372, 0
489, 0.35029667679669, -0.055821025655951, 0
490, 0.35771393400099, -0.058303864572346, 0
491, 0.36435651557913, -0.061056523039024, 0
492, 0.37021918660741, -0.064657543768856, 0
493, 0.37515679833676, -0.069857085708308, 0
494, 0.37857592599106, -0.076527217348371, 0
495, 0.38069883005825, -0.084021646500562, 0
496, 0.38204223993809, -0.091536823316629, 0
497, 0.38308757280323, -0.099025913125014, 0
498, 0.384111566297, -0.10654071424376, 0
499, 0.38529819824311, -0.11409934043744, 0
500, 0.38678032837933, -0.12162194361017, 0
501, 0.38869841150254, -0.12911433897047, 0
502, 0.39120013115072, -0.13654735997138, 0
503, 0.39436037552727, -0.14367101934652, 0
504, 0.39830199553299, -0.15040819157903, 0
505, 0.40315041184924, -0.15665940888296, 0
506, 0.4087895952817, -0.16211209965433, 0
507, 0.41522098307752, -0.16676136930518, 0
508, 0.42244021370161, -0.17066000478375, 0
509, 0.42978938047148, -0.17369476144915, 0
510, 0.43686662511902, -0.17607228910647, 0
511, 0.44417469035577, -0.17823735670545, 0
512, 0.45180782528759, -0.18041295047985, 0
513, 0.45923367525818, -0.18260461926429, 0
514, 0.46629796619259, -0.18483119251076, 0
515, 0.4733726195116, -0.18719595152708, 0
516, 0.48072910198925, -0.18972318341893, 0
517, 0.4880486179639, -0.19217416235261, 0
518, 0.4951848444144, -0.19434582748726, 0
519, 0.50253007432955, -0.19618696327757, 0
520, 0.5100803114643, -0.19748857392705, 0
521, 0.51781828156786, -0.19802437759962, 0
522, 0.52570434750622, -0.19755905282588, 0
523, 0.53338702564215, -0.19594934494814, 0
524, 0.54068039629731, -0.19319675795637, 0
525, 0.54740092197452, -0.18944503965151, 0
526, 0.55364081653822, -0.18477402072494, 0
527, 0.55937594786513, -0.17934739719768, 0
528, 0.56448308061983, -0.17351278637881, 0
529, 0.56909769409374, -0.1673933764923, 0
530, 0.57333879626973, -0.16108739656868, 0
531, 0.57744073563706, -0.15448462247141, 0
532, 0.58143119440177, -0.14781660509953, 0
533, 0.58546654904713, -0.14119045143579, 0
534, 0.58992621243388, -0.13451381153001, 0
535, 0.59480718330659, -0.12846791083757, 0
536, 0.60037932145228, -0.12334757546313, 0
537, 0.6069523881154, -0.11937780230276, 0
538, 0.61419134446282, -0.11682174258142, 0
539, 0.62174028497148, -0.11540546972249, 0
540, 0.62915737987185, -0.11472343905549, 0
541, 0.63649477469403, -0.11441086820516, 0
542, 0.64410223264571, -0.11423899511741, 0
543, 0.65177300205479, -0.11405923442377, 0
544, 0.65940709174168, -0.11375496027779, 0
545, 0.66711533250294, -0.11322362274266, 0
546, 0.67473014115279, -0.11239507617627, 0
547, 0.68214950336608, -0.1112234473136, 0
548, 0.68933192842811, -0.10967534538143, 0
549, 0.69659489346541, -0.10761641356823, 0
550, 0.70391196005282, -0.10494264749738, 0
551, 0.71109603275826, -0.10160694392511, 0
552, 0.71787683832811, -0.097656373317788, 0
553, 0.72408295245935, -0.09316881971269, 0
554, 0.72976825751521, -0.088087911456523, 0
555, 0.73488923370904, -0.082403450260397, 0
556, 0.73956129914587, -0.075835531047616, 0
557, 0.74337305301467, -0.068833551411958, 0
558, 0.74619505694147, -0.061796966251797, 0
559, 0.74827321953288, -0.054149029421299, 0
560, 0.74944892686731, -0.046315291378408, 0
561, 0.74974126721127, -0.038602258380879, 0
562, 0.74921052166696, -0.030761565432363, 0
563, 0.74787425896877, -0.022892872451729, 0
564, 0.74589144787457, -0.015454044227166, 0
565, 0.7433665818053, -0.0083729907559836, 0
566, 0.74029115791151, -0.0014196064607908, 0
567, 0.73677006301426, 0.0052922093561039, 0
568, 0.73285760612862, 0.011784772154977, 0
569, 0.72856823483365, 0.018130506840593, 0
570, 0.7240068096691, 0.024267010144802, 0
571, 0.71920975226466, 0.030242366066012, 0
572, 0.71412725709445, 0.036215296527766, 0
573, 0.7089582376982, 0.042073228693866, 0
574, 0.70377178424817, 0.047867770892789, 0
575, 0.36716343839884, -0.28405367303291, 0
576, 0.38508553248395, 0.26687231849453, 0
577, 0.099189257571722, -0.25000896289187, 0
578, 0.048971901465936, -0.24904905223631, 0
579, 0.150883535457, -0.25121123950523, 0
580, 0.20336100382965, -0.25279343804208, 0
581, 0.2541558151665, -0.25561276685434, 0
582, 0.29984142252823, -0.25959143015388, 0
583, 0.71690082533926, 0.092969077982184, 0
584, 0.5729218513524, 0.28095895707009, 0
585, 0.57768631539461, -0.26646856056748, 0
586, 0.050731772005063, 0.18900566887318, 0
587, 0.10581427107129, 0.2447582430306, 0
588, 0.16320789320454, 0.24709057414614, 0
589, 0.052067248830157, 0.24497036230339, 0
590, 0.27863454118095, 0.28583182274064, 0
591, 0.35080730134994, 0.29324243580941, 0
592, 0.35258295331646, 0.28090713470701, 0
593, 0.33406686144722, 0.26517799033316, 0
594, 0.39330234739337, 0.26161174272195, 0
595, 0.46125045479313, 0.26782499072762, 0
596, 0.47120819280107, 0.28269830774954, 0
597, 0.43120671449672, 0.26386216130288, 0
598, 0.42644144636723, 0.27373825606135, 0
599, 0.44430946937853, 0.28759444222684, 0
600, 0.048276833792012, 0.13232051103334, 0
601, 0.046387160992074, 0.074844129606343, 0
602, 0.043482320061993, 0.018469029382732, 0
603, 0.047315950493941, -0.19737264945099, 0
604, 0.045590902102475, -0.14442075213464, 0
605, 0.044101117861546, -0.090349328693204, 0
606, 0.043083787739575, -0.035934698594179, 0
607, 0.45222426532761, -0.24353316975123, 0
608, 0.47773041495334, -0.20252950738049, 0
609, 0.46594108737674, -0.26236575238505, 0
610, 0.34418369945061, -0.26029680609881, 0
611, 0.95175931414932, 0.20002858336983, 0
612, 0.85232387615447, 0.2595110971754, 0
613, 0.90087337883453, 0.2545350500837, 0
614, 0.9505491749395, 0.25074099636115, 0
615, 0.72824353178184, 0.20159985843454, 0
616, 0.79218699594264, 0.23334809497109, 0
617, 0.65644974431333, 0.28782547673369, 0
618, 0.63757116302886, 0.28639109093331, 0
619, 0.50460033389255, 0.27787105878056, 0
620, 0.53855528635994, 0.28662910509499, 0
621, 0.55432019396987, 0.2571554287717, 0
622, 0.60599022799026, 0.26529738111411, 0
623, 0.73953173039557, 0.18845902824833, 0
624, 0.72109082208669, 0.15593492774944, 0
625, 0.73123211052235, 0.18942596435903, 0
626, 0.70058256607463, 0.11537954541545, 0
627, 0.71455949453406, 0.072432416160192, 0
628, 0.7083235729311, 0.061370856418985, 0
629, 0.69881052333252, 0.099362687673428, 0
630, 0.71092488301045, 0.082862295386141, 0
631, 0.72827212149348, 0.20621362758362, 0
632, 0.72955276056084, 0.12700738817881, 0
633, 0.73999470575833, 0.16848631277934, 0
634, 0.71634353247048, 0.1105077920196, 0
635, 0.71413611155661, 0.045555743897354, 0
636, 0.69493317271785, 0.082176368562876, 0
637, 0.69713793038445, 0.095451851936119, 0
638, 0.95246699590548, 0.14689757865087, 0
639, 0.95365640964026, 0.090677755842814, 0
640, 0.95678104718928, 0.033420271102862, 0
641, 0.96004364005798, -0.021563160684749, 0
642, 0.95976728110255, -0.078213817621102, 0
643, 0.51343571167715, -0.27578092924832, 0
644, 0.52756014075583, -0.24292511279166, 0
645, 0.61816756922354, -0.26283251797816, 0
646, 0.71511750345943, -0.25862215202485, 0
647, 0.66635081731382, -0.25835287219455, 0
648, 0.95998518820349, -0.13853228653606, 0
649, 0.95963438822346, -0.19553215650494, 0
650, 0.76511713864404, -0.25434509761447, 0
651, 0.81702788121656, -0.25160046136365, 0
652, 0.86639167193719, -0.25103794729967, 0
653, 0.91234309131841, -0.25014131218116, 0
654, 0.95648747926008, -0.24848937117267, 0
655, 0.25133556139569, 0.2810734706642, 0
656, 0.28468084085864, 0.15857986918198, 0
657, 0.19988519820489, 0.22745448535074, 0
658, 0.3038882992032, 0.18516208907909, 0
659, 0.3039790454281, 0.17430378113213, 0
660, 0.29570559677679, 0.1923504553284, 0
661, 0.29432062791918, 0.16913090675274, 0
662, 0.26177006527204, 0.14576592153813, 0
663, 0.21169054238781, 0.16537722652186, 0
664, 0.17130056204065, 0.1886551823127, 0
665, 0.10397001441549, 0.18734245425, 0
666, 0.29514623862954, 0.19697749136369, 0
667, 0.23363949584462, 0.27800366664951, 0
668, 0.30418435506254, 0.26820925820341, 0
669, 0.30399988550029, 0.17769037758503, 0
670, 0.29494937217851, 0.20181866743604, 0
671, 0.21190255611894, 0.27541160784121, 0
672, 0.32399701852571, 0.25363278579777, 0
673, 0.30014689255007, 0.28811431523509, 0
674, 0.2793791004188, 0.15038763860407, 0
675, 0.28589103714529, 0.19592311326127, 0
676, 0.31606641835144, 0.27821289655172, 0
677, 0.30977751758902, 0.22319344496034, 0
678, 0.2836095350083, 0.27308797723738, 0
679, 0.42901759209555, 0.26876327126245, 0
680, 0.37242820618928, 0.26639675475748, 0
681, 0.36599398164502, 0.26626494195463, 0
682, 0.32174045814852, 0.27733512377921, 0
683, 0.36836816661449, 0.27958887848905, 0
684, 0.3317611756887, 0.2584714766693, 0
685, 0.32797535654216, 0.26813886927616, 0
686, 0.33277837757655, 0.28208445460867, 0
687, 0.36212253442828, 0.26662528423988, 0
688, 0.34858451109931, 0.26527804815139, 0
689, 0.40275754807581, 0.26296748375821, 0
690, 0.36897034493345, 0.27223829480219, 0
691, 0.48537418516743, 0.27751722545503, 0
692, 0.45933634427523, 0.27104252471534, 0
693, 0.4564635609867, 0.28105413490549, 0
694, 0.46804172650466, 0.26992559354803, 0
695, 0.4476568241994, 0.26653787876805, 0
696, 0.44614823847163, 0.27636130999514, 0
697, 0.46739692793654, 0.27692503961688, 0
698, 0.4634826160008, 0.28564773310487, 0
699, 0.4136272674104, 0.27497731810864, 0
700, 0.39181067068168, 0.29277033855584, 0
701, 0.42112894366927, 0.29254756905021, 0
702, 0.41760449370615, 0.27076356481355, 0
703, 0.43417109008498, 0.28101376818055, 0
704, 0.41128515396301, 0.2570846886671, 0
705, 0.39866354759656, 0.26430700007968, 0
706, 0.40223358231389, 0.27168698746956, 0
707, 0.41129585744288, 0.25901721817822, 0
708, 0.41305866850507, 0.2915885909624, 0
709, 0.4408703056896, 0.2601324360775, 0
710, 0.43316993516865, 0.2588628751812, 0
711, 0.40481089561517, 0.27555246123574, 0
712, 0.39850430731497, 0.27849666040836, 0
713, 0.30931670163895, 0.28802756513314, 0
714, 0.29885520430651, 0.24180195403397, 0
715, 0.29888017304077, 0.16195116035714, 0
716, 0.28627887602887, 0.2196520487081, 0
717, 0.31656200687031, 0.24763015172427, 0
718, 0.3107647318611, 0.27003286624919, 0
719, 0.29293367991278, 0.27570667403575, 0
720, 0.30416485754491, 0.19741455724656, 0
721, 0.27017156068695, 0.15745662390065, 0
722, 0.28280886175089, 0.17164895343511, 0
723, 0.25451264681922, 0.15780626919572, 0
724, 0.29944129530616, 0.17656987419829, 0
725, 0.25041989572306, 0.16976154825695, 0
726, 0.29747864747134, 0.1717701729167, 0
727, 0.27146652582874, 0.14692240827377, 0
728, 0.24186972551394, 0.10006030574453, 0
729, 0.30398660603696, 0.065170148208071, 0
730, 0.26645857905491, 0.097887292012577, 0
731, 0.28429218784745, 0.093111743249181, 0
732, 0.25323231810027, 0.060811067554555, 0
733, 0.26543367738167, 0.035338841529976, 0
734, 0.26809711855254, 0.13941915022292, 0
735, 0.28282841438255, 0.14529353583368, 0
736, 0.27907127071689, 0.1374322737096, 0
737, 0.2759531536498, 0.12927769551843, 0
738, 0.27395279881339, 0.12057511362106, 0
739, 0.32449097440248, 0.025225859651599, 0
740, 0.31066635912822, 0.052559414214885, 0
741, 0.30290828664666, 0.057783688279797, 0
742, 0.31986875964143, 0.028494885222088, 0
743, 0.2752345768365, 0.058286875342036, 0
744, 0.21324752665159, 0.057286296937787, 0
745, 0.25005631925271, 0.024057468501745, 0
746, 0.27573784521851, 0.099473234144728, 0
747, 0.274365266665, 0.10757212257611, 0
748, 0.31464098215131, 0.027867596469775, 0
749, 0.3018756632098, 0.037508204737258, 0
750, 0.32544735866594, 0.035963904484051, 0
751, 0.31390726229426, 0.0093618148937489, 0
752, 0.32391569950203, 0.021814163791913, 0
753, 0.31501966721255, 0.036489163849345, 0
754, 0.32023798388545, 0.018463684320545, 0
755, 0.32261438726439, 0.015763633671761, 0
756, 0.30729403908503, 0.0085131411331531, 0
757, 0.31418391862754, 0.015028778654727, 0
758, 0.30813235064571, 0.031678030099708, 0
759, 0.26552196527648, 0.068854442299523, 0
760, 0.26035980998819, 0.12018280343041, 0
761, 0.24539539672609, 0.12045132252819, 0
762, 0.26343041653988, 0.13092379455916, 0
763, 0.2513493978715, 0.13674214577284, 0
764, 0.19398838050259, 0.11153305302362, 0
765, 0.13743472591835, 0.078177385928556, 0
766, 0.23013425627467, 0.043371382432056, 0
767, 0.20954268986247, 0.045492039243413, 0
768, 0.30088987684681, 0.068228343515766, 0
769, 0.29786548706903, 0.071382042013277, 0
770, 0.27996950953207, 0.066869860026174, 0
771, 0.26706692912504, 0.11544568035263, 0
772, 0.23498770898916, 0.094605062392258, 0
773, 0.27543373512944, 0.031769235475203, 0
774, 0.21838956407534, 0.0995457886845, 0
775, 0.26738081085835, 0.042418619498931, 0
776, 0.28011447648808, 0.082903942263223, 0
777, 0.12805455714707, 0.0045340091294923, 0
778, 0.26904094752273, 0.1020585284271, 0
779, 0.097253735101977, 0.12910706589804, 0
780, 0.14589635857665, 0.12509582727675, 0
781, 0.097187317583314, 0.067149442574205, 0
782, 0.13156983778129, 0.043648690828194, 0
783, 0.086658027322229, 0.01045444563697, 0
784, 0.20099033114414, -0.20365740044608, 0
785, 0.39261040782746, -0.15326598581755, 0
786, 0.34261482280394, -0.077048279050576, 0
787, 0.19942109623577, -0.15299485837689, 0
788, 0.14714252726304, -0.20139826603506, 0
789, 0.092886829759873, -0.14756044196825, 0
790, 0.096071530564777, -0.19928906820867, 0
791, 0.087562157363505, -0.041341976287094, 0
792, 0.14370625718881, -0.15047533829194, 0
793, 0.08989996766936, -0.09480831292228, 0
794, 0.17093994554123, -0.026061683080278, 0
795, 0.24057693790967, -0.032328528267887, 0
796, 0.23973441470102, -0.01059111742576, 0
797, 0.20553999874865, -0.018440527204799, 0
798, 0.13813313034397, -0.044180012393329, 0
799, 0.17826778424478, -0.055986700026505, 0
800, 0.21319838587906, -0.044858721416592, 0
801, 0.24998786596005, -0.04994989904282, 0
802, 0.13939862074891, -0.098859397540273, 0
803, 0.20056046115927, -0.098725632656873, 0
804, 0.25665823692869, -0.11274516604821, 0
805, 0.51139520340514, -0.22848585059776, 0
806, 0.44878931040091, -0.18788927654654, 0
807, 0.46320500750596, -0.18891087416198, 0
808, 0.44252280471329, -0.18258190221195, 0
809, 0.4337658021802, -0.19712953387851, 0
810, 0.39754566640738, -0.24697017035846, 0
811, 0.44384449833613, -0.19634660822649, 0
812, 0.46509399494474, -0.21976538602081, 0
813, 0.44770456375641, -0.21111083941547, 0
814, 0.42791966073179, -0.22543206094849, 0
815, 0.46991139557765, -0.21390177878465, 0
816, 0.44923371375249, -0.19954739499206, 0
817, 0.43901803858651, -0.19688719959997, 0
818, 0.51671759026792, -0.22254022928736, 0
819, 0.41457749246232, -0.17321274601202, 0
820, 0.43083947203257, -0.23367594706409, 0
821, 0.49298472529162, -0.20042448389488, 0
822, 0.50638555563257, -0.22896166072147, 0
823, 0.50391850476526, -0.20920510644103, 0
824, 0.4341714698157, -0.21611554197475, 0
825, 0.39857692691686, -0.25927876054961, 0
826, 0.40607863590316, -0.17541220821719, 0
827, 0.30789045808155, -0.11169787414761, 0
828, 0.33463454184653, -0.22709425339406, 0
829, 0.35876432620671, -0.23565616834171, 0
830, 0.41851135372279, -0.17520679505853, 0
831, 0.3592994200941, -0.079630562210501, 0
832, 0.38873013107899, -0.22225685879468, 0
833, 0.32570564448811, -0.16706135086037, 0
834, 0.30109594453217, -0.21907587702953, 0
835, 0.35080989240351, -0.12855268985924, 0
836, 0.29479310608006, -0.12524958922317, 0
837, 0.37202343706538, -0.13826559410241, 0
838, 0.35930549225996, -0.12405309508731, 0
839, 0.35113013456714, -0.17433104265307, 0
840, 0.30828165679742, -0.10212283833855, 0
841, 0.37239643650874, -0.09353952505799, 0
842, 0.35805811830459, -0.083299599344413, 0
843, 0.37832888754956, -0.15397007737958, 0
844, 0.36463427938049, -0.11201269173506, 0
845, 0.29536110216863, -0.10145510847535, 0
846, 0.37752094449479, -0.14523472789164, 0
847, 0.38665244439231, -0.15614409506595, 0
848, 0.49500331683445, -0.20777373342827, 0
849, 0.41178419591107, -0.20911926534715, 0
850, 0.44507007318203, -0.23722170623399, 0
851, 0.47246927038029, -0.28770705153953, 0
852, 0.45727559465573, -0.28672375412173, 0
853, 0.47908136226355, -0.23496173139063, 0
854, 0.39776113304374, -0.23555015874561, 0
855, 0.39893979366822, -0.16985906816627, 0
856, 0.39172732793243, -0.17705991143352, 0
857, 0.37855318421904, -0.17681310682781, 0
858, 0.39208378282641, -0.16380523649562, 0
859, 0.32277779003541, -0.08648631572451, 0
860, 0.45825989089449, -0.20455495981509, 0
861, 0.51540542190464, -0.23510423441703, 0
862, 0.41082384788847, -0.17097288710546, 0
863, 0.44128973016438, -0.21389166485974, 0
864, 0.37902553163901, -0.13788271719637, 0
865, 0.37299831417241, -0.10138621702207, 0
866, 0.34332516088059, -0.10664333304423, 0
867, 0.34933772277105, -0.077364063003859, 0
868, 0.26376157483805, -0.17828655327875, 0
869, 0.35506826738844, -0.11489197072725, 0
870, 0.35331625070916, -0.16262823894622, 0
871, 0.29841297934931, -0.1376559721051, 0
872, 0.37748165571477, -0.12096046230431, 0
873, 0.36343297662735, -0.16278219860461, 0
874, 0.36507324380185, -0.079515634445511, 0
875, 0.36466543976878, -0.08316860224714, 0
876, 0.30915808104761, -0.12162392789551, 0
877, 0.3633112925348, -0.094982976947365, 0
878, 0.33235876024098, -0.10820193430658, 0
879, 0.37252536029417, -0.16139166822068, 0
880, 0.3598316593422, -0.066561952662829, 0
881, 0.36487011357246, -0.068212023135839, 0
882, 0.36514231215667, -0.073068292793461, 0
883, 0.3569621597365, -0.072503179583297, 0
884, 0.34100847192001, -0.14631201502056, 0
885, 0.34799124450457, -0.13898043851509, 0
886, 0.33588510806318, -0.069133747188964, 0
887, 0.34364973623414, -0.069303096212711, 0
888, 0.34969834200721, -0.070473228768585, 0
889, 0.35310982417052, -0.064501010836504, 0
890, 0.34607051301693, -0.062545983034993, 0
891, 0.33856988519225, -0.060703472937633, 0
892, 0.36328597413601, -0.10341995732418, 0
893, 0.38242085117136, -0.16403101472391, 0
894, 0.35974615875544, -0.14621119520037, 0
895, 0.36427509325609, -0.15487906399287, 0
896, 0.32584084030139, -0.067443817558889, 0
897, 0.31539313160927, -0.063065693728443, 0
898, 0.29409472184034, -0.077725578903499, 0
899, 0.28034023588726, -0.062642376393545, 0
900, 0.26700506439036, -0.05633993055027, 0
901, 0.30704959847719, -0.05579523204493, 0
902, 0.29418896229978, -0.064899725319726, 0
903, 0.32239371193336, -0.054336389240959, 0
904, 0.31498215307941, -0.049261797075336, 0
905, 0.28690961654924, -0.051275533870825, 0
906, 0.30120850230514, -0.033253825789173, 0
907, 0.30527039519139, -0.044841899481327, 0
908, 0.26494183819855, -0.04163929838311, 0
909, 0.2838963412664, -0.037306773539996, 0
910, 0.29466013319668, 0.0020530594953142, 0
911, 0.26367707717339, -0.025727881359848, 0
912, 0.2680796375539, -0.0083874751126707, 0
913, 0.28404959462808, -0.02340369458196, 0
914, 0.28779898246326, -0.0099258848975397, 0
915, 0.2808820888142, 0.027553851124905, 0
916, 0.31654668786829, 0.012390384909019, 0
917, 0.30621581967937, -0.0023581043472457, 0
918, 0.30235667349502, -0.011851737332996, 0
919, 0.30048014742691, -0.022295496596371, 0
920, 0.33048192939876, -0.058165638304232, 0
921, 0.72102941948043, 0.21072654819921, 0
922, 0.75595077135598, 0.19529013702657, 0
923, 0.71978814868863, 0.19431802828891, 0
924, 0.76214534627887, 0.21412184693581, 0
925, 0.72148457424537, 0.18676532731673, 0
926, 0.70991358499587, 0.13326569615005, 0
927, 0.80707742470039, 0.1699268884896, 0
928, 0.83089967434234, 0.24280791158037, 0
929, 0.7297096000891, 0.22352680746336, 0
930, 0.72780409508042, 0.19770012838134, 0
931, 0.80814715631077, 0.21182171738276, 0
932, 0.7413093238207, 0.21757185366997, 0
933, 0.74992503926586, 0.18847574767351, 0
934, 0.7096627498747, 0.22634084198165, 0
935, 0.90261705526472, 0.20668766814069, 0
936, 0.71513262621171, 0.20983209287071, 0
937, 0.76385179802225, 0.18925104738197, 0
938, 0.70657509233995, 0.2292352188418, 0
939, 0.79101576926541, 0.21815476485273, 0
940, 0.72662140008956, 0.18754908898122, 0
941, 0.69198877286474, 0.24619909482761, 0
942, 0.71298937473011, 0.2363066296407, 0
943, 0.72467961101534, 0.2517731679058, 0
944, 0.70019124631698, 0.25276653385148, 0
945, 0.78761018242564, 0.26549261386223, 0
946, 0.69490947629908, 0.28543335539536, 0
947, 0.70663564253183, 0.24201994897728, 0
948, 0.66882561970898, 0.26521817814384, 0
949, 0.65498597269467, 0.24848228531612, 0
950, 0.67538856256423, 0.2640894264447, 0
951, 0.61971995030319, 0.24788266098189, 0
952, 0.66562487105554, 0.2878204262264, 0
953, 0.58191996357568, 0.27243599582501, 0
954, 0.62283885710155, 0.24961694531998, 0
955, 0.66227809009532, 0.26582513749562, 0
956, 0.655454546957, 0.25676798022691, 0
957, 0.61296850760943, 0.25250709803684, 0
958, 0.69603360626012, 0.24276751152304, 0
959, 0.65008631016377, 0.25669838651757, 0
960, 0.51759857287163, 0.29245175591872, 0
961, 0.53176319347386, 0.28702689918401, 0
962, 0.52587588962729, 0.26711269151026, 0
963, 0.55333813111495, 0.25486938527602, 0
964, 0.54802909243448, 0.25885282007872, 0
965, 0.53396337572493, 0.26752705683298, 0
966, 0.54149887325443, 0.2636147158602, 0
967, 0.56999123627238, 0.25688832295263, 0
968, 0.55372585193923, 0.2646998753134, 0
969, 0.53626559736293, 0.27573864290521, 0
970, 0.54617560282988, 0.27171162925039, 0
971, 0.55998870947871, 0.2623494366794, 0
972, 0.61020325722064, 0.25832185644698, 0
973, 0.6220233824818, 0.24480494549769, 0
974, 0.57620467343292, 0.24844579633388, 0
975, 0.63721643987751, 0.24799891699961, 0
976, 0.61722169711107, 0.24624686558021, 0
977, 0.63335044224174, 0.27193927607105, 0
978, 0.61951579651062, 0.25304885327791, 0
979, 0.57525161911481, 0.25541720512709, 0
980, 0.55986894218415, 0.25324747558938, 0
981, 0.59352324996846, 0.24590560655377, 0
982, 0.5795615482892, 0.24658102198955, 0
983, 0.5885715382545, 0.24857499678905, 0
984, 0.72376196315392, 0.19808606123089, 0
985, 0.7029176933584, 0.12214739205654, 0
986, 0.81053832333161, 0.22896399960544, 0
987, 0.79063254968906, 0.24918928442714, 0
988, 0.76992041113804, 0.1987454541576, 0
989, 0.68706927660221, 0.080530550058014, 0
990, 0.72474872711452, 0.097271735488634, 0
991, 0.70122573425962, 0.093720117794512, 0
992, 0.6959649561947, 0.066966806312281, 0
993, 0.70043389116254, 0.10330013453584, 0
994, 0.71195569747607, 0.11954946070874, 0
995, 0.72981566555158, 0.13731867086699, 0
996, 0.7161564217572, 0.14370670127133, 0
997, 0.7083862526789, 0.11882919306323, 0
998, 0.726333026974, 0.049770435522164, 0
999, 0.72348256318012, 0.082302643296169, 0
1000, 0.70968796331185, 0.089895720822659, 0
1001, 0.71637712997636, 0.051935851763014, 0
1002, 0.7231554878286, 0.05212322827532, 0
1003, 0.7454409976514, 0.090934598646421, 0
1004, 0.70539040499412, 0.091883581822673, 0
1005, 0.71869694460486, 0.085203280586702, 0
1006, 0.70279108385832, 0.067584694729933, 0
1007, 0.69772503204208, 0.10816858639285, 0
1008, 0.71684111968882, 0.042635191043432, 0
1009, 0.79313627396243, 0.017239444111671, 0
1010, 0.74663916472014, 0.077326177101937, 0
1011, 0.75703844292739, 0.052962004326497, 0
1012, 0.71449589300993, 0.12530220260571, 0
1013, 0.74735652251133, 0.17710536658118, 0
1014, 0.71304177939438, 0.21367796480675, 0
1015, 0.78746683183497, 0.20397350900397, 0
1016, 0.70394423683546, 0.12497297278617, 0
1017, 0.84539378324354, 0.16551764733695, 0
1018, 0.80338774585729, 0.14435689874584, 0
1019, 0.86047947430879, 0.11512960222587, 0
1020, 0.82090242003178, 0.10995247305263, 0
1021, 0.77884078979655, 0.097488952358557, 0
1022, 0.74934723587981, 0.10167306552287, 0
1023, 0.79000312956921, 0.0091478929163554, 0
1024, 0.79454335911073, 0.026273881038362, 0
1025, 0.80854888954979, 0.035747902564641, 0
1026, 0.78090678581674, -0.012733419135749, 0
1027, 0.8005050251144, 0.0049046905322841, 0
1028, 0.72580675923957, 0.054592144192482, 0
1029, 0.78184999495668, 0.035095649244633, 0
1030, 0.7311893803718, 0.027344937911688, 0
1031, 0.75057175670267, 0.02925307406969, 0
1032, 0.76636659696497, -0.0086211503709561, 0
1033, 0.75676531028374, -0.013592672601337, 0
1034, 0.75223442181056, 0.04230897115844, 0
1035, 0.74133000664687, 0.050512053434072, 0
1036, 0.73080166668226, 0.095633472906516, 0
1037, 0.77225472489468, 0.013697265643844, 0
1038, 0.7110322542529, 0.05819933412025, 0
1039, 0.77568629248937, -0.008407907632305, 0
1040, 0.83958915957915, 0.0484045515088, 0
1041, 0.87330658083741, 0.048640901796552, 0
1042, 0.86714719309786, 0.082163569410293, 0
1043, 0.83280044693151, 0.07809919880704, 0
1044, 0.90320683525551, 0.15499182261561, 0
1045, 0.90149295566913, 0.096973906346455, 0
1046, 0.90912112880864, 0.034928607513974, 0
1047, 0.88882638374587, -0.045221979981435, 0
1048, 0.91528414657732, -0.072260914906469, 0
1049, 0.92068407304073, -0.017859477839435, 0
1050, 0.88448675888534, -0.016784540935334, 0
1051, 0.80293040685374, -0.10172568288932, 0
1052, 0.80376996269723, -0.11066200157688, 0
1053, 0.74184822578733, -0.10195008081242, 0
1054, 0.80425077038306, -0.12008085657081, 0
1055, 0.75681338976385, -0.13230360307069, 0
1056, 0.78096690016262, -0.13800320301886, 0
1057, 0.80435495747138, -0.1384261408623, 0
1058, 0.82620205249512, -0.13012954033382, 0
1059, 0.88724248215821, -0.12860825147972, 0
1060, 0.85769707720639, -0.12916473825439, 0
1061, 0.85234533821905, -0.095078200607326, 0
1062, 0.88177273590212, -0.088344806314055, 0
1063, 0.86650028477769, -0.0551605650989, 0
1064, 0.83543127908145, -0.061256632544928, 0
1065, 0.82546045794056, -0.099493888515391, 0
1066, 0.79751768870072, -0.08673680734911, 0
1067, 0.81109582446556, -0.075417368292623, 0
1068, 0.78996172143786, -0.069321360182069, 0
1069, 0.78672567530366, -0.079079112096668, 0
1070, 0.75754898926124, -0.090070433557232, 0
1071, 0.74998969065911, -0.096589157396857, 0
1072, 0.76321579926728, -0.082373516440444, 0
1073, 0.78390026110829, -0.088385688247611, 0
1074, 0.76711745860745, -0.074088352829594, 0
1075, 0.76952634966963, -0.065448039948317, 0
1076, 0.77042163134378, -0.056499845385868, 0
1077, 0.79945251170949, -0.020087290268365, 0
1078, 0.76482773743748, -0.029399313747386, 0
1079, 0.78152736319633, -0.025857602967607, 0
1080, 0.76789807948198, -0.038257122623366, 0
1081, 0.78710677508254, -0.036588657682922, 0
1082, 0.80646784799159, -0.03404371204581, 0
1083, 0.80904480344668, -0.049090002713254, 0
1084, 0.79025889419459, -0.04777109769541, 0
1085, 0.76983716077846, -0.047369620456506, 0
1086, 0.79093471243071, -0.058704281007693, 0
1087, 0.80522771446932, -0.060215080947586, 0
1088, 0.83416357750172, -0.021547559427723, 0
1089, 0.87706387257197, 0.018455203955349, 0
1090, 0.75593248840543, 0.0020278078080896, 0
1091, 0.84095780797173, 0.018382574506459, 0
1092, 0.72838102238107, 0.030591722389704, 0
1093, 0.75280415293853, -0.01841676529186, 0
1094, 0.74675539169573, 0.018532653648622, 0
1095, 0.75655972111764, 0.010261646689742, 0
1096, 0.74840806431866, 0.014373245739267, 0
1097, 0.75977163328228, 0.031637837637134, 0
1098, 0.78289453973984, 0.02692757617028, 0
1099, 0.75648594372237, 0.0059280993729326, 0
1100, 0.75606746881628, 0.014885838407217, 0
1101, 0.74382855785699, 0.0059887447244452, 0
1102, 0.74958767624632, 0.010258148145653, 0
1103, 0.7291943503865, 0.064478387333326, 0
1104, 0.72834651415289, -0.12757050740576, 0
1105, 0.7158555221767, -0.12940052080212, 0
1106, 0.71750654922083, -0.11544471648744, 0
1107, 0.7387528240352, -0.12163565843123, 0
1108, 0.74341216216431, -0.11439637657893, 0
1109, 0.72622671432016, -0.11167220776958, 0
1110, 0.73441433670677, -0.1069585840898, 0
1111, 0.68352826441765, -0.12480772622479, 0
1112, 0.70144852230224, -0.13419425909788, 0
1113, 0.7070518295796, -0.12871427481966, 0
1114, 0.70889460425255, -0.11824465333095, 0
1115, 0.70076939913661, -0.1208134194499, 0
1116, 0.69244049508184, -0.12328061208912, 0
1117, 0.67439426216686, -0.12546611121643, 0
1118, 0.66560693415495, -0.1258238619802, 0
1119, 0.65683983525943, -0.12577627347149, 0
1120, 0.64828238891913, -0.1255911540872, 0
1121, 0.63985557150538, -0.12521780584015, 0
1122, 0.63172275024706, -0.12486084189432, 0
1123, 0.62407026306921, -0.12450039708326, 0
1124, 0.61745185590674, -0.12549125479407, 0
1125, 0.61038933777698, -0.12718608717205, 0
1126, 0.6045977127546, -0.12812273894308, 0
1127, 0.61364538177159, -0.13756699038687, 0
1128, 0.60274573602945, -0.13371058669976, 0
1129, 0.59615913065298, -0.148636272638, 0
1130, 0.5997866763878, -0.14109827956778, 0
1131, 0.61026859928452, -0.14770080843312, 0
1132, 0.62118302924804, -0.16229844722751, 0
1133, 0.60940902759581, -0.17532294952688, 0
1134, 0.59217110696933, -0.15600263046711, 0
1135, 0.6064998474879, -0.15592733614678, 0
1136, 0.60213401897925, -0.16386184259054, 0
1137, 0.59768296042203, -0.17102593482838, 0
1138, 0.58799645181283, -0.16324532521133, 0
1139, 0.57332946508253, -0.1839554213087, 0
1140, 0.57859812435492, -0.1771068563266, 0
1141, 0.58794237715391, -0.18566542592339, 0
1142, 0.58346382960207, -0.17025633943628, 0
1143, 0.60027532598568, -0.19029329632355, 0
1144, 0.59285115797737, -0.17858014067126, 0
1145, 0.62097469006306, -0.20832917118673, 0
1146, 0.59070967844067, -0.20221991224525, 0
1147, 0.56726849159318, -0.19048300467459, 0
1148, 0.5826568073617, -0.19350448142286, 0
1149, 0.56022466292174, -0.19637017141017, 0
1150, 0.57775437226546, -0.20319731303598, 0
1151, 0.55239006024469, -0.20127806002606, 0
1152, 0.53970729112082, -0.24510276887051, 0
1153, 0.49126765466688, -0.25518654196837, 0
1154, 0.52103578713141, -0.25268479789284, 0
1155, 0.39577714075862, -0.19328905057469, 0
1156, 0.50838666805382, -0.20961839311584, 0
1157, 0.52630611083319, -0.20929480969956, 0
1158, 0.51733102328189, -0.20987126372356, 0
1159, 0.49369896950543, -0.23688059693831, 0
1160, 0.50079532733464, -0.22935754716236, 0
1161, 0.52682196401419, -0.2222509318901, 0
1162, 0.51122040848461, -0.23334685419313, 0
1163, 0.52116028979926, -0.23572590976562, 0
1164, 0.54399367603989, -0.20508041312147, 0
1165, 0.55781084487305, -0.21458806039478, 0
1166, 0.53523916033635, -0.20772650215092, 0
1167, 0.53709605038629, -0.22086519921916, 0
1168, 0.54746773715887, -0.21845892246175, 0
1169, 0.53861960123306, -0.23428677945231, 0
1170, 0.55040744040191, -0.23277430971142, 0
1171, 0.5675524782972, -0.24672970638903, 0
1172, 0.60551220900045, -0.24008560156404, 0
1173, 0.62720498387634, -0.23628285542611, 0
1174, 0.56359609637791, -0.22945546966929, 0
1175, 0.58443320462632, -0.24390222639955, 0
1176, 0.56750042132753, -0.20900257504537, 0
1177, 0.57887107245956, -0.22183731337259, 0
1178, 0.59893659243253, -0.2186382658113, 0
1179, 0.70251358543798, -0.1749228051028, 0
1180, 0.7595652413852, -0.16539073056326, 0
1181, 0.72739008302436, -0.17540577545074, 0
1182, 0.74018905354911, -0.14386548445473, 0
1183, 0.71724854365693, -0.14726558002122, 0
1184, 0.69789484463255, -0.15323855079487, 0
1185, 0.69105226369978, -0.13741925101516, 0
1186, 0.67891795731539, -0.15125222656509, 0
1187, 0.68011237782111, -0.13760570212739, 0
1188, 0.670633750866, -0.13784740955553, 0
1189, 0.65932107883892, -0.14980608907465, 0
1190, 0.6607631179161, -0.1372409285626, 0
1191, 0.65181675646325, -0.13695055998903, 0
1192, 0.62324338621825, -0.13348284122446, 0
1193, 0.63379927956846, -0.1352900641013, 0
1194, 0.64232420523212, -0.13585742683042, 0
1195, 0.64041396102212, -0.14752890278536, 0
1196, 0.62470767155841, -0.14512876532288, 0
1197, 0.64408236097176, -0.16818376680351, 0
1198, 0.66416081200389, -0.17095896830163, 0
1199, 0.68221799697639, -0.17284438580761, 0
1200, 0.67261022352963, -0.19476574752033, 0
1201, 0.62594211000747, -0.18444201343654, 0
1202, 0.64686097275688, -0.1888039186735, 0
1203, 0.64924512968318, -0.20883197007798, 0
1204, 0.69953694461903, -0.19428535945746, 0
1205, 0.71927946162456, -0.2126544406718, 0
1206, 0.68030699640009, -0.22701088456362, 0
1207, 0.65426208892393, -0.23244655171312, 0
1208, 0.8797488056003, -0.20293103842617, 0
1209, 0.91950126573837, -0.19977913371473, 0
1210, 0.88674693517066, -0.16113906426239, 0
1211, 0.91681341902322, -0.14176103377231, 0
1212, 0.85672088578585, -0.16254212799687, 0
1213, 0.76807018005726, -0.14669752805844, 0
1214, 0.82876939144175, -0.16293355340482, 0
1215, 0.79515610413731, -0.1614763393056, 0
1216, 0.77618522775868, -0.20167333536654, 0
1217, 0.83398064801181, -0.19795368894882, 0
1218, 0.71429117554547, 0.22941931569267, 0
1219, 0.78323422876691, 0.28237228595804, 0
1220, 0.71644655561953, 0.24221217514583, 0
1221, 0.72802032772636, 0.18347441133605, 0
1222, 0.75377047766171, -0.11370888251667, 0
1223, 0.79234582841788, -0.11822892989078, 0
1224, 0.88988480207373, 0.047115464636166, 0
1225, 0.89286970372657, 0.022295733201717, 0
1226, 0.8735169797241, 0.033539120709214, 0
1227, 0.72525160421022, 0.21644164255915, 0
1228, 0.72511140501498, 0.19127101047039, 0
1229, 0.72871412757052, 0.15235131614788, 0
1230, 0.5233980308297, 0.2722321984681, 0
1231, 0.49014900666316, 0.27811854332001, 0
1232, 0.75971894607407, 0.23705365912352, 0
1233, 0.46545801684912, -0.22947830782786, 0
1234, 0.43461548622719, -0.18078674463945, 0
1235, 0.21239634441292, 0.11767962362532, 0
1236, 0.20827787769983, 0.08995703851393, 0
1237, 0.24584518265562, 0.11181499603637, 0
1238, 0.31160670762202, -0.05280683757381, 0
1239, 0.30480766160642, -0.051013507085139, 0
1240, 0.31136302214327, -0.046566120882845, 0
1241, 0.58627577138325, 0.24419299835308, 0
1242, 0.31871696820517, -0.22361599004667, 0
1243, 0.34925281503792, -0.19214024330405, 0
1244, 0.37642507399252, -0.20179748548011, 0
1245, 0.80321369309706, -0.027104769908061, 0
1246, 0.80998274538004, -0.016863739594864, 0
1247, 0.81746821366291, -0.032060370169156, 0
1248, 0.23946108947936, 0.079757659434378, 0
1249, 0.2550975926287, 0.10711376664635, 0
1250, 0.26744398670715, 0.11069200545547, 0
1251, 0.28309004199677, 0.1648185717418, 0
1252, 0.28733336202749, 0.15303540324075, 0
1253, 0.27630167237942, 0.23026043046685, 0
1254, 0.64940284981063, 0.26559337844334, 0
1255, 0.25416380110267, -0.064348123536218, 0
1256, 0.23240178685592, -0.10943041154224, 0
1257, 0.52467920523465, 0.28651294957736, 0
1258, 0.51922938114054, 0.27901532451856, 0
1259, 0.49490741597245, 0.27838245954686, 0
1260, 0.50358036026921, 0.29251178381201, 0
1261, 0.88587260239146, -0.1448597208754, 0
1262, 0.90192785666493, -0.13066951823182, 0
1263, 0.90226075791515, -0.15697069322183, 0
1264, 0.26284505476976, 0.080627423076549, 0
1265, 0.27859395703798, 0.08721497478539, 0
1266, 0.82237027444061, 0.15330316568666, 0
1267, 0.7232227606185, 0.17400060583268, 0
1268, 0.25733559674529, -0.055387126063372, 0
1269, 0.25699723363067, -0.04428049947024, 0
1270, 0.26663357298062, -0.04867512305852, 0
1271, 0.8628624719579, 0.097673333176055, 0
1272, 0.8807393267354, 0.11227705651901, 0
1273, 0.88393717387658, 0.085487455224547, 0
1274, 0.72227773476478, 0.18269852234667, 0
1275, 0.72718849687696, 0.21127686310706, 0
1276, 0.31437125494018, -0.15939633007917, 0
1277, 0.25639335414194, -0.20749350632257, 0
1278, 0.32546340606905, 0.26122985154398, 0
1279, 0.35803460749811, 0.27084868091353, 0
1280, 0.31745633232431, 0.28649595420437, 0
1281, 0.30924593304056, 0.27829425913667, 0
1282, 0.72214948588919, 0.1604069272138, 0
1283, 0.74538708897598, 0.2357607165449, 0
1284, 0.75662025202298, 0.12813205164053, 0
1285, 0.77786654209248, -0.1644297583489, 0
1286, 0.79179373691832, -0.1805689932629, 0
1287, 0.76515246731554, -0.18342392250542, 0
1288, 0.52538518142004, 0.28096540838365, 0
1289, 0.52303210586938, 0.26838945293022, 0
1290, 0.58698771490976, -0.19711109776006, 0
1291, 0.58482759842587, -0.20454195405446, 0
1292, 0.57974610130894, -0.1974032069557, 0
1293, 0.67976867420829, 0.27465987602858, 0
1294, 0.60255565923649, 0.25059253595893, 0
1295, 0.85256492536093, -0.059847247937778, 0
1296, 0.83440875709668, -0.043454907791267, 0
1297, 0.85771505802231, -0.039896316496413, 0
1298, 0.29256973576331, 0.15154743285131, 0
1299, 0.30508470549461, 0.20597141352575, 0
1300, 0.30646043868827, 0.23613568495683, 0
1301, 0.15488329057059, -0.03090322007251, 0
1302, 0.17553172665411, -0.040238889297648, 0
1303, 0.15922914219118, -0.055961006709324, 0
1304, 0.55077791565509, 0.25662210051785, 0
1305, 0.54737210279486, 0.26475541032512, 0
1306, 0.55046666300978, 0.26850328044797, 0
1307, 0.56540286963275, 0.26343381701808, 0
1308, 0.55291336501771, 0.28341071704402, 0
1309, 0.5568167175825, 0.25740469225049, 0
1310, 0.49599815317041, 0.28527278901146, 0
1311, 0.53738318939021, 0.28080351077317, 0
1312, 0.52917610793253, 0.26571426950666, 0
1313, 0.59777382864697, 0.25501410444238, 0
1314, 0.61557424491327, 0.24492567228608, 0
1315, 0.63051276840096, 0.25294193891304, 0
1316, 0.56971924697258, -0.25591026483081, 0
1317, 0.57557012867992, -0.24461984906316, 0
1318, 0.58443872574564, -0.25425149332503, 0
1319, 0.79365439223513, -0.13743849858671, 0
1320, 0.80351886900998, -0.14921337822056, 0
1321, 0.78662835340398, -0.14978698899155, 0
1322, 0.26724753083336, 0.16498935134578, 0
1323, 0.60182485674476, 0.28108772012354, 0
1324, 0.59123829729083, 0.2734048192386, 0
1325, 0.62223753398669, 0.26378617277697, 0
1326, 0.31665497659985, 0.25646371626889, 0
1327, 0.19453171020532, 0.17501986097977, 0
1328, 0.28474822903649, 0.20738781718234, 0
1329, 0.45196682856686, -0.19451292751901, 0
1330, 0.42252747139639, -0.17694259448197, 0
1331, 0.46997476086434, -0.19213334249489, 0
1332, 0.55092736440847, -0.24806694581686, 0
1333, 0.5335822266872, -0.25878619494639, 0
1334, 0.53922189487359, -0.24034824244637, 0
1335, 0.33431620818832, -0.24293136950027, 0
1336, 0.34719337191139, -0.23041149284208, 0
1337, 0.35387683826749, -0.24772943895421, 0
1338, 0.32002080416094, 0.032316334163887, 0
1339, 0.29906099820159, 0.060719013425467, 0
1340, 0.7857016068146, 0.13758024980952, 0
1341, 0.60885887128589, -0.25109400388287, 0
1342, 0.61582572839854, -0.23727028449165, 0
1343, 0.62684896088105, -0.24891637584556, 0
1344, 0.59278529421985, -0.18892171418491, 0
1345, 0.59024961079822, -0.18204156591012, 0
1346, 0.59702997979653, -0.18262556531412, 0
1347, 0.4805375354218, 0.27651066352266, 0
1348, 0.49035478951773, 0.28511487387951, 0
1349, 0.26750974211117, -0.06604643940939, 0
1350, 0.28609113502303, -0.087150794487402, 0
1351, 0.28063146985666, -0.099419979816647, 0
1352, 0.67877575587083, -0.24244251740735, 0
1353, 0.65741061699822, -0.24490380292829, 0
1354, 0.6667801295391, -0.22913899900188, 0
1355, 0.37184973225406, -0.12803283085163, 0
1356, 0.32031345778787, -0.11002151413079, 0
1357, 0.30143427178883, -0.1731095636775, 0
1358, 0.84275619362507, -0.16155184592831, 0
1359, 0.85181562121746, -0.17917882068788, 0
1360, 0.82914856860015, -0.17872267679285, 0
1361, 0.62715014435239, 0.26798894997784, 0
1362, 0.61546980137073, -0.1519735668233, 0
1363, 0.61167586832651, -0.1592591160523, 0
1364, 0.60814803338807, -0.15175302733881, 0
1365, 0.45547622569184, -0.20117563573092, 0
1366, 0.36567178253168, -0.18317526599063, 0
1367, 0.37995778135447, -0.18646589401345, 0
1368, 0.37499494454208, -0.11326002974174, 0
1369, 0.32022419108406, -0.10193215481955, 0
1370, 0.54417151210123, -0.24667753705104, 0
1371, 0.5201755352593, -0.24354370453658, 0
1372, 0.5067743513241, -0.22250650255711, 0
1373, 0.60633920943454, -0.16783672868021, 0
1374, 0.60232177786077, -0.17391125202214, 0
1375, 0.59957592676205, -0.16721675091376, 0
1376, 0.62066590973651, -0.12459872266567, 0
1377, 0.62441427064495, -0.1286233092114, 0
1378, 0.61917133428046, -0.12938049503251, 0
1379, 0.74187985827805, 0.026662545156717, 0
1380, 0.83905019754245, 0.0013291787025472, 0
1381, 0.62919813694502, 0.24663299631921, 0
1382, 0.6397744876418, 0.25548837757916, 0
1383, 0.38085172362734, 0.26316682894012, 0
1384, 0.43531267054049, 0.2645280932958, 0
1385, 0.42541213805394, 0.25804337414733, 0
1386, 0.27988499579542, 0.017933706797472, 0
1387, 0.25001649490835, 0.033953436027999, 0
1388, 0.17582176002003, 0.06991484092666, 0
1389, 0.58958602910397, 0.24511676662146, 0
1390, 0.57229259724904, 0.25013626532619, 0
1391, 0.59127717011093, 0.25939088704856, 0
1392, 0.55046564814628, 0.26186360774681, 0
1393, 0.56044971135309, 0.25759855388826, 0
1394, 0.61484239303374, -0.16914439221926, 0
1395, 0.62628713646636, -0.17468524302408, 0
1396, 0.61693555455588, -0.1810312287719, 0
1397, 0.28215276215892, 0.25782397546875, 0
1398, 0.28159335301861, 0.18329271629813, 0
1399, 0.31298312990672, 0.24412040176616, 0
1400, 0.31583472004335, 0.23528132048007, 0
1401, 0.23483554811806, 0.21523835837478, 0
1402, 0.68127566129131, -0.14382368169159, 0
1403, 0.67247544074438, -0.14371228203002, 0
1404, 0.67548475649583, -0.13753210981101, 0
1405, 0.34413391498567, 0.26399916040007, 0
1406, 0.33036894314419, 0.25147531606959, 0
1407, 0.36183330767619, 0.26303824164835, 0
1408, 0.3678864878558, -0.25374213577128, 0
1409, 0.27611644046115, 0.19398866241181, 0
1410, 0.11785408262981, 0.077757551356261, 0
1411, 0.13599303960304, 0.060373662659977, 0
1412, 0.1141425145281, 0.049728184500907, 0
1413, 0.34395986004278, -0.072393642997216, 0
1414, 0.34673083523862, -0.069505562120662, 0
1415, 0.34804957390888, -0.073101088355046, 0
1416, 0.65762355194519, -0.18997068263368, 0
1417, 0.66103512875283, -0.20566154735311, 0
1418, 0.6472620439591, -0.1987336102122, 0
1419, 0.28434594027611, 0.06278650403809, 0
1420, 0.26353181038308, 0.074807495043065, 0
1421, 0.57211189182663, -0.20600039898081, 0
1422, 0.58016025781049, -0.21193920712453, 0
1423, 0.57135370168134, -0.21534645461586, 0
1424, 0.66145187747314, -0.14293017157533, 0
1425, 0.65355641532714, -0.14273479049217, 0
1426, 0.65640571449836, -0.13688095952294, 0
1427, 0.71641786824702, 0.11574954297613, 0
1428, 0.70620695530148, 0.10644674537381, 0
1429, 0.73022564050669, 0.059097762691284, 0
1430, 0.63813029113471, -0.13528641045248, 0
1431, 0.6425830747685, -0.14115610489222, 0
1432, 0.63520258708303, -0.14067643760592, 0
1433, 0.47044099892801, -0.22282079895451, 0
1434, 0.43966648156537, -0.20797121060603, 0
1435, 0.36458358555827, 0.27459454831257, 0
1436, 0.37594570091557, 0.28711760283225, 0
1437, 0.37306263777834, 0.27472018488162, 0
1438, 0.35342777769941, -0.14314527529271, 0
1439, 0.3377626422563, -0.17231663972627, 0
1440, 0.52716699964554, -0.23562245040678, 0
1441, 0.50691143982185, -0.23547422065645, 0
1442, 0.50134393986643, -0.25496517591567, 0
1443, 0.31519535255333, 0.023854804268814, 0
1444, 0.31076059147039, 0.012104357048415, 0
1445, 0.30764186150451, 0.015403303160821, 0
1446, 0.32497764723007, 0.042870232141027, 0
1447, 0.27526518935154, 0.040297812963797, 0
1448, 0.74735509636294, 0.03377678875009, 0
1449, 0.77463891206379, 0.051503521153035, 0
1450, 0.73379801101064, 0.023981338812718, 0
1451, 0.59997906483824, 0.27319303918507, 0
1452, 0.61608141235485, 0.24302705940328, 0
1453, 0.56493146748145, 0.25751734825336, 0
1454, 0.79276661173189, -0.081695819636341, 0
1455, 0.7909146900517, -0.089004389123451, 0
1456, 0.7846365453978, -0.083509305983207, 0
1457, 0.24758560427371, 0.12916106955159, 0
1458, 0.2823286493941, 0.078762236491611, 0
1459, 0.26316606042984, 0.086075980506184, 0
1460, 0.26922514304119, 0.063137337335317, 0
1461, 0.8036907370556, 0.059144722744894, 0
1462, 0.75638222453035, -0.0056748602542164, 0
1463, 0.79225254340596, 0.04574810866591, 0
1464, 0.7633581259488, 0.0094963077042295, 0
1465, 0.82365928970281, 0.034933666143888, 0
1466, 0.52157227753962, -0.22901523852535, 0
1467, 0.51105723738387, -0.24274293830853, 0
1468, 0.55115708806681, -0.24017267696321, 0
1469, 0.30252881626435, 0.16833447148388, 0
1470, 0.27801345911724, 0.16753229612011, 0
1471, 0.25412097324395, 0.14891552555416, 0
1472, 0.76853287990291, -0.13241937938794, 0
1473, 0.77447651692953, -0.14442015097246, 0
1474, 0.76283796126775, -0.14193739396908, 0
1475, 0.3569116230054, -0.11958463193195, 0
1476, 0.37530648272067, -0.14059316120721, 0
1477, 0.19471313319461, 0.063127793073265, 0
1478, 0.2937723396109, 0.019451338659648, 0
1479, 0.29881819392063, 0.007180552352517, 0
1480, 0.29855613786752, -0.09110179156134, 0
1481, 0.71680526495606, 0.20587658867831, 0
1482, 0.71580182130308, 0.12072792459623, 0
1483, 0.72643742305828, 0.10404944010704, 0
1484, 0.72928237332587, 0.053783885825962, 0
1485, 0.74340444787296, 0.037953441976838, 0
1486, 0.71143882567168, 0.048519261336824, 0
1487, 0.26671107312763, 0.14732184826319, 0
1488, 0.27026264810717, 0.1430206187853, 0
1489, 0.264292922416, 0.14172965327883, 0
1490, 0.28114139575366, 0.045658180637645, 0
1491, 0.79167636421364, -0.10157662764475, 0
1492, 0.77839969225827, -0.10610424869336, 0
1493, 0.22786791960304, 0.032660353739658, 0
1494, 0.28152008480759, 0.03682006152403, 0
1495, 0.68835738022746, 0.078560415817957, 0
1496, 0.71906527083587, 0.076989699376819, 0
1497, 0.80323980988308, -0.12903127551339, 0
1498, 0.81478945347178, -0.12210090984688, 0
1499, 0.81461408666596, -0.1374047494006, 0
1500, 0.73215492080354, 0.037419705506672, 0
1501, 0.70052420305927, 0.083558672804434, 0
1502, 0.71804992074146, 0.12755848266862, 0
1503, 0.33520572396089, -0.086873806475042, 0
1504, 0.37176476123311, -0.082117893127533, 0
1505, 0.67302035471402, -0.17116724410627, 0
1506, 0.68061268558009, -0.18287705916922, 0
1507, 0.66575219775823, -0.18093421158266, 0
1508, 0.36922534021054, 0.26592872217437, 0
1509, 0.36673381474772, 0.26937764178968, 0
1510, 0.37144807903583, 0.26948427412115, 0
1511, 0.30353766153444, 0.2316816539476, 0
1512, 0.31834652646706, 0.23898731428725, 0
1513, 0.33843959739604, 0.28449617211452, 0
1514, 0.69663062306255, 0.27032446033907, 0
1515, 0.6126454677847, 0.26308366118059, 0
1516, 0.70563478642887, 0.26648765294976, 0
1517, 0.53572985072197, -0.24766843074815, 0
1518, 0.54433837511211, -0.23353673795318, 0
1519, 0.54476509957858, -0.24037853052459, 0
1520, 0.61843588173995, -0.13522269890072, 0
1521, 0.62473236134103, -0.13935014573342, 0
1522, 0.61911401433401, -0.14247899380006, 0
1523, 0.4533316060378, -0.20798602517961, 0
1524, 0.44824769562598, -0.19552223154643, 0
1525, 0.76072398918881, 0.10018375774671, 0
1526, 0.71586607887367, 0.06175935416555, 0
1527, 0.72190515662031, 0.046152312166864, 0
1528, 0.02413285299438, 0.13429016870847, 0
1529, 0.047384818144526, 0.10378699064628, 0
1530, 0.023123608668028, 0.078109267188426, 0
1531, 0.023685685369827, 0.10626641505738, 0
1532, 0.590608693161, 0.26576463167057, 0
1533, 0.5846028499951, 0.25694595820888, 0
1534, 0.59382233494983, 0.29062340228041, 0
1535, 0.62645842980806, 0.25133252566525, 0
1536, 0.60386903713702, 0.29005306645431, 0
1537, 0.62701619104069, 0.25843543961907, 0
1538, 0.9800333072968, -0.13760922125719, 0
1539, 0.96007633158891, -0.10838053911761, 0
1540, 0.97995775941221, -0.079606693285297, 0
1541, 0.98002476898263, -0.10860640251685, 0
1542, 0.85935535636906, -0.27555664962698, 0
1543, 0.88955218524487, -0.25071243051874, 0
1544, 0.90754065300514, -0.2751066350414, 0
1545, 0.88360214838966, -0.2753710273542, 0
1546, 0.025303472625572, 0.190221709513, 0
1547, 0.049632166471109, 0.16073434394309, 0
1548, 0.024713504704624, 0.16228698465708, 0
1549, 0.043036452321037, -0.0087735608131425, 0
1550, 0.021535006779472, -0.032844544584111, 0
1551, 0.02182280763097, 0.022262625350376, 0
1552, 0.021587555230957, -0.0053182317522218, 0
1553, 0.022004852485759, -0.087942472499407, 0
1554, 0.045014482911107, -0.11743131171097, 0
1555, 0.022743797840495, -0.14288751854691, 0
1556, 0.02243526758947, -0.1154694313658, 0
1557, 0.078677132144433, 0.24468642524339, 0
1558, 0.052270589036575, 0.27256095968645, 0
1559, 0.10534559940955, 0.27252100842215, 0
1560, 0.078709094097939, 0.27244627278726, 0
1561, 0.97850984095699, 0.032147609633465, 0
1562, 0.97994310943807, -0.023179647674359, 0
1563, 0.95861007720282, 0.0056448190805307, 0
1564, 0.97931142580098, 0.0043994658266939, 0
1565, 0.12498129365248, -0.25054616746622, 0
1566, 0.15316937496808, -0.27566955408739, 0
1567, 0.10076641866869, -0.27504593350459, 0
1568, 0.12691125961208, -0.27532646087239, 0
1569, 0.043731675086038, -0.063096664791351, 0
1570, 0.021811726428451, -0.060371277277233, 0
1571, 0.045075015624899, 0.046298245128789, 0
1572, 0.022467441907648, 0.050046751162085, 0
1573, 0.43790868597342, 0.27027599987736, 0
1574, 0.39678628070798, 0.27378604247641, 0
1575, 0.42153411828263, 0.25774148053907, 0
1576, 0.42069010779207, 0.26664301045132, 0
1577, 0.95507661530945, 0.061973100799471, 0
1578, 0.97703965567952, 0.088377361902111, 0
1579, 0.97776859795372, 0.060207483273535, 0
1580, 0.31208940008573, 0.2535051192469, 0
1581, 0.30315114661183, 0.24620781411187, 0
1582, 0.27257802574999, 0.20737467592608, 0
1583, 0.26310567368219, 0.15824617290481, 0
1584, 0.42836756258861, -0.19692454576357, 0
1585, 0.46151855652274, -0.20797553603104, 0
1586, 0.48858667402643, -0.2285542211753, 0
1587, 0.5314186764471, 0.28139325500306, 0
1588, 0.51762305213641, 0.27265224516776, 0
1589, 0.84209156070683, -0.25113655133068, 0
1590, 0.80960741015485, -0.27609793476276, 0
1591, 0.83465672411071, -0.27573072003336, 0
1592, 0.96013466024846, -0.049114133223422, 0
1593, 0.98006872157297, -0.051073894460147, 0
1594, 0.79099814032533, -0.25271710964803, 0
1595, 0.75907267587441, -0.27755457548928, 0
1596, 0.78423959288263, -0.27668843612442, 0
1597, 0.61589077680177, 0.26850349020898, 0
1598, 0.61312805259034, 0.24298647128743, 0
1599, 0.60326732357286, 0.25492273130812, 0
1600, 0.60210556202643, 0.24663752165438, 0
1601, 0.47798440195043, 0.29208419107751, 0
1602, 0.45549007095197, 0.27152139515645, 0
1603, 0.45937019083743, 0.26476774058065, 0
1604, 0.4620227071296, 0.27964899173982, 0
1605, 0.70561833923844, 0.12395384352864, 0
1606, 0.70183680557265, 0.11887938963371, 0
1607, 0.71406044910907, 0.099863235559978, 0
1608, 0.74854915166542, 0.13985115903259, 0
1609, 0.95999347092744, -0.16772961437817, 0
1610, 0.97976346497587, -0.19398643421448, 0
1611, 0.97996682680834, -0.16612466561468, 0
1612, 0.33356618094223, -0.11506891681855, 0
1613, 0.34401977397728, -0.11239713689855, 0
1614, 0.32845225786012, -0.13388502971683, 0
1615, 0.29103360498425, 0.16595323577794, 0
1616, 0.28863774078047, 0.1443929824092, 0
1617, 0.30046081365559, 0.17362952767076, 0
1618, 0.40693242699739, 0.26919129358288, 0
1619, 0.37712644129866, 0.28108792985836, 0
1620, 0.42866887838109, 0.2931761398689, 0
1621, 0.43172124537623, 0.28687244987471, 0
1622, 0.28850878961493, 0.22573266499322, 0
1623, 0.2741520496249, 0.17951952773887, 0
1624, 0.66991959384623, -0.12565264814733, 0
1625, 0.66245484085069, -0.11971169544102, 0
1626, 0.67065397066262, -0.11925516226833, 0
1627, 0.66660813785742, -0.11955157949534, 0
1628, 0.97589634717342, 0.19747300782064, 0
1629, 0.95118334861358, 0.2256300644624, 0
1630, 0.97528490893518, 0.24920670423354, 0
1631, 0.97560553804238, 0.22349335188944, 0
1632, 0.31155523217024, 0.22736007169486, 0
1633, 0.25670287085178, 0.21594568506723, 0
1634, 0.25745730564529, 0.22632321949023, 0
1635, 0.37686706537061, -0.1348030077428, 0
1636, 0.62548570797932, 0.24575825225428, 0
1637, 0.59777345581958, 0.24642699957423, 0
1638, 0.3749904470914, 0.29349480375832, 0
1639, 0.43702729685766, 0.25943485161982, 0
1640, 0.42183796958732, 0.27242681952737, 0
1641, 0.72548580518221, 0.033723373921972, 0
1642, 0.69018720388947, 0.089705839881009, 0
1643, 0.72085070798754, 0.055092187573405, 0
1644, 0.34811349931149, -0.059147772274254, 0
1645, 0.34247210771946, -0.061650114889353, 0
1646, 0.34067084664518, -0.056923452743142, 0
1647, 0.34445031572465, -0.058061102135975, 0
1648, 0.48457086211723, 0.29232080479308, 0
1649, 0.49090554018009, 0.29249717623043, 0
1650, 0.65246980582487, -0.12565491117533, 0
1651, 0.64615731978535, -0.11985963274816, 0
1652, 0.65428080538267, -0.11987596768912, 0
1653, 0.65021555241199, -0.11988734855863, 0
1654, 0.28815053870188, -0.19128129746622, 0
1655, 0.35388498208588, -0.11005656750904, 0
1656, 0.40824043874964, 0.27939432079369, 0
1657, 0.41078406740818, 0.26651071870161, 0
1658, 0.40837411517463, 0.25780084201556, 0
1659, 0.95279928569908, 0.11919518417335, 0
1660, 0.9763082198324, 0.14397935347005, 0
1661, 0.97653352213183, 0.11638692063663, 0
1662, 0.66111344747504, -0.12578382934111, 0
1663, 0.65831199376038, -0.11979549111882, 0
1664, 0.34756818048758, -0.12352797117037, 0
1665, 0.36499144818423, -0.13205296942442, 0
1666, 0.51409745418829, -0.28771781325701, 0
1667, 0.47368906316953, -0.2007742400767, 0
1668, 0.44003373665795, -0.23010955722001, 0
1669, 0.45213683560694, -0.18832489727905, 0
1670, 0.17720376285854, -0.25189133865948, 0
1671, 0.20563319709733, -0.27654446446619, 0
1672, 0.17948606442505, -0.27605073848932, 0
1673, 0.38597074748665, -0.28551181558534, 0
1674, 0.48667341189828, -0.28818312437769, 0
1675, 0.47358491664515, -0.19374216331021, 0
1676, 0.47100778427621, 0.29201151266129, 0
1677, 0.45881098429796, 0.26781143136228, 0
1678, 0.45691266454814, 0.2933624749786, 0
1679, 0.72823391638228, 0.078830013018814, 0
1680, 0.73907834249146, 0.041676825154672, 0
1681, 0.71367742230377, 0.055035549732475, 0
1682, 0.72484640504127, 0.057687416499022, 0
1683, 0.63823793080036, -0.11981970556501, 0
1684, 0.63579589327166, -0.1250636570858, 0
1685, 0.63049375778096, -0.11981451254733, 0
1686, 0.63432178655184, -0.11979023201292, 0
1687, 0.73943801319279, -0.2564977422199, 0
1688, 0.70983892177562, -0.27940957867548, 0
1689, 0.73427066604794, -0.27859696081125, 0
1690, 0.78240879224961, 0.019133167321352, 0
1691, 0.74612962595636, -0.0011342641836242, 0
1692, 0.76220519394156, 0.0047536683138923, 0
1693, 0.57841908478014, -0.16565610301243, 0
1694, 0.58103406672011, -0.17364503898664, 0
1695, 0.57380463546437, -0.1722331882514, 0
1696, 0.57613060980988, -0.1689381508309, 0
1697, 0.59011340711966, -0.15964433109619, 0
1698, 0.5827451771256, -0.15886822651347, 0
1699, 0.5868486444339, -0.15192349899353, 0
1700, 0.58479448798555, -0.15538792949343, 0
1701, 0.72201363432163, 0.09093428688404, 0
1702, 0.69747771543991, 0.073481232815694, 0
1703, 0.73343491876275, 0.11158174884824, 0
1704, 0.24765857087941, 0.092866807651546, 0
1705, 0.24865137905297, 0.10414090182235, 0
1706, 0.25150231794407, 0.068320969128115, 0
1707, 0.95206730396939, 0.17381070104277, 0
1708, 0.97611654344201, 0.17094706937153, 0
1709, 0.51628629882469, -0.22892003900439, 0
1710, 0.41018641157947, -0.177877228796, 0
1711, 0.49945227503262, -0.20859508779175, 0
1712, 0.40118374329137, -0.19712682408891, 0
1713, 0.63179446717061, 0.26097526501227, 0
1714, 0.44502200009032, -0.18751361636016, 0
1715, 0.44277894506123, -0.25063492825758, 0
1716, 0.4604796252462, -0.21610009568771, 0
1717, 0.76758004996952, -0.019130020348075, 0
1718, 0.76479685018406, 0.08226382320636, 0
1719, 0.76242995052425, -0.0054844224500095, 0
1720, 0.74987943029146, -0.011280292347142, 0
1721, 0.77456747224481, 0.074631024253818, 0
1722, 0.81223645705083, -0.0017378636350001, 0
1723, 0.77242111114384, 0.02009374590957, 0
1724, 0.54493656809101, 0.26126204922606, 0
1725, 0.5459651933333, 0.25567584027028, 0
1726, 0.53958580297373, 0.26003502417819, 0
1727, 0.54284928204327, 0.25785832023209, 0
1728, 0.80536327679587, 0.014042441262311, 0
1729, 0.75867614451089, -0.0029675220486772, 0
1730, 0.59381939735809, 0.24223305204204, 0
1731, 0.61835215413779, 0.2597650266883, 0
1732, 0.63497509094157, 0.25435537129675, 0
1733, 0.69508942473138, -0.11532126444738, 0
1734, 0.69682045359272, -0.12218250256802, 0
1735, 0.68714514088043, -0.11723511865838, 0
1736, 0.69123141357856, -0.11639425449176, 0
1737, 0.72750261501544, 0.088526775341667, 0
1738, 0.77595637655078, 0.11664461489869, 0
1739, 0.67896128794371, -0.12521339450144, 0
1740, 0.67897294338434, -0.11850728961081, 0
1741, 0.67480939625368, -0.11892868293661, 0
1742, 0.59088583789801, -0.14494525042455, 0
1743, 0.59424877971836, -0.15238292518239, 0
1744, 0.58887812506015, -0.14844253775579, 0
1745, 0.42929444620192, 0.2584064864228, 0
1746, 0.34922457545112, 0.26107307385525, 0
1747, 0.33565874885962, 0.29111482560615, 0
1748, 0.32197383771885, 0.27197170102622, 0
1749, 0.7082189833613, 0.12230112960717, 0
1750, 0.71533905698335, 0.13224386034754, 0
1751, 0.58660083517702, 0.24137291885304, 0
1752, 0.58266966239941, 0.24971537046146, 0
1753, 0.59005556711621, 0.24178766785588, 0
1754, 0.95421729058391, -0.27432324558813, 0
1755, 0.97826397091661, -0.24775701491994, 0
1756, 0.97714298463244, -0.27394709906362, 0
1757, 0.72653246291654, 0.069282144292781, 0
1758, 0.75098023714793, 0.0024792891010776, 0
1759, 0.6134431437101, 0.24552419725958, 0
1760, 0.65954865434207, 0.24805796392639, 0
1761, 0.60964288095083, 0.24306283969975, 0
1762, 0.58580135125126, -0.16680484512771, 0
1763, 0.58064908783639, -0.16232315300269, 0
1764, 0.93440818564824, -0.24929381180865, 0
1765, 0.93095458800083, -0.27471627722778, 0
1766, 0.67707512576055, 0.25337947174635, 0
1767, 0.67172220045822, 0.27574723282829, 0
1768, 0.2878528713712, 0.16243841032705, 0
1769, 0.27865864751643, 0.17530274466787, 0
1770, 0.28197539298778, 0.15457961742957, 0
1771, 0.70307832880673, 0.097887174939887, 0
1772, 0.72519620640318, 0.043376853139434, 0
1773, 0.31804210466851, 0.048350847972924, 0
1774, 0.3188979876588, 0.014790250398735, 0
1775, 0.31121929018531, 0.0058460934119994, 0
1776, 0.31613078103618, 0.020253813814605, 0
1777, 0.7562997273138, 0.037162715058178, 0
1778, 0.78754579672055, -0.0081322180207612, 0
1779, 0.77413284660861, -0.016323926677051, 0
1780, 0.37623545302393, 0.26688656961314, 0
1781, 0.37297840633675, 0.26318217777205, 0
1782, 0.37681642531971, 0.26327154185229, 0
1783, 0.45643678495066, -0.21223285188337, 0
1784, 0.4014028303176, -0.17989380307109, 0
1785, 0.49699874319561, -0.20140697667495, 0
1786, 0.73765049397678, 0.09358983804255, 0
1787, 0.78219388076168, 0.065460456144242, 0
1788, 0.74730337948442, -0.0045681158959502, 0
1789, 0.2415632722822, 0.15272061918024, 0
1790, 0.2850764197806, 0.14922270025069, 0
1791, 0.27366665820858, 0.16275852743914, 0
1792, 0.28735425205132, 0.1907855869641, 0
1793, 0.94964654026082, 0.2754815191083, 0
1794, 0.97486039406343, 0.27466930608744, 0
1795, 0.57603990813194, -0.18054505466243, 0
1796, 0.56881040073117, -0.17868458414576, 0
1797, 0.57137209446259, -0.17548670971054, 0
1798, 0.73498907068663, 0.05282819852633, 0
1799, 0.68896240917744, 0.08611968534535, 0
1800, 0.72324873073954, 0.061473773808972, 0
1801, 0.41410186182792, -0.20175703369229, 0
1802, 0.50069400934721, -0.23665111369169, 0
1803, 0.50927027893078, -0.20339212631906, 0
1804, 0.45954620078187, -0.22563277308311, 0
1805, 0.73509789313655, 0.13025039558749, 0
1806, 0.69028423084738, 0.081136538189347, 0
1807, 0.72112933097652, 0.11666435207493, 0
1808, 0.41779226343837, 0.25747319855807, 0
1809, 0.39540572099566, 0.2694745922546, 0
1810, 0.4194489895611, 0.26167009806503, 0
1811, 0.39694562851599, -0.20414741608914, 0
1812, 0.13398130360821, 0.24545036853254, 0
1813, 0.15915631687013, 0.27360026859955, 0
1814, 0.13221510771491, 0.27288281018076, 0
1815, 0.35688787222868, -0.087105361448681, 0
1816, 0.30745506950745, -0.074720953858839, 0
1817, 0.33150184807314, -0.079956160586714, 0
1818, 0.04649275403545, -0.17103943753244, 0
1819, 0.023602106600716, -0.19661084849098, 0
1820, 0.023201666970716, -0.16988737092578, 0
1821, 0.25170497674145, 0.075643620813646, 0
1822, 0.28060756136667, 0.1087528618499, 0
1823, 0.47156427322707, 0.27248316719486, 0
1824, 0.45688044855817, 0.28691886455247, 0
1825, 0.46503466315675, 0.26762725550507, 0
1826, 0.67493157884526, 0.28743810673425, 0
1827, 0.64723652920953, 0.28739934305572, 0
1828, 0.61470592078274, 0.24792732107882, 0
1829, 0.025969875717448, 0.24554907230896, 0
1830, 0.026087104223105, 0.2728273460296, 0
1831, 0.2851616329212, 0.13699785100527, 0
1832, 0.28099055024287, 0.14141280022257, 0
1833, 0.28688112220556, 0.14074787122251, 0
1834, 0.59799516997608, -0.14485688549418, 0
1835, 0.59484308024555, -0.13792845725787, 0
1836, 0.59284336925059, -0.14139942172284, 0
1837, 0.32498936632173, 0.028764351499968, 0
1838, 0.29744047851568, 0.030028190799088, 0
1839, 0.32231803310631, 0.049646802409425, 0
1840, 0.78071022664427, 0.011933671018732, 0
1841, 0.75462702464054, -0.003761327214561, 0
1842, 0.72060805670957, 0.19062143844909, 0
1843, 0.85334471358207, 0.23851784077549, 0
1844, 0.7507883124982, 0.16978749045603, 0
1845, 0.072865656963137, 0.13058742890699, 0
1846, 0.095831688155402, 0.10024284366387, 0
1847, 0.070739554228162, 0.071372513594467, 0
1848, 0.071678075122224, 0.10161931776272, 0
1849, 0.28481959873212, 0.17896058989755, 0
1850, 0.29057957772378, 0.14800476978951, 0
1851, 0.073949688886978, -0.2494759894632, 0
1852, 0.049634355691044, -0.27456605514125, 0
1853, 0.075049422051339, -0.27478430767578, 0
1854, 0.27486700684857, 0.10341258981711, 0
1855, 0.46049257419557, 0.27490274700642, 0
1856, 0.45590105857111, 0.27595106521325, 0
1857, 0.46257251227941, 0.26992013416426, 0
1858, 0.89899545416644, 0.27746234206976, 0
1859, 0.87621106523261, 0.25689091731849, 0
1860, 0.84958131851118, 0.27997176787401, 0
1861, 0.87401975694663, 0.27866758138723, 0
1862, 0.29840903077202, 0.053021938927065, 0
1863, 0.31711482019773, 0.0070726587146771, 0
1864, 0.49970907825979, 0.2783143947437, 0
1865, 0.53266598935965, 0.26404167600653, 0
1866, 0.50806528425575, 0.2847607938227, 0
1867, 0.51030605334491, 0.29240051614059, 0
1868, 0.44853603096204, 0.26187172447704, 0
1869, 0.45166015203763, 0.26712611149458, 0
1870, 0.45230547425734, 0.26284716272657, 0
1871, 0.61128232671916, 0.2492368486478, 0
1872, 0.61530801110734, 0.25600725571609, 0
1873, 0.33463568972159, -0.059568319024996, 0
1874, 0.33311291086094, -0.05420335872794, 0
1875, 0.3369222147069, -0.055658177014873, 0
1876, 0.29713608053165, 0.26563694210796, 0
1877, 0.42199362891569, -0.28579619228341, 0
1878, 0.37086100755615, -0.24094446296099, 0
1879, 0.47539986344642, -0.24321466442713, 0
1880, 0.68788613772983, -0.12410935978352, 0
1881, 0.68300832482336, -0.11791396309679, 0
1882, 0.71802178794243, 0.14757269303721, 0
1883, 0.7468697448433, 0.12451310637257, 0
1884, 0.70506064368862, 0.11861517135849, 0
1885, 0.73971595052018, -0.091911351955259, 0
1886, 0.74557592022037, -0.099342014389234, 0
1887, 0.73316114842316, -0.09734661563095, 0
1888, 0.7363225020238, -0.094697595512847, 0
1889, 0.53779433120132, 0.26574108513185, 0
1890, 0.53616752184578, 0.26212608297093, 0
1891, 0.69463043796958, 0.25690585251476, 0
1892, 0.64317047117092, 0.26467327486115, 0
1893, 0.31236494735509, -0.13149692045845, 0
1894, 0.75841934694394, -0.038511265038, 0
1895, 0.76884467006732, -0.042747903758034, 0
1896, 0.75919350777134, -0.046893390582088, 0
1897, 0.75885981027813, -0.042672846787046, 0
1898, 0.29748493955549, 0.16689998934913, 0
1899, 0.28984348006652, 0.28730304408556, 0
1900, 0.28039043433017, 0.23726877320327, 0
1901, 0.32026320654234, 0.25080335062977, 0
1902, 0.30314528110844, 0.050393525347967, 0
1903, 0.3135654810583, 0.056671518112146, 0
1904, 0.28845889259235, 0.033273139841591, 0
1905, 0.38453471433892, -0.15206269583878, 0
1906, 0.38866138621384, -0.14599828720233, 0
1907, 0.34630238565482, -0.080355467311656, 0
1908, 0.71081375248407, -0.11002037558032, 0
1909, 0.71286535046201, -0.11686458451376, 0
1910, 0.70303122406864, -0.11292712533887, 0
1911, 0.7067864814648, -0.11150754786521, 0
1912, 0.52669762680036, -0.27375536792281, 0
1913, 0.54349517602358, -0.28514800839809, 0
1914, 0.52826814676739, -0.28668026073966, 0
1915, 0.5563342401088, 0.25397279469132, 0
1916, 0.55871286254254, 0.24897649302594, 0
1917, 0.55199722829169, 0.25177794985741, 0
1918, 0.55522732340213, 0.25029764181989, 0
1919, 0.70383875509865, 0.23199158805246, 0
1920, 0.48400103409781, -0.24488795009373, 0
1921, 0.48639283372345, -0.23634655641776, 0
1922, 0.38916111787625, 0.2623142868851, 0
1923, 0.42865306932905, 0.28017324239712, 0
1924, 0.83037794908696, 0.22327306174325, 0
1925, 0.72288171945508, 0.16492418637967, 0
1926, 0.37884079950666, 0.27582640623581, 0
1927, 0.3942692061033, 0.26544816776313, 0
1928, 0.41389187558069, 0.26876437885709, 0
1929, 0.40459145720621, 0.26609437016766, 0
1930, 0.71879466042228, -0.10651214831285, 0
1931, 0.72175864307259, -0.11367145083678, 0
1932, 0.71480196159504, -0.10835550856211, 0
1933, 0.56384147201335, -0.19348124437047, 0
1934, 0.55683415032478, -0.19034869129487, 0
1935, 0.56317222650356, -0.18475879106068, 0
1936, 0.56008429662008, -0.18761782979498, 0
1937, 0.70173631175619, 0.2353146387329, 0
1938, 0.69629957579082, 0.23230282436772, 0
1939, 0.85316102708468, 0.21669964549738, 0
1940, 0.72616195347785, 0.23879174179087, 0
1941, 0.74705006737146, 0.046851141077045, 0
1942, 0.31125371198328, -0.0041302951460673, 0
1943, 0.30864180767324, 0.001920058685168, 0
1944, 0.31307228183262, -0.00016936365120462, 0
1945, 0.28307947835368, 0.097014522805647, 0
1946, 0.25811004155824, 0.09342526406169, 0
1947, 0.28768544842297, 0.085449128351134, 0
1948, 0.71883238595643, 0.21512205715537, 0
1949, 0.7223034993272, 0.22139464812716, 0
1950, 0.7228818597991, 0.17842857955892, 0
1951, 0.62779978237482, -0.12466583755894, 0
1952, 0.62302354946181, -0.12010719511864, 0
1953, 0.6267035217133, -0.11989011478085, 0
1954, 0.64398294152455, -0.12538063627407, 0
1955, 0.64216728061002, -0.11983347744537, 0
1956, 0.34693939864699, -0.09039119942177, 0
1957, 0.37210017608281, -0.085822762085359, 0
1958, 0.364291535609, -0.086920337504069, 0
1959, 0.7383278946009, 0.17483586698663, 0
1960, 0.71851905201539, 0.22581092149777, 0
1961, 0.737749065601, -0.10442042150783, 0
1962, 0.72625245845602, -0.10223025155669, 0
1963, 0.72960338365892, -0.099837953117633, 0
1964, 0.36575345066613, 0.26307215136769, 0
1965, 0.36937304435452, 0.26303388484388, 0
1966, 0.43231906047643, -0.18576681536105, 0
1967, 0.6915271924847, -0.26002320392497, 0
1968, 0.66190139498787, -0.2800767028751, 0
1969, 0.68596494224623, -0.27991057053479, 0
1970, 0.097749273292502, -0.22472989497814, 0
1971, 0.1214589497601, -0.20027845556117, 0
1972, 0.14900202966329, -0.22642910624922, 0
1973, 0.123095809874, -0.22556483013293, 0
1974, 0.5260041429355, -0.20320111143258, 0
1975, 0.52182130072101, -0.20966906373124, 0
1976, 0.51760807826518, -0.20375004888759, 0
1977, 0.52180572444309, -0.2036125304369, 0
1978, 0.19354177413715, 0.24993427931617, 0
1979, 0.25835546530926, 0.20634043258159, 0
1980, 0.29587603176076, 0.21191092144918, 0
1981, 0.38444933903763, -0.20792453676169, 0
1982, 0.46311589040225, -0.19460626078616, 0
1983, 0.43859503193285, -0.18173482241724, 0
1984, 0.50104801796564, -0.26550149326316, 0
1985, 0.57037440913956, -0.18719777739345, 0
1986, 0.5660698824757, -0.18176162101327, 0
1987, 0.57953127544681, 0.25272350883163, 0
1988, 0.58062155999212, 0.24198793878017, 0
1989, 0.57378835375227, 0.24415765008099, 0
1990, 0.57734537517479, 0.24301714770906, 0
1991, 0.34967086539948, -0.063464027404518, 0
1992, 0.35526619703746, -0.061391206114772, 0
1993, 0.35173277253305, -0.060242657851314, 0
1994, 0.50153080138064, -0.24502427727726, 0
1995, 0.40903025763764, -0.22657087945734, 0
1996, 0.49078415751902, -0.22122300868988, 0
1997, 0.46651860529917, -0.19051316041536, 0
1998, 0.38237782105335, -0.13189858136212, 0
1999, 0.34586084569148, -0.075114089628191, 0
2000, 0.3978388890659, -0.1600241789358, 0
2001, 0.36366961363902, -0.090925003023026, 0
2002, 0.62019268925158, 0.27500973240989, 0
2003, 0.7071927553906, 0.23371746766938, 0
2004, 0.39909372427749, -0.22505972863547, 0
2005, 0.71305305052503, 0.065106955449456, 0
2006, 0.75673080056032, -0.030246451482289, 0
2007, 0.75174383129677, -0.0041691980574837, 0
2008, 0.75129344419189, -0.014750177080843, 0
2009, 0.48113769289519, -0.19678369894821, 0
2010, 0.49270458852557, -0.24551234814467, 0
2011, 0.73046213550201, -0.10940566048516, 0
2012, 0.72273146330025, -0.10448026059724, 0
2013, 0.4896258635408, -0.26565013859188, 0
2014, 0.44799953008591, -0.22572188231181, 0
2015, 0.25993168436269, 0.16739949575785, 0
2016, 0.22931393583109, -0.25392212442068, 0
2017, 0.25610697408192, -0.27801688071803, 0
2018, 0.23126567313921, -0.27715183529511, 0
2019, 0.4654683142289, -0.21107820505739, 0
2020, 0.40386928596578, -0.28604157313766, 0
2021, 0.40105315303769, -0.18780370525912, 0
2022, 0.32643531964577, -0.056426757957723, 0
2023, 0.32572672664183, -0.050547496919862, 0
2024, 0.32937912933251, -0.052512706417909, 0
2025, 0.74600974648188, -0.085761848032446, 0
2026, 0.75371664884838, -0.093495656414372, 0
2027, 0.74294047163638, -0.088938855667363, 0
2028, 0.75772152212371, -0.063493682617279, 0
2029, 0.76829152444588, -0.069780711072125, 0
2030, 0.75513414939716, -0.071357132603764, 0
2031, 0.75669251171026, -0.067482869624222, 0
2032, 0.72408862321112, 0.19457824409996, 0
2033, 0.23102502293374, 0.23066841808402, 0
2034, 0.81987288820888, 0.18461309500233, 0
2035, 0.78793278691942, 0.055711582557632, 0
2036, 0.70202640631483, 0.22666634047601, 0
2037, 0.33326323513475, -0.094239318610358, 0
2038, 0.76636174737958, -0.033736415532357, 0
2039, 0.75773906223134, -0.034379081228293, 0
2040, 0.42320245706359, 0.2624625021671, 0
2041, 0.39736529618776, 0.26076326496825, 0
2042, 0.42473993557195, 0.26779504772892, 0
2043, 0.41379669629089, 0.26373139940994, 0
2044, 0.35315700101551, 0.26617344476229, 0
2045, 0.3398491282513, 0.26239966737344, 0
2046, 0.32647665934038, 0.27277673536292, 0
2047, 0.32413799735787, 0.28272355845946, 0
2048, 0.51587080950295, 0.2839072843551, 0
2049, 0.50966312340526, 0.27693341683858, 0
2050, 0.57409419503884, 0.2905487169123, 0
2051, 0.58393778910747, 0.29068136826935, 0
2052, 0.70462635026689, -0.11945505620505, 0
2053, 0.69904053565078, -0.11416986841601, 0
2054, 0.69928294929965, 0.23902818303677, 0
2055, 0.31985132472467, 0.024811614366488, 0
2056, 0.31068135714458, 0.04176742128439, 0
2057, 0.28768144471153, 0.042368015537203, 0
2058, 0.53971270965743, 0.29311455415312, 0
2059, 0.53242970335073, 0.29334506767129, 0
2060, 0.53119573190836, 0.27655226235142, 0
2061, 0.52166001315969, 0.2752407452294, 0
2062, 0.25675321051882, 0.05301073019207, 0
2063, 0.29921479759058, 0.045273713117625, 0
2064, 0.18802216701299, 0.035257173569472, 0
2065, 0.53964630942324, -0.20651551959358, 0
2066, 0.53428943265477, -0.20158968634242, 0
2067, 0.54228815329666, -0.198890414263, 0
2068, 0.53833344053754, -0.20036431791433, 0
2069, 0.27781445285395, -0.25762778522247, 0
2070, 0.30265951529521, -0.27986733408578, 0
2071, 0.27987021808734, -0.27895039234216, 0
2072, 0.26831079743171, 0.10623726476662, 0
2073, 0.28108479504371, 0.10473437715544, 0
2074, 0.55637807604476, -0.19891153161136, 0
2075, 0.54983520186631, -0.19511387633316, 0
2076, 0.55340468023224, -0.19282467386555, 0
2077, 0.55537779660526, 0.29150023787719, 0
2078, 0.5454847964687, 0.28547067330241, 0
2079, 0.547308421897, 0.29248533155296, 0
2080, 0.46384961848783, 0.29278651826198, 0
2081, 0.82281384969748, 0.021822888929273, 0
2082, 0.78555235627055, -0.017604284521318, 0
2083, 0.31962568342753, 0.051715189935275, 0
2084, 0.32441158422351, 0.04827746235571, 0
2085, 0.70776635234087, 0.22068877491733, 0
2086, 0.72242919331041, 0.20629480536191, 0
2087, 0.54824221555265, -0.20328455346914, 0
2088, 0.54612851669772, -0.19715028440693, 0
2089, 0.82713042741961, 0.20362810405795, 0
2090, 0.73044807149507, 0.17390227505614, 0
2091, 0.28056373328286, 0.12104696970819, 0
2092, 0.27488532306061, 0.1250279269108, 0
2093, 0.28231104016993, 0.12921915013216, 0
2094, 0.28126372214601, 0.125164787604, 0
2095, 0.22185101800689, 0.078541791230257, 0
2096, 0.51286342996449, -0.20981451006235, 0
2097, 0.51343130030295, -0.20366636780558, 0
2098, 0.024426049153662, -0.24869916852155, 0
2099, 0.024738892633181, -0.27438980609489, 0
2100, 0.35344711345037, 0.26208017550896, 0
2101, 0.34118471302971, 0.25807932308588, 0
2102, 0.3270933599025, 0.24874324397707, 0
2103, 0.34720304037955, 0.27474069207921, 0
2104, 0.7701463714511, -0.051912788139497, 0
2105, 0.75908412975122, -0.055299628716134, 0
2106, 0.75926038220338, -0.051108435876556, 0
2107, 0.58356268854052, 0.24123780841981, 0
2108, 0.45056077259645, 0.28747547596353, 0
2109, 0.44307572299422, 0.2937080403524, 0
2110, 0.44999799466606, 0.29365693584595, 0
2111, 0.60137163405488, -0.13732469994847, 0
2112, 0.59879646460101, -0.13137934468687, 0
2113, 0.59682266340384, -0.13456242636202, 0
2114, 0.53078719471665, -0.2086123082079, 0
2115, 0.53017158134453, -0.20252871572616, 0
2116, 0.40249753782993, -0.17267169628431, 0
2117, 0.40399270152991, -0.16586972986158, 0
2118, 0.40736308437139, -0.16850443894947, 0
2119, 0.39562430922159, -0.16694581787299, 0
2120, 0.40077366548146, -0.16306244229041, 0
2121, 0.76998257104915, -0.060975363481314, 0
2122, 0.75843669968234, -0.059411085420184, 0
2123, 0.61588111955101, -0.12132180100636, 0
2124, 0.6194297976361, -0.12055707409554, 0
2125, 0.33741714954735, 0.25614422012189, 0
2126, 0.35874709142538, 0.29345048489035, 0
2127, 0.34792414343683, 0.26981428882696, 0
2128, 0.60705380843938, -0.1277207769316, 0
2129, 0.60287377603753, -0.12614704931634, 0
2130, 0.6088616307149, -0.12335932544242, 0
2131, 0.60562476926432, -0.12460002913985, 0
2132, 0.92563663562782, 0.2524919242972, 0
2133, 0.92429772830856, 0.27640135850386, 0
2134, 0.7269972909288, 0.11103582054998, 0
2135, 0.69370058711213, 0.087859380069148, 0
2136, 0.30841150912119, -0.012657753235414, 0
2137, 0.30411604115212, -0.0069644627400228, 0
2138, 0.30967725314159, -0.008301675516403, 0
2139, 0.34512902795871, 0.25973227863444, 0
2140, 0.33057712858141, 0.27463791847328, 0
2141, 0.34311618273591, 0.29258509571719, 0
2142, 0.56621475566881, 0.24652001200206, 0
2143, 0.57004246478507, 0.24533604812478, 0
2144, 0.2658672744237, 0.28370910390441, 0
2145, 0.29518959377324, 0.20682043042967, 0
2146, 0.54898251763732, 0.25359913908079, 0
2147, 0.60840889691267, 0.25404786578437, 0
2148, 0.59863970012796, 0.26623975561915, 0
2149, 0.76841682114727, 0.16432954484483, 0
2150, 0.74440217035395, 0.19343173842087, 0
2151, 0.32138520529418, -0.26069091402377, 0
2152, 0.34657461810079, -0.28139553253319, 0
2153, 0.32474359762318, -0.28049275903299, 0
2154, 0.4143085609584, 0.25722408772277, 0
2155, 0.38440945777443, 0.28119933609589, 0
2156, 0.30720412523361, -0.021826064533649, 0
2157, 0.30116995046067, -0.016986521955, 0
2158, 0.3075785165588, -0.01718817531072, 0
2159, 0.52682485291843, 0.26973738982739, 0
2160, 0.53019846552552, 0.26888089880982, 0
2161, 0.5017826542019, 0.28516684109649, 0
2162, 0.27753472309909, 0.13346665115976, 0
2163, 0.28369328332725, 0.13318563849529, 0
2164, 0.75108402174491, -0.07882823679457, 0
2165, 0.76035865089416, -0.086304418094731, 0
2166, 0.74855439621303, -0.082375075340167, 0
2167, 0.32338322770254, 0.26654197215108, 0
2168, 0.35869384489891, 0.27554175893095, 0
2169, 0.43619055836484, 0.27551029750206, 0
2170, 0.41300986708769, 0.28266485570577, 0
2171, 0.41321318246056, 0.25986584062936, 0
2172, 0.31868332596753, -0.051913449841527, 0
2173, 0.31889976198586, -0.04573377753146, 0
2174, 0.32226651902532, -0.048287838080209, 0
2175, 0.43802769518168, 0.28738384245534, 0
2176, 0.4359368959812, 0.2935479577603, 0
2177, 0.6412535311225, -0.26366273412933, 0
2178, 0.61655892396079, -0.28199871767306, 0
2179, 0.63865328016197, -0.2817122021163, 0
2180, 0.36963340672127, -0.071992355512126, 0
2181, 0.36508993941782, -0.070284810314137, 0
2182, 0.36688127030077, -0.066841410252583, 0
2183, 0.36843894336647, -0.069173769367007, 0
2184, 0.3418740590612, 0.27346504869134, 0
2185, 0.33381779411159, 0.25394301576295, 0
2186, 0.72633793656985, 0.11792321952311, 0
2187, 0.70302010880763, 0.087605740737633, 0
2188, 0.71207160080274, 0.094748826329142, 0
2189, 0.71499703638891, 0.080103218930463, 0
2190, 0.61394056014005, -0.12638710267035, 0
2191, 0.6123248672626, -0.12226532578757, 0
2192, 0.56383238477884, 0.25245351051623, 0
2193, 0.56240253985466, 0.2477281351321, 0
2194, 0.34042318140476, 0.27872953873903, 0
2195, 0.35295181597786, 0.27061115365306, 0
2196, 0.7651264140313, -0.078252864775895, 0
2197, 0.75325796141629, -0.075144988117821, 0
2198, 0.31203207468662, 0.018273469638103, 0
2199, 0.30916132201653, 0.036920612604697, 0
2200, 0.089699724754654, 0.036581472053572, 0
2201, 0.065364392555044, 0.014578009906285, 0
2202, 0.067663023692637, 0.042028179819935, 0
2203, 0.59703412727107, -0.2673007579472, 0
2204, 0.5770857629328, -0.28368939967293, 0
2205, 0.59617109240229, -0.28346596085747, 0
2206, 0.32026734562165, 0.036162700911384, 0
2207, 0.32056210058289, 0.03992971232324, 0
2208, 0.31338605101248, 0.26282952182631, 0
2209, 0.21847161785339, 0.19356154333893, 0
2210, 0.70731274805851, 0.11073286537802, 0
2211, 0.71207191948806, 0.11515728338228, 0
2212, 0.43060130033112, -0.17970540391063, 0
2213, 0.43546533890149, -0.24228378771729, 0
2214, 0.9384753946148, -0.076026489967796, 0
2215, 0.93917920117724, -0.13980103794073, 0
2216, 0.92023967168187, -0.1076322721728, 0
2217, 0.94017255943923, -0.10810096509148, 0
2218, 0.37351989353185, -0.10534224279414, 0
2219, 0.37432923079171, -0.13153978119309, 0
2220, 0.051613730918145, 0.2171212164653, 0
2221, 0.025704228177181, 0.21797058910184, 0
2222, 0.70491203399815, 0.22378415177365, 0
2223, 0.73729052601764, 0.2769040413726, 0
2224, 0.7287861435171, 0.19274252111151, 0
2225, 0.55986291489544, -0.27003482531812, 0
2226, 0.55986135958857, -0.2848028059414, 0
2227, 0.069040772803641, -0.14596209036828, 0
2228, 0.066826357149577, -0.092602874897021, 0
2229, 0.091559901050091, -0.12125134270203, 0
2230, 0.068039331101736, -0.11935246207226, 0
2231, 0.55821752693788, 0.26759862065657, 0
2232, 0.56441814443846, 0.29044483589262, 0
2233, 0.44356440965035, 0.26587917476478, 0
2234, 0.44471688659886, 0.26095385917958, 0
2235, 0.30282113051438, -0.038880742564338, 0
2236, 0.30830651504047, -0.031152453579727, 0
2237, 0.31237032857388, -0.039686088839051, 0
2238, 0.30995301079036, -0.035626895472985, 0
2239, 0.59736856200687, -0.16003785090838, 0
2240, 0.59294036971178, -0.16730723957494, 0
2241, 0.59508821387933, -0.16362353430442, 0
2242, 0.69306370867377, 0.097127334725058, 0
2243, 0.70084977053962, 0.077157841769729, 0
2244, 0.40024218874747, 0.26793540018899, 0
2245, 0.39149259471818, 0.28036993564925, 0
2246, 0.31564762334099, -0.042874092402349, 0
2247, 0.30053007491446, -0.027730615730299, 0
2248, 0.30740180083456, -0.026507885477372, 0
2249, 0.93397875053686, 0.034491082550117, 0
2250, 0.94000548008767, -0.019696963175727, 0
2251, 0.9173054670188, 0.0064315821739628, 0
2252, 0.93781425073148, 0.0065506643360863, 0
2253, 0.95831412427649, -0.22226939197708, 0
2254, 0.97915377867846, -0.22107454587725, 0
2255, 0.048240043449465, -0.22331597700643, 0
2256, 0.024063892633624, -0.22276505672089, 0
2257, 0.23950918332489, 0.13231107171155, 0
2258, 0.2953110417268, 0.17460601705576, 0
2259, 0.26004013382769, 0.17882379237388, 0
2260, 0.75155183458513, 0.21655552578545, 0
2261, 0.76226213590306, 0.28146462142646, 0
2262, 0.69921828030086, 0.2294779469211, 0
2263, 0.065334267994477, -0.038756565814935, 0
2264, 0.089024464098833, -0.068033718749424, 0
2265, 0.066046364866898, -0.065662506649432, 0
2266, 0.69833511494321, 0.06390420845291, 0
2267, 0.60379887926818, -0.13046989281766, 0
2268, 0.6007644570703, -0.1285001236076, 0
2269, 0.20766564109497, 0.20826049709606, 0
2270, 0.36276821996577, -0.067465512206448, 0
2271, 0.3618391172302, -0.063803831947227, 0
2272, 0.36462149776767, -0.065178664567637, 0
2273, 0.28515068934778, 0.24346739953127, 0
2274, 0.086858358322811, -0.015045242468015, 0
2275, 0.064806341591906, -0.012069669375334, 0
2276, 0.34355093304722, -0.10092882440915, 0
2277, 0.36517811283816, -0.076159994363352, 0
2278, 0.37055668708804, -0.075157257112814, 0
2279, 0.38300425855028, -0.14804205235633, 0
2280, 0.38559594527852, -0.1388450297897, 0
2281, 0.32531538731888, 0.03949767692229, 0
2282, 0.32142291774553, 0.04680487426005, 0
2283, 0.29448542690521, 0.03949102345253, 0
2284, 0.30693722605567, 0.2146290562216, 0
2285, 0.27355714947845, 0.15141537711581, 0
2286, 0.3124679730608, 0.046220725435586, 0
2287, 0.31579306021009, 0.040696415096657, 0
2288, 0.69156598304963, 0.09340465349509, 0
2289, 0.69461176118119, 0.10084232743131, 0
2290, 0.34464603947205, -0.095439405965116, 0
2291, 0.90910069579255, 0.065746681176856, 0
2292, 0.92891935722798, 0.093446674210131, 0
2293, 0.93201271223046, 0.063785638337881, 0
2294, 0.28980432734514, 0.15676720608598, 0
2295, 0.30752375567328, 0.25009106766696, 0
2296, 0.35183893739639, -0.082448886103605, 0
2297, 0.3777500316545, -0.14924518615257, 0
2298, 0.34558791676748, -0.11805244023526, 0
2299, 0.3742425908173, -0.10929491338869, 0
2300, 0.82460877825223, -0.22596942085548, 0
2301, 0.85827785262187, -0.20195810765708, 0
2302, 0.87299461826867, -0.22654832444004, 0
2303, 0.84999892620178, -0.22627536888973, 0
2304, 0.3905542577555, -0.14963267958216, 0
2305, 0.36848971884207, -0.13540001575072, 0
2306, 0.35662186036473, -0.065524288364545, 0
2307, 0.3586355202195, -0.062571996763248, 0
2308, 0.66828935784681, -0.13183331831148, 0
2309, 0.67780219047864, -0.13165935471638, 0
2310, 0.67289385589674, -0.13168764728337, 0
2311, 0.70475717025241, -0.13127919192679, 0
2312, 0.69693969340619, -0.12887538883068, 0
2313, 0.70473689851903, -0.12541234077999, 0
2314, 0.70091654746414, -0.12711101092312, 0
2315, 0.68563161401928, -0.13787295956758, 0
2316, 0.68771697608111, -0.13112040574036, 0
2317, 0.68252078604668, -0.13141663543009, 0
2318, 0.92085735961638, -0.042018984424782, 0
2319, 0.93998532806278, -0.046293294612054, 0
2320, 0.92793344208047, 0.15052648570208, 0
2321, 0.90352457230214, 0.12773351793789, 0
2322, 0.92820922290774, 0.12278089711198, 0
2323, 0.77051388158938, -0.22952079017208, 0
2324, 0.80532250737692, -0.20254088882271, 0
2325, 0.7976246038547, -0.22772586960219, 0
2326, 0.69179674383986, -0.17400968656422, 0
2327, 0.68105778253604, -0.16232326579732, 0
2328, 0.6885403107212, -0.15313959437914, 0
2329, 0.70076293516315, -0.16356559082266, 0
2330, 0.69052890575574, -0.16323582168053, 0
2331, 0.76092588888523, 0.11458949342027, 0
2332, 0.71824662682886, 0.13543447384495, 0
2333, 0.72395293741071, 0.14298931487148, 0
2334, 0.89958680232831, -0.20198972064663, 0
2335, 0.91647899121175, -0.22505981627497, 0
2336, 0.89511659153666, -0.22616447691655, 0
2337, 0.10794946798087, 0.0066699595601211, 0
2338, 0.13034408014235, -0.017530582441346, 0
2339, 0.11149162818344, -0.043243989433363, 0
2340, 0.10877385138018, -0.017238336946136, 0
2341, 0.71878290941182, -0.23692414695251, 0
2342, 0.74681078290203, -0.2102150988162, 0
2343, 0.74381568510548, -0.23369888249239, 0
2344, 0.73766204570866, 0.24491996138452, 0
2345, 0.71250788050457, 0.12942773817779, 0
2346, 0.73629631879282, 0.18035245029884, 0
2347, 0.73379260110663, 0.18527901640923, 0
2348, 0.73028961536679, 0.15759563007535, 0
2349, 0.34461254225438, -0.065935403218011, 0
2350, 0.34026271587979, -0.069260081736189, 0
2351, 0.33698723218175, -0.064740051834867, 0
2352, 0.34108036576028, -0.065368374824636, 0
2353, 0.4144744464647, -0.18007385836057, 0
2354, 0.469904796668, -0.19880038710785, 0
2355, 0.46636873681415, -0.19672517695349, 0
2356, 0.41128963246874, -0.19332764612736, 0
2357, 0.36954902675319, -0.12429544085553, 0
2358, 0.34961525671003, -0.086179186194102, 0
2359, 0.38203142533284, -0.14422546241364, 0
2360, 0.25658355481639, -0.15270216107762, 0
2361, 0.36315388445462, -0.099158962367459, 0
2362, 0.36173109098044, -0.12827334552421, 0
2363, 0.65921278773744, -0.13166213795604, 0
2364, 0.65017838542158, -0.13128953402462, 0
2365, 0.65460697235533, -0.1314087301202, 0
2366, 0.66576510330794, -0.13782022448959, 0
2367, 0.66370563148447, -0.13180385716805, 0
2368, 0.72180028962758, -0.12896121890128, 0
2369, 0.71306783504143, -0.12353083240289, 0
2370, 0.72276488044324, -0.12111092903178, 0
2371, 0.71779951549912, -0.12253730229318, 0
2372, 0.38910065885931, -0.16015991204371, 0
2373, 0.35335785238031, -0.10518259530129, 0
2374, 0.40990429172816, 0.27220420527073, 0
2375, 0.40829718899569, 0.26408669916416, 0
2376, 0.40937888604337, 0.26011249658292, 0
2377, 0.43342975311492, 0.2695792188528, 0
2378, 0.17400048467004, -0.20240249350033, 0
2379, 0.20202084856139, -0.22846364703639, 0
2380, 0.1754684806346, -0.22732940737228, 0
2381, 0.29835789574379, 0.18000557735622, 0
2382, 0.27628780630828, 0.15610436707998, 0
2383, 0.28912795237676, 0.18607423048499, 0
2384, 0.70933023455174, 0.10101328152232, 0
2385, 0.709812239286, 0.12701824819129, 0
2386, 0.75797627286228, 0.14770012138369, 0
2387, 0.7886496922464, -0.042088332273672, 0
2388, 0.78016771339841, -0.047590097963161, 0
2389, 0.7774360079329, -0.037573281409149, 0
2390, 0.77885079573357, -0.042519034154006, 0
2391, 0.5123394911473, -0.26447870674363, 0
2392, 0.45466316702789, -0.22106214774117, 0
2393, 0.48113034590999, -0.25441060998856, 0
2394, 0.45060046859525, -0.21625888000291, 0
2395, 0.87690597181716, 0.16027452355442, 0
2396, 0.85554318646502, 0.13692721539123, 0
2397, 0.87997281725469, 0.13452856126182, 0
2398, 0.64120811708248, -0.13054008248747, 0
2399, 0.63273327211273, -0.12996169822767, 0
2400, 0.63699340969191, -0.13023938700535, 0
2401, 0.26695602710043, 0.24522486939583, 0
2402, 0.75443251272605, 0.24932160012461, 0
2403, 0.90192465911587, 0.23101544581216, 0
2404, 0.87749838751775, 0.21115500150274, 0
2405, 0.74143209498609, 0.20312772879818, 0
2406, 0.87727894056322, 0.23448378114079, 0
2407, 0.92722328285748, 0.20305653143174, 0
2408, 0.90273734912308, 0.18136683801153, 0
2409, 0.92755460127318, 0.17723187328641, 0
2410, 0.38703340855545, -0.14238862129052, 0
2411, 0.80839168283537, -0.041499318223507, 0
2412, 0.79970805720949, -0.04807485099819, 0
2413, 0.79653442307928, -0.035345515769734, 0
2414, 0.79834649854387, -0.041662284217546, 0
2415, 0.43312984847938, -0.20303316435571, 0
2416, 0.41889089362338, -0.18196062358431, 0
2417, 0.41404834457303, -0.25913837992621, 0
2418, 0.51143602953028, -0.25375526376776, 0
2419, 0.73896016790261, 0.030487570768511, 0
2420, 0.81981850403435, 0.061547401660895, 0
2421, 0.76316805937244, 0.020243207267249, 0
2422, 0.75288544513201, -0.0070849494568817, 0
2423, 0.76455549087286, -0.015129546044441, 0
2424, 0.79426485186489, 0.035867088230773, 0
2425, 0.73340968562577, 0.20002830707696, 0
2426, 0.13747032876814, -0.072795840427408, 0
2427, 0.1143143664868, -0.096819226246275, 0
2428, 0.11295568561675, -0.070246339445051, 0
2429, 0.73623034031712, 0.020504980531502, 0
2430, 0.75554682601967, -0.026182618230883, 0
2431, 0.79794535078754, 0.071220860296281, 0
2432, 0.77829918536358, 0.0054314896983244, 0
2433, 0.79409720963292, -0.0023371257432269, 0
2434, 0.80802896321864, 0.024539612624683, 0
2435, 0.70611926919255, 0.054592587677112, 0
2436, 0.74161029040536, 0.0623459461675, 0
2437, 0.77025032569662, 0.033648735620705, 0
2438, 0.72076404482729, 0.065342560068745, 0
2439, 0.73307707281085, 0.074581721622547, 0
2440, 0.7196944048228, 0.03971497870323, 0
2441, 0.5075048729051, -0.21605821905418, 0
2442, 0.45303558097435, -0.23145601436962, 0
2443, 0.45997517115015, -0.18742867492013, 0
2444, 0.40753566348104, -0.19988276651732, 0
2445, 0.60486080340711, -0.14416621518946, 0
2446, 0.60133035644685, -0.15226267006625, 0
2447, 0.60314725974188, -0.14827194899986, 0
2448, 0.74053452222243, 0.013304037164395, 0
2449, 0.76195003851374, 0.025936120641756, 0
2450, 0.73375616660568, -0.12495636982033, 0
2451, 0.73247561320532, -0.11676282292912, 0
2452, 0.72799767775515, -0.11923177008733, 0
2453, 0.372640205113, -0.09744664635997, 0
2454, 0.52626740320404, 0.27646314815439, 0
2455, 0.2677510409374, 0.15205432270387, 0
2456, 0.29497555431588, 0.16376562910627, 0
2457, 0.30395349251593, 0.19322738661789, 0
2458, 0.46237803391201, 0.26578085803813, 0
2459, 0.65168662273846, -0.22022186482221, 0
2460, 0.64046730266328, -0.23483053681633, 0
2461, 0.62518532214696, -0.22344713996936, 0
2462, 0.63632691369255, -0.20956948954635, 0
2463, 0.6384856054056, -0.22212501404128, 0
2464, 0.38505401006654, 0.27118794672054, 0
2465, 0.41604758315774, 0.26079302181979, 0
2466, 0.39027451781449, 0.27058391677287, 0
2467, 0.40499205433753, 0.25879021321826, 0
2468, 0.58826092674111, -0.1745331697306, 0
2469, 0.58326435194726, -0.18158109066096, 0
2470, 0.58572406354751, -0.17798440952351, 0
2471, 0.30154864422033, 0.27744350919941, 0
2472, 0.24633091975266, 0.19265074104655, 0
2473, 0.30394730905036, 0.18133191856519, 0
2474, 0.23987821012338, 0.20267685313965, 0
2475, 0.28488177238989, 0.20146174698674, 0
2476, 0.51703766694818, -0.21616248755498, 0
2477, 0.52659196235421, -0.21563237376496, 0
2478, 0.52180997631402, -0.21596717059873, 0
2479, 0.27714330240074, 0.14620534615579, 0
2480, 0.29678299434253, 0.15853342221265, 0
2481, 0.75446975376417, 0.087353250704292, 0
2482, 0.77286952710686, -0.027874503855028, 0
2483, 0.7625949644651, 0.04697876729606, 0
2484, 0.75418427685803, -0.022204054820817, 0
2485, 0.77741498844628, -0.076630617030239, 0
2486, 0.77391346507455, -0.085801233329449, 0
2487, 0.77552548274524, -0.08116216327565, 0
2488, 0.72572070285518, 0.13349844336001, 0
2489, 0.60441807123448, -0.15995677934682, 0
2490, 0.59939407099028, -0.15618065320531, 0
2491, 0.71299846369357, 0.22305194422047, 0
2492, 0.79208894672987, 0.15936812283494, 0
2493, 0.79362388386265, 0.18208326372213, 0
2494, 0.58540216870965, -0.18950970752212, 0
2495, 0.57791451849088, -0.18889983185484, 0
2496, 0.58067364626365, -0.18521686308251, 0
2497, 0.48619933055936, -0.20555705195809, 0
2498, 0.49059090029987, -0.20673745787381, 0
2499, 0.35136878315478, -0.067533004456348, 0
2500, 0.3478923763201, -0.066631356982956, 0
2501, 0.7905705835349, -0.053252060007485, 0
2502, 0.78076146124033, -0.057528879462174, 0
2503, 0.78065280257636, -0.052570957616951, 0
2504, 0.29705639101563, 0.21701778344407, 0
2505, 0.30585231972269, 0.21029371929799, 0
2506, 0.78168704101228, 0.17165225423831, 0
2507, 0.7161495372461, 0.21928535978048, 0
2508, 0.81930750303419, 0.0091119298300342, 0
2509, 0.7900800532203, -0.02318593696301, 0
2510, 0.77921414035719, 0.043376872756591, 0
2511, 0.74845908938332, -0.0078944192725438, 0
2512, 0.5717256249711, -0.19628508051408, 0
2513, 0.57488070200181, -0.19244902825158, 0
2514, 0.75021907581036, 0.058170748706662, 0
2515, 0.76543744907452, -0.0017304685096119, 0
2516, 0.79337660165816, -0.013437495227182, 0
2517, 0.77462165265734, -9.6881076332671e-05, 0
2518, 0.28910152578274, 0.059232804774877, 0
2519, 0.29500647605282, 0.074703826474784, 0
2520, 0.28578733178236, 0.08922359612838, 0
2521, 0.29739694505795, 0.18383531737025, 0
2522, 0.30370149097606, 0.17122635768849, 0
2523, 0.26144447636007, 0.15150316254441, 0
2524, 0.33122479450773, -0.068577038077926, 0
2525, 0.32814892709569, -0.062524482538686, 0
2526, 0.33257760961371, -0.063841091016468, 0
2527, 0.19731966863466, -0.051310705081388, 0
2528, 0.18870462250115, -0.022230363724914, 0
2529, 0.20891758095042, -0.031553205431568, 0
2530, 0.19194276387309, -0.036533269806254, 0
2531, 0.53195483182543, -0.22162702480197, 0
2532, 0.53618930681874, -0.21411603052917, 0
2533, 0.53139443185734, -0.21496306787858, 0
2534, 0.26122455835258, 0.10923248322277, 0
2535, 0.26031932482463, 0.11457627223253, 0
2536, 0.29372248208713, 0.055968975742199, 0
2537, 0.41106031523343, -0.24731893090452, 0
2538, 0.45361602115626, -0.18499298256858, 0
2539, 0.80260228088937, 0.19575926053784, 0
2540, 0.7434995908261, 0.18332848049115, 0
2541, 0.69634665716064, -0.13616026776114, 0
2542, 0.69246731685544, -0.13023684157279, 0
2543, 0.47471437051431, -0.2164446980286, 0
2544, 0.38078898266778, -0.14088115149108, 0
2545, 0.71926884932938, 0.23351726048063, 0
2546, 0.27442164512156, -0.024276985668265, 0
2547, 0.26523163885364, -0.017089295837598, 0
2548, 0.27888405189958, -0.0089890475160126, 0
2549, 0.28556639417086, -0.016553930282546, 0
2550, 0.27620057080314, -0.016561556857518, 0
2551, 0.68992018501177, 0.075908981886647, 0
2552, 0.69172079174783, 0.073004036304541, 0
2553, 0.74031242469369, 0.10268057155969, 0
2554, 0.87126549589139, -0.16256134149474, 0
2555, 0.88490900072399, -0.18100937044355, 0
2556, 0.86754179085668, -0.18115253813617, 0
2557, 0.18562120462303, 0.27465141016666, 0
2558, 0.34305495297369, 0.26857051505196, 0
2559, 0.29068442573739, 0.24882975497375, 0
2560, 0.14567498515542, -0.17599228613643, 0
2561, 0.17111807160968, -0.15171184177779, 0
2562, 0.20051664624549, -0.17830085868905, 0
2563, 0.17232960576323, -0.17724493554097, 0
2564, 0.27086418495849, 0.085851982641665, 0
2565, 0.27040682494374, 0.09462442683025, 0
2566, 0.20602139194402, 0.020927683587442, 0
2567, 0.70876167679612, 0.051527873466633, 0
2568, 0.70569621773646, 0.12741297526393, 0
2569, 0.70010399388536, 0.070578156535122, 0
2570, 0.29468969092922, 0.15507681171293, 0
2571, 0.3008437499896, 0.16524814934957, 0
2572, 0.43898341244452, -0.20226416936623, 0
2573, 0.42658444603791, -0.17843603047017, 0
2574, 0.39093645002216, -0.18857999802323, 0
2575, 0.13378581134988, 0.18721463779096, 0
2576, 0.10577037592634, 0.21645345815007, 0
2577, 0.16739816350175, 0.21990113619313, 0
2578, 0.1351102046404, 0.21718020061904, 0
2579, 0.76000410107815, 0.2040175466917, 0
2580, 0.78119694881111, 0.19151326597849, 0
2581, 0.80721320542255, -0.055561918338564, 0
2582, 0.79900447234397, -0.059652645642116, 0
2583, 0.79969880932408, -0.054112906464531, 0
2584, 0.78438895610629, -0.03106921012178, 0
2585, 0.77526870315673, -0.032634685511998, 0
2586, 0.51228615024491, -0.21616210270271, 0
2587, 0.65580513195026, 0.26596589588632, 0
2588, 0.66385749692787, 0.27630185122649, 0
2589, 0.7754145619743, 0.23612675815843, 0
2590, 0.72940721460733, 0.17886934503144, 0
2591, 0.72709256301674, 0.1949359813405, 0
2592, 0.7408377950624, 0.16145711876699, 0
2593, 0.71206423722079, 0.13655208382906, 0
2594, 0.71913125515883, 0.19803181044978, 0
2595, 0.69919961189636, 0.089682324221021, 0
2596, 0.70390994476666, 0.074374067903118, 0
2597, 0.69497762030711, 0.076260882437821, 0
2598, 0.37614046859209, -0.11714153066943, 0
2599, 0.35345302000533, -0.10037537671889, 0
2600, 0.36611134492906, -0.1482344290995, 0
2601, 0.37226970440822, -0.14922478042893, 0
2602, 0.50158871690185, -0.22241189105805, 0
2603, 0.47097698805714, -0.25238846903346, 0
2604, 0.26732840824236, 0.12032930772041, 0
2605, 0.26173985447249, 0.12582089890507, 0
2606, 0.26977261020193, 0.12981994197872, 0
2607, 0.26849014018461, 0.12524582327885, 0
2608, 0.19041460556528, 0.049188935819963, 0
2609, 0.2878604489977, 0.050947542273158, 0
2610, 0.29528982084392, 0.063869597020823, 0
2611, 0.28196410708514, 0.10084674639637, 0
2612, 0.40640484381527, 0.26152108840781, 0
2613, 0.38390247065537, 0.28705762617796, 0
2614, 0.6468950321981, -0.13651551124655, 0
2615, 0.64565395228681, -0.13096324991156, 0
2616, 0.53299763619034, -0.23499899136039, 0
2617, 0.5379150502663, -0.2275601145364, 0
2618, 0.53247026123139, -0.2282841783687, 0
2619, 0.2641393282374, 0.090943299867311, 0
2620, 0.25350807728716, 0.12032254137984, 0
2621, 0.20043977875128, 0.07688279553593, 0
2622, 0.23797808583855, 0.1094982866518, 0
2623, 0.2802551144982, 0.11279272293336, 0
2624, 0.71063076938722, -0.12903698758721, 0
2625, 0.70841263182529, -0.12426000013552, 0
2626, 0.78013237617876, -0.067317852975673, 0
2627, 0.78823722712829, -0.074328322489063, 0
2628, 0.77892690002485, -0.072024984084562, 0
2629, 0.69920760860087, 0.11179418170037, 0
2630, 0.71551953577785, 0.26084833120505, 0
2631, 0.45108101931071, 0.27636876422973, 0
2632, 0.47849402915171, 0.28394610962416, 0
2633, 0.44688723810933, 0.27130958600783, 0
2634, 0.45128219274601, 0.27156245873521, 0
2635, 0.4850525789648, -0.19812113221804, 0
2636, 0.42785681192513, -0.18478763749989, 0
2637, 0.29289199843792, -0.022801480969058, 0
2638, 0.29557484400797, -0.010928830094203, 0
2639, 0.29395013115121, -0.01675816239819, 0
2640, 0.28811611743425, 0.070834359987229, 0
2641, 0.26468627643574, 0.10057290930717, 0
2642, 0.29229463892131, 0.07813641423976, 0
2643, 0.22861891136264, 0.10566633246089, 0
2644, 0.59536434236564, -0.17479793285322, 0
2645, 0.59059913875879, -0.1708741293837, 0
2646, 0.92650123826029, 0.22809830739115, 0
2647, 0.32489691387955, -0.14893600651496, 0
2648, 0.30666286618333, -0.19956343424817, 0
2649, 0.25280566522655, -0.028158138997521, 0
2650, 0.23942189345423, -0.021712867479142, 0
2651, 0.25540775051961, -0.0086555248367109, 0
2652, 0.25327353880574, -0.018604060718484, 0
2653, 0.67305877280314, 0.24533134100999, 0
2654, 0.68967607674328, 0.23775121376046, 0
2655, 0.46017277234148, -0.19251197928845, 0
2656, 0.38402318309216, -0.24482069762952, 0
2657, 0.50105152815086, -0.20224103653669, 0
2658, 0.44439410055644, -0.20106703217272, 0
2659, 0.27731194188019, 0.091355982923511, 0
2660, 0.27362118407372, 0.076155645430898, 0
2661, 0.79037987527202, -0.063983301292487, 0
2662, 0.78090791661749, -0.062506024576609, 0
2663, 0.74976698046888, 0.11327397345011, 0
2664, 0.72000702328266, 0.12234964513848, 0
2665, 0.69727220494918, -0.22292293082689, 0
2666, 0.69688790135993, -0.24128440888401, 0
2667, 0.5422626229926, -0.21974506185227, 0
2668, 0.54573374109369, -0.21157399141586, 0
2669, 0.54097357479396, -0.21297741229161, 0
2670, 0.2909818668585, -0.0036866569066479, 0
2671, 0.30076856244561, -0.00031018004655392, 0
2672, 0.29797991706822, -0.0054280657943572, 0
2673, 0.76181300576511, -0.011594932710898, 0
2674, 0.75459360019178, -0.010166165709578, 0
2675, 0.22900111214394, -0.20501730083198, 0
2676, 0.25415774708398, -0.23229482754103, 0
2677, 0.22870475339928, -0.22990430373475, 0
2678, 0.25759239347767, 0.13316052665647, 0
2679, 0.25516774573974, 0.1271403576761, 0
2680, 0.27385408376969, 0.11180803980371, 0
2681, 0.28492972201001, 0.074645645879678, 0
2682, 0.76172896197472, -0.1131451816845, 0
2683, 0.79185670014007, -0.10940469664154, 0
2684, 0.76894198016412, -0.095058126446939, 0
2685, 0.75958366746428, -0.10264164134357, 0
2686, 0.76460130303658, -0.099257894520036, 0
2687, 0.7623360102279, 0.22522250374628, 0
2688, 0.71103226077351, 0.075562120965149, 0
2689, 0.45750365929529, -0.19059626981413, 0
2690, 0.43670752452665, -0.1865141294685, 0
2691, 0.74729452955365, -0.11399410548958, 0
2692, 0.74001718225443, -0.11120289390616, 0
2693, 0.7483961315158, -0.1070954806443, 0
2694, 0.743625309287, -0.10902661161284, 0
2695, 0.27335182567839, 0.13819371418876, 0
2696, 0.27526823978148, 0.1421572264669, 0
2697, 0.77453501304979, 0.2098928137065, 0
2698, 0.48528119422871, -0.22009929024501, 0
2699, 0.39039720145755, -0.19972365207672, 0
2700, 0.16848583072173, -0.010488489817571, 0
2701, 0.16760481322117, 0.0056522067547345, 0
2702, 0.20479418169104, -0.0051247955237237, 0
2703, 0.18612302453687, -0.0079202335243299, 0
2704, 0.32061736211054, -0.065604818480212, 0
2705, 0.31906650286989, -0.058477263886648, 0
2706, 0.32355913692715, -0.060743502992412, 0
2707, 0.076913276666805, 0.18804852828024, 0
2708, 0.078125640175861, 0.21655429043744, 0
2709, 0.25763772935975, 0.10165033904115, 0
2710, 0.27341627745466, 0.048997879937898, 0
2711, 0.70741624640368, 0.12512878964198, 0
2712, 0.77597294690357, 0.15206917718751, 0
2713, 0.74212810833534, 0.21005536366447, 0
2714, 0.25504704911957, -0.13153899377493, 0
2715, 0.27728007292818, -0.11354694423894, 0
2716, 0.33417459074489, -0.14065458318546, 0
2717, 0.27740350192061, -0.12883749079068, 0
2718, 0.26727885836068, 0.0283809594272, 0
2719, 0.21668896475018, 0.068229479743392, 0
2720, 0.56278324911812, -0.21198106778625, 0
2721, 0.5550379283047, -0.20772257919748, 0
2722, 0.56378780899552, -0.202603341365, 0
2723, 0.55951989705391, -0.2053792077874, 0
2724, 0.77931945470335, -0.12551897817263, 0
2725, 0.79266985898193, -0.12782178237162, 0
2726, 0.22880543007305, 0.25028261350785, 0
2727, 0.29486264347405, 0.23689348669305, 0
2728, 0.30214095411786, 0.25716790252149, 0
2729, 0.30452879191639, 0.20167137307963, 0
2730, 0.74020703615883, 0.15425151240459, 0
2731, 0.39468376625186, -0.17377805509714, 0
2732, 0.38761598948231, -0.17674174799713, 0
2733, 0.38629640801401, -0.16837075520906, 0
2734, 0.39069257097337, -0.17133894426082, 0
2735, 0.74154265621289, -0.1177393818412, 0
2736, 0.73683630903262, -0.11404322346159, 0
2737, 0.31734729682765, 0.017188922160495, 0
2738, 0.32058698507259, 0.016334249218083, 0
2739, 0.35563135923444, -0.07562181203351, 0
2740, 0.3609982037827, -0.073076172684431, 0
2741, 0.36019914443398, -0.076256302842411, 0
2742, 0.32315034005181, -0.079410274173969, 0
2743, 0.37801552717649, -0.1422058752316, 0
2744, 0.34230508220628, -0.083451075644088, 0
2745, 0.55266010657947, -0.21666553131599, 0
2746, 0.55044397512236, -0.20986892769003, 0
2747, 0.76832635383739, 0.0027150001699259, 0
2748, 0.12189932275773, 0.1279129685785, 0
2749, 0.1406927088994, 0.09993408865859, 0
2750, 0.11875781602578, 0.10143411458503, 0
2751, 0.24001422352997, 0.17476517810363, 0
2752, 0.30786112238458, 0.26029608327892, 0
2753, 0.22708419673419, 0.15842495926123, 0
2754, 0.22957591599309, 0.18266569708189, 0
2755, 0.73463625531052, 0.20521677575197, 0
2756, 0.71815718936473, 0.20191352850224, 0
2757, 0.56788266945957, -0.19960962880863, 0
2758, 0.31919291802056, 0.010296691756779, 0
2759, 0.30392393957952, 0.004352772451411, 0
2760, 0.79342754617487, -0.029099582098791, 0
2761, 0.74505713318258, 0.0023837886965445, 0
2762, 0.8406478311435, 0.033724280909535, 0
2763, 0.73855713918321, 0.016936242820435, 0
2764, 0.77006883642512, -0.012170526831837, 0
2765, 0.80757931080227, -0.065392673005424, 0
2766, 0.7985525148654, -0.071565174217423, 0
2767, 0.79946805311608, -0.065400538878119, 0
2768, 0.28374340834189, -0.03033820928414, 0
2769, 0.29303119867078, -0.035256378911253, 0
2770, 0.29258294888868, -0.028989232158771, 0
2771, 0.30323519748799, -0.0821895856096, 0
2772, 0.32134029544347, -0.094052894957335, 0
2773, 0.45011534279988, -0.18414868492723, 0
2774, 0.24471052892593, -0.041860415027274, 0
2775, 0.26405648804274, -0.033956448919626, 0
2776, 0.2541737828037, -0.036910470143247, 0
2777, 0.69540577985237, 0.091602341523418, 0
2778, 0.71784078572361, 0.069025204371655, 0
2779, 0.54907766581468, -0.22548595233388, 0
2780, 0.5434279964326, -0.22667571334629, 0
2781, 0.70558544479171, 0.064507706009402, 0
2782, 0.71072787290642, 0.1057595402159, 0
2783, 0.6937377140818, 0.0700109487174, 0
2784, 0.37126626860282, -0.078542886855079, 0
2785, 0.39513064387539, -0.15673835040078, 0
2786, 0.35409402906079, -0.095741612292749, 0
2787, 0.2747196409598, -0.039381148338691, 0
2788, 0.27408904702352, -0.031924472701733, 0
2789, 0.30124386128317, 0.1714450836257, 0
2790, 0.22606143789188, 0.12009355639526, 0
2791, 0.27252208721243, 0.17063994813507, 0
2792, 0.8504248867818, 0.1933147110418, 0
2793, 0.87701058956535, 0.18646285115802, 0
2794, 0.31088189432502, -0.059786851971189, 0
2795, 0.31509072464001, -0.055763631193235, 0
2796, 0.75382506125335, -0.10502836086459, 0
2797, 0.27642231002935, 0.071447666093049, 0
2798, 0.2552616893151, 0.088310998295913, 0
2799, 0.43943777242173, 0.26520181983672, 0
2800, 0.41915866997501, 0.28467785593783, 0
2801, 0.4232671280458, 0.27896218260261, 0
2802, 0.33602267927802, -0.073876423326646, 0
2803, 0.37999303192172, -0.15897278926535, 0
2804, 0.32417858147488, -0.073030366779008, 0
2805, 0.33055931970863, -0.073922029183679, 0
2806, 0.53515091992064, 0.27136435884232, 0
2807, 0.5413262402347, 0.27412260201291, 0
2808, 0.55280999012909, 0.2591626794958, 0
2809, 0.53949128907784, 0.26967387003196, 0
2810, 0.64589775143158, 0.24866409372558, 0
2811, 0.65041725297823, 0.24868349782169, 0
2812, 0.60436196665435, 0.25977647231428, 0
2813, 0.71020691890977, 0.23205248216341, 0
2814, 0.67745848083773, 0.24389795735061, 0
2815, 0.29872454427605, 0.015321381738269, 0
2816, 0.28822235676199, -0.16081412053102, 0
2817, 0.29888022214842, -0.23926730458737, 0
2818, 0.27783888550486, -0.23579501952883, 0
2819, 0.33533777021537, -0.12181965398754, 0
2820, 0.33855322647488, -0.1281667469764, 0
2821, 0.86629632178502, -0.092087475874682, 0
2822, 0.88562137982138, -0.10869398334637, 0
2823, 0.87219873074375, -0.12853539587229, 0
2824, 0.85587175821239, -0.11191345509503, 0
2825, 0.87047369794731, -0.11034992307579, 0
2826, 0.29342408479474, 0.047867846597472, 0
2827, 0.32091099872087, 0.043516825532504, 0
2828, 0.10066330282276, 0.15802537619871, 0
2829, 0.075024845990884, 0.15934928016844, 0
2830, 0.59468874953135, -0.24236002923759, 0
2831, 0.58250556562911, -0.23348200551369, 0
2832, 0.58928081815612, -0.22094297382934, 0
2833, 0.60261700273815, -0.22936844124648, 0
2834, 0.59233456236422, -0.23164750502327, 0
2835, 0.15440434439441, 0.15400614430776, 0
2836, 0.12738536757664, 0.15661965865286, 0
2837, 0.25334019623917, 0.11341131297405, 0
2838, 0.18644797782173, 0.021073034203976, 0
2839, 0.26594635020497, 0.13555534554088, 0
2840, 0.27167086578634, 0.13420474332484, 0
2841, 0.65608553943028, 0.27631928173145, 0
2842, 0.70709454626523, 0.23716152317594, 0
2843, 0.16678884907623, -0.10033901432847, 0
2844, 0.18561255294915, -0.074927197403116, 0
2845, 0.16177083874264, -0.076466290115466, 0
2846, 0.74237434208143, 0.0096422230525602, 0
2847, 0.77194225626715, 0.026787940569653, 0
2848, 0.35966090574393, -0.20372348910705, 0
2849, 0.45081996124329, -0.20380695490616, 0
2850, 0.28050892024944, -0.14500144628314, 0
2851, 0.36993538023498, -0.19356151571164, 0
2852, 0.36313601406889, -0.2235719323352, 0
2853, 0.66221299295048, -0.1607858673188, 0
2854, 0.6688838814232, -0.15171584198622, 0
2855, 0.67168127794071, -0.16167925650995, 0
2856, 0.38064544295828, -0.12834696786022, 0
2857, 0.3151074210429, -0.077654628098967, 0
2858, 0.68196756691424, 0.26242054321745, 0
2859, 0.6102078065237, 0.24612970236684, 0
2860, 0.66408690318322, 0.24739553885239, 0
2861, 0.73023554128871, 0.047496725727992, 0
2862, 0.82260255501494, 0.048152964325915, 0
2863, 0.76285042334302, -0.025104275181496, 0
2864, 0.75533987400359, -0.0013136207677311, 0
2865, 0.75490405736085, 0.019677018241873, 0
2866, 0.74977800217151, 0.22607290885218, 0
2867, 0.35470506082198, -0.13307557646026, 0
2868, 0.22854641234849, -0.15420769111145, 0
2869, 0.22996467308831, -0.17913628795302, 0
2870, 0.3937092242783, -0.18038654698537, 0
2871, 0.39772347394813, -0.17681670802998, 0
2872, 0.33846641026807, 0.2669830604917, 0
2873, 0.35936691230025, 0.28705900515676, 0
2874, 0.87136515941328, 0.065390172808678, 0
2875, 0.856862849527, 0.048579910522423, 0
2876, 0.83649120245949, 0.063207982327893, 0
2877, 0.84999936915767, 0.080253383062179, 0
2878, 0.85383101406565, 0.064405334384549, 0
2879, 0.31788045393274, -0.24182394556053, 0
2880, 0.81272856883209, 0.12738661521071, 0
2881, 0.80074134500866, 0.10482537793755, 0
2882, 0.73103296531793, 0.16861580974628, 0
2883, 0.73101242683925, 0.16313484395142, 0
2884, 0.93933444812493, -0.19741944507791, 0
2885, 0.93730134444953, -0.22360260888215, 0
2886, 0.23363303732128, -0.068805496693215, 0
2887, 0.27748366560292, -0.054385801573546, 0
2888, 0.2899970716962, -0.058250350435914, 0
2889, 0.24130758838849, -0.09137978152098, 0
2890, 0.55682435768642, -0.23131313704331, 0
2891, 0.56064366582063, -0.22157013453658, 0
2892, 0.55484305015338, -0.22379691342526, 0
2893, 0.30503576316821, 0.043204143583859, 0
2894, 0.30115813203354, 0.024085620195338, 0
2895, 0.31036575499224, 0.059391165132344, 0
2896, 0.32533348648608, 0.032361765935936, 0
2897, 0.88036729473881, 0.001308054074815, 0
2898, 0.86468437700935, -0.018476522223245, 0
2899, 0.85924971653851, 0.017456835350333, 0
2900, 0.86123205239594, 7.2878390275255e-05, 0
2901, 0.92036165739348, -0.17352216070545, 0
2902, 0.90239264741994, -0.17869648860216, 0
2903, 0.61114606739265, 0.2791429189492, 0
2904, 0.5924041958176, 0.28170973674063, 0
2905, 0.71166174308646, 0.11051470520494, 0
2906, 0.72139433797169, 0.11068312039511, 0
2907, 0.70192809025446, 0.10724672354369, 0
2908, 0.62384812128394, -0.15220946896457, 0
2909, 0.61201587210653, -0.14296834652032, 0
2910, 0.61749825308953, -0.14710165039764, 0
2911, 0.75081550769503, 0.20772490202406, 0
2912, 0.60726245920234, -0.13545355196005, 0
2913, 0.60636512903297, -0.13990388363021, 0
2914, 0.30136186806871, -0.05979388869577, 0
2915, 0.29601428926753, -0.047921966417596, 0
2916, 0.29812416366014, -0.054150526437076, 0
2917, 0.34294809276137, -0.16020692725637, 0
2918, 0.33368352060023, -0.15546991861049, 0
2919, 0.34810777444314, -0.15072919738291, 0
2920, 0.7762674831772, 0.2225462999515, 0
2921, 0.31855591365039, 0.26485605509483, 0
2922, 0.31358104662788, 0.23140040037092, 0
2923, 0.78230794577074, -0.093669087432297, 0
2924, 0.77176250990481, -0.090461955804703, 0
2925, 0.63341918617463, -0.16586619930212, 0
2926, 0.6315861201656, -0.14703891453645, 0
2927, 0.64218018402215, -0.15770237079404, 0
2928, 0.63263447130916, -0.15572365647274, 0
2929, 0.6483632208795, 0.27573603093615, 0
2930, 0.6167606097239, 0.25042851850729, 0
2931, 0.071584317067974, -0.1982486498158, 0
2932, 0.072692258663922, -0.2240097838141, 0
2933, 0.56193457392965, 0.27966158962394, 0
2934, 0.35907684011916, -0.1369939282058, 0
2935, 0.36919576934898, -0.21176304124993, 0
2936, 0.34278064420494, -0.13395920357773, 0
2937, 0.84057317671889, 0.11373159634842, 0
2938, 0.82729320757545, 0.093584019146869, 0
2939, 0.84546129311953, 0.096318434617921, 0
2940, 0.72179696675177, 0.13027144706432, 0
2941, 0.19853523625449, 0.14202541891526, 0
2942, 0.2369737987124, 0.12067486281953, 0
2943, 0.21547512778094, 0.1390684206792, 0
2944, 0.29324577028114, 0.010411780581031, 0
2945, 0.27432430250113, 0.25225491916646, 0
2946, 0.25290641284076, 0.18472809513294, 0
2947, 0.68802166401769, 0.27290127623177, 0
2948, 0.65411572785131, -0.16972355385992, 0
2949, 0.64964022616216, -0.14995433373436, 0
2950, 0.65205708910846, -0.15956801582811, 0
2951, 0.26139193590633, 0.097602526886532, 0
2952, 0.31443463374891, 0.050307327141522, 0
2953, 0.84208039926937, -0.12965326347246, 0
2954, 0.82744720050145, -0.11326687824578, 0
2955, 0.83806861242241, -0.097505397561747, 0
2956, 0.8410836819655, -0.11300651027024, 0
2957, 0.35837097256502, -0.069442317402431, 0
2958, 0.35317158094343, -0.071552883548066, 0
2959, 0.35483419811344, -0.068536860981702, 0
2960, 0.82870596214184, -0.14743156295226, 0
2961, 0.85759675509753, -0.1459254323089, 0
2962, 0.84338026452477, -0.14631067341852, 0
2963, 0.2723328643106, 0.2149071212868, 0
2964, 0.26978970154098, 0.1845939983078, 0
2965, 0.29637705684533, 0.18793450284511, 0
2966, 0.26517920821451, 0.19057799209696, 0
2967, 0.7112131236627, 0.12352918121547, 0
2968, 0.76940166580959, 0.13263784181174, 0
2969, 0.24843772518095, 0.25860976714945, 0
2970, 0.32106923145772, 0.24248261014998, 0
2971, 0.27945373021945, 0.1606278228955, 0
2972, 0.24572168258567, 0.14264827867165, 0
2973, 0.73769484836928, 0.069255313016223, 0
2974, 0.70427317533767, 0.1149982594666, 0
2975, 0.70321681475409, 0.11116730159143, 0
2976, 0.85804069873681, 0.033212430497725, 0
2977, 0.28692450350102, 0.014021640027245, 0
2978, 0.22815089707586, 0.087462869577688, 0
2979, 0.24351734725699, 0.0011107207051667, 0
2980, 0.28987957619568, 0.081757155614876, 0
2981, 0.27323014842213, -1.4742068709939e-06, 0
2982, 0.26044372692272, 0.0013460154580545, 0
2983, 0.33256351458079, -0.10121963618405, 0
2984, 0.35137606965242, -0.074537594137919, 0
2985, 0.30095698001812, 0.22697492742931, 0
2986, 0.62877955006701, -0.13465824922765, 0
2987, 0.6299352717868, -0.14039609042547, 0
2988, 0.88785906595628, -0.033270351391494, 0
2989, 0.87894543718764, -0.050048503434873, 0
2990, 0.87316160809227, -0.035699202332893, 0
2991, 0.40444106998773, -0.2071406690834, 0
2992, 0.94010146945549, -0.17003630594651, 0
2993, 0.29389765841694, -0.11299502702345, 0
2994, 0.35773563154113, 0.26663006128121, 0
2995, 0.3628583688438, 0.27042528010188, 0
2996, 0.35953177252815, 0.28094223069525, 0
2997, 0.39087867873539, 0.27522305135749, 0
2998, 0.4312591819099, 0.27474790206225, 0
2999, 0.38499278087853, 0.26284190570222, 0
3000, 0.32977546209207, 0.26325400273387, 0
3001, 0.29109933139574, 0.18180015385174, 0
3002, 0.38584972899021, -0.23307772168435, 0
3003, 0.38433715768378, -0.19396553325201, 0
3004, 0.72311935414198, -0.16105916965722, 0
3005, 0.71371344681153, -0.17548716128603, 0
3006, 0.70690235206014, -0.15138637301665, 0
3007, 0.71173786151998, -0.16297968518901, 0
3008, 0.8233942314904, -0.069976386718109, 0
3009, 0.84576670154802, -0.078730411078091, 0
3010, 0.81977978839711, -0.08691425423381, 0
3011, 0.83224634359812, -0.083034071726216, 0
3012, 0.344902121577, 0.28604976220186, 0
3013, 0.34624380798882, 0.28013414746372, 0
3014, 0.35282783567316, 0.27548779835707, 0
3015, 0.19978879386013, -0.12706544818945, 0
3016, 0.22914811295028, -0.13085444455978, 0
3017, 0.36752646096419, -0.1203543088289, 0
3018, 0.37904686976873, -0.21773878496175, 0
3019, 0.33154375489822, -0.18803347135174, 0
3020, 0.28511609014375, -0.044252082297012, 0
3021, 0.29415410379569, -0.041579216677092, 0
3022, 0.14819113188462, 0.0046831893861561, 0
3023, 0.15007005517342, -0.013682132211271, 0
3024, 0.5590751285513, -0.24798493423433, 0
3025, 0.55938477366, -0.25766254888355, 0
3026, 0.73892319704796, 0.12172918295474, 0
3027, 0.70748316780058, 0.078443271053396, 0
3028, 0.71415392781029, 0.087698117677969, 0
3029, 0.27574380678301, -0.046765312522275, 0
3030, 0.22291025687123, -0.014323848932961, 0
3031, 0.22367820653617, -0.0020848068716731, 0
3032, 0.59485607451569, -0.20936544410695, 0
3033, 0.5872547301191, -0.21162541967353, 0
3034, 0.74774230043096, -0.15407925181259, 0
3035, 0.74268678532121, -0.17262357867343, 0
3036, 0.72941664977706, -0.14686260146375, 0
3037, 0.736059685485, -0.15888069942276, 0
3038, 0.70204668027827, -0.18592271941995, 0
3039, 0.69007473329272, -0.19605213417603, 0
3040, 0.69138471890077, -0.18487537939742, 0
3041, 0.14224610238949, -0.12458748933229, 0
3042, 0.16966705308907, -0.12596944476611, 0
3043, 0.30788481684185, 0.048127281457502, 0
3044, 0.32112225061669, 0.013186545667074, 0
3045, 0.33791521818946, -0.078854012667282, 0
3046, 0.76212564649366, 0.17405495972526, 0
3047, 0.71416413089682, 0.14003234574389, 0
3048, 0.812951053688, -0.16397175871247, 0
3049, 0.81066688981164, -0.18124729350594, 0
3050, 0.3282925183853, 0.27901290197078, 0
3051, 0.30956933579541, 0.24027831137273, 0
3052, 0.27345666669234, 0.22266059888881, 0
3053, 0.12943520210396, 0.024966465309528, 0
3054, 0.15025387752747, 0.040218445732765, 0
3055, 0.20741337182417, 0.033415673051039, 0
3056, 0.14867542349513, 0.022796919178998, 0
3057, 0.66629527256037, 0.25583151087209, 0
3058, 0.60632686934778, 0.24653110279844, 0
3059, 0.69259541384522, 0.078855504845021, 0
3060, 0.68792771905237, 0.082881688283096, 0
3061, 0.72073865756245, 0.10460678654221, 0
3062, 0.7229704324458, 0.0734207357523, 0
3063, 0.88874461407821, 0.066449914432661, 0
3064, 0.70775371732635, 0.13019001285108, 0
3065, 0.73878916507537, 0.19730674159718, 0
3066, 0.4170801690545, -0.1950675480011, 0
3067, 0.33904339690085, -0.21082725808493, 0
3068, 0.15697561890309, 0.075206174917556, 0
3069, 0.16746592955435, 0.021680278634319, 0
3070, 0.15374320567827, 0.057326203013194, 0
3071, 0.79400707861526, 0.12145076637609, 0
3072, 0.8262597124621, 0.28118624342162, 0
3073, 0.32424985243854, -0.12628341488762, 0
3074, 0.37185426298109, -0.154911796802, 0
3075, 0.37220196676339, -0.089678947549974, 0
3076, 0.36586549888013, -0.1162455613284, 0
3077, 0.72512237145592, 0.22909891111325, 0
3078, 0.73280583013062, 0.21737575446082, 0
3079, 0.094688141729993, -0.17349998905364, 0
3080, 0.07029494212339, -0.17225283097839, 0
3081, 0.78997037597742, 0.083724659911447, 0
3082, 0.7706640807915, 0.0078831032925549, 0
3083, 0.73980790328731, 0.081900247535828, 0
3084, 0.76901371210383, 0.05917700825699, 0
3085, 0.83299845183986, 0.13320991187634, 0
3086, 0.32458069449932, 0.045925109864634, 0
3087, 0.31504775162549, 0.0035779864787757, 0
3088, 0.45961073724838, -0.23629552718135, 0
3089, 0.71050294608298, 0.2173152286857, 0
3090, 0.43316788787121, -0.20939521945854, 0
3091, 0.41814371259948, 0.27727306614371, 0
3092, 0.4012832661569, 0.25980759505428, 0
3093, 0.87173747262774, -0.14544947302402, 0
3094, 0.32330200418256, 0.018612459089889, 0
3095, 0.31998063646953, 0.021402591743912, 0
3096, 0.30867085472742, 0.026621745269276, 0
3097, 0.73761956974205, 0.14752963692216, 0
3098, 0.73295193194492, 0.10344501442173, 0
3099, 0.77048097744832, -0.023424680472737, 0
3100, 0.61161632816843, -0.1314673948601, 0
3101, 0.61566555465674, -0.13065420472894, 0
3102, 0.60180384089229, 0.24289618523438, 0
3103, 0.26208537398579, 0.26477393945716, 0
3104, 0.60882946498287, -0.21448870368689, 0
3105, 0.61313282703174, -0.22611560727509, 0
3106, 0.44532426052882, 0.28178558827801, 0
3107, 0.4411695509909, 0.27605268198874, 0
3108, 0.43974170906801, 0.28154905450555, 0
3109, 0.74442286420476, 0.022656902477295, 0
3110, 0.7607478352432, -0.020986356786947, 0
3111, 0.7184162187236, 0.058374276617429, 0
3112, 0.76688655057252, 0.040465160768036, 0
3113, 0.3357602632444, 0.26054546435137, 0
3114, 0.35769225808063, 0.26273261207729, 0
3115, 0.6477594555457, -0.14240611349721, 0
3116, 0.76201586866484, 0.066076134390983, 0
3117, 0.72255596872949, 0.036760055583664, 0
3118, 0.75122523562911, -0.0010003596164417, 0
3119, 0.77050319558977, -0.0047432538814549, 0
3120, 0.76083436977887, 0.00051569281489874, 0
3121, 0.80861873391979, 0.089562627810076, 0
3122, 0.28700502126025, 0.1685771149599, 0
3123, 0.2931724256956, 0.17796820311862, 0
3124, 0.72652542215024, 0.14745707659065, 0
3125, 0.76741367443171, 0.26522523277605, 0
3126, 0.45685958633087, -0.18606191660685, 0
3127, 0.42641882409853, -0.21759382456829, 0
3128, 0.33692032974911, 0.27179706844715, 0
3129, 0.35188852050943, 0.28685909342341, 0
3130, 0.71900416873746, 0.048960691151627, 0
3131, 0.70479066085828, 0.10214353669788, 0
3132, 0.72716156428776, -0.19159729877237, 0
3133, 0.74595273102168, -0.18955448573029, 0
3134, 0.54876518882128, -0.2568105179088, 0
3135, 0.62838990991339, -0.12941402633206, 0
3136, 0.70625798000853, 0.28361635860842, 0
3137, 0.38053715897242, 0.26706873497321, 0
3138, 0.42541195047769, 0.28601099363799, 0
3139, 0.58223190687511, 0.24480555789541, 0
3140, 0.64149388322393, 0.24843146298211, 0
3141, 0.11796021606488, -0.14901124591761, 0
3142, 0.11994346377717, -0.17470758349446, 0
3143, 0.69618542754199, 0.10451566039214, 0
3144, 0.75055753485945, 0.0062545655706807, 0
3145, 0.52173295072632, -0.22250897409475, 0
3146, 0.4962172472689, -0.22204888566837, 0
3147, 0.2911787517607, 0.17189807365504, 0
3148, 0.25675902662347, 0.14241331162372, 0
3149, 0.27881356910768, 0.18833637469585, 0
3150, 0.32109347608199, 0.25900372912355, 0
3151, 0.29236241105545, 0.16035093239652, 0
3152, 0.28022799859049, 0.11690843361828, 0
3153, 0.18601221853421, 0.0066839973089684, 0
3154, 0.5658238195286, -0.23786875181711, 0
3155, 0.5707378787046, -0.22652962591223, 0
3156, 0.57369996021059, -0.23562686371825, 0
3157, 0.39252567810022, -0.2125623904347, 0
3158, 0.43625724827843, -0.22316781686438, 0
3159, 0.59641538009583, -0.25388969571763, 0
3160, 0.69711463741212, 0.085813270064238, 0
3161, 0.41121524605729, 0.2620153534516, 0
3162, 0.44240870947635, 0.27086152713857, 0
3163, 0.26109512361625, 0.19778841668153, 0
3164, 0.23630283347205, 0.071618153706625, 0
3165, 0.28509908195583, 0.21348563632618, 0
3166, 0.89744356445097, -0.082587820844742, 0
3167, 0.90210458370677, -0.10751047490869, 0
3168, 0.31764788294037, -0.14079470958723, 0
3169, 0.24271364382523, -0.05811705356795, 0
3170, 0.26203602693412, -0.095692617244974, 0
3171, 0.73388035247001, 0.14192988481619, 0
3172, 0.5721385524669, 0.26370218175019, 0
3173, 0.5492686936466, 0.27682397278328, 0
3174, 0.22140085114565, -0.057631052275962, 0
3175, 0.20550469094673, -0.067133258904377, 0
3176, 0.64483910030883, 0.25627520036552, 0
3177, 0.28800080400648, 0.17517075963072, 0
3178, 0.28983976843282, 0.26221888192171, 0
3179, 0.47574203442873, 0.27493915069133, 0
3180, 0.45595466850718, 0.26382460095715, 0
3181, 0.48899618238227, -0.19934436124244, 0
3182, 0.40922592096356, -0.23660453228787, 0
3183, 0.16993815809613, 0.11985759015052, 0
3184, 0.17871287975524, 0.14798515478107, 0
3185, 0.81480514386227, 0.07531185264489, 0
3186, 0.6777883853127, -0.21182124500526, 0
3187, 0.70627438853573, -0.20106033564306, 0
3188, 0.6932684205727, -0.20805429010095, 0
3189, 0.18290992947977, 0.088256794236529, 0
3190, 0.25306359273814, 0.082366275399459, 0
3191, 0.2655255264544, 0.095048172748963, 0
3192, 0.59798832830098, 0.26020084661676, 0
3193, 0.59778063422501, 0.24261797784999, 0
3194, 0.68466605605746, 0.28667826471923, 0
3195, 0.32161001651338, -0.11821748773358, 0
3196, 0.3098883922725, -0.093184214140473, 0
3197, 0.26115299754141, 0.1381757849957, 0
3198, 0.26067916570987, 0.2365190398991, 0
3199, 0.90192143919169, -0.016554871119261, 0
3200, 0.89825805738535, 0.0035392206059867, 0
3201, 0.60936830204022, -0.16379470786567, 0
3202, 0.32900043294914, 0.28815987603714, 0
3203, 0.32784404971465, 0.25617919318121, 0
3204, 0.3323592934996, 0.26993844498825, 0
3205, 0.66859172483003, 0.24648854836283, 0
3206, 0.87422902758248, -0.070303232462592, 0
3207, 0.8599377726784, -0.075153729250447, 0
3208, 0.29127746732457, 0.23150488468667, 0
3209, 0.68841416368007, 0.26004175074863, 0
3210, 0.66086441223026, 0.25647760158369, 0
3211, 0.8188235750524, -0.052139751107961, 0
3212, 0.81960639774548, -0.041757769744817, 0
3213, 0.633117313729, 0.24739100638946, 0
3214, 0.70469547961911, 0.24768750465315, 0
3215, 0.3167614310146, 0.27121413263242, 0
3216, 0.37341979620386, -0.14441803118965, 0
3217, 0.77228792309809, 0.25033738311612, 0
3218, 0.75430482204052, 0.16047394901721, 0
3219, 0.42692462645012, -0.20328193275682, 0
3220, 0.47731690460984, -0.19530215635863, 0
3221, 0.24348212921272, 0.086957141036967, 0
3222, 0.11634881171663, -0.12297706331174, 0
3223, 0.81332520316555, -0.10070620047203, 0
3224, 0.81476450714577, -0.11138447515201, 0
3225, 0.3751949692472, 0.27065359574543, 0
3226, 0.34064443991639, -0.07322200675476, 0
3227, 0.26287264842607, 0.10449071418558, 0
3228, 0.27171392548547, 0.080961261938409, 0
3229, 0.31171680057144, -0.068373252690251, 0
3230, 0.31795155645585, -0.071170413659305, 0
3231, 0.69400958607826, -0.14430609607864, 0
3232, 0.70673231240538, -0.1392833731366, 0
3233, 0.70075065259524, -0.14261345640346, 0
3234, 0.36383463639988, -0.1402250837557, 0
3235, 0.70551665773536, 0.12175980181604, 0
3236, 0.7315988201488, 0.19572723440104, 0
3237, 0.28301881804828, -0.0018280167203788, 0
3238, 0.6717117210744, 0.25480912267282, 0
3239, 0.22049700606426, -0.08197513673752, 0
3240, 0.50515193253789, -0.20289023539487, 0
3241, 0.39670743718381, -0.18425399737394, 0
3242, 0.44391815357227, -0.21995395925026, 0
3243, 0.37993126961529, 0.27123419462095, 0
3244, 0.41699682608819, 0.26528434073073, 0
3245, 0.25205223142623, 0.043542214747355, 0
3246, 0.30043672294761, -0.0704747488739, 0
3247, 0.2490026446482, -0.076694886538761, 0
3248, 0.37899563871981, -0.12469910450413, 0
3249, 0.38412113887052, -0.13537124649034, 0
3250, 0.36376967456568, -0.10772124705964, 0
3251, 0.59598920928041, -0.19756216214892, 0
3252, 0.59019756522657, -0.19318801546913, 0
3253, 0.68739815120824, -0.14471065540282, 0
3254, 0.72113133010362, 0.13901072650212, 0
3255, 0.66690316604557, -0.14395187166818, 0
3256, 0.4409628528885, -0.18707867916583, 0
3257, 0.48187996116666, -0.20418332488233, 0
3258, 0.7285773756897, 0.040507837129325, 0
3259, 0.75878587140122, -0.017178805014454, 0
3260, 0.22922069471497, 0.13619312822255, 0
3261, 0.27393604689224, 0.2003492754578, 0
3262, 0.48230041788277, -0.22733387399444, 0
3263, 0.73355420054645, 0.23265867941616, 0
3264, 0.77267506668835, 0.1813396285499, 0
3265, 0.76384374756475, 0.014692432813957, 0
3266, 0.36869359272612, -0.14271897622004, 0
3267, 0.68734771102345, 0.24911825653315, 0
3268, 0.68232162118766, 0.25149827363487, 0
3269, 0.60606659445246, -0.18332475464424, 0
3270, 0.62419610461257, -0.19495870045729, 0
3271, 0.60910650970593, -0.19789813957677, 0
3272, 0.61392587409234, -0.18927005249644, 0
3273, 0.30714872438989, 0.062223961331467, 0
3274, 0.75596369029921, -0.12194633047073, 0
3275, 0.76625579476529, -0.12284731969301, 0
3276, 0.16180672776085, 0.095549981507401, 0
3277, 0.54335176046347, 0.2793216389362, 0
3278, 0.28220045699966, 0.054337947027602, 0
3279, 0.30680595061644, 0.055067534456073, 0
3280, 0.73337298728828, -0.13486128026342, 0
3281, 0.71741397513656, -0.13672018281338, 0
3282, 0.72555089759792, -0.13687821808371, 0
3283, 0.70702778736728, 0.071433597932144, 0
3284, 0.70691958222923, 0.08534445934343, 0
3285, 0.71913434326531, 0.098638774424983, 0
3286, 0.60030432184436, -0.17865067932631, 0
3287, 0.59298633128643, 0.24982284285008, 0
3288, 0.59220707783033, 0.25421498846897, 0
3289, 0.80362457629005, -0.082408558762717, 0
3290, 0.79570152982564, -0.077176739516997, 0
3291, 0.52056456609804, 0.27035367536976, 0
3292, 0.40140267777397, -0.21556817566986, 0
3293, 0.40996630687228, -0.21740215114306, 0
3294, 0.64586340104645, -0.17864531572556, 0
3295, 0.63600907312713, -0.18696121264512, 0
3296, 0.63567052379824, -0.17673975181956, 0
3297, 0.77776327562049, -0.020825677001341, 0
3298, 0.78582725056711, 0.0021718104353491, 0
3299, 0.232224372947, 0.053358121266791, 0
3300, 0.58278507922849, 0.28148466536245, 0
3301, 0.5727968353446, 0.27186135909724, 0
3302, 0.60714988813961, 0.25015351839383, 0
3303, 0.46463813525629, 0.27295885827969, 0
3304, 0.40578665904843, -0.19092772681133, 0
3305, 0.4463900960679, -0.18337098813658, 0
3306, 0.73344388528422, 0.08557971012056, 0
3307, 0.75309239257772, 0.024508242912472, 0
3308, 0.81574831163372, -0.14974185293115, 0
3309, 0.64172467241902, -0.2481475809009, 0
3310, 0.22674544703215, 0.021611896004013, 0
3311, 0.89873787551002, -0.052479914716754, 0
3312, 0.90314348803358, -0.035743091889906, 0
3313, 0.80807288256539, 0.26426668637171, 0
3314, 0.22778980925445, -0.038084791058154, 0
3315, 0.22454741875759, -0.026344195981753, 0
3316, 0.74534145988227, -0.126001583953, 0
3317, 0.74842159665433, -0.13867303528194, 0
3318, 0.74008495013198, -0.13110040490638, 0
3319, 0.42640116309165, -0.21008154314118, 0
3320, 0.66445505107921, -0.21701992008861, 0
3321, 0.80047061589988, -0.093524821683718, 0
3322, 0.79158570610233, -0.094711290309687, 0
3323, 0.65584982567377, -0.1798579154663, 0
3324, 0.35621086384067, -0.15355137708324, 0
3325, 0.55826526802228, -0.23934449208029, 0
3326, 0.5680532526204, 0.25145266312106, 0
3327, 0.69316755049116, 0.23511027169173, 0
3328, 0.55583752221297, 0.26089236505254, 0
3329, 0.40067694375744, 0.28378954165521, 0
3330, 0.38316905926692, 0.2934012516854, 0
3331, 0.63595784505563, -0.19782136564859, 0
3332, 0.45089624132353, 0.28166935738361, 0
3333, 0.35388462102853, -0.078950744165, 0
3334, 0.37454490624677, -0.22889792920834, 0
3335, 0.56631103846879, -0.21879213795886, 0
3336, 0.68581261482125, 0.24009362009459, 0
3337, 0.71938384843004, 0.28100358693816, 0
3338, 0.58403304736016, 0.24341129715713, 0
3339, 0.59775110246674, 0.25049560886826, 0
3340, 0.33518666574939, 0.27680448706166, 0
3341, 0.55470852429379, 0.27294564999494, 0
3342, 0.10957862890547, 0.029191903148532, 0
3343, 0.31612173900718, -0.18186646524516, 0
3344, 0.76641423462606, -0.15343243480114, 0
3345, 0.77637436931114, -0.15304058628691, 0
3346, 0.52338309609053, -0.26257128240031, 0
3347, 0.88796819201376, -0.063389464738548, 0
3348, 0.56461418662872, 0.27049904547803, 0
3349, 0.45344848816217, -0.19772507723455, 0
3350, 0.74081259902302, 0.11231291835097, 0
3351, 0.75698145314331, -0.14748961471306, 0
3352, 0.30445116108246, 0.019347967980882, 0
3353, 0.73456002928429, 0.044863545034697, 0
3354, 0.31457176395569, 0.032146404649039, 0
3355, 0.69201006780022, 0.084314696815092, 0
3356, 0.72458317010769, 0.12442043942911, 0
3357, 0.71250456652162, -0.18869538883634, 0
3358, 0.74852334442654, 0.19985494263782, 0
3359, 0.60224299073894, -0.20469738778798, 0
3360, 0.26954560839456, -0.079342535941747, 0
3361, 0.80913646839127, -0.090700371837003, 0
3362, 0.36186480940894, -0.070082087137134, 0
3363, 0.27656955340215, 0.095524559082919, 0
3364, 0.71556408144213, 0.10516201742924, 0
3365, 0.30611214882298, -0.064571936877353, 0
3366, 0.38970460582112, 0.26631915050122, 0
3367, 0.70747745053698, 0.096366327567408, 0
3368, 0.31680119597016, 0.044671807752278, 0
3369, 0.3880719326916, -0.18287077214868, 0
3370, 0.74716731635131, -0.11976665873077, 0
3371, 0.72325073338647, 0.16946040706645, 0
3372, 0.16877321913249, 0.037552747384313, 0
3373, 0.73224626810512, 0.11958533122686, 0
3374, 0.81442380919012, -0.060476056781194, 0
3375, 0.71007631740203, 0.0683424904613, 0
3376, 0.70973243987126, -0.13407050633732, 0
3377, 0.44553588502868, -0.20608999964281, 0
3378, 0.80710272207889, 0.047324834386339, 0
3379, 0.38483720044338, 0.2759215976546, 0
3380, 0.6058040266104, 0.24304655677788, 0
3381, 0.47801431121732, -0.26465126142378, 0
3382, 0.38316717908471, -0.25754469582998, 0
3383, 0.23392299258595, -0.048922304039917, 0
3384, 0.60734025036409, -0.13119593553967, 0
3385, 0.7413118701466, 0.13438511609763, 0
3386, 0.72330835863628, 0.20202227287652, 0
3387, 0.77470955540356, -0.11308770526441, 0
3388, 0.88616372340241, 0.034117393944848, 0
3389, 0.80400800444133, 0.28210299373317, 0
3390, 0.5244211800715, 0.27009984381833, 0
3391, 0.30909255016214, -0.050049155168115, 0
3392, 0.58489633760884, 0.24686001643602, 0
3393, 0.35173904166188, -0.21735832048254, 0
3394, 0.81179143155713, -0.025284573568996, 0
3395, 0.17176147956158, 0.053472318261428, 0
3396, 0.28529684774304, -0.071119267697765, 0
3397, 0.52683191022907, 0.27277075781036, 0
3398, 0.45545730741008, 0.26757459303593, 0
3399, 0.8969961684092, -0.14404357785615, 0
3400, 0.738535385663, 0.22529655692676, 0
3401, 0.25996503860887, -0.049499141380621, 0
3402, 0.87668145088799, 0.0981607097544, 0
3403, 0.31263843213597, -0.084982439991376, 0
3404, 0.36682455642563, 0.29341238895138, 0
3405, 0.29887890148896, 0.2220797976456, 0
3406, 0.77813696884954, -0.17628563659543, 0
3407, 0.52511923004205, 0.29314555203937, 0
3408, 0.58390104703159, -0.19989245843429, 0
3409, 0.64071399262429, 0.27438613186972, 0
3410, 0.84690981800668, -0.046884708758753, 0
3411, 0.16283083659098, -0.042221918596599, 0
3412, 0.54364231741225, 0.26743462356082, 0
3413, 0.53084513480163, 0.27242747695503, 0
3414, 0.57659382563284, -0.2521151372941, 0
3415, 0.79472918939407, -0.14585604300735, 0
3416, 0.3038833462663, 0.18913681775745, 0
3417, 0.58695880764772, 0.25241493014155, 0
3418, 0.75588702079293, 0.1820690129363, 0
3419, 0.5003919287305, -0.28817320678535, 0
3420, 0.53382246441942, -0.24165661307813, 0
3421, 0.34525785635437, -0.24077699191095, 0
3422, 0.27031601804696, 0.090334179986418, 0
3423, 0.61714918239, -0.24621255064928, 0
3424, 0.59360623543956, -0.18479392073831, 0
3425, 0.48462180367394, 0.28468952094539, 0
3426, 0.66742399570651, -0.23915700617656, 0
3427, 0.35543262477362, -0.091273809008711, 0
3428, 0.84099110774508, -0.17390571525344, 0
3429, 0.63721803058823, 0.26313414804556, 0
3430, 0.61237921338118, -0.15494916733403, 0
3431, 0.32375624618934, -0.20551934500973, 0
3432, 0.52700470322816, -0.22887241330075, 0
3433, 0.60291048684241, -0.16986257642698, 0
3434, 0.62152312528614, -0.12769401660189, 0
3435, 0.75894379023628, -0.0083745250253008, 0
3436, 0.3919938127606, 0.28616281147541, 0
3437, 0.58093847005512, 0.26285609874449, 0
3438, 0.61909987515122, -0.17448737903436, 0
3439, 0.32399747179016, 0.2457455969657, 0
3440, 0.29646395736059, 0.25337858352336, 0
3441, 0.67654377455012, -0.14199815509923, 0
3442, 0.42342128801691, -0.18351400637711, 0
3443, 0.30819196766811, 0.21892954204114, 0
3444, 0.12209891919232, 0.062749995754324, 0
3445, 0.34623938898034, -0.071673416836217, 0
3446, 0.65577284177113, -0.1977945794118, 0
3447, 0.28780771460109, 0.023698342005933, 0
3448, 0.57464844776916, -0.21128748311524, 0
3449, 0.65725624568407, -0.14111547842986, 0
3450, 0.70397942224149, 0.081102510868354, 0
3451, 0.63891902576259, -0.13942906415429, 0
3452, 0.36391069448048, -0.17213823812268, 0
3453, 0.4947786916822, -0.22928748962589, 0
3454, 0.30314585594249, 0.011661517275825, 0
3455, 0.27013700993596, 0.098399974953183, 0
3456, 0.75381971939214, 0.071911883849914, 0
3457, 0.62292548845093, 0.25574499057358, 0
3458, 0.27348218059434, 0.2694893090107, 0
3459, 0.78941024538234, -0.084735187072731, 0
3460, 0.2996908992104, 0.16956325839728, 0
3461, 0.29156946032663, 0.067196427766132, 0
3462, 0.80185548137577, -0.0081785263071001, 0
3463, 0.78100804477159, -0.0036654087420767, 0
3464, 0.51178628354583, -0.2224437699264, 0
3465, 0.2665116383597, 0.17429744323564, 0
3466, 0.76888416861294, -0.1393504738251, 0
3467, 0.30495673863336, -0.14940531988909, 0
3468, 0.3746058895024, -0.16863939946706, 0
3469, 0.70348338249259, 0.057690161446274, 0
3470, 0.26710005888402, 0.14402993339369, 0
3471, 0.78083117807617, -0.099631182571144, 0
3472, 0.27370427192225, 0.11617346932311, 0
3473, 0.70804778503448, 0.11490616929897, 0
3474, 0.81151320562352, -0.12957690168058, 0
3475, 0.7196961433505, 0.15164530274406, 0
3476, 0.67306237842704, -0.17892460274795, 0
3477, 0.36913138120414, 0.26828301248211, 0
3478, 0.6817267781237, 0.24215242027337, 0
3479, 0.54058985905458, -0.2528619876558, 0
3480, 0.62072192103694, -0.13892889444287, 0
3481, 0.73555404475083, 0.03408610097379, 0
3482, 0.36759885040868, 0.28674401198955, 0
3483, 0.32546866212938, 0.27641591665517, 0
3484, 0.69786157181767, 0.079770365048434, 0
3485, 0.70088316455784, 0.060799790848628, 0
3486, 0.28041148006833, -0.21363502013364, 0
3487, 0.42715213962604, 0.26318332124126, 0
3488, 0.40344846243202, 0.29010533130608, 0
3489, 0.73441091109809, 0.2111365748247, 0
3490, 0.74633155956637, 0.26199013668731, 0
3491, 0.7355181680655, 0.19260518591676, 0
3492, 0.81022439391201, 0.24653320655977, 0
3493, 0.82937413144285, 0.26211499313004, 0
3494, 0.2525900040955, 0.097804214780713, 0
3495, 0.4549516676094, -0.18909038307908, 0
3496, 0.45510349635187, -0.19307010272808, 0
3497, 0.45705856789118, -0.19547511279928, 0
3498, 0.45956905180152, -0.19811568647119, 0
3499, 0.46256989630235, -0.20080980580565, 0
3500, 0.46600129481409, -0.20346171294078, 0
3501, 0.46984836946881, -0.2059470942123, 0
3502, 0.4740427841911, -0.20820981244055, 0
3503, 0.47849629629464, -0.21023473226953, 0
3504, 0.45140729105487, -0.19141198913902, 0
3505, 0.44811835116914, -0.191628072064, 0
3506, 0.44412885520164, -0.1918075687075, 0
3507, 0.4397377170134, -0.19182293248086, 0
3508, 0.43504140213925, -0.19161965086171, 0
3509, 0.4301373521787, -0.19113573216611, 0
3510, 0.48800770866671, -0.21331200311347, 0
3511, 0.49289209037626, -0.21441673234204, 0
3512, 0.49783338037854, -0.21514361943394, 0
3513, 0.50270169245039, -0.21569734988915, 0
3514, 0.47993579883595, -0.21842657730377, 0
3515, 0.47627004108125, -0.22529294961188, 0
3516, 0.47210060684725, -0.23253515542529, 0
3517, 0.46719719125866, -0.24025192261947, 0
3518, 0.46112129788244, -0.24867407728437, 0
3519, 0.45316770043578, -0.25795285060205, 0
3520, 0.50076783115744, -0.27655564687603, 0
3521, 0.48805863822078, -0.27660015801739, 0
3522, 0.47488362395933, -0.27575082029549, 0
3523, 0.46032402934623, -0.27375708793389, 0
3524, 0.44006035674051, -0.2853283721632, 0
3525, 0.42289781658781, -0.19621423221637, 0
3526, 0.42077099428634, -0.20279626564513, 0
3527, 0.41929463070847, -0.21000379190124, 0
3528, 0.41843613711809, -0.21800362402406, 0
3529, 0.41875903887168, -0.2266512588255, 0
3530, 0.42045925820693, -0.23595791011322, 0
3531, 0.42388747957832, -0.24594389851985, 0
3532, 0.42967955685006, -0.25684860093039, 0
3533, 0.42008658315104, -0.18907055075325, 0
3534, 0.41501493902637, -0.18743140274205, 0
3535, 0.41025448536914, -0.18529275296047, 0
3536, 0.40559314275999, -0.18277679018238, 0
3537, 0.36596090728559, -0.26796491304266, 0
3538, 0.38386100681732, -0.27115730431276, 0
3539, 0.40087147084461, -0.27239658229183, 0
3540, 0.41853657740341, -0.27199618240101, 0
3541, 0.45374189471283, -0.19123538272633, 0
3542, 0.48315276072935, -0.21197762295067, 0
3543, 0.42520940620748, -0.19027606686364, 0
3544, 0.44027588561221, -0.26916805776644, 0
3545, 0.52936525286072, -0.25051911224329, 0
3546, 0.54238622042734, -0.26894459507901, 0
3547, 0.31666205310733, 0.054104916261903, 0
3548, 0.27191844060042, 0.03577839064823, 0
3549, 0.27231476348325, 0.022368784461742, 0
3550, 0.28784928890812, 0.0046981095836569, 0
3551, 0.27972537011061, 0.007589101617055, 0
3552, 0.26913706507107, 0.010592374687914, 0
3553, 0.20453404188814, 0.0079421980833538, 0
3554, 0.2250388492182, 0.0099166020088812, 0
3555, 0.23387019133194, 0.062709084971236, 0
3556, 0.31014538225546, 0.022133254099474, 0
3557, 0.25137805859775, 0.013450053311246, 0
3558, 0.62637060191976, 0.28433512384904, 0
3559, 0.61432364469388, 0.28849038888193, 0
3560, 0.51406249598348, 0.27501145412375, 0
3561, 0.4971853401069, 0.29256092824352, 0
3562, 0.60826415019999, 0.27164582342094, 0
3563, 0.61886524293053, 0.24384211910716, 0
******* E L E M E N T S *************
*ELEMENT, type=CPS4, ELSET=Surface1
1, 158, 148, 1531, 1528
2, 1528, 1531, 1529, 600
3, 1531, 1530, 601, 1529
4, 148, 159, 1530, 1531
5, 1535, 954, 1636, 1381
6, 2588, 1767, 1826, 952
7, 3558, 84, 97, 3559
8, 1597, 1515, 1731, 1325
9, 3429, 1713, 1732, 1382
10, 3140, 975, 402, 339
11, 1324, 2904, 3300, 953
12, 957, 1871, 1828, 2930
13, 67, 1540, 1541, 56
14, 56, 1541, 1538, 66
15, 1541, 1539, 648, 1538
16, 1540, 642, 1539, 1541
17, 50, 42, 1545, 1542
18, 1542, 1545, 1543, 652
19, 1545, 1544, 653, 1543
20, 42, 51, 1544, 1545
21, 157, 147, 1548, 1546
22, 1546, 1548, 1547, 586
23, 1548, 1528, 600, 1547
24, 147, 158, 1528, 1548
25, 602, 1551, 1552, 1549
26, 1549, 1552, 1550, 606
27, 1552, 150, 161, 1550
28, 1551, 160, 150, 1552
29, 162, 152, 1556, 1553
30, 1553, 1556, 1554, 605
31, 1556, 1555, 604, 1554
32, 152, 163, 1555, 1556
33, 587, 1559, 1560, 1557
34, 1557, 1560, 1558, 589
35, 1560, 130, 144, 1558
36, 1559, 143, 130, 1560
37, 640, 1563, 1564, 1561
38, 1561, 1564, 58, 69
39, 1564, 1562, 68, 58
40, 1563, 641, 1562, 1564
41, 577, 1567, 1568, 1565
42, 1565, 1568, 1566, 579
43, 1568, 12, 21, 1566
44, 1567, 20, 12, 1568
45, 606, 1550, 1570, 1569
46, 1569, 1570, 1553, 605
47, 1570, 151, 162, 1553
48, 1550, 161, 151, 1570
49, 601, 1530, 1572, 1571
50, 1571, 1572, 1551, 602
51, 1572, 149, 160, 1551
52, 1530, 159, 149, 1572
53, 1620, 2176, 108, 7
54, 1780, 1782, 1383, 3137
55, 711, 706, 1618, 2374
56, 1658, 307, 433, 704
57, 640, 1561, 1579, 1577
58, 1577, 1579, 1578, 639
59, 1579, 59, 70, 1578
60, 1561, 69, 59, 1579
61, 1632, 447, 294, 2922
62, 1769, 722, 3177, 1849
63, 2009, 224, 516, 3220
64, 2418, 2391, 3346, 1154
65, 1966, 2690, 1983, 1234
66, 2574, 3369, 1367, 3003
67, 1310, 3561, 1649, 1348
68, 1258, 3560, 1588, 2061
69, 1231, 691, 423, 318
70, 651, 1590, 1591, 1589
71, 1589, 1591, 1542, 652
72, 1591, 41, 50, 1542
73, 1590, 49, 41, 1591
74, 67, 57, 1593, 1540
75, 1540, 1593, 1592, 642
76, 1593, 1562, 641, 1592
77, 57, 68, 1562, 1593
78, 650, 1595, 1596, 1594
79, 1594, 1596, 1590, 651
80, 1596, 40, 49, 1590
81, 1595, 48, 40, 1596
82, 975, 3213, 338, 402
83, 1892, 3176, 959, 1254
84, 618, 1827, 83, 96
85, 3302, 1294, 1600, 3058
86, 1676, 1601, 105, 115
87, 1857, 692, 1677, 595
88, 1603, 314, 426, 2458
89, 1855, 1856, 1602, 692
90, 1844, 3046, 3418, 1013
91, 2968, 1738, 3071, 1340
92, 649, 1610, 1611, 1609
93, 1609, 1611, 1538, 648
94, 1611, 55, 66, 1538
95, 1610, 65, 55, 1611
96, 844, 3076, 1368, 2299
97, 3452, 1366, 857, 3468
98, 2820, 2936, 835, 1664
99, 2000, 505, 236, 2785
100, 1471, 3148, 662, 2523
101, 2972, 763, 3148, 1471
102, 723, 1583, 1322, 2015
103, 2382, 1770, 656, 2971
104, 1384, 597, 710, 1639
105, 699, 2374, 1928, 702
106, 2043, 3161, 2171, 2465
107, 1573, 2799, 2233, 3162
108, 2521, 2381, 2473, 658
109, 2457, 3416, 289, 451
110, 2726, 671, 2557, 1978
111, 3103, 2945, 1397, 3458
112, 1117, 1626, 1627, 1624
113, 1624, 1627, 1625, 1118
114, 1627, 196, 544, 1625
115, 1626, 545, 196, 1627
116, 72, 62, 1631, 1628
117, 1628, 1631, 1629, 611
118, 1631, 1630, 614, 1629
119, 62, 73, 1630, 1631
120, 725, 2259, 2946, 2751
121, 2728, 2295, 1580, 2752
122, 3260, 2943, 1235, 2790
123, 2273, 2727, 714, 2559
124, 894, 2600, 3266, 3234
125, 859, 3403, 3196, 2772
126, 866, 1613, 1655, 2373
127, 2744, 1907, 786, 3045
128, 3302, 3058, 2859, 1871
129, 1761, 406, 335, 1598
130, 1390, 2143, 1989, 974
131, 1809, 1927, 705, 2244
132, 3488, 700, 3436, 3329
133, 1657, 2375, 3161, 2043
134, 1923, 2998, 2169, 703
135, 637, 2242, 2288, 2777
136, 3285, 3061, 3364, 1607
137, 2288, 376, 365, 1642
138, 1702, 2597, 2552, 2783
139, 489, 252, 1647, 1644
140, 1644, 1647, 1645, 890
141, 1647, 1646, 891, 1645
142, 252, 488, 1646, 1647
143, 114, 1648, 1649, 104
144, 2161, 1260, 3561, 1310
145, 1604, 693, 1856, 1855
146, 1676, 115, 106, 2080
147, 1119, 1652, 1653, 1650
148, 1650, 1653, 1651, 1120
149, 1653, 198, 542, 1651
150, 1652, 543, 198, 1653
151, 840, 845, 2993, 827
152, 2733, 858, 2372, 893
153, 1276, 1357, 3343, 833
154, 1503, 1817, 2742, 859
155, 1574, 2997, 2466, 1809
156, 3329, 712, 711, 1656
157, 3244, 2043, 2465, 1810
158, 1638, 134, 121, 3404
159, 70, 60, 1661, 1578
160, 1578, 1661, 1659, 639
161, 1661, 1660, 638, 1659
162, 60, 71, 1660, 1661
163, 544, 197, 1663, 1625
164, 1625, 1663, 1662, 1118
165, 1663, 1652, 1119, 1662
166, 197, 543, 1652, 1663
167, 2772, 3196, 840, 1369
168, 2599, 2373, 892, 2361
169, 838, 2362, 2357, 3017
170, 1612, 2819, 2298, 1613
171, 2443, 227, 513, 3126
172, 3256, 1714, 3305, 808
173, 830, 1330, 232, 508
174, 2020, 1673, 26, 18
175, 21, 13, 1672, 1566
176, 1566, 1672, 1670, 579
177, 1672, 1671, 580, 1670
178, 13, 22, 1671, 1672
179, 820, 1668, 3158, 814
180, 3134, 1332, 1370, 3479
181, 3506, 3505, 806, 1714
182, 3179, 424, 317, 1347
183, 1857, 595, 2458, 1825
184, 1348, 3425, 691, 1231
185, 3398, 3180, 1603, 1677
186, 2861, 998, 1527, 1772
187, 2419, 3481, 1092, 1030
188, 1941, 1035, 3353, 1680
189, 3062, 1496, 627, 2778
190, 541, 200, 1686, 1683
191, 1683, 1686, 1684, 1121
192, 1686, 1685, 1122, 1684
193, 200, 540, 1685, 1686
194, 646, 1688, 1689, 1687
195, 1687, 1689, 1595, 650
196, 1689, 39, 48, 1595
197, 1688, 47, 39, 1689
198, 1429, 1103, 1800, 1682
199, 2864, 3118, 2007, 1841
200, 3298, 2432, 2517, 3463
201, 3481, 1500, 1641, 1092
202, 530, 211, 1696, 1693
203, 1693, 1696, 1694, 1142
204, 1696, 1695, 1140, 1694
205, 211, 529, 1695, 1696
206, 1134, 1699, 1700, 1697
207, 1697, 1700, 1698, 1138
208, 1700, 209, 531, 1698
209, 1699, 532, 209, 1700
210, 1004, 991, 2595, 2187
211, 1701, 583, 3028, 1005
212, 2629, 362, 378, 1007
213, 2091, 3152, 279, 461
214, 2681, 2642, 2980, 1458
215, 1706, 759, 1420, 1821
216, 1838, 758, 2199, 749
217, 71, 61, 1708, 1660
218, 1660, 1708, 1707, 638
219, 1708, 1628, 611, 1707
220, 61, 72, 1628, 1708
221, 2355, 1331, 1997, 1982
222, 826, 1710, 819, 862
223, 808, 3305, 229, 511
224, 813, 1523, 2849, 3377
225, 3457, 978, 954, 1535
226, 1730, 408, 333, 3193
227, 950, 2858, 2947, 1293
228, 972, 2812, 1599, 2147
229, 1467, 2418, 1154, 1371
230, 3512, 1711, 848, 3511
231, 1997, 226, 514, 807
232, 1026, 1779, 3297, 2082
233, 2674, 2422, 2511, 1720
234, 3109, 2429, 2763, 1094
235, 2008, 1720, 176, 564
236, 1025, 2434, 2081, 1465
237, 1690, 1723, 1037, 1840
238, 1840, 1037, 3082, 2432
239, 966, 1726, 1727, 1724
240, 1724, 1727, 1725, 964
241, 1727, 325, 415, 1725
242, 1726, 416, 325, 1727
243, 1023, 3298, 2433, 1027
244, 1779, 1717, 3099, 3297
245, 2420, 2876, 1043, 3185
246, 1721, 1787, 2431, 3081
247, 1827, 2929, 2841, 617
248, 3213, 1381, 403, 338
249, 1515, 622, 2812, 972
250, 1315, 1535, 1381, 3213
251, 948, 950, 1293, 1767
252, 1637, 3193, 3102, 1600
253, 950, 3238, 1766, 2858
254, 548, 193, 1736, 1733
255, 1733, 1736, 1734, 1115
256, 1736, 1735, 1116, 1734
257, 193, 547, 1735, 1736
258, 3235, 1605, 1016, 985
259, 1111, 1740, 1741, 1739
260, 1739, 1741, 1626, 1117
261, 1741, 195, 545, 1626
262, 1740, 546, 195, 1741
263, 533, 208, 1744, 1742
264, 1742, 1744, 1743, 1129
265, 1744, 1699, 1134, 1743
266, 208, 532, 1699, 1744
267, 685, 2046, 1748, 2167
268, 2141, 1747, 1513, 3012
269, 122, 136, 2141, 591
270, 2127, 2558, 1405, 688
271, 1750, 2593, 926, 2345
272, 3171, 3124, 2333, 995
273, 1229, 624, 3475, 3124
274, 409, 332, 1753, 1751
275, 3287, 981, 1637, 3339
276, 3417, 1752, 3392, 983
277, 332, 408, 1730, 1753
278, 52, 44, 1756, 1754
279, 1754, 1756, 1755, 654
280, 1756, 53, 64, 1755
281, 44, 4, 53, 1756
282, 1787, 2035, 1461, 2431
283, 2432, 3082, 2747, 2517
284, 1484, 1028, 1002, 998
285, 2973, 2439, 1757, 1103
286, 1987, 974, 982, 1752
287, 2904, 1534, 2051, 3300
288, 948, 955, 3210, 3057
289, 531, 210, 1763, 1698
290, 1698, 1763, 1762, 1138
291, 1763, 1693, 1142, 1762
292, 210, 530, 1693, 1763
293, 51, 43, 1765, 1544
294, 1544, 1765, 1764, 653
295, 1765, 1754, 654, 1764
296, 43, 52, 1754, 1765
297, 1766, 2653, 2814, 3268
298, 1919, 938, 2813, 2003
299, 1849, 3177, 3123, 3001
300, 1036, 3098, 1483, 990
301, 2436, 2514, 3116, 3456
302, 634, 1427, 2211, 2905
303, 629, 993, 3143, 2289
304, 1838, 749, 2283, 1904
305, 1862, 741, 1339, 2536
306, 2815, 2944, 1479, 3454
307, 1027, 2433, 3462, 1722
308, 2434, 1728, 2508, 2081
309, 2483, 3112, 2510, 1449
310, 2761, 174, 566, 1691
311, 680, 1781, 1782, 1780
312, 1926, 1437, 3225, 3243
313, 2042, 1576, 2040, 3487
314, 1781, 438, 303, 1782
315, 812, 815, 2019, 1716
316, 2212, 1234, 510, 231
317, 853, 1921, 1586, 3262
318, 2515, 3120, 1729, 1719
319, 1728, 1027, 1722, 2508
320, 1462, 1841, 2007, 2422
321, 3111, 1681, 1001, 1643
322, 1792, 660, 666, 675
323, 725, 2015, 3465, 2259
324, 73, 63, 1794, 1630
325, 1630, 1794, 1793, 614
326, 1794, 74, 87, 1793
327, 63, 5, 74, 1794
328, 1140, 1695, 1797, 1795
329, 1795, 1797, 1796, 1139
330, 1797, 212, 528, 1796
331, 1695, 529, 212, 1797
332, 3084, 1449, 2035, 1787
333, 2782, 2905, 2210, 1428
334, 1097, 1031, 3307, 2449
335, 3350, 3026, 3373, 1703
336, 2416, 3442, 2573, 1330
337, 3219, 2415, 809, 1584
338, 814, 3158, 824, 3127
339, 3530, 820, 814, 3529
340, 2135, 1642, 1799, 3355
341, 3098, 1703, 2134, 1483
342, 926, 382, 359, 3064
343, 2386, 3218, 2592, 2730
344, 1436, 3482, 683, 1619
345, 1621, 703, 3108, 2175
346, 712, 2245, 2997, 1574
347, 1745, 1385, 431, 310
348, 1441, 1162, 805, 822
349, 3510, 2498, 2497, 3542
350, 3544, 3524, 852, 3523
351, 588, 1813, 1814, 1812
352, 1812, 1814, 1559, 587
353, 1814, 129, 143, 1559
354, 1813, 142, 129, 1814
355, 2936, 2716, 884, 885
356, 868, 2360, 2868, 2869
357, 1907, 2296, 3333, 867
358, 163, 153, 1820, 1555
359, 1555, 1820, 1818, 604
360, 1820, 1819, 603, 1818
361, 153, 164, 1819, 1820
362, 732, 1460, 759, 1706
363, 2643, 2622, 2942, 2790
364, 2534, 3227, 2072, 1250
365, 3303, 1857, 1825, 694
366, 2632, 3425, 1648, 1601
367, 1869, 1870, 3180, 3398
368, 698, 1824, 693, 1604
369, 3214, 947, 1220, 943
370, 1767, 1293, 3194, 1826
371, 144, 131, 1830, 1558
372, 1558, 1830, 1829, 589
373, 1830, 145, 156, 1829
374, 131, 8, 145, 1830
375, 459, 282, 1833, 1831
376, 1831, 1833, 1832, 736
377, 1833, 1616, 735, 1832
378, 282, 458, 1616, 1833
379, 1130, 1835, 1836, 1834
380, 1834, 1836, 1742, 1129
381, 1836, 207, 533, 1742
382, 1835, 534, 207, 1836
383, 1903, 3547, 270, 470
384, 759, 2797, 2660, 1420
385, 3055, 2064, 2838, 2566
386, 1838, 3447, 1478, 2894
387, 2508, 1722, 1088, 1380
388, 1039, 3119, 1032, 2764
389, 2673, 3435, 2674, 1033
390, 1464, 1095, 1099, 1692
391, 2089, 2792, 1939, 1924
392, 2260, 2866, 3400, 932
393, 2425, 615, 930, 3236
394, 2697, 2920, 2687, 924
395, 601, 1847, 1848, 1529
396, 1529, 1848, 1845, 600
397, 1848, 1846, 779, 1845
398, 1847, 781, 1846, 1848
399, 3001, 3123, 2381, 2521
400, 1252, 1298, 2570, 2294
401, 3151, 2480, 715, 2456
402, 3149, 1398, 2383, 1792
403, 578, 1852, 1853, 1851
404, 1851, 1853, 1567, 577
405, 1853, 11, 20, 1567
406, 1852, 19, 11, 1853
407, 743, 1419, 770, 1460
408, 1458, 2980, 1947, 776
409, 1447, 775, 733, 3548
410, 3273, 2895, 271, 469
411, 2632, 1347, 691, 3425
412, 1601, 1648, 114, 105
413, 693, 3332, 2631, 1856
414, 1870, 313, 427, 3180
415, 88, 76, 1861, 1858
416, 1858, 1861, 1859, 613
417, 1861, 1860, 612, 1859
418, 76, 89, 1860, 1861
419, 916, 2758, 3044, 1774
420, 3095, 754, 3094, 752
421, 2198, 757, 2737, 1776
422, 3354, 1338, 2206, 753
423, 2048, 2049, 3560, 1258
424, 1289, 962, 2159, 3390
425, 1310, 1348, 1231, 1259
426, 960, 102, 112, 1867
427, 428, 313, 1870, 1868
428, 1868, 1870, 1869, 695
429, 1347, 317, 423, 691
430, 694, 1825, 315, 425
431, 1713, 1537, 1315, 1732
432, 2929, 1254, 2587, 2841
433, 3380, 334, 406, 1761
434, 2811, 2810, 401, 340
435, 891, 1646, 1875, 1873
436, 1873, 1875, 1874, 920
437, 1875, 253, 487, 1874
438, 1646, 488, 253, 1875
439, 2472, 2754, 2751, 2946
440, 2471, 668, 718, 1281
441, 850, 2442, 2014, 1668
442, 607, 3088, 2442, 850
443, 809, 817, 3507, 3508
444, 3527, 3319, 3219, 3526
445, 1116, 1735, 1881, 1880
446, 1880, 1881, 1740, 1111
447, 1881, 194, 546, 1740
448, 1735, 547, 194, 1881
449, 3475, 356, 384, 1882
450, 1738, 2331, 1525, 1021
451, 2551, 1495, 367, 373
452, 2730, 2348, 1229, 3097
453, 2149, 2506, 3264, 3046
454, 997, 1749, 3235, 1884
455, 2882, 3371, 1925, 2883
456, 554, 187, 1888, 1885
457, 1885, 1888, 1886, 1071
458, 1888, 1887, 1053, 1886
459, 187, 553, 1887, 1888
460, 417, 324, 1890, 1865
461, 1865, 1890, 1889, 965
462, 1890, 1726, 966, 1889
463, 324, 416, 1726, 1890
464, 944, 941, 958, 3214
465, 2054, 3327, 1938, 1937
466, 2262, 2036, 938, 1919
467, 1614, 3168, 2647, 2716
468, 2934, 3234, 2305, 1665
469, 561, 180, 1897, 1894
470, 1894, 1897, 1895, 1080
471, 1897, 1896, 1085, 1895
472, 180, 560, 1896, 1897
473, 719, 1876, 668, 2471
474, 1397, 2559, 3440, 3178
475, 1281, 718, 3215, 676
476, 1622, 716, 2504, 3405
477, 3198, 1253, 1900, 2401
478, 2286, 3368, 1773, 2952
479, 2199, 753, 2287, 2056
480, 2741, 831, 874, 2277
481, 2277, 874, 2784, 2278
482, 2993, 2715, 2717, 836
483, 550, 191, 1911, 1908
484, 1908, 1911, 1909, 1106
485, 1911, 1910, 1114, 1909
486, 191, 549, 1910, 1911
487, 35, 1913, 1914, 30
488, 30, 1914, 1666, 34
489, 1914, 1912, 643, 1666
490, 1332, 1468, 1519, 1370
491, 963, 1917, 1918, 1915
492, 1915, 1918, 1916, 980
493, 1918, 327, 413, 1916
494, 1917, 414, 327, 1918
495, 1891, 944, 2630, 1516
496, 3507, 3506, 1714, 3256
497, 1803, 520, 221, 3240
498, 3240, 221, 519, 2657
499, 3529, 814, 3127, 3528
500, 1435, 2168, 1279, 2995
501, 2613, 1436, 1619, 2155
502, 2233, 2799, 709, 2234
503, 2612, 2467, 1658, 2376
504, 3065, 2405, 2755, 2425
505, 987, 3492, 3313, 945
506, 2580, 1015, 2697, 988
507, 3217, 3125, 3490, 2402
508, 3092, 306, 434, 2467
509, 3091, 1640, 598, 2801
510, 708, 2800, 3138, 701
511, 2234, 709, 429, 312
512, 551, 190, 1932, 1930
513, 1930, 1932, 1931, 1109
514, 1932, 1908, 1106, 1931
515, 190, 550, 1908, 1932
516, 1147, 1935, 1936, 1933
517, 1933, 1936, 1934, 1149
518, 1936, 214, 526, 1934
519, 1935, 527, 214, 1936
520, 3209, 1891, 1516, 1514
521, 947, 2054, 1937, 2842
522, 3209, 3268, 3267, 1891
523, 2907, 2975, 2629, 1007
524, 2589, 3217, 2402, 1232
525, 2385, 3064, 2568, 2711
526, 480, 261, 1944, 1942
527, 1942, 1944, 1943, 917
528, 1775, 3087, 1863, 751
529, 751, 1863, 2758, 916
530, 745, 3310, 3554, 3557
531, 738, 3472, 3152, 2091
532, 2519, 467, 274, 2642
533, 2619, 3422, 2565, 3191
534, 2036, 394, 347, 2222
535, 2189, 630, 3027, 2688
536, 2687, 1232, 1283, 2866
537, 2590, 1221, 1274, 1950
538, 1122, 1685, 1953, 1951
539, 1951, 1953, 1952, 1123
540, 1953, 201, 539, 1952
541, 1685, 540, 201, 1953
542, 542, 199, 1955, 1651
543, 1651, 1955, 1954, 1120
544, 1955, 1683, 1121, 1954
545, 199, 541, 1683, 1955
546, 2453, 865, 497, 244
547, 867, 2984, 1415, 1999
548, 2918, 833, 1439, 2917
549, 2001, 877, 841, 3075
550, 2090, 2590, 1950, 1267
551, 1274, 925, 352, 388
552, 2579, 924, 2260, 2911
553, 1949, 2507, 1948, 1227
554, 1053, 1887, 1963, 1961
555, 1961, 1963, 1962, 1110
556, 1963, 188, 552, 1962
557, 1887, 553, 188, 1963
558, 439, 302, 1965, 1964
559, 1964, 1965, 1508, 681
560, 1965, 1781, 680, 1508
561, 302, 438, 1781, 1965
562, 2573, 2212, 231, 509
563, 3090, 1434, 2572, 2415
564, 3528, 3127, 3319, 3527
565, 1667, 3220, 1675, 2354
566, 647, 1968, 1969, 1967
567, 1967, 1969, 1688, 646
568, 1969, 38, 47, 1688
569, 1968, 46, 38, 1969
570, 579, 1972, 1973, 1565
571, 1565, 1973, 1970, 577
572, 1973, 1971, 790, 1970
573, 1972, 788, 1971, 1973
574, 522, 219, 1977, 1974
575, 1974, 1977, 1975, 1157
576, 1977, 1976, 1158, 1975
577, 219, 521, 1976, 1977
578, 2971, 656, 1768, 1251
579, 670, 666, 720, 2729
580, 3517, 3516, 1233, 3088
581, 3520, 643, 2391, 1984
582, 851, 28, 33, 1674
583, 3502, 608, 1667, 3501
584, 1139, 1796, 1986, 1985
585, 1985, 1986, 1935, 1147
586, 1986, 213, 527, 1935
587, 1796, 528, 213, 1986
588, 1990, 330, 410, 1988
589, 1989, 411, 330, 1990
590, 889, 1992, 1993, 1991
591, 1991, 1993, 1644, 890
592, 1993, 251, 489, 1644
593, 1992, 490, 251, 1993
594, 3531, 2213, 820, 3530
595, 2394, 1783, 1523, 813
596, 3514, 2698, 3510, 3542
597, 807, 514, 227, 2443
598, 786, 1999, 1413, 3226
599, 870, 839, 3452, 873
600, 1956, 2290, 2786, 3427
601, 958, 2654, 3327, 2054
602, 3210, 956, 949, 1760
603, 3336, 344, 396, 2654
604, 1160, 822, 1372, 2602
605, 852, 32, 28, 851
606, 3519, 3518, 607, 1715
607, 2764, 1032, 2673, 2423
608, 3120, 1090, 2864, 1729
609, 1023, 1840, 2432, 3298
610, 2763, 172, 568, 2448
611, 2543, 3503, 3502, 815
612, 2698, 1996, 3511, 3510
613, 1110, 1962, 2012, 2011
614, 2011, 2012, 1930, 1109
615, 2012, 189, 551, 1930
616, 1962, 552, 189, 2012
617, 3521, 1674, 3419, 3520
618, 2010, 1159, 1921, 1920
619, 1434, 3377, 2658, 2572
620, 575, 2152, 25, 17
621, 1258, 2061, 2454, 1288
622, 1617, 2789, 2522, 659
623, 1582, 3261, 2475, 1328
624, 22, 14, 2018, 1671
625, 1671, 2018, 2016, 580
626, 2018, 2017, 581, 2016
627, 14, 23, 2017, 2018
628, 3146, 2602, 3513, 3512
629, 3521, 3520, 1984, 2013
630, 2657, 519, 222, 1785
631, 2392, 1716, 1783, 2394
632, 920, 1874, 2024, 2022
633, 2022, 2024, 2023, 903
634, 2024, 254, 486, 2023
635, 1874, 487, 254, 2024
636, 555, 186, 2027, 2025
637, 2025, 2027, 2026, 1070
638, 2027, 1885, 1071, 2026
639, 186, 554, 1885, 2027
640, 558, 183, 2031, 2028
641, 2028, 2031, 2029, 1075
642, 2031, 2030, 1074, 2029
643, 183, 557, 2030, 2031
644, 2402, 3490, 943, 2344
645, 1481, 391, 350, 2756
646, 1322, 1791, 1470, 2791
647, 1253, 3052, 716, 1622
648, 2401, 1900, 2273, 2945
649, 988, 2697, 924, 2579
650, 1221, 940, 925, 1274
651, 2819, 2820, 1664, 2298
652, 2290, 2276, 2599, 2786
653, 3403, 2857, 1816, 2771
654, 562, 179, 2039, 2006
655, 2006, 2039, 2038, 1078
656, 2039, 1894, 1080, 2038
657, 179, 561, 1894, 2039
658, 679, 597, 1384, 2377
659, 3488, 3329, 1656, 2170
660, 3488, 708, 132, 119
661, 3330, 120, 134, 1638
662, 3340, 2140, 3204, 3128
663, 686, 3050, 2140, 3340
664, 3013, 2194, 2184, 2103
665, 1407, 3114, 440, 301
666, 3413, 2160, 965, 2806
667, 2061, 1588, 3291, 1230
668, 3560, 420, 321, 1588
669, 98, 86, 2051, 1534
670, 976, 1314, 1452, 3563
671, 86, 6, 2050, 2051
672, 549, 192, 2053, 1910
673, 1910, 2053, 2052, 1114
674, 2053, 1733, 1115, 2052
675, 192, 548, 1733, 2053
676, 2858, 3209, 1514, 2947
677, 2814, 343, 397, 3478
678, 758, 3354, 753, 2199
679, 2055, 3095, 752, 739
680, 3352, 1445, 2198, 3556
681, 752, 476, 265, 739
682, 1260, 103, 113, 3561
683, 1587, 2060, 969, 1311
684, 2048, 960, 1867, 1866
685, 2048, 1258, 1288, 1257
686, 2161, 1310, 1259, 1864
687, 323, 417, 1865, 1312
688, 1250, 2072, 747, 2680
689, 3227, 2641, 778, 2072
690, 1164, 2067, 2068, 2065
691, 2065, 2068, 2066, 1166
692, 2068, 217, 523, 2066
693, 2067, 524, 217, 2068
694, 23, 15, 2071, 2017
695, 2017, 2071, 2069, 581
696, 2071, 2070, 582, 2069
697, 15, 24, 2070, 2071
698, 2659, 731, 1945, 3363
699, 1822, 2073, 463, 278
700, 1821, 1420, 1264, 3190
701, 2062, 2710, 3278, 743
702, 526, 215, 2076, 1934
703, 1934, 2076, 2074, 1149
704, 2076, 2075, 1151, 2074
705, 215, 525, 2075, 2076
706, 620, 2078, 2079, 2058
707, 2058, 2079, 100, 110
708, 2079, 2077, 109, 100
709, 2933, 3341, 2231, 3348
710, 1867, 112, 103, 1260
711, 1866, 2161, 1864, 619
712, 2514, 1035, 1941, 1011
713, 2862, 1465, 2762, 1040
714, 3118, 1691, 1788, 2007
715, 1024, 1009, 1728, 2434
716, 1773, 2282, 1839, 2083
717, 2895, 1903, 470, 271
718, 757, 916, 1774, 2737
719, 752, 3094, 264, 476
720, 2664, 1502, 1012, 1482
721, 3264, 2580, 988, 937
722, 1151, 2075, 2088, 2087
723, 2087, 2088, 2067, 1164
724, 2088, 216, 524, 2067
725, 2075, 525, 216, 2088
726, 1267, 387, 354, 3371
727, 927, 1266, 1017, 2034
728, 461, 280, 2094, 2091
729, 2091, 2094, 2092, 738
730, 2094, 2093, 737, 2092
731, 280, 460, 2093, 2094
732, 1265, 2520, 731, 2659
733, 1237, 2837, 2620, 761
734, 2566, 2838, 3153, 3553
735, 1706, 1821, 1248, 3164
736, 521, 220, 2097, 1976
737, 1976, 2097, 2096, 1158
738, 2097, 1803, 1156, 2096
739, 220, 520, 1803, 2097
740, 165, 155, 2099, 2098
741, 2098, 2099, 1852, 578
742, 2099, 10, 19, 1852
743, 155, 1, 10, 2099
744, 1406, 3203, 672, 2102
745, 136, 123, 1747, 2141
746, 137, 1280, 2047, 3202
747, 1509, 2995, 687, 681
748, 1085, 1896, 2106, 2104
749, 2104, 2106, 2105, 1076
750, 2106, 181, 559, 2105
751, 1896, 560, 181, 2106
752, 410, 331, 2107, 1988
753, 1391, 3288, 1313, 3192
754, 584, 3300, 2051, 2050
755, 331, 409, 1751, 2107
756, 596, 697, 1823, 3179
757, 2108, 2110, 2109, 599
758, 2110, 107, 117, 2109
759, 697, 1604, 1855, 3303
760, 1128, 2112, 2113, 2111
761, 2111, 2113, 1835, 1130
762, 2113, 206, 534, 1835
763, 2112, 535, 206, 2113
764, 1166, 2066, 2115, 2114
765, 2114, 2115, 1974, 1157
766, 2115, 218, 522, 1974
767, 2066, 523, 218, 2115
768, 817, 811, 3506, 3507
769, 1156, 1803, 3240, 823
770, 2118, 2117, 855, 2116
771, 234, 506, 2117, 2118
772, 855, 2117, 2120, 2119
773, 2119, 2120, 2000, 858
774, 2120, 235, 505, 2000
775, 2117, 506, 235, 2120
776, 559, 182, 2122, 2105
777, 2105, 2122, 2121, 1076
778, 2122, 2028, 1075, 2121
779, 182, 558, 2028, 2122
780, 539, 202, 2124, 1952
781, 1952, 2124, 1376, 1123
782, 2124, 2123, 1124, 1376
783, 202, 538, 2123, 2124
784, 3482, 3404, 2126, 2873
785, 2195, 2127, 688, 2044
786, 2044, 688, 1746, 2100
787, 688, 1405, 2139, 1746
788, 1125, 2130, 2131, 2128
789, 2128, 2131, 2129, 1126
790, 2131, 204, 536, 2129
791, 2130, 537, 204, 2131
792, 614, 1793, 2133, 2132
793, 2132, 2133, 1858, 613
794, 2133, 75, 88, 1858
795, 1793, 87, 75, 2133
796, 3375, 3283, 1006, 2781
797, 1092, 1641, 571, 170
798, 1718, 1721, 3081, 1021
799, 3117, 2440, 572, 169
800, 481, 260, 2138, 2136
801, 2136, 2138, 2137, 918
802, 2138, 1942, 917, 2137
803, 260, 480, 1942, 2138
804, 3113, 684, 2185, 2125
805, 123, 137, 3202, 1747
806, 2126, 591, 3129, 2873
807, 2167, 1748, 3215, 2921
808, 412, 329, 2143, 2142
809, 1389, 1241, 1751, 1753
810, 3326, 2142, 2143, 1390
811, 329, 411, 1989, 2143
812, 2033, 657, 2269, 1401
813, 2523, 662, 1487, 2455
814, 1401, 2474, 1979, 1633
815, 716, 3165, 1980, 2504
816, 964, 1725, 2146, 1304
817, 1304, 2146, 1917, 963
818, 2146, 326, 414, 1917
819, 1725, 415, 326, 2146
820, 1382, 1732, 975, 3140
821, 3057, 3210, 1760, 2860
822, 948, 3057, 3238, 950
823, 941, 3336, 2654, 958
824, 2085, 393, 348, 3089
825, 2507, 3089, 1014, 1948
826, 1228, 2032, 923, 1842
827, 3089, 348, 392, 1014
828, 24, 16, 2153, 2070
829, 2070, 2153, 2151, 582
830, 2153, 2152, 610, 2151
831, 16, 25, 2152, 2153
832, 3487, 2040, 1385, 1745
833, 1928, 1657, 2043, 3244
834, 2997, 3379, 2464, 2466
835, 3330, 1638, 1436, 2613
836, 1709, 818, 3464, 805
837, 1329, 3496, 3541, 3504
838, 2442, 1804, 2392, 2014
839, 2655, 807, 2443, 2689
840, 482, 259, 2158, 2156
841, 2156, 2158, 2157, 919
842, 2158, 2136, 918, 2157
843, 259, 481, 2136, 2158
844, 3397, 2159, 2160, 3413
845, 1864, 1259, 422, 319
846, 3291, 419, 322, 1289
847, 322, 418, 962, 1289
848, 460, 281, 2163, 2093
849, 2093, 2163, 2162, 737
850, 2163, 1831, 736, 2162
851, 281, 459, 1831, 2163
852, 556, 185, 2166, 2164
853, 2164, 2166, 2165, 1072
854, 2166, 2025, 1070, 2165
855, 185, 555, 2025, 2166
856, 3203, 1278, 3150, 672
857, 2047, 682, 3483, 3050
858, 1746, 2139, 299, 441
859, 1748, 682, 676, 3215
860, 1656, 711, 2374, 699
861, 2998, 2377, 1573, 2169
862, 1638, 3404, 3482, 1436
863, 1927, 594, 2041, 705
864, 903, 2023, 2174, 2172
865, 2172, 2174, 2173, 904
866, 2174, 255, 485, 2173
867, 2023, 486, 255, 2174
868, 1640, 702, 1576, 2042
869, 108, 2176, 2109, 117
870, 2176, 2175, 599, 2109
871, 1576, 3244, 1810, 2040
872, 645, 2178, 2179, 2177
873, 2177, 2179, 1968, 647
874, 2179, 37, 46, 1968
875, 2178, 45, 37, 2179
876, 493, 248, 2183, 2180
877, 2180, 2183, 2181, 882
878, 2183, 2182, 881, 2181
879, 248, 492, 2182, 2183
880, 2185, 684, 3203, 1406
881, 3000, 685, 2167, 1278
882, 2168, 3014, 2195, 1279
883, 708, 701, 118, 132
884, 3355, 1799, 3060, 1806
885, 2187, 2595, 3160, 1501
886, 1427, 1482, 994, 2211
887, 3028, 1000, 3284, 630
888, 538, 203, 2191, 2123
889, 2123, 2191, 2190, 1124
890, 2191, 2130, 1125, 2190
891, 203, 537, 2130, 2191
892, 413, 328, 2193, 1916
893, 1916, 2193, 2192, 980
894, 3417, 983, 3287, 3288
895, 328, 412, 2142, 2193
896, 2994, 2044, 2100, 3114
897, 1964, 1407, 301, 439
898, 3114, 2100, 300, 440
899, 1280, 676, 682, 2047
900, 1074, 2030, 2197, 2196
901, 2196, 2197, 2164, 1072
902, 2197, 184, 556, 2164
903, 2030, 557, 184, 2197
904, 2737, 1774, 2738, 754
905, 2282, 3086, 2084, 1839
906, 1838, 2894, 3096, 758
907, 2206, 750, 2281, 2207
908, 602, 2201, 2202, 1571
909, 1571, 2202, 1847, 601
910, 2202, 2200, 781, 1847
911, 2201, 783, 2200, 2202
912, 585, 2204, 2205, 2203
913, 2203, 2205, 2178, 645
914, 2205, 36, 45, 2178
915, 2204, 3, 36, 2205
916, 3043, 740, 3279, 1902
917, 1494, 2057, 1490, 1447
918, 3368, 2827, 2282, 1773
919, 3299, 3555, 2719, 744
920, 2719, 2095, 1236, 2621
921, 2640, 2519, 2642, 2681
922, 2978, 772, 2643, 774
923, 2754, 663, 2753, 2751
924, 1978, 2557, 1813, 588
925, 2726, 3198, 2401, 2969
926, 713, 1280, 137, 124
927, 993, 2907, 1007, 3143
928, 1641, 3117, 169, 571
929, 2438, 1526, 3111, 1800
930, 1673, 575, 17, 26
931, 608, 2009, 3220, 1667
932, 2690, 3256, 808, 1983
933, 2849, 1365, 3349, 816
934, 1048, 2216, 2217, 2214
935, 2214, 2217, 1539, 642
936, 2217, 2215, 648, 1539
937, 2216, 1211, 2215, 2217
938, 3196, 1480, 845, 840
939, 1958, 2001, 3075, 1957
940, 2744, 2358, 2296, 1907
941, 2601, 2297, 846, 3216
942, 589, 1829, 2221, 2220
943, 2220, 2221, 1546, 586
944, 2221, 146, 157, 1546
945, 1829, 156, 146, 2221
946, 2223, 3337, 1516, 2630
947, 616, 986, 3492, 987
948, 2386, 2730, 3097, 1608
949, 3134, 3025, 3024, 1332
950, 2225, 2226, 2204, 585
951, 2226, 31, 3, 2204
952, 1913, 35, 31, 2226
953, 789, 2229, 2230, 2227
954, 2227, 2230, 1554, 604
955, 2230, 2228, 605, 1554
956, 2229, 793, 2228, 2230
957, 6, 99, 2232, 2050
958, 1393, 1309, 1915, 980
959, 584, 3301, 953, 3300
960, 99, 109, 2077, 2232
961, 3488, 119, 133, 700
962, 2233, 2234, 1868, 695
963, 2234, 312, 428, 1868
964, 2245, 2155, 3379, 2997
965, 907, 2237, 2238, 2235
966, 2235, 2238, 2236, 906
967, 2238, 257, 483, 2236
968, 2237, 484, 257, 2238
969, 1323, 2904, 1324, 1451
970, 986, 1924, 928, 3492
971, 2261, 3125, 945, 1219
972, 1134, 1697, 2241, 2239
973, 2239, 2241, 1375, 1136
974, 2241, 2240, 1137, 1375
975, 1697, 1138, 2240, 2241
976, 1607, 3364, 2782, 2384
977, 1737, 1701, 1005, 999
978, 1703, 3373, 2186, 2134
979, 1606, 361, 379, 626
980, 701, 1620, 7, 118
981, 3379, 1926, 3243, 2464
982, 2041, 435, 306, 3092
983, 2374, 1618, 1657, 1928
984, 904, 2173, 2246, 1240
985, 1240, 2246, 2237, 907
986, 2246, 256, 484, 2237
987, 2173, 485, 256, 2246
988, 906, 2236, 2248, 2247
989, 2247, 2248, 2156, 919
990, 2248, 258, 482, 2156
991, 2236, 483, 258, 2248
992, 1046, 2251, 2252, 2249
993, 2249, 2252, 1563, 640
994, 2252, 2250, 641, 1563
995, 2251, 1049, 2250, 2252
996, 654, 1755, 2254, 2253
997, 2253, 2254, 1610, 649
998, 2254, 54, 65, 1610
999, 1755, 64, 54, 2254
1000, 164, 154, 2256, 1819
1001, 1819, 2256, 2255, 603
1002, 2256, 2098, 578, 2255
1003, 154, 165, 2098, 2256
1004, 1581, 3051, 1399, 2295
1005, 2922, 294, 446, 1400
1006, 661, 1898, 3460, 726
1007, 3238, 3057, 2860, 3205
1008, 605, 2228, 2265, 1569
1009, 1569, 2265, 2263, 606
1010, 2265, 2264, 791, 2263
1011, 2228, 793, 2264, 2265
1012, 1701, 990, 3285, 583
1013, 3350, 2663, 1883, 3026
1014, 2243, 3484, 2597, 1702
1015, 3484, 636, 3059, 2597
1016, 1126, 2129, 2268, 2267
1017, 2267, 2268, 2112, 1128
1018, 2268, 205, 535, 2112
1019, 2129, 536, 205, 2268
1020, 1948, 1014, 936, 921
1021, 627, 2688, 3283, 3375
1022, 2223, 2630, 943, 3490
1023, 2472, 2946, 2966, 3163
1024, 2381, 724, 669, 2473
1025, 881, 2182, 2272, 2270
1026, 2270, 2272, 2271, 880
1027, 2272, 249, 491, 2271
1028, 2182, 492, 249, 2272
1029, 1253, 1622, 3208, 1900
1030, 1633, 1979, 1582, 2963
1031, 2985, 677, 1632, 1511
1032, 606, 2263, 2275, 1549
1033, 1549, 2275, 2201, 602
1034, 2275, 2274, 783, 2201
1035, 2263, 791, 2274, 2275
1036, 3168, 3467, 1276, 2647
1037, 2278, 2180, 882, 2277
1038, 247, 493, 2180, 2278
1039, 2373, 1655, 3250, 892
1040, 2857, 3230, 3229, 1816
1041, 3216, 846, 2743, 1476
1042, 739, 265, 475, 1837
1043, 750, 474, 267, 2281
1044, 2964, 3149, 1409, 2966
1045, 1770, 1252, 2294, 656
1046, 3443, 2284, 292, 448
1047, 741, 3273, 729, 1339
1048, 3279, 2895, 3273, 741
1049, 2952, 1773, 2083, 3547
1050, 740, 2952, 3547, 1903
1051, 2781, 1006, 2266, 3485
1052, 2266, 992, 369, 371
1053, 2595, 2777, 2135, 3160
1054, 1665, 2305, 2219, 1355
1055, 2359, 2410, 2280, 2544
1056, 3195, 876, 1893, 3073
1057, 3333, 831, 2741, 2739
1058, 639, 2292, 2293, 1577
1059, 1577, 2293, 2249, 640
1060, 2293, 2291, 1046, 2249
1061, 2292, 1045, 2291, 2293
1062, 1583, 2523, 2455, 721
1063, 726, 3460, 2789, 1617
1064, 2209, 1327, 663, 2754
1065, 2598, 872, 241, 499
1066, 839, 1243, 1366, 3452
1067, 2358, 1815, 842, 2296
1068, 2771, 898, 1350, 1480
1069, 652, 2302, 2303, 1589
1070, 1589, 2303, 2300, 651
1071, 2303, 2301, 1217, 2300
1072, 2302, 1208, 2301, 2303
1073, 2218, 2299, 498, 243
1074, 874, 875, 1504, 2784
1075, 2362, 1665, 1355, 2357
1076, 880, 2271, 2307, 2306
1077, 2306, 2307, 1992, 889
1078, 2307, 250, 490, 1992
1079, 2271, 491, 250, 2307
1080, 1187, 2309, 2310, 1404
1081, 1404, 2310, 2308, 1188
1082, 2310, 1624, 1118, 2308
1083, 2309, 1117, 1624, 2310
1084, 1113, 2313, 2314, 2311
1085, 2311, 2314, 2312, 1112
1086, 2314, 1734, 1116, 2312
1087, 2313, 1115, 1734, 2314
1088, 1185, 2316, 2317, 2315
1089, 2315, 2317, 2309, 1187
1090, 2317, 1739, 1117, 2309
1091, 2316, 1111, 1739, 2317
1092, 1049, 2318, 2319, 2250
1093, 2250, 2319, 1592, 641
1094, 2319, 2214, 642, 1592
1095, 2318, 1048, 2214, 2319
1096, 1044, 2321, 2322, 2320
1097, 2320, 2322, 1659, 638
1098, 2322, 2292, 639, 1659
1099, 2321, 1045, 2292, 2322
1100, 651, 2300, 2325, 1594
1101, 1594, 2325, 2323, 650
1102, 2325, 2324, 1216, 2323
1103, 2300, 1217, 2324, 2325
1104, 1179, 2329, 2330, 2326
1105, 2326, 2330, 2327, 1199
1106, 2330, 2328, 1186, 2327
1107, 2329, 1184, 2328, 2330
1108, 3236, 930, 2591, 2224
1109, 922, 2579, 2911, 3358
1110, 2940, 2332, 1750, 1502
1111, 1340, 3071, 2880, 1018
1112, 2332, 3047, 2593, 1750
1113, 633, 1959, 2090, 2882
1114, 1208, 2302, 2336, 2334
1115, 2334, 2336, 2335, 1209
1116, 2336, 1543, 653, 2335
1117, 2302, 652, 1543, 2336
1118, 791, 2339, 2340, 2274
1119, 2274, 2340, 2337, 783
1120, 2340, 2338, 777, 2337
1121, 2339, 798, 2338, 2340
1122, 650, 2323, 2343, 1687
1123, 1687, 2343, 2341, 646
1124, 2343, 2342, 1205, 2341
1125, 2323, 1216, 2342, 2343
1126, 1959, 2346, 2590, 2090
1127, 1939, 2792, 2793, 2404
1128, 2331, 2663, 1022, 1525
1129, 890, 1645, 2352, 2349
1130, 2349, 2352, 2350, 887
1131, 2352, 2351, 886, 2350
1132, 1645, 891, 2351, 2352
1133, 2498, 821, 3181, 2497
1134, 816, 3349, 1329, 1524
1135, 3522, 3521, 2013, 3381
1136, 3544, 3519, 1715, 3532
1137, 1368, 2598, 499, 242
1138, 1503, 2037, 2290, 1956
1139, 1957, 3075, 245, 495
1140, 1956, 3427, 1815, 2358
1141, 655, 2144, 126, 140
1142, 590, 1899, 125, 139
1143, 3465, 2791, 1769, 1623
1144, 2208, 1326, 3150, 2921
1145, 1905, 2304, 1906, 2279
1146, 865, 2218, 243, 497
1147, 1503, 859, 2772, 2037
1148, 1119, 1650, 2365, 2363
1149, 2363, 2365, 1426, 1190
1150, 2365, 2364, 1191, 1426
1151, 1650, 1120, 2364, 2365
1152, 1118, 1662, 2367, 2308
1153, 2308, 2367, 2366, 1188
1154, 2367, 2363, 1190, 2366
1155, 1662, 1119, 2363, 2367
1156, 1104, 2370, 2371, 2368
1157, 2368, 2371, 2369, 1105
1158, 2371, 1909, 1114, 2369
1159, 2370, 1106, 1909, 2371
1160, 785, 504, 237, 2304
1161, 2037, 2772, 1369, 2983
1162, 1816, 3229, 3365, 3246
1163, 2376, 1658, 704, 707
1164, 3436, 2613, 2155, 2245
1165, 2171, 707, 704, 2154
1166, 709, 1639, 311, 429
1167, 579, 1670, 2380, 1972
1168, 1972, 2380, 2378, 788
1169, 2380, 2379, 784, 2378
1170, 1670, 580, 2379, 2380
1171, 2791, 1470, 722, 1769
1172, 715, 285, 455, 2571
1173, 724, 1617, 659, 669
1174, 1789, 2753, 2943, 3260
1175, 1771, 3131, 993, 629
1176, 2730, 2592, 2883, 2348
1177, 3254, 996, 3047, 2332
1178, 1081, 2389, 2390, 2387
1179, 2387, 2390, 2388, 1084
1180, 2390, 1895, 1085, 2388
1181, 2389, 1080, 1895, 2390
1182, 3220, 516, 225, 1675
1183, 3501, 1667, 2354, 3500
1184, 1153, 2393, 3381, 2013
1185, 3499, 2355, 1982, 3498
1186, 1017, 2396, 2397, 2395
1187, 2395, 2397, 2321, 1044
1188, 2397, 1272, 1045, 2321
1189, 2396, 1019, 1272, 2397
1190, 1121, 1684, 2400, 2398
1191, 2398, 2400, 1430, 1194
1192, 2400, 2399, 1193, 1430
1193, 1684, 1122, 2399, 2400
1194, 3178, 3440, 2728, 1876
1195, 1768, 3151, 2456, 1615
1196, 1901, 3439, 2102, 672
1197, 984, 2594, 923, 2032
1198, 2594, 390, 351, 923
1199, 1842, 923, 351, 389
1200, 3371, 354, 386, 1925
1201, 613, 1859, 2406, 2403
1202, 2403, 2406, 2404, 935
1203, 929, 3077, 1960, 1949
1204, 3492, 928, 3493, 3313
1205, 935, 2408, 2409, 2407
1206, 2407, 2409, 1707, 611
1207, 2409, 2320, 638, 1707
1208, 2408, 1044, 2320, 2409
1209, 1369, 840, 827, 1356
1210, 1613, 2298, 869, 1655
1211, 2304, 237, 503, 1906
1212, 3467, 2816, 1357, 1276
1213, 1082, 2413, 2414, 2411
1214, 2411, 2414, 2412, 1083
1215, 2414, 2387, 1084, 2412
1216, 2413, 1081, 2387, 2414
1217, 3543, 3509, 1966, 2636
1218, 2419, 1030, 1450, 1379
1219, 1030, 570, 171, 1450
1220, 1103, 1757, 2438, 1800
1221, 2510, 3112, 2437, 1029
1222, 2781, 3485, 3469, 628
1223, 3485, 166, 9, 3469
1224, 2517, 2747, 2515, 3119
1225, 1232, 2402, 2344, 1283
1226, 1015, 939, 2920, 2697
1227, 625, 2224, 1228, 940
1228, 793, 2427, 2428, 2264
1229, 2264, 2428, 2339, 791
1230, 2428, 2426, 798, 2339
1231, 2427, 802, 2426, 2428
1232, 1461, 3378, 2862, 2420
1233, 1778, 1026, 2082, 2516
1234, 2449, 3307, 2865, 2421
1235, 1035, 1798, 2861, 3353
1236, 1032, 1719, 3435, 2673
1237, 2081, 2508, 1380, 1091
1238, 1031, 1379, 3109, 3307
1239, 3307, 3109, 1094, 2865
1240, 3144, 1101, 2761, 1758
1241, 1449, 2510, 1463, 2035
1242, 3435, 1462, 2422, 2674
1243, 1093, 2008, 564, 177
1244, 2289, 377, 364, 2242
1245, 3059, 1806, 1495, 2551
1246, 1800, 3111, 1643, 1682
1247, 1681, 2567, 1486, 1001
1248, 3525, 1584, 3509, 3543
1249, 1668, 2014, 3242, 3158
1250, 3024, 3325, 1468, 1332
1251, 2635, 517, 224, 2009
1252, 1130, 1834, 2447, 2445
1253, 2445, 2447, 1364, 1131
1254, 2447, 2446, 1135, 1364
1255, 1834, 1129, 2446, 2447
1256, 2764, 2423, 1717, 1779
1257, 2424, 1029, 1098, 1024
1258, 2514, 1011, 3084, 3116
1259, 1757, 3062, 2778, 2438
1260, 1107, 2451, 2452, 2450
1261, 2450, 2452, 2370, 1104
1262, 2452, 1931, 1106, 2370
1263, 2451, 1109, 1931, 2452
1264, 1503, 1956, 2358, 2744
1265, 833, 3343, 3019, 1439
1266, 1312, 1865, 965, 2160
1267, 1257, 961, 2059, 3407
1268, 1230, 3390, 2159, 3397
1269, 1259, 1231, 318, 422
1270, 1615, 2456, 1898, 661
1271, 3405, 2504, 2284, 3443
1272, 2285, 727, 2479, 674
1273, 1856, 2631, 2634, 1602
1274, 596, 698, 1604, 697
1275, 1203, 2462, 2463, 2459
1276, 2459, 2463, 2460, 1207
1277, 2463, 2461, 1173, 2460
1278, 2462, 1145, 2461, 2463
1279, 597, 3487, 1745, 710
1280, 2042, 3487, 597, 679
1281, 700, 3330, 2613, 3436
1282, 2375, 2612, 2376, 3161
1283, 1142, 1694, 2470, 2468
1284, 2468, 2470, 1345, 1144
1285, 2470, 2469, 1141, 1345
1286, 1694, 1140, 2469, 2470
1287, 3163, 2966, 1409, 3261
1288, 1326, 1901, 672, 3150
1289, 2033, 1401, 1633, 1634
1290, 3440, 1581, 2295, 2728
1291, 1622, 3405, 2985, 3208
1292, 3123, 2258, 724, 2381
1293, 1467, 1441, 1802, 1994
1294, 1921, 1159, 3453, 1586
1295, 2478, 1975, 1158, 2476
1296, 2477, 1157, 1975, 2478
1297, 666, 660, 2457, 720
1298, 3460, 1469, 2522, 2789
1299, 2571, 455, 286, 1469
1300, 3463, 1039, 1026, 1778
1301, 3463, 2517, 3119, 1039
1302, 3258, 1772, 2440, 3117
1303, 3378, 1025, 1465, 2862
1304, 1074, 2196, 2487, 2485
1305, 2485, 2487, 1456, 1069
1306, 2487, 2486, 1073, 1456
1307, 2196, 1072, 2486, 2487
1308, 1275, 921, 2086, 631
1309, 1502, 1750, 2345, 1012
1310, 3119, 2515, 1719, 1032
1311, 2424, 1024, 2434, 1025
1312, 2006, 2430, 178, 562
1313, 1098, 2847, 1723, 1690
1314, 1129, 1743, 2490, 2446
1315, 2446, 2490, 2489, 1135
1316, 2490, 2239, 1136, 2489
1317, 1743, 1134, 2239, 2490
1318, 925, 1842, 389, 352
1319, 624, 385, 356, 3475
1320, 1140, 1795, 2496, 2469
1321, 2469, 2496, 2494, 1141
1322, 2496, 2495, 1148, 2494
1323, 1795, 1139, 2495, 2496
1324, 3516, 853, 3262, 3515
1325, 2531, 2533, 2477, 1161
1326, 1714, 806, 2773, 3305
1327, 806, 1669, 2538, 2773
1328, 888, 2499, 2500, 1414
1329, 1414, 2500, 2349, 887
1330, 2500, 1991, 890, 2349
1331, 2499, 889, 1991, 2500
1332, 1084, 2388, 2503, 2501
1333, 2501, 2503, 2502, 1086
1334, 2503, 2104, 1076, 2502
1335, 2388, 1085, 2104, 2503
1336, 735, 1616, 1850, 1790
1337, 3458, 678, 590, 2144
1338, 1843, 2406, 1859, 612
1339, 3124, 3475, 1882, 2333
1340, 934, 2222, 2085, 2491
1341, 1960, 2491, 2507, 1949
1342, 2973, 1010, 3083, 2439
1343, 1102, 2846, 1101, 3144
1344, 1777, 1448, 1031, 1097
1345, 1148, 2495, 2513, 1292
1346, 1292, 2513, 2512, 1150
1347, 2513, 1985, 1147, 2512
1348, 2495, 1139, 1985, 2513
1349, 2863, 3110, 2484, 2430
1350, 1039, 2764, 1779, 1026
1351, 1038, 2435, 2567, 1681
1352, 2518, 2610, 3461, 1419
1353, 1299, 2729, 450, 291
1354, 3261, 1409, 675, 2475
1355, 1281, 676, 1280, 713
1356, 674, 2479, 735, 1790
1357, 1583, 721, 1791, 1322
1358, 1850, 283, 457, 1298
1359, 891, 1873, 2526, 2351
1360, 2351, 2526, 2524, 886
1361, 2526, 2525, 896, 2524
1362, 1873, 920, 2525, 2526
1363, 800, 2529, 2530, 2527
1364, 2527, 2530, 1302, 799
1365, 2530, 2528, 794, 1302
1366, 2529, 797, 2528, 2530
1367, 1167, 2532, 2533, 2531
1368, 1154, 3545, 644, 1371
1369, 2533, 2114, 1157, 2477
1370, 2532, 1166, 2114, 2533
1371, 3472, 2680, 2623, 3152
1372, 2604, 771, 3472, 738
1373, 2798, 1946, 3494, 1704
1374, 819, 830, 508, 233
1375, 3515, 3262, 2698, 3514
1376, 2572, 2658, 811, 817
1377, 1112, 2312, 2542, 2541
1378, 2541, 2542, 2316, 1185
1379, 2542, 1880, 1111, 2316
1380, 2312, 1116, 1880, 2542
1381, 3349, 3497, 3496, 1329
1382, 862, 819, 233, 507
1383, 932, 3400, 929, 3078
1384, 913, 2549, 2550, 2546
1385, 2546, 2550, 2547, 911
1386, 2550, 2548, 912, 2547
1387, 2549, 914, 2548, 2550
1388, 1799, 375, 366, 3060
1389, 583, 3285, 1607, 2188
1390, 2906, 1807, 1427, 634
1391, 1212, 1359, 2556, 2554
1392, 2554, 2556, 2555, 1210
1393, 2556, 2301, 1208, 2555
1394, 1359, 1217, 2301, 2556
1395, 2474, 2472, 3163, 1979
1396, 2125, 2185, 443, 298
1397, 677, 293, 447, 1632
1398, 788, 2378, 2563, 2560
1399, 2560, 2563, 2561, 792
1400, 2563, 2562, 787, 2561
1401, 2378, 784, 2562, 2563
1402, 1854, 746, 2611, 2073
1403, 2064, 3372, 3069, 2838
1404, 3228, 776, 1265, 2564
1405, 1527, 3130, 635, 1008
1406, 1030, 1092, 170, 570
1407, 3469, 9, 370, 2435
1408, 1501, 3160, 636, 3484
1409, 2425, 2755, 631, 615
1410, 2456, 715, 2571, 1898
1411, 660, 2965, 3416, 2457
1412, 3147, 661, 726, 2258
1413, 3319, 3090, 2415, 3219
1414, 3509, 3508, 2690, 1966
1415, 664, 2577, 2578, 2575
1416, 2575, 2578, 2576, 665
1417, 2578, 1812, 587, 2576
1418, 2577, 588, 1812, 2578
1419, 2439, 3083, 3306, 1679
1420, 615, 3386, 984, 930
1421, 1083, 2412, 2583, 2581
1422, 2581, 2583, 2582, 1087
1423, 2583, 2501, 1086, 2582
1424, 2412, 1084, 2501, 2583
1425, 1078, 2038, 2585, 2482
1426, 2482, 2585, 2584, 1079
1427, 2585, 2389, 1081, 2584
1428, 2038, 1080, 2389, 2585
1429, 1158, 2096, 2586, 2476
1430, 861, 1709, 805, 1162
1431, 1161, 2477, 2478, 3145
1432, 2096, 1156, 2441, 2586
1433, 3205, 2860, 399, 342
1434, 3268, 2814, 3478, 3267
1435, 2491, 2085, 3089, 2507
1436, 2150, 3065, 3491, 623
1437, 2436, 1798, 1035, 2514
1438, 3065, 2425, 3236, 3491
1439, 2034, 1017, 2792, 2089
1440, 1013, 2540, 2346, 1959
1441, 1940, 1220, 942, 2545
1442, 2553, 3350, 1703, 3098
1443, 2035, 1463, 3378, 1461
1444, 1737, 1036, 990, 1701
1445, 845, 1351, 2715, 2993
1446, 2819, 3073, 1614, 2820
1447, 2279, 1906, 2410, 2359
1448, 864, 2544, 2280, 3249
1449, 1815, 3427, 2001, 1958
1450, 1372, 3464, 2586, 2441
1451, 3257, 2635, 2009, 608
1452, 3532, 1715, 2213, 3531
1453, 738, 2092, 2607, 2604
1454, 2604, 2607, 2605, 760
1455, 2607, 2606, 762, 2605
1456, 2092, 737, 2606, 2607
1457, 1945, 464, 277, 2611
1458, 2610, 768, 769, 3461
1459, 2980, 466, 275, 1947
1460, 1929, 689, 2612, 2375
1461, 3243, 3225, 1780, 3137
1462, 2999, 304, 436, 1922
1463, 710, 1745, 310, 430
1464, 1120, 1954, 2615, 2364
1465, 2364, 2615, 2614, 1191
1466, 2615, 2398, 1194, 2614
1467, 1954, 1121, 2398, 2615
1468, 1169, 2617, 2618, 2616
1469, 3546, 3134, 3479, 1333
1470, 3145, 2478, 2476, 818
1471, 2617, 1167, 2531, 2618
1472, 1705, 1249, 2837, 1237
1473, 1249, 2534, 2535, 2837
1474, 2837, 2535, 760, 2620
1475, 1114, 2052, 2625, 2369
1476, 2369, 2625, 2624, 1105
1477, 2625, 2313, 1113, 2624
1478, 2052, 1115, 2313, 2625
1479, 1075, 2029, 2628, 2626
1480, 2626, 2628, 2627, 1068
1481, 2628, 2485, 1069, 2627
1482, 2029, 1074, 2485, 2628
1483, 1718, 1021, 1525, 2481
1484, 3060, 366, 374, 989
1485, 2777, 2288, 1642, 2135
1486, 626, 379, 362, 2629
1487, 3337, 3136, 1514, 1516
1488, 956, 959, 2811, 949
1489, 946, 93, 81, 3194
1490, 696, 2633, 2634, 2631
1491, 1823, 694, 425, 316
1492, 698, 2080, 1678, 1824
1493, 2633, 695, 1869, 2634
1494, 1710, 2353, 830, 819
1495, 3511, 848, 2498, 3510
1496, 821, 518, 223, 3181
1497, 3241, 2870, 3369, 2574
1498, 919, 2157, 2639, 2637
1499, 2637, 2639, 2549, 913
1500, 2639, 2638, 914, 2549
1501, 2157, 918, 2638, 2639
1502, 3191, 2565, 3455, 730
1503, 3494, 2709, 1249, 1705
1504, 1946, 2619, 3191, 2951
1505, 3190, 2798, 1704, 3221
1506, 1138, 1762, 2645, 2240
1507, 2240, 2645, 2644, 1137
1508, 2645, 2468, 1144, 2644
1509, 1762, 1142, 2468, 2645
1510, 613, 2403, 2646, 2132
1511, 2132, 2646, 1629, 614
1512, 2646, 2407, 611, 1629
1513, 2403, 935, 2407, 2646
1514, 2298, 1664, 1475, 869
1515, 1893, 871, 3467, 3168
1516, 835, 2867, 2362, 838
1517, 911, 2547, 2652, 2649
1518, 2649, 2652, 2650, 795
1519, 2652, 2651, 796, 2650
1520, 2547, 912, 2651, 2652
1521, 944, 3214, 943, 2630
1522, 1891, 3267, 941, 944
1523, 3478, 397, 344, 3336
1524, 346, 394, 2036, 2262
1525, 1669, 3495, 3126, 2538
1526, 3158, 3242, 863, 824
1527, 3515, 3514, 2543, 1433
1528, 3305, 2773, 512, 229
1529, 772, 728, 2622, 2643
1530, 2660, 1458, 776, 3228
1531, 2608, 3395, 3372, 2064
1532, 2951, 2641, 3227, 2709
1533, 1076, 2121, 2662, 2502
1534, 2502, 2662, 2661, 1086
1535, 2662, 2626, 1068, 2661
1536, 2121, 1075, 2626, 2662
1537, 2568, 381, 360, 1016
1538, 2386, 2968, 1340, 2712
1539, 990, 1483, 3061, 3285
1540, 646, 2341, 2666, 1967
1541, 1967, 2666, 1352, 647
1542, 2666, 2665, 1206, 1352
1543, 2341, 1205, 2665, 2666
1544, 1168, 2668, 2669, 2667
1545, 2667, 2669, 2532, 1167
1546, 2669, 2065, 1166, 2532
1547, 2668, 1164, 2065, 2669
1548, 918, 2137, 2672, 2638
1549, 2638, 2672, 2670, 914
1550, 2672, 2671, 910, 2670
1551, 2137, 917, 2671, 2672
1552, 1463, 2510, 1029, 2424
1553, 2481, 1525, 1022, 1003
1554, 1090, 1758, 3118, 2864
1555, 3110, 3259, 1093, 2484
1556, 580, 2016, 2677, 2379
1557, 2379, 2677, 2675, 784
1558, 2299, 1368, 242, 498
1559, 2016, 581, 2676, 2677
1560, 760, 2605, 2679, 2620
1561, 2620, 2679, 1457, 761
1562, 2679, 2678, 763, 1457
1563, 2605, 762, 2678, 2679
1564, 771, 1250, 2680, 3472
1565, 2072, 778, 1854, 747
1566, 1420, 2660, 3228, 1264
1567, 1051, 3223, 3361, 3321
1568, 2683, 1052, 1051, 1491
1569, 1070, 2026, 2686, 2684
1570, 3387, 2724, 2725, 1223
1571, 1492, 2683, 1491, 3471
1572, 2026, 1071, 2685, 2686
1573, 1218, 934, 2491, 1960
1574, 1950, 1274, 388, 353
1575, 631, 2086, 3386, 615
1576, 2506, 2492, 927, 2493
1577, 2538, 3126, 513, 228
1578, 3523, 852, 851, 3522
1579, 1222, 2693, 2694, 2691
1580, 2691, 2694, 2692, 1108
1581, 2694, 1961, 1110, 2692
1582, 2693, 1053, 1961, 2694
1583, 736, 1832, 2696, 2695
1584, 2695, 2696, 1488, 734
1585, 2696, 2479, 727, 1488
1586, 1832, 735, 2479, 2696
1587, 2911, 2260, 932, 2713
1588, 1523, 860, 1365, 2849
1589, 1877, 2020, 18, 2
1590, 2354, 1675, 1331, 2355
1591, 3503, 3257, 608, 3502
1592, 3533, 3543, 2636, 3442
1593, 3536, 3535, 2353, 1710
1594, 3508, 3507, 3256, 2690
1595, 797, 2702, 2703, 2528
1596, 2528, 2703, 2700, 794
1597, 1388, 3189, 3276, 3068
1598, 920, 2022, 2706, 2525
1599, 2525, 2706, 2704, 896
1600, 2706, 2705, 897, 2704
1601, 2022, 903, 2705, 2706
1602, 586, 2707, 2708, 2220
1603, 2220, 2708, 1557, 589
1604, 2708, 2576, 587, 1557
1605, 2707, 665, 2576, 2708
1606, 3547, 2083, 471, 270
1607, 1490, 2710, 775, 1447
1608, 744, 1477, 2608, 767
1609, 2211, 994, 997, 3473
1610, 3097, 1229, 3124, 3171
1611, 3218, 1844, 633, 2592
1612, 868, 1654, 1357, 2816
1613, 2714, 2717, 2715, 804
1614, 3075, 841, 496, 245
1615, 2951, 3191, 730, 2641
1616, 1837, 475, 266, 2896
1617, 747, 1854, 2073, 1822
1618, 2062, 743, 1460, 732
1619, 2798, 1459, 2619, 1946
1620, 1863, 262, 478, 2758
1621, 729, 3273, 469, 272
1622, 1176, 2722, 2723, 2720
1623, 2720, 2723, 2721, 1165
1624, 2723, 2074, 1151, 2721
1625, 2722, 1149, 2074, 2723
1626, 1057, 1497, 2725, 1319
1627, 1319, 2725, 2724, 1056
1628, 2682, 2796, 2693, 1222
1629, 3387, 1223, 2683, 1492
1630, 1328, 2475, 670, 2145
1631, 717, 2970, 3439, 1901
1632, 3198, 1634, 3052, 1253
1633, 2295, 1399, 717, 1580
1634, 2641, 730, 3455, 778
1635, 3556, 2198, 1776, 1443
1636, 2623, 1822, 278, 462
1637, 1805, 995, 2488, 632
1638, 1606, 985, 380, 361
1639, 2711, 2568, 1016, 1605
1640, 1749, 2711, 1605, 3235
1641, 855, 2119, 2734, 2731
1642, 2731, 2734, 2732, 856
1643, 2734, 2733, 857, 2732
1644, 2119, 858, 2733, 2734
1645, 1108, 2692, 2736, 2735
1646, 2735, 2736, 2451, 1107
1647, 2736, 2011, 1109, 2451
1648, 2692, 1110, 2011, 2736
1649, 3096, 3556, 1443, 748
1650, 1445, 3454, 756, 1444
1651, 1943, 1944, 3087, 1775
1652, 2063, 1902, 1862, 2826
1653, 2305, 837, 1635, 2219
1654, 2739, 2741, 2740, 883
1655, 2741, 2277, 882, 2740
1656, 1504, 1957, 495, 246
1657, 1635, 864, 3249, 1998
1658, 2361, 892, 865, 2453
1659, 893, 2372, 847, 2803
1660, 2648, 3431, 3019, 3343
1661, 1165, 2721, 2746, 2745
1662, 2745, 2746, 2668, 1168
1663, 2746, 2087, 1164, 2668
1664, 2721, 1151, 2087, 2746
1665, 1719, 1729, 1462, 3435
1666, 1024, 1098, 1690, 1009
1667, 2435, 370, 574, 2567
1668, 765, 2749, 2750, 1410
1669, 1410, 2750, 1846, 781
1670, 2750, 2748, 779, 1846
1671, 2749, 780, 2748, 2750
1672, 1979, 3163, 3261, 1582
1673, 1623, 1769, 1849, 1398
1674, 1844, 1013, 1959, 633
1675, 928, 1843, 612, 3493
1676, 3356, 2940, 1502, 2664
1677, 1150, 2512, 2757, 1421
1678, 1421, 2757, 2722, 1176
1679, 2757, 1933, 1149, 2722
1680, 2512, 1147, 1933, 2757
1681, 917, 1943, 2759, 2671
1682, 2671, 2759, 1479, 910
1683, 2815, 1478, 2977, 2944
1684, 1079, 2584, 2760, 2509
1685, 2509, 2760, 1245, 1077
1686, 2760, 2413, 1082, 1245
1687, 2584, 1081, 2413, 2760
1688, 1011, 1941, 1034, 2483
1689, 2422, 2007, 1788, 2511
1690, 2778, 2005, 1526, 2438
1691, 3462, 2516, 1077, 1246
1692, 1086, 2661, 2767, 2582
1693, 2582, 2767, 2765, 1087
1694, 2767, 2766, 1067, 2765
1695, 2661, 1068, 2766, 2767
1696, 909, 2769, 2770, 2768
1697, 2768, 2770, 2637, 913
1698, 2770, 2247, 919, 2637
1699, 2769, 906, 2247, 2770
1700, 1480, 1350, 1351, 845
1701, 892, 3250, 2218, 865
1702, 3442, 2636, 2212, 2573
1703, 3514, 3542, 3503, 2543
1704, 1584, 809, 3508, 3509
1705, 801, 1269, 2776, 2774
1706, 2774, 2776, 2649, 795
1707, 2776, 2775, 911, 2649
1708, 1269, 908, 2775, 2776
1709, 2847, 2449, 2421, 1723
1710, 2242, 364, 376, 2288
1711, 3364, 634, 2905, 2782
1712, 1170, 2779, 2780, 1518
1713, 1518, 2780, 2617, 1169
1714, 2780, 2667, 1167, 2617
1715, 2779, 1168, 2667, 2780
1716, 630, 3284, 3450, 3027
1717, 2905, 2211, 3473, 2210
1718, 1034, 1941, 1680, 1485
1719, 2483, 1034, 1777, 3112
1720, 3250, 844, 2299, 2218
1721, 908, 2787, 2788, 2775
1722, 2775, 2788, 2546, 911
1723, 2788, 2768, 913, 2546
1724, 2787, 909, 2768, 2788
1725, 3422, 2659, 3363, 2565
1726, 2473, 669, 453, 288
1727, 2972, 2257, 1457, 763
1728, 722, 3122, 3147, 3177
1729, 3491, 3236, 2224, 625
1730, 2404, 2793, 2408, 935
1731, 2793, 2395, 1044, 2408
1732, 2792, 1017, 2395, 2793
1733, 903, 2172, 2795, 2705
1734, 2705, 2795, 2794, 897
1735, 2795, 1238, 901, 2794
1736, 2172, 904, 1238, 2795
1737, 1054, 1498, 3224, 1052
1738, 2796, 1886, 1053, 2693
1739, 2685, 1071, 1886, 2796
1740, 1419, 3461, 2640, 770
1741, 1248, 3221, 772, 2978
1742, 3555, 3164, 2095, 2719
1743, 2799, 1384, 1639, 709
1744, 3137, 1383, 2999, 576
1745, 1922, 436, 305, 594
1746, 2169, 1573, 3162, 3107
1747, 886, 2524, 2805, 2802
1748, 836, 2717, 2850, 871
1749, 2524, 896, 2804, 2805
1750, 965, 1889, 2809, 2806
1751, 2806, 2809, 2807, 969
1752, 2933, 3348, 3301, 584
1753, 3328, 2808, 621, 1309
1754, 2002, 2903, 3562, 1597
1755, 1306, 1305, 1392, 968
1756, 2859, 1761, 1598, 1759
1757, 2812, 3192, 1313, 1599
1758, 3558, 618, 96, 84
1759, 758, 3096, 748, 3354
1760, 757, 1444, 751, 916
1761, 581, 2069, 2818, 2676
1762, 1655, 869, 844, 3250
1763, 2360, 2714, 3016, 2868
1764, 2069, 582, 2817, 2818
1765, 2936, 885, 2867, 835
1766, 2219, 1635, 1998, 2856
1767, 2278, 2784, 494, 247
1768, 3074, 879, 2803, 843
1769, 1061, 2824, 2825, 2821
1770, 2821, 2825, 2822, 1062
1771, 2825, 2823, 1059, 2822
1772, 2824, 1060, 2823, 2825
1773, 2826, 1862, 2536, 2609
1774, 1338, 742, 1837, 2896
1775, 749, 2199, 2056, 2893
1776, 1338, 2896, 750, 2206
1777, 600, 1845, 2829, 1547
1778, 1547, 2829, 2707, 586
1779, 2829, 2828, 665, 2707
1780, 1845, 779, 2828, 2829
1781, 1172, 2833, 2834, 2830
1782, 2830, 2834, 2831, 1175
1783, 2834, 2832, 1177, 2831
1784, 2833, 1178, 2832, 2834
1785, 780, 2835, 2836, 2748
1786, 2748, 2836, 2828, 779
1787, 2836, 2575, 665, 2828
1788, 2835, 664, 2575, 2836
1789, 3221, 1704, 728, 772
1790, 1493, 3055, 2566, 3310
1791, 737, 2162, 2840, 2606
1792, 2606, 2840, 2839, 762
1793, 2840, 2695, 734, 2839
1794, 2162, 736, 2695, 2840
1795, 1732, 1315, 3213, 975
1796, 803, 2844, 2845, 2843
1797, 2843, 2845, 2426, 802
1798, 2845, 1303, 798, 2426
1799, 2844, 799, 1303, 2845
1800, 2516, 2082, 2509, 1077
1801, 3112, 1777, 1097, 2437
1802, 1009, 1690, 1840, 1023
1803, 3297, 3099, 2482, 1079
1804, 3369, 2732, 857, 1367
1805, 3520, 3419, 1666, 643
1806, 1186, 2854, 2855, 2327
1807, 2327, 2855, 1505, 1199
1808, 2855, 2853, 1198, 1505
1809, 2854, 1189, 2853, 2855
1810, 834, 1242, 3431, 2648
1811, 2437, 1097, 2449, 2847
1812, 1099, 3144, 1758, 1090
1813, 1723, 2421, 3265, 1037
1814, 992, 2783, 372, 369
1815, 921, 936, 1481, 2086
1816, 873, 3452, 3468, 879
1817, 2869, 2562, 784, 2675
1818, 2868, 787, 2562, 2869
1819, 1674, 33, 29, 3419
1820, 2871, 2731, 856, 2870
1821, 2116, 855, 2731, 2871
1822, 2184, 3128, 2872, 2558
1823, 1789, 2972, 1471, 723
1824, 2101, 2125, 298, 442
1825, 1042, 2877, 2878, 2874
1826, 2874, 2878, 2875, 1041
1827, 2878, 2876, 1040, 2875
1828, 2877, 1043, 2876, 2878
1829, 828, 1242, 2879, 1335
1830, 1335, 2879, 2151, 610
1831, 2879, 2817, 582, 2151
1832, 1907, 867, 1999, 786
1833, 3064, 359, 381, 2568
1834, 1882, 384, 357, 996
1835, 653, 1764, 2885, 2335
1836, 2335, 2885, 2884, 1209
1837, 2885, 2253, 649, 2884
1838, 1764, 654, 2253, 2885
1839, 3247, 1255, 3169, 2886
1840, 899, 2888, 905, 2887
1841, 2603, 2393, 1920, 1879
1842, 823, 3240, 2657, 1711
1843, 815, 3502, 3501, 2019
1844, 831, 842, 875, 874
1845, 1174, 2891, 2892, 2890
1846, 2890, 2892, 2779, 1170
1847, 2892, 2745, 1168, 2779
1848, 2891, 1165, 2745, 2892
1849, 753, 2206, 2207, 2287
1850, 2893, 3043, 1902, 2063
1851, 1902, 3279, 741, 1862
1852, 742, 2055, 739, 1837
1853, 3043, 2286, 2952, 740
1854, 2281, 267, 473, 1446
1855, 740, 1903, 2895, 3279
1856, 1089, 2899, 2900, 2897
1857, 2897, 2900, 2898, 1050
1858, 2900, 1380, 1088, 2898
1859, 2899, 1091, 1380, 2900
1860, 1211, 1263, 2902, 2901
1861, 2901, 2902, 2334, 1209
1862, 2902, 2555, 1208, 2334
1863, 1263, 1210, 2555, 2902
1864, 955, 2587, 956, 3210
1865, 622, 2148, 3192, 2812
1866, 1381, 1636, 337, 403
1867, 3450, 1501, 3484, 2243
1868, 2436, 3456, 1010, 2973
1869, 1679, 3306, 1737, 999
1870, 2186, 3356, 2664, 1807
1871, 1127, 2909, 2910, 1522
1872, 1522, 2910, 2908, 1196
1873, 2910, 1362, 1132, 2908
1874, 2909, 1131, 1362, 2910
1875, 3077, 2545, 1218, 1960
1876, 2347, 625, 940, 1221
1877, 1128, 2111, 2913, 2912
1878, 2912, 2913, 2909, 1127
1879, 2913, 2445, 1131, 2909
1880, 2111, 1130, 2445, 2913
1881, 901, 1239, 2916, 2914
1882, 2914, 2916, 2888, 902
1883, 2916, 2915, 905, 2888
1884, 1239, 907, 2915, 2916
1885, 867, 3333, 2739, 2984
1886, 2742, 2804, 3230, 2857
1887, 1284, 1883, 2663, 2331
1888, 939, 616, 2589, 2920
1889, 1015, 2539, 931, 939
1890, 3405, 3443, 677, 2985
1891, 2139, 2101, 442, 299
1892, 1980, 2145, 1299, 2505
1893, 1072, 2165, 2924, 2486
1894, 2486, 2924, 2923, 1073
1895, 1222, 2691, 3370, 3274
1896, 2165, 1070, 2684, 2924
1897, 1197, 2927, 2928, 2925
1898, 2925, 2928, 2908, 1132
1899, 2928, 2926, 1196, 2908
1900, 2927, 1195, 2926, 2928
1901, 1293, 2947, 946, 3194
1902, 947, 2842, 942, 1220
1903, 3429, 1382, 3176, 1892
1904, 1828, 1759, 1314, 976
1905, 577, 1970, 2932, 1851
1906, 1851, 2932, 2255, 578
1907, 2932, 2931, 603, 2255
1908, 1970, 790, 2931, 2932
1909, 617, 952, 82, 95
1910, 952, 1826, 94, 82
1911, 973, 3563, 336, 404
1912, 2933, 2232, 2077, 1308
1913, 2231, 968, 3328, 971
1914, 3173, 3277, 2807, 970
1915, 1243, 3067, 3393, 2848
1916, 2856, 1998, 501, 240
1917, 1020, 2938, 2939, 2937
1918, 2937, 2939, 1271, 1019
1919, 2939, 2877, 1042, 1271
1920, 2938, 1043, 2877, 2939
1921, 2540, 623, 2347, 2346
1922, 3337, 92, 80, 3136
1923, 937, 988, 2579, 922
1924, 721, 2455, 2285, 2382
1925, 1235, 2943, 2941, 764
1926, 2943, 2753, 663, 2941
1927, 2480, 456, 285, 715
1928, 2283, 2063, 2826, 2057
1929, 2621, 1236, 764, 3189
1930, 1839, 2084, 472, 269
1931, 2965, 2521, 658, 3416
1932, 3208, 2985, 1511, 2727
1933, 2557, 128, 142, 1813
1934, 1789, 723, 2015, 725
1935, 2223, 79, 92, 3337
1936, 1924, 1939, 1843, 928
1937, 3389, 3313, 3493, 3072
1938, 2222, 347, 393, 2085
1939, 1189, 2949, 2950, 2853
1940, 2853, 2950, 2948, 1198
1941, 2950, 2927, 1197, 2948
1942, 2949, 1195, 2927, 2950
1943, 3278, 2518, 1419, 743
1944, 748, 1443, 2055, 742
1945, 1460, 770, 2797, 759
1946, 1060, 2824, 2956, 2953
1947, 2953, 2956, 2954, 1058
1948, 2956, 2955, 1065, 2954
1949, 2824, 1061, 2955, 2956
1950, 888, 2958, 2959, 2499
1951, 2499, 2959, 2306, 889
1952, 2959, 2957, 880, 2306
1953, 2958, 883, 2957, 2959
1954, 1212, 2961, 2962, 1358
1955, 1358, 2962, 2960, 1214
1956, 2962, 2953, 1058, 2960
1957, 2961, 1060, 2953, 2962
1958, 1580, 717, 1901, 1326
1959, 669, 659, 287, 453
1960, 658, 2473, 288, 452
1961, 995, 2333, 3254, 2488
1962, 2345, 926, 3064, 2385
1963, 632, 2488, 2940, 3356
1964, 1429, 1682, 1028, 1484
1965, 1251, 1768, 1615, 3122
1966, 3052, 2963, 3165, 716
1967, 678, 719, 1899, 590
1968, 2726, 1978, 657, 2033
1969, 2569, 1702, 2783, 992
1970, 3131, 1428, 2907, 993
1971, 991, 637, 2777, 2595
1972, 1495, 989, 374, 367
1973, 1040, 2762, 2976, 2875
1974, 2875, 2976, 1226, 1041
1975, 2976, 2899, 1089, 1226
1976, 2762, 1091, 2899, 2976
1977, 2062, 732, 3555, 3299
1978, 2564, 1265, 2659, 3422
1979, 912, 2981, 2982, 2651
1980, 2651, 2982, 2979, 796
1981, 1494, 1447, 3548, 773
1982, 1904, 2283, 2057, 1494
1983, 875, 1958, 1957, 1504
1984, 1415, 2984, 2958, 888
1985, 2984, 2739, 883, 2958
1986, 3403, 2771, 1480, 3196
1987, 667, 655, 140, 127
1988, 1789, 725, 2751, 2753
1989, 2474, 2209, 2754, 2472
1990, 1195, 1432, 2987, 2926
1991, 2926, 2987, 1521, 1196
1992, 2987, 2986, 1192, 1521
1993, 1432, 1193, 2986, 2987
1994, 1050, 2898, 2990, 2988
1995, 2988, 2990, 2989, 1047
1996, 2990, 1297, 1063, 2989
1997, 2898, 1088, 1297, 2990
1998, 1715, 607, 850, 2213
1999, 3524, 27, 32, 852
2000, 1879, 1920, 1921, 853
2001, 1675, 225, 515, 1331
2002, 648, 2215, 2992, 1609
2003, 1609, 2992, 2884, 649
2004, 2992, 2901, 1209, 2884
2005, 2215, 1211, 2901, 2992
2006, 1366, 2851, 1367, 857
2007, 3486, 834, 2648, 1654
2008, 2818, 2817, 834, 3486
2009, 3067, 3431, 1242, 828
2010, 3128, 3204, 593, 2872
2011, 2872, 593, 3113, 2045
2012, 592, 3013, 2103, 3014
2013, 2801, 598, 2998, 1923
2014, 683, 1435, 690, 1437
2015, 1619, 683, 1437, 1926
2016, 1640, 2042, 679, 598
2017, 1405, 2045, 2101, 2139
2018, 2945, 2273, 2559, 1397
2019, 1399, 1512, 2970, 717
2020, 1524, 1329, 3504, 3505
2021, 3453, 1160, 2602, 3146
2022, 1183, 3006, 3007, 3004
2023, 3004, 3007, 3005, 1181
2024, 3007, 2329, 1179, 3005
2025, 3006, 1184, 2329, 3007
2026, 1067, 3010, 3011, 3008
2027, 3008, 3011, 3009, 1064
2028, 3011, 2955, 1061, 3009
2029, 3010, 1065, 2955, 3011
2030, 2140, 2046, 685, 3204
2031, 3204, 685, 3000, 593
2032, 683, 2996, 2168, 1435
2033, 2103, 2184, 2558, 2127
2034, 804, 1256, 3016, 2714
2035, 858, 2000, 2785, 2372
2036, 3016, 3015, 787, 2868
2037, 1256, 803, 3015, 3016
2038, 1998, 3249, 239, 501
2039, 3076, 3017, 2598, 1368
2040, 872, 3248, 500, 241
2041, 2983, 878, 866, 2276
2042, 2658, 816, 1524, 811
2043, 1243, 2848, 2851, 1366
2044, 3127, 824, 3090, 3319
2045, 2817, 2879, 1242, 834
2046, 905, 2915, 3021, 3020
2047, 3020, 3021, 2769, 909
2048, 3021, 2235, 906, 2769
2049, 2915, 907, 2235, 3021
2050, 794, 2700, 3023, 1301
2051, 1301, 3023, 2338, 798
2052, 3023, 3022, 777, 2338
2053, 3153, 2701, 2700, 2703
2054, 1171, 3024, 3025, 1316
2055, 1316, 3025, 2225, 585
2056, 3545, 1517, 3420, 644
2057, 3546, 2225, 3025, 3134
2058, 1496, 2189, 2688, 627
2059, 900, 2887, 3029, 1270
2060, 1270, 3029, 2787, 908
2061, 3029, 3020, 909, 2787
2062, 2887, 905, 3020, 3029
2063, 797, 3030, 3031, 2702
2064, 2535, 2534, 1250, 771
2065, 3152, 2623, 462, 279
2066, 3030, 796, 2979, 3031
2067, 1146, 1291, 3033, 3032
2068, 3032, 3033, 2832, 1178
2069, 3033, 1422, 1177, 2832
2070, 1291, 1150, 1422, 3033
2071, 1182, 3036, 3037, 3034
2072, 3034, 3037, 3035, 1180
2073, 3037, 3004, 1181, 3035
2074, 3036, 1183, 3004, 3037
2075, 1199, 1506, 3040, 2326
2076, 2326, 3040, 3038, 1179
2077, 3040, 3039, 1204, 3038
2078, 1506, 1200, 3039, 3040
2079, 787, 3015, 3042, 2561
2080, 2561, 3042, 3041, 792
2081, 3042, 2843, 802, 3041
2082, 3015, 803, 2843, 3042
2083, 1944, 261, 479, 3087
2084, 1446, 473, 268, 3086
2085, 3087, 479, 262, 1863
2086, 1866, 1867, 1260, 2161
2087, 2061, 1230, 3397, 2454
2088, 2454, 3397, 3413, 2060
2089, 1277, 2676, 2818, 3486
2090, 1817, 3045, 2802, 2805
2091, 3026, 1883, 3385, 1805
2092, 3367, 2384, 3131, 1771
2093, 1483, 2134, 2906, 3061
2094, 879, 3468, 893, 2803
2095, 2917, 1439, 839, 870
2096, 1214, 3048, 3049, 1360
2097, 1360, 3049, 2324, 1217
2098, 3049, 1286, 1216, 2324
2099, 3048, 1215, 1286, 3049
2100, 3439, 296, 444, 2102
2101, 1298, 457, 284, 2570
2102, 1634, 1633, 2963, 3052
2103, 777, 3022, 3056, 3053
2104, 3053, 3056, 3054, 782
2105, 3069, 3056, 3022, 2701
2106, 618, 3409, 2929, 1827
2107, 1643, 1001, 3130, 1002
2108, 1806, 3060, 989, 1495
2109, 2440, 1008, 168, 572
2110, 1007, 378, 363, 3143
2111, 1042, 2874, 3063, 1273
2112, 1273, 3063, 2291, 1045
2113, 3063, 1224, 1046, 2291
2114, 2874, 1041, 1224, 3063
2115, 1642, 365, 375, 1799
2116, 2348, 1282, 624, 1229
2117, 3218, 2149, 3046, 1844
2118, 2866, 1283, 3263, 3400
2119, 1227, 1948, 921, 1275
2120, 2545, 942, 2813, 1218
2121, 2405, 2713, 3489, 2755
2122, 2116, 826, 862, 2118
2123, 1243, 3019, 3431, 3067
2124, 2014, 2392, 2394, 3242
2125, 1704, 3494, 1705, 728
2126, 3054, 3070, 1411, 782
2127, 3070, 3068, 765, 1411
2128, 1925, 386, 355, 1282
2129, 1884, 3235, 985, 1606
2130, 1503, 2744, 3045, 1817
2131, 1906, 503, 238, 2410
2132, 878, 1356, 3195, 1612
2133, 924, 2687, 2866, 2260
2134, 2346, 2347, 1221, 2590
2135, 2386, 2712, 2149, 3218
2136, 1001, 1486, 635, 3130
2137, 1843, 1939, 2404, 2406
2138, 3234, 3266, 837, 2305
2139, 3045, 786, 3226, 2802
2140, 1439, 3019, 1243, 839
2141, 1612, 3195, 3073, 2819
2142, 604, 1818, 3080, 2227
2143, 2227, 3080, 3079, 789
2144, 3080, 2931, 790, 3079
2145, 1818, 603, 2931, 3080
2146, 1679, 999, 1496, 3062
2147, 2439, 1679, 3062, 1757
2148, 1078, 2863, 2430, 2006
2149, 1448, 2419, 1379, 1031
2150, 1019, 2396, 3085, 2937
2151, 2937, 3085, 2880, 1020
2152, 3085, 1266, 1018, 2880
2153, 2396, 1017, 1266, 3085
2154, 756, 2759, 1943, 1775
2155, 3454, 1479, 2759, 756
2156, 3523, 3522, 3381, 609
2157, 3377, 2849, 816, 2658
2158, 3498, 1982, 2655, 3497
2159, 2618, 2531, 1161, 3432
2160, 987, 945, 3125, 3217
2161, 3047, 383, 358, 2593
2162, 1608, 3097, 3171, 3385
2163, 3513, 823, 1711, 3512
2164, 3505, 3504, 1669, 806
2165, 705, 2041, 3092, 689
2166, 712, 1574, 706, 711
2167, 2154, 704, 433, 308
2168, 1810, 2465, 1808, 1575
2169, 1059, 2823, 3093, 1261
2170, 1261, 3093, 2554, 1210
2171, 3093, 2961, 1212, 2554
2172, 2823, 1060, 2961, 3093
2173, 1776, 2737, 754, 3095
2174, 2198, 1445, 1444, 757
2175, 2207, 2281, 1446, 2827
2176, 2712, 2492, 2506, 2149
2177, 2967, 2385, 2711, 1749
2178, 1095, 1102, 3144, 1099
2179, 1125, 3100, 3101, 2190
2180, 2190, 3101, 1378, 1124
2181, 3101, 1520, 1192, 1378
2182, 3100, 1127, 1520, 3101
2183, 1938, 395, 346, 2262
2184, 3267, 3478, 3336, 941
2185, 1872, 957, 2930, 978
2186, 959, 3176, 2810, 2811
2187, 1512, 295, 445, 2970
2188, 1300, 2922, 1400, 3051
2189, 2970, 445, 296, 3439
2190, 1173, 2461, 3105, 1342
2191, 1342, 3105, 2833, 1172
2192, 3105, 3104, 1178, 2833
2193, 2461, 1145, 3104, 3105
2194, 599, 2175, 3108, 3106
2195, 3106, 3108, 3107, 696
2196, 2465, 2171, 2154, 1808
2197, 598, 679, 2377, 2998
2198, 2846, 173, 567, 1101
2199, 2421, 2865, 1100, 3265
2200, 2430, 2484, 563, 178
2201, 2436, 1429, 1484, 1798
2202, 297, 1406, 2102, 444
2203, 3050, 3483, 2046, 2140
2204, 593, 3000, 684, 3113
2205, 1747, 3202, 686, 1513
2206, 2049, 320, 420, 3560
2207, 1602, 2634, 1869, 3398
2208, 1677, 1603, 2458, 595
2209, 1825, 2458, 426, 315
2210, 1194, 1431, 3115, 2614
2211, 2614, 3115, 1425, 1191
2212, 3115, 2949, 1189, 1425
2213, 1431, 1195, 2949, 3115
2214, 1005, 3028, 630, 2189
2215, 2082, 3297, 1079, 2509
2216, 628, 3469, 2435, 1038
2217, 2596, 2243, 1702, 2569
2218, 3082, 1464, 1692, 2747
2219, 1485, 1680, 1500, 3481
2220, 1717, 2423, 3259, 3110
2221, 1729, 2864, 1841, 1462
2222, 1020, 2881, 3121, 2938
2223, 1465, 2081, 1091, 2762
2224, 1758, 2761, 1691, 3118
2225, 2881, 1021, 3081, 3121
2226, 1401, 2269, 2209, 2474
2227, 1398, 1849, 3001, 2383
2228, 1898, 2571, 1469, 3460
2229, 1515, 972, 1872, 1731
2230, 1536, 85, 98, 1534
2231, 2223, 2261, 91, 79
2232, 3136, 946, 2947, 1514
2233, 1267, 1950, 353, 387
2234, 3263, 1940, 2545, 3077
2235, 2010, 1920, 2393, 1153
2236, 3181, 223, 517, 2635
2237, 1983, 808, 511, 230
2238, 3242, 2394, 813, 863
2239, 1278, 2167, 2921, 3150
2240, 3012, 1513, 2194, 3013
2241, 2873, 3129, 592, 2996
2242, 1513, 686, 3340, 2194
2243, 2974, 1884, 1606, 626
2244, 1428, 2210, 2975, 2907
2245, 2597, 3059, 2551, 2552
2246, 2210, 3473, 2974, 2975
2247, 2810, 3140, 339, 401
2248, 91, 2261, 1219, 78
2249, 1205, 2342, 3133, 3132
2250, 3132, 3133, 3035, 1181
2251, 3133, 1287, 1180, 3035
2252, 2342, 1216, 1287, 3133
2253, 1994, 1802, 1159, 2010
2254, 1371, 644, 1440, 1163
2255, 1468, 1170, 1518, 1519
2256, 2602, 1372, 2441, 3513
2257, 1123, 1377, 3135, 1951
2258, 1951, 3135, 2399, 1122
2259, 3135, 2986, 1193, 2399
2260, 1377, 1192, 2986, 3135
2261, 1809, 2466, 3366, 1927
2262, 3366, 1922, 594, 1927
2263, 1437, 690, 1510, 3225
2264, 706, 2244, 1929, 1618
2265, 2147, 3302, 1871, 957
2266, 3563, 1452, 405, 336
2267, 3176, 1382, 3140, 2810
2268, 1731, 1872, 978, 3457
2269, 788, 2560, 3142, 1971
2270, 1971, 3142, 3079, 790
2271, 3142, 3141, 789, 3079
2272, 2560, 792, 3141, 3142
2273, 1000, 1004, 2187, 3284
2274, 3143, 363, 377, 2289
2275, 3306, 1786, 1036, 1737
2276, 2436, 2973, 1103, 1429
2277, 1467, 1371, 1163, 861
2278, 822, 805, 3464, 1372
2279, 1159, 1802, 1160, 3453
2280, 2418, 1442, 1984, 2391
2281, 3177, 3147, 2258, 3123
2282, 2382, 2285, 674, 1770
2283, 1790, 1850, 1298, 1252
2284, 721, 2382, 2971, 1791
2285, 718, 2208, 2921, 3215
2286, 714, 1300, 3051, 1581
2287, 2963, 1582, 1328, 3165
2288, 3372, 3054, 3056, 3069
2289, 3363, 1945, 2611, 746
2290, 760, 2535, 771, 2604
2291, 1175, 2831, 3156, 1317
2292, 1317, 3156, 3154, 1171
2293, 3156, 3155, 1174, 3154
2294, 2831, 1177, 3155, 3156
2295, 3496, 2689, 3495, 3541
2296, 848, 1785, 821, 2498
2297, 2773, 2538, 228, 512
2298, 3504, 3541, 3495, 1669
2299, 1172, 2830, 3159, 1341
2300, 1341, 3159, 2203, 645
2301, 3159, 1318, 585, 2203
2302, 2830, 1175, 1318, 3159
2303, 2188, 3367, 1004, 1000
2304, 1777, 1034, 1485, 1448
2305, 1807, 2664, 1482, 1427
2306, 1771, 629, 637, 991
2307, 696, 3107, 3162, 2633
2308, 2633, 3162, 2233, 695
2309, 3329, 3436, 2245, 712
2310, 2244, 705, 689, 1929
2311, 2969, 2401, 2945, 3103
2312, 2570, 284, 456, 2480
2313, 1876, 2728, 2752, 668
2314, 2701, 3022, 3023, 2700
2315, 749, 2893, 2063, 2283
2316, 1444, 756, 1775, 751
2317, 1400, 446, 295, 1512
2318, 673, 713, 124, 138
2319, 723, 1471, 2523, 1583
2320, 1048, 3166, 3167, 2216
2321, 2216, 3167, 1262, 1211
2322, 3167, 2822, 1059, 1262
2323, 3166, 1062, 2822, 3167
2324, 868, 2816, 2850, 2360
2325, 3324, 870, 873, 895
2326, 3239, 3175, 2844, 803
2327, 2357, 1355, 3248, 872
2328, 3169, 801, 2774, 3383
2329, 3360, 3396, 899, 1349
2330, 3264, 2506, 2493, 2580
2331, 2883, 1925, 1282, 2348
2332, 971, 3328, 1309, 1393
2333, 1308, 2077, 2079, 2078
2334, 1308, 2078, 3277, 3173
2335, 3341, 3173, 970, 1306
2336, 3247, 2886, 3239, 2889
2337, 2844, 3175, 2527, 799
2338, 3175, 3174, 800, 2527
2339, 885, 884, 2919, 1438
2340, 2841, 2588, 952, 617
2341, 954, 951, 973, 1636
2342, 3558, 3559, 2903, 2002
2343, 1637, 981, 1730, 3193
2344, 2258, 726, 1617, 724
2345, 2269, 664, 1327, 2209
2346, 678, 3178, 1876, 719
2347, 1899, 673, 138, 125
2348, 596, 3179, 1347, 2632
2349, 1824, 2108, 3332, 693
2350, 1678, 116, 107, 2110
2351, 3303, 1855, 692, 1857
2352, 1982, 1997, 807, 2655
2353, 2441, 1156, 823, 3513
2354, 1365, 3498, 3497, 3349
2355, 663, 1327, 3184, 2941
2356, 2941, 3184, 3183, 764
2357, 3184, 2835, 780, 3183
2358, 1327, 664, 2835, 3184
2359, 1691, 566, 175, 1788
2360, 3116, 3084, 1787, 1721
2361, 2429, 569, 172, 2763
2362, 1206, 2665, 3188, 3186
2363, 3186, 3188, 3039, 1200
2364, 3188, 3187, 1204, 3039
2365, 2665, 1205, 3187, 3188
2366, 2520, 465, 276, 731
2367, 767, 2608, 2064, 3055
2368, 768, 468, 273, 769
2369, 1636, 973, 404, 337
2370, 1533, 1987, 1752, 3417
2371, 3102, 407, 334, 3380
2372, 974, 1989, 1990, 982
2373, 2593, 358, 382, 926
2374, 3072, 3493, 612, 1860
2375, 2037, 2983, 2276, 2290
2376, 2276, 866, 2373, 2599
2377, 3427, 2786, 877, 2001
2378, 2294, 2570, 2480, 3151
2379, 2383, 3001, 2521, 2965
2380, 1470, 1251, 3122, 722
2381, 2259, 3465, 1623, 2964
2382, 763, 2678, 3197, 3148
2383, 3148, 3197, 1489, 662
2384, 3197, 2839, 734, 1489
2385, 2678, 762, 2839, 3197
2386, 2726, 2033, 1634, 3198
2387, 3051, 1400, 1512, 1399
2388, 2752, 1580, 1326, 2208
2389, 1089, 2897, 3200, 1225
2390, 1225, 3200, 2251, 1046
2391, 3200, 3199, 1049, 2251
2392, 2897, 1050, 3199, 3200
2393, 1133, 1394, 3201, 1373
2394, 1373, 3201, 2489, 1136
2395, 3201, 1363, 1135, 2489
2396, 1394, 1132, 1363, 3201
2397, 443, 2185, 1406, 297
2398, 2046, 3483, 682, 1748
2399, 2194, 3340, 3128, 2184
2400, 3129, 3012, 3013, 592
2401, 2995, 1279, 2994, 687
2402, 684, 3000, 1278, 3203
2403, 1279, 2195, 2044, 2994
2404, 591, 2141, 3012, 3129
2405, 2858, 1766, 3268, 3209
2406, 1361, 1325, 1537, 1713
2407, 2842, 1937, 1919, 2003
2408, 1061, 2821, 3207, 3009
2409, 3009, 3207, 1295, 1064
2410, 3207, 3206, 1063, 1295
2411, 2821, 1062, 3206, 3207
2412, 3122, 1615, 661, 3147
2413, 2259, 2964, 2966, 2946
2414, 3149, 1792, 675, 1409
2415, 3559, 97, 85, 1536
2416, 983, 1389, 981, 3287
2417, 1826, 3194, 81, 94
2418, 1082, 2411, 3212, 1247
2419, 1247, 3212, 1296, 1088
2420, 3212, 3211, 1064, 1296
2421, 2411, 1083, 3211, 3212
2422, 2492, 1018, 1266, 927
2423, 3558, 977, 3409, 618
2424, 3014, 2103, 2127, 2195
2425, 3458, 1397, 3178, 678
2426, 846, 2359, 2544, 2743
2427, 2920, 2589, 1232, 2687
2428, 931, 2089, 1924, 986
2429, 930, 984, 2032, 2591
2430, 3535, 3534, 2416, 2353
2431, 3516, 3515, 1433, 1233
2432, 3497, 2655, 2689, 3496
2433, 3544, 3523, 609, 3519
2434, 1477, 1388, 3395, 2608
2435, 769, 273, 467, 2519
2436, 2073, 2611, 277, 463
2437, 3245, 766, 1493, 1387
2438, 792, 3041, 3222, 3141
2439, 3141, 3222, 2229, 789
2440, 3222, 2427, 793, 2229
2441, 3041, 802, 2427, 3222
2442, 1065, 3223, 3224, 2954
2443, 2954, 3224, 1498, 1058
2444, 1223, 1054, 1052, 2683
2445, 701, 3138, 1621, 1620
2446, 700, 133, 120, 3330
2447, 3225, 1510, 680, 1780
2448, 1435, 2995, 1509, 690
2449, 869, 1475, 3076, 844
2450, 2802, 3226, 2350, 886
2451, 3226, 1413, 887, 2350
2452, 837, 1476, 864, 1635
2453, 766, 767, 3055, 1493
2454, 3245, 1387, 733, 775
2455, 1387, 745, 2718, 733
2456, 871, 2850, 2816, 3467
2457, 3249, 2280, 502, 239
2458, 3230, 2704, 897, 3229
2459, 2804, 896, 2704, 3230
2460, 1184, 3006, 3233, 3231
2461, 3231, 3233, 2541, 1185
2462, 3233, 3232, 1112, 2541
2463, 3006, 1183, 3232, 3233
2464, 2786, 2599, 2361, 877
2465, 1356, 827, 876, 3195
2466, 1438, 894, 3234, 2934
2467, 940, 1228, 1842, 925
2468, 3489, 3078, 1227, 1275
2469, 2488, 3254, 2332, 2940
2470, 1774, 3044, 755, 2738
2471, 2670, 3237, 2548, 914
2472, 3237, 2981, 912, 2548
2473, 3164, 1248, 2978, 2095
2474, 2809, 1889, 966, 3412
2475, 1766, 3238, 3205, 2653
2476, 3562, 1451, 2148, 622
2477, 3170, 2889, 1256, 804
2478, 2785, 236, 504, 785
2479, 3393, 1336, 829, 2852
2480, 2636, 1966, 1234, 2212
2481, 2415, 2572, 817, 809
2482, 1385, 1575, 309, 431
2483, 3138, 1923, 703, 1621
2484, 1782, 303, 437, 1383
2485, 1639, 710, 430, 311
2486, 1236, 774, 1235, 764
2487, 728, 1705, 1237, 2622
2488, 1349, 900, 1268, 1255
2489, 1349, 899, 2887, 900
2490, 1255, 1268, 801, 3169
2491, 2600, 2601, 3216, 3266
2492, 876, 836, 871, 1893
2493, 1476, 2743, 2544, 864
2494, 3017, 2357, 872, 2598
2495, 1355, 2219, 2856, 3248
2496, 1146, 3251, 3252, 1290
2497, 1290, 3252, 2494, 1148
2498, 3252, 1344, 1141, 2494
2499, 3251, 1143, 1344, 3252
2500, 1009, 1023, 1027, 1728
2501, 3298, 3463, 1778, 2433
2502, 1094, 2763, 2448, 1096
2503, 2747, 1692, 3120, 2515
2504, 1187, 1402, 3253, 2315
2505, 2315, 3253, 3231, 1185
2506, 3253, 2328, 1184, 3231
2507, 1402, 1186, 2328, 3253
2508, 2150, 3358, 2405, 3065
2509, 2333, 1882, 996, 3254
2510, 2712, 1340, 1018, 2492
2511, 1608, 3385, 1883, 1284
2512, 1190, 1424, 3255, 2366
2513, 2366, 3255, 1403, 1188
2514, 3255, 2854, 1186, 1403
2515, 1424, 1189, 2854, 3255
2516, 2848, 2935, 1244, 2851
2517, 2601, 3074, 843, 2297
2518, 1101, 567, 174, 2761
2519, 2511, 1788, 175, 565
2520, 1029, 2437, 2847, 1098
2521, 2482, 3099, 2863, 1078
2522, 3443, 448, 293, 677
2523, 1791, 2971, 1251, 1470
2524, 1233, 1433, 812, 1804
2525, 2224, 2591, 2032, 1228
2526, 1283, 2344, 1940, 3263
2527, 3386, 2756, 2594, 984
2528, 1783, 1585, 860, 1523
2529, 2353, 2416, 1330, 830
2530, 1448, 1485, 3481, 2419
2531, 2420, 2862, 1040, 2876
2532, 1463, 2424, 1025, 3378
2533, 2567, 574, 167, 1486
2534, 1475, 838, 3017, 3076
2535, 878, 1612, 1613, 866
2536, 1817, 2805, 2804, 2742
2537, 1599, 1313, 3339, 1294
2538, 2842, 2003, 2813, 942
2539, 977, 1361, 1713, 3429
2540, 1598, 335, 405, 1452
2541, 1143, 3271, 3272, 3269
2542, 3269, 3272, 1396, 1133
2543, 3272, 3270, 1201, 1396
2544, 3271, 1145, 3270, 3272
2545, 2680, 747, 1822, 2623
2546, 3471, 2923, 2924, 2684
2547, 2724, 3275, 1472, 1056
2548, 3275, 3274, 1055, 1472
2549, 1054, 1497, 3474, 1498
2550, 764, 3183, 3276, 3189
2551, 3461, 769, 2519, 2640
2552, 3276, 2749, 765, 3068
2553, 3183, 780, 2749, 3276
2554, 3341, 1306, 968, 2231
2555, 2807, 3277, 1311, 969
2556, 3277, 2078, 620, 1311
2557, 979, 967, 3326, 1390
2558, 1477, 2621, 3189, 1388
2559, 2642, 274, 466, 2980
2560, 2609, 2536, 2518, 3278
2561, 1105, 3281, 3282, 2368
2562, 2368, 3282, 3280, 1104
2563, 3282, 3036, 1182, 3280
2564, 3281, 1183, 3036, 3282
2565, 1010, 2481, 1003, 3083
2566, 1682, 1643, 1002, 1028
2567, 1011, 2483, 1449, 3084
2568, 2552, 2551, 373, 368
2569, 1143, 3269, 3286, 1346
2570, 1346, 3286, 2644, 1144
2571, 3286, 1374, 1137, 2644
2572, 3269, 1133, 1374, 3286
2573, 3139, 1988, 2107, 3338
2574, 2192, 2193, 2142, 3326
2575, 1752, 982, 3139, 3392
2576, 1069, 1454, 3290, 2627
2577, 2627, 3290, 2766, 1068
2578, 3290, 3289, 1067, 2766
2579, 1454, 1066, 3289, 3290
2580, 1588, 321, 419, 3291
2581, 1230, 3291, 1289, 3390
2582, 2060, 3413, 2806, 969
2583, 961, 1587, 1311, 620
2584, 2689, 2443, 3126, 3495
2585, 1234, 1983, 230, 510
2586, 824, 863, 1434, 3090
2587, 1804, 812, 1716, 2392
2588, 1197, 2925, 3296, 3294
2589, 3294, 3296, 3295, 1202
2590, 3296, 1395, 1201, 3295
2591, 2925, 1132, 1395, 3296
2592, 3185, 1043, 2938, 3121
2593, 2448, 568, 173, 2846
2594, 3395, 3070, 3054, 3372
2595, 2536, 1339, 2610, 2518
2596, 1387, 1493, 3310, 745
2597, 774, 2643, 2790, 1235
2598, 1600, 3102, 3380, 3058
2599, 1536, 1534, 2904, 1323
2600, 981, 1389, 1753, 1730
2601, 692, 1602, 3398, 1677
2602, 2080, 106, 116, 1678
2603, 596, 2632, 1601, 1676
2604, 3522, 851, 1674, 3521
2605, 1785, 222, 518, 821
2606, 1467, 1994, 1442, 2418
2607, 3542, 2497, 3257, 3503
2608, 1789, 3260, 2257, 2972
2609, 1511, 1632, 2922, 1300
2610, 1469, 286, 454, 2522
2611, 2504, 1980, 2505, 2284
2612, 1100, 1096, 1102, 1095
2613, 1037, 3265, 1464, 3082
2614, 3265, 1100, 1095, 1464
2615, 1450, 171, 569, 2429
2616, 1057, 1320, 3308, 1499
2617, 1499, 3308, 2960, 1058
2618, 3308, 3048, 1214, 2960
2619, 1320, 1215, 3048, 3308
2620, 1207, 2460, 3309, 1353
2621, 1353, 3309, 2177, 647
2622, 3309, 1343, 645, 2177
2623, 2460, 1173, 1343, 3309
2624, 2015, 1322, 2791, 3465
2625, 3190, 1264, 1459, 2798
2626, 3310, 2566, 3553, 3554
2627, 1047, 3311, 3312, 2988
2628, 2988, 3312, 3199, 1050
2629, 3312, 2318, 1049, 3199
2630, 3311, 1048, 2318, 3312
2631, 3078, 929, 1949, 1227
2632, 3418, 937, 922, 933
2633, 797, 2529, 3315, 3030
2634, 3030, 3315, 2650, 796
2635, 3315, 3314, 795, 2650
2636, 2529, 800, 3314, 3315
2637, 1182, 3317, 3318, 3280
2638, 3280, 3318, 2450, 1104
2639, 3318, 3316, 1107, 2450
2640, 3317, 1055, 3316, 3318
2641, 3519, 609, 2603, 3518
2642, 3524, 1877, 2, 27
2643, 2848, 3393, 2852, 2935
2644, 868, 1277, 3486, 1654
2645, 1206, 3186, 3320, 1354
2646, 1354, 3320, 2459, 1207
2647, 3320, 1417, 1203, 2459
2648, 3186, 1200, 1417, 3320
2649, 1073, 2923, 3322, 1455
2650, 1455, 3322, 3321, 1066
2651, 1223, 2725, 1497, 1054
2652, 3471, 1491, 3322, 2923
2653, 1198, 2948, 3323, 1507
2654, 1507, 3323, 1416, 1200
2655, 3323, 3294, 1202, 1416
2656, 2948, 1197, 3294, 3323
2657, 842, 1815, 1958, 875
2658, 2983, 1369, 1356, 878
2659, 2784, 1504, 246, 494
2660, 2600, 895, 3074, 2601
2661, 2410, 238, 502, 2280
2662, 827, 2993, 836, 876
2663, 644, 3420, 2616, 1440
2664, 2890, 3325, 3154, 1174
2665, 3325, 3024, 1171, 3154
2666, 3420, 1334, 1169, 2616
2667, 1759, 1598, 1452, 1314
2668, 2002, 1597, 1325, 1361
2669, 978, 2930, 951, 954
2670, 1307, 1453, 967, 3172
2671, 3348, 1307, 3172, 3301
2672, 967, 1453, 2192, 3326
2673, 2466, 2464, 576, 3366
2674, 2467, 434, 307, 1658
2675, 1574, 1809, 2244, 706
2676, 702, 1928, 3244, 1576
2677, 1202, 3295, 3331, 1418
2678, 1418, 3331, 2462, 1203
2679, 3331, 3270, 1145, 2462
2680, 3295, 1201, 3270, 3331
2681, 3180, 427, 314, 1603
2682, 2631, 3332, 3106, 696
2683, 3332, 2108, 599, 3106
2684, 3179, 1823, 316, 424
2685, 1999, 1415, 3445, 1413
2686, 3517, 1879, 853, 3516
2687, 863, 813, 3377, 1434
2688, 3003, 1367, 2851, 1244
2689, 2118, 862, 507, 234
2690, 1177, 1423, 3335, 3155
2691, 3155, 3335, 2891, 1174
2692, 3335, 2720, 1165, 2891
2693, 1423, 1176, 2720, 3335
2694, 1937, 1938, 2262, 1919
2695, 3214, 958, 2054, 947
2696, 3327, 345, 395, 1938
2697, 3558, 2002, 1361, 977
2698, 1241, 3338, 2107, 1751
2699, 1871, 2859, 1759, 1828
2700, 983, 3392, 1241, 1389
2701, 2996, 592, 3014, 2168
2702, 3161, 2376, 707, 2171
2703, 3288, 3287, 3339, 1313
2704, 3348, 2231, 971, 1307
2705, 1305, 1724, 964, 1392
2706, 1533, 3417, 3288, 1391
2707, 782, 1412, 3342, 3053
2708, 3053, 3342, 2337, 777
2709, 3342, 2200, 783, 2337
2710, 1412, 781, 2200, 3342
2711, 841, 2453, 244, 496
2712, 843, 1905, 2279, 2297
2713, 895, 873, 879, 3074
2714, 1215, 1321, 3345, 1285
2715, 1285, 3345, 3344, 1180
2716, 3345, 1473, 1213, 3344
2717, 1321, 1056, 1473, 3345
2718, 818, 2476, 2586, 3464
2719, 3546, 1913, 2226, 2225
2720, 3346, 2391, 643, 1912
2721, 2616, 2618, 3432, 1440
2722, 1062, 3166, 3347, 3206
2723, 3206, 3347, 2989, 1063
2724, 3347, 3311, 1047, 2989
2725, 3166, 1048, 3311, 3347
2726, 2559, 714, 1581, 3440
2727, 683, 3482, 2873, 2996
2728, 687, 2994, 3114, 1407
2729, 1307, 971, 1393, 1453
2730, 2808, 1304, 963, 621
2731, 3518, 3517, 3088, 607
2732, 2497, 3181, 2635, 3257
2733, 2871, 1784, 826, 2116
2734, 3241, 1784, 2871, 2870
2735, 1486, 167, 573, 635
2736, 583, 2188, 1000, 3028
2737, 3375, 2781, 628, 2005
2738, 2134, 2186, 1807, 2906
2739, 1182, 3034, 3351, 3317
2740, 3317, 3351, 1474, 1055
2741, 3351, 3344, 1213, 1474
2742, 3034, 1180, 3344, 3351
2743, 3094, 755, 477, 264
2744, 773, 3548, 733, 2718
2745, 3456, 3116, 1721, 1718
2746, 1461, 2420, 3185, 2431
2747, 627, 3375, 2005, 2778
2748, 2865, 1094, 1096, 1100
2749, 2797, 2681, 1458, 2660
2750, 776, 1947, 2520, 1265
2751, 3352, 2815, 3454, 1445
2752, 3044, 263, 477, 755
2753, 754, 2738, 755, 3094
2754, 2056, 2287, 3368, 2286
2755, 3385, 3171, 995, 1805
2756, 2975, 2974, 626, 2629
2757, 2386, 1608, 1284, 2968
2758, 3046, 3264, 937, 3418
2759, 1204, 3187, 3357, 3038
2760, 3038, 3357, 3005, 1179
2761, 3357, 3132, 1181, 3005
2762, 3187, 1205, 3132, 3357
2763, 2964, 1623, 1398, 3149
2764, 1792, 2383, 2965, 660
2765, 3260, 2790, 2942, 2257
2766, 1014, 392, 349, 936
2767, 2592, 633, 2882, 2883
2768, 1145, 3271, 3359, 3104
2769, 3104, 3359, 3032, 1178
2770, 3359, 3251, 1146, 3032
2771, 3271, 1143, 3251, 3359
2772, 2372, 2785, 785, 847
2773, 2889, 3239, 803, 1256
2774, 3360, 3247, 2889, 3170
2775, 1065, 3010, 3361, 3223
2776, 3361, 3289, 1066, 3321
2777, 3010, 1067, 3289, 3361
2778, 881, 2270, 3362, 2181
2779, 2181, 3362, 2740, 882
2780, 3362, 2957, 883, 2740
2781, 2270, 880, 2957, 3362
2782, 1947, 275, 465, 2520
2783, 732, 1706, 3164, 3555
2784, 915, 773, 2718, 3549
2785, 778, 3455, 746, 1854
2786, 3026, 1805, 632, 3373
2787, 2783, 2552, 368, 372
2788, 3027, 3450, 2243, 2596
2789, 996, 357, 383, 3047
2790, 3468, 857, 2733, 893
2791, 3246, 3365, 2914, 902
2792, 3365, 2794, 901, 2914
2793, 3229, 897, 2794, 3365
2794, 2800, 2801, 1923, 3138
2795, 2040, 1810, 1575, 1385
2796, 1620, 1621, 2175, 2176
2797, 2464, 3243, 3137, 576
2798, 1006, 2569, 992, 2266
2799, 3160, 2135, 3355, 636
2800, 3367, 1771, 991, 1004
2801, 2287, 2207, 2827, 3368
2802, 2894, 3352, 3556, 3096
2803, 2893, 2056, 2286, 3043
2804, 856, 2732, 3369, 2870
2805, 3500, 2354, 2355, 3499
2806, 1055, 3274, 3370, 3316
2807, 3316, 3370, 2735, 1107
2808, 3370, 2691, 1108, 2735
2809, 3387, 2682, 3275, 2724
2810, 3071, 2881, 1020, 2880
2811, 2813, 938, 934, 1218
2812, 1282, 355, 385, 624
2813, 3083, 1003, 1786, 3306
2814, 629, 2289, 2242, 637
2815, 1680, 3353, 3258, 1500
2816, 1526, 1038, 1681, 3111
2817, 2384, 2782, 1428, 3131
2818, 1087, 2765, 3374, 2581
2819, 2581, 3374, 3211, 1083
2820, 3374, 3008, 1064, 3211
2821, 2765, 1067, 3008, 3374
2822, 2005, 628, 1038, 1526
2823, 3473, 997, 1884, 2974
2824, 3373, 632, 3356, 2186
2825, 720, 2457, 451, 290
2826, 659, 2522, 454, 287
2827, 2726, 2969, 667, 671
2828, 2969, 3103, 655, 667
2829, 1113, 2311, 3376, 2624
2830, 2624, 3376, 3281, 1105
2831, 3376, 3232, 1183, 3281
2832, 2311, 1112, 3232, 3376
2833, 1330, 2573, 509, 232
2834, 2213, 850, 1668, 820
2835, 3526, 3219, 1584, 3525
2836, 1711, 2657, 1785, 848
2837, 2423, 2673, 1033, 3259
2838, 1379, 1450, 2429, 3109
2839, 1720, 2511, 565, 176
2840, 1808, 2154, 308, 432
2841, 2170, 1656, 699, 3091
2842, 1383, 437, 304, 2999
2843, 3091, 699, 702, 1640
2844, 972, 2147, 957, 1872
2845, 3409, 1892, 1254, 2929
2846, 1254, 959, 956, 2587
2847, 1325, 1731, 3457, 1537
2848, 1784, 3536, 1710, 826
2849, 3088, 1233, 1804, 2442
2850, 3067, 828, 1336, 3393
2851, 1433, 2543, 815, 812
2852, 3518, 2603, 1879, 3517
2853, 3262, 1586, 1996, 2698
2854, 1996, 3146, 3512, 3511
2855, 800, 3174, 3383, 3314
2856, 3314, 3383, 2774, 795
2857, 3396, 898, 3246, 902
2858, 3360, 1350, 898, 3396
2859, 1127, 3100, 3384, 2912
2860, 2912, 3384, 2267, 1128
2861, 3384, 2128, 1126, 2267
2862, 3100, 1125, 2128, 3384
2863, 2344, 943, 1220, 1940
2864, 936, 349, 391, 1481
2865, 2755, 3489, 1275, 631
2866, 3387, 2685, 2796, 2682
2867, 1491, 1051, 3321, 3322
2868, 2682, 1222, 3274, 3275
2869, 1041, 1226, 3388, 1224
2870, 1224, 3388, 1225, 1046
2871, 1226, 1089, 1225, 3388
2872, 2553, 1022, 2663, 3350
2873, 2090, 1267, 3371, 2882
2874, 1348, 1649, 1648, 3425
2875, 3407, 2059, 101, 111
2876, 2059, 2058, 110, 101
2877, 2086, 1481, 2756, 3386
2878, 2580, 2493, 2539, 1015
2879, 1331, 515, 226, 1997
2880, 3419, 29, 34, 1666
2881, 731, 276, 464, 1945
2882, 2565, 3363, 746, 3455
2883, 904, 1240, 3391, 1238
2884, 1238, 3391, 1239, 901
2885, 1240, 907, 1239, 3391
2886, 3412, 966, 1724, 1305
2887, 3392, 3139, 3338, 1241
2888, 1532, 1391, 3192, 2148
2889, 2019, 3501, 3500, 1585
2890, 609, 3381, 2393, 2603
2891, 1082, 1247, 3394, 1245
2892, 1245, 3394, 1246, 1077
2893, 1247, 1088, 1246, 3394
2894, 2838, 3069, 2701, 3153
2895, 1946, 2951, 2709, 3494
2896, 2729, 720, 290, 450
2897, 2558, 2872, 2045, 1405
2898, 2653, 398, 343, 2814
2899, 1537, 3457, 1535, 1315
2900, 2886, 3174, 3175, 3239
2901, 3170, 804, 2715, 1351
2902, 3360, 1349, 1255, 3247
2903, 2049, 619, 421, 320
2904, 1257, 1288, 1587, 961
2905, 1288, 2454, 2060, 1587
2906, 1824, 1678, 2110, 2108
2907, 596, 1676, 2080, 698
2908, 1210, 1263, 3399, 1261
2909, 1261, 3399, 1262, 1059
2910, 1263, 1211, 1262, 3399
2911, 3086, 268, 472, 2084
2912, 770, 2640, 2681, 2797
2913, 3447, 915, 3549, 1386
2914, 938, 2036, 2222, 934
2915, 616, 987, 3217, 2589
2916, 900, 1270, 3401, 1268
2917, 1268, 3401, 1269, 801
2918, 1270, 908, 1269, 3401
2919, 1042, 1273, 3402, 1271
2920, 1271, 3402, 1272, 1019
2921, 1273, 1045, 1272, 3402
2922, 78, 1219, 3389, 90
2923, 933, 922, 3358, 2150
2924, 2539, 2034, 2089, 931
2925, 1654, 2648, 3343, 1357
2926, 3248, 2856, 240, 500
2927, 3202, 2047, 3050, 686
2928, 2045, 3113, 2125, 2101
2929, 2100, 1746, 441, 300
2930, 3400, 3263, 3077, 929
2931, 933, 2150, 623, 2540
2932, 3136, 80, 93, 946
2933, 671, 141, 128, 2557
2934, 3103, 3458, 2144, 655
2935, 1219, 945, 3313, 3389
2936, 2223, 3490, 3125, 2261
2937, 1180, 1287, 3406, 1285
2938, 1285, 3406, 1286, 1215
2939, 1287, 1216, 1286, 3406
2940, 2048, 1866, 619, 2049
2941, 960, 3407, 111, 102
2942, 2048, 1257, 3407, 960
2943, 1148, 1292, 3408, 1290
2944, 1290, 3408, 1291, 1146
2945, 1292, 1150, 1291, 3408
2946, 3193, 333, 407, 3102
2947, 2860, 1760, 341, 399
2948, 2653, 3205, 342, 398
2949, 1063, 1297, 3410, 1295
2950, 1295, 3410, 1296, 1064
2951, 1297, 1088, 1296, 3410
2952, 657, 2577, 664, 2269
2953, 3165, 1328, 2145, 1980
2954, 2505, 1299, 291, 449
2955, 798, 1303, 3411, 1301
2956, 1301, 3411, 1302, 794
2957, 1303, 799, 1302, 3411
2958, 1453, 1393, 980, 2192
2959, 970, 2807, 2809, 3412
2960, 1392, 964, 1304, 2808
2961, 968, 1392, 2808, 3328
2962, 1306, 970, 3412, 1305
2963, 418, 323, 1312, 962
2964, 3561, 113, 104, 1649
2965, 619, 1864, 319, 421
2966, 2147, 1599, 1294, 3302
2967, 982, 1990, 1988, 3139
2968, 979, 1390, 974, 1987
2969, 585, 1318, 3414, 1316
2970, 1316, 3414, 1317, 1171
2971, 1318, 1175, 1317, 3414
2972, 1056, 1321, 3415, 1319
2973, 1319, 3415, 1320, 1057
2974, 1321, 1215, 1320, 3415
2975, 2284, 2505, 449, 292
2976, 671, 667, 127, 141
2977, 3559, 1536, 1323, 2903
2978, 1760, 949, 400, 341
2979, 2471, 1281, 713, 673
2980, 719, 2471, 673, 1899
2981, 860, 3499, 3498, 1365
2982, 1333, 3479, 1517, 3545
2983, 3479, 1370, 1152, 1517
2984, 1440, 3432, 1466, 1163
2985, 610, 1337, 3421, 1335
2986, 1335, 3421, 1336, 828
2987, 1337, 829, 1336, 3421
2988, 2758, 478, 263, 3044
2989, 3485, 2266, 371, 166
2990, 1738, 1021, 2881, 3071
2991, 939, 931, 986, 616
2992, 645, 1343, 3423, 1341
2993, 1341, 3423, 1342, 1172
2994, 1343, 1173, 1342, 3423
2995, 1143, 1346, 3424, 1344
2996, 1344, 3424, 1345, 1141
2997, 1346, 1144, 1345, 3424
2998, 697, 3303, 694, 1823
2999, 2886, 3169, 3383, 3174
3000, 3396, 902, 2888, 899
3001, 3360, 3170, 1351, 1350
3002, 1206, 1354, 3426, 1352
3003, 1352, 3426, 1353, 647
3004, 1354, 1207, 1353, 3426
3005, 2803, 847, 1905, 843
3006, 2867, 2934, 1665, 2362
3007, 1214, 1360, 3428, 1358
3008, 1358, 3428, 1359, 1212
3009, 1360, 1217, 1359, 3428
3010, 1827, 617, 95, 83
3011, 951, 976, 3563, 973
3012, 2933, 1308, 3173, 3341
3013, 1131, 1364, 3430, 1362
3014, 1362, 3430, 1363, 1132
3015, 1364, 1135, 1363, 3430
3016, 1438, 2919, 3324, 894
3017, 884, 2918, 2917, 2919
3018, 2647, 1276, 833, 2918
3019, 847, 785, 2304, 1905
3020, 1586, 3453, 3146, 1996
3021, 1802, 1441, 822, 1160
3022, 3546, 1912, 1914, 1913
3023, 1136, 1375, 3433, 1373
3024, 1373, 3433, 1374, 1133
3025, 1375, 1137, 1374, 3433
3026, 1124, 1378, 3434, 1376
3027, 1376, 3434, 1377, 1123
3028, 1378, 1192, 1377, 3434
3029, 2433, 1778, 2516, 3462
3030, 3259, 1033, 2008, 1093
3031, 1033, 2674, 1720, 2008
3032, 949, 2811, 340, 400
3033, 1597, 3562, 622, 1515
3034, 3058, 3380, 1761, 2859
3035, 703, 2169, 3107, 3108
3036, 1618, 1929, 2375, 1657
3037, 689, 3092, 2467, 2612
3038, 1339, 729, 768, 2610
3039, 729, 272, 468, 768
3040, 2062, 3245, 775, 2710
3041, 3437, 1533, 1391, 1532
3042, 3437, 1532, 1324, 953
3043, 3437, 979, 1987, 1533
3044, 3301, 3172, 3437, 953
3045, 2933, 584, 2050, 2232
3046, 3172, 967, 979, 3437
3047, 1133, 1396, 3438, 1394
3048, 1394, 3438, 1395, 1132
3049, 1396, 1201, 1395, 3438
3050, 2144, 590, 139, 126
3051, 656, 2294, 3151, 1768
3052, 1978, 588, 2577, 657
3053, 1900, 3208, 2727, 2273
3054, 1187, 1404, 3441, 1402
3055, 1402, 3441, 1403, 1186
3056, 1404, 1188, 1403, 3441
3057, 594, 305, 435, 2041
3058, 681, 687, 1407, 1964
3059, 135, 122, 591, 2126
3060, 3534, 3533, 3442, 2416
3061, 668, 2752, 2208, 718
3062, 2727, 1511, 1300, 714
3063, 781, 1412, 3444, 1410
3064, 1410, 3444, 1411, 765
3065, 1412, 782, 1411, 3444
3066, 894, 3324, 895, 2600
3067, 1413, 3445, 1414, 887
3068, 1415, 888, 1414, 3445
3069, 1202, 1418, 3446, 1416
3070, 1416, 3446, 1417, 1200
3071, 1418, 1203, 1417, 3446
3072, 2609, 3278, 2710, 1490
3073, 1176, 1423, 3448, 1421
3074, 1421, 3448, 1422, 1150
3075, 1423, 1177, 1422, 3448
3076, 1190, 1426, 3449, 1424
3077, 1424, 3449, 1425, 1189
3078, 1426, 1191, 1425, 3449
3079, 3061, 2906, 634, 3364
3080, 3283, 2596, 2569, 1006
3081, 1193, 1432, 3451, 1430
3082, 1430, 3451, 1431, 1194
3083, 1432, 1195, 1431, 3451
3084, 1466, 3145, 818, 1709
3085, 1716, 2019, 1585, 1783
3086, 2155, 1619, 1926, 3379
3087, 2377, 1384, 2799, 1573
3088, 690, 1509, 3477, 1510
3089, 2919, 2917, 870, 3324
3090, 3073, 1893, 3168, 1614
3091, 3266, 3216, 1476, 837
3092, 1994, 2010, 1153, 1442
3093, 1442, 1153, 2013, 1984
3094, 1519, 1518, 1169, 1334
3095, 2894, 1478, 2815, 3352
3096, 1838, 1904, 915, 3447
3097, 2083, 1839, 269, 471
3098, 1904, 1494, 773, 915
3099, 745, 3557, 3549, 2718
3100, 2431, 3185, 3121, 3081
3101, 1722, 3462, 1246, 1088
3102, 1692, 1099, 1090, 3120
3103, 977, 3429, 1892, 3409
3104, 1532, 2148, 1451, 1324
3105, 2475, 675, 666, 670
3106, 3416, 658, 452, 289
3107, 1770, 674, 1790, 1252
3108, 1069, 1456, 3459, 1454
3109, 1454, 3459, 1455, 1066
3110, 1456, 1073, 1455, 3459
3111, 2709, 3227, 2534, 1249
3112, 1459, 2564, 3422, 2619
3113, 2095, 2978, 774, 1236
3114, 2062, 3299, 766, 3245
3115, 1096, 2448, 2846, 1102
3116, 1786, 2553, 3098, 1036
3117, 3099, 1717, 3110, 2863
3118, 1772, 1527, 1008, 2440
3119, 1798, 1484, 998, 2861
3120, 2484, 1093, 177, 563
3121, 1467, 861, 1162, 1441
3122, 1163, 1466, 1709, 861
3123, 3432, 1161, 3145, 1466
3124, 1616, 458, 283, 1850
3125, 2455, 1487, 727, 2285
3126, 1055, 1474, 3466, 1472
3127, 1472, 3466, 1473, 1056
3128, 1474, 1213, 1473, 3466
3129, 2820, 1614, 2716, 2936
3130, 1664, 835, 838, 1475
3131, 868, 2869, 2675, 1277
3132, 877, 2361, 2453, 841
3133, 2360, 2850, 2717, 2714
3134, 1264, 3228, 2564, 1459
3135, 3299, 744, 767, 766
3136, 2896, 266, 474, 750
3137, 859, 2742, 2857, 3403
3138, 2296, 842, 831, 3333
3139, 885, 1438, 2934, 2867
3140, 2493, 927, 2034, 2539
3141, 623, 3491, 625, 2347
3142, 3456, 1718, 2481, 1010
3143, 1500, 3258, 3117, 1641
3144, 1003, 1022, 2553, 1786
3145, 662, 1489, 3470, 1487
3146, 1487, 3470, 1488, 727
3147, 1489, 734, 1488, 3470
3148, 1821, 3190, 3221, 1248
3149, 2622, 1237, 761, 2942
3150, 2827, 1446, 3086, 2282
3151, 3387, 1492, 2686, 2685
3152, 1492, 3471, 2684, 2686
3153, 1478, 3447, 1386, 2977
3154, 3354, 748, 742, 1338
3155, 999, 1005, 2189, 1496
3156, 985, 1016, 360, 380
3157, 2688, 3027, 2596, 3283
3158, 1057, 1499, 3474, 1497
3159, 1052, 3224, 3223, 1051
3160, 1499, 1058, 1498, 3474
3161, 994, 2967, 1749, 997
3162, 636, 3355, 1806, 3059
3163, 2968, 1284, 2331, 1738
3164, 2771, 1816, 3246, 898
3165, 2297, 2279, 2359, 846
3166, 1198, 1507, 3476, 1505
3167, 1505, 3476, 1506, 1199
3168, 1507, 1200, 1506, 3476
3169, 680, 1510, 3477, 1508
3170, 1508, 3477, 1509, 681
3171, 1575, 1808, 432, 309
3172, 2145, 670, 2729, 1299
3173, 2257, 2942, 761, 1457
3174, 2654, 396, 345, 3327
3175, 90, 3389, 3072, 77
3176, 3325, 2890, 1170, 1468
3177, 1517, 1152, 1334, 3420
3178, 1370, 1519, 1334, 1152
3179, 1127, 1522, 3480, 1520
3180, 1520, 3480, 1521, 1192
3181, 1522, 1196, 1521, 3480
3182, 1585, 3500, 3499, 860
3183, 811, 1524, 3505, 3506
3184, 998, 1002, 3130, 1527
3185, 3353, 2861, 1772, 3258
3186, 1482, 1012, 2967, 994
3187, 77, 3072, 1860, 89
3188, 121, 135, 2126, 3404
3189, 576, 2999, 1922, 3366
3190, 3284, 2187, 1501, 3450
3191, 1008, 635, 573, 168
3192, 2716, 2647, 2918, 884
3193, 1277, 2675, 2677, 2676
3194, 2170, 3091, 2801, 2800
3195, 3488, 2170, 2800, 708
3196, 3418, 933, 2540, 1013
3197, 2756, 350, 390, 2594
3198, 3358, 2911, 2713, 2405
3199, 2188, 1607, 2384, 3367
3200, 1012, 2345, 2385, 2967
3201, 2713, 932, 3078, 3489
3202, 1388, 3068, 3070, 3395
3203, 3537, 610, 2152, 575
3204, 3538, 3537, 575, 1673
3205, 3539, 3538, 1673, 2020
3206, 3540, 3539, 2020, 1877
3207, 3544, 3540, 1877, 3524
3208, 2021, 3536, 1784, 3241
3209, 1155, 2021, 3241, 2574
3210, 2699, 1155, 2574, 3003
3211, 1981, 2699, 3003, 1244
3212, 3018, 1981, 1244, 2935
3213, 3334, 3018, 2935, 2852
3214, 1878, 3334, 2852, 829
3215, 1408, 1878, 829, 1337
3216, 3537, 1408, 1337, 610
3217, 3304, 3535, 3536, 2021
3218, 1712, 3304, 2021, 1155
3219, 1811, 1712, 1155, 2699
3220, 3157, 1811, 2699, 1981
3221, 832, 3157, 1981, 3018
3222, 3002, 832, 3018, 3334
3223, 2656, 3002, 3334, 1878
3224, 3382, 2656, 1878, 1408
3225, 3538, 3382, 1408, 3537
3226, 2356, 3534, 3535, 3304
3227, 2444, 2356, 3304, 1712
3228, 2991, 2444, 1712, 1811
3229, 3292, 2991, 1811, 3157
3230, 2004, 3292, 3157, 832
3231, 854, 2004, 832, 3002
3232, 810, 854, 3002, 2656
3233, 825, 810, 2656, 3382
3234, 3539, 825, 3382, 3538
3235, 3066, 3533, 3534, 2356
3236, 1801, 3066, 2356, 2444
3237, 849, 1801, 2444, 2991
3238, 3293, 849, 2991, 3292
3239, 1995, 3293, 3292, 2004
3240, 3182, 1995, 2004, 854
3241, 2537, 3182, 854, 810
3242, 2417, 2537, 810, 825
3243, 3540, 2417, 825, 3539
3244, 3525, 3543, 3533, 3066
3245, 3526, 3525, 3066, 1801
3246, 3527, 3526, 1801, 849
3247, 3528, 3527, 849, 3293
3248, 3529, 3528, 3293, 1995
3249, 3530, 3529, 1995, 3182
3250, 3531, 3530, 3182, 2537
3251, 3532, 3531, 2537, 2417
3252, 3544, 3532, 2417, 3540
3253, 1333, 3545, 1154, 3346
3254, 3546, 1333, 3346, 1912
3255, 1443, 1776, 3095, 2055
3256, 744, 2719, 2621, 1477
3257, 2057, 2826, 2609, 1490
3258, 3550, 910, 1479, 2944
3259, 3551, 3550, 2944, 2977
3260, 3552, 3551, 2977, 1386
3261, 3557, 3552, 1386, 3549
3262, 3550, 3237, 2670, 910
3263, 3551, 2981, 3237, 3550
3264, 3552, 2982, 2981, 3551
3265, 3557, 2979, 2982, 3552
3266, 3553, 3153, 2703, 2702
3267, 3554, 3553, 2702, 3031
3268, 3557, 3554, 3031, 2979
3269, 2930, 1828, 976, 951
3270, 2588, 955, 948, 1767
3271, 2841, 2587, 955, 2588
3272, 1309, 621, 963, 1915
3273, 961, 620, 2058, 2059
3274, 962, 1312, 2160, 2159
3275, 1294, 3339, 1637, 1600
3276, 2903, 1323, 1451, 3562
*ELSET,ELSET=contact_source
143, 144, 145, 146, 147, 148, 149, 150, 151, 152, 
153, 154, 155, 156, 157, 158, 159, 160, 161, 162, 
163, 164, 
*ELSET,ELSET=contact_drain
47, 48, 49, 50, 51, 52, 53, 54, 55, 56, 
57, 58, 59, 60, 61, 62, 63, 64, 65, 66, 
67, 68, 
*ELSET,ELSET=probe_A
95, 96, 97, 98, 99, 100, 101, 102, 103, 104, 
105, 106, 107, 108, 109, 110, 111, 112, 113, 114, 
*ELSET,ELSET=probe_B
19, 20, 21, 22, 23, 24, 25, 26, 27, 28, 
*ELSET,ELSET=walls
1, 2, 3, 4, 5, 6, 7, 8, 9, 10, 
11, 12, 13, 14, 15, 16, 17, 18, 29, 30, 
31, 32, 33, 34, 35, 36, 37, 38, 39, 40, 
41, 42, 43, 44, 45, 46, 69, 70, 71, 72, 
73, 74, 75, 76, 77, 78, 79, 80, 81, 82, 
83, 84, 85, 86, 87, 88, 89, 90, 91, 92, 
93, 94, 115, 116, 117, 118, 119, 120, 121, 122, 
123, 124, 125, 126, 127, 128, 129, 130, 131, 132, 
133, 134, 135, 136, 137, 138, 139, 140, 141, 142, 
165, 166, 167, 168, 169, 170, 171, 172, 173, 174, 
175, 176, 177, 178, 179, 180, 181, 182, 183, 184, 
185, 186, 187, 188, 189, 190, 191, 192, 193, 194, 
195, 196, 197, 198, 199, 200, 201, 202, 203, 204, 
205, 206, 207, 208, 209, 210, 211, 212, 213, 214, 
215, 216, 217, 218, 219, 220, 221, 222, 223, 224, 
225, 226, 227, 228, 229, 230, 231, 232, 233, 234, 
235, 236, 237, 238, 239, 240, 241, 242, 243, 244, 
245, 246, 247, 248, 249, 250, 251, 252, 253, 254, 
255, 256, 257, 258, 259, 260, 261, 262, 263, 264, 
265, 266, 267, 268, 269, 270, 271, 272, 273, 274, 
275, 276, 277, 278, 279, 280, 281, 282, 283, 284, 
285, 286, 287, 288, 289, 290, 291, 292, 293, 294, 
295, 296, 297, 298, 299, 300, 301, 302, 303, 304, 
305, 306, 307, 308, 309, 310, 311, 312, 313, 314, 
315, 316, 317, 318, 319, 320, 321, 322, 323, 324, 
325, 326, 327, 328, 329, 330, 331, 332, 333, 334, 
335, 336, 337, 338, 339, 340, 341, 342, 343, 344, 
345, 346, 347, 348, 349, 350, 351, 352, 353, 354, 
355, 356, 357, 358, 359, 360, 361, 362, 363, 364, 
365, 366, 367, 368, 369, 370, 371, 372, 373, 374, 
375, 376, 377, 378, 379, 380, 381, 382, 383, 384, 
385, 386, 387, 388, 389, 390, 391, 392, 393, 394, 
395, 396, 397, 398, 399, 400, 401, 402, 403, 404, 
405, 406, 407, 408, 409, 410, 411, 412, 413, 414, 
415, 416, 417, 418, 419, 420, 421, 422, 423, 424, 
425, 426, 427, 428, 429, 430, 431, 432, 433, 434, 
435, 436, 437, 438, 439, 440, 441, 442, 443, 444, 
445, 446, 447, 448, 449, 450, 451, 452, 453, 454, 
455, 456, 457, 458, 459, 460, 461, 462, 463, 464, 
465, 466, 467, 468, 469, 470, 471, 472, 473, 474, 
475, 476, 477, 478, 479, 480, 481, 482, 483, 484, 
485, 486, 487, 488, 489, 490, 491, 492, 493, 494, 
495, 496, 497, 498, 499, 500, 501, 502, 503, 504, 
505, 506, 507, 508, 509, 510, 511, 512, 513, 514, 
515, 516, 517, 518, 519, 520, 521, 522, 523, 524, 
525, 526, 527, 528, 529, 530, 531, 532, 533, 534, 
535, 536, 537, 538, 539, 540, 541, 542, 543, 544, 
545, 546, 547, 548, 549, 550, 551, 552, 553, 554, 
555, 556, 557, 558, 559, 560, 561, 562, 563, 564, 
565, 566, 567, 568, 569, 570, 571, 572, 573, 574, 
*ELSET,ELSET=domain
575, 576, 577, 578, 579, 580, 581, 582, 583, 584, 
585, 586, 587, 588, 589, 590, 591, 592, 593, 594, 
595, 596, 597, 598, 599, 600, 601, 602, 603, 604, 
605, 606, 607, 608, 609, 610, 611, 612, 613, 614, 
615, 616, 617, 618, 619, 620, 621, 622, 623, 624, 
625, 626, 627, 628, 629, 630, 631, 632, 633, 634, 
635, 636, 637, 638, 639, 640, 641, 642, 643, 644, 
645, 646, 647, 648, 649, 650, 651, 652, 653, 654, 
655, 656, 657, 658, 659, 660, 661, 662, 663, 664, 
665, 666, 667, 668, 669, 670, 671, 672, 673, 674, 
675, 676, 677, 678, 679, 680, 681, 682, 683, 684, 
685, 686, 687, 688, 689, 690, 691, 692, 693, 694, 
695, 696, 697, 698, 699, 700, 701, 702, 703, 704, 
705, 706, 707, 708, 709, 710, 711, 712, 713, 714, 
715, 716, 717, 718, 719, 720, 721, 722, 723, 724, 
725, 726, 727, 728, 729, 730, 731, 732, 733, 734, 
735, 736, 737, 738, 739, 740, 741, 742, 743, 744, 
745, 746, 747, 748, 749, 750, 751, 752, 753, 754, 
755, 756, 757, 758, 759, 760, 761, 762, 763, 764, 
765, 766, 767, 768, 769, 770, 771, 772, 773, 774, 
775, 776, 777, 778, 779, 780, 781, 782, 783, 784, 
785, 786, 787, 788, 789, 790, 791, 792, 793, 794, 
795, 796, 797, 798, 799, 800, 801, 802, 803, 804, 
805, 806, 807, 808, 809, 810, 811, 812, 813, 814, 
815, 816, 817, 818, 819, 820, 821, 822, 823, 824, 
825, 826, 827, 828, 829, 830, 831, 832, 833, 834, 
835, 836, 837, 838, 839, 840, 841, 842, 843, 844, 
845, 846, 847, 848, 849, 850, 851, 852, 853, 854, 
855, 856, 857, 858, 859, 860, 861, 862, 863, 864, 
865, 866, 867, 868, 869, 870, 871, 872, 873, 874, 
875, 876, 877, 878, 879, 880, 881, 882, 883, 884, 
885, 886, 887, 888, 889, 890, 891, 892, 893, 894, 
895, 896, 897, 898, 899, 900, 901, 902, 903, 904, 
905, 906, 907, 908, 909, 910, 911, 912, 913, 914, 
915, 916, 917, 918, 919, 920, 921, 922, 923, 924, 
925, 926, 927, 928, 929, 930, 931, 932, 933, 934, 
935, 936, 937, 938, 939, 940, 941, 942, 943, 944, 
945, 946, 947, 948, 949, 950, 951, 952, 953, 954, 
955, 956, 957, 958, 959, 960, 961, 962, 963, 964, 
965, 966, 967, 968, 969, 970, 971, 972, 973, 974, 
975, 976, 977, 978, 979, 980, 981, 982, 983, 984, 
985, 986, 987, 988, 989, 990, 991, 992, 993, 994, 
995, 996, 997, 998, 999, 1000, 1001, 1002, 1003, 1004, 
1005, 1006, 1007, 1008, 1009, 1010, 1011, 1012, 1013, 1014, 
1015, 1016, 1017, 1018, 1019, 1020, 1021, 1022, 1023, 1024, 
1025, 1026, 1027, 1028, 1029, 1030, 1031, 1032, 1033, 1034, 
1035, 1036, 1037, 1038, 1039, 1040, 1041, 1042, 1043, 1044, 
1045, 1046, 1047, 1048, 1049, 1050, 1051, 1052, 1053, 1054, 
1055, 1056, 1057, 1058, 1059, 1060, 1061, 1062, 1063, 1064, 
1065, 1066, 1067, 1068, 1069, 1070, 1071, 1072, 1073, 1074, 
1075, 1076, 1077, 1078, 1079, 1080, 1081, 1082, 1083, 1084, 
1085, 1086, 1087, 1088, 1089, 1090, 1091, 1092, 1093, 1094, 
1095, 1096, 1097, 1098, 1099, 1100, 1101, 1102, 1103, 1104, 
1105, 1106, 1107, 1108, 1109, 1110, 1111, 1112, 1113, 1114, 
1115, 1116, 1117, 1118, 1119, 1120, 1121, 1122, 1123, 1124, 
1125, 1126, 1127, 1128, 1129, 1130, 1131, 1132, 1133, 1134, 
1135, 1136, 1137, 1138, 1139, 1140, 1141, 1142, 1143, 1144, 
1145, 1146, 1147, 1148, 1149, 1150, 1151, 1152, 1153, 1154, 
1155, 1156, 1157, 1158, 1159, 1160, 1161, 1162, 1163, 1164, 
1165, 1166, 1167, 1168, 1169, 1170, 1171, 1172, 1173, 1174, 
1175, 1176, 1177, 1178, 1179, 1180, 1181, 1182, 1183, 1184, 
1185, 1186, 1187, 1188, 1189, 1190, 1191, 1192, 1193, 1194, 
1195, 1196, 1197, 1198, 1199, 1200, 1201, 1202, 1203, 1204, 
1205, 1206, 1207, 1208, 1209, 1210, 1211, 1212, 1213, 1214, 
1215, 1216, 1217, 1218, 1219, 1220, 1221, 1222, 1223, 1224, 
1225, 1226, 1227, 1228, 1229, 1230, 1231, 1232, 1233, 1234, 
1235, 1236, 1237, 1238, 1239, 1240, 1241, 1242, 1243, 1244, 
1245, 1246, 1247, 1248, 1249, 1250, 1251, 1252, 1253, 1254, 
1255, 1256, 1257, 1258, 1259, 1260, 1261, 1262, 1263, 1264, 
1265, 1266, 1267, 1268, 1269, 1270, 1271, 1272, 1273, 1274, 
1275, 1276, 1277, 1278, 1279, 1280, 1281, 1282, 1283, 1284, 
1285, 1286, 1287, 1288, 1289, 1290, 1291, 1292, 1293, 1294, 
1295, 1296, 1297, 1298, 1299, 1300, 1301, 1302, 1303, 1304, 
1305, 1306, 1307, 1308, 1309, 1310, 1311, 1312, 1313, 1314, 
1315, 1316, 1317, 1318, 1319, 1320, 1321, 1322, 1323, 1324, 
1325, 1326, 1327, 1328, 1329, 1330, 1331, 1332, 1333, 1334, 
1335, 1336, 1337, 1338, 1339, 1340, 1341, 1342, 1343, 1344, 
1345, 1346, 1347, 1348, 1349, 1350, 1351, 1352, 1353, 1354, 
1355, 1356, 1357, 1358, 1359, 1360, 1361, 1362, 1363, 1364, 
1365, 1366, 1367, 1368, 1369, 1370, 1371, 1372, 1373, 1374, 
1375, 1376, 1377, 1378, 1379, 1380, 1381, 1382, 1383, 1384, 
1385, 1386, 1387, 1388, 1389, 1390, 1391, 1392, 1393, 1394, 
1395, 1396, 1397, 1398, 1399, 1400, 1401, 1402, 1403, 1404, 
1405, 1406, 1407, 1408, 1409, 1410, 1411, 1412, 1413, 1414, 
1415, 1416, 1417, 1418, 1419, 1420, 1421, 1422, 1423, 1424, 
1425, 1426, 1427, 1428, 1429, 1430, 1431, 1432, 1433, 1434, 
1435, 1436, 1437, 1438, 1439, 1440, 1441, 1442, 1443, 1444, 
1445, 1446, 1447, 1448, 1449, 1450, 1451, 1452, 1453, 1454, 
1455, 1456, 1457, 1458, 1459, 1460, 1461, 1462, 1463, 1464, 
1465, 1466, 1467, 1468, 1469, 1470, 1471, 1472, 1473, 1474, 
1475, 1476, 1477, 1478, 1479, 1480, 1481, 1482, 1483, 1484, 
1485, 1486, 1487, 1488, 1489, 1490, 1491, 1492, 1493, 1494, 
1495, 1496, 1497, 1498, 1499, 1500, 1501, 1502, 1503, 1504, 
1505, 1506, 1507, 1508, 1509, 1510, 1511, 1512, 1513, 1514, 
1515, 1516, 1517, 1518, 1519, 1520, 1521, 1522, 1523, 1524, 
1525, 1526, 1527, 1528, 1529, 1530, 1531, 1532, 1533, 1534, 
1535, 1536, 1537, 1538, 1539, 1540, 1541, 1542, 1543, 1544, 
1545, 1546, 1547, 1548, 1549, 1550, 1551, 1552, 1553, 1554, 
1555, 1556, 1557, 1558, 1559, 1560, 1561, 1562, 1563, 1564, 
1565, 1566, 1567, 1568, 1569, 1570, 1571, 1572, 1573, 1574, 
1575, 1576, 1577, 1578, 1579, 1580, 1581, 1582, 1583, 1584, 
1585, 1586, 1587, 1588, 1589, 1590, 1591, 1592, 1593, 1594, 
1595, 1596, 1597, 1598, 1599, 1600, 1601, 1602, 1603, 1604, 
1605, 1606, 1607, 1608, 1609, 1610, 1611, 1612, 1613, 1614, 
1615, 1616, 1617, 1618, 1619, 1620, 1621, 1622, 1623, 1624, 
1625, 1626, 1627, 1628, 1629, 1630, 1631, 1632, 1633, 1634, 
1635, 1636, 1637, 1638, 1639, 1640, 1641, 1642, 1643, 1644, 
1645, 1646, 1647, 1648, 1649, 1650, 1651, 1652, 1653, 1654, 
1655, 1656, 1657, 1658, 1659, 1660, 1661, 1662, 1663, 1664, 
1665, 1666, 1667, 1668, 1669, 1670, 1671, 1672, 1673, 1674, 
1675, 1676, 1677, 1678, 1679, 1680, 1681, 1682, 1683, 1684, 
1685, 1686, 1687, 1688, 1689, 1690, 1691, 1692, 1693, 1694, 
1695, 1696, 1697, 1698, 1699, 1700, 1701, 1702, 1703, 1704, 
1705, 1706, 1707, 1708, 1709, 1710, 1711, 1712, 1713, 1714, 
1715, 1716, 1717, 1718, 1719, 1720, 1721, 1722, 1723, 1724, 
1725, 1726, 1727, 1728, 1729, 1730, 1731, 1732, 1733, 1734, 
1735, 1736, 1737, 1738, 1739, 1740, 1741, 1742, 1743, 1744, 
1745, 1746, 1747, 1748, 1749, 1750, 1751, 1752, 1753, 1754, 
1755, 1756, 1757, 1758, 1759, 1760, 1761, 1762, 1763, 1764, 
1765, 1766, 1767, 1768, 1769, 1770, 1771, 1772, 1773, 1774, 
1775, 1776, 1777, 1778, 1779, 1780, 1781, 1782, 1783, 1784, 
1785, 1786, 1787, 1788, 1789, 1790, 1791, 1792, 1793, 1794, 
1795, 1796, 1797, 1798, 1799, 1800, 1801, 1802, 1803, 1804, 
1805, 1806, 1807, 1808, 1809, 1810, 1811, 1812, 1813, 1814, 
1815, 1816, 1817, 1818, 1819, 1820, 1821, 1822, 1823, 1824, 
1825, 1826, 1827, 1828, 1829, 1830, 1831, 1832, 1833, 1834, 
1835, 1836, 1837, 1838, 1839, 1840, 1841, 1842, 1843, 1844, 
1845, 1846, 1847, 1848, 1849, 1850, 1851, 1852, 1853, 1854, 
1855, 1856, 1857, 1858, 1859, 1860, 1861, 1862, 1863, 1864, 
1865, 1866, 1867, 1868, 1869, 1870, 1871, 1872, 1873, 1874, 
1875, 1876, 1877, 1878, 1879, 1880, 1881, 1882, 1883, 1884, 
1885, 1886, 1887, 1888, 1889, 1890, 1891, 1892, 1893, 1894, 
1895, 1896, 1897, 1898, 1899, 1900, 1901, 1902, 1903, 1904, 
1905, 1906, 1907, 1908, 1909, 1910, 1911, 1912, 1913, 1914, 
1915, 1916, 1917, 1918, 1919, 1920, 1921, 1922, 1923, 1924, 
1925, 1926, 1927, 1928, 1929, 1930, 1931, 1932, 1933, 1934, 
1935, 1936, 1937, 1938, 1939, 1940, 1941, 1942, 1943, 1944, 
1945, 1946, 1947, 1948, 1949, 1950, 1951, 1952, 1953, 1954, 
1955, 1956, 1957, 1958, 1959, 1960, 1961, 1962, 1963, 1964, 
1965, 1966, 1967, 1968, 1969, 1970, 1971, 1972, 1973, 1974, 
1975, 1976, 1977, 1978, 1979, 1980, 1981, 1982, 1983, 1984, 
1985, 1986, 1987, 1988, 1989, 1990, 1991, 1992, 1993, 1994, 
1995, 1996, 1997, 1998, 1999, 2000, 2001, 2002, 2003, 2004, 
2005, 2006, 2007, 2008, 2009, 2010, 2011, 2012, 2013, 2014, 
2015, 2016, 2017, 2018, 2019, 2020, 2021, 2022, 2023, 2024, 
2025, 2026, 2027, 2028, 2029, 2030, 2031, 2032, 2033, 2034, 
2035, 2036, 2037, 2038, 2039, 2040, 2041, 2042, 2043, 2044, 
2045, 2046, 2047, 2048, 2049, 2050, 2051, 2052, 2053, 2054, 
2055, 2056, 2057, 2058, 2059, 2060, 2061, 2062, 2063, 2064, 
2065, 2066, 2067, 2068, 2069, 2070, 2071, 2072, 2073, 2074, 
2075, 2076, 2077, 2078, 2079, 2080, 2081, 2082, 2083, 2084, 
2085, 2086, 2087, 2088, 2089, 2090, 2091, 2092, 2093, 2094, 
2095, 2096, 2097, 2098, 2099, 2100, 2101, 2102, 2103, 2104, 
2105, 2106, 2107, 2108, 2109, 2110, 2111, 2112, 2113, 2114, 
2115, 2116, 2117, 2118, 2119, 2120, 2121, 2122, 2123, 2124, 
2125, 2126, 2127, 2128, 2129, 2130, 2131, 2132, 2133, 2134, 
2135, 2136, 2137, 2138, 2139, 2140, 2141, 2142, 2143, 2144, 
2145, 2146, 2147, 2148, 2149, 2150, 2151, 2152, 2153, 2154, 
2155, 2156, 2157, 2158, 2159, 2160, 2161, 2162, 2163, 2164, 
2165, 2166, 2167, 2168, 2169, 2170, 2171, 2172, 2173, 2174, 
2175, 2176, 2177, 2178, 2179, 2180, 2181, 2182, 2183, 2184, 
2185, 2186, 2187, 2188, 2189, 2190, 2191, 2192, 2193, 2194, 
2195, 2196, 2197, 2198, 2199, 2200, 2201, 2202, 2203, 2204, 
2205, 2206, 2207, 2208, 2209, 2210, 2211, 2212, 2213, 2214, 
2215, 2216, 2217, 2218, 2219, 2220, 2221, 2222, 2223, 2224, 
2225, 2226, 2227, 2228, 2229, 2230, 2231, 2232, 2233, 2234, 
2235, 2236, 2237, 2238, 2239, 2240, 2241, 2242, 2243, 2244, 
2245, 2246, 2247, 2248, 2249, 2250, 2251, 2252, 2253, 2254, 
2255, 2256, 2257, 2258, 2259, 2260, 2261, 2262, 2263, 2264, 
2265, 2266, 2267, 2268, 2269, 2270, 2271, 2272, 2273, 2274, 
2275, 2276, 2277, 2278, 2279, 2280, 2281, 2282, 2283, 2284, 
2285, 2286, 2287, 2288, 2289, 2290, 2291, 2292, 2293, 2294, 
2295, 2296, 2297, 2298, 2299, 2300, 2301, 2302, 2303, 2304, 
2305, 2306, 2307, 2308, 2309, 2310, 2311, 2312, 2313, 2314, 
2315, 2316, 2317, 2318, 2319, 2320, 2321, 2322, 2323, 2324, 
2325, 2326, 2327, 2328, 2329, 2330, 2331, 2332, 2333, 2334, 
2335, 2336, 2337, 2338, 2339, 2340, 2341, 2342, 2343, 2344, 
2345, 2346, 2347, 2348, 2349, 2350, 2351, 2352, 2353, 2354, 
2355, 2356, 2357, 2358, 2359, 2360, 2361, 2362, 2363, 2364, 
2365, 2366, 2367, 2368, 2369, 2370, 2371, 2372, 2373, 2374, 
2375, 2376, 2377, 2378, 2379, 2380, 2381, 2382, 2383, 2384, 
2385, 2386, 2387, 2388, 2389, 2390, 2391, 2392, 2393, 2394, 
2395, 2396, 2397, 2398, 2399, 2400, 2401, 2402, 2403, 2404, 
2405, 2406, 2407, 2408, 2409, 2410, 2411, 2412, 2413, 2414, 
2415, 2416, 2417, 2418, 2419, 2420, 2421, 2422, 2423, 2424, 
2425, 2426, 2427, 2428, 2429, 2430, 2431, 2432, 2433, 2434, 
2435, 2436, 2437, 2438, 2439, 2440, 2441, 2442, 2443, 2444, 
2445, 2446, 2447, 2448, 2449, 2450, 2451, 2452, 2453, 2454, 
2455, 2456, 2457, 2458, 2459, 2460, 2461, 2462, 2463, 2464, 
2465, 2466, 2467, 2468, 2469, 2470, 2471, 2472, 2473, 2474, 
2475, 2476, 2477, 2478, 2479, 2480, 2481, 2482, 2483, 2484, 
2485, 2486, 2487, 2488, 2489, 2490, 2491, 2492, 2493, 2494, 
2495, 2496, 2497, 2498, 2499, 2500, 2501, 2502, 2503, 2504, 
2505, 2506, 2507, 2508, 2509, 2510, 2511, 2512, 2513, 2514, 
2515, 2516, 2517, 2518, 2519, 2520, 2521, 2522, 2523, 2524, 
2525, 2526, 2527, 2528, 2529, 2530, 2531, 2532, 2533, 2534, 
2535, 2536, 2537, 2538, 2539, 2540, 2541, 2542, 2543, 2544, 
2545, 2546, 2547, 2548, 2549, 2550, 2551, 2552, 2553, 2554, 
2555, 2556, 2557, 2558, 2559, 2560, 2561, 2562, 2563, 2564, 
2565, 2566, 2567, 2568, 2569, 2570, 2571, 2572, 2573, 2574, 
2575, 2576, 2577, 2578, 2579, 2580, 2581, 2582, 2583, 2584, 
2585, 2586, 2587, 2588, 2589, 2590, 2591, 2592, 2593, 2594, 
2595, 2596, 2597, 2598, 2599, 2600, 2601, 2602, 2603, 2604, 
2605, 2606, 2607, 2608, 2609, 2610, 2611, 2612, 2613, 2614, 
2615, 2616, 2617, 2618, 2619, 2620, 2621, 2622, 2623, 2624, 
2625, 2626, 2627, 2628, 2629, 2630, 2631, 2632, 2633, 2634, 
2635, 2636, 2637, 2638, 2639, 2640, 2641, 2642, 2643, 2644, 
2645, 2646, 2647, 2648, 2649, 2650, 2651, 2652, 2653, 2654, 
2655, 2656, 2657, 2658, 2659, 2660, 2661, 2662, 2663, 2664, 
2665, 2666, 2667, 2668, 2669, 2670, 2671, 2672, 2673, 2674, 
2675, 2676, 2677, 2678, 2679, 2680, 2681, 2682, 2683, 2684, 
2685, 2686, 2687, 2688, 2689, 2690, 2691, 2692, 2693, 2694, 
2695, 2696, 2697, 2698, 2699, 2700, 2701, 2702, 2703, 2704, 
2705, 2706, 2707, 2708, 2709, 2710, 2711, 2712, 2713, 2714, 
2715, 2716, 2717, 2718, 2719, 2720, 2721, 2722, 2723, 2724, 
2725, 2726, 2727, 2728, 2729, 2730, 2731, 2732, 2733, 2734, 
2735, 2736, 2737, 2738, 2739, 2740, 2741, 2742, 2743, 2744, 
2745, 2746, 2747, 2748, 2749, 2750, 2751, 2752, 2753, 2754, 
2755, 2756, 2757, 2758, 2759, 2760, 2761, 2762, 2763, 2764, 
2765, 2766, 2767, 2768, 2769, 2770, 2771, 2772, 2773, 2774, 
2775, 2776, 2777, 2778, 2779, 2780, 2781, 2782, 2783, 2784, 
2785, 2786, 2787, 2788, 2789, 2790, 2791, 2792, 2793, 2794, 
2795, 2796, 2797, 2798, 2799, 2800, 2801, 2802, 2803, 2804, 
2805, 2806, 2807, 2808, 2809, 2810, 2811, 2812, 2813, 2814, 
2815, 2816, 2817, 2818, 2819, 2820, 2821, 2822, 2823, 2824, 
2825, 2826, 2827, 2828, 2829, 2830, 2831, 2832, 2833, 2834, 
2835, 2836, 2837, 2838, 2839, 2840, 2841, 2842, 2843, 2844, 
2845, 2846, 2847, 2848, 2849, 2850, 2851, 2852, 2853, 2854, 
2855, 2856, 2857, 2858, 2859, 2860, 2861, 2862, 2863, 2864, 
2865, 2866, 2867, 2868, 2869, 2870, 2871, 2872, 2873, 2874, 
2875, 2876, 2877, 2878, 2879, 2880, 2881, 2882, 2883, 2884, 
2885, 2886, 2887, 2888, 2889, 2890, 2891, 2892, 2893, 2894, 
2895, 2896, 2897, 2898, 2899, 2900, 2901, 2902, 2903, 2904, 
2905, 2906, 2907, 2908, 2909, 2910, 2911, 2912, 2913, 2914, 
2915, 2916, 2917, 2918, 2919, 2920, 2921, 2922, 2923, 2924, 
2925, 2926, 2927, 2928, 2929, 2930, 2931, 2932, 2933, 2934, 
2935, 2936, 2937, 2938, 2939, 2940, 2941, 2942, 2943, 2944, 
2945, 2946, 2947, 2948, 2949, 2950, 2951, 2952, 2953, 2954, 
2955, 2956, 2957, 2958, 2959, 2960, 2961, 2962, 2963, 2964, 
2965, 2966, 2967, 2968, 2969, 2970, 2971, 2972, 2973, 2974, 
2975, 2976, 2977, 2978, 2979, 2980, 2981, 2982, 2983, 2984, 
2985, 2986, 2987, 2988, 2989, 2990, 2991, 2992, 2993, 2994, 
2995, 2996, 2997, 2998, 2999, 3000, 3001, 3002, 3003, 3004, 
3005, 3006, 3007, 3008, 3009, 3010, 3011, 3012, 3013, 3014, 
3015, 3016, 3017, 3018, 3019, 3020, 3021, 3022, 3023, 3024, 
3025, 3026, 3027, 3028, 3029, 3030, 3031, 3032, 3033, 3034, 
3035, 3036, 3037, 3038, 3039, 3040, 3041, 3042, 3043, 3044, 
3045, 3046, 3047, 3048, 3049, 3050, 3051, 3052, 3053, 3054, 
3055, 3056, 3057, 3058, 3059, 3060, 3061, 3062, 3063, 3064, 
3065, 3066, 3067, 3068, 3069, 3070, 3071, 3072, 3073, 3074, 
3075, 3076, 3077, 3078, 3079, 3080, 3081, 3082, 3083, 3084, 
3085, 3086, 3087, 3088, 3089, 3090, 3091, 3092, 3093, 3094, 
3095, 3096, 3097, 3098, 3099, 3100, 3101, 3102, 3103, 3104, 
3105, 3106, 3107, 3108, 3109, 3110, 3111, 3112, 3113, 3114, 
3115, 3116, 3117, 3118, 3119, 3120, 3121, 3122, 3123, 3124, 
3125, 3126, 3127, 3128, 3129, 3130, 3131, 3132, 3133, 3134, 
3135, 3136, 3137, 3138, 3139, 3140, 3141, 3142, 3143, 3144, 
3145, 3146, 3147, 3148, 3149, 3150, 3151, 3152, 3153, 3154, 
3155, 3156, 3157, 3158, 3159, 3160, 3161, 3162, 3163, 3164, 
3165, 3166, 3167, 3168, 3169, 3170, 3171, 3172, 3173, 3174, 
3175, 3176, 3177, 3178, 3179, 3180, 3181, 3182, 3183, 3184, 
3185, 3186, 3187, 3188, 3189, 3190, 3191, 3192, 3193, 3194, 
3195, 3196, 3197, 3198, 3199, 3200, 3201, 3202, 3203, 3204, 
3205, 3206, 3207, 3208, 3209, 3210, 3211, 3212, 3213, 3214, 
3215, 3216, 3217, 3218, 3219, 3220, 3221, 3222, 3223, 3224, 
3225, 3226, 3227, 3228, 3229, 3230, 3231, 3232, 3233, 3234, 
3235, 3236, 3237, 3238, 3239, 3240, 3241, 3242, 3243, 3244, 
3245, 3246, 3247, 3248, 3249, 3250, 3251, 3252, 3253, 3254, 
3255, 3256, 3257, 3258, 3259, 3260, 3261, 3262, 3263, 3264, 
3265, 3266, 3267, 3268, 3269, 3270, 3271, 3272, 3273, 3274, 
3275, 3276, 3277, 3278, 3279, 3280, 3281, 3282, 3283, 3284, 
3285, 3286, 3287, 3288, 3289, 3290, 3291, 3292, 3293, 3294, 
3295, 3296, 3297, 3298, 3299, 3300, 3301, 3302, 3303, 3304, 
3305, 3306, 3307, 3308, 3309, 3310, 3311, 3312, 3313, 3314, 
3315, 3316, 3317, 3318, 3319, 3320, 3321, 3322, 3323, 3324, 
3325, 3326, 3327, 3328, 3329, 3330, 3331, 3332, 3333, 3334, 
3335, 3336, 3337, 3338, 3339, 3340, 3341, 3342, 3343, 3344, 
3345, 3346, 3347, 3348, 3349, 3350, 3351, 3352, 3353, 3354, 
3355, 3356, 3357, 3358, 3359, 3360, 3361, 3362, 3363, 3364, 
3365, 3366, 3367, 3368, 3369, 3370, 3371, 3372, 3373, 3374, 
3375, 3376, 3377, 3378, 3379, 3380, 3381, 3382, 3383, 3384, 
3385, 3386, 3387, 3388, 3389, 3390, 3391, 3392, 3393, 3394, 
3395, 3396, 3397, 3398, 3399, 3400, 3401, 3402, 3403, 3404, 
3405, 3406, 3407, 3408, 3409, 3410, 3411, 3412, 3413, 3414, 
3415, 3416, 3417, 3418, 3419, 3420, 3421, 3422, 3423, 3424, 
3425, 3426, 3427, 3428, 3429, 3430, 3431, 3432, 3433, 3434, 
3435, 3436, 3437, 3438, 3439, 3440, 3441, 3442, 3443, 3444, 
3445, 3446, 3447, 3448, 3449, 3450, 3451, 3452, 3453, 3454, 
3455, 3456, 3457, 3458, 3459, 3460, 3461, 3462, 3463, 3464, 
3465, 3466, 3467, 3468, 3469, 3470, 3471, 3472, 3473, 3474, 
3475, 3476, 3477, 3478, 3479, 3480, 3481, 3482, 3483, 3484, 
3485, 3486, 3487, 3488, 3489, 3490, 3491, 3492, 3493, 3494, 
3495, 3496, 3497, 3498, 3499, 3500, 3501, 3502, 3503, 3504, 
3505, 3506, 3507, 3508, 3509, 3510, 3511, 3512, 3513, 3514, 
3515, 3516, 3517, 3518, 3519, 3520, 3521, 3522, 3523, 3524, 
3525, 3526, 3527, 3528, 3529, 3530, 3531, 3532, 3533, 3534, 
3535, 3536, 3537, 3538, 3539, 3540, 3541, 3542, 3543, 3544, 
3545, 3546, 3547, 3548, 3549, 3550, 3551, 3552, 3553, 3554, 
3555, 3556, 3557, 3558, 3559, 3560, 3561, 3562, 3563, 3564, 
3565, 3566, 3567, 3568, 3569, 3570, 3571, 3572, 3573, 3574, 
3575, 3576, 3577, 3578, 3579, 3580, 3581, 3582, 3583, 3584, 
3585, 3586, 3587, 3588, 3589, 3590, 3591, 3592, 3593, 3594, 
3595, 3596, 3597, 3598, 3599, 3600, 3601, 3602, 3603, 3604, 
3605, 3606, 3607, 3608, 3609, 3610, 3611, 3612, 3613, 3614, 
3615, 3616, 3617, 3618, 3619, 3620, 3621, 3622, 3623, 3624, 
3625, 3626, 3627, 3628, 3629, 3630, 3631, 3632, 3633, 3634, 
3635, 3636, 3637, 3638, 3639, 3640, 3641, 3642, 3643, 3644, 
3645, 3646, 3647, 3648, 3649, 3650, 3651, 3652, 3653, 3654, 
3655, 3656, 3657, 3658, 3659, 3660, 3661, 3662, 3663, 3664, 
3665, 3666, 3667, 3668, 3669, 3670, 3671, 3672, 3673, 3674, 
3675, 3676, 3677, 3678, 3679, 3680, 3681, 3682, 3683, 3684, 
3685, 3686, 3687, 3688, 3689, 3690, 3691, 3692, 3693, 3694, 
3695, 3696, 3697, 3698, 3699, 3700, 3701, 3702, 3703, 3704, 
3705, 3706, 3707, 3708, 3709, 3710, 3711, 3712, 3713, 3714, 
3715, 3716, 3717, 3718, 3719, 3720, 3721, 3722, 3723, 3724, 
3725, 3726, 3727, 3728, 3729, 3730, 3731, 3732, 3733, 3734, 
3735, 3736, 3737, 3738, 3739, 3740, 3741, 3742, 3743, 3744, 
3745, 3746, 3747, 3748, 3749, 3750, 3751, 3752, 3753, 3754, 
3755, 3756, 3757, 3758, 3759, 3760, 3761, 3762, 3763, 3764, 
3765, 3766, 3767, 3768, 3769, 3770, 3771, 3772, 3773, 3774, 
3775, 3776, 3777, 3778, 3779, 3780, 3781, 3782, 3783, 3784, 
3785, 3786, 3787, 3788, 3789, 3790, 3791, 3792, 3793, 3794, 
3795, 3796, 3797, 3798, 3799, 3800, 3801, 3802, 3803, 3804, 
3805, 3806, 3807, 3808, 3809, 3810, 3811, 3812, 3813, 3814, 
3815, 3816, 3817, 3818, 3819, 3820, 3821, 3822, 3823, 3824, 
3825, 3826, 3827, 3828, 3829, 3830, 3831, 3832, 3833, 3834, 
3835, 3836, 3837, 3838, 3839, 3840, 3841, 3842, 3843, 3844, 
3845, 3846, 3847, 3848, 3849, 3850, 
*NSET,NSET=contact_source
1, 8, 145, 146, 147, 148, 149, 150, 151, 152, 
153, 154, 155, 156, 157, 158, 159, 160, 161, 162, 
163, 164, 165, 
*NSET,NSET=contact_drain
4, 5, 53, 54, 55, 56, 57, 58, 59, 60, 
61, 62, 63, 64, 65, 66, 67, 68, 69, 70, 
71, 72, 73, 
*NSET,NSET=probe_A
6, 7, 99, 100, 101, 102, 103, 104, 105, 106, 
107, 108, 109, 110, 111, 112, 113, 114, 115, 116, 
117, 
*NSET,NSET=probe_B
2, 3, 27, 28, 29, 30, 31, 32, 33, 34, 
35, 
*NSET,NSET=walls
1, 2, 3, 4, 5, 6, 7, 8, 9, 10, 
11, 12, 13, 14, 15, 16, 17, 18, 19, 20, 
21, 22, 23, 24, 25, 26, 36, 37, 38, 39, 
40, 41, 42, 43, 44, 45, 46, 47, 48, 49, 
50, 51, 52, 74, 75, 76, 77, 78, 79, 80, 
81, 82, 83, 84, 85, 86, 87, 88, 89, 90, 
91, 92, 93, 94, 95, 96, 97, 98, 118, 119, 
120, 121, 122, 123, 124, 125, 126, 127, 128, 129, 
130, 131, 132, 133, 134, 135, 136, 137, 138, 139, 
140, 141, 142, 143, 144, 166, 167, 168, 169, 170, 
171, 172, 173, 174, 175, 176, 177, 178, 179, 180, 
181, 182, 183, 184, 185, 186, 187, 188, 189, 190, 
191, 192, 193, 194, 195, 196, 197, 198, 199, 200, 
201, 202, 203, 204, 205, 206, 207, 208, 209, 210, 
211, 212, 213, 214, 215, 216, 217, 218, 219, 220, 
221, 222, 223, 224, 225, 226, 227, 228, 229, 230, 
231, 232, 233, 234, 235, 236, 237, 238, 239, 240, 
241, 242, 243, 244, 245, 246, 247, 248, 249, 250, 
251, 252, 253, 254, 255, 256, 257, 258, 259, 260, 
261, 262, 263, 264, 265, 266, 267, 268, 269, 270, 
271, 272, 273, 274, 275, 276, 277, 278, 279, 280, 
281, 282, 283, 284, 285, 286, 287, 288, 289, 290, 
291, 292, 293, 294, 295, 296, 297, 298, 299, 300, 
301, 302, 303, 304, 305, 306, 307, 308, 309, 310, 
311, 312, 313, 314, 315, 316, 317, 318, 319, 320, 
321, 322, 323, 324, 325, 326, 327, 328, 329, 330, 
331, 332, 333, 334, 335, 336, 337, 338, 339, 340, 
341, 342, 343, 344, 345, 346, 347, 348, 349, 350, 
351, 352, 353, 354, 355, 356, 357, 358, 359, 360, 
361, 362, 363, 364, 365, 366, 367, 368, 369, 370, 
371, 372, 373, 374, 375, 376, 377, 378, 379, 380, 
381, 382, 383, 384, 385, 386, 387, 388, 389, 390, 
391, 392, 393, 394, 395, 396, 397, 398, 399, 400, 
401, 402, 403, 404, 405, 406, 407, 408, 409, 410, 
411, 412, 413, 414, 415, 416, 417, 418, 419, 420, 
421, 422, 423, 424, 425, 426, 427, 428, 429, 430, 
431, 432, 433, 434, 435, 436, 437, 438, 439, 440, 
441, 442, 443, 444, 445, 446, 447, 448, 449, 450, 
451, 452, 453, 454, 455, 456, 457, 458, 459, 460, 
461, 462, 463, 464, 465, 466, 467, 468, 469, 470, 
471, 472, 473, 474, 475, 476, 477, 478, 479, 480, 
481, 482, 483, 484, 485, 486, 487, 488, 489, 490, 
491, 492, 493, 494, 495, 496, 497, 498, 499, 500, 
501, 502, 503, 504, 505, 506, 507, 508, 509, 510, 
511, 512, 513, 514, 515, 516, 517, 518, 519, 520, 
521, 522, 523, 524, 525, 526, 527, 528, 529, 530, 
531, 532, 533, 534, 535, 536, 537, 538, 539, 540, 
541, 542, 543, 544, 545, 546, 547, 548, 549, 550, 
551, 552, 553, 554, 555, 556, 557, 558, 559, 560, 
561, 562, 563, 564, 565, 566, 567, 568, 569, 570, 
571, 572, 573, 574, 
*NSET,NSET=domain
1, 2, 3, 4, 5, 6, 7, 8, 9, 10, 
11, 12, 13, 14, 15, 16, 17, 18, 19, 20, 
21, 22, 23, 24, 25, 26, 27, 28, 29, 30, 
31, 32, 33, 34, 35, 36, 37, 38, 39, 40, 
41, 42, 43, 44, 45, 46, 47, 48, 49, 50, 
51, 52, 53, 54, 55, 56, 57, 58, 59, 60, 
61, 62, 63, 64, 65, 66, 67, 68, 69, 70, 
71, 72, 73, 74, 75, 76, 77, 78, 79, 80, 
81, 82, 83, 84, 85, 86, 87, 88, 89, 90, 
91, 92, 93, 94, 95, 96, 97, 98, 99, 100, 
101, 102, 103, 104, 105, 106, 107, 108, 109, 110, 
111, 112, 113, 114, 115, 116, 117, 118, 119, 120, 
121, 122, 123, 124, 125, 126, 127, 128, 129, 130, 
131, 132, 133, 134, 135, 136, 137, 138, 139, 140, 
141, 142, 143, 144, 145, 146, 147, 148, 149, 150, 
151, 152, 153, 154, 155, 156, 157, 158, 159, 160, 
161, 162, 163, 164, 165, 166, 167, 168, 169, 170, 
171, 172, 173, 174, 175, 176, 177, 178, 179, 180, 
181, 182, 183, 184, 185, 186, 187, 188, 189, 190, 
191, 192, 193, 194, 195, 196, 197, 198, 199, 200, 
201, 202, 203, 204, 205, 206, 207, 208, 209, 210, 
211, 212, 213, 214, 215, 216, 217, 218, 219, 220, 
221, 222, 223, 224, 225, 226, 227, 228, 229, 230, 
231, 232, 233, 234, 235, 236, 237, 238, 239, 240, 
241, 242, 243, 244, 245, 246, 247, 248, 249, 250, 
251, 252, 253, 254, 255, 256, 257, 258, 259, 260, 
261, 262, 263, 264, 265, 266, 267, 268, 269, 270, 
271, 272, 273, 274, 275, 276, 277, 278, 279, 280, 
281, 282, 283, 284, 285, 286, 287, 288, 289, 290, 
291, 292, 293, 294, 295, 296, 297, 298, 299, 300, 
301, 302, 303, 304, 305, 306, 307, 308, 309, 310, 
311, 312, 313, 314, 315, 316, 317, 318, 319, 320, 
321, 322, 323, 324, 325, 326, 327, 328, 329, 330, 
331, 332, 333, 334, 335, 336, 337, 338, 339, 340, 
341, 342, 343, 344, 345, 346, 347, 348, 349, 350, 
351, 352, 353, 354, 355, 356, 357, 358, 359, 360, 
361, 362, 363, 364, 365, 366, 367, 368, 369, 370, 
371, 372, 373, 374, 375, 376, 377, 378, 379, 380, 
381, 382, 383, 384, 385, 386, 387, 388, 389, 390, 
391, 392, 393, 394, 395, 396, 397, 398, 399, 400, 
401, 402, 403, 404, 405, 406, 407, 408, 409, 410, 
411, 412, 413, 414, 415, 416, 417, 418, 419, 420, 
421, 422, 423, 424, 425, 426, 427, 428, 429, 430, 
431, 432, 433, 434, 435, 436, 437, 438, 439, 440, 
441, 442, 443, 444, 445, 446, 447, 448, 449, 450, 
451, 452, 453, 454, 455, 456, 457, 458, 459, 460, 
461, 462, 463, 464, 465, 466, 467, 468, 469, 470, 
471, 472, 473, 474, 475, 476, 477, 478, 479, 480, 
481, 482, 483, 484, 485, 486, 487, 488, 489, 490, 
491, 492, 493, 494, 495, 496, 497, 498, 499, 500, 
501, 502, 503, 504, 505, 506, 507, 508, 509, 510, 
511, 512, 513, 514, 515, 516, 517, 518, 519, 520, 
521, 522, 523, 524, 525, 526, 527, 528, 529, 530, 
531, 532, 533, 534, 535, 536, 537, 538, 539, 540, 
541, 542, 543, 544, 545, 546, 547, 548, 549, 550, 
551, 552, 553, 554, 555, 556, 557, 558, 559, 560, 
561, 562, 563, 564, 565, 566, 567, 568, 569, 570, 
571, 572, 573, 574, 575, 576, 577, 578, 579, 580, 
581, 582, 583, 584, 585, 586, 587, 588, 589, 590, 
591, 592, 593, 594, 595, 596, 597, 598, 599, 600, 
601, 602, 603, 604, 605, 606, 607, 608, 609, 610, 
611, 612, 613, 614, 615, 616, 617, 618, 619, 620, 
621, 622, 623, 624, 625, 626, 627, 628, 629, 630, 
631, 632, 633, 634, 635, 636, 637, 638, 639, 640, 
641, 642, 643, 644, 645, 646, 647, 648, 649, 650, 
651, 652, 653, 654, 655, 656, 657, 658, 659, 660, 
661, 662, 663, 664, 665, 666, 667, 668, 669, 670, 
671, 672, 673, 674, 675, 676, 677, 678, 679, 680, 
681, 682, 683, 684, 685, 686, 687, 688, 689, 690, 
691, 692, 693, 694, 695, 696, 697, 698, 699, 700, 
701, 702, 703, 704, 705, 706, 707, 708, 709, 710, 
711, 712, 713, 714, 715, 716, 717, 718, 719, 720, 
721, 722, 723, 724, 725, 726, 727, 728, 729, 730, 
731, 732, 733, 734, 735, 736, 737, 738, 739, 740, 
741, 742, 743, 744, 745, 746, 747, 748, 749, 750, 
751, 752, 753, 754, 755, 756, 757, 758, 759, 760, 
761, 762, 763, 764, 765, 766, 767, 768, 769, 770, 
771, 772, 773, 774, 775, 776, 777, 778, 779, 780, 
781, 782, 783, 784, 785, 786, 787, 788, 789, 790, 
791, 792, 793, 794, 795, 796, 797, 798, 799, 800, 
801, 802, 803, 804, 805, 806, 807, 808, 809, 810, 
811, 812, 813, 814, 815, 816, 817, 818, 819, 820, 
821, 822, 823, 824, 825, 826, 827, 828, 829, 830, 
831, 832, 833, 834, 835, 836, 837, 838, 839, 840, 
841, 842, 843, 844, 845, 846, 847, 848, 849, 850, 
851, 852, 853, 854, 855, 856, 857, 858, 859, 860, 
861, 862, 863, 864, 865, 866, 867, 868, 869, 870, 
871, 872, 873, 874, 875, 876, 877, 878, 879, 880, 
881, 882, 883, 884, 885, 886, 887, 888, 889, 890, 
891, 892, 893, 894, 895, 896, 897, 898, 899, 900, 
901, 902, 903, 904, 905, 906, 907, 908, 909, 910, 
911, 912, 913, 914, 915, 916, 917, 918, 919, 920, 
921, 922, 923, 924, 925, 926, 927, 928, 929, 930, 
931, 932, 933, 934, 935, 936, 937, 938, 939, 940, 
941, 942, 943, 944, 945, 946, 947, 948, 949, 950, 
951, 952, 953, 954, 955, 956, 957, 958, 959, 960, 
961, 962, 963, 964, 965, 966, 967, 968, 969, 970, 
971, 972, 973, 974, 975, 976, 977, 978, 979, 980, 
981, 982, 983, 984, 985, 986, 987, 988, 989, 990, 
991, 992, 993, 994, 995, 996, 997, 998, 999, 1000, 
1001, 1002, 1003, 1004, 1005, 1006, 1007, 1008, 1009, 1010, 
1011, 1012, 1013, 1014, 1015, 1016, 1017, 1018, 1019, 1020, 
1021, 1022, 1023, 1024, 1025, 1026, 1027, 1028, 1029, 1030, 
1031, 1032, 1033, 1034, 1035, 1036, 1037, 1038, 1039, 1040, 
1041, 1042, 1043, 1044, 1045, 1046, 1047, 1048, 1049, 1050, 
1051, 1052, 1053, 1054, 1055, 1056, 1057, 1058, 1059, 1060, 
1061, 1062, 1063, 1064, 1065, 1066, 1067, 1068, 1069, 1070, 
1071, 1072, 1073, 1074, 1075, 1076, 1077, 1078, 1079, 1080, 
1081, 1082, 1083, 1084, 1085, 1086, 1087, 1088, 1089, 1090, 
1091, 1092, 1093, 1094, 1095, 1096, 1097, 1098, 1099, 1100, 
1101, 1102, 1103, 1104, 1105, 1106, 1107, 1108, 1109, 1110, 
1111, 1112, 1113, 1114, 1115, 1116, 1117, 1118, 1119, 1120, 
1121, 1122, 1123, 1124, 1125, 1126, 1127, 1128, 1129, 1130, 
1131, 1132, 1133, 1134, 1135, 1136, 1137, 1138, 1139, 1140, 
1141, 1142, 1143, 1144, 1145, 1146, 1147, 1148, 1149, 1150, 
1151, 1152, 1153, 1154, 1155, 1156, 1157, 1158, 1159, 1160, 
1161, 1162, 1163, 1164, 1165, 1166, 1167, 1168, 1169, 1170, 
1171, 1172, 1173, 1174, 1175, 1176, 1177, 1178, 1179, 1180, 
1181, 1182, 1183, 1184, 1185, 1186, 1187, 1188, 1189, 1190, 
1191, 1192, 1193, 1194, 1195, 1196, 1197, 1198, 1199, 1200, 
1201, 1202, 1203, 1204, 1205, 1206, 1207, 1208, 1209, 1210, 
1211, 1212, 1213, 1214, 1215, 1216, 1217, 1218, 1219, 1220, 
1221, 1222, 1223, 1224, 1225, 1226, 1227, 1228, 1229, 1230, 
1231, 1232, 1233, 1234, 1235, 1236, 1237, 1238, 1239, 1240, 
1241, 1242, 1243, 1244, 1245, 1246, 1247, 1248, 1249, 1250, 
1251, 1252, 1253, 1254, 1255, 1256, 1257, 1258, 1259, 1260, 
1261, 1262, 1263, 1264, 1265, 1266, 1267, 1268, 1269, 1270, 
1271, 1272, 1273, 1274, 1275, 1276, 1277, 1278, 1279, 1280, 
1281, 1282, 1283, 1284, 1285, 1286, 1287, 1288, 1289, 1290, 
1291, 1292, 1293, 1294, 1295, 1296, 1297, 1298, 1299, 1300, 
1301, 1302, 1303, 1304, 1305, 1306, 1307, 1308, 1309, 1310, 
1311, 1312, 1313, 1314, 1315, 1316, 1317, 1318, 1319, 1320, 
1321, 1322, 1323, 1324, 1325, 1326, 1327, 1328, 1329, 1330, 
1331, 1332, 1333, 1334, 1335, 1336, 1337, 1338, 1339, 1340, 
1341, 1342, 1343, 1344, 1345, 1346, 1347, 1348, 1349, 1350, 
1351, 1352, 1353, 1354, 1355, 1356, 1357, 1358, 1359, 1360, 
1361, 1362, 1363, 1364, 1365, 1366, 1367, 1368, 1369, 1370, 
1371, 1372, 1373, 1374, 1375, 1376, 1377, 1378, 1379, 1380, 
1381, 1382, 1383, 1384, 1385, 1386, 1387, 1388, 1389, 1390, 
1391, 1392, 1393, 1394, 1395, 1396, 1397, 1398, 1399, 1400, 
1401, 1402, 1403, 1404, 1405, 1406, 1407, 1408, 1409, 1410, 
1411, 1412, 1413, 1414, 1415, 1416, 1417, 1418, 1419, 1420, 
1421, 1422, 1423, 1424, 1425, 1426, 1427, 1428, 1429, 1430, 
1431, 1432, 1433, 1434, 1435, 1436, 1437, 1438, 1439, 1440, 
1441, 1442, 1443, 1444, 1445, 1446, 1447, 1448, 1449, 1450, 
1451, 1452, 1453, 1454, 1455, 1456, 1457, 1458, 1459, 1460, 
1461, 1462, 1463, 1464, 1465, 1466, 1467, 1468, 1469, 1470, 
1471, 1472, 1473, 1474, 1475, 1476, 1477, 1478, 1479, 1480, 
1481, 1482, 1483, 1484, 1485, 1486, 1487, 1488, 1489, 1490, 
1491, 1492, 1493, 1494, 1495, 1496, 1497, 1498, 1499, 1500, 
1501, 1502, 1503, 1504, 1505, 1506, 1507, 1508, 1509, 1510, 
1511, 1512, 1513, 1514, 1515, 1516, 1517, 1518, 1519, 1520, 
1521, 1522, 1523, 1524, 1525, 1526, 1527, 1528, 1529, 1530, 
1531, 1532, 1533, 1534, 1535, 1536, 1537, 1538, 1539, 1540, 
1541, 1542, 1543, 1544, 1545, 1546, 1547, 1548, 1549, 1550, 
1551, 1552, 1553, 1554, 1555, 1556, 1557, 1558, 1559, 1560, 
1561, 1562, 1563, 1564, 1565, 1566, 1567, 1568, 1569, 1570, 
1571, 1572, 1573, 1574, 1575, 1576, 1577, 1578, 1579, 1580, 
1581, 1582, 1583, 1584, 1585, 1586, 1587, 1588, 1589, 1590, 
1591, 1592, 1593, 1594, 1595, 1596, 1597, 1598, 1599, 1600, 
1601, 1602, 1603, 1604, 1605, 1606, 1607, 1608, 1609, 1610, 
1611, 1612, 1613, 1614, 1615, 1616, 1617, 1618, 1619, 1620, 
1621, 1622, 1623, 1624, 1625, 1626, 1627, 1628, 1629, 1630, 
1631, 1632, 1633, 1634, 1635, 1636, 1637, 1638, 1639, 1640, 
1641, 1642, 1643, 1644, 1645, 1646, 1647, 1648, 1649, 1650, 
1651, 1652, 1653, 1654, 1655, 1656, 1657, 1658, 1659, 1660, 
1661, 1662, 1663, 1664, 1665, 1666, 1667, 1668, 1669, 1670, 
1671, 1672, 1673, 1674, 1675, 1676, 1677, 1678, 1679, 1680, 
1681, 1682, 1683, 1684, 1685, 1686, 1687, 1688, 1689, 1690, 
1691, 1692, 1693, 1694, 1695, 1696, 1697, 1698, 1699, 1700, 
1701, 1702, 1703, 1704, 1705, 1706, 1707, 1708, 1709, 1710, 
1711, 1712, 1713, 1714, 1715, 1716, 1717, 1718, 1719, 1720, 
1721, 1722, 1723, 1724, 1725, 1726, 1727, 1728, 1729, 1730, 
1731, 1732, 1733, 1734, 1735, 1736, 1737, 1738, 1739, 1740, 
1741, 1742, 1743, 1744, 1745, 1746, 1747, 1748, 1749, 1750, 
1751, 1752, 1753, 1754, 1755, 1756, 1757, 1758, 1759, 1760, 
1761, 1762, 1763, 1764, 1765, 1766, 1767, 1768, 1769, 1770, 
1771, 1772, 1773, 1774, 1775, 1776, 1777, 1778, 1779, 1780, 
1781, 1782, 1783, 1784, 1785, 1786, 1787, 1788, 1789, 1790, 
1791, 1792, 1793, 1794, 1795, 1796, 1797, 1798, 1799, 1800, 
1801, 1802, 1803, 1804, 1805, 1806, 1807, 1808, 1809, 1810, 
1811, 1812, 1813, 1814, 1815, 1816, 1817, 1818, 1819, 1820, 
1821, 1822, 1823, 1824, 1825, 1826, 1827, 1828, 1829, 1830, 
1831, 1832, 1833, 1834, 1835, 1836, 1837, 1838, 1839, 1840, 
1841, 1842, 1843, 1844, 1845, 1846, 1847, 1848, 1849, 1850, 
1851, 1852, 1853, 1854, 1855, 1856, 1857, 1858, 1859, 1860, 
1861, 1862, 1863, 1864, 1865, 1866, 1867, 1868, 1869, 1870, 
1871, 1872, 1873, 1874, 1875, 1876, 1877, 1878, 1879, 1880, 
1881, 1882, 1883, 1884, 1885, 1886, 1887, 1888, 1889, 1890, 
1891, 1892, 1893, 1894, 1895, 1896, 1897, 1898, 1899, 1900, 
1901, 1902, 1903, 1904, 1905, 1906, 1907, 1908, 1909, 1910, 
1911, 1912, 1913, 1914, 1915, 1916, 1917, 1918, 1919, 1920, 
1921, 1922, 1923, 1924, 1925, 1926, 1927, 1928, 1929, 1930, 
1931, 1932, 1933, 1934, 1935, 1936, 1937, 1938, 1939, 1940, 
1941, 1942, 1943, 1944, 1945, 1946, 1947, 1948, 1949, 1950, 
1951, 1952, 1953, 1954, 1955, 1956, 1957, 1958, 1959, 1960, 
1961, 1962, 1963, 1964, 1965, 1966, 1967, 1968, 1969, 1970, 
1971, 1972, 1973, 1974, 1975, 1976, 1977, 1978, 1979, 1980, 
1981, 1982, 1983, 1984, 1985, 1986, 1987, 1988, 1989, 1990, 
1991, 1992, 1993, 1994, 1995, 1996, 1997, 1998, 1999, 2000, 
2001, 2002, 2003, 2004, 2005, 2006, 2007, 2008, 2009, 2010, 
2011, 2012, 2013, 2014, 2015, 2016, 2017, 2018, 2019, 2020, 
2021, 2022, 2023, 2024, 2025, 2026, 2027, 2028, 2029, 2030, 
2031, 2032, 2033, 2034, 2035, 2036, 2037, 2038, 2039, 2040, 
2041, 2042, 2043, 2044, 2045, 2046, 2047, 2048, 2049, 2050, 
2051, 2052, 2053, 2054, 2055, 2056, 2057, 2058, 2059, 2060, 
2061, 2062, 2063, 2064, 2065, 2066, 2067, 2068, 2069, 2070, 
2071, 2072, 2073, 2074, 2075, 2076, 2077, 2078, 2079, 2080, 
2081, 2082, 2083, 2084, 2085, 2086, 2087, 2088, 2089, 2090, 
2091, 2092, 2093, 2094, 2095, 2096, 2097, 2098, 2099, 2100, 
2101, 2102, 2103, 2104, 2105, 2106, 2107, 2108, 2109, 2110, 
2111, 2112, 2113, 2114, 2115, 2116, 2117, 2118, 2119, 2120, 
2121, 2122, 2123, 2124, 2125, 2126, 2127, 2128, 2129, 2130, 
2131, 2132, 2133, 2134, 2135, 2136, 2137, 2138, 2139, 2140, 
2141, 2142, 2143, 2144, 2145, 2146, 2147, 2148, 2149, 2150, 
2151, 2152, 2153, 2154, 2155, 2156, 2157, 2158, 2159, 2160, 
2161, 2162, 2163, 2164, 2165, 2166, 2167, 2168, 2169, 2170, 
2171, 2172, 2173, 2174, 2175, 2176, 2177, 2178, 2179, 2180, 
2181, 2182, 2183, 2184, 2185, 2186, 2187, 2188, 2189, 2190, 
2191, 2192, 2193, 2194, 2195, 2196, 2197, 2198, 2199, 2200, 
2201, 2202, 2203, 2204, 2205, 2206, 2207, 2208, 2209, 2210, 
2211, 2212, 2213, 2214, 2215, 2216, 2217, 2218, 2219, 2220, 
2221, 2222, 2223, 2224, 2225, 2226, 2227, 2228, 2229, 2230, 
2231, 2232, 2233, 2234, 2235, 2236, 2237, 2238, 2239, 2240, 
2241, 2242, 2243, 2244, 2245, 2246, 2247, 2248, 2249, 2250, 
2251, 2252, 2253, 2254, 2255, 2256, 2257, 2258, 2259, 2260, 
2261, 2262, 2263, 2264, 2265, 2266, 2267, 2268, 2269, 2270, 
2271, 2272, 2273, 2274, 2275, 2276, 2277, 2278, 2279, 2280, 
2281, 2282, 2283, 2284, 2285, 2286, 2287, 2288, 2289, 2290, 
2291, 2292, 2293, 2294, 2295, 2296, 2297, 2298, 2299, 2300, 
2301, 2302, 2303, 2304, 2305, 2306, 2307, 2308, 2309, 2310, 
2311, 2312, 2313, 2314, 2315, 2316, 2317, 2318, 2319, 2320, 
2321, 2322, 2323, 2324, 2325, 2326, 2327, 2328, 2329, 2330, 
2331, 2332, 2333, 2334, 2335, 2336, 2337, 2338, 2339, 2340, 
2341, 2342, 2343, 2344, 2345, 2346, 2347, 2348, 2349, 2350, 
2351, 2352, 2353, 2354, 2355, 2356, 2357, 2358, 2359, 2360, 
2361, 2362, 2363, 2364, 2365, 2366, 2367, 2368, 2369, 2370, 
2371, 2372, 2373, 2374, 2375, 2376, 2377, 2378, 2379, 2380, 
2381, 2382, 2383, 2384, 2385, 2386, 2387, 2388, 2389, 2390, 
2391, 2392, 2393, 2394, 2395, 2396, 2397, 2398, 2399, 2400, 
2401, 2402, 2403, 2404, 2405, 2406, 2407, 2408, 2409, 2410, 
2411, 2412, 2413, 2414, 2415, 2416, 2417, 2418, 2419, 2420, 
2421, 2422, 2423, 2424, 2425, 2426, 2427, 2428, 2429, 2430, 
2431, 2432, 2433, 2434, 2435, 2436, 2437, 2438, 2439, 2440, 
2441, 2442, 2443, 2444, 2445, 2446, 2447, 2448, 2449, 2450, 
2451, 2452, 2453, 2454, 2455, 2456, 2457, 2458, 2459, 2460, 
2461, 2462, 2463, 2464, 2465, 2466, 2467, 2468, 2469, 2470, 
2471, 2472, 2473, 2474, 2475, 2476, 2477, 2478, 2479, 2480, 
2481, 2482, 2483, 2484, 2485, 2486, 2487, 2488, 2489, 2490, 
2491, 2492, 2493, 2494, 2495, 2496, 2497, 2498, 2499, 2500, 
2501, 2502, 2503, 2504, 2505, 2506, 2507, 2508, 2509, 2510, 
2511, 2512, 2513, 2514, 2515, 2516, 2517, 2518, 2519, 2520, 
2521, 2522, 2523, 2524, 2525, 2526, 2527, 2528, 2529, 2530, 
2531, 2532, 2533, 2534, 2535, 2536, 2537, 2538, 2539, 2540, 
2541, 2542, 2543, 2544, 2545, 2546, 2547, 2548, 2549, 2550, 
2551, 2552, 2553, 2554, 2555, 2556, 2557, 2558, 2559, 2560, 
2561, 2562, 2563, 2564, 2565, 2566, 2567, 2568, 2569, 2570, 
2571, 2572, 2573, 2574, 2575, 2576, 2577, 2578, 2579, 2580, 
2581, 2582, 2583, 2584, 2585, 2586, 2587, 2588, 2589, 2590, 
2591, 2592, 2593, 2594, 2595, 2596, 2597, 2598, 2599, 2600, 
2601, 2602, 2603, 2604, 2605, 2606, 2607, 2608, 2609, 2610, 
2611, 2612, 2613, 2614, 2615, 2616, 2617, 2618, 2619, 2620, 
2621, 2622, 2623, 2624, 2625, 2626, 2627, 2628, 2629, 2630, 
2631, 2632, 2633, 2634, 2635, 2636, 2637, 2638, 2639, 2640, 
2641, 2642, 2643, 2644, 2645, 2646, 2647, 2648, 2649, 2650, 
2651, 2652, 2653, 2654, 2655, 2656, 2657, 2658, 2659, 2660, 
2661, 2662, 2663, 2664, 2665, 2666, 2667, 2668, 2669, 2670, 
2671, 2672, 2673, 2674, 2675, 2676, 2677, 2678, 2679, 2680, 
2681, 2682, 2683, 2684, 2685, 2686, 2687, 2688, 2689, 2690, 
2691, 2692, 2693, 2694, 2695, 2696, 2697, 2698, 2699, 2700, 
2701, 2702, 2703, 2704, 2705, 2706, 2707, 2708, 2709, 2710, 
2711, 2712, 2713, 2714, 2715, 2716, 2717, 2718, 2719, 2720, 
2721, 2722, 2723, 2724, 2725, 2726, 2727, 2728, 2729, 2730, 
2731, 2732, 2733, 2734, 2735, 2736, 2737, 2738, 2739, 2740, 
2741, 2742, 2743, 2744, 2745, 2746, 2747, 2748, 2749, 2750, 
2751, 2752, 2753, 2754, 2755, 2756, 2757, 2758, 2759, 2760, 
2761, 2762, 2763, 2764, 2765, 2766, 2767, 2768, 2769, 2770, 
2771, 2772, 2773, 2774, 2775, 2776, 2777, 2778, 2779, 2780, 
2781, 2782, 2783, 2784, 2785, 2786, 2787, 2788, 2789, 2790, 
2791, 2792, 2793, 2794, 2795, 2796, 2797, 2798, 2799, 2800, 
2801, 2802, 2803, 2804, 2805, 2806, 2807, 2808, 2809, 2810, 
2811, 2812, 2813, 2814, 2815, 2816, 2817, 2818, 2819, 2820, 
2821, 2822, 2823, 2824, 2825, 2826, 2827, 2828, 2829, 2830, 
2831, 2832, 2833, 2834, 2835, 2836, 2837, 2838, 2839, 2840, 
2841, 2842, 2843, 2844, 2845, 2846, 2847, 2848, 2849, 2850, 
2851, 2852, 2853, 2854, 2855, 2856, 2857, 2858, 2859, 2860, 
2861, 2862, 2863, 2864, 2865, 2866, 2867, 2868, 2869, 2870, 
2871, 2872, 2873, 2874, 2875, 2876, 2877, 2878, 2879, 2880, 
2881, 2882, 2883, 2884, 2885, 2886, 2887, 2888, 2889, 2890, 
2891, 2892, 2893, 2894, 2895, 2896, 2897, 2898, 2899, 2900, 
2901, 2902, 2903, 2904, 2905, 2906, 2907, 2908, 2909, 2910, 
2911, 2912, 2913, 2914, 2915, 2916, 2917, 2918, 2919, 2920, 
2921, 2922, 2923, 2924, 2925, 2926, 2927, 2928, 2929, 2930, 
2931, 2932, 2933, 2934, 2935, 2936, 2937, 2938, 2939, 2940, 
2941, 2942, 2943, 2944, 2945, 2946, 2947, 2948, 2949, 2950, 
2951, 2952, 2953, 2954, 2955, 2956, 2957, 2958, 2959, 2960, 
2961, 2962, 2963, 2964, 2965, 2966, 2967, 2968, 2969, 2970, 
2971, 2972, 2973, 2974, 2975, 2976, 2977, 2978, 2979, 2980, 
2981, 2982, 2983, 2984, 2985, 2986, 2987, 2988, 2989, 2990, 
2991, 2992, 2993, 2994, 2995, 2996, 2997, 2998, 2999, 3000, 
3001, 3002, 3003, 3004, 3005, 3006, 3007, 3008, 3009, 3010, 
3011, 3012, 3013, 3014, 3015, 3016, 3017, 3018, 3019, 3020, 
3021, 3022, 3023, 3024, 3025, 3026, 3027, 3028, 3029, 3030, 
3031, 3032, 3033, 3034, 3035, 3036, 3037, 3038, 3039, 3040, 
3041, 3042, 3043, 3044, 3045, 3046, 3047, 3048, 3049, 3050, 
3051, 3052, 3053, 3054, 3055, 3056, 3057, 3058, 3059, 3060, 
3061, 3062, 3063, 3064, 3065, 3066, 3067, 3068, 3069, 3070, 
3071, 3072, 3073, 3074, 3075, 3076, 3077, 3078, 3079, 3080, 
3081, 3082, 3083, 3084, 3085, 3086, 3087, 3088, 3089, 3090, 
3091, 3092, 3093, 3094, 3095, 3096, 3097, 3098, 3099, 3100, 
3101, 3102, 3103, 3104, 3105, 3106, 3107, 3108, 3109, 3110, 
3111, 3112, 3113, 3114, 3115, 3116, 3117, 3118, 3119, 3120, 
3121, 3122, 3123, 3124, 3125, 3126, 3127, 3128, 3129, 3130, 
3131, 3132, 3133, 3134, 3135, 3136, 3137, 3138, 3139, 3140, 
3141, 3142, 3143, 3144, 3145, 3146, 3147, 3148, 3149, 3150, 
3151, 3152, 3153, 3154, 3155, 3156, 3157, 3158, 3159, 3160, 
3161, 3162, 3163, 3164, 3165, 3166, 3167, 3168, 3169, 3170, 
3171, 3172, 3173, 3174, 3175, 3176, 3177, 3178, 3179, 3180, 
3181, 3182, 3183, 3184, 3185, 3186, 3187, 3188, 3189, 3190, 
3191, 3192, 3193, 3194, 3195, 3196, 3197, 3198, 3199, 3200, 
3201, 3202, 3203, 3204, 3205, 3206, 3207, 3208, 3209, 3210, 
3211, 3212, 3213, 3214, 3215, 3216, 3217, 3218, 3219, 3220, 
3221, 3222, 3223, 3224, 3225, 3226, 3227, 3228, 3229, 3230, 
3231, 3232, 3233, 3234, 3235, 3236, 3237, 3238, 3239, 3240, 
3241, 3242, 3243, 3244, 3245, 3246, 3247, 3248, 3249, 3250, 
3251, 3252, 3253, 3254, 3255, 3256, 3257, 3258, 3259, 3260, 
3261, 3262, 3263, 3264, 3265, 3266, 3267, 3268, 3269, 3270, 
3271, 3272, 3273, 3274, 3275, 3276, 3277, 3278, 3279, 3280, 
3281, 3282, 3283, 3284, 3285, 3286, 3287, 3288, 3289, 3290, 
3291, 3292, 3293, 3294, 3295, 3296, 3297, 3298, 3299, 3300, 
3301, 3302, 3303, 3304, 3305, 3306, 3307, 3308, 3309, 3310, 
3311, 3312, 3313, 3314, 3315, 3316, 3317, 3318, 3319, 3320, 
3321, 3322, 3323, 3324, 3325, 3326, 3327, 3328, 3329, 3330, 
3331, 3332, 3333, 3334, 3335, 3336, 3337, 3338, 3339, 3340, 
3341, 3342, 3343, 3344, 3345, 3346, 3347, 3348, 3349, 3350, 
3351, 3352, 3353, 3354, 3355, 3356, 3357, 3358, 3359, 3360, 
3361, 3362, 3363, 3364, 3365, 3366, 3367, 3368, 3369, 3370, 
3371, 3372, 3373, 3374, 3375, 3376, 3377, 3378, 3379, 3380, 
3381, 3382, 3383, 3384, 3385, 3386, 3387, 3388, 3389, 3390, 
3391, 3392, 3393, 3394, 3395, 3396, 3397, 3398, 3399, 3400, 
3401, 3402, 3403, 3404, 3405, 3406, 3407, 3408, 3409, 3410, 
3411, 3412, 3413, 3414, 3415, 3416, 3417, 3418, 3419, 3420, 
3421, 3422, 3423, 3424, 3425, 3426, 3427, 3428, 3429, 3430, 
3431, 3432, 3433, 3434, 3435, 3436, 3437, 3438, 3439, 3440, 
3441, 3442, 3443, 3444, 3445, 3446, 3447, 3448, 3449, 3450, 
3451, 3452, 3453, 3454, 3455, 3456, 3457, 3458, 3459, 3460, 
3461, 3462, 3463, 3464, 3465, 3466, 3467, 3468, 3469, 3470, 
3471, 3472, 3473, 3474, 3475, 3476, 3477, 3478, 3479, 3480, 
3481, 3482, 3483, 3484, 3485, 3486, 3487, 3488, 3489, 3490, 
3491, 3492, 3493, 3494, 3495, 3496, 3497, 3498, 3499, 3500, 
3501, 3502, 3503, 3504, 3505, 3506, 3507, 3508, 3509, 3510, 
3511, 3512, 3513, 3514, 3515, 3516, 3517, 3518, 3519, 3520, 
3521, 3522, 3523, 3524, 3525, 3526, 3527, 3528, 3529, 3530, 
3531, 3532, 3533, 3534, 3535, 3536, 3537, 3538, 3539, 3540, 
3541, 3542, 3543, 3544, 3545, 3546, 3547, 3548, 3549, 3550, 
3551, 3552, 3553, 3554, 3555, 3556, 3557, 3558, 3559, 3560, 
3561, 3562, 3563, 
