*Heading
 /Users/juliagao/geometry-optimization-net/scripts/../runs/run2/shape_124.inp
*NODE
1, 0, -0.3, 0
2, 0.425, -0.3, 0
3, 0.575, -0.3, 0
4, 1, -0.3, 0
5, 1, 0.3, 0
6, 0.575, 0.3, 0
7, 0.425, 0.3, 0
8, 0, 0.3, 0
9, 0.6866656445, -0.0054323767, 0
10, 0.026192887270103, -0.3, 0
11, 0.078692979491857, -0.3, 0
12, 0.13143807319841, -0.3, 0
13, 0.18484539192441, -0.3, 0
14, 0.2392866300387, -0.3, 0
15, 0.29421412274291, -0.3, 0
16, 0.34835225461297, -0.3, 0
17, 0.400017350961, -0.3, 0
18, 0.052385774540205, -0.3, 0
19, 0.10500018444351, -0.3, 0
20, 0.1578759619533, -0.3, 0
21, 0.21181482189551, -0.3, 0
22, 0.26675843818189, -0.3, 0
23, 0.32166980730394, -0.3, 0
24, 0.37503470192199, -0.3, 0
25, 0.44345590803954, -0.3, 0
26, 0.48023438817118, -0.3, 0
27, 0.51738579486631, -0.3, 0
28, 0.55560731473467, -0.3, 0
29, 0.46191181607908, -0.3, 0
30, 0.49855696026328, -0.3, 0
31, 0.53621462946933, -0.3, 0
32, 0.60141316941949, -0.3, 0
33, 0.65459082856693, -0.3, 0
34, 0.70724187313307, -0.3, 0
35, 0.75881032285869, -0.3, 0
36, 0.81135620512837, -0.3, 0
37, 0.86551351093251, -0.3, 0
38, 0.91980015707801, -0.3, 0
39, 0.9733967424008, -0.3, 0
40, 0.62782633883897, -0.3, 0
41, 0.68135531829489, -0.3, 0
42, 0.73312842797125, -0.3, 0
43, 0.78449221774612, -0.3, 0
44, 0.83822019251062, -0.3, 0
45, 0.89280682935441, -0.3, 0
46, 0.94679348480161, -0.3, 0
47, 1, -0.2738878093775, 0
48, 1, -0.22117309383254, 0
49, 1, -0.16687949282117, 0
50, 1, -0.11054314352338, 0
51, 1, -0.053404712045384, 0
52, 1, 0.0025299284599505, 0
53, 1, 0.057265102845711, 0
54, 1, 0.11259266820811, 0
55, 1, 0.16831315054627, 0
56, 1, 0.22234349854947, 0
57, 1, 0.27434361871368, 0
58, 1, -0.24777561875501, 0
59, 1, -0.19457056891007, 0
60, 1, -0.13918841673227, 0
61, 1, -0.081897870314487, 0
62, 1, -0.024911553776281, 0
63, 1, 0.029971410696182, 0
64, 1, 0.08455879499524, 0
65, 1, 0.14062654142099, 0
66, 1, 0.19599975967156, 0
67, 1, 0.24868723742737, 0
68, 0.97442902747877, 0.3, 0
69, 0.92316121274806, 0.3, 0
70, 0.87096544998052, 0.3, 0
71, 0.81727812591015, 0.3, 0
72, 0.7629592376045, 0.3, 0
73, 0.70860283693828, 0.3, 0
74, 0.65430092082593, 0.3, 0
75, 0.60111246029323, 0.3, 0
76, 0.94885805495753, 0.3, 0
77, 0.89746437053859, 0.3, 0
78, 0.84446652942245, 0.3, 0
79, 0.79008972239785, 0.3, 0
80, 0.73582875281115, 0.3, 0
81, 0.68137692106542, 0.3, 0
82, 0.62722492058645, 0.3, 0
83, 0.55036741779473, 0.3, 0
84, 0.50024180478703, 0.3, 0
85, 0.4498743869923, 0.3, 0
86, 0.52573483558946, 0.3, 0
87, 0.4747487739846, 0.3, 0
88, 0.40083342399654, 0.3, 0
89, 0.35204031655491, 0.3, 0
90, 0.30144462386711, 0.3, 0
91, 0.24815425508895, 0.3, 0
92, 0.19291752106563, 0.3, 0
93, 0.13714682106661, 0.3, 0
94, 0.081716753626566, 0.3, 0
95, 0.027070929845375, 0.3, 0
96, 0.37666684799308, 0.3, 0
97, 0.32741378511674, 0.3, 0
98, 0.27547546261747, 0.3, 0
99, 0.22083304756042, 0.3, 0
100, 0.16500199457084, 0.3, 0
101, 0.10929164756238, 0.3, 0
102, 0.054141859690751, 0.3, 0
103, 0, 0.2734782007549, 0
104, 0, 0.21894711334084, 0
105, 0, 0.16209889998725, 0
106, 0, 0.10479329521679, 0
107, 0, 0.04851829763034, 0
108, 0, -0.0067667979778199, 0
109, 0, -0.061574583573299, 0
110, 0, -0.11571593843654, 0
111, 0, -0.16891144177857, 0
112, 0, -0.221556051184, 0
113, 0, -0.27390775206135, 0
114, 0, 0.2469564015098, 0
115, 0, 0.19093782517188, 0
116, 0, 0.13325997480262, 0
117, 0, 0.076326615630967, 0
118, 0, 0.020709979629714, 0
119, 0, -0.034243575585354, 0
120, 0, -0.088905591561244, 0
121, 0, -0.14252628531184, 0
122, 0, -0.19529659824531, 0
123, 0, -0.2478155041227, 0
124, 0.68182106426474, 0.022184704811941, 0
125, 0.74740226656396, -0.062571635208491, 0
126, 0.78393949030395, -0.10406070902658, 0
127, 0.80949470231544, -0.15221319905533, 0
128, 0.81145017956903, -0.20565794247713, 0
129, 0.77465711931471, -0.24215832412196, 0
130, 0.72356302348611, -0.24780521558525, 0
131, 0.67292421428139, -0.23671829008603, 0
132, 0.62504926255327, -0.21704979139853, 0
133, 0.57900346366823, -0.19652022430338, 0
134, 0.53188164579111, -0.20810825453878, 0
135, 0.49212357183505, -0.23816007283262, 0
136, 0.44309364294133, -0.24184337037919, 0
137, 0.40256086100122, -0.20948467466492, 0
138, 0.35881147584207, -0.17600583373237, 0
139, 0.30351099685465, -0.16406089477807, 0
140, 0.25208924227047, -0.14206925555959, 0
141, 0.22718052221109, -0.093982488969808, 0
142, 0.24348354854219, -0.042056486787556, 0
143, 0.27661326406088, 0.0023330997912311, 0
144, 0.29323149306623, 0.054379099810057, 0
145, 0.27842339900121, 0.10833625424934, 0
146, 0.27256053599169, 0.16417841687175, 0
147, 0.29065106362274, 0.21459665100048, 0
148, 0.33003939470001, 0.24638417189027, 0
149, 0.37650561399172, 0.26026206349744, 0
150, 0.4248452850709, 0.26300932534024, 0
151, 0.47451145774182, 0.25433555610687, 0
152, 0.51927584615919, 0.23022827872119, 0
153, 0.55466364914079, 0.19445007787358, 0
154, 0.59242274569875, 0.15910611350221, 0
155, 0.64493764853347, 0.14762407505422, 0
156, 0.69260207016692, 0.12350955588874, 0
157, 0.70059399930141, 0.07127874858851, 0
158, 0.70594200245755, -0.025471073272219, 0
159, 0.691303580351, 0.045917329983135, 0
160, 0.70297630944895, 0.098439573423203, 0
161, 0.67114027875173, 0.13961840812099, 0
162, 0.61800883585497, 0.15191860930615, 0
163, 0.57116162643788, 0.17532962941884, 0
164, 0.53789284942325, 0.21334224452875, 0
165, 0.49826985697626, 0.244066942019, 0
166, 0.44938673065089, 0.26048649542232, 0
167, 0.40018343957458, 0.26282074564104, 0
168, 0.35324185671709, 0.25512148864384, 0
169, 0.30889023910192, 0.23336679625412, 0
170, 0.27839396496399, 0.19145980999783, 0
171, 0.27311795982725, 0.13635589578386, 0
172, 0.28634908619327, 0.080982017690254, 0
173, 0.29113033359986, 0.02630967567087, 0
174, 0.25926407866727, -0.019461417486953, 0
175, 0.23164123812356, -0.067027568992338, 0
176, 0.23390364848418, -0.12071452980351, 0
177, 0.2762936249725, -0.15573197148233, 0
178, 0.33139322341641, -0.16949441923599, 0
179, 0.38366750080378, -0.19002237218619, 0
180, 0.42166899715901, -0.22875489573712, 0
181, 0.46819560923846, -0.24536371020629, 0
182, 0.51279640984431, -0.22448831780105, 0
183, 0.55360207284079, -0.19484009121733, 0
184, 0.60190702705871, -0.20600673761406, 0
185, 0.64846451922521, -0.22751329852716, 0
186, 0.69810112968263, -0.24376452621915, 0
187, 0.74937754637036, -0.24784529077996, 0
188, 0.7968816983893, -0.22847395293542, 0
189, 0.81479797054118, -0.17901848556523, 0
190, 0.79859897269188, -0.12724490594252, 0
191, 0.76674837341429, -0.082706882568202, 0
192, 0.72683254271025, -0.043700151102534, 0
193, 0.51718451334174, -0.25883259459696, 0
194, 0.77296460355268, -0.28037136322774, 0
195, 0.13265122477646, -0.18314657030083, 0
196, 0.12715583324607, -0.078239141398108, 0
197, 0.36066186796985, -0.25312861091252, 0
198, 0.68883214486508, -0.25425892944218, 0
199, 0.052747347479133, -0.24998055730819, 0
200, 0.66483590387607, -0.28548283609944, 0
201, 0.90321634217209, 0.14611696612213, 0
202, 0.079337014775063, -0.22660808594915, 0
203, 0.079026286014595, -0.27566561553767, 0
204, 0.1099046203036, 0.26886758864796, 0
205, 0.082166582324677, 0.2701120776317, 0
206, 0.24884903227843, 0.17477909432235, 0
207, 0.16492807452804, 0.13771579545488, 0
208, 0.24763269189942, 0.14522178448468, 0
209, 0.19110992696252, 0.074907265980841, 0
210, 0.22094018817536, 0.15381379844125, 0
211, 0.1354519165807, 0.085463540001048, 0
212, 0.054599827385946, 0.27122720393704, 0
213, 0.10718195506707, 0.061893805549117, 0
214, 0.19542225324585, 0.22618504337119, 0
215, 0.19440022952662, 0.19266868553398, 0
216, 0.25254723801137, 0.061974402522783, 0
217, 0.22474498969175, 0.21853843115211, 0
218, 0.20646967738259, -0.010020618073428, 0
219, 0.22041719663334, 0.068782008892156, 0
220, 0.079558034337806, 0.038082822312748, 0
221, 0.15605109617204, -0.0014517358116141, 0
222, 0.10470708709097, 0.0066845838486435, 0
223, 0.052571168269427, 0.014094354359252, 0
224, 0.58205679228011, -0.25066695406963, 0
225, 0.70034559658895, -0.27475087473148, 0
226, 0.5662048492266, -0.2809128064449, 0
227, 0.21470566749281, -0.064827197498634, 0
228, 0.12956587420964, -0.13176416341983, 0
229, 0.44081450309094, -0.24676218031383, 0
230, 0.17619628351047, -0.11336730232201, 0
231, 0.52526517835201, -0.28302634280264, 0
232, 0.34757508773107, -0.20677925921355, 0
233, 0.63886807558082, -0.28375269575478, 0
234, 0.36806345735388, -0.22976633286479, 0
235, 0.40646972327585, -0.27417489796787, 0
236, 0.10613438304474, -0.22871220932843, 0
237, 0.105553351599, -0.27639292567118, 0
238, 0.88527265103648, 0.022042004131832, 0
239, 0.9142403282212, 0.024157703489901, 0
240, 0.1524225409562, -0.10910088171041, 0
241, 0.21900485530145, -0.12046317345338, 0
242, 0.69875940775212, 0.19194972118463, 0
243, 0.87625143806849, 0.20426702449315, 0
244, 0.66447504665337, 0.26248652712965, 0
245, 0.83723707914085, 0.27882517636092, 0
246, 0.88176812432008, 0.22868822323867, 0
247, 0.76734392589809, 0.25056912790239, 0
248, 0.70564012602305, 0.14714203350478, 0
249, 0.86604647821212, 0.12120442851015, 0
250, 0.68443387651118, 0.26730428666668, 0
251, 0.67805318026645, 0.22708627261077, 0
252, 0.91951966714989, 0.27542464927954, 0
253, 0.88716353843365, 0.25256056034837, 0
254, 0.63936962739072, 0.1876291979475, 0
255, 0.67966462972411, 0.24786777324569, 0
256, 0.66164423775173, 0.17573310417998, 0
257, 0.68414787569586, -0.25993702689613, 0
258, 0.35736719367219, -0.26466222967538, 0
259, 0.86483841338897, 0.27736004213391, 0
260, 0.94292222134631, 0.026147670174085, 0
261, 0.65967724898132, 0.19704661487522, 0
262, 0.24759470109615, -0.24715348018766, 0
263, 0.870923378212, 0.17879596037081, 0
264, 0.97033523527514, 0.056477235988247, 0
265, 0.61778415518526, 0.201257374241, 0
266, 0.44542345123312, -0.29303861409634, 0
267, 0.19559171158737, -0.062024240031801, 0
268, 0.102715227561, -0.047631759439865, 0
269, 0.39844735946178, -0.2203822543669, 0
270, 0.32088068972068, -0.19868073047399, 0
271, 0.41906796287981, -0.23587590309345, 0
272, 0.76675582060145, 0.09290518653226, 0
273, 0.6934803820301, -0.24886741159193, 0
274, 0.69335369569111, 0.28491033472621, 0
275, 0.077948956451901, -0.016878004829643, 0
276, 0.78538971241465, -0.072764758201047, 0
277, 0.25066829291518, -0.22983280927171, 0
278, 0.61338163762598, -0.28212391179558, 0
279, 0.27979402779471, -0.23601163868499, 0
280, 0.02593786459649, -0.11840806890555, 0
281, 0.59527975827119, 0.18951683046953, 0
282, 0.55653123327792, 0.22564764488039, 0
283, 0.78939083094933, -0.29276781543168, 0
284, 0.71197318480812, -0.29385262869721, 0
285, 0.42743952291187, -0.28496089724159, 0
286, 0.71908132512082, 0.096424638647283, 0
287, 0.62931929089114, -0.25710808852998, 0
288, 0.10362788489063, -0.12785736158019, 0
289, 0.67463235077166, -0.27214410603756, 0
290, 0.026204016739865, -0.17119703146604, 0
291, 0.79107416743036, -0.24745624340227, 0
292, 0.43368936552709, -0.26419039711707, 0
293, 0.91573830811935, 0.25080151349956, 0
294, 0.24196637475548, -0.28220656429099, 0
295, 0.94044194097379, 0.055689115626181, 0
296, 0.83417270692412, 0.091542839624306, 0
297, 0.70218461334006, 0.16965662921668, 0
298, 0.13644950451941, 0.11393295486632, 0
299, 0.2490055446773, 0.11670047697158, 0
300, 0.13050119639335, 0.0026994335333052, 0
301, 0.29811965730861, -0.17725266268068, 0
302, 0.26290518387238, -0.18056103953096, 0
303, 0.71194249571581, 0.22295845762549, 0
304, 0.71384596547389, 0.28700324880567, 0
305, 0.54532001097961, -0.2816528687673, 0
306, 0.7400990832205, -0.25909807164344, 0
307, 0.76124967053453, -0.2631195765349, 0
308, 0.48347713946777, -0.25331438853861, 0
309, 0.81189723151326, -0.24107426440786, 0
310, 0.59442857449405, -0.27166345737856, 0
311, 0.71896189044896, -0.25282472352819, 0
312, 0.78553377060632, 0.18130243564804, 0
313, 0.74037348054605, 0.09427645641732, 0
314, 0.86668336407535, 0.15149874293914, 0
315, 0.60526494404612, -0.25304604570582, 0
316, 0.15595176337568, -0.13638170715718, 0
317, 0.38518898738266, 0.28163244544051, 0
318, 0.41609165342172, 0.28215866734674, 0
319, 0.65407958717934, -0.26170814696925, 0
320, 0.36420071934008, -0.24154691274636, 0
321, 0.75656694502948, -0.26956053757957, 0
322, 0.62419995674806, -0.26520336397258, 0
323, 0.48322016891642, -0.29299596166985, 0
324, 0.80174239644705, 0.26204434501678, 0
325, 0.73437150640456, 0.2865369484958, 0
326, 0.74464295533181, 0.15819244436161, 0
327, 0.6785945516678, 0.20549263566403, 0
328, 0.94646556605551, 0.27486760709557, 0
329, 0.75755135799706, 0.23599105891774, 0
330, 0.77027220328739, 0.21144816276282, 0
331, 0.026323220865746, 0.017502953247695, 0
332, 0.56908136850429, -0.22679517202564, 0
333, 0.21243265499066, -0.091926139950906, 0
334, 0.052104586795951, -0.013365820003413, 0
335, 0.25139806608058, 0.088990287130366, 0
336, 0.22100432082298, 0.096270530668439, 0
337, 0.26168672309505, 0.24839878121893, 0
338, 0.8347801735742, 0.18692475148962, 0
339, 0.81158949614728, 0.21826251601742, 0
340, 0.68395832325589, 0.16318137816685, 0
341, 0.13409344070533, 0.057500314647835, 0
342, 0.027192415472646, 0.12997982168627, 0
343, 0.027394544735754, 0.18753485355226, 0
344, 0.02731834061022, 0.15872770628195, 0
345, 0.10598307802379, 0.034144840080423, 0
346, 0.08107346674513, 0.094148891708357, 0
347, 0.16659550951225, 0.23133893609305, 0
348, 0.64385437739983, -0.2344600337701, 0
349, 0.79417437972858, -0.2849219468106, 0
350, 0.90514594006908, 0.17390516259182, 0
351, 0.64117471094577, 0.16597111570656, 0
352, 0.59989139200927, 0.27228241954835, 0
353, 0.81304300302002, 0.054428504428938, 0
354, 0.73075435001326, -0.27038744835379, 0
355, 0.4611919447028, -0.25568381934676, 0
356, 0.16027416005889, -0.25638371808407, 0
357, 0.41386625775388, -0.250491967866, 0
358, 0.1060044000527, -0.20434596595793, 0
359, 0.5093793121282, -0.27647449438919, 0
360, 0.76589339645179, -0.25638481497028, 0
361, 0.27291750473345, -0.26756747527609, 0
362, 0.026069628572046, -0.14494781648885, 0
363, 0.23925205287346, -0.14830953474546, 0
364, 0.39478907488632, -0.23052923144983, 0
365, 0.16073667311456, -0.18778396303644, 0
366, 0.50464571868028, -0.24662847415624, 0
367, 0.33482546143794, -0.24703261337738, 0
368, 0.55005954943163, -0.27192652249193, 0
369, 0.42594932129357, -0.29240546861822, 0
370, 0.53368085448828, -0.26433567270114, 0
371, 0.79450573484839, -0.23773381189632, 0
372, 0.13330913468501, -0.23120560041392, 0
373, 0.59701154385484, -0.21775016032731, 0
374, 0.18942223592966, -0.23790195960488, 0
375, 0.79451916996022, 0.01353831769997, 0
376, 0.10354371898857, -0.020557779629129, 0
377, 0.55035670853103, -0.21477169210919, 0
378, 0.025931389110191, -0.037383458123945, 0
379, 0.52517647760597, -0.23778082385767, 0
380, 0.053087611701719, 0.04177727915624, 0
381, 0.2178130565422, 0.041893814113977, 0
382, 0.24969479539599, 0.035349174900991, 0
383, 0.58217581915113, -0.290501195506, 0
384, 0.62085017905861, 0.25170911231813, 0
385, 0.85832827052219, 0.25501428987449, 0
386, 0.47624052031262, -0.26664614482729, 0
387, 0.15153899148357, -0.055052379998739, 0
388, 0.71433833144963, -0.25801948509707, 0
389, 0.026807987809045, 0.073179125310677, 0
390, 0.08242364690009, 0.24024367909251, 0
391, 0.026568718615983, 0.04524215257947, 0
392, 0.40209899034877, -0.29116882344717, 0
393, 0.70969506024995, -0.26339976102212, 0
394, 0.75752068911856, 0.28473267574733, 0
395, 0.74572720408216, 0.22267467199598, 0
396, 0.70206159925817, 0.27180429197367, 0
397, 0.08163784167075, 0.12270515177728, 0
398, 0.027020188443233, 0.10146933841814, 0
399, 0.93831793774339, 0.085236235088574, 0
400, 0.84351752575257, 0.21015168646336, 0
401, 0.97089838100201, 0.2229133474329, 0
402, 0.72138493752934, -0.2819227991612, 0
403, 0.53798826117385, -0.25400129974597, 0
404, 0.6956354497971, -0.28073443287258, 0
405, 0.077170636930474, -0.071070264256097, 0
406, 0.20017705505471, -0.035757559105523, 0
407, 0.93763943847746, 0.17100821256928, 0
408, 0.67111377331353, 0.28224342953963, 0
409, 0.43605634501671, -0.25795839020775, 0
410, 0.1903307763474, -0.21645167538505, 0
411, 0.77557005138756, 0.26617003181247, 0
412, 0.73239821572147, 0.27368441666314, 0
413, 0.82482900488885, 0.16225686906154, 0
414, 0.1865259949204, -0.2794063237305, 0
415, 0.077309033626063, -0.097869773419388, 0
416, 0.47971721195764, -0.26005601333478, 0
417, 0.52124441893974, -0.29168175417156, 0
418, 0.56436665400163, -0.23937122097451, 0
419, 0.027371206216966, 0.24447635324728, 0
420, 0.02725704477612, 0.27232360286798, 0
421, 0.93670143753798, 0.14323332114062, 0
422, 0.80970319809028, 0.28061854176987, 0
423, 0.91000596793552, 0.055032511473945, 0
424, 0.97146168454995, 0.028076833327834, 0
425, 0.052609702599905, -0.27502624709666, 0
426, 0.63913070006956, -0.24171832714296, 0
427, 0.82125822909892, 0.23804539871742, 0
428, 0.96939391248454, 0.084899041071701, 0
429, 0.96985833309046, 0.19648014143825, 0
430, 0.35127883290535, -0.28800747239946, 0
431, 0.59996759697869, -0.26232359023163, 0
432, 0.15105885915017, -0.081994460814066, 0
433, 0.90620046574332, 0.086025351108213, 0
434, 0.78063962897602, 0.054905962828442, 0
435, 0.72199879188999, 0.065883882660756, 0
436, 0.73780658726923, -0.294006403159, 0
437, 0.68613900589684, -0.29334950802979, 0
438, 0.17438220290466, -0.058681668890539, 0
439, 0.31182576519419, -0.22722203295749, 0
440, 0.18899814765603, -0.16958875481291, 0
441, 0.5768736602148, 0.26710913995125, 0
442, 0.1371786047025, 0.14301020439727, 0
443, 0.02741415782645, 0.21610320402931, 0
444, 0.080369721840998, 0.065951498644743, 0
445, 0.1927965132999, 0.13157250685974, 0
446, 0.25352892685614, 0.20679158750679, 0
447, 0.6075812091156, -0.29093969412535, 0
448, 0.51322873059371, -0.26793649079396, 0
449, 0.12752324056151, -0.051326729401337, 0
450, 0.31616334193092, -0.21296403150927, 0
451, 0.16621750961006, 0.19877110705039, 0
452, 0.054032805022805, 0.097946765922225, 0
453, 0.10818873365681, 0.090009849360549, 0
454, 0.082061565817895, 0.15162757806705, 0
455, 0.078714198361773, 0.010485055965638, 0
456, 0.22205013634759, -0.03910313819752, 0
457, 0.19446977644444, -0.089210685503097, 0
458, 0.63913247043661, 0.21090915853992, 0
459, 0.93939395371596, 0.19790056453223, 0
460, 0.97206483992241, 0.24891354561762, 0
461, 0.79805280468471, 0.092592438786026, 0
462, 0.59861762510745, 0.2449728356519, 0
463, 0.50205317223488, -0.2924281481656, 0
464, 0.25407507799754, -0.21274007327916, 0
465, 0.052469390943917, -0.17363824242462, 0
466, 0.2420251639589, 0.009977318535293, 0
467, 0.11020625372439, 0.23789170197198, 0
468, 0.16625829059868, 0.26530700994441, 0
469, 0.026347475068045, -0.24884992604638, 0
470, 0.74718319073316, -0.28193526273094, 0
471, 0.80774756261138, -0.2558096000328, 0
472, 0.10955989245651, 0.14759041588984, 0
473, 0.22077578578403, 0.1245274322603, 0
474, 0.05482280624354, 0.24235786866494, 0
475, 0.21285456660721, 0.015694836594573, 0
476, 0.11020838383866, 0.20727762958119, 0
477, 0.23191555103919, -0.01446652655455, 0
478, 0.73542948116577, -0.26472561566147, 0
479, 0.26952239827239, -0.16736124981895, 0
480, 0.051760554109014, -0.040645984126494, 0
481, 0.10275420401494, -0.10134111869358, 0
482, 0.30068326857142, -0.27038697817749, 0
483, 0.61890150672958, -0.2735448572759, 0
484, 0.33869545603475, -0.23390107730265, 0
485, 0.75187640121386, -0.27580478462993, 0
486, 0.50063441661252, -0.25545277689542, 0
487, 0.54227720268377, -0.2426755669262, 0
488, 0.051863954620571, -0.12127889263547, 0
489, 0.71396328369343, 0.002875070688581, 0
490, 0.37739930020251, -0.20454511814647, 0
491, 0.66832026254065, -0.24246944961266, 0
492, 0.94160295061903, 0.22402679694908, 0
493, 0.53581541740349, 0.2457407344861, 0
494, 0.84601560619207, 0.054640990752374, 0
495, 0.48966784494122, -0.27865295991079, 0
496, 0.52890788293007, -0.22471306137944, 0
497, 0.37735062377247, -0.28962943520989, 0
498, 0.8010194199513, -0.097923815011396, 0
499, 0.75209295931676, 0.27023962467069, 0
500, 0.74559834091109, 0.25664895233886, 0
501, 0.079262044463305, -0.25123910671565, 0
502, 0.76824909588359, -0.28717969549938, 0
503, 0.12785780979883, -0.10508894617186, 0
504, 0.35280383487221, -0.19217989683712, 0
505, 0.079207530025457, -0.20166960057156, 0
506, 0.77040649435475, -0.24935534969298, 0
507, 0.51180558373795, 0.2651646704838, 0
508, 0.79289232709386, 0.24420937260275, 0
509, 0.74244483143897, -0.019825866431825, 0
510, 0.64408227923545, -0.27610068082443, 0
511, 0.46442374051095, -0.29322834954617, 0
512, 0.44996443649968, -0.27958197762109, 0
513, 0.64914374828721, -0.26875220585887, 0
514, 0.16414767176494, 0.10872358061208, 0
515, 0.10897296110865, 0.11855855511773, 0
516, 0.46710378040602, -0.28649588713933, 0
517, 0.7243471042203, 0.1517751068586, 0
518, 0.1024210601385, -0.074569252187541, 0
519, 0.65978544079617, -0.29258748668802, 0
520, 0.77765044436794, -0.27320782165143, 0
521, 0.79884233278798, -0.27637008180963, 0
522, 0.053588957400887, 0.069711699935071, 0
523, 0.082344291766683, 0.18090346280821, 0
524, 0.13773224419388, 0.17282845635183, 0
525, 0.051643135577538, -0.094642339804975, 0
526, 0.57159902217413, -0.27107089773971, 0
527, 0.34009766138479, 0.2753119272663, 0
528, 0.31558230241747, 0.26987561683472, 0
529, 0.6334653374415, -0.29171413448574, 0
530, 0.36355644722093, 0.27889806962735, 0
531, 0.49679566945734, -0.2635663453173, 0
532, 0.19342601683912, 0.16135416159633, 0
533, 0.054888626119371, 0.21333525673351, 0
534, 0.79999818408167, 0.19908452950708, 0
535, 0.46232798319892, 0.27841233551799, 0
536, 0.48715672817086, 0.27390556402565, 0
537, 0.89237092188711, 0.27623692277352, 0
538, 0.78258043629839, 0.22722880697306, 0
539, 0.72565514467665, 0.23302034219379, 0
540, 0.43821575857429, 0.28077428061797, 0
541, 0.55504906048165, 0.25965095496489, 0
542, 0.72043302646187, 0.1769984082745, 0
543, 0.59208742061663, -0.22907971034894, 0
544, 0.48636343964499, -0.28588658030236, 0
545, 0.12875359761275, -0.024360630888143, 0
546, 0.72041967834632, 0.033091729634441, 0
547, 0.74249192470572, -0.28799291686259, 0
548, 0.7287762080714, 0.2620058387595, 0
549, 0.96878562315442, 0.11338569592373, 0
550, 0.62370545583831, 0.27618414866292, 0
551, 0.716922335911, 0.27521261869662, 0
552, 0.70948665379875, 0.24322437954658, 0
553, 0.026287552928697, -0.27444986764729, 0
554, 0.81338034600591, -0.12386030459181, 0
555, 0.1880914721592, -0.25878158965204, 0
556, 0.80337841888264, -0.26687767814014, 0
557, 0.28802939887653, -0.20555365976432, 0
558, 0.40422702877645, -0.28255916310126, 0
559, 0.66977717169269, -0.27867097278812, 0
560, 0.45811339629445, -0.26121663066346, 0
561, 0.81409012390016, -0.22647629677673, 0
562, 0.85585070695139, 0.019683619423203, 0
563, 0.13136971500075, -0.15787884031868, 0
564, 0.58711371184988, -0.24003972591158, 0
565, 0.75905302667798, 0.010391486482417, 0
566, 0.15340768033695, -0.028242719076074, 0
567, 0.10550817193115, -0.17944619152986, 0
568, 0.87219262818648, 0.087737155500872, 0
569, 0.90827585122761, 0.20036381608063, 0
570, 0.054391723447236, 0.12648021176629, 0
571, 0.19221887848187, 0.10284821932821, 0
572, 0.2580410533973, -0.19614455630257, 0
573, 0.49314208485412, -0.27124483473094, 0
574, 0.93691645739882, 0.11456281338013, 0
575, 0.66530519048118, 0.15647866835059, 0
576, 0.18133688936388, -0.0057003655337071, 0
577, 0.054659249270468, 0.15528602160118, 0
578, 0.13238468703532, 0.029952481946857, 0
579, 0.082474702975275, 0.2104670444509, 0
580, 0.29011699713964, 0.26165766572368, 0
581, 0.22607877114954, 0.25757146308887, 0
582, 0.69633572783943, 0.25432385491492, 0
583, 0.57385078593292, -0.2127681942223, 0
584, 0.78291362212658, 0.28264006248689, 0
585, 0.97326257422818, 0.27452358676422, 0
586, 0.15883286081512, 0.025494745637082, 0
587, 0.1379064963539, 0.2673397171086, 0
588, 0.6882361260633, 0.14344529838923, 0
589, 0.22228222508742, 0.18469886428679, 0
590, 0.10997390361478, 0.17716407594386, 0
591, 0.1953223830665, 0.26235661579712, 0
592, 0.13812263281999, 0.20349020141331, 0
593, 0.16299880939751, 0.080448125630613, 0
594, 0.16559107963505, 0.16764025759824, 0
595, 0.18891881779895, 0.047574499959777, 0
596, 0.26978151684003, -0.28365931649373, 0
597, 0.18430102689154, -0.1424720376573, 0
598, 0.69089972890292, -0.28693131949599, 0
599, 0.64303180032663, 0.2573931063236, 0
600, 0.6589106604368, -0.25497400714089, 0
601, 0.16102388361489, -0.23422091947769, 0
602, 0.35425902950041, -0.2762582102704, 0
603, 0.91192727069143, 0.22587831543959, 0
604, 0.10466328723339, -0.15394332372609, 0
605, 0.75559405529571, 0.19748650351627, 0
606, 0.96867028681975, 0.14160031612888, 0
607, 0.29284862380187, -0.1910523115464, 0
608, 0.94401610190365, 0.24961643441975, 0
609, 0.30414149797869, -0.25588758116015, 0
610, 0.68067488310971, 0.18392202549722, 0
611, 0.16123983814554, 0.052741945475483, 0
612, 0.18550645991862, 0.020766104879943, 0
613, 0.65929888993214, 0.219274156543, 0
614, 0.054828411978449, 0.18428448031808, 0
615, 0.73176744622461, 0.2108809369926, 0
616, 0.74958111207261, 0.058510851014057, 0
617, 0.15919685779709, -0.27823435117286, 0
618, 0.8258499617149, 0.016831052424057, 0
619, 0.52942295165847, -0.2739513603201, 0
620, 0.32469107050431, -0.28649486832939, 0
621, 0.78685044823841, -0.25697190971514, 0
622, 0.47299832745504, -0.27321421865658, 0
623, 0.44759647717157, -0.28621594746236, 0
624, 0.46995868180783, -0.27982331823471, 0
625, 0.56079274327796, -0.29054920471418, 0
626, 0.90343397973073, 0.11672511456526, 0
627, 0.052683368467881, -0.19934643472011, 0
628, 0.052171375335314, -0.14762138045431, 0
629, 0.96906322875435, 0.16931269894666, 0
630, 0.74475548552007, -0.25347565374529, 0
631, 0.5768891995532, -0.2609989908082, 0
632, 0.81369786121524, -0.21495926535126, 0
633, 0.7662757623194, -0.047138450224825, 0
634, 0.16127039101712, -0.21146703797848, 0
635, 0.078338388849434, -0.15058434359006, 0
636, 0.32597654862868, -0.18426399185391, 0
637, 0.19044896592777, -0.19394013012902, 0
638, 0.70503140787945, -0.26897455077759, 0
639, 0.38826029018767, -0.25003472856999, 0
640, 0.025850907847858, -0.091651070625435, 0
641, 0.24472020576022, -0.26460948148681, 0
642, 0.61733203176421, 0.17583078158097, 0
643, 0.13823475381805, 0.23504437758949, 0
644, 0.71668565198117, -0.28783156242501, 0
645, 0.57694109717236, 0.23660018670939, 0
646, 0.64760339341906, 0.27937436218604, 0
647, 0.87868053743599, 0.054625800262099, 0
648, 0.37238025699453, -0.21755844292379, 0
649, 0.70974366671346, 0.26058509282527, 0
650, 0.69497330248488, 0.23493890244417, 0
651, 0.54068966961157, -0.29098883657061, 0
652, 0.40066069138055, 0.28776863597031, 0
653, 0.37983697638976, -0.27949107036224, 0
654, 0.50876814048864, -0.23661699177311, 0
655, 0.82963914509705, 0.25822400926552, 0
656, 0.72096598725321, 0.25214913872744, 0
657, 0.026306659919568, -0.19725274920747, 0
658, 0.1590325536787, -0.16279356000733, 0
659, 0.077755879680135, -0.12439901401148, 0
660, 0.13226481562056, -0.27724028276935, 0
661, 0.73691858544551, 0.24423494197266, 0
662, 0.61536716168205, -0.23475790904207, 0
663, 0.52119988986833, -0.24891463779289, 0
664, 0.40883774624857, -0.26602930681768, 0
665, 0.026099898113016, -0.010008437480693, 0
666, 0.39141733045963, -0.24033976650175, 0
667, 0.58855164754804, -0.28105668116637, 0
668, 0.41131347979445, -0.25813413936857, 0
669, 0.078863115168949, -0.17634625385245, 0
670, 0.45251186846719, -0.27318144077224, 0
671, 0.48758722723509, -0.24617544590549, 0
672, 0.27622956315668, -0.25168554575836, 0
673, 0.17728349595515, -0.032083220254699, 0
674, 0.13326398861479, -0.20753323529296, 0
675, 0.61038368501767, -0.24384836363896, 0
676, 0.6342895150906, -0.24927371357902, 0
677, 0.28369880669812, -0.2205968827642, 0
678, 0.45522755269864, -0.26705127751139, 0
679, 0.19958081188727, -0.11818941336121, 0
680, 0.43845076403303, -0.25213963408421, 0
681, 0.3824812605848, -0.26954325981218, 0
682, 0.46451805449467, -0.25042751515974, 0
683, 0.69612035711388, 0.21390731526642, 0
684, 0.71593543800072, 0.2007240211949, 0
685, 0.73864222838112, 0.18601150621446, 0
686, 0.76677606198067, 0.16717608070746, 0
687, 0.6402908429979, 0.23440608459685, 0
688, 0.61895662560876, 0.22664839606639, 0
689, 0.59723314169073, 0.21753208395253, 0
690, 0.57562996410991, 0.20660917549281, 0
691, 0.70757856194683, 0.12356329190636, 0
692, 0.72572265169554, 0.12432377366126, 0
693, 0.74790877684775, 0.12616596654913, 0
694, 0.77554308300523, 0.12947359633699, 0
695, 0.71848289792824, 0.2659052739622, 0
696, 0.85128770157908, 0.23270943395564, 0
697, 0.66073322861005, 0.24132069026665, 0
698, 0.81345157353622, 0.13429570625338, 0
699, 0.051599012585358, -0.067746570938779, 0
700, 0.50565439918265, -0.2846052045277, 0
701, 0.026355655067311, -0.22312010353071, 0
702, 0.55962292629835, -0.25092811019729, 0
703, 0.82157153545993, -0.15164437678556, 0
704, 0.78780483274117, -0.033316712741115, 0
705, 0.80545349897174, -0.063948266280816, 0
706, 0.81896393535557, -0.092120164538824, 0
707, 0.82900269957326, -0.12033419010759, 0
708, 0.834521129713, -0.15073338965115, 0
709, 0.97265483691414, -0.00034440555448123, 0
710, 0.94549825441551, -0.003288598006605, 0
711, 0.91851004437155, -0.0063807141835926, 0
712, 0.89170312402066, -0.0097629532483775, 0
713, 0.86510460491201, -0.013651599412435, 0
714, 0.83878525162472, -0.018404351235335, 0
715, 0.97381204509132, -0.028821437058286, 0
716, 0.94794998797634, -0.032605874659519, 0
717, 0.92248312029925, -0.036514731693464, 0
718, 0.89752312513978, -0.040708601542753, 0
719, 0.87319639690679, -0.045338603679827, 0
720, 0.84963984867155, -0.050583182168229, 0
721, 0.97485264926819, -0.057603503008266, 0
722, 0.95009462030946, -0.061871919458342, 0
723, 0.92587567595459, -0.066309713753748, 0
724, 0.90237839130313, -0.07099185021067, 0
725, 0.87979701240995, -0.075946739612585, 0
726, 0.85830597474255, -0.081154053413573, 0
727, 0.97568178421242, -0.0864049728739, 0
728, 0.95175692076242, -0.091016775540813, 0
729, 0.9284278682493, -0.095834511167756, 0
730, 0.90593557142579, -0.10088557060961, 0
731, 0.88453602265152, -0.10610279648434, 0
732, 0.86447470685744, -0.11130326506192, 0
733, 0.97622507304631, -0.11515491453139, 0
734, 0.95278581996328, -0.119978367492, 0
735, 0.9299057843902, -0.12512900222297, 0
736, 0.90784035251738, -0.13063964921764, 0
737, 0.88688523155091, -0.13642830871502, 0
738, 0.86737488588578, -0.14224962798448, 0
739, 0.9741602942862, -0.27538729986008, 0
740, 0.97487759650354, -0.25043626399326, 0
741, 0.97551210895837, -0.22486180051411, 0
742, 0.97601729584145, -0.19861949293961, 0
743, 0.97634738536797, -0.17144610057989, 0
744, 0.94823319638075, -0.27699260451367, 0
745, 0.94965158250146, -0.25340429091678, 0
746, 0.95094096510484, -0.22890184316448, 0
747, 0.95201664617809, -0.20328217584042, 0
748, 0.95278119450119, -0.17644085459662, 0
749, 0.92211695246356, -0.2788632709097, 0
750, 0.92429754783963, -0.25688581703282, 0
751, 0.92629357692102, -0.23363993666523, 0
752, 0.92803053222551, -0.20878935327557, 0
753, 0.92938280347717, -0.18219649840207, 0
754, 0.89585774363878, -0.28111982242761, 0
755, 0.89877669976773, -0.26112059392882, 0
756, 0.90150687056526, -0.23945721136293, 0
757, 0.90399115728647, -0.2155889005262, 0
758, 0.90612226094097, -0.18917161944635, 0
759, 0.86934882642776, -0.28385353775643, 0
760, 0.87298546069681, -0.26633716963705, 0
761, 0.87642567900753, -0.24680612183972, 0
762, 0.8796707206415, -0.2244040314536, 0
763, 0.88272615280741, -0.19822646572378, 0
764, 0.84264657290182, -0.28701632712761, 0
765, 0.84686310994984, -0.27258151784371, 0
766, 0.85088505406535, -0.25604127470441, 0
767, 0.85473879415518, -0.23623108905555, 0
768, 0.85854818795475, -0.21114735377716, 0
769, 0.10595835212735, -0.25267985987805, 0
770, 0.78228721635667, -0.26554570103037, 0
771, 0.33123620832114, -0.26010310822291, 0
772, 0.38528648392796, -0.25974263113608, 0
773, 0.32787251370849, -0.27322542250511, 0
774, 0.025844770147839, -0.064600989677063, 0
775, 0.41646155082793, -0.24308782623269, 0
776, 0.43141318408728, -0.27079865809245, 0
777, 0.30783602780295, -0.24151502978539, 0
778, 0.55484421778938, -0.26172390788451, 0
779, 0.21410440289528, -0.28074653731588, 0
780, 0.29739809144087, -0.28506887987552, 0
781, 0.67941822023165, -0.26589937523893, 0
782, 0.13293100661176, -0.25437190418068, 0
783, 0.17367990991728, -0.085712821536287, 0
784, 0.4293002357465, -0.27773903309517, 0
785, 0.7635233153558, -0.29370483647625, 0
786, 0.34291556508036, -0.22055861929469, 0
787, 0.052776820550571, -0.22477467704072, 0
788, 0.66365320131781, -0.24855799000938, 0
789, 0.72607367975335, -0.27611297408624, 0
790, 0.077396756829155, -0.044057914573141, 0
791, 0.62024711952015, -0.22581097886617, 0
792, 0.54645208883225, -0.22990087540678, 0
793, 0.8229300606545, -0.18350022749952, 0
794, 0.8305050404827, -0.18949475131135, 0
795, 0.81287444881874, -0.024605268962723, 0
796, 0.82699372526344, -0.056680241319986, 0
797, 0.83802001127842, -0.086560703860918, 0
798, 0.84592573390039, -0.11620473318119, 0
799, 0.84945814801203, -0.14795846508357, 0
800, 0.81600822367817, -0.29024832501014, 0
801, 0.82054352325064, -0.27931481983898, 0
802, 0.82493111807963, -0.26673196590109, 0
803, 0.82913900539948, -0.25146384610983, 0
804, 0.83314286486068, -0.23096484593209, 0
805, 0.97643759198447, -0.14363559707222, 0
806, 0.95309342425479, -0.14857717114743, 0
807, 0.93012421496188, -0.15411165444746, 0
808, 0.90762013079289, -0.16047873985201, 0
809, 0.88545139662952, -0.168202361934, 0
810, 0.86284751764958, -0.17877275800383, 0
811, 0.83701409329948, -0.19746793764029, 0
812, 0.21630849482873, -0.26157061947058, 0
813, 0.21843205595579, -0.24230065905223, 0
814, 0.22042942465888, -0.22270581930854, 0
815, 0.22214800713813, -0.20235748684657, 0
816, 0.22316235280782, -0.18027668741646, 0
817, 0.22209554488102, -0.15367187987984, 0
******* E L E M E N T S *************
*ELEMENT, type=CPS4, ELSET=Surface1
1, 261, 458, 265, 254
2, 338, 263, 243, 400
3, 411, 584, 394, 499
4, 500, 499, 412, 548
5, 439, 777, 367, 484
6, 783, 438, 387, 432
7, 361, 596, 780, 482
8, 322, 483, 510, 513
9, 212, 102, 95, 420
10, 397, 570, 452, 346
11, 204, 205, 390, 467
12, 571, 514, 593, 209
13, 384, 599, 550, 352
14, 407, 629, 429, 459
15, 549, 54, 65, 606
16, 605, 330, 395, 615
17, 452, 398, 389, 522
18, 337, 580, 98, 91
19, 344, 105, 116, 342
20, 343, 115, 105, 344
21, 442, 472, 515, 298
22, 475, 612, 576, 218
23, 509, 489, 158, 192
24, 395, 329, 661, 539
25, 410, 634, 601, 374
26, 303, 539, 552, 650
27, 645, 462, 441, 541
28, 696, 385, 655, 427
29, 548, 412, 551, 695
30, 236, 202, 501, 769
31, 816, 815, 464, 572
32, 607, 270, 636, 301
33, 291, 561, 632, 371
34, 667, 383, 447, 278
35, 359, 700, 231, 619
36, 609, 482, 773, 771
37, 484, 367, 197, 320
38, 372, 236, 769, 782
39, 636, 504, 138, 178
40, 791, 348, 185, 132
41, 292, 776, 670, 678
42, 648, 234, 666, 364
43, 363, 479, 177, 140
44, 194, 502, 349, 521
45, 302, 572, 557, 607
46, 814, 410, 374, 813
47, 788, 198, 273, 491
48, 279, 672, 609, 777
49, 235, 558, 285, 784
50, 233, 529, 519, 200
51, 583, 373, 184, 133
52, 488, 280, 362, 628
53, 199, 469, 553, 425
54, 197, 258, 681, 772
55, 494, 562, 238, 647
56, 355, 560, 416, 308
57, 195, 567, 358, 674
58, 258, 602, 653, 681
59, 425, 553, 10, 18
60, 428, 264, 53, 64
61, 522, 389, 391, 380
62, 298, 515, 453, 211
63, 611, 341, 578, 586
64, 524, 590, 472, 442
65, 642, 281, 163, 154
66, 430, 16, 24, 497
67, 668, 664, 776, 292
68, 660, 237, 19, 12
69, 234, 320, 639, 666
70, 231, 417, 651, 305
71, 275, 455, 223, 334
72, 117, 107, 391, 389
73, 468, 100, 93, 587
74, 341, 213, 345, 578
75, 107, 118, 331, 391
76, 456, 142, 174, 477
77, 487, 403, 702, 418
78, 817, 302, 479, 363
79, 269, 271, 180, 137
80, 256, 254, 642, 351
81, 296, 494, 647, 568
82, 575, 351, 162, 155
83, 647, 238, 239, 423
84, 116, 106, 398, 342
85, 570, 342, 398, 452
86, 468, 587, 643, 347
87, 106, 117, 389, 398
88, 684, 615, 303, 683
89, 351, 642, 154, 162
90, 314, 201, 350, 263
91, 254, 265, 281, 642
92, 789, 402, 470, 485
93, 780, 15, 23, 620
94, 572, 464, 677, 557
95, 406, 218, 576, 673
96, 603, 293, 253, 246
97, 198, 388, 311, 273
98, 697, 255, 244, 599
99, 485, 470, 194, 520
100, 319, 513, 289, 781
101, 413, 314, 263, 338
102, 388, 306, 630, 311
103, 302, 607, 301, 479
104, 511, 29, 26, 323
105, 777, 609, 771, 367
106, 415, 405, 699, 525
107, 462, 384, 352, 441
108, 427, 655, 324, 508
109, 400, 696, 427, 339
110, 281, 690, 153, 163
111, 556, 521, 802, 803
112, 285, 369, 266, 623
113, 771, 773, 602, 258
114, 225, 404, 402, 789
115, 348, 491, 131, 185
116, 770, 520, 556, 471
117, 625, 28, 3, 383
118, 529, 40, 33, 519
119, 382, 381, 475, 466
120, 515, 397, 346, 453
121, 420, 103, 114, 419
122, 95, 8, 103, 420
123, 164, 282, 493, 152
124, 388, 393, 478, 306
125, 656, 548, 695, 649
126, 687, 697, 599, 384
127, 203, 425, 18, 11
128, 414, 617, 20, 13
129, 315, 431, 322, 287
130, 324, 422, 584, 411
131, 250, 396, 274, 408
132, 585, 68, 76, 328
133, 538, 508, 247, 329
134, 249, 626, 201, 314
135, 599, 244, 646, 550
136, 243, 569, 603, 246
137, 352, 550, 75, 6
138, 436, 42, 35, 785
139, 366, 486, 663, 379
140, 320, 197, 772, 639
141, 680, 409, 560, 355
142, 584, 79, 72, 394
143, 330, 538, 329, 395
144, 574, 549, 606, 421
145, 649, 695, 551, 396
146, 307, 321, 770, 621
147, 405, 790, 480, 699
148, 379, 663, 487, 792
149, 637, 365, 634, 410
150, 323, 26, 30, 463
151, 294, 14, 22, 596
152, 227, 175, 142, 456
153, 650, 552, 582, 255
154, 437, 41, 34, 284
155, 549, 428, 64, 54
156, 267, 227, 456, 406
157, 380, 391, 331, 223
158, 335, 336, 219, 216
159, 443, 104, 115, 343
160, 419, 114, 104, 443
161, 211, 453, 213, 341
162, 204, 101, 94, 205
163, 206, 589, 210, 208
164, 219, 209, 595, 381
165, 308, 366, 654, 671
166, 617, 660, 12, 20
167, 559, 200, 598, 404
168, 699, 480, 378, 774
169, 299, 335, 172, 145
170, 579, 533, 614, 523
171, 466, 475, 218, 477
172, 466, 477, 174, 143
173, 621, 770, 471, 309
174, 417, 27, 31, 651
175, 457, 333, 227, 267
176, 198, 257, 393, 388
177, 402, 644, 547, 470
178, 409, 292, 678, 560
179, 422, 71, 79, 584
180, 534, 339, 538, 330
181, 353, 434, 375, 618
182, 626, 433, 399, 574
183, 201, 421, 407, 350
184, 689, 688, 462, 645
185, 259, 70, 78, 245
186, 295, 260, 424, 264
187, 272, 313, 616, 434
188, 643, 467, 476, 592
189, 207, 442, 298, 514
190, 580, 169, 148, 528
191, 335, 216, 144, 172
192, 553, 113, 1, 10
193, 373, 791, 132, 184
194, 283, 43, 36, 800
195, 478, 354, 321, 307
196, 210, 532, 445, 473
197, 473, 445, 571, 336
198, 454, 577, 570, 397
199, 533, 443, 343, 614
200, 337, 446, 170, 147
201, 347, 643, 592, 451
202, 381, 595, 612, 475
203, 444, 522, 380, 220
204, 602, 430, 497, 653
205, 774, 378, 119, 109
206, 640, 774, 109, 120
207, 370, 619, 368, 778
208, 316, 240, 503, 228
209, 440, 658, 365, 637
210, 641, 294, 596, 361
211, 193, 448, 370, 403
212, 792, 487, 418, 332
213, 321, 485, 520, 770
214, 463, 30, 27, 417
215, 624, 516, 544, 495
216, 393, 638, 354, 478
217, 555, 356, 617, 414
218, 670, 512, 624, 622
219, 355, 308, 671, 682
220, 224, 631, 431, 315
221, 434, 616, 565, 375
222, 263, 350, 569, 243
223, 255, 582, 250, 244
224, 688, 687, 384, 462
225, 461, 272, 434, 353
226, 692, 248, 588, 691
227, 265, 689, 690, 281
228, 573, 495, 359, 448
229, 232, 648, 490, 504
230, 561, 794, 793, 632
231, 788, 600, 257, 198
232, 671, 654, 182, 135
233, 782, 769, 237, 660
234, 679, 457, 783, 230
235, 653, 497, 392, 558
236, 153, 690, 282, 164
237, 429, 66, 56, 401
238, 312, 534, 330, 605
239, 606, 65, 55, 629
240, 779, 21, 14, 294
241, 662, 426, 348, 791
242, 257, 781, 638, 393
243, 816, 440, 637, 815
244, 648, 364, 269, 490
245, 526, 226, 667, 310
246, 505, 627, 787, 202
247, 374, 601, 356, 555
248, 274, 304, 73, 81
249, 698, 694, 461, 296
250, 460, 585, 328, 608
251, 282, 645, 541, 493
252, 518, 268, 790, 405
253, 412, 325, 304, 551
254, 790, 275, 334, 480
255, 630, 506, 129, 187
256, 669, 465, 627, 505
257, 675, 315, 287, 676
258, 196, 449, 268, 518
259, 785, 35, 43, 283
260, 513, 510, 559, 289
261, 639, 772, 664, 668
262, 543, 564, 675, 662
263, 278, 447, 529, 233
264, 474, 419, 443, 533
265, 614, 343, 344, 577
266, 476, 579, 523, 590
267, 390, 474, 533, 579
268, 512, 623, 516, 624
269, 623, 266, 511, 516
270, 481, 518, 405, 415
271, 333, 141, 175, 227
272, 812, 779, 294, 641
273, 464, 277, 279, 677
274, 510, 233, 200, 559
275, 543, 662, 791, 373
276, 362, 121, 111, 290
277, 619, 231, 305, 368
278, 480, 334, 665, 378
279, 558, 392, 369, 285
280, 208, 299, 145, 171
281, 590, 523, 454, 472
282, 591, 468, 347, 214
283, 581, 591, 214, 217
284, 483, 278, 233, 510
285, 784, 285, 623, 512
286, 516, 511, 323, 544
287, 778, 368, 526, 631
288, 97, 90, 528, 527
289, 527, 528, 148, 168
290, 336, 571, 209, 219
291, 213, 444, 220, 345
292, 450, 439, 484, 786
293, 486, 531, 193, 663
294, 676, 287, 319, 600
295, 200, 519, 437, 598
296, 96, 89, 530, 317
297, 317, 530, 149, 167
298, 530, 527, 168, 149
299, 89, 97, 527, 530
300, 431, 310, 483, 322
301, 264, 424, 63, 53
302, 356, 782, 660, 617
303, 245, 78, 71, 422
304, 382, 466, 143, 173
305, 337, 91, 99, 581
306, 208, 210, 473, 299
307, 209, 593, 611, 595
308, 531, 573, 448, 193
309, 447, 32, 40, 529
310, 626, 574, 421, 201
311, 421, 606, 629, 407
312, 165, 507, 536, 151
313, 151, 536, 535, 166
314, 536, 84, 87, 535
315, 507, 86, 84, 536
316, 408, 274, 81, 74
317, 574, 399, 428, 549
318, 493, 541, 86, 507
319, 615, 395, 539, 303
320, 7, 318, 540, 85
321, 85, 540, 535, 87
322, 540, 150, 166, 535
323, 318, 167, 150, 540
324, 423, 239, 260, 295
325, 251, 650, 255, 697
326, 360, 307, 621, 291
327, 267, 406, 673, 438
328, 627, 657, 701, 787
329, 815, 637, 410, 814
330, 607, 557, 450, 270
331, 646, 408, 74, 82
332, 634, 674, 372, 601
333, 364, 775, 271, 269
334, 598, 437, 284, 644
335, 365, 195, 674, 634
336, 340, 256, 351, 575
337, 773, 620, 430, 602
338, 284, 34, 42, 436
339, 310, 667, 278, 483
340, 252, 69, 77, 537
341, 249, 568, 433, 626
342, 693, 692, 313, 272
343, 329, 247, 500, 661
344, 550, 646, 82, 75
345, 57, 5, 68, 585
346, 616, 435, 546, 565
347, 416, 386, 531, 486
348, 457, 267, 438, 783
349, 482, 780, 620, 773
350, 674, 358, 236, 372
351, 565, 546, 489, 509
352, 266, 25, 29, 511
353, 685, 605, 615, 684
354, 469, 123, 113, 553
355, 271, 229, 136, 180
356, 488, 525, 640, 280
357, 501, 199, 425, 203
358, 691, 588, 161, 156
359, 681, 653, 558, 235
360, 781, 289, 225, 638
361, 683, 303, 650, 251
362, 545, 300, 222, 376
363, 349, 283, 800, 801
364, 817, 679, 230, 597
365, 288, 481, 415, 659
366, 385, 259, 245, 655
367, 253, 537, 259, 385
368, 569, 459, 492, 603
369, 690, 689, 645, 282
370, 593, 211, 341, 611
371, 217, 214, 215, 589
372, 589, 215, 532, 210
373, 216, 382, 173, 144
374, 702, 778, 631, 224
375, 262, 641, 361, 672
376, 657, 122, 112, 701
377, 305, 651, 625, 226
378, 286, 160, 157, 435
379, 246, 253, 385, 696
380, 296, 461, 353, 494
381, 328, 76, 69, 252
382, 514, 298, 211, 593
383, 337, 581, 217, 446
384, 205, 94, 102, 212
385, 612, 586, 221, 576
386, 299, 473, 336, 335
387, 212, 420, 419, 474
388, 467, 390, 579, 476
389, 451, 592, 524, 594
390, 698, 413, 312, 686
391, 413, 338, 534, 312
392, 240, 432, 196, 503
393, 600, 319, 781, 257
394, 214, 347, 451, 215
395, 587, 93, 101, 204
396, 594, 524, 442, 207
397, 446, 217, 589, 206
398, 290, 111, 122, 657
399, 503, 196, 518, 481
400, 339, 427, 508, 538
401, 588, 575, 155, 161
402, 205, 212, 474, 390
403, 595, 611, 586, 612
404, 206, 208, 171, 146
405, 523, 614, 577, 454
406, 337, 147, 169, 580
407, 532, 594, 207, 445
408, 453, 346, 444, 213
409, 578, 345, 222, 300
410, 472, 454, 397, 515
411, 216, 219, 381, 382
412, 346, 452, 522, 444
413, 215, 451, 594, 532
414, 470, 547, 502, 194
415, 377, 583, 133, 183
416, 368, 305, 226, 526
417, 635, 628, 465, 669
418, 301, 636, 178, 139
419, 698, 296, 568, 249
420, 270, 450, 786, 232
421, 597, 230, 240, 316
422, 701, 112, 123, 469
423, 432, 387, 449, 196
424, 248, 340, 575, 588
425, 489, 124, 9, 158
426, 582, 649, 396, 250
427, 568, 647, 423, 433
428, 448, 359, 619, 370
429, 229, 682, 181, 136
430, 308, 416, 486, 366
431, 677, 279, 777, 439
432, 367, 771, 258, 197
433, 541, 441, 83, 86
434, 325, 80, 73, 304
435, 366, 379, 496, 654
436, 490, 269, 137, 179
437, 631, 526, 310, 431
438, 581, 99, 92, 591
439, 587, 204, 467, 643
440, 345, 220, 455, 222
441, 220, 380, 223, 455
442, 350, 407, 459, 569
443, 557, 677, 439, 450
444, 291, 621, 309, 561
445, 698, 249, 314, 413
446, 586, 578, 300, 221
447, 592, 476, 590, 524
448, 577, 344, 342, 570
449, 580, 528, 90, 98
450, 459, 429, 401, 492
451, 435, 157, 159, 546
452, 686, 312, 605, 685
453, 692, 691, 286, 313
454, 504, 490, 179, 138
455, 202, 787, 199, 501
456, 399, 295, 264, 428
457, 564, 224, 315, 675
458, 519, 33, 41, 437
459, 769, 501, 203, 237
460, 232, 786, 234, 648
461, 406, 456, 477, 218
462, 520, 194, 521, 556
463, 426, 788, 491, 348
464, 309, 471, 804, 811
465, 465, 290, 657, 627
466, 537, 77, 70, 259
467, 561, 309, 811, 794
468, 338, 400, 339, 534
469, 306, 478, 307, 360
470, 293, 252, 537, 253
471, 776, 784, 512, 670
472, 404, 598, 644, 402
473, 394, 72, 80, 325
474, 313, 286, 435, 616
475, 67, 57, 585, 460
476, 247, 411, 499, 500
477, 622, 624, 495, 573
478, 666, 639, 668, 357
479, 560, 678, 386, 416
480, 813, 374, 555, 812
481, 287, 322, 513, 319
482, 628, 362, 290, 465
483, 817, 816, 572, 302
484, 601, 372, 782, 356
485, 604, 635, 669, 567
486, 567, 669, 505, 358
487, 332, 418, 564, 543
488, 277, 262, 672, 279
489, 665, 331, 118, 108
490, 506, 371, 188, 129
491, 237, 203, 11, 19
492, 629, 55, 66, 429
493, 813, 812, 641, 262
494, 400, 243, 246, 696
495, 354, 789, 485, 321
496, 658, 563, 195, 365
497, 334, 223, 331, 665
498, 438, 673, 566, 387
499, 364, 666, 357, 775
500, 644, 284, 436, 547
501, 775, 680, 229, 271
502, 546, 159, 124, 489
503, 499, 394, 325, 412
504, 383, 3, 32, 447
505, 812, 555, 414, 779
506, 673, 576, 221, 566
507, 496, 377, 183, 134
508, 497, 24, 17, 392
509, 280, 110, 121, 362
510, 786, 484, 320, 234
511, 491, 273, 186, 131
512, 268, 376, 275, 790
513, 566, 221, 300, 545
514, 360, 291, 371, 506
515, 56, 67, 460, 401
516, 552, 656, 649, 582
517, 152, 493, 507, 165
518, 446, 206, 146, 170
519, 591, 92, 100, 468
520, 445, 207, 514, 571
521, 664, 235, 784, 776
522, 700, 463, 417, 231
523, 280, 640, 120, 110
524, 521, 349, 801, 802
525, 458, 688, 689, 265
526, 694, 693, 272, 461
527, 661, 500, 548, 656
528, 494, 353, 618, 562
529, 441, 352, 6, 83
530, 679, 241, 333, 457
531, 492, 608, 293, 603
532, 662, 675, 676, 426
533, 371, 632, 128, 188
534, 228, 503, 481, 288
535, 792, 332, 583, 377
536, 539, 661, 656, 552
537, 332, 543, 373, 583
538, 244, 250, 408, 646
539, 691, 156, 160, 286
540, 401, 460, 608, 492
541, 396, 551, 304, 274
542, 817, 363, 241, 679
543, 369, 2, 25, 266
544, 230, 783, 432, 240
545, 167, 318, 652, 317
546, 317, 652, 88, 96
547, 318, 7, 88, 652
548, 815, 814, 277, 464
549, 426, 676, 600, 788
550, 392, 17, 2, 369
551, 638, 225, 789, 354
552, 502, 785, 283, 349
553, 655, 245, 422, 324
554, 608, 328, 252, 293
555, 433, 423, 295, 399
556, 508, 324, 411, 247
557, 682, 671, 135, 181
558, 563, 604, 567, 195
559, 672, 361, 482, 609
560, 357, 668, 292, 409
561, 772, 681, 235, 664
562, 814, 813, 262, 277
563, 270, 232, 504, 636
564, 273, 311, 130, 186
565, 241, 176, 141, 333
566, 376, 222, 455, 275
567, 386, 622, 573, 531
568, 226, 625, 383, 667
569, 479, 301, 139, 177
570, 651, 31, 28, 625
571, 387, 566, 545, 449
572, 787, 701, 469, 199
573, 449, 545, 376, 268
574, 680, 355, 682, 229
575, 779, 414, 13, 21
576, 363, 140, 176, 241
577, 659, 415, 525, 488
578, 358, 505, 202, 236
579, 311, 630, 187, 130
580, 306, 360, 506, 630
581, 632, 793, 189, 128
582, 471, 556, 803, 804
583, 403, 370, 778, 702
584, 596, 22, 15, 780
585, 654, 496, 134, 182
586, 378, 665, 108, 119
587, 610, 261, 254, 256
588, 297, 610, 256, 340
589, 517, 297, 340, 248
590, 693, 517, 248, 692
591, 613, 687, 688, 458
592, 327, 613, 458, 261
593, 242, 327, 261, 610
594, 542, 242, 610, 297
595, 326, 542, 297, 517
596, 694, 326, 517, 693
597, 251, 697, 687, 613
598, 683, 251, 613, 327
599, 684, 683, 327, 242
600, 685, 684, 242, 542
601, 686, 685, 542, 326
602, 698, 686, 326, 694
603, 620, 23, 16, 430
604, 495, 544, 700, 359
605, 663, 193, 403, 487
606, 525, 699, 774, 640
607, 547, 436, 785, 502
608, 289, 559, 404, 225
609, 418, 702, 224, 564
610, 775, 357, 409, 680
611, 678, 670, 622, 386
612, 544, 323, 463, 700
613, 379, 792, 377, 496
614, 633, 509, 192, 125
615, 276, 633, 125, 191
616, 498, 276, 191, 126
617, 554, 498, 126, 190
618, 703, 554, 190, 127
619, 793, 703, 127, 189
620, 704, 565, 509, 633
621, 705, 704, 633, 276
622, 706, 705, 276, 498
623, 707, 706, 498, 554
624, 708, 707, 554, 703
625, 794, 708, 703, 793
626, 795, 375, 565, 704
627, 796, 795, 704, 705
628, 797, 796, 705, 706
629, 798, 797, 706, 707
630, 799, 798, 707, 708
631, 811, 799, 708, 794
632, 709, 52, 63, 424
633, 710, 709, 424, 260
634, 711, 710, 260, 239
635, 712, 711, 239, 238
636, 713, 712, 238, 562
637, 714, 713, 562, 618
638, 795, 714, 618, 375
639, 715, 62, 52, 709
640, 716, 715, 709, 710
641, 717, 716, 710, 711
642, 718, 717, 711, 712
643, 719, 718, 712, 713
644, 720, 719, 713, 714
645, 796, 720, 714, 795
646, 721, 51, 62, 715
647, 722, 721, 715, 716
648, 723, 722, 716, 717
649, 724, 723, 717, 718
650, 725, 724, 718, 719
651, 726, 725, 719, 720
652, 797, 726, 720, 796
653, 727, 61, 51, 721
654, 728, 727, 721, 722
655, 729, 728, 722, 723
656, 730, 729, 723, 724
657, 731, 730, 724, 725
658, 732, 731, 725, 726
659, 798, 732, 726, 797
660, 733, 50, 61, 727
661, 734, 733, 727, 728
662, 735, 734, 728, 729
663, 736, 735, 729, 730
664, 737, 736, 730, 731
665, 738, 737, 731, 732
666, 799, 738, 732, 798
667, 805, 60, 50, 733
668, 806, 805, 733, 734
669, 807, 806, 734, 735
670, 808, 807, 735, 736
671, 809, 808, 736, 737
672, 810, 809, 737, 738
673, 811, 810, 738, 799
674, 739, 39, 4, 47
675, 740, 739, 47, 58
676, 741, 740, 58, 48
677, 742, 741, 48, 59
678, 743, 742, 59, 49
679, 805, 743, 49, 60
680, 744, 46, 39, 739
681, 745, 744, 739, 740
682, 746, 745, 740, 741
683, 747, 746, 741, 742
684, 748, 747, 742, 743
685, 806, 748, 743, 805
686, 749, 38, 46, 744
687, 750, 749, 744, 745
688, 751, 750, 745, 746
689, 752, 751, 746, 747
690, 753, 752, 747, 748
691, 807, 753, 748, 806
692, 754, 45, 38, 749
693, 755, 754, 749, 750
694, 756, 755, 750, 751
695, 757, 756, 751, 752
696, 758, 757, 752, 753
697, 808, 758, 753, 807
698, 759, 37, 45, 754
699, 760, 759, 754, 755
700, 761, 760, 755, 756
701, 762, 761, 756, 757
702, 763, 762, 757, 758
703, 809, 763, 758, 808
704, 764, 44, 37, 759
705, 765, 764, 759, 760
706, 766, 765, 760, 761
707, 767, 766, 761, 762
708, 768, 767, 762, 763
709, 810, 768, 763, 809
710, 800, 36, 44, 764
711, 801, 800, 764, 765
712, 802, 801, 765, 766
713, 803, 802, 766, 767
714, 804, 803, 767, 768
715, 811, 804, 768, 810
716, 659, 488, 628, 635
717, 288, 659, 635, 604
718, 228, 288, 604, 563
719, 316, 228, 563, 658
720, 597, 316, 658, 440
721, 817, 597, 440, 816
*ELSET,ELSET=contact_source
101, 102, 103, 104, 105, 106, 107, 108, 109, 110, 
111, 112, 113, 114, 115, 116, 117, 118, 119, 120, 
121, 122, 
*ELSET,ELSET=contact_drain
41, 42, 43, 44, 45, 46, 47, 48, 49, 50, 
51, 52, 53, 54, 55, 56, 57, 58, 59, 60, 
61, 62, 
*ELSET,ELSET=probe_A
79, 80, 81, 82, 83, 84, 
*ELSET,ELSET=probe_B
17, 18, 19, 20, 21, 22, 23, 24, 
*ELSET,ELSET=walls
1, 2, 3, 4, 5, 6, 7, 8, 9, 10, 
11, 12, 13, 14, 15, 16, 25, 26, 27, 28, 
29, 30, 31, 32, 33, 34, 35, 36, 37, 38, 
39, 40, 63, 64, 65, 66, 67, 68, 69, 70, 
71, 72, 73, 74, 75, 76, 77, 78, 85, 86, 
87, 88, 89, 90, 91, 92, 93, 94, 95, 96, 
97, 98, 99, 100, 123, 124, 125, 126, 127, 128, 
129, 130, 131, 132, 133, 134, 135, 136, 137, 138, 
139, 140, 141, 142, 143, 144, 145, 146, 147, 148, 
149, 150, 151, 152, 153, 154, 155, 156, 157, 158, 
159, 160, 161, 162, 163, 164, 165, 166, 167, 168, 
169, 170, 171, 172, 173, 174, 175, 176, 177, 178, 
179, 180, 181, 182, 183, 184, 185, 186, 187, 188, 
189, 190, 191, 192, 
*ELSET,ELSET=domain
193, 194, 195, 196, 197, 198, 199, 200, 201, 202, 
203, 204, 205, 206, 207, 208, 209, 210, 211, 212, 
213, 214, 215, 216, 217, 218, 219, 220, 221, 222, 
223, 224, 225, 226, 227, 228, 229, 230, 231, 232, 
233, 234, 235, 236, 237, 238, 239, 240, 241, 242, 
243, 244, 245, 246, 247, 248, 249, 250, 251, 252, 
253, 254, 255, 256, 257, 258, 259, 260, 261, 262, 
263, 264, 265, 266, 267, 268, 269, 270, 271, 272, 
273, 274, 275, 276, 277, 278, 279, 280, 281, 282, 
283, 284, 285, 286, 287, 288, 289, 290, 291, 292, 
293, 294, 295, 296, 297, 298, 299, 300, 301, 302, 
303, 304, 305, 306, 307, 308, 309, 310, 311, 312, 
313, 314, 315, 316, 317, 318, 319, 320, 321, 322, 
323, 324, 325, 326, 327, 328, 329, 330, 331, 332, 
333, 334, 335, 336, 337, 338, 339, 340, 341, 342, 
343, 344, 345, 346, 347, 348, 349, 350, 351, 352, 
353, 354, 355, 356, 357, 358, 359, 360, 361, 362, 
363, 364, 365, 366, 367, 368, 369, 370, 371, 372, 
373, 374, 375, 376, 377, 378, 379, 380, 381, 382, 
383, 384, 385, 386, 387, 388, 389, 390, 391, 392, 
393, 394, 395, 396, 397, 398, 399, 400, 401, 402, 
403, 404, 405, 406, 407, 408, 409, 410, 411, 412, 
413, 414, 415, 416, 417, 418, 419, 420, 421, 422, 
423, 424, 425, 426, 427, 428, 429, 430, 431, 432, 
433, 434, 435, 436, 437, 438, 439, 440, 441, 442, 
443, 444, 445, 446, 447, 448, 449, 450, 451, 452, 
453, 454, 455, 456, 457, 458, 459, 460, 461, 462, 
463, 464, 465, 466, 467, 468, 469, 470, 471, 472, 
473, 474, 475, 476, 477, 478, 479, 480, 481, 482, 
483, 484, 485, 486, 487, 488, 489, 490, 491, 492, 
493, 494, 495, 496, 497, 498, 499, 500, 501, 502, 
503, 504, 505, 506, 507, 508, 509, 510, 511, 512, 
513, 514, 515, 516, 517, 518, 519, 520, 521, 522, 
523, 524, 525, 526, 527, 528, 529, 530, 531, 532, 
533, 534, 535, 536, 537, 538, 539, 540, 541, 542, 
543, 544, 545, 546, 547, 548, 549, 550, 551, 552, 
553, 554, 555, 556, 557, 558, 559, 560, 561, 562, 
563, 564, 565, 566, 567, 568, 569, 570, 571, 572, 
573, 574, 575, 576, 577, 578, 579, 580, 581, 582, 
583, 584, 585, 586, 587, 588, 589, 590, 591, 592, 
593, 594, 595, 596, 597, 598, 599, 600, 601, 602, 
603, 604, 605, 606, 607, 608, 609, 610, 611, 612, 
613, 614, 615, 616, 617, 618, 619, 620, 621, 622, 
623, 624, 625, 626, 627, 628, 629, 630, 631, 632, 
633, 634, 635, 636, 637, 638, 639, 640, 641, 642, 
643, 644, 645, 646, 647, 648, 649, 650, 651, 652, 
653, 654, 655, 656, 657, 658, 659, 660, 661, 662, 
663, 664, 665, 666, 667, 668, 669, 670, 671, 672, 
673, 674, 675, 676, 677, 678, 679, 680, 681, 682, 
683, 684, 685, 686, 687, 688, 689, 690, 691, 692, 
693, 694, 695, 696, 697, 698, 699, 700, 701, 702, 
703, 704, 705, 706, 707, 708, 709, 710, 711, 712, 
713, 714, 715, 716, 717, 718, 719, 720, 721, 722, 
723, 724, 725, 726, 727, 728, 729, 730, 731, 732, 
733, 734, 735, 736, 737, 738, 739, 740, 741, 742, 
743, 744, 745, 746, 747, 748, 749, 750, 751, 752, 
753, 754, 755, 756, 757, 758, 759, 760, 761, 762, 
763, 764, 765, 766, 767, 768, 769, 770, 771, 772, 
773, 774, 775, 776, 777, 778, 779, 780, 781, 782, 
783, 784, 785, 786, 787, 788, 789, 790, 791, 792, 
793, 794, 795, 796, 797, 798, 799, 800, 801, 802, 
803, 804, 805, 806, 807, 808, 809, 810, 811, 812, 
813, 814, 815, 816, 817, 818, 819, 820, 821, 822, 
823, 824, 825, 826, 827, 828, 829, 830, 831, 832, 
833, 834, 835, 836, 837, 838, 839, 840, 841, 842, 
843, 844, 845, 846, 847, 848, 849, 850, 851, 852, 
853, 854, 855, 856, 857, 858, 859, 860, 861, 862, 
863, 864, 865, 866, 867, 868, 869, 870, 871, 872, 
873, 874, 875, 876, 877, 878, 879, 880, 881, 882, 
883, 884, 885, 886, 887, 888, 889, 890, 891, 892, 
893, 894, 895, 896, 897, 898, 899, 900, 901, 902, 
903, 904, 905, 906, 907, 908, 909, 910, 911, 912, 
913, 
*NSET,NSET=contact_source
1, 8, 103, 104, 105, 106, 107, 108, 109, 110, 
111, 112, 113, 114, 115, 116, 117, 118, 119, 120, 
121, 122, 123, 
*NSET,NSET=contact_drain
4, 5, 47, 48, 49, 50, 51, 52, 53, 54, 
55, 56, 57, 58, 59, 60, 61, 62, 63, 64, 
65, 66, 67, 
*NSET,NSET=probe_A
6, 7, 83, 84, 85, 86, 87, 
*NSET,NSET=probe_B
2, 3, 25, 26, 27, 28, 29, 30, 31, 
*NSET,NSET=walls
1, 2, 3, 4, 5, 6, 7, 8, 9, 10, 
11, 12, 13, 14, 15, 16, 17, 18, 19, 20, 
21, 22, 23, 24, 32, 33, 34, 35, 36, 37, 
38, 39, 40, 41, 42, 43, 44, 45, 46, 68, 
69, 70, 71, 72, 73, 74, 75, 76, 77, 78, 
79, 80, 81, 82, 88, 89, 90, 91, 92, 93, 
94, 95, 96, 97, 98, 99, 100, 101, 102, 124, 
125, 126, 127, 128, 129, 130, 131, 132, 133, 134, 
135, 136, 137, 138, 139, 140, 141, 142, 143, 144, 
145, 146, 147, 148, 149, 150, 151, 152, 153, 154, 
155, 156, 157, 158, 159, 160, 161, 162, 163, 164, 
165, 166, 167, 168, 169, 170, 171, 172, 173, 174, 
175, 176, 177, 178, 179, 180, 181, 182, 183, 184, 
185, 186, 187, 188, 189, 190, 191, 192, 
*NSET,NSET=domain
1, 2, 3, 4, 5, 6, 7, 8, 9, 10, 
11, 12, 13, 14, 15, 16, 17, 18, 19, 20, 
21, 22, 23, 24, 25, 26, 27, 28, 29, 30, 
31, 32, 33, 34, 35, 36, 37, 38, 39, 40, 
41, 42, 43, 44, 45, 46, 47, 48, 49, 50, 
51, 52, 53, 54, 55, 56, 57, 58, 59, 60, 
61, 62, 63, 64, 65, 66, 67, 68, 69, 70, 
71, 72, 73, 74, 75, 76, 77, 78, 79, 80, 
81, 82, 83, 84, 85, 86, 87, 88, 89, 90, 
91, 92, 93, 94, 95, 96, 97, 98, 99, 100, 
101, 102, 103, 104, 105, 106, 107, 108, 109, 110, 
111, 112, 113, 114, 115, 116, 117, 118, 119, 120, 
121, 122, 123, 124, 125, 126, 127, 128, 129, 130, 
131, 132, 133, 134, 135, 136, 137, 138, 139, 140, 
141, 142, 143, 144, 145, 146, 147, 148, 149, 150, 
151, 152, 153, 154, 155, 156, 157, 158, 159, 160, 
161, 162, 163, 164, 165, 166, 167, 168, 169, 170, 
171, 172, 173, 174, 175, 176, 177, 178, 179, 180, 
181, 182, 183, 184, 185, 186, 187, 188, 189, 190, 
191, 192, 193, 194, 195, 196, 197, 198, 199, 200, 
201, 202, 203, 204, 205, 206, 207, 208, 209, 210, 
211, 212, 213, 214, 215, 216, 217, 218, 219, 220, 
221, 222, 223, 224, 225, 226, 227, 228, 229, 230, 
231, 232, 233, 234, 235, 236, 237, 238, 239, 240, 
241, 242, 243, 244, 245, 246, 247, 248, 249, 250, 
251, 252, 253, 254, 255, 256, 257, 258, 259, 260, 
261, 262, 263, 264, 265, 266, 267, 268, 269, 270, 
271, 272, 273, 274, 275, 276, 277, 278, 279, 280, 
281, 282, 283, 284, 285, 286, 287, 288, 289, 290, 
291, 292, 293, 294, 295, 296, 297, 298, 299, 300, 
301, 302, 303, 304, 305, 306, 307, 308, 309, 310, 
311, 312, 313, 314, 315, 316, 317, 318, 319, 320, 
321, 322, 323, 324, 325, 326, 327, 328, 329, 330, 
331, 332, 333, 334, 335, 336, 337, 338, 339, 340, 
341, 342, 343, 344, 345, 346, 347, 348, 349, 350, 
351, 352, 353, 354, 355, 356, 357, 358, 359, 360, 
361, 362, 363, 364, 365, 366, 367, 368, 369, 370, 
371, 372, 373, 374, 375, 376, 377, 378, 379, 380, 
381, 382, 383, 384, 385, 386, 387, 388, 389, 390, 
391, 392, 393, 394, 395, 396, 397, 398, 399, 400, 
401, 402, 403, 404, 405, 406, 407, 408, 409, 410, 
411, 412, 413, 414, 415, 416, 417, 418, 419, 420, 
421, 422, 423, 424, 425, 426, 427, 428, 429, 430, 
431, 432, 433, 434, 435, 436, 437, 438, 439, 440, 
441, 442, 443, 444, 445, 446, 447, 448, 449, 450, 
451, 452, 453, 454, 455, 456, 457, 458, 459, 460, 
461, 462, 463, 464, 465, 466, 467, 468, 469, 470, 
471, 472, 473, 474, 475, 476, 477, 478, 479, 480, 
481, 482, 483, 484, 485, 486, 487, 488, 489, 490, 
491, 492, 493, 494, 495, 496, 497, 498, 499, 500, 
501, 502, 503, 504, 505, 506, 507, 508, 509, 510, 
511, 512, 513, 514, 515, 516, 517, 518, 519, 520, 
521, 522, 523, 524, 525, 526, 527, 528, 529, 530, 
531, 532, 533, 534, 535, 536, 537, 538, 539, 540, 
541, 542, 543, 544, 545, 546, 547, 548, 549, 550, 
551, 552, 553, 554, 555, 556, 557, 558, 559, 560, 
561, 562, 563, 564, 565, 566, 567, 568, 569, 570, 
571, 572, 573, 574, 575, 576, 577, 578, 579, 580, 
581, 582, 583, 584, 585, 586, 587, 588, 589, 590, 
591, 592, 593, 594, 595, 596, 597, 598, 599, 600, 
601, 602, 603, 604, 605, 606, 607, 608, 609, 610, 
611, 612, 613, 614, 615, 616, 617, 618, 619, 620, 
621, 622, 623, 624, 625, 626, 627, 628, 629, 630, 
631, 632, 633, 634, 635, 636, 637, 638, 639, 640, 
641, 642, 643, 644, 645, 646, 647, 648, 649, 650, 
651, 652, 653, 654, 655, 656, 657, 658, 659, 660, 
661, 662, 663, 664, 665, 666, 667, 668, 669, 670, 
671, 672, 673, 674, 675, 676, 677, 678, 679, 680, 
681, 682, 683, 684, 685, 686, 687, 688, 689, 690, 
691, 692, 693, 694, 695, 696, 697, 698, 699, 700, 
701, 702, 703, 704, 705, 706, 707, 708, 709, 710, 
711, 712, 713, 714, 715, 716, 717, 718, 719, 720, 
721, 722, 723, 724, 725, 726, 727, 728, 729, 730, 
731, 732, 733, 734, 735, 736, 737, 738, 739, 740, 
741, 742, 743, 744, 745, 746, 747, 748, 749, 750, 
751, 752, 753, 754, 755, 756, 757, 758, 759, 760, 
761, 762, 763, 764, 765, 766, 767, 768, 769, 770, 
771, 772, 773, 774, 775, 776, 777, 778, 779, 780, 
781, 782, 783, 784, 785, 786, 787, 788, 789, 790, 
791, 792, 793, 794, 795, 796, 797, 798, 799, 800, 
801, 802, 803, 804, 805, 806, 807, 808, 809, 810, 
811, 812, 813, 814, 815, 816, 817, 
