*Heading
 /Users/juliagao/geometry-optimization-net/scripts/../runs/run2/shape_15.inp
*NODE
1, 0, -0.3, 0
2, 0.425, -0.3, 0
3, 0.575, -0.3, 0
4, 1, -0.3, 0
5, 1, 0.3, 0
6, 0.575, 0.3, 0
7, 0.425, 0.3, 0
8, 0, 0.3, 0
9, 0.6564619943, -0.0112490479, 0
10, 0.026324499578939, -0.3, 0
11, 0.079255135779405, -0.3, 0
12, 0.13249059922569, -0.3, 0
13, 0.18629035518603, -0.3, 0
14, 0.24065230772119, -0.3, 0
15, 0.29464819786283, -0.3, 0
16, 0.34789567481835, -0.3, 0
17, 0.3996693925159, -0.3, 0
18, 0.052648999157879, -0.3, 0
19, 0.10586127240093, -0.3, 0
20, 0.15911992605046, -0.3, 0
21, 0.21346078432161, -0.3, 0
22, 0.26784383112077, -0.3, 0
23, 0.3214525646049, -0.3, 0
24, 0.3743387850318, -0.3, 0
25, 0.4435883781728, -0.3, 0
26, 0.48046711132263, -0.3, 0
27, 0.51746055530793, -0.3, 0
28, 0.55558182215811, -0.3, 0
29, 0.4621767563456, -0.3, 0
30, 0.49875746629965, -0.3, 0
31, 0.53616364431621, -0.3, 0
32, 0.60096181395647, -0.3, 0
33, 0.65446959535268, -0.3, 0
34, 0.70998830659184, -0.3, 0
35, 0.76505556474555, -0.3, 0
36, 0.81835298646795, -0.3, 0
37, 0.87043434160066, -0.3, 0
38, 0.92224754199767, -0.3, 0
39, 0.97409114731505, -0.3, 0
40, 0.62692362791295, -0.3, 0
41, 0.68201556279241, -0.3, 0
42, 0.73796105039127, -0.3, 0
43, 0.79215007909983, -0.3, 0
44, 0.84455589383607, -0.3, 0
45, 0.89631278936524, -0.3, 0
46, 0.94818229463011, -0.3, 0
47, 1, -0.27300345455471, 0
48, 1, -0.21848175965659, 0
49, 1, -0.16312656655195, 0
50, 1, -0.10758737869228, 0
51, 1, -0.051988562374547, 0
52, 1, 0.0035233739415004, 0
53, 1, 0.057907366620401, 0
54, 1, 0.11152089117468, 0
55, 1, 0.1655965296565, 0
56, 1, 0.21983607738018, 0
57, 1, 0.2734258913518, 0
58, 1, -0.24600690910942, 0
59, 1, -0.19095661020376, 0
60, 1, -0.13529652290014, 0
61, 1, -0.079878234484414, 0
62, 1, -0.02409889026468, 0
63, 1, 0.031145638147681, 0
64, 1, 0.084669095093122, 0
65, 1, 0.13837268725624, 0
66, 1, 0.19282037205675, 0
67, 1, 0.2468517827036, 0
68, 0.97395277562419, 0.3, 0
69, 0.9214409355372, 0.3, 0
70, 0.86751409858436, 0.3, 0
71, 0.81249226977994, 0.3, 0
72, 0.75816670648747, 0.3, 0
73, 0.70429823181742, 0.3, 0
74, 0.65092208967172, 0.3, 0
75, 0.59982423323319, 0.3, 0
76, 0.94790555124839, 0.3, 0
77, 0.894976319826, 0.3, 0
78, 0.84005187734271, 0.3, 0
79, 0.78493266221716, 0.3, 0
80, 0.73140075075777, 0.3, 0
81, 0.67719571287707, 0.3, 0
82, 0.62464846646637, 0.3, 0
83, 0.5501388808486, 0.3, 0
84, 0.50052166588359, 0.3, 0
85, 0.45038278503498, 0.3, 0
86, 0.52527776169721, 0.3, 0
87, 0.47576557006997, 0.3, 0
88, 0.39892622429882, 0.3, 0
89, 0.34607918566353, 0.3, 0
90, 0.29257812613456, 0.3, 0
91, 0.23896704133046, 0.3, 0
92, 0.18455930431142, 0.3, 0
93, 0.12953539160517, 0.3, 0
94, 0.076110276911442, 0.3, 0
95, 0.025092313057076, 0.3, 0
96, 0.37285244859763, 0.3, 0
97, 0.31930592272942, 0.3, 0
98, 0.2658503295397, 0.3, 0
99, 0.21208375312122, 0.3, 0
100, 0.15703485550161, 0.3, 0
101, 0.10203592770873, 0.3, 0
102, 0.050184626114152, 0.3, 0
103, 0, 0.27422862475208, 0
104, 0, 0.2221717107024, 0
105, 0, 0.1686526103289, 0
106, 0, 0.11379797045945, 0
107, 0, 0.058645958331285, 0
108, 0, 0.0034423119660449, 0
109, 0, -0.051641157235769, 0
110, 0, -0.10630671361532, 0
111, 0, -0.16186323700821, 0
112, 0, -0.218033042848, 0
113, 0, -0.27295056250371, 0
114, 0, 0.24845724950416, 0
115, 0, 0.19588617190065, 0
116, 0, 0.14141904875715, 0
117, 0, 0.086176892161743, 0
118, 0, 0.031115024500826, 0
119, 0, -0.024230400568737, 0
120, 0, -0.079051913902801, 0
121, 0, -0.13356151332784, 0
122, 0, -0.19016496068858, 0
123, 0, -0.24590112500742, 0
124, 0.63839941203803, 0.0046216036045226, 0
125, 0.70921419473122, -0.071932337836229, 0
126, 0.69602303857737, -0.12136193781009, 0
127, 0.64544650799417, -0.13788159626345, 0
128, 0.59283800336437, -0.15525896845188, 0
129, 0.56869231812367, -0.20352252055875, 0
130, 0.53315729096245, -0.2403485259548, 0
131, 0.48484811816192, -0.23427447245457, 0
132, 0.44846257067799, -0.19921758901384, 0
133, 0.40506455414982, -0.17256155526946, 0
134, 0.35396972277485, -0.16670444894561, 0
135, 0.31618843095343, -0.13352476219492, 0
136, 0.32336710249709, -0.082756583516899, 0
137, 0.35032492538123, -0.037290316654305, 0
138, 0.34743667791818, 0.01444000895592, 0
139, 0.34622711869859, 0.066032153897391, 0
140, 0.3902168432595, 0.090161583420623, 0
141, 0.42586732281632, 0.12210502046917, 0
142, 0.44891957505488, 0.16481867137284, 0
143, 0.49552948061299, 0.17917122539476, 0
144, 0.53585138158307, 0.14556034339102, 0
145, 0.58242746523683, 0.12014589176739, 0
146, 0.63298027795957, 0.10702674364154, 0
147, 0.64165530119726, 0.056856690212836, 0
148, 0.67743729803064, -0.028666491233476, 0
149, 0.63369739490025, 0.032082805744638, 0
150, 0.64456434764016, 0.08300512021064, 0
151, 0.60942800846168, 0.11779881238303, 0
152, 0.55563230109716, 0.12652694743023, 0
153, 0.51722566727698, 0.16557417634245, 0
154, 0.46909224014225, 0.17943386674455, 0
155, 0.43568979879963, 0.14420425372846, 0
156, 0.41294666902282, 0.10136746791442, 0
157, 0.36657390853346, 0.081943566265712, 0
158, 0.33982235497018, 0.040335515600668, 0
159, 0.35704063768473, -0.010579610183315, 0
160, 0.33611350485389, -0.059676582355116, 0
161, 0.31527903824402, -0.10796369729786, 0
162, 0.33045925450762, -0.15529509336912, 0
163, 0.3794928958952, -0.17054368096085, 0
164, 0.42968572780346, -0.18141831068295, 0
165, 0.46573609795861, -0.21834444760781, 0
166, 0.50821928708917, -0.24356264841635, 0
167, 0.55319113631607, -0.22572603776968, 0
168, 0.5801807441178, -0.17913619819809, 0
169, 0.61813086262451, -0.14122449885955, 0
170, 0.67255017415565, -0.13273480334755, 0
171, 0.71118559817082, -0.099191665007561, 0
172, 0.6960901731718, -0.048632713734574, 0
173, 0.37583789813841, -0.23384689497056, 0
174, 0.6307501731286, -0.25151487015637, 0
175, 0.42067484054066, 0.22926931295603, 0
176, 0.025147834067433, 0.089903511621094, 0
177, 0.27944894091008, -0.065013905998322, 0
178, 0.23994948701807, -0.024515647770596, 0
179, 0.28842038153087, -0.039435453855525, 0
180, 0.1587206566583, -0.15985754182573, 0
181, 0.072330013629137, -0.014752815120156, 0
182, 0.46102559753775, -0.24253387799634, 0
183, 0.58958271115916, 0.16054738359645, 0
184, 0.58332846998746, 0.26440751308461, 0
185, 0.56923833104673, -0.25022979341496, 0
186, 0.7025252845068, -0.24771634916598, 0
187, 0.75216807974617, -0.24956900754272, 0
188, 0.80250288653799, -0.24460701327452, 0
189, 0.21264711721653, 0.14716964858756, 0
190, 0.26349865334637, 0.14165597352742, 0
191, 0.15952310810017, 0.14892209676545, 0
192, 0.10564234367853, 0.1480292490261, 0
193, 0.05199853360523, 0.14533874210806, 0
194, 0.16329536559498, 0.19971315314592, 0
195, 0.10794354775761, 0.19870320059288, 0
196, 0.053189469832944, 0.19677176833122, 0
197, 0.053343710374321, 0.2477417603641, 0
198, 0.10761069936399, 0.24895519631326, 0
199, 0.162957386655, 0.24969051466299, 0
200, 0.21871802265721, 0.19889982386091, 0
201, 0.21904559625592, 0.24920630110435, 0
202, 0.27324542426748, 0.19597211307172, 0
203, 0.2750807895689, 0.24768645232314, 0
204, 0.32571489629017, 0.19072009335527, 0
205, 0.33001282591354, 0.24441038477036, 0
206, 0.38139388608104, 0.23537531197706, 0
207, 0.46525572519478, 0.23847081878055, 0
208, 0.35729901591707, 0.13519581812717, 0
209, 0.30907178172071, 0.12984677352525, 0
210, 0.15967030793182, -0.18927207101497, 0
211, 0.1568258941214, 0.12293421737996, 0
212, 0.26102841096036, -0.24834103373261, 0
213, 0.1040520271556, 0.12220292507513, 0
214, 0.18290115625663, 0.12220818513032, 0
215, 0.024274687211423, -0.24654435601819, 0
216, 0.116832425694, -0.21830992374349, 0
217, 0.20656098795043, -0.075497419677625, 0
218, 0.31248906165995, -0.049243266944989, 0
219, 0.11604766846077, -0.070372916250349, 0
220, 0.07255815006098, -0.246797688588, 0
221, 0.091624446735131, -0.1301799144795, 0
222, 0.024095540981488, -0.047910677521939, 0
223, 0.096520149429207, -0.24676718489768, 0
224, 0.25703371819924, -0.057479806028137, 0
225, 0.27401328826803, 0.078086993283022, 0
226, 0.099341506947592, 0.042118220051777, 0
227, 0.048357073651025, -0.01690456791668, 0
228, 0.1372628530946, -0.18907634377792, 0
229, 0.11401792033092, -0.15952886229186, 0
230, 0.050101678227901, 0.065750161599012, 0
231, 0.2085565276858, 0.12056261888207, 0
232, 0.25158309983882, -0.19377336947919, 0
233, 0.29505670944354, 0.068595596992958, 0
234, 0.12034737184517, -0.24676985661407, 0
235, 0.26415861048437, -0.031152060329727, 0
236, 0.25768316039735, 0.11360396616793, 0
237, 0.25096990591947, -0.085467908663617, 0
238, 0.23771364490755, -0.24784536397263, 0
239, 0.44563834899289, -0.22295749180257, 0
240, 0.35085070533413, -0.23054089087493, 0
241, 0.37901418732147, -0.21190348724443, 0
242, 0.32179793190303, 0.07814913140893, 0
243, 0.16141221267474, -0.071125697478101, 0
244, 0.14399369113557, -0.0129127762833, 0
245, 0.80196685968222, 0.17505679397911, 0
246, 0.74088528911061, 0.12855442561478, 0
247, 0.83399625568528, 0.12457994581435, 0
248, 0.7748396043575, 0.1021036194278, 0
249, 0.89103382593418, 0.1342018536326, 0
250, 0.9463388991175, 0.13798753626059, 0
251, 0.84674007683865, 0.18214059187161, 0
252, 0.89606158411357, 0.18792772705823, 0
253, 0.94771503057064, 0.1909757297255, 0
254, 0.94798425922439, 0.2456113694873, 0
255, 0.84901777875081, 0.24340008730013, 0
256, 0.89729841879516, 0.24480155076921, 0
257, 0.80379376712956, 0.24208990541598, 0
258, 0.76151036317048, 0.18439377442576, 0
259, 0.75852676224962, 0.24518231934553, 0
260, 0.7208611782406, 0.1456471068782, 0
261, 0.70840452640435, 0.25104284741307, 0
262, 0.65148744842986, 0.25692677369144, 0
263, 0.49605233636598, 0.22053142648517, 0
264, 0.52028263942922, 0.2539067421381, 0
265, 0.7324995298191, 0.16716799347671, 0
266, 0.71453955264268, 0.2258954547919, 0
267, 0.70280843073794, 0.13053620988016, 0
268, 0.70494696284322, 0.054535485897433, 0
269, 0.83324188445024, 0.075970965235566, 0
270, 0.77583423294016, 0.050224014688541, 0
271, 0.8441284844114, 0.030261086272926, 0
272, 0.79295036609713, -0.0010612108361831, 0
273, 0.94669697695175, 0.086387179354017, 0
274, 0.89147336517364, 0.084373991070377, 0
275, 0.89834082679843, 0.033575777606091, 0
276, 0.9494086441413, 0.033133302582582, 0
277, 0.94838008398382, -0.13614983204267, 0
278, 0.90194518371377, -0.079070579332472, 0
279, 0.95066660537364, -0.08044997100596, 0
280, 0.90195104228615, -0.02257276229358, 0
281, 0.95084680748188, -0.023670306471016, 0
282, 0.77863301723227, -0.12864362919446, 0
283, 0.73747641362112, -0.15523405065725, 0
284, 0.83751807586751, -0.12707979695637, 0
285, 0.85375654599917, -0.072635428105864, 0
286, 0.76143064817189, -0.075100066063495, 0
287, 0.80435222480779, -0.066112107948426, 0
288, 0.85029948919039, -0.019861028532084, 0
289, 0.74865249880303, 0.033241941055908, 0
290, 0.6348328306687, -0.22686840747016, 0
291, 0.69771978149883, -0.19029070672708, 0
292, 0.84747199418651, -0.18335324648681, 0
293, 0.89735475628308, -0.18774542964284, 0
294, 0.94871986710779, -0.19009363167662, 0
295, 0.89497146427702, -0.13436787177483, 0
296, 0.75111205526427, -0.19962280345212, 0
297, 0.80011190821605, -0.18580359135633, 0
298, 0.85007655016282, -0.24297463518749, 0
299, 0.89856299992391, -0.24413982231386, 0
300, 0.94882894877181, -0.24512162303443, 0
301, 0.658577629941, 0.23587535588544, 0
302, 0.49161913924901, 0.24799496003954, 0
303, 0.60009857952179, 0.13815166581562, 0
304, 0.36800822048211, 0.10938003244076, 0
305, 0.33175744852943, 0.096103919767637, 0
306, 0.33180314794265, 0.13790668384516, 0
307, 0.23849438273894, 0.14497655041006, 0
308, 0.1361846389684, -0.12977276773014, 0
309, 0.25015037912082, -0.14260457878984, 0
310, 0.67193279093742, 0.020301076930814, 0
311, 0.76933099328584, -0.011538540166079, 0
312, 0.71779062708521, -0.032219391212613, 0
313, 0.53855156677961, -0.27061744571115, 0
314, 0.50174916106038, -0.26605330414713, 0
315, 0.65318290959559, -0.19288912669429, 0
316, 0.62051387150559, -0.17350483939078, 0
317, 0.60527191134385, -0.18960751565505, 0
318, 0.60998833079762, -0.21441751053876, 0
319, 0.63259491817891, -0.200789223643, 0
320, 0.4020341501555, 0.14496789164558, 0
321, 0.56468562579481, -0.26363269514014, 0
322, 0.65562875331365, -0.24890793322658, 0
323, 0.73648898075322, -0.11767375668324, 0
324, 0.73504934040802, -0.079016718248842, 0
325, 0.77379641100149, -0.1042399206332, 0
326, 0.74410708372545, -0.021718237306108, 0
327, 0.85396816274748, -0.10296130972154, 0
328, 0.81546249621147, -0.10033468502286, 0
329, 0.82729140269292, -0.062936719128154, 0
330, 0.13695022606192, -0.099967429355238, 0
331, 0.2037275141242, -0.10461673129848, 0
332, 0.81430834286695, 0.023250828017292, 0
333, 0.85586018811255, 0.0057989982884403, 0
334, 0.82010267545643, -0.015228211929313, 0
335, 0.75845593330651, 0.11375549049465, 0
336, 0.70141313139315, 0.074558970539217, 0
337, 0.7425405226703, 0.053774452814485, 0
338, 0.024454629568666, 0.0078004391133776, 0
339, 0.07337207504418, 0.013212513650428, 0
340, 0.15140846709365, 0.069534372189359, 0
341, 0.97436060382156, -0.13609967162865, 0
342, 0.97444818453304, -0.19059169443205, 0
343, 0.94846337042775, -0.16298956432657, 0
344, 0.9744171554903, -0.16328456540007, 0
345, 0.026575398130712, 0.24755756326881, 0
346, 0.052468181454256, 0.27356264000943, 0
347, 0.026289035384438, 0.27344630801593, 0
348, 0.97522633350807, -0.080389868316864, 0
349, 0.95034642012546, -0.10872937079201, 0
350, 0.97512123119748, -0.10850563944247, 0
351, 0.92353081607252, -0.24470358211882, 0
352, 0.94852776569994, -0.27268714174569, 0
353, 0.89780451338807, -0.27236767044009, 0
354, 0.92305084492887, -0.27254991621748, 0
355, 0.27178533545167, 0.27364068323585, 0
356, 0.32609931104962, 0.27222729377104, 0
357, 0.30276578433717, 0.24641008938163, 0
358, 0.29916270778892, 0.27306591387238, 0
359, 0.28055093686928, 0.10759252051485, 0
360, 0.22525744466054, 0.061936437826937, 0
361, 0.092238079648893, -0.18933227984581, 0
362, 0.21098367619076, -0.047074140474404, 0
363, 0.025667431509273, 0.14351083789901, 0
364, 0.27017037591884, -0.0060384522900201, 0
365, 0.048918057747873, 0.010984247268205, 0
366, 0.97342721197399, 0.13852917475822, 0
367, 0.94709236860934, 0.16418855207396, 0
368, 0.97388196770246, 0.19187373440461, 0
369, 0.97371374974744, 0.16503098183639, 0
370, 0.84822319625164, -0.2721046290552, 0
371, 0.87405212300586, -0.24348770637503, 0
372, 0.87285990812517, -0.27217901259494, 0
373, 0.23072708047, -0.21981606416824, 0
374, 0.1363543949649, -0.15950233398345, 0
375, 0.24891641760109, 0.056176352021769, 0
376, 0.22630555818749, -0.13724237878273, 0
377, 0.27442952264803, -0.27510606957843, 0
378, 0.27264122688789, 0.019767874034992, 0
379, 0.15842613961351, -0.13031070116091, 0
380, 0.35657614606034, 0.24167817103867, 0
381, 0.37699652018231, 0.26920125122918, 0
382, 0.35228245166948, 0.2712322715402, 0
383, 0.74817313199091, 0.27366039621775, 0
384, 0.73426478866599, 0.24799303792525, 0
385, 0.69625045651922, 0.27578517211404, 0
386, 0.72267728752804, 0.27473212046867, 0
387, 0.95079757576064, -0.052068839252429, 0
388, 0.97528146018024, -0.02399115987248, 0
389, 0.97529659993566, -0.052198369158153, 0
390, 0.79697602527984, 0.27249178013173, 0
391, 0.78153304318614, 0.24309357929307, 0
392, 0.77283887876961, 0.27283064372775, 0
393, 0.51728198804419, 0.27562356462544, 0
394, 0.46513600503078, 0.26916732411878, 0
395, 0.49011341541291, 0.27278953385147, 0
396, 0.97434264572404, -0.245470678535, 0
397, 0.97417158657743, -0.27281613185548, 0
398, 0.14669785552964, 0.014925460698496, 0
399, 0.12824056438465, 0.096570986587619, 0
400, 0.74706646141622, -0.27517999904281, 0
401, 0.69550870583611, -0.27485513548981, 0
402, 0.72664008234525, -0.24908860617452, 0
403, 0.72083410513716, -0.27521057786151, 0
404, 0.13875380441122, -0.070387259476375, 0
405, 0.2477541451685, 0.028181644211707, 0
406, 0.30454164565583, -0.16070477827597, 0
407, 0.093271471818606, -0.070970732554639, 0
408, 0.075381902886106, -0.27402817934271, 0
409, 0.097818078756806, 0.014608338863798, 0
410, 0.20331016657523, -0.13373480023981, 0
411, 0.047815344824065, -0.045164554617737, 0
412, 0.27566969857975, -0.15049964658217, 0
413, 0.2933434014957, -0.10153152462796, 0
414, 0.24713095797599, 0.24856140967476, 0
415, 0.2163884484632, 0.27442569408686, 0
416, 0.24416457214432, 0.27405419050015, 0
417, 0.57745142349325, 0.28097607495104, 0
418, 0.55061782436859, 0.25870164601442, 0
419, 0.54616588404743, 0.27791129210972, 0
420, 0.94802734617925, 0.21820589012292, 0
421, 0.97386542586311, 0.24603165601849, 0
422, 0.97394305770074, 0.21893045876658, 0
423, 0.20036790449038, -0.27459918621268, 0
424, 0.23357634949993, 0.11779136081254, 0
425, 0.97463488343972, 0.032350814637304, 0
426, 0.94777992505446, 0.060163512608894, 0
427, 0.97354182996143, 0.086028420654858, 0
428, 0.97393663596088, 0.059481176247986, 0
429, 0.94620620108813, 0.1121923673253, 0
430, 0.97336206633999, 0.11228697598112, 0
431, 0.16789161562884, -0.013982629288045, 0
432, 0.16761603300213, -0.24708646173698, 0
433, 0.071311904484189, -0.043198670049566, 0
434, 0.14913913242713, 0.042353302087235, 0
435, 0.27646763222618, -0.19665263760251, 0
436, 0.34367704825983, -0.18659480320514, 0
437, 0.24983953914083, -0.27489008054166, 0
438, 0.79885358148581, -0.27301234396253, 0
439, 0.82634390057682, -0.24353629874554, 0
440, 0.82364378015233, -0.2724416125139, 0
441, 0.19095269052245, 0.2496035043484, 0
442, 0.16070470632834, 0.27475992915701, 0
443, 0.18852354720631, 0.27469185041548, 0
444, 0.29353553668732, -0.13192349969307, 0
445, 0.023446194420348, -0.19018476605266, 0
446, 0.20789129400999, -0.21919250721895, 0
447, 0.052626435858768, 0.17118065938315, 0
448, 0.026294765556763, 0.1959838321142, 0
449, 0.025957130731044, 0.16988985218347, 0
450, 0.64031567978082, 0.27788386834917, 0
451, 0.61941885053987, 0.260479234434, 0
452, 0.61017113636595, 0.27922098510219, 0
453, 0.84573650104693, 0.27278391995443, 0
454, 0.82604231306583, 0.24265033088643, 0
455, 0.82112163286627, 0.27266418975486, 0
456, 0.95137704773153, 0.0049460732193369, 0
457, 0.97550669468812, 0.0043473096923017, 0
458, 0.023920997712222, -0.076041695616501, 0
459, 0.15922783942694, -0.10061607800666, 0
460, 0.87278562722244, 0.24420331692696, 0
461, 0.89624658665147, 0.27292904437198, 0
462, 0.87079913904305, 0.27293354090253, 0
463, 0.94776643663432, 0.27293547101957, 0
464, 0.97375730058289, 0.27303603110134, 0
465, 0.13515420399569, 0.24950638000484, 0
466, 0.10575397280741, 0.27431765261963, 0
467, 0.1330563198052, 0.27469918647028, 0
468, 0.44143371667546, 0.23441845525228, 0
469, 0.42018549753677, 0.26700123237209, 0
470, 0.44216898608402, 0.26813834238715, 0
471, 0.33087972207682, 0.21727759928364, 0
472, 0.2997401482992, 0.19365280101277, 0
473, 0.27578541747093, 0.22192752386899, 0
474, 0.30342995705862, 0.22007606281887, 0
475, 0.67912286279886, -0.24790754217949, 0
476, 0.64590054124215, -0.27521009216214, 0
477, 0.67062787426242, -0.27500992314727, 0
478, 0.77792851467874, -0.24707589239316, 0
479, 0.77340375999851, -0.27407235375254, 0
480, 0.40224520692135, 0.22608753867292, 0
481, 0.39913250493891, 0.26643584523318, 0
482, 0.080339030932002, 0.24828041981987, 0
483, 0.078916476760996, 0.27387107965374, 0
484, 0.053504268512518, 0.22223298517618, 0
485, 0.026549519129067, 0.22181850994027, 0
486, 0.68085209242036, 0.25399411483702, 0
487, 0.66881700330123, 0.27685178720526, 0
488, 0.92242027236942, 0.24523215112566, 0
489, 0.92192182250014, 0.27289251814245, 0
490, 0.40241816542408, -0.19445728529396, 0
491, 0.32854146591559, -0.20513980930075, 0
492, 0.374989871059, -0.18923347695385, 0
493, 0.59470953726557, -0.27607748507296, 0
494, 0.62073030554531, -0.27576703781418, 0
495, 0.29906685445103, -0.27547515418319, 0
496, 0.070382792898133, -0.07211399396164, 0
497, 0.94889776899328, -0.21751859724782, 0
498, 0.97444754343263, -0.21801707432646, 0
499, 0.078722618955648, 0.14685841674905, 0
500, 0.13049822433623, 0.1228969889953, 0
501, 0.046341797850842, -0.16097314228291, 0
502, 0.14124027504822, -0.041331632622666, 0
503, 0.1624750495719, -0.21850038592173, 0
504, 0.023762108820231, -0.10434960912183, 0
505, 0.19106212539338, -0.24728427306756, 0
506, 0.10049526633269, -0.2740547968189, 0
507, 0.023320499985562, -0.16152606858107, 0
508, 0.90193315617785, -0.050615512478823, 0
509, 0.87781779276071, -0.076978575624159, 0
510, 0.8514430865058, -0.045195600890221, 0
511, 0.8768560041519, -0.021566747246181, 0
512, 0.87716684995211, -0.048720681008337, 0
513, 0.92623984982868, -0.080056102945453, 0
514, 0.92647963009003, -0.023220080544857, 0
515, 0.92639100905591, -0.051591497624847, 0
516, 0.87207483421924, -0.18569303741374, 0
517, 0.89839279076512, -0.21577267862103, 0
518, 0.84985929823034, -0.21319161404591, 0
519, 0.87378382019564, -0.21446004203403, 0
520, 0.68630171560328, -0.16086848574717, 0
521, 0.67504175580758, -0.19045558957041, 0
522, 0.66289610260597, -0.16220047935402, 0
523, 0.80557006229452, 0.20942949765179, 0
524, 0.78204518038474, 0.17816733711055, 0
525, 0.76291194663922, 0.21511715805128, 0
526, 0.78461713149576, 0.21128626319083, 0
527, 0.13971174164291, -0.21834201031466, 0
528, 0.25181300030743, 0.085089518799031, 0
529, 0.1008175458444, 0.069224410367528, 0
530, 0.069515689680307, -0.18965889024576, 0
531, 0.09467893531752, -0.041905060003324, 0
532, 0.19561974248079, 0.011208588456389, 0
533, 0.27733157492516, -0.22236017118716, 0
534, 0.73066333748136, -0.00073699869112288, 0
535, 0.73157432025471, 0.091490085503317, 0
536, 0.33301853933977, -0.25243527724431, 0
537, 0.47960447406932, -0.274886382717, 0
538, 0.40187127203823, -0.21946553903821, 0
539, 0.92170506026634, 0.18973650394045, 0
540, 0.91887107079807, 0.13662830298209, 0
541, 0.89372643722713, 0.16043724113808, 0
542, 0.92037957257896, 0.16274310933344, 0
543, 0.80302066599259, -0.21536313725701, 0
544, 0.82364428117591, -0.18426186289977, 0
545, 0.82640925741859, -0.21390656580207, 0
546, 0.66478903915842, 0.17380705771042, 0
547, 0.6568249713414, 0.1391844668389, 0
548, 0.61562317059802, 0.20704486888684, 0
549, 0.12552728232157, -0.27410276991549, 0
550, 0.24828080866053, -0.11442850870392, 0
551, 0.046496642001464, -0.13184089547486, 0
552, 0.62752179021085, 0.24159984951474, 0
553, 0.63050565387657, 0.18360114192844, 0
554, 0.73971904709642, 0.2202904675818, 0
555, 0.53926718676946, 0.23448765342434, 0
556, 0.92199607757066, -0.13562070986049, 0
557, 0.90119093197788, -0.10777461186868, 0
558, 0.92567565695204, -0.10849061168685, 0
559, 0.023496401177576, -0.13285202458413, 0
560, 0.069084190161869, -0.16037013146455, 0
561, 0.17548273431157, -0.27446075515743, 0
562, 0.21584452821712, -0.019562641687447, 0
563, 0.28452761071508, -0.24922117980807, 0
564, 0.20477051625413, -0.19055824373929, 0
565, 0.29622031836365, -0.015763134836602, 0
566, 0.75437927713584, -0.047007472720092, 0
567, 0.73017862266943, -0.054423299331606, 0
568, 0.84941266338877, 0.21284340752231, 0
569, 0.82359415285203, 0.17858467353433, 0
570, 0.82694217764163, 0.21096484409245, 0
571, 0.38103543396657, 0.17584052342335, 0
572, 0.51591576838867, 0.22845918829275, 0
573, 0.096238081468172, -0.013377716355181, 0
574, 0.18517434372718, -0.21876789780974, 0
575, 0.29852883667309, 0.008838832240146, 0
576, 0.75384033779274, 0.15487511795067, 0
577, 0.79194472102716, 0.13928402805939, 0
578, 0.7732085892177, 0.14499266699385, 0
579, 0.15051800889601, -0.27426741567834, 0
580, 0.091618958880077, -0.15985161215522, 0
581, 0.37053043354008, 0.15545059034606, 0
582, 0.3873418812718, 0.12581663114236, 0
583, 0.47688826766758, -0.25648705238562, 0
584, 0.42324414021618, -0.20634070585956, 0
585, 0.35790511593505, -0.25397623490796, 0
586, 0.32607649656475, -0.22801934216427, 0
587, 0.32027374868303, 0.022946113674973, 0
588, 0.21441869626138, -0.24753405245955, 0
589, 0.91939410623356, 0.085890617542106, 0
590, 0.89037621881628, 0.10909831903915, 0
591, 0.91856701192869, 0.11119897803365, 0
592, 0.047308556670539, -0.073786764739198, 0
593, 0.22598411897124, -0.10857892155594, 0
594, 0.023747956951647, -0.21859818306115, 0
595, 0.024695461675753, 0.035377635836179, 0
596, 0.1139407495651, -0.12976811642559, 0
597, 0.046597368124064, -0.18998119473032, 0
598, 0.11797574978252, -0.041265839475586, 0
599, 0.86276710072569, 0.081350070420629, 0
600, 0.8320198360981, 0.099657278873872, 0
601, 0.86276707060116, 0.13034306837014, 0
602, 0.86153472379768, 0.10546597947159, 0
603, 0.70859472606772, 0.035576249026428, 0
604, 0.66818068828298, 0.039988017871433, 0
605, 0.67098427739858, 0.063021097509986, 0
606, 0.2201809615034, 0.0073050518600502, 0
607, 0.024935138795732, 0.062746090520206, 0
608, 0.15394166247808, 0.096450311064842, 0
609, 0.12617647176065, 0.069802199637098, 0
610, 0.16380224507755, 0.22472359797821, 0
611, 0.13557579455613, 0.19941704735032, 0
612, 0.1082485286142, 0.22380291546527, 0
613, 0.13593657995412, 0.22445585750548, 0
614, 0.9240653484389, 0.03356440076943, 0
615, 0.89421824281397, 0.059426002066855, 0
616, 0.92128905477277, 0.060186658124808, 0
617, 0.386080655818, 0.20121738414313, 0
618, 0.46458323291321, 0.20878933591151, 0
619, 0.44232339574022, 0.19946599655305, 0
620, 0.16449566647098, -0.042208298961762, 0
621, 0.17640972956262, 0.06828554587244, 0
622, 0.29529241776361, 0.037389377427505, 0
623, 0.57811268652039, 0.18645688094326, 0
624, 0.64540286775036, 0.16164914141611, 0
625, 0.59703367135916, 0.19600483647854, 0
626, 0.69471692946888, 0.096752746458412, 0
627, 0.70774899413803, 0.17946593255098, 0
628, 0.903735352273, 0.0058544791473581, 0
629, 0.92748195308724, 0.0054461789073693, 0
630, 0.56557280771733, -0.27827038622617, 0
631, 0.21987464768912, 0.22411838365706, 0
632, 0.19104299238967, 0.19956079845578, 0
633, 0.19180705594896, 0.22462533985315, 0
634, 0.24618017935795, 0.19771156195547, 0
635, 0.24790699920254, 0.22322380005781, 0
636, 0.60215899000704, -0.25584326702368, 0
637, 0.87187434477725, 0.032795511221069, 0
638, 0.83729349288181, 0.052985520048982, 0
639, 0.86629066007925, 0.057380606791204, 0
640, 0.87998987205212, 0.0060706439898988, 0
641, 0.32675670804624, -0.0041180578317408, 0
642, 0.27211616877226, 0.04811412638258, 0
643, 0.20426092237344, 0.093402405131273, 0
644, 0.12011692821134, -0.012748358491796, 0
645, 0.22781944382814, -0.19184642630987, 0
646, 0.92297296693793, -0.18919681080655, 0
647, 0.92349362386742, -0.21680683753873, 0
648, 0.37445093024737, -0.27716453719832, 0
649, 0.40271759912692, -0.23961308430056, 0
650, 0.35461848711092, -0.20794681245612, 0
651, 0.27243135247628, -0.093055478328537, 0
652, 0.31641240104343, 0.052296022540585, 0
653, 0.17114396260453, 0.013661577969347, 0
654, 0.41194740630362, -0.25866512159946, 0
655, 0.8973108825351, 0.21624964770412, 0
656, 0.92241872814967, 0.21736832058598, 0
657, 0.21605714093855, 0.17328257628662, 0
658, 0.18625267980939, 0.14843539470477, 0
659, 0.16173611594966, 0.17448587903513, 0
660, 0.18901497132234, 0.17420063008176, 0
661, 0.19860359061487, 0.038401071373028, 0
662, 0.050202530943434, -0.27394531856976, 0
663, 0.050694262159232, 0.092640090851181, 0
664, 0.75918282223885, -0.14201638597287, 0
665, 0.70586515315903, -0.14682080609095, 0
666, 0.72396587330112, -0.13279839148725, 0
667, 0.26855559862183, 0.16924719632615, 0
668, 0.24266390642783, 0.17165763208762, 0
669, 0.75342291219856, -0.22406910605929, 0
670, 0.77675566124615, -0.19260912720948, 0
671, 0.77904162375481, -0.21968224477535, 0
672, 0.38354981211672, -0.25558446411922, 0
673, 0.39942682654794, -0.27704819632187, 0
674, 0.32336545466833, -0.027124624363237, 0
675, 0.092201674308224, -0.10047039842319, 0
676, 0.051328090778998, 0.11916975438536, 0
677, 0.89589323143939, -0.16051604519761, 0
678, 0.92228137188836, -0.16212860085915, 0
679, 0.20106445137185, 0.065847795707122, 0
680, 0.14404722202741, -0.24689454177476, 0
681, 0.17933969946695, 0.095453700611549, 0
682, 0.22516697170604, -0.27475348404631, 0
683, 0.87099704807775, 0.1853894426299, 0
684, 0.87291435472314, 0.21472936263293, 0
685, 0.08045155894297, 0.19775108517441, 0
686, 0.080756153799612, 0.22297781631232, 0
687, 0.84115423216577, 0.15234828671634, 0
688, 0.867261018706, 0.15702348553139, 0
689, 0.80470331050616, 0.11623005713495, 0
690, 0.81579176728642, 0.14654689087807, 0
691, 0.72350737694993, -0.19649012384518, 0
692, 0.70331201541288, -0.21936764812034, 0
693, 0.72748066784849, -0.22259724750217, 0
694, 0.80324619469301, 0.067142348998261, 0
695, 0.77262078834768, 0.075185724571575, 0
696, 0.80199701513513, 0.090808156275628, 0
697, 0.1069842461503, 0.17349180037434, 0
698, 0.079697499627643, 0.17242483277298, 0
699, 0.077613937648318, 0.12094573528192, 0
700, 0.1840248518904, -0.072753452697185, 0
701, 0.302009058305, 0.099392214509737, 0
702, 0.22893360010411, -0.079638939737215, 0
703, 0.74074398761408, 0.074821828163847, 0
704, 0.78308407211372, 0.025327342027621, 0
705, 0.71930567277268, 0.11006833981336, 0
706, 0.2872485355769, 0.13691385382349, 0
707, 0.18212456065759, -0.1897358353837, 0
708, 0.78379408682484, -0.070854076551783, 0
709, 0.80895703552522, -0.1298550359173, 0
710, 0.7954594032502, -0.10279670822368, 0
711, 0.57128910067983, 0.14586226807875, 0
712, 0.56149646545302, 0.17613677902284, 0
713, 0.68740394006494, 0.23102130662839, 0
714, 0.11461986689519, -0.09995923408938, 0
715, 0.11480555838268, -0.18910870049801, 0
716, 0.18774956834872, -0.044054343466623, 0
717, 0.13261387887817, 0.14875649563159, 0
718, 0.13436070374743, 0.17422782338249, 0
719, 0.06916955393591, -0.13090450907452, 0
720, 0.1814803261216, -0.10208043346173, 0
721, 0.12426485710264, 0.042678967989018, 0
722, 0.075427503581901, 0.067875318857019, 0
723, 0.22317808964019, 0.034255115488972, 0
724, 0.23413004976614, -0.05149109281826, 0
725, 0.27073315675986, -0.12258065609425, 0
726, 0.17392735613041, 0.041000431537927, 0
727, 0.18075680124999, -0.13154691228535, 0
728, 0.048465124410373, -0.24675902529258, 0
729, 0.30126753259933, -0.073788982924383, 0
730, 0.86692644789088, -0.131853295628, 0
731, 0.87709554019568, -0.10624367849282, 0
732, 0.79791889003735, -0.033523189329962, 0
733, 0.77675192966685, -0.039781207915885, 0
734, 0.40968859193194, 0.17693547391123, 0
735, 0.3166913454046, 0.16254272856314, 0
736, 0.29336745909712, 0.16602617559694, 0
737, 0.74571175606107, -0.17681145815812, 0
738, 0.71548291583317, -0.17117603830093, 0
739, 0.79287274895163, -0.15651693076146, 0
740, 0.77076196373982, -0.16647620542115, 0
741, 0.093812529424184, -0.21841367363767, 0
742, 0.24495095485641, 0.0016470703967292, 0
743, 0.42541652238427, -0.27761795914806, 0
744, 0.3491378673412, -0.27667114908098, 0
745, 0.049512596464974, 0.038528400300562, 0
746, 0.68063634572413, -0.21949956808374, 0
747, 0.62280461384373, 0.15075270009828, 0
748, 0.64761838155239, 0.19728591573903, 0
749, 0.4244126568125, 0.18741954232019, 0
750, 0.35330105679491, 0.18856033134079, 0
751, 0.35872810703393, 0.21342560887093, 0
752, 0.25381662138765, -0.22077062423082, 0
753, 0.025031315017548, -0.27376065966145, 0
754, 0.84309718411484, -0.15425090572178, 0
755, 0.86936912201009, -0.157883679731, 0
756, 0.81783847030555, -0.15564347865615, 0
757, 0.80753606236826, 0.044586084422038, 0
758, 0.82320039782192, -0.038553783027601, 0
759, 0.0468787236428, -0.10272008227481, 0
760, 0.069646877307531, -0.10141178310974, 0
761, 0.63288181165952, 0.13015012925371, 0
762, 0.61019708981533, 0.17212568642522, 0
763, 0.67900086061748, 0.18919327627092, 0
764, 0.70186860804151, -0.013097161465131, 0
765, 0.54877153226847, 0.16222709923726, 0
766, 0.074409649671546, 0.040739763673845, 0
767, 0.22849616665295, 0.090055845269154, 0
768, 0.56437059132435, 0.24066337788925, 0
769, 0.68583159467784, 0.004104063665315, 0
770, 0.024270525538519, -0.019965591649158, 0
771, 0.070633861153165, -0.21856983997843, 0
772, 0.19183359849893, -0.016127562937842, 0
773, 0.69585362792537, 0.16183432429141, 0
774, 0.34297620091567, 0.16456456251701, 0
775, 0.67829643745282, 0.14894535031518, 0
776, 0.49256138372648, 0.20227594783076, 0
777, 0.34323098916963, 0.1133343307595, 0
778, 0.12225878933467, 0.015198368080768, 0
779, 0.66955696571376, 0.088203928527836, 0
780, 0.51957462261242, -0.27751062736841, 0
781, 0.60731938914182, -0.23617271855232, 0
782, 0.57933999629666, -0.23115131940555, 0
783, 0.65821250527293, -0.22142793493581, 0
784, 0.74803139457698, -0.10069671861457, 0
785, 0.75810986702037, 0.011827445553953, 0
786, 0.83225951878933, -0.089322830193588, 0
787, 0.047281598654815, -0.21867179959148, 0
788, 0.82965355400641, 0.004775251050842, 0
789, 0.10237914279395, 0.095934861385408, 0
790, 0.07648629062831, 0.094620846433058, 0
791, 0.025374354025264, 0.11683681152287, 0
792, 0.1812532771529, -0.1607082587595, 0
793, 0.20416360623577, -0.1622411363033, 0
794, 0.22779950888612, -0.16472497132128, 0
795, 0.25278229419875, -0.16857896406391, 0
796, 0.28029782944292, -0.17438276766384, 0
797, 0.32395061132277, -0.27604917526556, 0
798, 0.30847393311473, -0.2506559809706, 0
799, 0.30142087292173, -0.22488879417619, 0
800, 0.30241184727575, -0.2006524905956, 0
801, 0.31262600881651, -0.1809605431383, 0
802, 0.71822661757672, 0.018018864950234, 0
803, 0.63936625675744, -0.1645036815586, 0
804, 0.58516180244277, -0.20819394237422, 0
805, 0.43489615499321, -0.24803264116531, 0
806, 0.44568822343599, -0.26369558983426, 0
807, 0.45415400361647, -0.27965672222741, 0
808, 0.42717523067173, -0.23016783546097, 0
809, 0.6815825625426, 0.12010593872849, 0
810, 0.65835479402374, 0.11314448508401, 0
811, 0.59227687752198, 0.24810129613662, 0
812, 0.63181637657665, 0.22150530584345, 0
813, 0.66019696415601, 0.21453116566412, 0
814, 0.68815248467551, 0.20835600669917, 0
815, 0.71487778316263, 0.20115250363977, 0
816, 0.73936210503571, 0.19259040577204, 0
817, 0.5827099155286, 0.22068299514421, 0
818, 0.5637632739544, 0.21313141396514, 0
819, 0.54562740234827, 0.20618569059308, 0
820, 0.53075942977303, 0.1978196177188, 0
821, 0.52341285814795, 0.18377597693668, 0
822, 0.60198485675962, 0.2301851864794, 0
******* E L E M E N T S *************
*ELEMENT, type=T3D2, ELSET=Line1
1, 1, 10
2, 10, 18
3, 18, 11
4, 11, 19
5, 19, 12
6, 12, 20
7, 20, 13
8, 13, 21
9, 21, 14
10, 14, 22
11, 22, 15
12, 15, 23
13, 23, 16
14, 16, 24
15, 24, 17
16, 17, 2
*ELEMENT, type=T3D2, ELSET=Line2
17, 2, 25
18, 25, 29
19, 29, 26
20, 26, 30
21, 30, 27
22, 27, 31
23, 31, 28
24, 28, 3
*ELEMENT, type=T3D2, ELSET=Line3
25, 3, 32
26, 32, 40
27, 40, 33
28, 33, 41
29, 41, 34
30, 34, 42
31, 42, 35
32, 35, 43
33, 43, 36
34, 36, 44
35, 44, 37
36, 37, 45
37, 45, 38
38, 38, 46
39, 46, 39
40, 39, 4
*ELEMENT, type=T3D2, ELSET=Line4
41, 4, 47
42, 47, 58
43, 58, 48
44, 48, 59
45, 59, 49
46, 49, 60
47, 60, 50
48, 50, 61
49, 61, 51
50, 51, 62
51, 62, 52
52, 52, 63
53, 63, 53
54, 53, 64
55, 64, 54
56, 54, 65
57, 65, 55
58, 55, 66
59, 66, 56
60, 56, 67
61, 67, 57
62, 57, 5
*ELEMENT, type=T3D2, ELSET=Line5
63, 5, 68
64, 68, 76
65, 76, 69
66, 69, 77
67, 77, 70
68, 70, 78
69, 78, 71
70, 71, 79
71, 79, 72
72, 72, 80
73, 80, 73
74, 73, 81
75, 81, 74
76, 74, 82
77, 82, 75
78, 75, 6
*ELEMENT, type=T3D2, ELSET=Line6
79, 6, 83
80, 83, 86
81, 86, 84
82, 84, 87
83, 87, 85
84, 85, 7
*ELEMENT, type=T3D2, ELSET=Line7
85, 7, 88
86, 88, 96
87, 96, 89
88, 89, 97
89, 97, 90
90, 90, 98
91, 98, 91
92, 91, 99
93, 99, 92
94, 92, 100
95, 100, 93
96, 93, 101
97, 101, 94
98, 94, 102
99, 102, 95
100, 95, 8
*ELEMENT, type=T3D2, ELSET=Line8
101, 8, 103
102, 103, 114
103, 114, 104
104, 104, 115
105, 115, 105
106, 105, 116
107, 116, 106
108, 106, 117
109, 117, 107
110, 107, 118
111, 118, 108
112, 108, 119
113, 119, 109
114, 109, 120
115, 120, 110
116, 110, 121
117, 121, 111
118, 111, 122
119, 122, 112
120, 112, 123
121, 123, 113
122, 113, 1
*ELEMENT, type=T3D2, ELSET=Line9
123, 9, 124
124, 124, 149
125, 149, 147
126, 147, 150
127, 150, 146
128, 146, 151
129, 151, 145
130, 145, 152
131, 152, 144
132, 144, 153
133, 153, 143
134, 143, 154
135, 154, 142
136, 142, 155
137, 155, 141
138, 141, 156
139, 156, 140
140, 140, 157
141, 157, 139
142, 139, 158
143, 158, 138
144, 138, 159
145, 159, 137
146, 137, 160
147, 160, 136
148, 136, 161
149, 161, 135
150, 135, 162
151, 162, 134
152, 134, 163
153, 163, 133
154, 133, 164
155, 164, 132
156, 132, 165
157, 165, 131
158, 131, 166
159, 166, 130
160, 130, 167
161, 167, 129
162, 129, 168
163, 168, 128
164, 128, 169
165, 169, 127
166, 127, 170
167, 170, 126
168, 126, 171
169, 171, 125
170, 125, 172
171, 172, 148
172, 148, 9
*ELEMENT, type=CPS4, ELSET=Surface1
173, 277, 343, 344, 341
174, 341, 344, 49, 60
175, 344, 342, 59, 49
176, 343, 294, 342, 344
177, 197, 346, 347, 345
178, 345, 347, 103, 114
179, 347, 95, 8, 103
180, 346, 102, 95, 347
181, 279, 349, 350, 348
182, 348, 350, 50, 61
183, 350, 341, 60, 50
184, 349, 277, 341, 350
185, 299, 353, 354, 351
186, 351, 354, 352, 300
187, 354, 38, 46, 352
188, 353, 45, 38, 354
189, 203, 357, 358, 355
190, 355, 358, 90, 98
191, 358, 356, 97, 90
192, 357, 205, 356, 358
193, 597, 445, 594, 787
194, 700, 716, 620, 243
195, 501, 551, 559, 507
196, 661, 679, 621, 726
197, 799, 533, 563, 798
198, 720, 700, 243, 459
199, 444, 413, 651, 725
200, 530, 597, 787, 771
201, 66, 368, 369, 55
202, 55, 369, 366, 65
203, 369, 367, 250, 366
204, 368, 253, 367, 369
205, 44, 37, 372, 370
206, 370, 372, 371, 298
207, 372, 353, 299, 371
208, 37, 45, 353, 372
209, 743, 654, 672, 673
210, 216, 741, 223, 234
211, 596, 714, 675, 221
212, 609, 399, 789, 529
213, 218, 674, 565, 179
214, 729, 136, 160, 218
215, 229, 596, 221, 580
216, 231, 189, 658, 214
217, 206, 381, 382, 380
218, 380, 382, 356, 205
219, 382, 89, 97, 356
220, 381, 96, 89, 382
221, 81, 385, 386, 73
222, 73, 386, 383, 80
223, 386, 384, 259, 383
224, 385, 261, 384, 386
225, 62, 388, 389, 51
226, 51, 389, 348, 61
227, 389, 387, 279, 348
228, 388, 281, 387, 389
229, 259, 391, 392, 383
230, 383, 392, 72, 80
231, 392, 390, 79, 72
232, 391, 257, 390, 392
233, 87, 394, 395, 84
234, 84, 395, 393, 86
235, 395, 302, 264, 393
236, 394, 207, 302, 395
237, 46, 39, 397, 352
238, 352, 397, 396, 300
239, 397, 47, 58, 396
240, 39, 4, 47, 397
241, 218, 160, 137, 674
242, 364, 378, 405, 742
243, 504, 458, 120, 110
244, 435, 232, 752, 533
245, 187, 402, 403, 400
246, 400, 403, 34, 42
247, 403, 401, 41, 34
248, 402, 186, 401, 403
249, 224, 235, 178, 724
250, 431, 653, 398, 244
251, 598, 644, 573, 531
252, 651, 177, 224, 237
253, 549, 506, 19, 12
254, 760, 496, 592, 759
255, 214, 658, 191, 211
256, 772, 532, 653, 431
257, 408, 662, 18, 11
258, 674, 641, 575, 565
259, 226, 529, 722, 766
260, 445, 122, 112, 594
261, 203, 355, 416, 414
262, 414, 416, 415, 201
263, 416, 91, 99, 415
264, 355, 98, 91, 416
265, 6, 83, 419, 417
266, 417, 419, 418, 184
267, 419, 393, 264, 418
268, 83, 86, 393, 419
269, 66, 56, 422, 368
270, 368, 422, 420, 253
271, 422, 421, 254, 420
272, 56, 67, 421, 422
273, 446, 574, 505, 588
274, 608, 211, 500, 399
275, 621, 681, 608, 340
276, 179, 565, 364, 235
277, 63, 53, 428, 425
278, 425, 428, 426, 276
279, 428, 427, 273, 426
280, 53, 64, 427, 428
281, 273, 427, 430, 429
282, 429, 430, 366, 250
283, 430, 54, 65, 366
284, 427, 64, 54, 430
285, 654, 649, 173, 672
286, 723, 360, 679, 661
287, 399, 500, 213, 789
288, 679, 643, 681, 621
289, 742, 405, 723, 606
290, 217, 362, 716, 700
291, 607, 176, 117, 107
292, 652, 242, 701, 233
293, 43, 36, 440, 438
294, 438, 440, 439, 188
295, 440, 370, 298, 439
296, 36, 44, 370, 440
297, 201, 415, 443, 441
298, 441, 443, 442, 199
299, 443, 92, 100, 442
300, 415, 99, 92, 443
301, 405, 375, 360, 723
302, 798, 563, 495, 797
303, 411, 227, 770, 222
304, 707, 210, 503, 574
305, 196, 448, 449, 447
306, 447, 449, 363, 193
307, 449, 105, 116, 363
308, 448, 115, 105, 449
309, 82, 75, 452, 450
310, 450, 452, 451, 262
311, 452, 417, 184, 451
312, 75, 6, 417, 452
313, 78, 71, 455, 453
314, 453, 455, 454, 255
315, 455, 390, 257, 454
316, 71, 79, 390, 455
317, 62, 52, 457, 388
318, 388, 457, 456, 281
319, 457, 425, 276, 456
320, 52, 63, 425, 457
321, 210, 228, 527, 503
322, 233, 701, 359, 225
323, 423, 561, 13, 21
324, 213, 192, 499, 699
325, 256, 461, 462, 460
326, 460, 462, 453, 255
327, 462, 70, 78, 453
328, 461, 77, 70, 462
329, 67, 57, 464, 421
330, 421, 464, 463, 254
331, 464, 68, 76, 463
332, 57, 5, 68, 464
333, 100, 93, 467, 442
334, 442, 467, 465, 199
335, 467, 466, 198, 465
336, 93, 101, 466, 467
337, 207, 394, 470, 468
338, 468, 470, 469, 175
339, 470, 85, 7, 469
340, 394, 87, 85, 470
341, 203, 473, 474, 357
342, 357, 474, 471, 205
343, 474, 472, 204, 471
344, 473, 202, 472, 474
345, 318, 782, 185, 781
346, 475, 477, 401, 186
347, 477, 33, 41, 401
348, 476, 40, 33, 477
349, 188, 478, 479, 438
350, 438, 479, 35, 43
351, 479, 400, 42, 35
352, 478, 187, 400, 479
353, 175, 469, 481, 480
354, 480, 481, 381, 206
355, 481, 88, 96, 381
356, 469, 7, 88, 481
357, 101, 94, 483, 466
358, 466, 483, 482, 198
359, 483, 346, 197, 482
360, 94, 102, 346, 483
361, 197, 345, 485, 484
362, 484, 485, 448, 196
363, 485, 104, 115, 448
364, 345, 114, 104, 485
365, 81, 74, 487, 385
366, 385, 487, 486, 261
367, 487, 450, 262, 486
368, 74, 82, 450, 487
369, 254, 463, 489, 488
370, 488, 489, 461, 256
371, 489, 69, 77, 461
372, 463, 76, 69, 489
373, 744, 536, 798, 797
374, 537, 583, 806, 807
375, 29, 807, 743, 25
376, 2, 673, 648, 17
377, 185, 782, 167, 130
378, 321, 185, 130, 166
379, 494, 32, 40, 476
380, 493, 3, 32, 494
381, 800, 435, 533, 799
382, 682, 423, 21, 14
383, 795, 309, 376, 794
384, 237, 224, 724, 702
385, 59, 342, 498, 48
386, 48, 498, 396, 58
387, 498, 497, 300, 396
388, 342, 294, 497, 498
389, 588, 505, 423, 682
390, 796, 412, 309, 795
391, 330, 404, 219, 714
392, 376, 593, 331, 410
393, 365, 745, 595, 338
394, 220, 728, 662, 408
395, 379, 459, 330, 308
396, 180, 379, 308, 374
397, 280, 511, 512, 508
398, 508, 512, 509, 278
399, 512, 510, 285, 509
400, 511, 288, 510, 512
401, 281, 514, 515, 387
402, 387, 515, 513, 279
403, 515, 508, 278, 513
404, 514, 280, 508, 515
405, 292, 518, 519, 516
406, 516, 519, 517, 293
407, 519, 371, 299, 517
408, 518, 298, 371, 519
409, 170, 127, 522, 520
410, 520, 522, 521, 291
411, 746, 783, 322, 475
412, 168, 129, 804, 317
413, 257, 391, 526, 523
414, 523, 526, 524, 245
415, 526, 525, 258, 524
416, 391, 259, 525, 526
417, 178, 742, 606, 562
418, 752, 373, 238, 212
419, 574, 503, 432, 505
420, 528, 236, 424, 767
421, 642, 225, 528, 375
422, 437, 682, 14, 22
423, 529, 789, 790, 722
424, 676, 193, 363, 791
425, 764, 769, 9, 148
426, 605, 779, 150, 147
427, 312, 764, 148, 172
428, 240, 650, 491, 586
429, 490, 584, 132, 164
430, 536, 586, 799, 798
431, 24, 744, 797, 16
432, 252, 541, 542, 539
433, 539, 542, 367, 253
434, 542, 540, 250, 367
435, 541, 249, 540, 542
436, 292, 544, 545, 518
437, 518, 545, 439, 298
438, 545, 543, 188, 439
439, 544, 297, 543, 545
440, 548, 812, 822, 817
441, 153, 821, 776, 143
442, 261, 266, 554, 384
443, 713, 814, 815, 266
444, 377, 437, 22, 15
445, 793, 410, 727, 792
446, 244, 398, 778, 644
447, 564, 707, 574, 446
448, 773, 627, 763, 546
449, 820, 819, 572, 263
450, 384, 554, 525, 259
451, 623, 625, 818, 819
452, 278, 557, 558, 513
453, 513, 558, 349, 279
454, 558, 556, 277, 349
455, 557, 295, 556, 558
456, 587, 652, 233, 622
457, 177, 179, 235, 224
458, 225, 359, 236, 528
459, 728, 215, 753, 662
460, 701, 209, 706, 359
461, 622, 233, 225, 642
462, 227, 365, 338, 770
463, 753, 113, 1, 10
464, 248, 703, 337, 695
465, 311, 785, 534, 326
466, 567, 324, 286, 566
467, 125, 171, 324, 567
468, 255, 454, 570, 568
469, 568, 570, 569, 251
470, 570, 523, 245, 569
471, 454, 257, 523, 570
472, 734, 320, 156, 141
473, 320, 582, 140, 156
474, 763, 814, 813, 748
475, 811, 822, 812, 552
476, 620, 431, 244, 502
477, 653, 726, 434, 398
478, 789, 213, 699, 790
479, 565, 575, 378, 364
480, 246, 335, 578, 576
481, 576, 578, 524, 258
482, 578, 577, 245, 524
483, 335, 248, 577, 578
484, 424, 307, 189, 231
485, 236, 190, 307, 424
486, 242, 139, 157, 305
487, 458, 222, 109, 120
488, 734, 617, 571, 320
489, 140, 582, 304, 157
490, 582, 581, 208, 304
491, 320, 571, 581, 582
492, 673, 672, 585, 648
493, 436, 492, 133, 163
494, 586, 491, 800, 799
495, 241, 538, 584, 490
496, 501, 507, 445, 597
497, 532, 661, 726, 653
498, 496, 433, 411, 592
499, 373, 446, 588, 238
500, 250, 540, 591, 429
501, 429, 591, 589, 273
502, 591, 590, 274, 589
503, 540, 249, 590, 591
504, 681, 214, 211, 608
505, 767, 424, 231, 643
506, 228, 715, 216, 527
507, 359, 706, 190, 236
508, 406, 162, 135, 444
509, 716, 772, 431, 620
510, 375, 528, 767, 360
511, 309, 550, 593, 376
512, 249, 601, 602, 590
513, 590, 602, 599, 274
514, 602, 600, 269, 599
515, 601, 247, 600, 602
516, 748, 813, 812, 548
517, 603, 268, 604, 310
518, 335, 535, 703, 248
519, 769, 310, 124, 9
520, 805, 808, 538, 649
521, 533, 752, 212, 563
522, 527, 216, 234, 680
523, 412, 725, 550, 309
524, 199, 465, 613, 610
525, 610, 613, 611, 194
526, 613, 612, 195, 611
527, 465, 198, 612, 613
528, 276, 426, 616, 614
529, 614, 616, 615, 275
530, 616, 589, 274, 615
531, 426, 273, 589, 616
532, 749, 155, 142, 619
533, 734, 480, 206, 617
534, 617, 206, 380, 751
535, 749, 619, 468, 175
536, 230, 663, 176, 607
537, 406, 444, 725, 412
538, 560, 719, 551, 501
539, 432, 680, 579, 561
540, 546, 763, 748, 553
541, 819, 818, 555, 572
542, 553, 748, 548, 625
543, 747, 624, 762, 183
544, 272, 311, 733, 732
545, 281, 456, 629, 514
546, 514, 629, 628, 280
547, 629, 614, 275, 628
548, 456, 276, 614, 629
549, 475, 322, 476, 477
550, 493, 630, 28, 3
551, 630, 313, 31, 28
552, 636, 321, 630, 493
553, 199, 610, 633, 441
554, 441, 633, 631, 201
555, 633, 632, 200, 631
556, 610, 194, 632, 633
557, 201, 631, 635, 414
558, 414, 635, 473, 203
559, 635, 634, 202, 473
560, 631, 200, 634, 635
561, 319, 318, 781, 290
562, 316, 317, 318, 319
563, 174, 636, 493, 494
564, 803, 316, 319, 315
565, 269, 638, 639, 599
566, 599, 639, 615, 274
567, 639, 637, 275, 615
568, 638, 271, 637, 639
569, 271, 333, 640, 637
570, 637, 640, 628, 275
571, 640, 511, 280, 628
572, 333, 288, 511, 640
573, 593, 702, 217, 331
574, 771, 787, 728, 220
575, 714, 219, 407, 675
576, 675, 407, 496, 760
577, 340, 608, 399, 609
578, 652, 158, 139, 242
579, 790, 699, 676, 663
580, 778, 721, 226, 409
581, 299, 351, 647, 517
582, 517, 647, 646, 293
583, 647, 497, 294, 646
584, 351, 300, 497, 647
585, 26, 537, 807, 29
586, 491, 650, 492, 436
587, 173, 241, 650, 240
588, 807, 806, 654, 743
589, 433, 181, 227, 411
590, 787, 594, 215, 728
591, 551, 759, 504, 559
592, 222, 770, 119, 109
593, 672, 173, 240, 585
594, 801, 436, 163, 134
595, 492, 490, 164, 133
596, 648, 585, 536, 744
597, 253, 420, 656, 539
598, 539, 656, 655, 252
599, 656, 488, 256, 655
600, 420, 254, 488, 656
601, 194, 659, 660, 632
602, 632, 660, 657, 200
603, 660, 658, 189, 657
604, 659, 191, 658, 660
605, 724, 178, 562, 362
606, 410, 331, 720, 727
607, 595, 607, 107, 118
608, 212, 238, 437, 377
609, 171, 126, 666, 323
610, 323, 666, 664, 282
611, 666, 665, 283, 664
612, 126, 170, 665, 666
613, 200, 657, 668, 634
614, 634, 668, 667, 202
615, 668, 307, 190, 667
616, 657, 189, 307, 668
617, 297, 670, 671, 543
618, 543, 671, 478, 188
619, 671, 669, 187, 478
620, 670, 296, 669, 671
621, 585, 240, 586, 536
622, 650, 241, 490, 492
623, 182, 239, 808, 805
624, 17, 648, 744, 24
625, 794, 376, 410, 793
626, 562, 606, 532, 772
627, 223, 220, 408, 506
628, 25, 743, 673, 2
629, 719, 760, 759, 551
630, 643, 231, 214, 681
631, 434, 340, 609, 721
632, 459, 243, 404, 330
633, 277, 556, 678, 343
634, 343, 678, 646, 294
635, 678, 677, 293, 646
636, 556, 295, 677, 678
637, 792, 727, 379, 180
638, 407, 531, 433, 496
639, 641, 587, 622, 575
640, 360, 767, 643, 679
641, 770, 338, 108, 119
642, 663, 676, 791, 176
643, 503, 527, 680, 432
644, 176, 791, 106, 117
645, 255, 568, 684, 460
646, 460, 684, 655, 256
647, 684, 683, 252, 655
648, 568, 251, 683, 684
649, 198, 482, 686, 612
650, 612, 686, 685, 195
651, 686, 484, 196, 685
652, 482, 197, 484, 686
653, 251, 687, 688, 683
654, 683, 688, 541, 252
655, 688, 601, 249, 541
656, 687, 247, 601, 688
657, 245, 577, 690, 569
658, 569, 690, 687, 251
659, 690, 689, 247, 687
660, 577, 248, 689, 690
661, 291, 692, 693, 691
662, 691, 693, 669, 296
663, 693, 402, 187, 669
664, 692, 186, 402, 693
665, 248, 695, 696, 689
666, 689, 696, 600, 247
667, 696, 694, 269, 600
668, 695, 270, 694, 696
669, 193, 499, 698, 447
670, 447, 698, 685, 196
671, 698, 697, 195, 685
672, 499, 192, 697, 698
673, 238, 588, 682, 437
674, 766, 722, 230, 745
675, 644, 778, 409, 573
676, 801, 406, 412, 796
677, 624, 546, 553, 762
678, 567, 312, 172, 125
679, 604, 605, 147, 149
680, 759, 592, 458, 504
681, 211, 191, 717, 500
682, 680, 234, 549, 579
683, 641, 159, 138, 587
684, 282, 709, 710, 325
685, 325, 710, 708, 286
686, 710, 328, 287, 708
687, 709, 284, 328, 710
688, 712, 623, 819, 820
689, 303, 747, 183, 711
690, 625, 548, 817, 818
691, 486, 713, 266, 261
692, 741, 771, 220, 223
693, 507, 559, 121, 111
694, 699, 499, 193, 676
695, 791, 363, 116, 106
696, 192, 717, 718, 697
697, 697, 718, 611, 195
698, 718, 659, 194, 611
699, 717, 191, 659, 718
700, 580, 221, 719, 560
701, 592, 411, 222, 458
702, 404, 502, 598, 219
703, 649, 538, 241, 173
704, 502, 244, 644, 598
705, 561, 579, 20, 13
706, 181, 339, 365, 227
707, 727, 720, 459, 379
708, 726, 621, 340, 434
709, 531, 573, 181, 433
710, 242, 305, 209, 701
711, 339, 766, 745, 365
712, 725, 651, 237, 550
713, 606, 723, 661, 532
714, 505, 432, 561, 423
715, 495, 377, 15, 23
716, 285, 327, 731, 509
717, 509, 731, 557, 278
718, 731, 730, 295, 557
719, 327, 284, 730, 731
720, 337, 703, 268, 603
721, 732, 733, 708, 287
722, 733, 566, 286, 708
723, 572, 555, 264, 302
724, 734, 749, 175, 480
725, 734, 141, 155, 749
726, 571, 750, 774, 581
727, 190, 706, 736, 667
728, 667, 736, 472, 202
729, 736, 735, 204, 472
730, 706, 209, 735, 736
731, 283, 665, 738, 737
732, 737, 738, 691, 296
733, 738, 520, 291, 691
734, 665, 170, 520, 738
735, 297, 739, 740, 670
736, 670, 740, 737, 296
737, 740, 664, 283, 737
738, 739, 282, 664, 740
739, 745, 230, 607, 595
740, 374, 308, 596, 229
741, 215, 123, 113, 753
742, 573, 409, 339, 181
743, 584, 239, 165, 132
744, 583, 182, 805, 806
745, 538, 808, 239, 584
746, 800, 491, 436, 801
747, 221, 675, 760, 719
748, 243, 620, 502, 404
749, 235, 364, 742, 178
750, 662, 753, 10, 18
751, 186, 692, 746, 475
752, 782, 804, 129, 167
753, 128, 168, 317, 316
754, 692, 291, 521, 746
755, 762, 553, 625, 623
756, 552, 812, 813, 301
757, 554, 816, 258, 525
758, 145, 303, 711, 152
759, 204, 750, 751, 471
760, 471, 751, 380, 205
761, 619, 142, 154, 618
762, 500, 717, 192, 213
763, 331, 217, 700, 720
764, 715, 361, 741, 216
765, 506, 408, 11, 19
766, 361, 530, 771, 741
767, 806, 805, 649, 654
768, 444, 135, 161, 413
769, 575, 622, 642, 378
770, 295, 730, 755, 677
771, 677, 755, 516, 293
772, 755, 754, 292, 516
773, 730, 284, 754, 755
774, 617, 751, 750, 571
775, 618, 154, 143, 776
776, 284, 709, 756, 754
777, 754, 756, 544, 292
778, 756, 739, 297, 544
779, 709, 282, 739, 756
780, 270, 704, 757, 694
781, 694, 757, 638, 269
782, 757, 332, 271, 638
783, 704, 272, 332, 757
784, 288, 334, 758, 510
785, 510, 758, 329, 285
786, 758, 732, 287, 329
787, 334, 272, 732, 758
788, 579, 549, 12, 20
789, 507, 111, 122, 445
790, 413, 161, 136, 729
791, 721, 609, 529, 226
792, 266, 815, 816, 554
793, 183, 762, 623, 712
794, 547, 775, 624, 747
795, 144, 765, 821, 153
796, 262, 301, 713, 486
797, 270, 289, 785, 704
798, 152, 711, 765, 144
799, 534, 802, 769, 764
800, 559, 504, 110, 121
801, 232, 645, 373, 752
802, 338, 595, 118, 108
803, 702, 724, 362, 217
804, 566, 326, 312, 567
805, 704, 785, 311, 272
806, 802, 603, 310, 769
807, 695, 337, 289, 270
808, 733, 311, 326, 566
809, 768, 811, 184, 418
810, 703, 535, 336, 268
811, 326, 534, 764, 312
812, 560, 501, 597, 530
813, 801, 134, 162, 406
814, 413, 729, 177, 651
815, 378, 642, 375, 405
816, 308, 330, 714, 596
817, 645, 564, 446, 373
818, 797, 495, 23, 16
819, 674, 137, 159, 641
820, 818, 817, 768, 555
821, 184, 811, 552, 451
822, 775, 773, 546, 624
823, 711, 183, 712, 765
824, 208, 581, 774, 306
825, 306, 774, 735, 209
826, 774, 750, 204, 735
827, 627, 815, 814, 763
828, 555, 768, 418, 264
829, 765, 712, 820, 821
830, 263, 572, 302, 207
831, 821, 820, 263, 776
832, 817, 822, 811, 768
833, 451, 552, 301, 262
834, 208, 306, 777, 304
835, 304, 777, 305, 157
836, 306, 209, 305, 777
837, 550, 237, 702, 593
838, 362, 562, 772, 716
839, 722, 790, 663, 230
840, 301, 813, 814, 713
841, 268, 336, 605, 604
842, 166, 314, 780, 313
843, 313, 780, 27, 31
844, 314, 30, 27, 780
845, 317, 804, 782, 318
846, 322, 174, 494, 476
847, 290, 781, 636, 174
848, 315, 319, 290, 783
849, 522, 803, 315, 521
850, 630, 321, 166, 313
851, 618, 776, 263, 207
852, 619, 618, 207, 468
853, 781, 185, 321, 636
854, 521, 315, 783, 746
855, 783, 290, 174, 322
856, 282, 325, 784, 323
857, 323, 784, 324, 171
858, 325, 286, 324, 784
859, 336, 626, 779, 605
860, 285, 329, 786, 327
861, 327, 786, 328, 284
862, 329, 287, 328, 786
863, 219, 598, 531, 407
864, 594, 112, 123, 215
865, 587, 138, 158, 652
866, 272, 334, 788, 332
867, 332, 788, 333, 271
868, 334, 288, 333, 788
869, 310, 604, 149, 124
870, 785, 289, 802, 534
871, 246, 705, 535, 335
872, 398, 434, 721, 778
873, 563, 212, 377, 495
874, 234, 223, 506, 549
875, 409, 226, 766, 339
876, 729, 218, 179, 177
877, 580, 560, 530, 361
878, 229, 580, 361, 715
879, 374, 229, 715, 228
880, 180, 374, 228, 210
881, 792, 180, 210, 707
882, 793, 792, 707, 564
883, 794, 793, 564, 645
884, 795, 794, 645, 232
885, 796, 795, 232, 435
886, 801, 796, 435, 800
887, 289, 337, 603, 802
888, 535, 705, 626, 336
889, 169, 128, 316, 803
890, 127, 169, 803, 522
891, 131, 165, 239, 182
892, 166, 131, 182, 583
893, 314, 166, 583, 537
894, 30, 314, 537, 26
895, 761, 547, 747, 303
896, 151, 761, 303, 145
897, 265, 816, 815, 627
898, 260, 265, 627, 773
899, 267, 260, 773, 775
900, 809, 267, 775, 547
901, 810, 809, 547, 761
902, 146, 810, 761, 151
903, 576, 258, 816, 265
904, 246, 576, 265, 260
905, 705, 246, 260, 267
906, 626, 705, 267, 809
907, 779, 626, 809, 810
908, 150, 779, 810, 146
*ELSET,ELSET=contact_source
101, 102, 103, 104, 105, 106, 107, 108, 109, 110, 
111, 112, 113, 114, 115, 116, 117, 118, 119, 120, 
121, 122, 
*ELSET,ELSET=contact_drain
41, 42, 43, 44, 45, 46, 47, 48, 49, 50, 
51, 52, 53, 54, 55, 56, 57, 58, 59, 60, 
61, 62, 
*ELSET,ELSET=probe_A
79, 80, 81, 82, 83, 84, 
*ELSET,ELSET=probe_B
17, 18, 19, 20, 21, 22, 23, 24, 
*ELSET,ELSET=walls
1, 2, 3, 4, 5, 6, 7, 8, 9, 10, 
11, 12, 13, 14, 15, 16, 25, 26, 27, 28, 
29, 30, 31, 32, 33, 34, 35, 36, 37, 38, 
39, 40, 63, 64, 65, 66, 67, 68, 69, 70, 
71, 72, 73, 74, 75, 76, 77, 78, 85, 86, 
87, 88, 89, 90, 91, 92, 93, 94, 95, 96, 
97, 98, 99, 100, 123, 124, 125, 126, 127, 128, 
129, 130, 131, 132, 133, 134, 135, 136, 137, 138, 
139, 140, 141, 142, 143, 144, 145, 146, 147, 148, 
149, 150, 151, 152, 153, 154, 155, 156, 157, 158, 
159, 160, 161, 162, 163, 164, 165, 166, 167, 168, 
169, 170, 171, 172, 
*ELSET,ELSET=domain
173, 174, 175, 176, 177, 178, 179, 180, 181, 182, 
183, 184, 185, 186, 187, 188, 189, 190, 191, 192, 
193, 194, 195, 196, 197, 198, 199, 200, 201, 202, 
203, 204, 205, 206, 207, 208, 209, 210, 211, 212, 
213, 214, 215, 216, 217, 218, 219, 220, 221, 222, 
223, 224, 225, 226, 227, 228, 229, 230, 231, 232, 
233, 234, 235, 236, 237, 238, 239, 240, 241, 242, 
243, 244, 245, 246, 247, 248, 249, 250, 251, 252, 
253, 254, 255, 256, 257, 258, 259, 260, 261, 262, 
263, 264, 265, 266, 267, 268, 269, 270, 271, 272, 
273, 274, 275, 276, 277, 278, 279, 280, 281, 282, 
283, 284, 285, 286, 287, 288, 289, 290, 291, 292, 
293, 294, 295, 296, 297, 298, 299, 300, 301, 302, 
303, 304, 305, 306, 307, 308, 309, 310, 311, 312, 
313, 314, 315, 316, 317, 318, 319, 320, 321, 322, 
323, 324, 325, 326, 327, 328, 329, 330, 331, 332, 
333, 334, 335, 336, 337, 338, 339, 340, 341, 342, 
343, 344, 345, 346, 347, 348, 349, 350, 351, 352, 
353, 354, 355, 356, 357, 358, 359, 360, 361, 362, 
363, 364, 365, 366, 367, 368, 369, 370, 371, 372, 
373, 374, 375, 376, 377, 378, 379, 380, 381, 382, 
383, 384, 385, 386, 387, 388, 389, 390, 391, 392, 
393, 394, 395, 396, 397, 398, 399, 400, 401, 402, 
403, 404, 405, 406, 407, 408, 409, 410, 411, 412, 
413, 414, 415, 416, 417, 418, 419, 420, 421, 422, 
423, 424, 425, 426, 427, 428, 429, 430, 431, 432, 
433, 434, 435, 436, 437, 438, 439, 440, 441, 442, 
443, 444, 445, 446, 447, 448, 449, 450, 451, 452, 
453, 454, 455, 456, 457, 458, 459, 460, 461, 462, 
463, 464, 465, 466, 467, 468, 469, 470, 471, 472, 
473, 474, 475, 476, 477, 478, 479, 480, 481, 482, 
483, 484, 485, 486, 487, 488, 489, 490, 491, 492, 
493, 494, 495, 496, 497, 498, 499, 500, 501, 502, 
503, 504, 505, 506, 507, 508, 509, 510, 511, 512, 
513, 514, 515, 516, 517, 518, 519, 520, 521, 522, 
523, 524, 525, 526, 527, 528, 529, 530, 531, 532, 
533, 534, 535, 536, 537, 538, 539, 540, 541, 542, 
543, 544, 545, 546, 547, 548, 549, 550, 551, 552, 
553, 554, 555, 556, 557, 558, 559, 560, 561, 562, 
563, 564, 565, 566, 567, 568, 569, 570, 571, 572, 
573, 574, 575, 576, 577, 578, 579, 580, 581, 582, 
583, 584, 585, 586, 587, 588, 589, 590, 591, 592, 
593, 594, 595, 596, 597, 598, 599, 600, 601, 602, 
603, 604, 605, 606, 607, 608, 609, 610, 611, 612, 
613, 614, 615, 616, 617, 618, 619, 620, 621, 622, 
623, 624, 625, 626, 627, 628, 629, 630, 631, 632, 
633, 634, 635, 636, 637, 638, 639, 640, 641, 642, 
643, 644, 645, 646, 647, 648, 649, 650, 651, 652, 
653, 654, 655, 656, 657, 658, 659, 660, 661, 662, 
663, 664, 665, 666, 667, 668, 669, 670, 671, 672, 
673, 674, 675, 676, 677, 678, 679, 680, 681, 682, 
683, 684, 685, 686, 687, 688, 689, 690, 691, 692, 
693, 694, 695, 696, 697, 698, 699, 700, 701, 702, 
703, 704, 705, 706, 707, 708, 709, 710, 711, 712, 
713, 714, 715, 716, 717, 718, 719, 720, 721, 722, 
723, 724, 725, 726, 727, 728, 729, 730, 731, 732, 
733, 734, 735, 736, 737, 738, 739, 740, 741, 742, 
743, 744, 745, 746, 747, 748, 749, 750, 751, 752, 
753, 754, 755, 756, 757, 758, 759, 760, 761, 762, 
763, 764, 765, 766, 767, 768, 769, 770, 771, 772, 
773, 774, 775, 776, 777, 778, 779, 780, 781, 782, 
783, 784, 785, 786, 787, 788, 789, 790, 791, 792, 
793, 794, 795, 796, 797, 798, 799, 800, 801, 802, 
803, 804, 805, 806, 807, 808, 809, 810, 811, 812, 
813, 814, 815, 816, 817, 818, 819, 820, 821, 822, 
823, 824, 825, 826, 827, 828, 829, 830, 831, 832, 
833, 834, 835, 836, 837, 838, 839, 840, 841, 842, 
843, 844, 845, 846, 847, 848, 849, 850, 851, 852, 
853, 854, 855, 856, 857, 858, 859, 860, 861, 862, 
863, 864, 865, 866, 867, 868, 869, 870, 871, 872, 
873, 874, 875, 876, 877, 878, 879, 880, 881, 882, 
883, 884, 885, 886, 887, 888, 889, 890, 891, 892, 
893, 894, 895, 896, 897, 898, 899, 900, 901, 902, 
903, 904, 905, 906, 907, 908, 
*NSET,NSET=contact_source
1, 8, 103, 104, 105, 106, 107, 108, 109, 110, 
111, 112, 113, 114, 115, 116, 117, 118, 119, 120, 
121, 122, 123, 
*NSET,NSET=contact_drain
4, 5, 47, 48, 49, 50, 51, 52, 53, 54, 
55, 56, 57, 58, 59, 60, 61, 62, 63, 64, 
65, 66, 67, 
*NSET,NSET=probe_A
6, 7, 83, 84, 85, 86, 87, 
*NSET,NSET=probe_B
2, 3, 25, 26, 27, 28, 29, 30, 31, 
*NSET,NSET=walls
1, 2, 3, 4, 5, 6, 7, 8, 9, 10, 
11, 12, 13, 14, 15, 16, 17, 18, 19, 20, 
21, 22, 23, 24, 32, 33, 34, 35, 36, 37, 
38, 39, 40, 41, 42, 43, 44, 45, 46, 68, 
69, 70, 71, 72, 73, 74, 75, 76, 77, 78, 
79, 80, 81, 82, 88, 89, 90, 91, 92, 93, 
94, 95, 96, 97, 98, 99, 100, 101, 102, 124, 
125, 126, 127, 128, 129, 130, 131, 132, 133, 134, 
135, 136, 137, 138, 139, 140, 141, 142, 143, 144, 
145, 146, 147, 148, 149, 150, 151, 152, 153, 154, 
155, 156, 157, 158, 159, 160, 161, 162, 163, 164, 
165, 166, 167, 168, 169, 170, 171, 172, 
*NSET,NSET=domain
1, 2, 3, 4, 5, 6, 7, 8, 9, 10, 
11, 12, 13, 14, 15, 16, 17, 18, 19, 20, 
21, 22, 23, 24, 25, 26, 27, 28, 29, 30, 
31, 32, 33, 34, 35, 36, 37, 38, 39, 40, 
41, 42, 43, 44, 45, 46, 47, 48, 49, 50, 
51, 52, 53, 54, 55, 56, 57, 58, 59, 60, 
61, 62, 63, 64, 65, 66, 67, 68, 69, 70, 
71, 72, 73, 74, 75, 76, 77, 78, 79, 80, 
81, 82, 83, 84, 85, 86, 87, 88, 89, 90, 
91, 92, 93, 94, 95, 96, 97, 98, 99, 100, 
101, 102, 103, 104, 105, 106, 107, 108, 109, 110, 
111, 112, 113, 114, 115, 116, 117, 118, 119, 120, 
121, 122, 123, 124, 125, 126, 127, 128, 129, 130, 
131, 132, 133, 134, 135, 136, 137, 138, 139, 140, 
141, 142, 143, 144, 145, 146, 147, 148, 149, 150, 
151, 152, 153, 154, 155, 156, 157, 158, 159, 160, 
161, 162, 163, 164, 165, 166, 167, 168, 169, 170, 
171, 172, 173, 174, 175, 176, 177, 178, 179, 180, 
181, 182, 183, 184, 185, 186, 187, 188, 189, 190, 
191, 192, 193, 194, 195, 196, 197, 198, 199, 200, 
201, 202, 203, 204, 205, 206, 207, 208, 209, 210, 
211, 212, 213, 214, 215, 216, 217, 218, 219, 220, 
221, 222, 223, 224, 225, 226, 227, 228, 229, 230, 
231, 232, 233, 234, 235, 236, 237, 238, 239, 240, 
241, 242, 243, 244, 245, 246, 247, 248, 249, 250, 
251, 252, 253, 254, 255, 256, 257, 258, 259, 260, 
261, 262, 263, 264, 265, 266, 267, 268, 269, 270, 
271, 272, 273, 274, 275, 276, 277, 278, 279, 280, 
281, 282, 283, 284, 285, 286, 287, 288, 289, 290, 
291, 292, 293, 294, 295, 296, 297, 298, 299, 300, 
301, 302, 303, 304, 305, 306, 307, 308, 309, 310, 
311, 312, 313, 314, 315, 316, 317, 318, 319, 320, 
321, 322, 323, 324, 325, 326, 327, 328, 329, 330, 
331, 332, 333, 334, 335, 336, 337, 338, 339, 340, 
341, 342, 343, 344, 345, 346, 347, 348, 349, 350, 
351, 352, 353, 354, 355, 356, 357, 358, 359, 360, 
361, 362, 363, 364, 365, 366, 367, 368, 369, 370, 
371, 372, 373, 374, 375, 376, 377, 378, 379, 380, 
381, 382, 383, 384, 385, 386, 387, 388, 389, 390, 
391, 392, 393, 394, 395, 396, 397, 398, 399, 400, 
401, 402, 403, 404, 405, 406, 407, 408, 409, 410, 
411, 412, 413, 414, 415, 416, 417, 418, 419, 420, 
421, 422, 423, 424, 425, 426, 427, 428, 429, 430, 
431, 432, 433, 434, 435, 436, 437, 438, 439, 440, 
441, 442, 443, 444, 445, 446, 447, 448, 449, 450, 
451, 452, 453, 454, 455, 456, 457, 458, 459, 460, 
461, 462, 463, 464, 465, 466, 467, 468, 469, 470, 
471, 472, 473, 474, 475, 476, 477, 478, 479, 480, 
481, 482, 483, 484, 485, 486, 487, 488, 489, 490, 
491, 492, 493, 494, 495, 496, 497, 498, 499, 500, 
501, 502, 503, 504, 505, 506, 507, 508, 509, 510, 
511, 512, 513, 514, 515, 516, 517, 518, 519, 520, 
521, 522, 523, 524, 525, 526, 527, 528, 529, 530, 
531, 532, 533, 534, 535, 536, 537, 538, 539, 540, 
541, 542, 543, 544, 545, 546, 547, 548, 549, 550, 
551, 552, 553, 554, 555, 556, 557, 558, 559, 560, 
561, 562, 563, 564, 565, 566, 567, 568, 569, 570, 
571, 572, 573, 574, 575, 576, 577, 578, 579, 580, 
581, 582, 583, 584, 585, 586, 587, 588, 589, 590, 
591, 592, 593, 594, 595, 596, 597, 598, 599, 600, 
601, 602, 603, 604, 605, 606, 607, 608, 609, 610, 
611, 612, 613, 614, 615, 616, 617, 618, 619, 620, 
621, 622, 623, 624, 625, 626, 627, 628, 629, 630, 
631, 632, 633, 634, 635, 636, 637, 638, 639, 640, 
641, 642, 643, 644, 645, 646, 647, 648, 649, 650, 
651, 652, 653, 654, 655, 656, 657, 658, 659, 660, 
661, 662, 663, 664, 665, 666, 667, 668, 669, 670, 
671, 672, 673, 674, 675, 676, 677, 678, 679, 680, 
681, 682, 683, 684, 685, 686, 687, 688, 689, 690, 
691, 692, 693, 694, 695, 696, 697, 698, 699, 700, 
701, 702, 703, 704, 705, 706, 707, 708, 709, 710, 
711, 712, 713, 714, 715, 716, 717, 718, 719, 720, 
721, 722, 723, 724, 725, 726, 727, 728, 729, 730, 
731, 732, 733, 734, 735, 736, 737, 738, 739, 740, 
741, 742, 743, 744, 745, 746, 747, 748, 749, 750, 
751, 752, 753, 754, 755, 756, 757, 758, 759, 760, 
761, 762, 763, 764, 765, 766, 767, 768, 769, 770, 
771, 772, 773, 774, 775, 776, 777, 778, 779, 780, 
781, 782, 783, 784, 785, 786, 787, 788, 789, 790, 
791, 792, 793, 794, 795, 796, 797, 798, 799, 800, 
801, 802, 803, 804, 805, 806, 807, 808, 809, 810, 
811, 812, 813, 814, 815, 816, 817, 818, 819, 820, 
821, 822, 
