*Heading
 /Users/juliagao/geometry-optimization-net/scripts/../runs/run2/shape_86.inp
*NODE
1, 0, -0.3, 0
2, 0.425, -0.3, 0
3, 0.575, -0.3, 0
4, 1, -0.3, 0
5, 1, 0.3, 0
6, 0.575, 0.3, 0
7, 0.425, 0.3, 0
8, 0, 0.3, 0
9, 0.6506378784, 0.0181331976, 0
10, 0.025824381420551, -0.3, 0
11, 0.078123372369875, -0.3, 0
12, 0.13156020337657, -0.3, 0
13, 0.18566019983067, -0.3, 0
14, 0.23949162016264, -0.3, 0
15, 0.29293418200329, -0.3, 0
16, 0.34665640642685, -0.3, 0
17, 0.39931485718278, -0.3, 0
18, 0.051648762841102, -0.3, 0
19, 0.10459798189865, -0.3, 0
20, 0.15852242485449, -0.3, 0
21, 0.21279797480684, -0.3, 0
22, 0.26618526551843, -0.3, 0
23, 0.31968309848814, -0.3, 0
24, 0.37362971436557, -0.3, 0
25, 0.44987969365375, -0.3, 0
26, 0.4996511884445, -0.3, 0
27, 0.54977149479075, -0.3, 0
28, 0.4747593873075, -0.3, 0
29, 0.52454298958149, -0.3, 0
30, 0.60034898001916, -0.3, 0
31, 0.65171557727521, -0.3, 0
32, 0.70463884778803, -0.3, 0
33, 0.75896838005581, -0.3, 0
34, 0.81340376467218, -0.3, 0
35, 0.86709523474146, -0.3, 0
36, 0.9204340350292, -0.3, 0
37, 0.97354643543608, -0.3, 0
38, 0.62569796003833, -0.3, 0
39, 0.6777331945121, -0.3, 0
40, 0.73154450106396, -0.3, 0
41, 0.78639225904766, -0.3, 0
42, 0.84041527029669, -0.3, 0
43, 0.89377519918623, -0.3, 0
44, 0.94709287087217, -0.3, 0
45, 1, -0.2731498619536, 0
46, 1, -0.21889516207236, 0
47, 1, -0.16404167567275, 0
48, 1, -0.10966007150609, 0
49, 1, -0.056024779864767, 0
50, 1, -0.0023152525368388, 0
51, 1, 0.052388853775126, 0
52, 1, 0.10829718147671, 0
53, 1, 0.16409027997036, 0
54, 1, 0.21884289045074, 0
55, 1, 0.27300676955779, 0
56, 1, -0.2462997239072, 0
57, 1, -0.19149060023753, 0
58, 1, -0.13659275110798, 0
59, 1, -0.08272739190421, 0
60, 1, -0.029322167825324, 0
61, 1, 0.024691662751646, 0
62, 1, 0.080086044798605, 0
63, 1, 0.13650831815481, 0
64, 1, 0.1916722417859, 0
65, 1, 0.24601353911558, 0
66, 0.97368068763959, 0.3, 0
67, 0.92041175280752, 0.3, 0
68, 0.86643827000008, 0.3, 0
69, 0.81291622116266, 0.3, 0
70, 0.7597635291311, 0.3, 0
71, 0.70605852478583, 0.3, 0
72, 0.65232966434995, 0.3, 0
73, 0.60032565236472, 0.3, 0
74, 0.94736137527919, 0.3, 0
75, 0.89346213033585, 0.3, 0
76, 0.83941440966431, 0.3, 0
77, 0.78641803266101, 0.3, 0
78, 0.73310902560119, 0.3, 0
79, 0.67900802397046, 0.3, 0
80, 0.62565130472944, 0.3, 0
81, 0.55022963614263, 0.3, 0
82, 0.50119570534915, 0.3, 0
83, 0.45096606920653, 0.3, 0
84, 0.52545927228525, 0.3, 0
85, 0.47693213841306, 0.3, 0
86, 0.39806846017329, 0.3, 0
87, 0.34465841516757, 0.3, 0
88, 0.29175343713023, 0.3, 0
89, 0.2386151923809, 0.3, 0
90, 0.18511297964466, 0.3, 0
91, 0.1314858183001, 0.3, 0
92, 0.078241210118482, 0.3, 0
93, 0.025916661218086, 0.3, 0
94, 0.37113692034658, 0.3, 0
95, 0.31817990998856, 0.3, 0
96, 0.26532696427189, 0.3, 0
97, 0.21190342048991, 0.3, 0
98, 0.15832253879941, 0.3, 0
99, 0.10464909780079, 0.3, 0
100, 0.051833322436173, 0.3, 0
101, 0, 0.27342721318101, 0
102, 0, 0.21882222922737, 0
103, 0, 0.16154317427566, 0
104, 0, 0.10384560290325, 0
105, 0, 0.049029412964254, 0
106, 0, -0.0034035985854032, 0
107, 0, -0.056447567237938, 0
108, 0, -0.11074065639832, 0
109, 0, -0.1654548686883, 0
110, 0, -0.2198800055283, 0
111, 0, -0.27345379287608, 0
112, 0, 0.24685442636202, 0
113, 0, 0.19079003209273, 0
114, 0, 0.1322963164586, 0
115, 0, 0.07539488934791, 0
116, 0, 0.022663936580599, 0
117, 0, -0.029471133751405, 0
118, 0, -0.083424000724471, 0
119, 0, -0.13805731207216, 0
120, 0, -0.19285242530444, 0
121, 0, -0.24690758575217, 0
122, 0.65323758425448, 0.046770760395739, 0
123, 0.71537451005514, -0.039184834291962, 0
124, 0.75262596218063, -0.083652363365467, 0
125, 0.77225085702771, -0.13663295830479, 0
126, 0.75017461329178, -0.18559795078403, 0
127, 0.69669681095128, -0.19658033880916, 0
128, 0.64163291286513, -0.18305059676625, 0
129, 0.58957184340632, -0.15793920537347, 0
130, 0.53496297227339, -0.14072897687053, 0
131, 0.48815261765511, -0.16784243619783, 0
132, 0.43446065333888, -0.17017309865287, 0
133, 0.38269604480955, -0.14762349405809, 0
134, 0.32843832412104, -0.12698907958369, 0
135, 0.28928764365667, -0.085684145531295, 0
136, 0.29448962515947, -0.029745193651436, 0
137, 0.32026502475357, 0.019170895059699, 0
138, 0.31921633798159, 0.073054835447034, 0
139, 0.30685403851985, 0.12649471874834, 0
140, 0.31691281705872, 0.18024399811285, 0
141, 0.35115868498413, 0.22158078619499, 0
142, 0.39606871053191, 0.25059490551549, 0
143, 0.44734531657194, 0.26293465367783, 0
144, 0.49497458764086, 0.2448086033584, 0
145, 0.5273047595797, 0.20422606944527, 0
146, 0.54725088156965, 0.1543899399205, 0
147, 0.58868320993575, 0.13039743310811, 0
148, 0.64163060535148, 0.13384680737889, 0
149, 0.67414943972583, 0.094918811051192, 0
150, 0.67131546436788, -0.0018675740543105, 0
151, 0.66613994931454, 0.069646207074331, 0
152, 0.66603175495098, 0.12179369878576, 0
153, 0.61515297795876, 0.13452224163176, 0
154, 0.56140183569184, 0.13074780323813, 0
155, 0.53825598014904, 0.17985136238695, 0
156, 0.51279914534702, 0.22671369537369, 0
157, 0.47295982945878, 0.25763244217405, 0
158, 0.4214315873668, 0.25999381526817, 0
159, 0.37256436049255, 0.23731213543201, 0
160, 0.33214348405579, 0.20298677988676, 0
161, 0.30823618157828, 0.15423448757969, 0
162, 0.3114620685372, 0.099185121866771, 0
163, 0.32539893445282, 0.046432731976606, 0
164, 0.30734430880007, -0.0046281887366075, 0
165, 0.28685050172237, -0.0570545572059, 0
166, 0.30449889487885, -0.11016511472018, 0
167, 0.35533738696599, -0.13797856035049, 0
168, 0.40925716152781, -0.15933742202288, 0
169, 0.46187118529695, -0.17437018617259, 0
170, 0.51121673525166, -0.15416152807542, 0
171, 0.56366832840767, -0.144684319631, 0
172, 0.61535043495721, -0.17142428957206, 0
173, 0.66899798930289, -0.19189033259928, 0
174, 0.72485169703672, -0.19539231670864, 0
175, 0.76798421099666, -0.16453029681994, 0
176, 0.76584625158502, -0.10951595848491, 0
177, 0.7353676725819, -0.060346145784117, 0
178, 0.69361762036617, -0.019861221963811, 0
179, 0.43622403401976, -0.2664309902004, 0
180, 0.18674118449577, -0.24683788160587, 0
181, 0.025876725561455, -0.0018364024055817, 0
182, 0.22828964374257, -0.041581708203221, 0
183, 0.21425199953668, -0.24788643563065, 0
184, 0.26973294715931, -0.25177231345654, 0
185, 0.33595939539498, -0.19489070271199, 0
186, 0.36284310164569, -0.20280999517509, 0
187, 0.36876860159635, -0.18414405734278, 0
188, 0.58400203277313, 0.24019767941583, 0
189, 0.59060996296808, -0.19923395260413, 0
190, 0.59669081066828, -0.2678668667577, 0
191, 0.41904863103254, -0.26724845692021, 0
192, 0.20731996139672, 0.15091428867183, 0
193, 0.28818182038858, 0.22939227630636, 0
194, 0.10347415414183, 0.14069386384231, 0
195, 0.15521608253364, 0.14516859430303, 0
196, 0.05174308095686, 0.13672606781653, 0
197, 0.15490230065844, 0.1987942825214, 0
198, 0.10353615920258, 0.19495422027574, 0
199, 0.051805307244121, 0.1922919387642, 0
200, 0.051931289481484, 0.24671493763049, 0
201, 0.15552738888483, 0.24993519000363, 0
202, 0.10394613464519, 0.24793008463408, 0
203, 0.20515708724429, 0.20523646558538, 0
204, 0.20474190415069, 0.25231352360644, 0
205, 0.26084720847092, 0.15775939075683, 0
206, 0.25137919580832, 0.22101479734186, 0
207, 0.33649401758427, 0.25387868448414, 0
208, 0.18608705023123, -0.16339746893562, 0
209, 0.25070533216384, -0.066946794601325, 0
210, 0.10342897758116, 0.085762043845414, 0
211, 0.12933610014917, -0.050327579300215, 0
212, 0.27272077494919, -0.034120151126102, 0
213, 0.078061415778536, -0.08074318439676, 0
214, 0.10539889144356, -0.16332474234852, 0
215, 0.10447417677157, -0.10752115633861, 0
216, 0.13241534679418, -0.24591563175532, 0
217, 0.18021678535528, 0.0093709289848634, 0
218, 0.051727337330788, 0.10891298005612, 0
219, 0.026215876017381, -0.24639622912658, 0
220, 0.27359720432379, -0.20145616888682, 0
221, 0.21491612500404, -0.19350927974691, 0
222, 0.25405668632995, -0.010574406362052, 0
223, 0.079094424524449, -0.19127600957925, 0
224, 0.15548012387007, -0.077003829556908, 0
225, 0.078939998807444, -0.16373516881821, 0
226, 0.28875344068172, 0.072010538670628, 0
227, 0.052643073562099, -0.21894063321499, 0
228, 0.23295777513546, 0.041433349499824, 0
229, 0.10566260054704, -0.19103292947795, 0
230, 0.18077576741746, -0.075376402780952, 0
231, 0.28440604707294, 0.12722943802238, 0
232, 0.12922196942572, 0.060408069388253, 0
233, 0.025965947014347, -0.055513791396167, 0
234, 0.20717958827078, 0.066910989433617, 0
235, 0.02603925375813, -0.082677914163044, 0
236, 0.34158890100329, -0.17476915691436, 0
237, 0.42453297580515, -0.23885602952676, 0
238, 0.40075327853339, -0.24926187307626, 0
239, 0.64454213344676, -0.21243369201861, 0
240, 0.73998238541972, 0.15890003776134, 0
241, 0.76648038957937, 0.11224142256986, 0
242, 0.84500179935895, 0.1456072643993, 0
243, 0.89587691072403, 0.14100631325111, 0
244, 0.94781060970392, 0.13817671322933, 0
245, 0.896104694011, 0.19480972991183, 0
246, 0.8454828870607, 0.19755298935824, 0
247, 0.94786623231287, 0.19282915140477, 0
248, 0.94756000743897, 0.2466138338097, 0
249, 0.89514283098254, 0.24758914201319, 0
250, 0.84332398134222, 0.24878275250061, 0
251, 0.79469337938872, 0.12815512514849, 0
252, 0.79273840487743, 0.24968292882845, 0
253, 0.74313580799827, 0.24932027248992, 0
254, 0.69309240726495, 0.24704274554064, 0
255, 0.63174141219312, 0.18543190002022, 0
256, 0.77325927523676, 0.13451611477035, 0
257, 0.64053024860416, 0.24375285592396, 0
258, 0.66002430778524, 0.18869386027796, 0
259, 0.68828817679704, 0.10250304681367, 0
260, 0.73552699343308, 0.17776799038571, 0
261, 0.71406665422803, 0.075880275082804, 0
262, 0.70407994402318, 0.11257784255847, 0
263, 0.79737576351766, 0.15241852076886, 0
264, 0.84146507602924, 0.090339013661876, 0
265, 0.73291599319967, 0.13693791685372, 0
266, 0.83857340868446, 0.028125792805119, 0
267, 0.77010729906684, 0.029837942964773, 0
268, 0.89477005980755, 0.085165692214705, 0
269, 0.9475587895169, 0.082398351389717, 0
270, 0.89456875328072, 0.027088345272743, 0
271, 0.94772057167516, 0.026142427050602, 0
272, 0.95005600057553, -0.084177913982225, 0
273, 0.74891212684819, -0.024300220949074, 0
274, 0.94869835656992, -0.029563138845392, 0
275, 0.82329761601933, -0.06672903442299, 0
276, 0.84830716546573, -0.063159591894987, 0
277, 0.81717802421186, -0.037724111491557, 0
278, 0.87612493153387, -0.088136762134638, 0
279, 0.59307743923875, -0.23465021836037, 0
280, 0.53504234037597, -0.23050478339628, 0
281, 0.45257848365382, -0.25966265109083, 0
282, 0.90293112527485, -0.13935957513001, 0
283, 0.95095457620343, -0.13793665870333, 0
284, 0.85723881728943, -0.14202220941576, 0
285, 0.81484424049189, -0.1485456659578, 0
286, 0.82340617414598, -0.18474798360935, 0
287, 0.72960436775048, -0.24241970063334, 0
288, 0.79244956069559, -0.22636210225034, 0
289, 0.90251856427474, -0.1909808745103, 0
290, 0.857628947459, -0.18907157368191, 0
291, 0.84839550334223, -0.23997764903469, 0
292, 0.89867378398986, -0.24408259142598, 0
293, 0.95068996182709, -0.19146821582235, 0
294, 0.94915096115924, -0.24544382342424, 0
295, 0.70288081919821, 0.032868168565787, 0
296, 0.7419703980863, 0.055779022252496, 0
297, 0.73654631276424, 0.0034439955546577, 0
298, 0.27527780118093, -0.17340265870032, 0
299, 0.37583760751957, -0.26336002160353, 0
300, 0.56321984084477, -0.19347117850188, 0
301, 0.22951153817056, -0.013522742651067, 0
302, 0.026207484441107, -0.13740950141153, 0
303, 0.077537234851219, 0.028838415152184, 0
304, 0.2944168196684, 0.18811230926364, 0
305, 0.61016945345067, 0.15789512624866, 0
306, 0.60059855554098, 0.18486932769301, 0
307, 0.67396562111411, 0.1615349054269, 0
308, 0.2599964802372, 0.098371458773318, 0
309, 0.23366519012827, 0.096767734800633, 0
310, 0.20663155766471, 0.039271302709106, 0
311, 0.77594062097316, 0.17818792207771, 0
312, 0.70807658100758, 0.19683123016564, 0
313, 0.75680330491223, 0.15873309995753, 0
314, 0.1545840296864, -0.020585401451509, 0
315, 0.078631427856519, -0.27298077789699, 0
316, 0.12934376000512, 0.11543965978536, 0
317, 0.80754695264686, 0.028875813963107, 0
318, 0.84058327620488, -0.0038748014662913, 0
319, 0.87079329507073, -0.03217463302785, 0
320, 0.78979867808472, -0.043075983414724, 0
321, 0.8356717081749, -0.14450687005391, 0
322, 0.80606231564308, -0.098622094781125, 0
323, 0.30628214145847, 0.26201141449236, 0
324, 0.49924838158615, -0.23163003769213, 0
325, 0.35082285842747, -0.26057609528483, 0
326, 0.26678395397662, 0.24167983124254, 0
327, 0.31177864544679, 0.21771712325575, 0
328, 0.7553603323658, 0.14080713634509, 0
329, 0.67691602729433, 0.12948215342954, 0
330, 0.73440925402278, 0.10410721072104, 0
331, 0.68505056240484, 0.19292373823337, 0
332, 0.70794442383, 0.14594157266678, 0
333, 0.18624216580954, -0.27351783815284, 0
334, 0.15466627206959, 0.0072464072542411, 0
335, 0.2336001813282, 0.12514021078533, 0
336, 0.67626680000977, -0.27146007554395, 0
337, 0.3538530184876, -0.2411052636371, 0
338, 0.87359851028567, -0.24259538371217, 0
339, 0.8962381546116, -0.2718005511674, 0
340, 0.84394933597062, -0.26953808448545, 0
341, 0.87023450802079, -0.2709172540808, 0
342, 0.94812830266616, -0.27266735820311, 0
343, 0.97454774542493, -0.24582844496866, 0
344, 0.97405833427446, -0.27291078380408, 0
345, 0.079108392660903, -0.2186616789986, 0
346, 0.13206744008254, -0.27301399488763, 0
347, 0.21350127904336, -0.27406011939358, 0
348, 0.15907220468483, -0.27318697249049, 0
349, 0.20770024767556, 0.27584706111191, 0
350, 0.1806404946019, 0.25116512968307, 0
351, 0.15671232070769, 0.27501032968281, 0
352, 0.18249599321883, 0.27554056445612, 0
353, 0.97389504487939, 0.13720085663829, 0
354, 0.97380187835967, 0.081282670875213, 0
355, 0.94767757205211, 0.11040819804698, 0
356, 0.97384257470031, 0.10930325975486, 0
357, 0.97500082193988, -0.083439545779717, 0
358, 0.94938112818704, -0.057006179078062, 0
359, 0.97437177338291, -0.029343557326134, 0
360, 0.97468782961469, -0.056457359525382, 0
361, 0.13200329029797, -0.1630598713296, 0
362, 0.1324166618616, -0.19098546953269, 0
363, 0.052576373556301, -0.16424286921719, 0
364, 0.051705437465767, 0.053947813902719, 0
365, 0.73821216453299, 0.27447873726412, 0
366, 0.71829873272962, 0.24840482254114, 0
367, 0.68608224823154, 0.27328441518251, 0
368, 0.71226900247545, 0.27397899885504, 0
369, 0.12986646984586, 0.24884023914686, 0
370, 0.10431880029298, 0.27402593854864, 0
371, 0.13058464407898, 0.27448052401355, 0
372, 0.22718264451949, 0.25269845271292, 0
373, 0.25591043079629, 0.27317547147432, 0
374, 0.23210735766849, 0.27538325375427, 0
375, 0.73095762636859, -0.27067328042941, 0
376, 0.75888669050946, -0.2372438202415, 0
377, 0.78847895439829, -0.26632243377535, 0
378, 0.75928207714622, -0.26870308033066, 0
379, 0.97391590515937, 0.19214001243249, 0
380, 0.94774738536884, 0.21979756443703, 0
381, 0.97378551292857, 0.24626053685365, 0
382, 0.97386418062788, 0.21926256938917, 0
383, 0.15481749667856, -0.048649518488035, 0
384, 0.1806865932386, 0.037082375845925, 0
385, 0.2048403616307, -0.016171591196851, 0
386, 0.051961265701766, 0.27343526660579, 0
387, 0.025955975488635, 0.24651546466396, 0
388, 0.025959209396577, 0.27334689851907, 0
389, 0.92384722894711, -0.24493230501855, 0
390, 0.9221792583292, -0.27233543452086, 0
391, 0.36885471000194, 0.26778699750916, 0
392, 0.28009241066218, 0.26840581824921, 0
393, 0.97528167556488, -0.19149817655852, 0
394, 0.95099684041017, -0.16469134580563, 0
395, 0.97541696738538, -0.1373246384015, 0
396, 0.97543189874144, -0.16438972251153, 0
397, 0.84156341623098, 0.2743916571623, 0
398, 0.81786714556149, 0.24932213554851, 0
399, 0.78971474009287, 0.27477018492095, 0
400, 0.81554521256726, 0.27463262465849, 0
401, 0.026273491690371, -0.16482200336211, 0
402, 0.10333403186547, 0.0033662851239089, 0
403, 0.10522152379121, -0.27295518041053, 0
404, 0.43201777368246, -0.25519258471318, 0
405, 0.394380509841, -0.19274773362937, 0
406, 0.34824201552662, -0.15581447096204, 0
407, 0.44037648166165, -0.24628411488779, 0
408, 0.3578450320646, -0.22182853130825, 0
409, 0.42651514306536, -0.18495949723493, 0
410, 0.40503378127784, -0.23311960996339, 0
411, 0.42118773523669, -0.28314592233554, 0
412, 0.89434928489463, 0.2738162246868, 0
413, 0.86911242011181, 0.2481786791183, 0
414, 0.86788236838607, 0.27410483060041, 0
415, 0.051765911825496, 0.16458790925382, 0
416, 0.025871580566575, 0.13466207561236, 0
417, 0.025904692368984, 0.19133530924069, 0
418, 0.02588447532279, 0.16305658487014, 0
419, 0.29506019262246, -0.27728297140759, 0
420, 0.26791945762507, -0.27595016596321, 0
421, 0.56505772545926, -0.23175589659257, 0
422, 0.94811627318476, -0.0018284393426928, 0
423, 0.9739085893153, 0.025535617400338, 0
424, 0.97409960251227, -0.0019972011415867, 0
425, 0.76787140498617, 0.24972578145721, 0
426, 0.76396126614678, 0.27473738698304, 0
427, 0.43258427314006, -0.22421902701956, 0
428, 0.33131089597846, -0.21559449185476, 0
429, 0.45208597331678, -0.19152327324236, 0
430, 0.32450288515184, -0.25760470137388, 0
431, 0.95061374277724, -0.11113453013188, 0
432, 0.97526004905216, -0.11039142868215, 0
433, 0.24194624716369, -0.24950379904534, 0
434, 0.24071118891443, -0.27486236606165, 0
435, 0.15488365938445, 0.034935833980059, 0
436, 0.10342020562583, -0.024168915140667, 0
437, 0.26066943752403, 0.070704077236229, 0
438, 0.025863085693937, 0.10653041076989, 0
439, 0.077547311326254, 0.056152590597551, 0
440, 0.15884147549634, -0.16302855890657, 0
441, 0.32754203448046, -0.23654868334928, 0
442, 0.67422696668454, -0.24363255917112, 0
443, 0.41119363551427, -0.21697957908335, 0
444, 0.41934632414543, -0.25267354112886, 0
445, 0.62312549434319, -0.26928081364024, 0
446, 0.51428215963514, -0.26760594294449, 0
447, 0.077943652336084, 0.24721388461887, 0
448, 0.078114768350568, 0.27367180443105, 0
449, 0.28603459392224, 0.099146286065279, 0
450, 0.051708772273696, 0.026839530307029, 0
451, 0.15946107840344, -0.24622249218811, 0
452, 0.82227563560548, -0.2353165044294, 0
453, 0.81687838111973, -0.26768488825232, 0
454, 0.94788621978946, 0.16563523154668, 0
455, 0.97392567548411, 0.16477259688231, 0
456, 0.15943967671117, -0.19123622246241, 0
457, 0.26993959556703, -0.062201808959167, 0
458, 0.61759081108194, -0.20610307603061, 0
459, 0.38795814432693, -0.21005111275797, 0
460, 0.94754596051279, 0.054272567966589, 0
461, 0.97381298171335, 0.053362661251655, 0
462, 0.70161416730274, -0.24421892531342, 0
463, 0.70338220536073, -0.27157102197225, 0
464, 0.38257822029073, -0.22760262506176, 0
465, 0.30319438794099, -0.20873496778631, 0
466, 0.66724890297846, 0.24542137791419, 0
467, 0.63290433290369, 0.27165970417562, 0
468, 0.65965612345245, 0.2724866352646, 0
469, 0.94737719963911, 0.27332843160802, 0
470, 0.97371192161442, 0.27314772115398, 0
471, 0.95004566669994, -0.2183658173827, 0
472, 0.97497387720061, -0.21864598688316, 0
473, 0.25774269752379, 0.016396983769007, 0
474, 0.051714220423186, 0.081267164519659, 0
475, 0.051736156110511, -0.00017197345344207, 0
476, 0.6128540451835, 0.24212083943958, 0
477, 0.57888919309643, 0.26985092148873, 0
478, 0.6060815988356, 0.27081321008595, 0
479, 0.27451275574286, -0.091973946558724, 0
480, 0.23141806018743, 0.014015019259313, 0
481, 0.47890160001276, -0.19442370633972, 0
482, 0.56993992896722, -0.2667558914347, 0
483, 0.92132031468367, 0.24706008192204, 0
484, 0.92087041377182, 0.27355301382903, 0
485, 0.2896067735836, 0.045124422352254, 0
486, 0.0262916105329, -0.21935067105679, 0
487, 0.47447403791533, 0.27811834848352, 0
488, 0.42299269844246, 0.27950998924034, 0
489, 0.44900730849497, 0.28053660469219, 0
490, 0.90091565884025, -0.21713999198522, 0
491, 0.85382005836855, -0.2130012013538, 0
492, 0.87942822090117, -0.19028964950724, 0
493, 0.87700192342645, -0.21568979492432, 0
494, 0.051863726516154, 0.21966607067608, 0
495, 0.025930910255252, 0.2190980957817, 0
496, 0.7751670725915, -0.077443528076346, 0
497, 0.83271552678648, -0.12010655225083, 0
498, 0.89878739314285, -0.05893810979888, 0
499, 0.86847731883116, -0.0026926978319992, 0
500, 0.8969929480486, -0.030840003188463, 0
501, 0.87351431926118, -0.060650227017554, 0
502, 0.87826501151447, -0.11470385503082, 0
503, 0.85208411144835, -0.090655457420106, 0
504, 0.84466682759959, 0.22318283851447, 0
505, 0.82096416877962, 0.19905726591139, 0
506, 0.79530416669525, 0.22486263398728, 0
507, 0.81973354405517, 0.22412741732815, 0
508, 0.28631219457271, 0.15678631160665, 0
509, 0.10363974138234, -0.051826287224238, 0
510, 0.28600152047504, 0.018474056970761, 0
511, 0.20737495863152, 0.09468686708625, 0
512, 0.72710784931754, -0.21694833517137, 0
513, 0.30711978863044, -0.18553807753901, 0
514, 0.69928279812677, -0.21901087719864, 0
515, 0.25099586674098, -0.038139958052977, 0
516, 0.10497575162348, -0.13545684799206, 0
517, 0.12911465616482, 0.032855060539599, 0
518, 0.21177031729135, -0.13408837842201, 0
519, 0.29175248738465, -0.12233540309443, 0
520, 0.025854896071947, 0.051586836658804, 0
521, 0.6496149136661, -0.27059580642571, 0
522, 0.92122807124748, 0.083629760768662, 0
523, 0.89535952991502, 0.11339818770036, 0
524, 0.92178247549471, 0.13942228094847, 0
525, 0.92150767387684, 0.1117255237132, 0
526, 0.56980504361049, 0.18277394400185, 0
527, 0.55290152356731, 0.23676341389626, 0
528, 0.59163156510947, 0.21217242121849, 0
529, 0.56073609063422, 0.20927668455669, 0
530, 0.18024509011353, 0.20150286941928, 0
531, 0.15493993290898, 0.22462039219342, 0
532, 0.20372058560025, 0.22921780927108, 0
533, 0.17989229341556, 0.22668213929494, 0
534, 0.10572757982573, -0.21853176932783, 0
535, 0.1293052869538, 0.087942164455171, 0
536, 0.15655776723563, -0.10563776713228, 0
537, 0.078679841692614, -0.13608503352174, 0
538, 0.92615517064579, -0.11200091160045, 0
539, 0.92132832652528, 0.026636514741429, 0
540, 0.92521608752572, -0.085097304253623, 0
541, 0.20573964644581, 0.011636600337207, 0
542, 0.21481745423119, -0.22116409305034, 0
543, 0.07836662345691, -0.10839613231293, 0
544, 0.20543862911151, -0.07333828966129, 0
545, 0.92637125924177, -0.19132887870407, 0
546, 0.90316717036095, -0.16520877467031, 0
547, 0.92674220429562, -0.13857675818407, 0
548, 0.92684736006717, -0.16496294090904, 0
549, 0.18117374415533, 0.14783591978177, 0
550, 0.15508592807461, 0.17227709639098, 0
551, 0.20688624170475, 0.17896389598621, 0
552, 0.18087717460096, 0.1751481811518, 0
553, 0.92190268621932, 0.19371783409493, 0
554, 0.89614814742144, 0.16809578804333, 0
555, 0.92193344910809, 0.16672892024025, 0
556, 0.24383452516549, -0.19641643084538, 0
557, 0.27164684832827, -0.22712862555389, 0
558, 0.24307599168172, -0.22354481119909, 0
559, 0.12929726439566, 0.19668111217945, 0
560, 0.10367502584325, 0.221600838701, 0
561, 0.12944098176965, 0.22295404193993, 0
562, 0.05206409615517, -0.081767692237837, 0
563, 0.051800930375041, -0.027217838356581, 0
564, 0.89439590038312, 0.056321165010928, 0
565, 0.92111249424655, 0.05521103165007, 0
566, 0.20452531252217, -0.044403730781454, 0
567, 0.078959927982589, -0.2458879777645, 0
568, 0.12903312270211, 0.0052544827175258, 0
569, 0.15526717012848, 0.11773077296578, 0
570, 0.20739141573121, 0.12269467443018, 0
571, 0.052428799957476, -0.13674330536456, 0
572, 0.18104872294367, 0.064743381563728, 0
573, 0.85830469304466, -0.16593919627135, 0
574, 0.87970049134595, -0.14043303159401, 0
575, 0.8802095622505, -0.16549130377654, 0
576, 0.77894265076766, -0.19439561061769, 0
577, 0.75442696490982, -0.20920992670679, 0
578, 0.22898339723126, -0.07062966187674, 0
579, 0.68838742173318, 0.070884747617147, 0
580, 0.6786624683799, 0.038324904333247, 0
581, 0.396405162674, 0.27527324589979, 0
582, 0.7519397162144, 0.20116327725905, 0
583, 0.74778154173209, 0.22476930935121, 0
584, 0.77136393721392, 0.22515944004774, 0
585, 0.90199502374584, -0.11313197792224, 0
586, 0.5230352675298, 0.2683387827595, 0
587, 0.49855122407909, 0.27319499624305, 0
588, 0.55118577294939, 0.2687569355237, 0
589, 0.62025518644111, -0.23815066142706, 0
590, 0.31218803255959, -0.16261063418436, 0
591, 0.41858520832076, -0.200812854936, 0
592, 0.57931597376812, 0.15643400370796, 0
593, 0.20795907596723, -0.1032198077215, 0
594, 0.15509351729804, 0.062560439988319, 0
595, 0.86816421384456, 0.087265621350222, 0
596, 0.84354806207424, 0.11864897794695, 0
597, 0.87021428559229, 0.14303256843971, 0
598, 0.86931156615421, 0.11562057010445, 0
599, 0.79365046684791, -0.15532324268857, 0
600, 0.85511712646919, -0.11693943271862, 0
601, 0.79877306093878, -0.071538624439388, 0
602, 0.90054416064251, -0.086355397493116, 0
603, 0.92531762067998, -0.21792776565417, 0
604, 0.22928679881902, 0.21096511912588, 0
605, 0.2251126706979, 0.2321557657125, 0
606, 0.53505193379857, -0.19141496136827, 0
607, 0.37850600311852, -0.24536074097971, 0
608, 0.10558284886047, -0.24582410025321, 0
609, 0.18241870501815, -0.10455539840562, 0
610, 0.12983617724878, -0.078387410749369, 0
611, 0.13254627787365, -0.21859797138506, 0
612, 0.17986173589383, -0.018511066691895, 0
613, 0.37546309213439, -0.16585766412744, 0
614, 0.46379572100936, -0.27787344022085, 0
615, 0.50689464992093, -0.19390388724572, 0
616, 0.18686862792092, -0.19196894253117, 0
617, 0.10338254263991, 0.058284318501583, 0
618, 0.24751590835739, 0.25055466703455, 0
619, 0.69596784133557, 0.16825839959027, 0
620, 0.71613488746326, 0.17388780639979, 0
621, 0.077611026919743, 0.13869489962437, 0
622, 0.23274788108395, -0.10129992020947, 0
623, 0.15781644290735, -0.1344111264455, 0
624, 0.69163147598343, 0.13747522677144, 0
625, 0.74276423495353, 0.14548977617723, 0
626, 0.81906392658802, -0.16964213449301, 0
627, 0.81263163688594, -0.1979565473797, 0
628, 0.80082749841504, -0.17887478168386, 0
629, 0.8957527828906, 0.22127529485611, 0
630, 0.92168622139271, 0.22046881947167, 0
631, 0.87058374852794, 0.19610108437167, 0
632, 0.8700425602853, 0.22219743888996, 0
633, 0.077690933388676, 0.19350546810552, 0
634, 0.077790999038462, 0.22050898842208, 0
635, 0.077647122994395, -0.025755697642359, 0
636, 0.13133934077952, -0.1348859601192, 0
637, 0.12908449469161, -0.022455972402, 0
638, 0.026123862450172, -0.11001417456754, 0
639, 0.8456354222241, 0.17177429371437, 0
640, 0.87065511729288, 0.1697743475773, 0
641, 0.79717445289752, 0.20040125690796, 0
642, 0.70037412231806, 0.22144078664264, 0
643, 0.72426573309841, 0.22351860158866, 0
644, 0.78168618528716, 0.071971379512968, 0
645, 0.75595701970347, 0.086737562744677, 0
646, 0.12933670821214, 0.14282054190141, 0
647, 0.10348682739343, 0.16796492619762, 0
648, 0.12930374761315, 0.16994985666531, 0
649, 0.077637345179609, 0.16620304556034, 0
650, 0.10400136896177, -0.079619627348722, 0
651, 0.23363728286475, 0.068954525464009, 0
652, 0.025857396710149, 0.078673083804759, 0
653, 0.077591676308384, 0.11111271333186, 0
654, 0.18451984638433, -0.13409776201514, 0
655, 0.25960183385836, 0.12698028729146, 0
656, 0.45259703834214, -0.23362559775054, 0
657, 0.3485424169573, -0.28020946017644, 0
658, 0.29736727008421, -0.25459197954713, 0
659, 0.67177097074352, -0.21709283694632, 0
660, 0.40154731559678, -0.17580424547309, 0
661, 0.30002124609661, -0.23177467542838, 0
662, 0.025911011770608, -0.028510230516411, 0
663, 0.21409792592407, -0.16451350030139, 0
664, 0.18701248136127, -0.21973045574475, 0
665, 0.17994863926523, -0.046713900122615, 0
666, 0.051911398998689, -0.054422264456574, 0
667, 0.39856244956666, -0.28272284405325, 0
668, 0.46723319078873, -0.21679026907561, 0
669, 0.44229835077069, -0.28184637140865, 0
670, 0.5425819981525, -0.26645011642422, 0
671, 0.10345998297181, 0.11325605555203, 0
672, 0.15522612827853, 0.090162964616597, 0
673, 0.86716353103321, 0.027560189553811, 0
674, 0.8393837567586, 0.060133077219975, 0
675, 0.86722898100992, 0.057824778565868, 0
676, 0.83820236635967, -0.18716509294705, 0
677, 0.83784578378427, -0.16693941926953, 0
678, 0.77596418698984, 0.15605516235176, 0
679, 0.77419068335555, 0.20124799147787, 0
680, 0.64931942185022, 0.21619268472016, 0
681, 0.67557377219196, 0.21884568074575, 0
682, 0.78491477498291, -0.10396633039596, 0
683, 0.77999321636061, -0.011633179440262, 0
684, 0.10333886798467, 0.030831198808808, 0
685, 0.052246645457409, -0.10923068088098, 0
686, 0.27920354495744, -0.0074642702677642, 0
687, 0.47232273392076, -0.24905284247164, 0
688, 0.37432632003873, -0.28159907774903, 0
689, 0.39881181094651, -0.2657519738257, 0
690, 0.76267086748037, -0.051016598728813, 0
691, 0.82862135975699, -0.094118653435875, 0
692, 0.9219566423963, -0.0018464886731754, 0
693, 0.92292908301058, -0.030027417497836, 0
694, 0.84421520320335, -0.034315948233453, 0
695, 0.6212674625702, 0.21397592882605, 0
696, 0.81495659429885, 0.095035158727272, 0
697, 0.8106648567557, 0.064138533419495, 0
698, 0.2558035762215, -0.098118127177383, 0
699, 0.026306113975468, -0.19217530288605, 0
700, 0.23382977650656, 0.15439201966802, 0
701, 0.02585967608136, 0.024794885276111, 0
702, 0.077561518123686, 0.0015630561008446, 0
703, 0.26019156932319, 0.043441361980022, 0
704, 0.15961648091002, -0.21894885021042, 0
705, 0.44225196370744, -0.20839038315078, 0
706, 0.82056823927289, 0.14877864807193, 0
707, 0.81844954799991, 0.12277085898064, 0
708, 0.05265672213073, -0.19166178429784, 0
709, 0.74723920797954, 0.12393716070292, 0
710, 0.8213299669854, 0.1740262066298, 0
711, 0.71949161796118, 0.1253824606753, 0
712, 0.72428405423619, 0.1536235414396, 0
713, 0.79801610549648, 0.17631112256734, 0
714, 0.052509886037747, -0.24607759542784, 0
715, 0.24357432556127, -0.16718407331615, 0
716, 0.23392399345443, 0.18472745525013, 0
717, 0.83186549290691, -0.20790846344204, 0
718, 0.077814106144052, -0.053187849708261, 0
719, 0.32004942822268, -0.14319361839359, 0
720, 0.81125476525638, -0.0062719709113661, 0
721, 0.64678808167236, 0.15355162730632, 0
722, 0.72653215096353, 0.029656530822545, 0
723, 0.48757684793736, -0.2725294175821, 0
724, 0.13055039175972, -0.1066075462022, 0
725, 0.24121025843903, 0.23484472430828, 0
726, 0.077569858656508, 0.08357021963637, 0
727, 0.73010447001093, 0.19973408212343, 0
728, 0.18123361427468, 0.092430870905209, 0
729, 0.89548327025558, -0.0020990938823395, 0
730, 0.92408023614508, -0.057785554785758, 0
731, 0.64718988782185, -0.2413857198679, 0
732, 0.26567387922065, 0.1962545420346, 0
733, 0.78946436992997, 0.10220658772173, 0
734, 0.75519501981251, 0.17896499673785, 0
735, 0.18127044081381, 0.12016103230661, 0
736, 0.32198156730176, -0.27873787507395, 0
737, 0.052215475162988, -0.27307511843383, 0
738, 0.026063260396362, -0.27323355295189, 0
739, 0.8112332450917, -0.12446832911922, 0
740, 0.79091450562771, -0.13012466030025, 0
741, 0.24061864241729, -0.13480736377433, 0
742, 0.27536417526986, -0.13804624000886, 0
******* E L E M E N T S *************
*ELEMENT, type=T3D2, ELSET=Line1
1, 1, 10
2, 10, 18
3, 18, 11
4, 11, 19
5, 19, 12
6, 12, 20
7, 20, 13
8, 13, 21
9, 21, 14
10, 14, 22
11, 22, 15
12, 15, 23
13, 23, 16
14, 16, 24
15, 24, 17
16, 17, 2
*ELEMENT, type=T3D2, ELSET=Line2
17, 2, 25
18, 25, 28
19, 28, 26
20, 26, 29
21, 29, 27
22, 27, 3
*ELEMENT, type=T3D2, ELSET=Line3
23, 3, 30
24, 30, 38
25, 38, 31
26, 31, 39
27, 39, 32
28, 32, 40
29, 40, 33
30, 33, 41
31, 41, 34
32, 34, 42
33, 42, 35
34, 35, 43
35, 43, 36
36, 36, 44
37, 44, 37
38, 37, 4
*ELEMENT, type=T3D2, ELSET=Line4
39, 4, 45
40, 45, 56
41, 56, 46
42, 46, 57
43, 57, 47
44, 47, 58
45, 58, 48
46, 48, 59
47, 59, 49
48, 49, 60
49, 60, 50
50, 50, 61
51, 61, 51
52, 51, 62
53, 62, 52
54, 52, 63
55, 63, 53
56, 53, 64
57, 64, 54
58, 54, 65
59, 65, 55
60, 55, 5
*ELEMENT, type=T3D2, ELSET=Line5
61, 5, 66
62, 66, 74
63, 74, 67
64, 67, 75
65, 75, 68
66, 68, 76
67, 76, 69
68, 69, 77
69, 77, 70
70, 70, 78
71, 78, 71
72, 71, 79
73, 79, 72
74, 72, 80
75, 80, 73
76, 73, 6
*ELEMENT, type=T3D2, ELSET=Line6
77, 6, 81
78, 81, 84
79, 84, 82
80, 82, 85
81, 85, 83
82, 83, 7
*ELEMENT, type=T3D2, ELSET=Line7
83, 7, 86
84, 86, 94
85, 94, 87
86, 87, 95
87, 95, 88
88, 88, 96
89, 96, 89
90, 89, 97
91, 97, 90
92, 90, 98
93, 98, 91
94, 91, 99
95, 99, 92
96, 92, 100
97, 100, 93
98, 93, 8
*ELEMENT, type=T3D2, ELSET=Line8
99, 8, 101
100, 101, 112
101, 112, 102
102, 102, 113
103, 113, 103
104, 103, 114
105, 114, 104
106, 104, 115
107, 115, 105
108, 105, 116
109, 116, 106
110, 106, 117
111, 117, 107
112, 107, 118
113, 118, 108
114, 108, 119
115, 119, 109
116, 109, 120
117, 120, 110
118, 110, 121
119, 121, 111
120, 111, 1
*ELEMENT, type=T3D2, ELSET=Line9
121, 9, 122
122, 122, 151
123, 151, 149
124, 149, 152
125, 152, 148
126, 148, 153
127, 153, 147
128, 147, 154
129, 154, 146
130, 146, 155
131, 155, 145
132, 145, 156
133, 156, 144
134, 144, 157
135, 157, 143
136, 143, 158
137, 158, 142
138, 142, 159
139, 159, 141
140, 141, 160
141, 160, 140
142, 140, 161
143, 161, 139
144, 139, 162
145, 162, 138
146, 138, 163
147, 163, 137
148, 137, 164
149, 164, 136
150, 136, 165
151, 165, 135
152, 135, 166
153, 166, 134
154, 134, 167
155, 167, 133
156, 133, 168
157, 168, 132
158, 132, 169
159, 169, 131
160, 131, 170
161, 170, 130
162, 130, 171
163, 171, 129
164, 129, 172
165, 172, 128
166, 128, 173
167, 173, 127
168, 127, 174
169, 174, 126
170, 126, 175
171, 175, 125
172, 125, 176
173, 176, 124
174, 124, 177
175, 177, 123
176, 123, 178
177, 178, 150
178, 150, 9
*ELEMENT, type=CPS4, ELSET=Surface1
179, 291, 340, 341, 338
180, 338, 341, 339, 292
181, 341, 35, 43, 339
182, 340, 42, 35, 341
183, 44, 37, 344, 342
184, 342, 344, 343, 294
185, 344, 45, 56, 343
186, 37, 4, 45, 344
187, 12, 20, 348, 346
188, 11, 19, 403, 315
189, 314, 334, 568, 637
190, 685, 562, 235, 638
191, 98, 351, 352, 90
192, 90, 352, 349, 97
193, 352, 350, 204, 349
194, 351, 201, 350, 352
195, 244, 355, 356, 353
196, 353, 356, 52, 63
197, 356, 354, 62, 52
198, 355, 269, 354, 356
199, 60, 359, 360, 49
200, 49, 360, 357, 59
201, 360, 358, 272, 357
202, 359, 274, 358, 360
203, 623, 536, 724, 636
204, 568, 517, 684, 402
205, 686, 164, 137, 510
206, 671, 194, 621, 653
207, 79, 367, 368, 71
208, 71, 368, 365, 78
209, 368, 366, 253, 365
210, 367, 254, 366, 368
211, 98, 91, 371, 351
212, 351, 371, 369, 201
213, 371, 370, 202, 369
214, 91, 99, 370, 371
215, 732, 304, 327, 193
216, 372, 374, 349, 204
217, 374, 89, 97, 349
218, 373, 96, 89, 374
219, 41, 377, 378, 33
220, 33, 378, 375, 40
221, 378, 376, 287, 375
222, 377, 288, 376, 378
223, 64, 54, 382, 379
224, 379, 382, 380, 247
225, 382, 381, 248, 380
226, 54, 65, 381, 382
227, 303, 439, 364, 450
228, 537, 543, 685, 571
229, 219, 714, 227, 486
230, 519, 166, 135, 479
231, 100, 93, 388, 386
232, 386, 388, 387, 200
233, 388, 101, 112, 387
234, 93, 8, 101, 388
235, 43, 36, 390, 339
236, 339, 390, 389, 292
237, 390, 342, 294, 389
238, 36, 44, 342, 390
239, 207, 141, 159, 391
240, 392, 88, 96, 373
241, 304, 508, 161, 140
242, 57, 47, 396, 393
243, 393, 396, 394, 293
244, 396, 395, 283, 394
245, 47, 58, 395, 396
246, 76, 69, 400, 397
247, 397, 400, 398, 250
248, 400, 399, 252, 398
249, 69, 77, 399, 400
250, 572, 728, 672, 594
251, 346, 348, 451, 216
252, 535, 316, 671, 210
253, 650, 509, 718, 213
254, 667, 689, 299, 688
255, 656, 427, 237, 407
256, 133, 167, 406, 613
257, 613, 406, 236, 187
258, 591, 405, 459, 443
259, 279, 589, 458, 189
260, 24, 688, 657, 16
261, 167, 134, 719, 406
262, 75, 68, 414, 412
263, 412, 414, 413, 249
264, 414, 397, 250, 413
265, 68, 76, 397, 414
266, 199, 417, 418, 415
267, 415, 418, 416, 196
268, 418, 103, 114, 416
269, 417, 113, 103, 418
270, 325, 337, 441, 430
271, 731, 442, 659, 239
272, 280, 421, 300, 606
273, 688, 299, 325, 657
274, 274, 359, 424, 422
275, 422, 424, 423, 271
276, 424, 50, 61, 423
277, 359, 60, 50, 424
278, 78, 365, 426, 70
279, 70, 426, 399, 77
280, 426, 425, 252, 399
281, 365, 253, 425, 426
282, 405, 187, 186, 459
283, 589, 731, 239, 458
284, 657, 325, 430, 736
285, 272, 431, 432, 357
286, 357, 432, 48, 59
287, 432, 395, 58, 48
288, 431, 283, 395, 432
289, 21, 14, 434, 347
290, 347, 434, 433, 183
291, 434, 420, 184, 433
292, 14, 22, 420, 434
293, 517, 232, 617, 684
294, 216, 451, 704, 611
295, 309, 335, 570, 511
296, 362, 456, 440, 361
297, 612, 217, 334, 314
298, 742, 519, 479, 698
299, 672, 569, 316, 535
300, 212, 136, 164, 686
301, 705, 591, 443, 427
302, 428, 465, 661, 441
303, 427, 443, 410, 237
304, 521, 31, 39, 336
305, 442, 336, 463, 462
306, 445, 38, 31, 521
307, 185, 513, 465, 428
308, 279, 190, 445, 589
309, 99, 92, 448, 370
310, 370, 448, 447, 202
311, 448, 386, 200, 447
312, 92, 100, 386, 448
313, 728, 735, 569, 672
314, 449, 162, 139, 231
315, 638, 235, 118, 108
316, 635, 702, 475, 563
317, 41, 34, 453, 377
318, 377, 453, 452, 288
319, 453, 340, 291, 452
320, 34, 42, 340, 453
321, 63, 53, 455, 353
322, 353, 455, 454, 244
323, 455, 379, 247, 454
324, 53, 64, 379, 455
325, 516, 215, 543, 537
326, 571, 302, 401, 363
327, 210, 671, 653, 726
328, 236, 590, 513, 185
329, 421, 279, 189, 300
330, 411, 191, 689, 667
331, 614, 669, 25, 28
332, 191, 444, 238, 689
333, 271, 423, 461, 460
334, 460, 461, 354, 269
335, 461, 51, 62, 354
336, 423, 61, 51, 461
337, 324, 668, 656, 687
338, 462, 463, 375, 287
339, 463, 32, 40, 375
340, 615, 170, 131, 481
341, 429, 409, 591, 705
342, 669, 179, 191, 411
343, 134, 166, 519, 719
344, 731, 521, 336, 442
345, 79, 72, 468, 367
346, 367, 468, 466, 254
347, 468, 467, 257, 466
348, 72, 80, 467, 468
349, 65, 55, 470, 381
350, 381, 470, 469, 248
351, 470, 66, 74, 469
352, 55, 5, 66, 470
353, 294, 343, 472, 471
354, 471, 472, 393, 293
355, 472, 46, 57, 393
356, 343, 56, 46, 472
357, 403, 346, 216, 608
358, 110, 486, 699, 120
359, 708, 223, 225, 363
360, 230, 665, 383, 224
361, 80, 73, 478, 467
362, 467, 478, 476, 257
363, 478, 477, 188, 476
364, 73, 6, 477, 478
365, 609, 230, 224, 536
366, 703, 437, 651, 228
367, 211, 637, 436, 509
368, 724, 610, 650, 215
369, 281, 407, 404, 179
370, 336, 39, 32, 463
371, 25, 669, 411, 2
372, 168, 133, 613, 660
373, 248, 469, 484, 483
374, 483, 484, 412, 249
375, 484, 67, 75, 412
376, 469, 74, 67, 484
377, 450, 364, 520, 701
378, 662, 181, 106, 117
379, 302, 119, 109, 401
380, 451, 180, 664, 704
381, 7, 488, 489, 83
382, 83, 489, 487, 85
383, 489, 143, 157, 487
384, 488, 158, 143, 489
385, 289, 492, 493, 490
386, 490, 493, 338, 292
387, 493, 491, 291, 338
388, 492, 290, 491, 493
389, 200, 387, 495, 494
390, 494, 495, 417, 199
391, 495, 102, 113, 417
392, 387, 112, 102, 495
393, 496, 601, 320, 690
394, 284, 574, 502, 600
395, 585, 538, 540, 602
396, 501, 498, 500, 319
397, 278, 602, 498, 501
398, 123, 273, 297, 178
399, 125, 740, 682, 176
400, 275, 276, 694, 277
401, 250, 398, 507, 504
402, 504, 507, 505, 246
403, 706, 263, 251, 707
404, 398, 252, 506, 507
405, 732, 716, 700, 205
406, 391, 581, 86, 94
407, 207, 87, 95, 323
408, 327, 160, 141, 207
409, 562, 666, 233, 235
410, 510, 137, 163, 485
411, 578, 182, 566, 544
412, 474, 218, 438, 652
413, 174, 127, 514, 512
414, 512, 514, 462, 287
415, 459, 186, 408, 464
416, 446, 723, 26, 29
417, 485, 163, 138, 226
418, 439, 726, 474, 364
419, 511, 570, 735, 728
420, 235, 233, 107, 118
421, 301, 480, 541, 385
422, 569, 195, 646, 316
423, 702, 303, 450, 475
424, 742, 741, 715, 298
425, 421, 482, 190, 279
426, 513, 298, 220, 465
427, 222, 686, 510, 473
428, 244, 524, 525, 355
429, 355, 525, 522, 269
430, 525, 523, 268, 522
431, 524, 243, 523, 525
432, 526, 529, 145, 155
433, 529, 527, 156, 145
434, 528, 188, 527, 529
435, 203, 532, 533, 530
436, 530, 533, 531, 197
437, 533, 350, 201, 531
438, 532, 204, 350, 533
439, 520, 652, 115, 105
440, 373, 374, 372, 618
441, 209, 457, 212, 515
442, 571, 685, 638, 302
443, 538, 431, 272, 540
444, 176, 682, 496, 124
445, 683, 720, 317, 267
446, 690, 320, 683, 273
447, 13, 21, 347, 333
448, 616, 221, 663, 208
449, 384, 572, 594, 435
450, 594, 672, 535, 232
451, 283, 547, 548, 394
452, 394, 548, 545, 293
453, 548, 546, 289, 545
454, 547, 282, 546, 548
455, 192, 551, 552, 549
456, 549, 552, 550, 195
457, 552, 530, 197, 550
458, 551, 203, 530, 552
459, 245, 554, 555, 553
460, 553, 555, 454, 247
461, 555, 524, 244, 454
462, 554, 243, 524, 555
463, 221, 542, 558, 556
464, 556, 558, 557, 220
465, 558, 433, 184, 557
466, 542, 183, 433, 558
467, 197, 531, 561, 559
468, 559, 561, 560, 198
469, 561, 369, 202, 560
470, 531, 201, 369, 561
471, 563, 475, 181, 662
472, 215, 650, 213, 543
473, 543, 213, 562, 685
474, 209, 515, 182, 578
475, 270, 539, 565, 564
476, 564, 565, 522, 268
477, 565, 460, 269, 522
478, 539, 271, 460, 565
479, 180, 183, 542, 664
480, 593, 544, 230, 609
481, 457, 165, 136, 212
482, 402, 684, 303, 702
483, 229, 362, 361, 214
484, 699, 708, 363, 401
485, 223, 229, 214, 225
486, 19, 12, 346, 403
487, 282, 574, 575, 546
488, 546, 575, 492, 289
489, 575, 573, 290, 492
490, 574, 284, 573, 575
491, 288, 576, 577, 376
492, 376, 577, 512, 287
493, 577, 126, 174, 512
494, 576, 175, 126, 577
495, 623, 636, 361, 440
496, 617, 210, 726, 439
497, 737, 315, 567, 714
498, 227, 345, 223, 708
499, 9, 150, 580, 122
500, 122, 580, 579, 151
501, 580, 295, 261, 579
502, 150, 178, 295, 580
503, 158, 488, 581, 142
504, 326, 392, 373, 618
505, 488, 7, 86, 581
506, 253, 583, 584, 425
507, 425, 584, 506, 252
508, 733, 241, 645, 644
509, 328, 625, 265, 709
510, 503, 278, 501, 276
511, 739, 497, 691, 322
512, 601, 275, 277, 320
513, 124, 496, 690, 177
514, 157, 144, 587, 487
515, 487, 587, 82, 85
516, 587, 586, 84, 82
517, 144, 156, 586, 587
518, 84, 586, 588, 81
519, 81, 588, 477, 6
520, 588, 527, 188, 477
521, 586, 156, 527, 588
522, 615, 606, 130, 170
523, 419, 658, 184, 420
524, 719, 519, 742, 590
525, 668, 705, 427, 656
526, 154, 147, 592, 146
527, 146, 592, 526, 155
528, 721, 148, 152, 329
529, 255, 258, 680, 695
530, 718, 635, 563, 666
531, 536, 224, 610, 724
532, 222, 473, 480, 301
533, 406, 719, 590, 236
534, 243, 597, 598, 523
535, 523, 598, 595, 268
536, 598, 596, 264, 595
537, 597, 242, 596, 598
538, 277, 694, 318, 720
539, 273, 683, 267, 297
540, 502, 585, 602, 278
541, 320, 277, 720, 683
542, 574, 282, 585, 502
543, 691, 503, 276, 275
544, 740, 739, 322, 682
545, 321, 284, 600, 497
546, 292, 389, 603, 490
547, 490, 603, 545, 289
548, 603, 471, 293, 545
549, 389, 294, 471, 603
550, 508, 231, 139, 161
551, 604, 605, 532, 203
552, 605, 372, 204, 532
553, 732, 205, 508, 304
554, 280, 670, 482, 421
555, 443, 459, 464, 410
556, 324, 446, 670, 280
557, 458, 239, 128, 172
558, 518, 593, 609, 654
559, 315, 403, 608, 567
560, 622, 578, 544, 593
561, 653, 621, 196, 218
562, 23, 736, 419, 15
563, 299, 607, 337, 325
564, 324, 687, 723, 446
565, 186, 185, 428, 408
566, 187, 236, 185, 186
567, 179, 404, 444, 191
568, 190, 30, 38, 445
569, 590, 742, 298, 513
570, 698, 479, 457, 209
571, 704, 664, 616, 456
572, 234, 511, 728, 572
573, 302, 638, 108, 119
574, 205, 655, 231, 508
575, 193, 323, 392, 326
576, 193, 327, 207, 323
577, 506, 584, 679, 641
578, 258, 331, 681, 680
579, 259, 329, 152, 149
580, 255, 695, 528, 306
581, 438, 416, 114, 104
582, 636, 516, 214, 361
583, 567, 608, 534, 345
584, 228, 651, 234, 310
585, 710, 713, 263, 706
586, 331, 312, 642, 681
587, 712, 240, 260, 620
588, 175, 576, 628, 599
589, 599, 628, 626, 285
590, 628, 627, 286, 626
591, 576, 288, 627, 628
592, 247, 380, 630, 553
593, 553, 630, 629, 245
594, 630, 483, 249, 629
595, 380, 248, 483, 630
596, 245, 629, 632, 631
597, 631, 632, 504, 246
598, 632, 413, 250, 504
599, 629, 249, 413, 632
600, 202, 447, 634, 560
601, 560, 634, 633, 198
602, 634, 494, 199, 633
603, 447, 200, 494, 634
604, 436, 402, 702, 635
605, 181, 701, 116, 106
606, 308, 449, 231, 655
607, 664, 542, 221, 616
608, 611, 704, 456, 362
609, 456, 616, 208, 440
610, 310, 234, 572, 384
611, 348, 333, 180, 451
612, 246, 639, 640, 631
613, 631, 640, 554, 245
614, 640, 597, 243, 554
615, 639, 242, 597, 640
616, 254, 642, 643, 366
617, 366, 643, 583, 253
618, 505, 641, 713, 710
619, 696, 733, 644, 697
620, 261, 296, 645, 330
621, 583, 643, 727, 582
622, 256, 328, 709, 241
623, 296, 267, 644, 645
624, 197, 559, 648, 550
625, 550, 648, 646, 195
626, 648, 647, 194, 646
627, 559, 198, 647, 648
628, 196, 621, 649, 415
629, 415, 649, 633, 199
630, 649, 647, 198, 633
631, 621, 194, 647, 649
632, 570, 192, 549, 735
633, 473, 703, 228, 480
634, 333, 347, 183, 180
635, 335, 700, 192, 570
636, 18, 11, 315, 737
637, 515, 212, 686, 222
638, 121, 219, 486, 110
639, 17, 667, 688, 24
640, 430, 441, 661, 658
641, 409, 660, 405, 591
642, 169, 132, 409, 429
643, 723, 614, 28, 26
644, 687, 281, 614, 723
645, 131, 169, 429, 481
646, 481, 429, 705, 668
647, 689, 238, 607, 299
648, 654, 623, 440, 208
649, 120, 699, 401, 109
650, 213, 718, 666, 562
651, 654, 609, 536, 623
652, 714, 567, 345, 227
653, 111, 738, 219, 121
654, 480, 228, 310, 541
655, 738, 737, 714, 219
656, 189, 458, 172, 129
657, 687, 656, 407, 281
658, 670, 27, 3, 482
659, 237, 410, 238, 444
660, 281, 179, 669, 614
661, 324, 280, 606, 615
662, 482, 3, 30, 190
663, 741, 622, 593, 518
664, 217, 384, 435, 334
665, 544, 566, 665, 230
666, 534, 611, 362, 229
667, 264, 674, 675, 595
668, 595, 675, 564, 268
669, 675, 673, 270, 564
670, 674, 266, 673, 675
671, 290, 573, 677, 676
672, 676, 677, 626, 286
673, 677, 321, 285, 626
674, 573, 284, 321, 677
675, 709, 265, 711, 330
676, 263, 678, 256, 251
677, 307, 624, 332, 619
678, 251, 256, 241, 733
679, 257, 680, 681, 466
680, 466, 681, 642, 254
681, 332, 712, 620, 619
682, 721, 255, 306, 305
683, 720, 318, 266, 317
684, 500, 693, 692, 729
685, 498, 730, 693, 500
686, 547, 283, 431, 538
687, 518, 654, 208, 663
688, 684, 617, 439, 303
689, 437, 226, 449, 308
690, 479, 135, 165, 457
691, 660, 613, 187, 405
692, 589, 445, 521, 731
693, 300, 189, 129, 171
694, 446, 29, 27, 670
695, 324, 615, 481, 668
696, 2, 411, 667, 17
697, 410, 464, 607, 238
698, 319, 500, 729, 499
699, 692, 422, 271, 539
700, 694, 319, 499, 318
701, 177, 690, 273, 123
702, 282, 547, 538, 585
703, 540, 272, 358, 730
704, 730, 358, 274, 693
705, 693, 274, 422, 692
706, 257, 476, 695, 680
707, 305, 592, 147, 153
708, 721, 329, 624, 307
709, 476, 188, 528, 695
710, 267, 317, 697, 644
711, 711, 265, 712, 332
712, 697, 674, 264, 696
713, 317, 266, 674, 697
714, 608, 216, 611, 534
715, 435, 594, 232, 517
716, 206, 725, 605, 604
717, 651, 309, 511, 234
718, 316, 646, 194, 671
719, 666, 563, 662, 233
720, 735, 549, 195, 569
721, 741, 518, 663, 715
722, 637, 568, 402, 436
723, 308, 655, 335, 309
724, 486, 227, 708, 699
725, 726, 653, 218, 474
726, 407, 237, 444, 404
727, 659, 514, 127, 173
728, 465, 220, 557, 661
729, 658, 661, 557, 184
730, 242, 706, 707, 596
731, 596, 707, 696, 264
732, 584, 583, 582, 679
733, 679, 582, 734, 311
734, 233, 662, 117, 107
735, 224, 383, 211, 610
736, 364, 474, 652, 520
737, 345, 534, 229, 223
738, 620, 260, 727, 312
739, 505, 710, 639, 246
740, 710, 706, 242, 639
741, 311, 734, 313, 678
742, 707, 251, 733, 696
743, 265, 625, 240, 712
744, 313, 240, 625, 328
745, 312, 727, 643, 642
746, 307, 619, 331, 258
747, 261, 262, 259, 579
748, 241, 709, 330, 645
749, 515, 222, 301, 182
750, 182, 301, 385, 566
751, 20, 13, 333, 348
752, 385, 541, 217, 612
753, 383, 314, 637, 211
754, 298, 715, 556, 220
755, 715, 663, 221, 556
756, 334, 435, 517, 568
757, 203, 551, 716, 604
758, 304, 140, 160, 327
759, 551, 192, 700, 716
760, 286, 627, 717, 676
761, 676, 717, 491, 290
762, 717, 452, 291, 491
763, 627, 288, 452, 717
764, 703, 485, 226, 437
765, 541, 310, 384, 217
766, 437, 308, 309, 651
767, 226, 138, 162, 449
768, 442, 462, 514, 659
769, 16, 657, 736, 23
770, 464, 408, 337, 607
771, 497, 600, 503, 691
772, 682, 322, 601, 496
773, 322, 691, 275, 601
774, 499, 729, 270, 673
775, 579, 259, 149, 151
776, 734, 260, 240, 313
777, 678, 313, 328, 256
778, 711, 332, 624, 262
779, 178, 297, 722, 295
780, 295, 722, 296, 261
781, 297, 267, 296, 722
782, 15, 419, 420, 22
783, 610, 211, 509, 650
784, 408, 428, 441, 337
785, 701, 520, 105, 116
786, 218, 196, 416, 438
787, 537, 571, 363, 225
788, 732, 206, 604, 716
789, 732, 193, 326, 206
790, 207, 391, 94, 87
791, 305, 306, 526, 592
792, 721, 305, 153, 148
793, 721, 307, 258, 255
794, 473, 510, 485, 703
795, 232, 535, 210, 617
796, 665, 612, 314, 383
797, 641, 679, 311, 713
798, 507, 506, 641, 505
799, 582, 727, 260, 734
800, 652, 438, 104, 115
801, 475, 450, 701, 181
802, 566, 385, 612, 665
803, 600, 502, 278, 503
804, 276, 501, 319, 694
805, 318, 499, 673, 266
806, 285, 321, 497, 739
807, 729, 692, 539, 270
808, 602, 540, 730, 498
809, 323, 95, 88, 392
810, 618, 372, 605, 725
811, 391, 159, 142, 581
812, 132, 168, 660, 409
813, 736, 430, 658, 419
814, 206, 326, 618, 725
815, 205, 700, 335, 655
816, 619, 620, 312, 331
817, 330, 711, 262, 261
818, 306, 528, 529, 526
819, 262, 624, 329, 259
820, 713, 311, 678, 263
821, 509, 436, 635, 718
822, 636, 724, 215, 516
823, 516, 537, 225, 214
824, 606, 300, 171, 130
825, 239, 659, 173, 128
826, 10, 18, 737, 738
827, 1, 10, 738, 111
828, 599, 285, 739, 740
829, 175, 599, 740, 125
830, 698, 209, 578, 622
831, 742, 698, 622, 741
*ELSET,ELSET=contact_source
99, 100, 101, 102, 103, 104, 105, 106, 107, 108, 
109, 110, 111, 112, 113, 114, 115, 116, 117, 118, 
119, 120, 
*ELSET,ELSET=contact_drain
39, 40, 41, 42, 43, 44, 45, 46, 47, 48, 
49, 50, 51, 52, 53, 54, 55, 56, 57, 58, 
59, 60, 
*ELSET,ELSET=probe_A
77, 78, 79, 80, 81, 82, 
*ELSET,ELSET=probe_B
17, 18, 19, 20, 21, 22, 
*ELSET,ELSET=walls
1, 2, 3, 4, 5, 6, 7, 8, 9, 10, 
11, 12, 13, 14, 15, 16, 23, 24, 25, 26, 
27, 28, 29, 30, 31, 32, 33, 34, 35, 36, 
37, 38, 61, 62, 63, 64, 65, 66, 67, 68, 
69, 70, 71, 72, 73, 74, 75, 76, 83, 84, 
85, 86, 87, 88, 89, 90, 91, 92, 93, 94, 
95, 96, 97, 98, 121, 122, 123, 124, 125, 126, 
127, 128, 129, 130, 131, 132, 133, 134, 135, 136, 
137, 138, 139, 140, 141, 142, 143, 144, 145, 146, 
147, 148, 149, 150, 151, 152, 153, 154, 155, 156, 
157, 158, 159, 160, 161, 162, 163, 164, 165, 166, 
167, 168, 169, 170, 171, 172, 173, 174, 175, 176, 
177, 178, 
*ELSET,ELSET=domain
179, 180, 181, 182, 183, 184, 185, 186, 187, 188, 
189, 190, 191, 192, 193, 194, 195, 196, 197, 198, 
199, 200, 201, 202, 203, 204, 205, 206, 207, 208, 
209, 210, 211, 212, 213, 214, 215, 216, 217, 218, 
219, 220, 221, 222, 223, 224, 225, 226, 227, 228, 
229, 230, 231, 232, 233, 234, 235, 236, 237, 238, 
239, 240, 241, 242, 243, 244, 245, 246, 247, 248, 
249, 250, 251, 252, 253, 254, 255, 256, 257, 258, 
259, 260, 261, 262, 263, 264, 265, 266, 267, 268, 
269, 270, 271, 272, 273, 274, 275, 276, 277, 278, 
279, 280, 281, 282, 283, 284, 285, 286, 287, 288, 
289, 290, 291, 292, 293, 294, 295, 296, 297, 298, 
299, 300, 301, 302, 303, 304, 305, 306, 307, 308, 
309, 310, 311, 312, 313, 314, 315, 316, 317, 318, 
319, 320, 321, 322, 323, 324, 325, 326, 327, 328, 
329, 330, 331, 332, 333, 334, 335, 336, 337, 338, 
339, 340, 341, 342, 343, 344, 345, 346, 347, 348, 
349, 350, 351, 352, 353, 354, 355, 356, 357, 358, 
359, 360, 361, 362, 363, 364, 365, 366, 367, 368, 
369, 370, 371, 372, 373, 374, 375, 376, 377, 378, 
379, 380, 381, 382, 383, 384, 385, 386, 387, 388, 
389, 390, 391, 392, 393, 394, 395, 396, 397, 398, 
399, 400, 401, 402, 403, 404, 405, 406, 407, 408, 
409, 410, 411, 412, 413, 414, 415, 416, 417, 418, 
419, 420, 421, 422, 423, 424, 425, 426, 427, 428, 
429, 430, 431, 432, 433, 434, 435, 436, 437, 438, 
439, 440, 441, 442, 443, 444, 445, 446, 447, 448, 
449, 450, 451, 452, 453, 454, 455, 456, 457, 458, 
459, 460, 461, 462, 463, 464, 465, 466, 467, 468, 
469, 470, 471, 472, 473, 474, 475, 476, 477, 478, 
479, 480, 481, 482, 483, 484, 485, 486, 487, 488, 
489, 490, 491, 492, 493, 494, 495, 496, 497, 498, 
499, 500, 501, 502, 503, 504, 505, 506, 507, 508, 
509, 510, 511, 512, 513, 514, 515, 516, 517, 518, 
519, 520, 521, 522, 523, 524, 525, 526, 527, 528, 
529, 530, 531, 532, 533, 534, 535, 536, 537, 538, 
539, 540, 541, 542, 543, 544, 545, 546, 547, 548, 
549, 550, 551, 552, 553, 554, 555, 556, 557, 558, 
559, 560, 561, 562, 563, 564, 565, 566, 567, 568, 
569, 570, 571, 572, 573, 574, 575, 576, 577, 578, 
579, 580, 581, 582, 583, 584, 585, 586, 587, 588, 
589, 590, 591, 592, 593, 594, 595, 596, 597, 598, 
599, 600, 601, 602, 603, 604, 605, 606, 607, 608, 
609, 610, 611, 612, 613, 614, 615, 616, 617, 618, 
619, 620, 621, 622, 623, 624, 625, 626, 627, 628, 
629, 630, 631, 632, 633, 634, 635, 636, 637, 638, 
639, 640, 641, 642, 643, 644, 645, 646, 647, 648, 
649, 650, 651, 652, 653, 654, 655, 656, 657, 658, 
659, 660, 661, 662, 663, 664, 665, 666, 667, 668, 
669, 670, 671, 672, 673, 674, 675, 676, 677, 678, 
679, 680, 681, 682, 683, 684, 685, 686, 687, 688, 
689, 690, 691, 692, 693, 694, 695, 696, 697, 698, 
699, 700, 701, 702, 703, 704, 705, 706, 707, 708, 
709, 710, 711, 712, 713, 714, 715, 716, 717, 718, 
719, 720, 721, 722, 723, 724, 725, 726, 727, 728, 
729, 730, 731, 732, 733, 734, 735, 736, 737, 738, 
739, 740, 741, 742, 743, 744, 745, 746, 747, 748, 
749, 750, 751, 752, 753, 754, 755, 756, 757, 758, 
759, 760, 761, 762, 763, 764, 765, 766, 767, 768, 
769, 770, 771, 772, 773, 774, 775, 776, 777, 778, 
779, 780, 781, 782, 783, 784, 785, 786, 787, 788, 
789, 790, 791, 792, 793, 794, 795, 796, 797, 798, 
799, 800, 801, 802, 803, 804, 805, 806, 807, 808, 
809, 810, 811, 812, 813, 814, 815, 816, 817, 818, 
819, 820, 821, 822, 823, 824, 825, 826, 827, 828, 
829, 830, 831, 
*NSET,NSET=contact_source
1, 8, 101, 102, 103, 104, 105, 106, 107, 108, 
109, 110, 111, 112, 113, 114, 115, 116, 117, 118, 
119, 120, 121, 
*NSET,NSET=contact_drain
4, 5, 45, 46, 47, 48, 49, 50, 51, 52, 
53, 54, 55, 56, 57, 58, 59, 60, 61, 62, 
63, 64, 65, 
*NSET,NSET=probe_A
6, 7, 81, 82, 83, 84, 85, 
*NSET,NSET=probe_B
2, 3, 25, 26, 27, 28, 29, 
*NSET,NSET=walls
1, 2, 3, 4, 5, 6, 7, 8, 9, 10, 
11, 12, 13, 14, 15, 16, 17, 18, 19, 20, 
21, 22, 23, 24, 30, 31, 32, 33, 34, 35, 
36, 37, 38, 39, 40, 41, 42, 43, 44, 66, 
67, 68, 69, 70, 71, 72, 73, 74, 75, 76, 
77, 78, 79, 80, 86, 87, 88, 89, 90, 91, 
92, 93, 94, 95, 96, 97, 98, 99, 100, 122, 
123, 124, 125, 126, 127, 128, 129, 130, 131, 132, 
133, 134, 135, 136, 137, 138, 139, 140, 141, 142, 
143, 144, 145, 146, 147, 148, 149, 150, 151, 152, 
153, 154, 155, 156, 157, 158, 159, 160, 161, 162, 
163, 164, 165, 166, 167, 168, 169, 170, 171, 172, 
173, 174, 175, 176, 177, 178, 
*NSET,NSET=domain
1, 2, 3, 4, 5, 6, 7, 8, 9, 10, 
11, 12, 13, 14, 15, 16, 17, 18, 19, 20, 
21, 22, 23, 24, 25, 26, 27, 28, 29, 30, 
31, 32, 33, 34, 35, 36, 37, 38, 39, 40, 
41, 42, 43, 44, 45, 46, 47, 48, 49, 50, 
51, 52, 53, 54, 55, 56, 57, 58, 59, 60, 
61, 62, 63, 64, 65, 66, 67, 68, 69, 70, 
71, 72, 73, 74, 75, 76, 77, 78, 79, 80, 
81, 82, 83, 84, 85, 86, 87, 88, 89, 90, 
91, 92, 93, 94, 95, 96, 97, 98, 99, 100, 
101, 102, 103, 104, 105, 106, 107, 108, 109, 110, 
111, 112, 113, 114, 115, 116, 117, 118, 119, 120, 
121, 122, 123, 124, 125, 126, 127, 128, 129, 130, 
131, 132, 133, 134, 135, 136, 137, 138, 139, 140, 
141, 142, 143, 144, 145, 146, 147, 148, 149, 150, 
151, 152, 153, 154, 155, 156, 157, 158, 159, 160, 
161, 162, 163, 164, 165, 166, 167, 168, 169, 170, 
171, 172, 173, 174, 175, 176, 177, 178, 179, 180, 
181, 182, 183, 184, 185, 186, 187, 188, 189, 190, 
191, 192, 193, 194, 195, 196, 197, 198, 199, 200, 
201, 202, 203, 204, 205, 206, 207, 208, 209, 210, 
211, 212, 213, 214, 215, 216, 217, 218, 219, 220, 
221, 222, 223, 224, 225, 226, 227, 228, 229, 230, 
231, 232, 233, 234, 235, 236, 237, 238, 239, 240, 
241, 242, 243, 244, 245, 246, 247, 248, 249, 250, 
251, 252, 253, 254, 255, 256, 257, 258, 259, 260, 
261, 262, 263, 264, 265, 266, 267, 268, 269, 270, 
271, 272, 273, 274, 275, 276, 277, 278, 279, 280, 
281, 282, 283, 284, 285, 286, 287, 288, 289, 290, 
291, 292, 293, 294, 295, 296, 297, 298, 299, 300, 
301, 302, 303, 304, 305, 306, 307, 308, 309, 310, 
311, 312, 313, 314, 315, 316, 317, 318, 319, 320, 
321, 322, 323, 324, 325, 326, 327, 328, 329, 330, 
331, 332, 333, 334, 335, 336, 337, 338, 339, 340, 
341, 342, 343, 344, 345, 346, 347, 348, 349, 350, 
351, 352, 353, 354, 355, 356, 357, 358, 359, 360, 
361, 362, 363, 364, 365, 366, 367, 368, 369, 370, 
371, 372, 373, 374, 375, 376, 377, 378, 379, 380, 
381, 382, 383, 384, 385, 386, 387, 388, 389, 390, 
391, 392, 393, 394, 395, 396, 397, 398, 399, 400, 
401, 402, 403, 404, 405, 406, 407, 408, 409, 410, 
411, 412, 413, 414, 415, 416, 417, 418, 419, 420, 
421, 422, 423, 424, 425, 426, 427, 428, 429, 430, 
431, 432, 433, 434, 435, 436, 437, 438, 439, 440, 
441, 442, 443, 444, 445, 446, 447, 448, 449, 450, 
451, 452, 453, 454, 455, 456, 457, 458, 459, 460, 
461, 462, 463, 464, 465, 466, 467, 468, 469, 470, 
471, 472, 473, 474, 475, 476, 477, 478, 479, 480, 
481, 482, 483, 484, 485, 486, 487, 488, 489, 490, 
491, 492, 493, 494, 495, 496, 497, 498, 499, 500, 
501, 502, 503, 504, 505, 506, 507, 508, 509, 510, 
511, 512, 513, 514, 515, 516, 517, 518, 519, 520, 
521, 522, 523, 524, 525, 526, 527, 528, 529, 530, 
531, 532, 533, 534, 535, 536, 537, 538, 539, 540, 
541, 542, 543, 544, 545, 546, 547, 548, 549, 550, 
551, 552, 553, 554, 555, 556, 557, 558, 559, 560, 
561, 562, 563, 564, 565, 566, 567, 568, 569, 570, 
571, 572, 573, 574, 575, 576, 577, 578, 579, 580, 
581, 582, 583, 584, 585, 586, 587, 588, 589, 590, 
591, 592, 593, 594, 595, 596, 597, 598, 599, 600, 
601, 602, 603, 604, 605, 606, 607, 608, 609, 610, 
611, 612, 613, 614, 615, 616, 617, 618, 619, 620, 
621, 622, 623, 624, 625, 626, 627, 628, 629, 630, 
631, 632, 633, 634, 635, 636, 637, 638, 639, 640, 
641, 642, 643, 644, 645, 646, 647, 648, 649, 650, 
651, 652, 653, 654, 655, 656, 657, 658, 659, 660, 
661, 662, 663, 664, 665, 666, 667, 668, 669, 670, 
671, 672, 673, 674, 675, 676, 677, 678, 679, 680, 
681, 682, 683, 684, 685, 686, 687, 688, 689, 690, 
691, 692, 693, 694, 695, 696, 697, 698, 699, 700, 
701, 702, 703, 704, 705, 706, 707, 708, 709, 710, 
711, 712, 713, 714, 715, 716, 717, 718, 719, 720, 
721, 722, 723, 724, 725, 726, 727, 728, 729, 730, 
731, 732, 733, 734, 735, 736, 737, 738, 739, 740, 
741, 742, 
