*Heading
 /Users/juliagao/geometry-optimization-net/scripts/../runs/run2/shape_179.inp
*NODE
1, 0, -0.3, 0
2, 0.425, -0.3, 0
3, 0.575, -0.3, 0
4, 1, -0.3, 0
5, 1, 0.3, 0
6, 0.575, 0.3, 0
7, 0.425, 0.3, 0
8, 0, 0.3, 0
9, 0.6906812153, 0.0014603811, 0
10, 0.026482861456684, -0.3, 0
11, 0.079278317896337, -0.3, 0
12, 0.13195553074028, -0.3, 0
13, 0.18528940172629, -0.3, 0
14, 0.23921073245977, -0.3, 0
15, 0.29299755979396, -0.3, 0
16, 0.34669902276169, -0.3, 0
17, 0.39928286800184, -0.3, 0
18, 0.052965722913368, -0.3, 0
19, 0.10559091287931, -0.3, 0
20, 0.15832014860125, -0.3, 0
21, 0.21225865485132, -0.3, 0
22, 0.26616281006822, -0.3, 0
23, 0.3198323095197, -0.3, 0
24, 0.37356573600368, -0.3, 0
25, 0.44941955311744, -0.3, 0
26, 0.49857781747517, -0.3, 0
27, 0.54915826435773, -0.3, 0
28, 0.47383910623488, -0.3, 0
29, 0.52331652871546, -0.3, 0
30, 0.6018540352502, -0.3, 0
31, 0.65607160145077, -0.3, 0
32, 0.70994942029506, -0.3, 0
33, 0.76263496981654, -0.3, 0
34, 0.81559152784862, -0.3, 0
35, 0.86901017761393, -0.3, 0
36, 0.92177080235188, -0.3, 0
37, 0.97394903686452, -0.3, 0
38, 0.62870807050041, -0.3, 0
39, 0.68343513240113, -0.3, 0
40, 0.73646370818898, -0.3, 0
41, 0.7888062314441, -0.3, 0
42, 0.84237682425314, -0.3, 0
43, 0.89564353097473, -0.3, 0
44, 0.94789807372903, -0.3, 0
45, 1, -0.27371890505541, 0
46, 1, -0.22069703508655, 0
47, 1, -0.16667725160165, 0
48, 1, -0.11174421874136, 0
49, 1, -0.056735700450041, 0
50, 1, -0.0018426893839649, 0
51, 1, 0.053465041014413, 0
52, 1, 0.10929672380421, 0
53, 1, 0.16589653077452, 0
54, 1, 0.22160065601701, 0
55, 1, 0.27438372192752, 0
56, 1, -0.24743781011081, 0
57, 1, -0.19395626006229, 0
58, 1, -0.13939824314101, 0
59, 1, -0.084090194341697, 0
60, 1, -0.029381206558386, 0
61, 1, 0.025695827790456, 0
62, 1, 0.081234254238369, 0
63, 1, 0.13735919337005, 0
64, 1, 0.19443386817899, 0
65, 1, 0.24876744385504, 0
66, 0.97450853565238, 0.3, 0
67, 0.923156369124, 0.3, 0
68, 0.87112745407683, 0.3, 0
69, 0.81848825437451, 0.3, 0
70, 0.76493303952959, 0.3, 0
71, 0.7102507235409, 0.3, 0
72, 0.65546246669174, 0.3, 0
73, 0.60163614891113, 0.3, 0
74, 0.94901707130476, 0.3, 0
75, 0.89729566694324, 0.3, 0
76, 0.84495924121043, 0.3, 0
77, 0.7920172675386, 0.3, 0
78, 0.73784881152058, 0.3, 0
79, 0.68265263556122, 0.3, 0
80, 0.62827229782227, 0.3, 0
81, 0.54871959799652, 0.3, 0
82, 0.49720897327246, 0.3, 0
83, 0.44848937527593, 0.3, 0
84, 0.52243919599305, 0.3, 0
85, 0.47197875055187, 0.3, 0
86, 0.40490351990042, 0.3, 0
87, 0.36432153645959, 0.3, 0
88, 0.32159161951015, 0.3, 0
89, 0.27531384054087, 0.3, 0
90, 0.22608001125618, 0.3, 0
91, 0.17551201523424, 0.3, 0
92, 0.12531149153879, 0.3, 0
93, 0.075453370442622, 0.3, 0
94, 0.025214120471788, 0.3, 0
95, 0.38480703980084, 0.3, 0
96, 0.34383603311834, 0.3, 0
97, 0.29934720590195, 0.3, 0
98, 0.25128047517979, 0.3, 0
99, 0.20087954733257, 0.3, 0
100, 0.1501444831359, 0.3, 0
101, 0.10047849994167, 0.3, 0
102, 0.050428240943577, 0.3, 0
103, 0, 0.27322398207318, 0
104, 0, 0.21881918954767, 0
105, 0, 0.16303722816328, 0
106, 0, 0.10689772302066, 0
107, 0, 0.051213004008617, 0
108, 0, -0.003863461150193, 0
109, 0, -0.058189792260528, 0
110, 0, -0.11195803553253, 0
111, 0, -0.16605867363018, 0
112, 0, -0.22037629668932, 0
113, 0, -0.27370662915808, 0
114, 0, 0.24644796414635, 0
115, 0, 0.19119041494898, 0
116, 0, 0.13488404137757, 0
117, 0, 0.078911404663759, 0
118, 0, 0.023514603353476, 0
119, 0, -0.031241525653862, 0
120, 0, -0.085138058867195, 0
121, 0, -0.13877801219787, 0
122, 0, -0.19333933506248, 0
123, 0, -0.24741325831616, 0
124, 0.68340807927294, 0.029311706896237, 0
125, 0.75249367959439, -0.056220377568969, 0
126, 0.78877474861667, -0.0983190842274, 0
127, 0.81360232999671, -0.14777977102832, 0
128, 0.81283673397757, -0.20161896090416, 0
129, 0.7732828843934, -0.23639647139394, 0
130, 0.71934856383957, -0.24063798678018, 0
131, 0.66570708356844, -0.2277093254405, 0
132, 0.61527712399858, -0.20655686266761, 0
133, 0.56564513019738, -0.18967857226966, 0
134, 0.52013132303734, -0.21536878973199, 0
135, 0.47531522305244, -0.24111982502763, 0
136, 0.42479624091925, -0.23117503687729, 0
137, 0.38451521003427, -0.19523295223561, 0
138, 0.33530959379619, -0.17100755952884, 0
139, 0.28201961815679, -0.15661922006834, 0
140, 0.23748064217428, -0.1259691537305, 0
141, 0.22539403344779, -0.074079706160128, 0
142, 0.24661016012927, -0.023692277715197, 0
143, 0.27706752439908, 0.021368735225279, 0
144, 0.28258471300817, 0.074088845295433, 0
145, 0.26979943208191, 0.12746294455657, 0
146, 0.26922772919632, 0.18383956408933, 0
147, 0.29332785028983, 0.23272997060922, 0
148, 0.33419946865968, 0.26132454555624, 0
149, 0.37807351758497, 0.27369066752034, 0
150, 0.42255224102109, 0.2760805361046, 0
151, 0.46908412711655, 0.26783284674961, 0
152, 0.51430910127923, 0.24422204787888, 0
153, 0.55290547105451, 0.2063968280998, 0
154, 0.59360214621522, 0.1694642397465, 0
155, 0.64668733875657, 0.15754945976366, 0
156, 0.69341655759131, 0.13199482269596, 0
157, 0.70088525594557, 0.079577406086698, 0
158, 0.71069329996107, -0.018607236905496, 0
159, 0.69207909799097, 0.054041865320318, 0
160, 0.70319693710999, 0.10672181126394, 0
161, 0.6724924358456, 0.14887860450356, 0
162, 0.62000873291289, 0.16223716375554, 0
163, 0.57128085195132, 0.18568994536244, 0
164, 0.53422465352467, 0.22684191658001, 0
165, 0.49192292902333, 0.25831618139081, 0
166, 0.44505230547842, 0.27368069943467, 0
167, 0.39993016421442, 0.27599276394011, 0
168, 0.35657082512351, 0.26912679819193, 0
169, 0.31336327982556, 0.24999611210369, 0
170, 0.27838582379777, 0.21087263318766, 0
171, 0.26690346151901, 0.15545630909318, 0
172, 0.27596886585173, 0.10004503379893, 0
173, 0.28526255269564, 0.047261615402794, 0
174, 0.2623715787438, -0.00097432515980175, 0
175, 0.23331734967067, -0.047994472396165, 0
176, 0.22606231785689, -0.10151909285985, 0
177, 0.25718226096305, -0.14417063567589, 0
178, 0.30852809494833, -0.16464769650862, 0
179, 0.36147757809325, -0.17980463129419, 0
180, 0.40433901165538, -0.21431485588125, 0
181, 0.4494240920913, -0.24165482679056, 0
182, 0.49895929876511, -0.23108486554094, 0
183, 0.54039236934714, -0.19857888074234, 0
184, 0.59060940922351, -0.19574081065486, 0
185, 0.6398504951526, -0.21757802783637, 0
186, 0.69231201040784, -0.23570918003488, 0
187, 0.74685497919807, -0.24140643078212, 0
188, 0.79699013101101, -0.2232999166114, 0
189, 0.81781790123224, -0.17539526263427, 0
190, 0.80315915575937, -0.1219788155075, 0
191, 0.77168892801132, -0.076553066662252, 0
192, 0.73200263765178, -0.037206471229959, 0
193, 0.52586738164869, -0.25248229857881, 0
194, 0.28060999464356, 0.27705826166863, 0
195, 0.37102521087866, 0.28611850827408, 0
196, 0.077784309642519, -0.21453440648034, 0
197, 0.10128360938106, -0.15515787436403, 0
198, 0.025690033419774, -0.19103828484692, 0
199, 0.33561061068221, -0.24358433718459, 0
200, 0.38411926977924, -0.26074208192667, 0
201, 0.78254809669235, 0.16115556320539, 0
202, 0.95553266912922, -0.18961455114081, 0
203, 0.12443795982756, -0.12359690424354, 0
204, 0.051957739327946, 0.19389338022471, 0
205, 0.050091333102188, -0.1060713562387, 0
206, 0.051979299508628, 0.084580623465136, 0
207, 0.39208198253539, 0.28757025080204, 0
208, 0.34988792638854, 0.28356632721738, 0
209, 0.076863662991839, 0.24826149262696, 0
210, 0.18004337369533, -0.1722388203483, 0
211, 0.30595011155571, 0.27383578247399, 0
212, 0.38958697313608, 0.29161646733822, 0
213, 0.206422153625, 0.25905171729297, 0
214, 0.18482600258198, 0.20705663377298, 0
215, 0.43850023223339, 0.28299064987421, 0
216, 0.025920074326312, -0.21845890462128, 0
217, 0.24302455167265, -0.26632619503047, 0
218, 0.025579654036124, 0.026769983814348, 0
219, 0.260456050309, 0.2563800329552, 0
220, 0.10254792959797, 0.24936729356569, 0
221, 0.10171118857759, 0.0088827064568087, 0
222, 0.049983283624673, -0.078847834997168, 0
223, 0.025241748151145, -0.13621987664022, 0
224, 0.17790347707838, 0.27779359412655, 0
225, 0.45192128808196, 0.29535849185553, 0
226, 0.26458018712846, 0.24152453707875, 0
227, 0.10429055431514, 0.19752544058687, 0
228, 0.41334135938198, 0.28801961574822, 0
229, 0.05122408349403, 0.029879649878835, 0
230, 0.20849667825395, -0.078927843763207, 0
231, 0.15328342878312, 0.014940382838404, 0
232, 0.076153701653008, 0.27419230813228, 0
233, 0.36874497592017, 0.29058469222675, 0
234, 0.57726207629494, 0.26869674360869, 0
235, 0.1262061362459, -0.15172319493354, 0
236, 0.52803089108549, 0.27991970251157, 0
237, 0.026054605495325, 0.1094843616904, 0
238, 0.099704154038332, -0.045077677151587, 0
239, 0.75149582127601, 0.18420652525122, 0
240, 0.80423191787576, 0.20786352678605, 0
241, 0.9461960475673, 0.14564045757468, 0
242, 0.94761467403428, 0.19815519683458, 0
243, 0.84722112859136, 0.20745319439941, 0
244, 0.89609651605364, 0.20286826619721, 0
245, 0.89710548224128, 0.25132722534886, 0
246, 0.9484106713214, 0.24950152350605, 0
247, 0.8466095420387, 0.25270483563401, 0
248, 0.79641145123432, 0.25154035036266, 0
249, 0.74154482800872, 0.24801963869941, 0
250, 0.21476846160617, 0.072420193965499, 0
251, 0.07804670615796, 0.19556980713584, 0
252, 0.41042920747552, 0.29199481555108, 0
253, 0.55254590214543, 0.27442854022865, 0
254, 0.15226125748185, 0.27645608953145, 0
255, 0.68318195816994, 0.27599060136911, 0
256, 0.86693501501114, 0.15864399766834, 0
257, 0.78874410787737, 0.04711499528688, 0
258, 0.75388363071932, 0.0037156748766644, 0
259, 0.82729711365825, 0.09101151828747, 0
260, 0.9447364363515, 0.092154041818163, 0
261, 0.91946243849583, 0.14971634418833, 0
262, 0.91629211719643, 0.016439371640158, 0
263, 0.94434973908888, 0.037655519377584, 0
264, 0.90507932337532, -0.098553550392092, 0
265, 0.95011436606063, -0.076092670657149, 0
266, 0.80883990891308, 0.19281705681214, 0
267, 0.94595431912049, -0.018327191031693, 0
268, 0.74736076168334, 0.05245004770263, 0
269, 0.50722572970979, -0.26547237315422, 0
270, 0.88921349746684, -0.12638647333627, 0
271, 0.82794664322147, -0.033187556137197, 0
272, 0.95452587502402, -0.13363982938997, 0
273, 0.84337762018111, -0.17861799715813, 0
274, 0.97762788564825, -0.16419358001086, 0
275, 0.73330336713807, 0.14728143675713, 0
276, 0.84180631198489, 0.16398014198441, 0
277, 0.79462249150677, 0.098447212765689, 0
278, 0.62645165655251, 0.21358318685919, 0
279, 0.074903447679007, -0.1029095741278, 0
280, 0.38716004023538, 0.29575974153597, 0
281, 0.9776164784555, -0.19171398718087, 0
282, 0.85514561894549, -0.20832051838302, 0
283, 0.90795313205378, -0.24214085370676, 0
284, 0.20177657986295, -0.0051974978722515, 0
285, 0.48586776149236, 0.27450577836656, 0
286, 0.37622068926995, -0.28045190407942, 0
287, 0.40519698544468, -0.27289901966446, 0
288, 0.84116012901892, -0.098463760671937, 0
289, 0.80593667366143, -0.062803639112315, 0
290, 0.8879681154286, -0.0042620238961467, 0
291, 0.93019608468353, -0.24348882837797, 0
292, 0.95075789227359, -0.27231921821372, 0
293, 0.88650924787467, -0.24063745247006, 0
294, 0.52297208704064, -0.23402145318009, 0
295, 0.54572690931148, -0.23780177166187, 0
296, 0.43896617034731, -0.26673370979822, 0
297, 0.53488857374629, -0.28685722122699, 0
298, 0.50366727210226, 0.28459657437424, 0
299, 0.078160321392793, 0.087271203587277, 0
300, 0.050369232975659, -0.024550036544273, 0
301, 0.55076013422246, 0.28755824674128, 0
302, 0.86961251187908, 0.18210245783846, 0
303, 0.8914896879143, -0.21213177498758, 0
304, 0.50948952189378, 0.26652550453396, 0
305, 0.078897550573937, -0.27146861068405, 0
306, 0.077516018324177, 0.22207410535362, 0
307, 0.79034772606291, 0.072470446085499, 0
308, 0.8097673211574, 0.1490230066407, 0
309, 0.3236924703676, 0.29289806746397, 0
310, 0.68336515405666, 0.25147435275646, 0
311, 0.18964167098059, -0.083515157394235, 0
312, 0.21534611315974, 0.099269939002958, 0
313, 0.18267689992975, 0.23194662189038, 0
314, 0.62797810273357, 0.23678306007449, 0
315, 0.15405962132721, -0.17678062922748, 0
316, 0.18618234385743, -0.26782568024614, 0
317, 0.97527910483771, -0.080242643605907, 0
318, 0.9772122945967, -0.13646893076911, 0
319, 0.9526782330825, -0.10508555142321, 0
320, 0.9763942600591, -0.10843797718395, 0
321, 0.97233774454083, 0.031623492248468, 0
322, 0.94434245568866, 0.065052193245479, 0
323, 0.97239799006294, 0.086758936590249, 0
324, 0.97226484402477, 0.059248674257653, 0
325, 0.7394130802708, 0.27438877295913, 0
326, 0.71212954987251, 0.24899110444099, 0
327, 0.7112147075087, 0.27483654484672, 0
328, 0.90251861246613, -0.27078542074165, 0
329, 0.93276218783292, -0.21555042047879, 0
330, 0.8572878252928, -0.15236748433171, 0
331, 0.22951818438508, -0.0024779620948193, 0
332, 0.1038364247004, -0.21233952987479, 0
333, 0.12683898079621, 0.27548495381887, 0
334, 0.17586956557174, -0.0083006992947445, 0
335, 0.43182490897898, 0.29170876826602, 0
336, 0.052252391289158, -0.2443981410409, 0
337, 0.15064074979502, -0.011533790349462, 0
338, 0.60114560325516, 0.22218263646656, 0
339, 0.32697257914877, -0.27183416244719, 0
340, 0.02609351737334, 0.13717584557416, 0
341, 0.19165218179543, -0.11062741186469, 0
342, 0.871725115398, 0.25217568934543, 0
343, 0.84576839997482, 0.27622367126379, 0
344, 0.89720030470003, 0.27564200867377, 0
345, 0.87145981309091, 0.27601897391, 0
346, 0.9477230760178, -0.04704231232416, 0
347, 0.97327569624462, -0.024034921979774, 0
348, 0.97417056850586, -0.052089741082144, 0
349, 0.1568956339351, -0.20682752835564, 0
350, 0.68126111371349, 0.19970168838706, 0
351, 0.075509546363458, -0.021306877327936, 0
352, 0.2187675393151, -0.13211236054269, 0
353, 0.1015011853341, 0.27475530452679, 0
354, 0.076964341144858, 0.032897115740309, 0
355, 0.60224663711352, 0.28195343705682, 0
356, 0.32793577622558, 0.27954698997992, 0
357, 0.35206036666071, 0.2785256572621, 0
358, 0.55394856897078, 0.26033212132891, 0
359, 0.052251526305408, 0.13941376516629, 0
360, 0.30835536334179, 0.26569288247828, 0
361, 0.15422499510028, 0.25268652993005, 0
362, 0.10350615812936, 0.22365731410451, 0
363, 0.97304999676872, 0.14160834724951, 0
364, 0.94696979723503, 0.1720374469426, 0
365, 0.97375487919674, 0.19608163224078, 0
366, 0.97342802602151, 0.16896403939392, 0
367, 0.14830716430838, -0.038112370567524, 0
368, 0.07698783197464, -0.18625801057208, 0
369, 0.074766255954013, -0.075591690540159, 0
370, 0.18030936178637, 0.2553170399886, 0
371, 0.30362275818272, 0.28223773567466, 0
372, 0.074988193100217, -0.048415769212589, 0
373, 0.1798481474326, 0.017779260889904, 0
374, 0.10457764547689, 0.089917347847375, 0
375, 0.20947887139946, 0.23735743824472, 0
376, 0.821646509403, 0.25260922237286, 0
377, 0.79391726840357, 0.27560932967194, 0
378, 0.81998361962858, 0.27611962377531, 0
379, 0.94485312254686, 0.0098974572622121, 0
380, 0.97266491269924, 0.0038834094946554, 0
381, 0.14684799035419, -0.064924165885247, 0
382, 0.62864603070614, 0.27958588683584, 0
383, 0.53233600950433, 0.25644746270495, 0
384, 0.92646807010807, -0.27159446128999, 0
385, 0.85682949880656, 0.0049878907607622, 0
386, 0.91332572652728, -0.18569134353869, 0
387, 0.36088462982691, -0.25126385555637, 0
388, 0.3527493272788, -0.2756576171441, 0
389, 0.65566860317221, 0.27760024293894, 0
390, 0.24462053847061, 0.047413337409445, 0
391, 0.21576501099957, -0.23289071285144, 0
392, 0.20773510406503, 0.020274670678488, 0
393, 0.025067505276834, -0.054939583328035, 0
394, 0.34777974534051, 0.28882802018931, 0
395, 0.10526867273208, -0.27068277140096, 0
396, 0.025188039550002, -0.027832773107217, 0
397, 0.13187087067914, 0.14662538301938, 0
398, 0.62861617752303, 0.2586543915419, 0
399, 0.91161386233515, -0.21386585443792, 0
400, 0.97719490572805, -0.218942091657, 0
401, 0.41633434577531, 0.2840505654188, 0
402, 0.026305115982065, -0.27294385254246, 0
403, 0.2149718993666, -0.19777051268677, 0
404, 0.21501959458553, 0.12687570146128, 0
405, 0.10385560290143, 0.062846519802258, 0
406, 0.82458696748039, 0.015024386328375, 0
407, 0.97529834160262, -0.27301670110431, 0
408, 0.91030795294131, -0.1284731247469, 0
409, 0.40760921227258, 0.29598567727257, 0
410, 0.10286051252189, 0.035836510271015, 0
411, 0.25699351016687, 0.27084421308267, 0
412, 0.076136849185197, -0.15820805397464, 0
413, 0.94539897654153, 0.11901736970598, 0
414, 0.9726820356175, 0.11422443176376, 0
415, 0.76996283529396, 0.2495063256574, 0
416, 0.76707857391902, 0.27483259824906, 0
417, 0.24503551866145, 0.10031021231, 0
418, 0.27792115402658, 0.28832459476842, 0
419, 0.2900440157603, -0.1974933937768, 0
420, 0.97418953948488, 0.24885802294301, 0
421, 0.9486769129943, 0.27480391540662, 0
422, 0.97434388809576, 0.27451106503161, 0
423, 0.95307349689677, -0.24476916226749, 0
424, 0.91294792078054, -0.15733660639922, 0
425, 0.94808239443627, 0.22395610500778, 0
426, 0.97400401398149, 0.22263993449176, 0
427, 0.92268970682277, 0.25038254631193, 0
428, 0.92293135149795, 0.27520766403027, 0
429, 0.15603511296037, 0.22827912539, 0
430, 0.25396253755715, 0.28527719880267, 0
431, 0.89371967445781, -0.18384736204446, 0
432, 0.80266357971797, -0.044731790883754, 0
433, 0.89306944984068, -0.15541449881359, 0
434, 0.82420350739726, -0.099901727378237, 0
435, 0.21032949600036, -0.10588806126699, 0
436, 0.052605794962728, -0.27220882957732, 0
437, 0.21265327512718, 0.21337201057476, 0
438, 0.051228144610561, 0.24739322861549, 0
439, 0.10058600718118, -0.01806851294086, 0
440, 0.17470617184779, -0.14324380322286, 0
441, 0.17213808035948, -0.034487547859981, 0
442, 0.12561134018034, -0.014800708663827, 0
443, 0.15908537757252, 0.14940632751043, 0
444, 0.27900137741835, -0.23313922853821, 0
445, 0.1575682882583, 0.20290772936335, 0
446, 0.025452654707848, -0.16358232751059, 0
447, 0.48258645552535, 0.28160242819873, 0
448, 0.18675480079943, 0.15243017678487, 0
449, 0.12335313023523, -0.068665894245126, 0
450, 0.46224257870043, 0.27988434254084, 0
451, 0.24301712913481, 0.12807226992302, 0
452, 0.50050155231248, 0.29258398398996, 0
453, 0.025959088811929, 0.19242950906015, 0
454, 0.47917498959256, 0.28818104319394, 0
455, 0.56272689128789, -0.28586787092973, 0
456, 0.56785574710887, -0.24477588256617, 0
457, 0.49002558981945, -0.28037044695476, 0
458, 0.52945921488735, -0.27033748008073, 0
459, 0.32580816006213, 0.28608831588026, 0
460, 0.052187707372798, 0.11200637229712, 0
461, 0.22002535325191, -0.02711195506537, 0
462, 0.051630210918839, 0.2207765188168, 0
463, 0.82485424191513, 0.20880645123261, 0
464, 0.79979967770948, 0.22843554554322, 0
465, 0.84724685284416, 0.2297138541586, 0
466, 0.82342114517283, 0.22995952118099, 0
467, 0.12965697000358, 0.22564903193921, 0
468, 0.67741769536236, 0.17334722829622, 0
469, 0.51393517810839, -0.28358549938866, 0
470, 0.5666501712985, -0.26694033607051, 0
471, 0.61199343368718, -0.27351094486175, 0
472, 0.13134845107192, 0.092522539447725, 0
473, 0.026124389294681, -0.24582298907331, 0
474, 0.47564052616481, 0.294301293524, 0
475, 0.025782172145716, 0.054254730787904, 0
476, 0.8959227698947, -0.066033137057238, 0
477, 0.13076388852313, 0.19988776792873, 0
478, 0.53037563408083, 0.26871338571515, 0
479, 0.50667468572313, 0.27595471755409, 0
480, 0.16891848781398, -0.087916785289363, 0
481, 0.28343774932985, 0.26603876509507, 0
482, 0.59155984112706, -0.22811426718975, 0
483, 0.74806249525691, 0.02762180855974, 0
484, 0.89059971780636, -0.033964178774725, 0
485, 0.85602907659924, 0.031807334016047, 0
486, 0.43517669041031, 0.28741148006161, 0
487, 0.65554621746545, 0.25474522661933, 0
488, 0.8873204831073, 0.077306183059788, 0
489, 0.80147539467157, 0.12447843182115, 0
490, 0.79344340162401, -0.0012487360479249, 0
491, 0.85786757886221, 0.083958659135401, 0
492, 0.91608193385337, 0.071025290481191, 0
493, 0.89481417685334, 0.1785756916039, 0
494, 0.099268969546731, -0.072211121944841, 0
495, 0.37334439246196, 0.28181444350139, 0
496, 0.12416451077081, -0.04164258598671, 0
497, 0.050396307571823, -0.13342928894375, 0
498, 0.83146702024067, 0.116372494705, 0
499, 0.9216766687824, 0.2004505872066, 0
500, 0.86137326511578, -0.057734210650925, 0
501, 0.1913554076256, -0.056867033959574, 0
502, 0.577729537906, 0.25164114853453, 0
503, 0.650253316461, 0.18160911007995, 0
504, 0.39378121699087, -0.23825202433126, 0
505, 0.41564846353146, -0.25205147407715, 0
506, 0.33006006270369, 0.27325402967533, 0
507, 0.65313470485608, 0.2065715237382, 0
508, 0.14670894466966, -0.09207371123432, 0
509, 0.95548651640955, -0.161776995313, 0
510, 0.93401435280555, -0.18761161703975, 0
511, 0.15752098249702, 0.068151927266631, 0
512, 0.07854806634954, 0.1416953073487, 0
513, 0.15836340793612, -0.23771407335302, 0
514, 0.19759587156888, -0.13798216445992, 0
515, 0.050842698448041, -0.16099064157717, 0
516, 0.13182516270526, -0.26981787598461, 0
517, 0.345753314829, 0.29430728250324, 0
518, 0.57629000943235, 0.28467800587707, 0
519, 0.34671807055932, -0.21368421235166, 0
520, 0.2385413084223, 0.021983216464139, 0
521, 0.54819275951399, -0.27655224383228, 0
522, 0.54716087318761, -0.25816720700865, 0
523, 0.56754304785011, -0.21961757898118, 0
524, 0.50252382878887, -0.24817857862209, 0
525, 0.71196908414847, 0.19197143260487, 0
526, 0.70472287643233, 0.16158580937051, 0
527, 0.82892089704517, -0.076824767645868, 0
528, 0.15076304303741, -0.14779642981123, 0
529, 0.27179128689527, -0.26708953076939, 0
530, 0.46459688825978, -0.27538190054123, 0
531, 0.75722132948995, 0.10579176507596, 0
532, 0.84378252868759, -0.068948768464933, 0
533, 0.12342508198231, -0.095948804984504, 0
534, 0.12831600944972, 0.25079066608234, 0
535, 0.93383946853095, -0.15947583870813, 0
536, 0.78987075859894, 0.022498005616714, 0
537, 0.97640210485312, -0.24605524093675, 0
538, 0.14808246479024, -0.11964774597818, 0
539, 0.20356582759918, 0.27965007268454, 0
540, 0.86946488329143, -0.12519140766802, 0
541, 0.87113941846446, 0.20528554709541, 0
542, 0.83660002334447, 0.14087471141146, 0
543, 0.37125199629299, -0.22496927200021, 0
544, 0.17067275041765, -0.11530083858519, 0
545, 0.10262259991899, -0.18354812779011, 0
546, 0.65481159771968, 0.23110397429673, 0
547, 0.57738789880857, 0.23294081613202, 0
548, 0.45536573930463, 0.29048029729262, 0
549, 0.051349951111772, -0.1887163640163, 0
550, 0.02580285165444, 0.21970597831922, 0
551, 0.078422999747827, -0.24296639605511, 0
552, 0.10497985340595, 0.11702127784639, 0
553, 0.8929693859214, 0.15398916557741, 0
554, 0.91764958658728, -0.011899006989582, 0
555, 0.82468797075544, 0.065442545755093, 0
556, 0.5437523775436, -0.21610470741679, 0
557, 0.025610519984802, 0.24675578407409, 0
558, 0.050802875348904, 0.27375691488328, 0
559, 0.428437921982, 0.29590025951882, 0
560, 0.12735051644075, 0.011951397046742, 0
561, 0.78299321516925, 0.19945207598673, 0
562, 0.74483338804865, 0.21952281930463, 0
563, 0.77457733122872, 0.22400905231549, 0
564, 0.92407593375815, -0.071522184043033, 0
565, 0.92014770099313, -0.041256585703667, 0
566, 0.8888329296218, 0.10336027031345, 0
567, 0.21233440446165, -0.052548094781814, 0
568, 0.23309687103917, -0.15776890454143, 0
569, 0.48171895822234, -0.25898355399814, 0
570, 0.30836317270084, -0.23761620217096, 0
571, 0.68291826408674, 0.22607419582645, 0
572, 0.076213539613979, 0.0057859615243125, 0
573, 0.18470034897566, -0.20304579816757, 0
574, 0.28643995188015, 0.25510788024384, 0
575, 0.89680347215087, 0.22708050593983, 0
576, 0.9223124742437, 0.22547686481613, 0
577, 0.91811411076461, 0.1238594870958, 0
578, 0.76927776300387, 0.13482872690752, 0
579, 0.87172214653967, 0.22858781588021, 0
580, 0.15870917675526, -0.26885812757438, 0
581, 0.24249132335083, 0.15784517818051, 0
582, 0.21232700343866, 0.046095992168242, 0
583, 0.18322310211537, 0.043994262106791, 0
584, 0.91582198721589, 0.044005219141804, 0
585, 0.85635374588068, 0.058037878149608, 0
586, 0.25344437548449, -0.18815447336275, 0
587, 0.30140369413504, 0.29094370300557, 0
588, 0.36650881170152, 0.29521224072727, 0
589, 0.55477482527493, 0.24486505285983, 0
590, 0.60255671011614, 0.26331114336314, 0
591, 0.12903927633517, 0.038713796176504, 0
592, 0.91690805239479, 0.097631243088702, 0
593, 0.92071232242277, 0.17522420235098, 0
594, 0.45880861491984, 0.28533493205511, 0
595, 0.60230389426344, 0.24358826802985, 0
596, 0.050086451391365, -0.051689300675111, 0
597, 0.10012371399103, -0.12717475090541, 0
598, 0.82383203696952, 0.040043486740883, 0
599, 0.24633173734809, 0.073633684395749, 0
600, 0.82453837687642, 0.18956003488074, 0
601, 0.85135148300332, -0.12469955670486, 0
602, 0.12829039022737, -0.18045350364416, 0
603, 0.02537021467675, -0.00057217467079207, 0
604, 0.93215232884754, -0.13094262913046, 0
605, 0.92890695297937, -0.1017504242174, 0
606, 0.025093349742482, -0.10907661327971, 0
607, 0.195836759647, -0.030793621633166, 0
608, 0.86042031426844, 0.10951479020678, 0
609, 0.84573625442055, 0.18580780378763, 0
610, 0.29987864665278, -0.26898454447206, 0
611, 0.13041942496721, 0.065567360696878, 0
612, 0.21478377358569, 0.15553789763438, 0
613, 0.16955919778668, -0.060994383022582, 0
614, 0.71272872576768, 0.22169183353287, 0
615, 0.88656802538721, 0.050803329566979, 0
616, 0.81838966592774, 0.17068055604876, 0
617, 0.79799376935231, 0.18058131009617, 0
618, 0.75056829913337, 0.078306335519669, 0
619, 0.051835571829278, -0.21654018320008, 0
620, 0.025406928025346, 0.2734371676723, 0
621, 0.89084216930042, 0.12893337146007, 0
622, 0.13012259246638, -0.20982873998492, 0
623, 0.9547024754953, -0.21723060872566, 0
624, 0.31981819554656, -0.20501571349424, 0
625, 0.39389765573871, -0.28568270319237, 0
626, 0.85857779362976, -0.023528610810808, 0
627, 0.85860507447184, -0.18033413727106, 0
628, 0.58964565530432, -0.25604419014701, 0
629, 0.58490109689758, -0.28029118525187, 0
630, 0.52537767117557, 0.29030098444988, 0
631, 0.81336279336217, -0.079619855434414, 0
632, 0.13129108946229, -0.23970374182027, 0
633, 0.88673890534489, 0.023739480930267, 0
634, 0.39464025057795, 0.28361974439517, 0
635, 0.86363380067572, 0.1344749687933, 0
636, 0.099405145888086, -0.099554953913805, 0
637, 0.18632882903814, -0.23541507756901, 0
638, 0.84154016702222, -0.15101098205794, 0
639, 0.79837403332144, -0.02391515543257, 0
640, 0.18686430496351, 0.12468826665268, 0
641, 0.21428680111966, -0.26685868477753, 0
642, 0.1586263798874, 0.09505503460148, 0
643, 0.025948281632951, 0.081816779195167, 0
644, 0.025032119130938, -0.082012075669213, 0
645, 0.15570344596499, 0.041471645249497, 0
646, 0.20639391260599, -0.16627126323414, 0
647, 0.62376548444581, 0.18876591534203, 0
648, 0.59855983112512, 0.19816576288971, 0
649, 0.57567438796143, 0.21164682272864, 0
650, 0.55467799799753, 0.22735061940865, 0
651, 0.53374555435429, 0.24273071000438, 0
652, 0.51206366901555, 0.25608444009647, 0
653, 0.48899671424437, 0.26679594401174, 0
654, 0.4656662666458, 0.27407621680176, 0
655, 0.44179497183088, 0.27842363843526, 0
656, 0.41940401333443, 0.28007587852428, 0
657, 0.39725720970023, 0.27976209222599, 0
658, 0.37569623600813, 0.27767234941111, 0
659, 0.3542883985861, 0.27371035386226, 0
660, 0.33215811321618, 0.2671885547582, 0
661, 0.31082447956158, 0.2577626376588, 0
662, 0.28966912709656, 0.24404290347101, 0
663, 0.26991711889056, 0.22558178305891, 0
664, 0.18657261341411, 0.097380882445189, 0
665, 0.18547109134048, 0.070499721815709, 0
666, 0.13182208735699, 0.11957886538824, 0
667, 0.077642032484085, 0.060057826971661, 0
668, 0.10472211573602, -0.24142921939312, 0
669, 0.15909628407157, 0.12216446777506, 0
670, 0.075390792801006, -0.13043002597196, 0
671, 0.051644275873523, 0.057196730097089, 0
672, 0.050773597568388, 0.0026359884206391, 0
673, 0.2474413064764, -0.23076353005692, 0
674, 0.078469324121831, 0.11450747128928, 0
675, 0.10505805180878, 0.1440786730771, 0
676, 0.22900844304379, 0.28216594302598, 0
677, 0.2321904444718, 0.26427345815798, 0
678, 0.2358624030177, 0.24547056697589, 0
679, 0.24047198464159, 0.22413938811846, 0
680, 0.026059815420954, 0.1648633658544, 0
681, 0.052172122364152, 0.16674292021361, 0
682, 0.078400405689019, 0.16874808736974, 0
683, 0.1048218636525, 0.17096157192981, 0
684, 0.13152151332024, 0.17348298429574, 0
685, 0.1586222943593, 0.17649486813216, 0
686, 0.18632608425753, 0.18032072394142, 0
687, 0.21517285208696, 0.18571341030204, 0
688, 0.2474587230977, 0.1953882119601, 0
689, 0.83927114127476, -0.20618340432709, 0
690, 0.84660520621836, -0.23665496747372, 0
691, 0.82833154423013, -0.23378432758155, 0
692, 0.76345633379665, -0.018453632630414, 0
693, 0.87887653821556, -0.26980391937354, 0
694, 0.88090943806643, -0.095633739754764, 0
695, 0.81994678048534, -0.06412642645619, 0
696, 0.82499802465452, -0.051821769532804, 0
697, 0.87446357391742, -0.15377887078077, 0
698, 0.87542189949751, -0.18207041140019, 0
699, 0.87260446016653, -0.21029825820972, 0
700, 0.86602070832705, -0.23886247551868, 0
701, 0.82636333037793, -0.009428324193076, 0
702, 0.85952480918606, -0.096227797331927, 0
703, 0.8320318420598, -0.26673402483961, 0
704, 0.80750058557962, -0.26407397022758, 0
705, 0.78450921154558, -0.059762914036242, 0
706, 0.79529234969339, -0.079219116983337, 0
707, 0.80728904953051, -0.099901100394543, 0
708, 0.81881294518716, -0.12346169296151, 0
709, 0.82707440639802, -0.14953597701131, 0
710, 0.82978653793312, -0.17694463940944, 0
711, 0.8251079116176, -0.20392843281331, 0
712, 0.81112789937758, -0.22988524212327, 0
713, 0.83463706700671, -0.12427948015038, 0
714, 0.85550705956321, -0.26852191434494, 0
715, 0.77413694492695, -0.039584696404605, 0
716, 0.77960319537099, -0.25967609870201, 0
717, 0.61664645858475, -0.24113445193048, 0
718, 0.74401966173049, -0.26792671035209, 0
719, 0.71441039130289, -0.26867059088621, 0
720, 0.68442288254837, -0.26655064087652, 0
721, 0.54888074289485, -0.29154610357939, 0
722, 0.64687985512781, -0.26182340282661, 0
******* E L E M E N T S *************
*ELEMENT, type=T3D2, ELSET=Line1
1, 1, 10
2, 10, 18
3, 18, 11
4, 11, 19
5, 19, 12
6, 12, 20
7, 20, 13
8, 13, 21
9, 21, 14
10, 14, 22
11, 22, 15
12, 15, 23
13, 23, 16
14, 16, 24
15, 24, 17
16, 17, 2
*ELEMENT, type=T3D2, ELSET=Line2
17, 2, 25
18, 25, 28
19, 28, 26
20, 26, 29
21, 29, 27
22, 27, 3
*ELEMENT, type=T3D2, ELSET=Line3
23, 3, 30
24, 30, 38
25, 38, 31
26, 31, 39
27, 39, 32
28, 32, 40
29, 40, 33
30, 33, 41
31, 41, 34
32, 34, 42
33, 42, 35
34, 35, 43
35, 43, 36
36, 36, 44
37, 44, 37
38, 37, 4
*ELEMENT, type=T3D2, ELSET=Line4
39, 4, 45
40, 45, 56
41, 56, 46
42, 46, 57
43, 57, 47
44, 47, 58
45, 58, 48
46, 48, 59
47, 59, 49
48, 49, 60
49, 60, 50
50, 50, 61
51, 61, 51
52, 51, 62
53, 62, 52
54, 52, 63
55, 63, 53
56, 53, 64
57, 64, 54
58, 54, 65
59, 65, 55
60, 55, 5
*ELEMENT, type=T3D2, ELSET=Line5
61, 5, 66
62, 66, 74
63, 74, 67
64, 67, 75
65, 75, 68
66, 68, 76
67, 76, 69
68, 69, 77
69, 77, 70
70, 70, 78
71, 78, 71
72, 71, 79
73, 79, 72
74, 72, 80
75, 80, 73
76, 73, 6
*ELEMENT, type=T3D2, ELSET=Line6
77, 6, 81
78, 81, 84
79, 84, 82
80, 82, 85
81, 85, 83
82, 83, 7
*ELEMENT, type=T3D2, ELSET=Line7
83, 7, 86
84, 86, 95
85, 95, 87
86, 87, 96
87, 96, 88
88, 88, 97
89, 97, 89
90, 89, 98
91, 98, 90
92, 90, 99
93, 99, 91
94, 91, 100
95, 100, 92
96, 92, 101
97, 101, 93
98, 93, 102
99, 102, 94
100, 94, 8
*ELEMENT, type=T3D2, ELSET=Line8
101, 8, 103
102, 103, 114
103, 114, 104
104, 104, 115
105, 115, 105
106, 105, 116
107, 116, 106
108, 106, 117
109, 117, 107
110, 107, 118
111, 118, 108
112, 108, 119
113, 119, 109
114, 109, 120
115, 120, 110
116, 110, 121
117, 121, 111
118, 111, 122
119, 122, 112
120, 112, 123
121, 123, 113
122, 113, 1
*ELEMENT, type=T3D2, ELSET=Line9
123, 9, 124
124, 124, 159
125, 159, 157
126, 157, 160
127, 160, 156
128, 156, 161
129, 161, 155
130, 155, 162
131, 162, 154
132, 154, 163
133, 163, 153
134, 153, 164
135, 164, 152
136, 152, 165
137, 165, 151
138, 151, 166
139, 166, 150
140, 150, 167
141, 167, 149
142, 149, 168
143, 168, 148
144, 148, 169
145, 169, 147
146, 147, 170
147, 170, 146
148, 146, 171
149, 171, 145
150, 145, 172
151, 172, 144
152, 144, 173
153, 173, 143
154, 143, 174
155, 174, 142
156, 142, 175
157, 175, 141
158, 141, 176
159, 176, 140
160, 140, 177
161, 177, 139
162, 139, 178
163, 178, 138
164, 138, 179
165, 179, 137
166, 137, 180
167, 180, 136
168, 136, 181
169, 181, 135
170, 135, 182
171, 182, 134
172, 134, 183
173, 183, 133
174, 133, 184
175, 184, 132
176, 132, 185
177, 185, 131
178, 131, 186
179, 186, 130
180, 130, 187
181, 187, 129
182, 129, 188
183, 188, 128
184, 128, 189
185, 189, 127
186, 127, 190
187, 190, 126
188, 126, 191
189, 191, 125
190, 125, 192
191, 192, 158
192, 158, 9
*ELEMENT, type=CPS4, ELSET=Surface1
193, 265, 319, 320, 317
194, 317, 320, 48, 59
195, 320, 318, 58, 48
196, 319, 272, 318, 320
197, 62, 323, 324, 51
198, 51, 324, 321, 61
199, 324, 322, 263, 321
200, 323, 260, 322, 324
201, 208, 195, 233, 394
202, 71, 327, 325, 78
203, 327, 326, 249, 325
204, 435, 230, 311, 341
205, 623, 202, 510, 329
206, 291, 329, 399, 283
207, 37, 407, 292, 44
208, 476, 564, 565, 484
209, 619, 549, 198, 216
210, 382, 389, 72, 80
211, 358, 502, 234, 253
212, 390, 173, 144, 599
213, 444, 529, 610, 570
214, 648, 154, 162, 647
215, 335, 548, 225, 559
216, 468, 161, 156, 526
217, 516, 395, 19, 12
218, 512, 682, 681, 359
219, 496, 442, 439, 238
220, 245, 344, 345, 342
221, 342, 345, 343, 247
222, 345, 68, 76, 343
223, 344, 75, 68, 345
224, 59, 49, 348, 317
225, 317, 348, 346, 265
226, 348, 347, 267, 346
227, 49, 60, 347, 348
228, 331, 174, 143, 520
229, 332, 545, 368, 196
230, 450, 285, 447, 594
231, 481, 211, 371, 194
232, 552, 675, 512, 674
233, 401, 215, 486, 228
234, 661, 660, 506, 360
235, 573, 349, 513, 637
236, 442, 560, 221, 439
237, 495, 634, 207, 195
238, 403, 573, 637, 391
239, 573, 210, 315, 349
240, 645, 511, 611, 591
241, 678, 219, 411, 677
242, 620, 94, 8, 103
243, 63, 53, 366, 363
244, 363, 366, 364, 241
245, 366, 365, 242, 364
246, 53, 64, 365, 366
247, 602, 235, 197, 545
248, 417, 451, 404, 312
249, 472, 666, 552, 374
250, 360, 506, 356, 211
251, 655, 166, 151, 654
252, 435, 176, 141, 230
253, 676, 430, 98, 90
254, 369, 372, 596, 222
255, 486, 594, 548, 335
256, 669, 443, 397, 666
257, 597, 636, 279, 670
258, 402, 113, 1, 10
259, 247, 343, 378, 376
260, 376, 378, 377, 248
261, 378, 69, 77, 377
262, 343, 76, 69, 378
263, 267, 347, 380, 379
264, 379, 380, 321, 263
265, 380, 50, 61, 321
266, 347, 60, 50, 380
267, 218, 475, 107, 118
268, 650, 649, 547, 589
269, 315, 528, 235, 602
270, 642, 669, 666, 472
271, 537, 400, 623, 423
272, 700, 293, 303, 699
273, 400, 281, 202, 623
274, 423, 623, 329, 291
275, 23, 16, 388, 339
276, 339, 388, 387, 199
277, 388, 286, 200, 387
278, 16, 24, 286, 388
279, 634, 401, 228, 207
280, 405, 374, 299, 667
281, 654, 151, 165, 653
282, 651, 164, 153, 650
283, 580, 516, 12, 20
284, 397, 684, 683, 675
285, 411, 194, 418, 430
286, 599, 417, 312, 250
287, 381, 367, 496, 449
288, 572, 354, 229, 672
289, 503, 155, 161, 468
290, 197, 597, 670, 412
291, 612, 687, 686, 448
292, 641, 316, 13, 21
293, 250, 312, 664, 665
294, 235, 203, 597, 197
295, 498, 542, 308, 489
296, 424, 386, 510, 535
297, 318, 274, 47, 58
298, 44, 292, 384, 36
299, 211, 356, 459, 371
300, 662, 147, 169, 661
301, 654, 653, 285, 450
302, 581, 171, 146, 688
303, 210, 440, 528, 315
304, 390, 599, 250, 582
305, 662, 661, 360, 574
306, 631, 289, 705, 706
307, 407, 537, 423, 292
308, 274, 281, 57, 47
309, 46, 57, 281, 400
310, 372, 351, 300, 596
311, 559, 225, 83, 7
312, 672, 229, 218, 603
313, 659, 168, 149, 658
314, 410, 405, 667, 354
315, 216, 198, 122, 112
316, 624, 570, 199, 519
317, 451, 581, 612, 404
318, 63, 363, 414, 52
319, 52, 414, 323, 62
320, 414, 413, 260, 323
321, 363, 241, 413, 414
322, 248, 377, 416, 415
323, 415, 416, 325, 249
324, 416, 70, 78, 325
325, 377, 77, 70, 416
326, 473, 123, 113, 402
327, 688, 663, 226, 679
328, 404, 612, 448, 640
329, 603, 218, 118, 108
330, 65, 55, 422, 420
331, 420, 422, 421, 246
332, 422, 66, 74, 421
333, 55, 5, 66, 422
334, 406, 536, 490, 701
335, 384, 291, 283, 328
336, 500, 271, 696, 532
337, 698, 431, 433, 697
338, 64, 54, 426, 365
339, 365, 426, 425, 242
340, 426, 420, 246, 425
341, 54, 65, 420, 426
342, 246, 421, 428, 427
343, 427, 428, 344, 245
344, 428, 67, 75, 344
345, 421, 74, 67, 428
346, 551, 336, 436, 305
347, 233, 212, 280, 588
348, 666, 397, 675, 552
349, 581, 688, 687, 612
350, 638, 713, 708, 709
351, 592, 260, 413, 577
352, 714, 693, 293, 700
353, 330, 601, 713, 638
354, 451, 145, 171, 581
355, 533, 449, 494, 636
356, 661, 169, 148, 660
357, 599, 144, 172, 417
358, 520, 143, 173, 390
359, 511, 642, 472, 611
360, 350, 525, 614, 571
361, 663, 662, 574, 226
362, 230, 141, 175, 567
363, 479, 478, 236, 298
364, 351, 572, 672, 300
365, 650, 153, 163, 649
366, 673, 391, 641, 217
367, 550, 557, 114, 104
368, 194, 371, 587, 418
369, 657, 656, 401, 634
370, 459, 394, 517, 309
371, 331, 520, 392, 284
372, 647, 162, 155, 503
373, 409, 559, 7, 86
374, 507, 350, 571, 546
375, 547, 338, 595, 502
376, 595, 314, 398, 590
377, 457, 28, 26, 469
378, 569, 181, 296, 530
379, 269, 569, 530, 457
380, 722, 471, 38, 31
381, 219, 481, 194, 411
382, 651, 650, 589, 383
383, 652, 152, 164, 651
384, 395, 305, 11, 19
385, 243, 465, 466, 463
386, 463, 466, 464, 240
387, 466, 376, 248, 464
388, 465, 247, 376, 466
389, 528, 538, 203, 235
390, 305, 436, 18, 11
391, 667, 299, 206, 671
392, 238, 439, 351, 372
393, 629, 470, 521, 455
394, 718, 716, 129, 187
395, 556, 133, 183, 134
396, 717, 482, 456, 628
397, 640, 448, 443, 669
398, 300, 672, 603, 396
399, 586, 139, 177, 568
400, 311, 501, 613, 480
401, 270, 433, 424, 408
402, 693, 328, 283, 293
403, 699, 303, 431, 698
404, 460, 359, 340, 237
405, 586, 419, 178, 139
406, 679, 226, 219, 678
407, 529, 22, 15, 610
408, 253, 234, 518, 301
409, 461, 142, 174, 331
410, 656, 655, 215, 401
411, 658, 657, 634, 495
412, 647, 503, 507, 278
413, 646, 514, 440, 210
414, 522, 193, 269, 458
415, 470, 522, 458, 521
416, 521, 458, 469, 297
417, 628, 456, 522, 470
418, 633, 262, 584, 615
419, 553, 261, 593, 493
420, 542, 276, 616, 308
421, 277, 489, 578, 531
422, 607, 284, 334, 441
423, 568, 352, 514, 646
424, 222, 596, 393, 644
425, 449, 496, 238, 494
426, 488, 492, 592, 566
427, 554, 565, 346, 267
428, 485, 585, 555, 598
429, 259, 498, 489, 277
430, 694, 270, 408, 264
431, 257, 307, 618, 268
432, 635, 256, 276, 542
433, 392, 582, 583, 373
434, 417, 172, 145, 451
435, 583, 665, 511, 645
436, 586, 568, 646, 403
437, 478, 358, 253, 236
438, 587, 309, 88, 97
439, 520, 390, 582, 392
440, 230, 567, 501, 311
441, 600, 463, 240, 266
442, 593, 499, 244, 493
443, 609, 243, 463, 600
444, 493, 244, 541, 302
445, 659, 658, 495, 357
446, 216, 112, 123, 473
447, 664, 640, 669, 642
448, 586, 673, 444, 419
449, 200, 287, 505, 504
450, 504, 505, 136, 180
451, 505, 296, 181, 136
452, 287, 2, 296, 505
453, 622, 332, 668, 632
454, 668, 551, 305, 395
455, 359, 681, 680, 340
456, 430, 418, 89, 98
457, 626, 385, 406, 701
458, 577, 413, 241, 261
459, 272, 509, 274, 318
460, 329, 510, 386, 399
461, 506, 357, 208, 356
462, 436, 402, 10, 18
463, 396, 603, 108, 119
464, 452, 630, 84, 82
465, 340, 680, 105, 116
466, 237, 340, 116, 106
467, 203, 533, 636, 597
468, 508, 381, 449, 533
469, 234, 590, 355, 518
470, 475, 643, 117, 107
471, 374, 552, 674, 299
472, 198, 446, 111, 122
473, 567, 175, 142, 461
474, 568, 177, 140, 352
475, 441, 334, 337, 367
476, 352, 140, 176, 435
477, 295, 294, 524, 193
478, 523, 184, 133, 556
479, 456, 295, 193, 522
480, 471, 628, 470, 629
481, 660, 148, 168, 659
482, 367, 337, 442, 496
483, 526, 275, 239, 525
484, 156, 160, 275, 526
485, 527, 695, 289, 631
486, 500, 532, 702, 694
487, 192, 715, 692, 158
488, 408, 424, 535, 604
489, 226, 574, 481, 219
490, 624, 519, 179, 138
491, 653, 652, 304, 285
492, 649, 648, 338, 547
493, 458, 269, 457, 469
494, 523, 556, 294, 295
495, 524, 135, 181, 569
496, 455, 521, 297, 721
497, 490, 258, 692, 639
498, 290, 554, 262, 633
499, 432, 715, 705, 289
500, 293, 283, 399, 303
501, 549, 515, 446, 198
502, 474, 452, 82, 85
503, 337, 231, 560, 442
504, 229, 671, 475, 218
505, 604, 535, 509, 272
506, 56, 46, 400, 537
507, 35, 43, 328, 693
508, 270, 540, 697, 433
509, 36, 384, 328, 43
510, 532, 696, 695, 527
511, 484, 565, 554, 290
512, 601, 288, 434, 713
513, 677, 411, 430, 676
514, 596, 300, 396, 393
515, 544, 480, 508, 538
516, 352, 435, 341, 514
517, 268, 618, 157, 159
518, 179, 519, 543, 137
519, 137, 543, 504, 180
520, 543, 387, 200, 504
521, 519, 199, 387, 543
522, 196, 368, 549, 619
523, 373, 583, 645, 231
524, 280, 409, 86, 95
525, 480, 613, 381, 508
526, 338, 278, 314, 595
527, 231, 645, 591, 560
528, 355, 382, 80, 73
529, 304, 383, 478, 479
530, 538, 508, 533, 203
531, 571, 614, 326, 310
532, 312, 404, 640, 664
533, 673, 217, 529, 444
534, 308, 616, 617, 201
535, 256, 553, 493, 302
536, 483, 268, 159, 124
537, 615, 584, 492, 488
538, 722, 131, 185, 717
539, 556, 134, 182, 294
540, 471, 629, 30, 38
541, 482, 132, 184, 523
542, 316, 580, 20, 13
543, 663, 170, 147, 662
544, 590, 398, 382, 355
545, 487, 310, 255, 389
546, 652, 651, 383, 304
547, 546, 571, 310, 487
548, 310, 326, 327, 255
549, 221, 410, 354, 572
550, 502, 595, 590, 234
551, 334, 373, 231, 337
552, 332, 196, 551, 668
553, 513, 632, 516, 580
554, 249, 562, 563, 415
555, 415, 563, 464, 248
556, 563, 561, 240, 464
557, 562, 239, 561, 563
558, 585, 615, 488, 491
559, 565, 564, 265, 346
560, 532, 527, 288, 702
561, 261, 241, 364, 593
562, 554, 267, 379, 262
563, 223, 606, 110, 121
564, 588, 280, 95, 87
565, 653, 165, 152, 652
566, 514, 341, 544, 440
567, 455, 721, 27, 3
568, 482, 523, 295, 456
569, 530, 25, 28, 457
570, 294, 182, 135, 524
571, 440, 544, 538, 528
572, 252, 335, 559, 409
573, 671, 206, 643, 475
574, 354, 667, 671, 229
575, 636, 494, 369, 279
576, 670, 279, 205, 497
577, 412, 670, 497, 515
578, 545, 197, 412, 368
579, 245, 575, 576, 427
580, 427, 576, 425, 246
581, 576, 499, 242, 425
582, 575, 244, 499, 576
583, 608, 566, 621, 635
584, 566, 592, 577, 621
585, 244, 575, 579, 541
586, 541, 579, 465, 243
587, 579, 342, 247, 465
588, 575, 245, 342, 579
589, 212, 252, 409, 280
590, 443, 685, 684, 397
591, 236, 253, 301, 630
592, 278, 507, 546, 314
593, 299, 674, 460, 206
594, 497, 205, 606, 223
595, 215, 450, 594, 486
596, 307, 277, 531, 618
597, 492, 322, 260, 592
598, 617, 266, 240, 561
599, 616, 600, 266, 617
600, 454, 298, 452, 474
601, 630, 301, 81, 84
602, 419, 444, 570, 624
603, 314, 546, 487, 398
604, 548, 454, 474, 225
605, 586, 403, 391, 673
606, 383, 589, 358, 478
607, 349, 622, 632, 513
608, 618, 531, 160, 157
609, 364, 242, 499, 593
610, 692, 258, 9, 158
611, 574, 360, 211, 481
612, 285, 304, 479, 447
613, 461, 331, 284, 607
614, 619, 216, 473, 336
615, 518, 355, 73, 6
616, 206, 460, 237, 643
617, 356, 208, 394, 459
618, 674, 512, 359, 460
619, 584, 263, 322, 492
620, 262, 379, 263, 584
621, 276, 609, 600, 616
622, 489, 308, 201, 578
623, 205, 222, 644, 606
624, 494, 238, 372, 369
625, 368, 412, 515, 549
626, 557, 620, 103, 114
627, 302, 541, 243, 609
628, 696, 432, 289, 695
629, 476, 264, 605, 564
630, 555, 259, 277, 307
631, 217, 641, 21, 14
632, 446, 223, 121, 111
633, 336, 473, 402, 436
634, 501, 607, 441, 613
635, 385, 290, 633, 485
636, 564, 605, 319, 265
637, 605, 604, 272, 319
638, 257, 268, 483, 536
639, 357, 495, 195, 208
640, 655, 654, 450, 215
641, 644, 393, 109, 120
642, 341, 311, 480, 544
643, 585, 491, 259, 555
644, 256, 302, 609, 276
645, 540, 601, 330, 697
646, 613, 441, 367, 381
647, 656, 150, 166, 655
648, 301, 518, 6, 81
649, 418, 587, 97, 89
650, 637, 513, 580, 316
651, 389, 255, 79, 72
652, 610, 15, 23, 339
653, 431, 386, 424, 433
654, 292, 423, 291, 384
655, 598, 257, 536, 406
656, 535, 510, 202, 509
657, 611, 472, 374, 405
658, 560, 591, 410, 221
659, 349, 315, 602, 622
660, 439, 221, 572, 351
661, 249, 326, 614, 562
662, 562, 614, 525, 239
663, 255, 327, 71, 79
664, 207, 228, 252, 212
665, 621, 577, 261, 553
666, 608, 635, 542, 498
667, 500, 694, 264, 476
668, 217, 14, 22, 529
669, 649, 163, 154, 648
670, 468, 526, 525, 350
671, 196, 619, 336, 551
672, 225, 474, 85, 83
673, 606, 644, 120, 110
674, 643, 237, 106, 117
675, 394, 233, 588, 517
676, 491, 608, 498, 259
677, 271, 639, 432, 696
678, 258, 483, 124, 9
679, 201, 617, 561, 239
680, 491, 488, 566, 608
681, 598, 555, 307, 257
682, 622, 602, 545, 332
683, 447, 479, 298, 454
684, 515, 497, 223, 446
685, 385, 485, 598, 406
686, 42, 35, 693, 714
687, 639, 692, 715, 432
688, 284, 392, 373, 334
689, 632, 668, 395, 516
690, 309, 517, 96, 88
691, 2, 287, 625, 17
692, 17, 625, 286, 24
693, 287, 200, 286, 625
694, 701, 490, 639, 271
695, 434, 631, 706, 707
696, 713, 434, 707, 708
697, 509, 202, 281, 274
698, 702, 288, 601, 540
699, 626, 484, 290, 385
700, 469, 26, 29, 297
701, 193, 524, 569, 269
702, 717, 185, 132, 482
703, 296, 2, 25, 530
704, 629, 455, 3, 30
705, 297, 29, 27, 721
706, 448, 686, 685, 443
707, 419, 624, 138, 178
708, 371, 459, 309, 587
709, 391, 637, 316, 641
710, 658, 149, 167, 657
711, 665, 664, 642, 511
712, 288, 527, 631, 434
713, 303, 399, 386, 431
714, 694, 702, 540, 270
715, 657, 167, 150, 656
716, 660, 659, 357, 506
717, 688, 146, 170, 663
718, 536, 483, 258, 490
719, 485, 633, 615, 585
720, 531, 578, 275, 160
721, 589, 547, 502, 358
722, 403, 646, 210, 573
723, 675, 683, 682, 512
724, 635, 621, 553, 256
725, 578, 201, 239, 275
726, 648, 647, 278, 338
727, 195, 207, 212, 233
728, 594, 447, 454, 548
729, 393, 396, 119, 109
730, 279, 369, 222, 205
731, 570, 610, 339, 199
732, 45, 56, 537, 407
733, 4, 45, 407, 37
734, 298, 236, 630, 452
735, 591, 611, 405, 410
736, 398, 487, 389, 382
737, 503, 468, 350, 507
738, 582, 250, 665, 583
739, 228, 486, 335, 252
740, 517, 588, 87, 96
741, 567, 461, 607, 501
742, 453, 550, 104, 115
743, 680, 453, 115, 105
744, 558, 102, 94, 620
745, 438, 558, 620, 557
746, 462, 438, 557, 550
747, 204, 462, 550, 453
748, 681, 204, 453, 680
749, 232, 93, 102, 558
750, 209, 232, 558, 438
751, 306, 209, 438, 462
752, 251, 306, 462, 204
753, 682, 251, 204, 681
754, 353, 101, 93, 232
755, 220, 353, 232, 209
756, 362, 220, 209, 306
757, 227, 362, 306, 251
758, 683, 227, 251, 682
759, 333, 92, 101, 353
760, 534, 333, 353, 220
761, 467, 534, 220, 362
762, 477, 467, 362, 227
763, 684, 477, 227, 683
764, 254, 100, 92, 333
765, 361, 254, 333, 534
766, 429, 361, 534, 467
767, 445, 429, 467, 477
768, 685, 445, 477, 684
769, 224, 91, 100, 254
770, 370, 224, 254, 361
771, 313, 370, 361, 429
772, 214, 313, 429, 445
773, 686, 214, 445, 685
774, 539, 99, 91, 224
775, 213, 539, 224, 370
776, 375, 213, 370, 313
777, 437, 375, 313, 214
778, 687, 437, 214, 686
779, 676, 90, 99, 539
780, 677, 676, 539, 213
781, 678, 677, 213, 375
782, 679, 678, 375, 437
783, 688, 679, 437, 687
784, 264, 408, 604, 605
785, 500, 476, 484, 626
786, 500, 626, 701, 271
787, 627, 698, 697, 330
788, 273, 627, 330, 638
789, 710, 273, 638, 709
790, 282, 699, 698, 627
791, 689, 282, 627, 273
792, 711, 689, 273, 710
793, 690, 700, 699, 282
794, 691, 690, 282, 689
795, 712, 691, 689, 711
796, 703, 714, 700, 690
797, 704, 703, 690, 691
798, 716, 704, 691, 712
799, 703, 34, 42, 714
800, 704, 41, 34, 703
801, 716, 33, 41, 704
802, 719, 718, 187, 130
803, 722, 717, 628, 471
804, 705, 715, 192, 125
805, 706, 705, 125, 191
806, 707, 706, 191, 126
807, 708, 707, 126, 190
808, 709, 708, 190, 127
809, 710, 709, 127, 189
810, 711, 710, 189, 128
811, 712, 711, 128, 188
812, 716, 712, 188, 129
813, 720, 719, 130, 186
814, 722, 720, 186, 131
815, 718, 40, 33, 716
816, 719, 32, 40, 718
817, 720, 39, 32, 719
818, 722, 31, 39, 720
*ELSET,ELSET=contact_source
101, 102, 103, 104, 105, 106, 107, 108, 109, 110, 
111, 112, 113, 114, 115, 116, 117, 118, 119, 120, 
121, 122, 
*ELSET,ELSET=contact_drain
39, 40, 41, 42, 43, 44, 45, 46, 47, 48, 
49, 50, 51, 52, 53, 54, 55, 56, 57, 58, 
59, 60, 
*ELSET,ELSET=probe_A
77, 78, 79, 80, 81, 82, 
*ELSET,ELSET=probe_B
17, 18, 19, 20, 21, 22, 
*ELSET,ELSET=walls
1, 2, 3, 4, 5, 6, 7, 8, 9, 10, 
11, 12, 13, 14, 15, 16, 23, 24, 25, 26, 
27, 28, 29, 30, 31, 32, 33, 34, 35, 36, 
37, 38, 61, 62, 63, 64, 65, 66, 67, 68, 
69, 70, 71, 72, 73, 74, 75, 76, 83, 84, 
85, 86, 87, 88, 89, 90, 91, 92, 93, 94, 
95, 96, 97, 98, 99, 100, 123, 124, 125, 126, 
127, 128, 129, 130, 131, 132, 133, 134, 135, 136, 
137, 138, 139, 140, 141, 142, 143, 144, 145, 146, 
147, 148, 149, 150, 151, 152, 153, 154, 155, 156, 
157, 158, 159, 160, 161, 162, 163, 164, 165, 166, 
167, 168, 169, 170, 171, 172, 173, 174, 175, 176, 
177, 178, 179, 180, 181, 182, 183, 184, 185, 186, 
187, 188, 189, 190, 191, 192, 
*ELSET,ELSET=domain
193, 194, 195, 196, 197, 198, 199, 200, 201, 202, 
203, 204, 205, 206, 207, 208, 209, 210, 211, 212, 
213, 214, 215, 216, 217, 218, 219, 220, 221, 222, 
223, 224, 225, 226, 227, 228, 229, 230, 231, 232, 
233, 234, 235, 236, 237, 238, 239, 240, 241, 242, 
243, 244, 245, 246, 247, 248, 249, 250, 251, 252, 
253, 254, 255, 256, 257, 258, 259, 260, 261, 262, 
263, 264, 265, 266, 267, 268, 269, 270, 271, 272, 
273, 274, 275, 276, 277, 278, 279, 280, 281, 282, 
283, 284, 285, 286, 287, 288, 289, 290, 291, 292, 
293, 294, 295, 296, 297, 298, 299, 300, 301, 302, 
303, 304, 305, 306, 307, 308, 309, 310, 311, 312, 
313, 314, 315, 316, 317, 318, 319, 320, 321, 322, 
323, 324, 325, 326, 327, 328, 329, 330, 331, 332, 
333, 334, 335, 336, 337, 338, 339, 340, 341, 342, 
343, 344, 345, 346, 347, 348, 349, 350, 351, 352, 
353, 354, 355, 356, 357, 358, 359, 360, 361, 362, 
363, 364, 365, 366, 367, 368, 369, 370, 371, 372, 
373, 374, 375, 376, 377, 378, 379, 380, 381, 382, 
383, 384, 385, 386, 387, 388, 389, 390, 391, 392, 
393, 394, 395, 396, 397, 398, 399, 400, 401, 402, 
403, 404, 405, 406, 407, 408, 409, 410, 411, 412, 
413, 414, 415, 416, 417, 418, 419, 420, 421, 422, 
423, 424, 425, 426, 427, 428, 429, 430, 431, 432, 
433, 434, 435, 436, 437, 438, 439, 440, 441, 442, 
443, 444, 445, 446, 447, 448, 449, 450, 451, 452, 
453, 454, 455, 456, 457, 458, 459, 460, 461, 462, 
463, 464, 465, 466, 467, 468, 469, 470, 471, 472, 
473, 474, 475, 476, 477, 478, 479, 480, 481, 482, 
483, 484, 485, 486, 487, 488, 489, 490, 491, 492, 
493, 494, 495, 496, 497, 498, 499, 500, 501, 502, 
503, 504, 505, 506, 507, 508, 509, 510, 511, 512, 
513, 514, 515, 516, 517, 518, 519, 520, 521, 522, 
523, 524, 525, 526, 527, 528, 529, 530, 531, 532, 
533, 534, 535, 536, 537, 538, 539, 540, 541, 542, 
543, 544, 545, 546, 547, 548, 549, 550, 551, 552, 
553, 554, 555, 556, 557, 558, 559, 560, 561, 562, 
563, 564, 565, 566, 567, 568, 569, 570, 571, 572, 
573, 574, 575, 576, 577, 578, 579, 580, 581, 582, 
583, 584, 585, 586, 587, 588, 589, 590, 591, 592, 
593, 594, 595, 596, 597, 598, 599, 600, 601, 602, 
603, 604, 605, 606, 607, 608, 609, 610, 611, 612, 
613, 614, 615, 616, 617, 618, 619, 620, 621, 622, 
623, 624, 625, 626, 627, 628, 629, 630, 631, 632, 
633, 634, 635, 636, 637, 638, 639, 640, 641, 642, 
643, 644, 645, 646, 647, 648, 649, 650, 651, 652, 
653, 654, 655, 656, 657, 658, 659, 660, 661, 662, 
663, 664, 665, 666, 667, 668, 669, 670, 671, 672, 
673, 674, 675, 676, 677, 678, 679, 680, 681, 682, 
683, 684, 685, 686, 687, 688, 689, 690, 691, 692, 
693, 694, 695, 696, 697, 698, 699, 700, 701, 702, 
703, 704, 705, 706, 707, 708, 709, 710, 711, 712, 
713, 714, 715, 716, 717, 718, 719, 720, 721, 722, 
723, 724, 725, 726, 727, 728, 729, 730, 731, 732, 
733, 734, 735, 736, 737, 738, 739, 740, 741, 742, 
743, 744, 745, 746, 747, 748, 749, 750, 751, 752, 
753, 754, 755, 756, 757, 758, 759, 760, 761, 762, 
763, 764, 765, 766, 767, 768, 769, 770, 771, 772, 
773, 774, 775, 776, 777, 778, 779, 780, 781, 782, 
783, 784, 785, 786, 787, 788, 789, 790, 791, 792, 
793, 794, 795, 796, 797, 798, 799, 800, 801, 802, 
803, 804, 805, 806, 807, 808, 809, 810, 811, 812, 
813, 814, 815, 816, 817, 818, 
*NSET,NSET=contact_source
1, 8, 103, 104, 105, 106, 107, 108, 109, 110, 
111, 112, 113, 114, 115, 116, 117, 118, 119, 120, 
121, 122, 123, 
*NSET,NSET=contact_drain
4, 5, 45, 46, 47, 48, 49, 50, 51, 52, 
53, 54, 55, 56, 57, 58, 59, 60, 61, 62, 
63, 64, 65, 
*NSET,NSET=probe_A
6, 7, 81, 82, 83, 84, 85, 
*NSET,NSET=probe_B
2, 3, 25, 26, 27, 28, 29, 
*NSET,NSET=walls
1, 2, 3, 4, 5, 6, 7, 8, 9, 10, 
11, 12, 13, 14, 15, 16, 17, 18, 19, 20, 
21, 22, 23, 24, 30, 31, 32, 33, 34, 35, 
36, 37, 38, 39, 40, 41, 42, 43, 44, 66, 
67, 68, 69, 70, 71, 72, 73, 74, 75, 76, 
77, 78, 79, 80, 86, 87, 88, 89, 90, 91, 
92, 93, 94, 95, 96, 97, 98, 99, 100, 101, 
102, 124, 125, 126, 127, 128, 129, 130, 131, 132, 
133, 134, 135, 136, 137, 138, 139, 140, 141, 142, 
143, 144, 145, 146, 147, 148, 149, 150, 151, 152, 
153, 154, 155, 156, 157, 158, 159, 160, 161, 162, 
163, 164, 165, 166, 167, 168, 169, 170, 171, 172, 
173, 174, 175, 176, 177, 178, 179, 180, 181, 182, 
183, 184, 185, 186, 187, 188, 189, 190, 191, 192, 
*NSET,NSET=domain
1, 2, 3, 4, 5, 6, 7, 8, 9, 10, 
11, 12, 13, 14, 15, 16, 17, 18, 19, 20, 
21, 22, 23, 24, 25, 26, 27, 28, 29, 30, 
31, 32, 33, 34, 35, 36, 37, 38, 39, 40, 
41, 42, 43, 44, 45, 46, 47, 48, 49, 50, 
51, 52, 53, 54, 55, 56, 57, 58, 59, 60, 
61, 62, 63, 64, 65, 66, 67, 68, 69, 70, 
71, 72, 73, 74, 75, 76, 77, 78, 79, 80, 
81, 82, 83, 84, 85, 86, 87, 88, 89, 90, 
91, 92, 93, 94, 95, 96, 97, 98, 99, 100, 
101, 102, 103, 104, 105, 106, 107, 108, 109, 110, 
111, 112, 113, 114, 115, 116, 117, 118, 119, 120, 
121, 122, 123, 124, 125, 126, 127, 128, 129, 130, 
131, 132, 133, 134, 135, 136, 137, 138, 139, 140, 
141, 142, 143, 144, 145, 146, 147, 148, 149, 150, 
151, 152, 153, 154, 155, 156, 157, 158, 159, 160, 
161, 162, 163, 164, 165, 166, 167, 168, 169, 170, 
171, 172, 173, 174, 175, 176, 177, 178, 179, 180, 
181, 182, 183, 184, 185, 186, 187, 188, 189, 190, 
191, 192, 193, 194, 195, 196, 197, 198, 199, 200, 
201, 202, 203, 204, 205, 206, 207, 208, 209, 210, 
211, 212, 213, 214, 215, 216, 217, 218, 219, 220, 
221, 222, 223, 224, 225, 226, 227, 228, 229, 230, 
231, 232, 233, 234, 235, 236, 237, 238, 239, 240, 
241, 242, 243, 244, 245, 246, 247, 248, 249, 250, 
251, 252, 253, 254, 255, 256, 257, 258, 259, 260, 
261, 262, 263, 264, 265, 266, 267, 268, 269, 270, 
271, 272, 273, 274, 275, 276, 277, 278, 279, 280, 
281, 282, 283, 284, 285, 286, 287, 288, 289, 290, 
291, 292, 293, 294, 295, 296, 297, 298, 299, 300, 
301, 302, 303, 304, 305, 306, 307, 308, 309, 310, 
311, 312, 313, 314, 315, 316, 317, 318, 319, 320, 
321, 322, 323, 324, 325, 326, 327, 328, 329, 330, 
331, 332, 333, 334, 335, 336, 337, 338, 339, 340, 
341, 342, 343, 344, 345, 346, 347, 348, 349, 350, 
351, 352, 353, 354, 355, 356, 357, 358, 359, 360, 
361, 362, 363, 364, 365, 366, 367, 368, 369, 370, 
371, 372, 373, 374, 375, 376, 377, 378, 379, 380, 
381, 382, 383, 384, 385, 386, 387, 388, 389, 390, 
391, 392, 393, 394, 395, 396, 397, 398, 399, 400, 
401, 402, 403, 404, 405, 406, 407, 408, 409, 410, 
411, 412, 413, 414, 415, 416, 417, 418, 419, 420, 
421, 422, 423, 424, 425, 426, 427, 428, 429, 430, 
431, 432, 433, 434, 435, 436, 437, 438, 439, 440, 
441, 442, 443, 444, 445, 446, 447, 448, 449, 450, 
451, 452, 453, 454, 455, 456, 457, 458, 459, 460, 
461, 462, 463, 464, 465, 466, 467, 468, 469, 470, 
471, 472, 473, 474, 475, 476, 477, 478, 479, 480, 
481, 482, 483, 484, 485, 486, 487, 488, 489, 490, 
491, 492, 493, 494, 495, 496, 497, 498, 499, 500, 
501, 502, 503, 504, 505, 506, 507, 508, 509, 510, 
511, 512, 513, 514, 515, 516, 517, 518, 519, 520, 
521, 522, 523, 524, 525, 526, 527, 528, 529, 530, 
531, 532, 533, 534, 535, 536, 537, 538, 539, 540, 
541, 542, 543, 544, 545, 546, 547, 548, 549, 550, 
551, 552, 553, 554, 555, 556, 557, 558, 559, 560, 
561, 562, 563, 564, 565, 566, 567, 568, 569, 570, 
571, 572, 573, 574, 575, 576, 577, 578, 579, 580, 
581, 582, 583, 584, 585, 586, 587, 588, 589, 590, 
591, 592, 593, 594, 595, 596, 597, 598, 599, 600, 
601, 602, 603, 604, 605, 606, 607, 608, 609, 610, 
611, 612, 613, 614, 615, 616, 617, 618, 619, 620, 
621, 622, 623, 624, 625, 626, 627, 628, 629, 630, 
631, 632, 633, 634, 635, 636, 637, 638, 639, 640, 
641, 642, 643, 644, 645, 646, 647, 648, 649, 650, 
651, 652, 653, 654, 655, 656, 657, 658, 659, 660, 
661, 662, 663, 664, 665, 666, 667, 668, 669, 670, 
671, 672, 673, 674, 675, 676, 677, 678, 679, 680, 
681, 682, 683, 684, 685, 686, 687, 688, 689, 690, 
691, 692, 693, 694, 695, 696, 697, 698, 699, 700, 
701, 702, 703, 704, 705, 706, 707, 708, 709, 710, 
711, 712, 713, 714, 715, 716, 717, 718, 719, 720, 
721, 722, 
