*Heading
 /Users/juliagao/geometry-optimization-net/scripts/../runs/run2/shape_102.inp
*NODE
1, 0, -0.3, 0
2, 0.425, -0.3, 0
3, 0.575, -0.3, 0
4, 1, -0.3, 0
5, 1, 0.3, 0
6, 0.575, 0.3, 0
7, 0.425, 0.3, 0
8, 0, 0.3, 0
9, 0.6819820755, -0.0220960736, 0
10, 0.025791138378211, -0.3, 0
11, 0.077671560744139, -0.3, 0
12, 0.13025375119793, -0.3, 0
13, 0.1839541305224, -0.3, 0
14, 0.23849500283563, -0.3, 0
15, 0.29289907023719, -0.3, 0
16, 0.3469396916263, -0.3, 0
17, 0.39945482253434, -0.3, 0
18, 0.051582276756422, -0.3, 0
19, 0.10376084473186, -0.3, 0
20, 0.15674665766401, -0.3, 0
21, 0.21116160338079, -0.3, 0
22, 0.26582840229046, -0.3, 0
23, 0.31996973818392, -0.3, 0
24, 0.37390964506869, -0.3, 0
25, 0.44940765041749, -0.3, 0
26, 0.49855410185342, -0.3, 0
27, 0.54914645143593, -0.3, 0
28, 0.47381530083498, -0.3, 0
29, 0.52329290287185, -0.3, 0
30, 0.59880331864737, -0.3, 0
31, 0.6461291119311, -0.3, 0
32, 0.69254305159, -0.3, 0
33, 0.73791379618536, -0.3, 0
34, 0.78321755953248, -0.3, 0
35, 0.82980979009121, -0.3, 0
36, 0.87818611458698, -0.3, 0
37, 0.92732814812157, -0.3, 0
38, 0.97593080197239, -0.3, 0
39, 0.62260663729475, -0.3, 0
40, 0.66965158656745, -0.3, 0
41, 0.71543451661255, -0.3, 0
42, 0.76039307575817, -0.3, 0
43, 0.8060420433068, -0.3, 0
44, 0.85357753687561, -0.3, 0
45, 0.90279469229835, -0.3, 0
46, 0.95186160394479, -0.3, 0
47, 1, -0.27354386044319, 0
48, 1, -0.21966469963341, 0
49, 1, -0.16447263448532, 0
50, 1, -0.1097151851447, 0
51, 1, -0.055894692987515, 0
52, 1, -0.0012393214529733, 0
53, 1, 0.054820835783924, 0
54, 1, 0.1105119185111, 0
55, 1, 0.16525587709738, 0
56, 1, 0.219729386296, 0
57, 1, 0.27345657361074, 0
58, 1, -0.24708772088639, 0
59, 1, -0.19224167838043, 0
60, 1, -0.1367035905902, 0
61, 1, -0.082726779699202, 0
62, 1, -0.029062606275828, 0
63, 1, 0.026583963369881, 0
64, 1, 0.083057708197967, 0
65, 1, 0.13796612882423, 0
66, 1, 0.19254562537053, 0
67, 1, 0.24691314722147, 0
68, 0.97466129933818, 0.3, 0
69, 0.92268437679462, 0.3, 0
70, 0.86819103035241, 0.3, 0
71, 0.81253136679406, 0.3, 0
72, 0.75780756339016, 0.3, 0
73, 0.70431872647889, 0.3, 0
74, 0.6515647114497, 0.3, 0
75, 0.60019013446287, 0.3, 0
76, 0.94932259867636, 0.3, 0
77, 0.89604615491289, 0.3, 0
78, 0.84033590579193, 0.3, 0
79, 0.78472682779618, 0.3, 0
80, 0.73088829898414, 0.3, 0
81, 0.67774915397365, 0.3, 0
82, 0.62538026892574, 0.3, 0
83, 0.55037746662471, 0.3, 0
84, 0.50096790057567, 0.3, 0
85, 0.45059043395096, 0.3, 0
86, 0.52575493324942, 0.3, 0
87, 0.47618086790191, 0.3, 0
88, 0.39853294924017, 0.3, 0
89, 0.34567804885005, 0.3, 0
90, 0.29265977839263, 0.3, 0
91, 0.23953614078087, 0.3, 0
92, 0.18654914844524, 0.3, 0
93, 0.13311157225077, 0.3, 0
94, 0.079361005253012, 0.3, 0
95, 0.026277119449349, 0.3, 0
96, 0.37206589848034, 0.3, 0
97, 0.31929019921977, 0.3, 0
98, 0.26602935756549, 0.3, 0
99, 0.21304292399626, 0.3, 0
100, 0.16005537289421, 0.3, 0
101, 0.10616777160733, 0.3, 0
102, 0.052554238898698, 0.3, 0
103, 0, 0.2734734526561, 0
104, 0, 0.2201514020607, 0
105, 0, 0.16631603187382, 0
106, 0, 0.11194371364481, 0
107, 0, 0.056573437320037, 0
108, 0, 0.00061598900779752, 0
109, 0, -0.054629966886682, 0
110, 0, -0.10870663571663, 0
111, 0, -0.16307223355981, 0
112, 0, -0.21857731200051, 0
113, 0, -0.27323356440728, 0
114, 0, 0.2469469053122, 0
115, 0, 0.1933558988092, 0
116, 0, 0.13927616493843, 0
117, 0, 0.084611262351197, 0
118, 0, 0.028535612288876, 0
119, 0, -0.027303634273281, 0
120, 0, -0.081956299500084, 0
121, 0, -0.13545697193317, 0
122, 0, -0.19068749518645, 0
123, 0, -0.24646712881456, 0
124, 0.68087485916829, 0.0065800281271122, 0
125, 0.7427603301576, -0.082843763491893, 0
126, 0.77952003746146, -0.12697500323333, 0
127, 0.80282603557585, -0.17799956554706, 0
128, 0.79655890876159, -0.23053779739133, 0
129, 0.75418099483715, -0.2570742721164, 0
130, 0.70459882955307, -0.25592223002632, 0
131, 0.6561349786866, -0.24055301070316, 0
132, 0.60917286420462, -0.21648103898162, 0
133, 0.56355469552928, -0.19146188229412, 0
134, 0.51671029790756, -0.21317720810461, 0
135, 0.47598845663476, -0.24632870978277, 0
136, 0.42499670307657, -0.24553210620886, 0
137, 0.38337218300558, -0.21144613598781, 0
138, 0.33455233366888, -0.18396360468164, 0
139, 0.28328729354964, -0.16273644871585, 0
140, 0.2498592448594, -0.12111664818205, 0
141, 0.25650374939163, -0.068400509538431, 0
142, 0.28430788245298, -0.022858912976334, 0
143, 0.29899848183716, 0.027438131634466, 0
144, 0.28386416333301, 0.079144288228121, 0
145, 0.27680912853839, 0.13366710334658, 0
146, 0.29597387198745, 0.18469071825004, 0
147, 0.34011282450846, 0.21578946414209, 0
148, 0.39259952970407, 0.22930029463071, 0
149, 0.44715377549167, 0.23275718612337, 0
150, 0.4995515598058, 0.21889125369739, 0
151, 0.53968166753565, 0.18314903845314, 0
152, 0.56817815598433, 0.13767535960921, 0
153, 0.61565295345716, 0.11385200998058, 0
154, 0.67001278304179, 0.10433822615437, 0
155, 0.69739381020079, 0.058223612479185, 0
156, 0.70073380746434, -0.043730993566892, 0
157, 0.69085589575017, 0.031453117777204, 0
158, 0.69144552810015, 0.085879263553508, 0
159, 0.64337470576481, 0.11167303904067, 0
160, 0.58809192787966, 0.11881532727373, 0
161, 0.5544997026109, 0.16064581335123, 0
162, 0.52157969228513, 0.20317663918306, 0
163, 0.47434038937124, 0.22874122610256, 0
164, 0.41973018611977, 0.23238073699159, 0
165, 0.36581251797216, 0.22398828561526, 0
166, 0.3161930089445, 0.20318833466102, 0
167, 0.28246243293185, 0.16079684819898, 0
168, 0.27798695620395, 0.10606753196853, 0
169, 0.29214586642865, 0.052901016266719, 0
170, 0.29698946565046, 0.00053999734308441, 0
171, 0.26949911294809, -0.044837263620958, 0
172, 0.2486645882361, -0.094262267155941, 0
173, 0.26229460866832, -0.14504099994325, 0
174, 0.307869530791, -0.17457286979212, 0
175, 0.36067111938438, -0.1949766372491, 0
176, 0.40373518676537, -0.23050995135951, 0
177, 0.45056236822214, -0.25203933424185, 0
178, 0.49756805316061, -0.23220476862986, 0
179, 0.53588425442409, -0.19417855320336, 0
180, 0.58602760705835, -0.20283153939812, 0
181, 0.6327067889202, -0.22946154538693, 0
182, 0.68041192118136, -0.24966003331795, 0
183, 0.72943544135952, -0.25883962903987, 0
184, 0.77763047680668, -0.24858234160188, 0
185, 0.80483701323709, -0.20580732429929, 0
186, 0.79363712315894, -0.15183323393835, 0
187, 0.7623251352123, -0.10416845718364, 0
188, 0.72181035052796, -0.062893021308375, 0
189, 0.57547992979618, -0.25176772194354, 0
190, 0.10335075430222, -0.24481646106339, 0
191, 0.05129600093858, -0.24533403059489, 0
192, 0.15743778895628, -0.24468880717558, 0
193, 0.26864363892845, -0.27738129540964, 0
194, 0.21543672830442, -0.24704293564936, 0
195, 0.35649690401938, -0.25672971538423, 0
196, 0.34624875136649, -0.24065733567451, 0
197, 0.55552264095827, 0.24728379569936, 0
198, 0.8494396424322, -0.24999044498609, 0
199, 0.90046281121316, -0.24832656440628, 0
200, 0.95038407477644, -0.24725610072144, 0
201, 0.094074266034807, -0.0032688627642551, 0
202, 0.09891404447415, -0.16212045010959, 0
203, 0.26304279413052, 0.0061695488667313, 0
204, 0.25373487702514, 0.20704654184006, 0
205, 0.14742708933642, 0.1561344735104, 0
206, 0.20069452517507, -0.083311774658561, 0
207, 0.16176811428266, -0.032958254868413, 0
208, 0.28337402089739, 0.20611975866467, 0
209, 0.15195681149351, 0.21319741665346, 0
210, 0.12488523107489, 0.18621052604902, 0
211, 0.13948460965111, -0.031715476434129, 0
212, 0.36894924761377, 0.26152986632283, 0
213, 0.12058848060669, 0.1027875434996, 0
214, 0.47318002754605, 0.26339453271721, 0
215, 0.42206600800106, 0.26518846903478, 0
216, 0.26342496789159, 0.057500531226601, 0
217, 0.18572989257299, -0.0095389278238402, 0
218, 0.070718823769338, -0.0021561173073053, 0
219, 0.16100733361797, -0.05792339097568, 0
220, 0.23197092739885, -0.10991299341483, 0
221, 0.23225617441106, 0.24008870763157, 0
222, 0.023790306879192, -0.081943732923152, 0
223, 0.14120394695872, 0.020172892525054, 0
224, 0.023731032647365, 0.027349330820041, 0
225, 0.21925452776031, -0.18426407440995, 0
226, 0.25765039647126, -0.20169698961974, 0
227, 0.18312440693999, -0.10553227546409, 0
228, 0.10086462157515, -0.18948121663121, 0
229, 0.15345658009817, -0.18768779905204, 0
230, 0.20214976670566, 0.21023142069006, 0
231, 0.050187244703488, -0.19032876758074, 0
232, 0.094411214214333, -0.082372668964672, 0
233, 0.077244282474268, 0.24453968710957, 0
234, 0.19031504780651, 0.068282441784106, 0
235, 0.024023232456149, -0.10882006236045, 0
236, 0.093899657813909, -0.056114293764475, 0
237, 0.024788995126011, 0.16472873014195, 0
238, 0.1195910374277, 0.07554301449673, 0
239, 0.095137997766251, 0.050343853687651, 0
240, 0.23422146139578, -0.088871641623804, 0
241, 0.8418004458905, 0.1778507833611, 0
242, 0.78415593862854, 0.19468285929359, 0
243, 0.84481532953966, 0.12419824920467, 0
244, 0.8958263697026, 0.12957276169543, 0
245, 0.94779564266472, 0.13390441571489, 0
246, 0.94757141342392, 0.18886327892541, 0
247, 0.89485262038649, 0.18448366900009, 0
248, 0.89447980137951, 0.24155232853802, 0
249, 0.94775725150854, 0.24436857832505, 0
250, 0.83969585830271, 0.23702201150194, 0
251, 0.63784096659153, 0.25996866596688, 0
252, 0.62098823849181, 0.22109192442305, 0
253, 0.517506217724, 0.25735968522797, 0
254, 0.56026243468759, 0.21113375929069, 0
255, 0.76175544731131, 0.11020506952842, 0
256, 0.79715258942432, 0.11719001723831, 0
257, 0.84526776514951, 0.073067502590324, 0
258, 0.75090625029198, 0.074790802953933, 0
259, 0.71363496728193, -0.034703901616745, 0
260, 0.79197606556321, 0.022476335779002, 0
261, 0.79673401101687, 0.0716022301102, 0
262, 0.89607042821799, 0.075963648928464, 0
263, 0.94787286217145, 0.079251057690055, 0
264, 0.89529354775797, 0.022268256772536, 0
265, 0.84319958050388, 0.021116844320379, 0
266, 0.94762805736938, 0.024401793919498, 0
267, 0.84433996274356, -0.14630753267739, 0
268, 0.89418423337504, -0.087589208605741, 0
269, 0.94743855223737, -0.085068843165062, 0
270, 0.94732138143374, -0.030458051083557, 0
271, 0.89420214031477, -0.032291052632673, 0
272, 0.83999102990325, -0.033309624299915, 0
273, 0.83826538322729, -0.090938102849694, 0
274, 0.78486928322987, -0.030701981592111, 0
275, 0.71681925311194, 0.02995268965811, 0
276, 0.62534833907416, -0.26124485447101, 0
277, 0.84915109093113, -0.19948654434745, 0
278, 0.89871301409751, -0.19599331138908, 0
279, 0.94929908109105, -0.19375583846262, 0
280, 0.94822609937517, -0.13952468565969, 0
281, 0.89629848632684, -0.1423746858701, 0
282, 0.049530347838225, 0.16316063900454, 0
283, 0.047237548876837, -0.055228304999647, 0
284, 0.12320303694714, 0.15813308457343, 0
285, 0.76253296167115, 0.1552446825831, 0
286, 0.69318361021168, 0.25505810728112, 0
287, 0.74987233761973, 0.21869895299787, 0
288, 0.74206572183306, 0.027269770625011, 0
289, 0.73813758687476, 0.0030842510288162, 0
290, 0.048973671742235, 0.13576462973393, 0
291, 0.023636869585412, -0.0002322677652647, 0
292, 0.14570875799058, 0.12816079211295, 0
293, 0.27782230028078, -0.23325453660684, 0
294, 0.27024331616393, -0.18069401781469, 0
295, 0.54375470154647, 0.22489422623384, 0
296, 0.51558491918136, 0.23618581414043, 0
297, 0.53694538752691, 0.25439037873329, 0
298, 0.79993359974604, -0.27674021379439, 0
299, 0.76515900216584, -0.27874820263799, 0
300, 0.20217642648898, -0.060388848048574, 0
301, 0.04799117381346, -0.10887836106269, 0
302, 0.58834082485005, 0.26813593963853, 0
303, 0.5788587426933, 0.19665287499027, 0
304, 0.12879351764423, 0.24293439022764, 0
305, 0.12177395138168, 0.13031862512248, 0
306, 0.21397316015624, 0.065145131497086, 0
307, 0.023604634613147, -0.027692821697296, 0
308, 0.17705802249231, 0.21177461312869, 0
309, 0.23719300494612, 0.1155072171853, 0
310, 0.070581024527526, -0.028975504220767, 0
311, 0.18239732397873, -0.18617163093809, 0
312, 0.21530678424772, 0.11945335724505, 0
313, 0.64827472307367, -0.26191536652755, 0
314, 0.62742833886668, -0.24431494421224, 0
315, 0.24203093956588, -0.16338117136146, 0
316, 0.14322989958326, 0.073419905355375, 0
317, 0.1630430653883, -0.0075828993893975, 0
318, 0.29734176317101, -0.25898229467619, 0
319, 0.29645096387042, -0.19274286814072, 0
320, 0.24482926981609, -0.25084642209772, 0
321, 0.27234105964656, -0.25508764567444, 0
322, 0.096670966132247, 0.10476287515436, 0
323, 0.20607474527261, 0.24047947329099, 0
324, 0.21647260656714, -0.14110128791486, 0
325, 0.14953758051813, 0.18450254132156, 0
326, 0.025607738846353, -0.24573692364829, 0
327, 0.051545168236885, -0.27270291861108, 0
328, 0.025737884946753, -0.27292170337769, 0
329, 0.047152250194399, -0.028275174630908, 0
330, 0.26531443727394, 0.031712280431271, 0
331, 0.02426672773817, 0.11012294401306, 0
332, 0.024512548882052, 0.13748226097935, 0
333, 0.69505540729801, 0.13368193844428, 0
334, 0.62172303271546, 0.17006242640024, 0
335, 0.26292446343945, 0.27126367490237, 0
336, 0.31723706391553, 0.2763533413499, 0
337, 0.2900897733156, 0.27321743454241, 0
338, 0.9476735171966, 0.16131374703387, 0
339, 0.97380847152733, 0.19072704625211, 0
340, 0.97388723698343, 0.13592376638583, 0
341, 0.97383975808905, 0.16330879098267, 0
342, 0.23727453183534, 0.088161985331249, 0
343, 0.10459195845031, 0.27185552125617, 0
344, 0.15719302650278, 0.27102909992977, 0
345, 0.13090161833494, 0.27144206323133, 0
346, 0.97381371364141, 0.025539919572225, 0
347, 0.94778323139815, 0.051848564961694, 0
348, 0.9739204070393, 0.081028153616505, 0
349, 0.97388165866216, 0.053299724349043, 0
350, 0.97411944407867, -0.13820552604411, 0
351, 0.97464575346848, -0.19291705658834, 0
352, 0.94876057804427, -0.1667014741159, 0
353, 0.97437649393947, -0.16557953966183, 0
354, 0.23810805511718, 0.035567854065725, 0
355, 0.048060167702819, 0.080943677996685, 0
356, 0.23602692360099, 0.010071160737209, 0
357, 0.14434942953489, 0.10059379721558, 0
358, 0.13920044129977, -0.057205410017363, 0
359, 0.024053413135524, 0.082684692613575, 0
360, 0.18772825761375, 0.01591504201828, 0
361, 0.20965726751713, 0.27041331760149, 0
362, 0.23612028010328, 0.27049509748541, 0
363, 0.077171268372222, -0.2450488867709, 0
364, 0.10376553090069, -0.27244165595735, 0
365, 0.07754392774943, -0.27254902893831, 0
366, 0.95103064071034, -0.273678884199, 0
367, 0.97521112424203, -0.24700253769901, 0
368, 0.97554283741974, -0.27356015743327, 0
369, 0.072626644337142, 0.10659487496334, 0
370, 0.052093883271984, 0.27265655726741, 0
371, 0.078317279359534, 0.27225904150905, 0
372, 0.21324427661568, -0.27379517361557, 0
373, 0.38883397791276, -0.27293354389149, 0
374, 0.31908341219874, -0.28048131658347, 0
375, 0.050145705596658, 0.1905572973676, 0
376, 0.18339621718259, 0.27065600139933, 0
377, 0.94756899160047, 0.21656083223549, 0
378, 0.97395357651818, 0.2455846135947, 0
379, 0.97383182714493, 0.21816062175064, 0
380, 0.87524443826477, -0.24909800977519, 0
381, 0.90155802719248, -0.27419461656182, 0
382, 0.85146949517706, -0.27503921376284, 0
383, 0.87662182156041, -0.27457472310208, 0
384, 0.13002371375647, -0.24465439787074, 0
385, 0.15742132635994, -0.27249102505494, 0
386, 0.13037294377491, -0.27239809961167, 0
387, 0.94729827826798, -0.057787165463442, 0
388, 0.97368472677791, -0.029605915237932, 0
389, 0.97375186580216, -0.083899701610475, 0
390, 0.97368186465096, -0.056793009164159, 0
391, 0.25807492985414, 0.11099798915587, 0
392, 0.22746804618531, 0.20860547496157, 0
393, 0.92547501661315, -0.24771013246013, 0
394, 0.92634747288117, -0.27389445073708, 0
395, 0.83980141412096, 0.26831902688344, 0
396, 0.81146868125243, 0.23335613884607, 0
397, 0.81172852351565, 0.26646192845862, 0
398, 0.86729868753865, 0.23961915472499, 0
399, 0.8949311948911, 0.2707069306354, 0
400, 0.86753173234787, 0.26968175880636, 0
401, 0.37776952351774, -0.24711622042901, 0
402, 0.32196447033454, -0.24513436027667, 0
403, 0.28588827368737, -0.21227541028375, 0
404, 0.94787458656405, 0.10657542293423, 0
405, 0.97392044390643, 0.10850995145475, 0
406, 0.18591304660009, -0.24525425920296, 0
407, 0.18512243485017, -0.27287551733558, 0
408, 0.097639384300715, 0.13225419489506, 0
409, 0.048483322598544, 0.10835748009705, 0
410, 0.9477606477021, -0.11231628038971, 0
411, 0.97390234017314, -0.11102981195957, 0
412, 0.70862896002805, 0.19853685892331, 0
413, 0.64677186647108, 0.21305690858277, 0
414, 0.11725518672826, -0.004514012137584, 0
415, 0.026026311138613, 0.2730577109474, 0
416, 0.7820558652928, 0.22786588309027, 0
417, 0.94745358076669, -0.0030419039375809, 0
418, 0.9737385618432, -0.0020918849367262, 0
419, 0.25617253640915, -0.018205688324109, 0
420, 0.025068830930808, -0.1905635820651, 0
421, 0.074151310823658, -0.16265632238004, 0
422, 0.56532335453222, 0.27235528527748, 0
423, 0.5210855629734, 0.27829878987524, 0
424, 0.54320514352627, 0.27601087902659, 0
425, 0.093825441944201, -0.029772679536183, 0
426, 0.16936425940956, 0.1256949690624, 0
427, 0.9482569552778, 0.27219347480958, 0
428, 0.97422027605929, 0.27282395322325, 0
429, 0.5756480197355, 0.23877077141247, 0
430, 0.73107051254584, -0.042170541530882, 0
431, 0.75912915675787, -0.02595336475151, 0
432, 0.77873779840259, -0.06095746019348, 0
433, 0.75331933916805, -0.052412712494436, 0
434, 0.47432746711939, 0.28150423996337, 0
435, 0.44810433754114, 0.26504055286023, 0
436, 0.42340611977104, 0.28246101503228, 0
437, 0.44919253550881, 0.28233658796066, 0
438, 0.050837307691258, -0.21783375130083, 0
439, 0.02538163722309, -0.21817901497083, 0
440, 0.47301387220942, 0.2458277481087, 0
441, 0.42088844686218, 0.24843582812261, 0
442, 0.44743329906474, 0.24841378870366, 0
443, 0.9498272652575, -0.22061186487873, 0
444, 0.97491909372399, -0.22005642191778, 0
445, 0.18204526452887, -0.058914374923595, 0
446, 0.14129594390125, -0.10768064506517, 0
447, 0.19262170285784, 0.12282523280707, 0
448, 0.92127486990192, 0.24307490252432, 0
449, 0.92177408352164, 0.2715108608845, 0
450, 0.39555927574315, 0.26398652371522, 0
451, 0.37050859014295, 0.28074668089741, 0
452, 0.39702028265277, 0.28191835726114, 0
453, 0.71619451130627, 0.11694585145262, 0
454, 0.61242384879573, 0.26387907432207, 0
455, 0.89395046390507, -0.059906109086798, 0
456, 0.92085200529386, -0.031397060495054, 0
457, 0.92096490262594, -0.086283664839185, 0
458, 0.92076286776732, -0.058839559590268, 0
459, 0.66469346084782, 0.25682671981109, 0
460, 0.72329003272862, 0.25604498514403, 0
461, 0.23808726530645, 0.061563035228924, 0
462, 0.2216891601832, 0.17745358898683, 0
463, 0.17330498994732, -0.1569206327599, 0
464, 0.19807746902132, 0.18026485350618, 0
465, 0.74628216795901, 0.051506029239918, 0
466, 0.72630277444338, 0.080074937384653, 0
467, 0.72165184996275, 0.054981170299554, 0
468, 0.17135077858745, 0.15383753589148, 0
469, 0.07183053783497, -0.10884521807781, 0
470, 0.14856237742177, -0.15967825977665, 0
471, 0.49643017734174, 0.26054943327585, 0
472, 0.49825426302241, 0.28008464013221, 0
473, 0.18024768812817, 0.24123119877474, 0
474, 0.11678155374418, -0.056625518097905, 0
475, 0.11734509750967, -0.08245175480051, 0
476, 0.28726016339941, 0.24408073307565, 0
477, 0.095441569758633, -0.10867609024543, 0
478, 0.073359431042675, 0.13404538247194, 0
479, 0.2316733437032, -0.014730334431127, 0
480, 0.23940135673388, -0.065476080480921, 0
481, 0.1667833928692, 0.071021287774298, 0
482, 0.21320296865885, 0.038930966159471, 0
483, 0.2012694259737, -0.10445453609725, 0
484, 0.13970188521048, -0.082470930419959, 0
485, 0.24440354956522, 0.17377890649858, 0
486, 0.0257286750965, 0.24609458827581, 0
487, 0.60140293181484, -0.25728834004537, 0
488, 0.57949717702193, -0.22784152342638, 0
489, 0.60449883582461, -0.2368600154428, 0
490, 0.8258463228821, -0.20209671411647, 0
491, 0.81871880926556, -0.14890421743111, 0
492, 0.84750746795684, -0.17311086964607, 0
493, 0.82399629174863, -0.17553397826559, 0
494, 0.89471594644388, -0.0048849786845292, 0
495, 0.92144974866657, 0.02327927437749, 0
496, 0.92112098332898, -0.0040106154785888, 0
497, 0.34231240848207, 0.25766319269756, 0
498, 0.34396398547773, 0.2789086459078, 0
499, 0.07146474201286, 0.051965383731378, 0
500, 0.19481931232492, 0.15112673699828, 0
501, 0.070682860033353, -0.055646856608941, 0
502, 0.36738800146505, 0.24253413077162, 0
503, 0.39411438510462, 0.24640645837616, 0
504, 0.6736026458931, -0.27714678019982, 0
505, 0.7217487093202, -0.27892204780328, 0
506, 0.69805469477362, -0.27773446005738, 0
507, 0.62385956196167, -0.28009338723092, 0
508, 0.5744056155075, -0.27596900864823, 0
509, 0.59969548963025, -0.27840903420697, 0
510, 0.1402412221814, -0.0059328165887812, 0
511, 0.20847820327618, -0.011888878570794, 0
512, 0.10240064267081, -0.21712156270598, 0
513, 0.12672432082202, -0.18875127732406, 0
514, 0.15635688627684, -0.21636435649567, 0
515, 0.12888619547663, -0.21671388036307, 0
516, 0.71222719072129, 0.0058709298149529, 0
517, 0.71128328969938, -0.016943903897167, 0
518, 0.46264758183797, -0.27441790641749, 0
519, 0.51555840466249, -0.26991192688012, 0
520, 0.48817644410211, -0.27185846386822, 0
521, 0.49611923701011, 0.24105051122898, 0
522, 0.33054552430581, -0.22986630227748, 0
523, 0.41347478376144, -0.27083751969461, 0
524, 0.34355852991948, -0.21367643589191, 0
525, 0.6476553454867, -0.28025499275665, 0
526, 0.34083723286502, 0.23635032449739, 0
527, 0.92175557746218, 0.13181886455079, 0
528, 0.89536109946884, 0.15677953838696, 0
529, 0.92125666704231, 0.18683466659869, 0
530, 0.92150459707465, 0.15918036870168, 0
531, 0.82143895612527, -0.25074142958023, 0
532, 0.82607076025435, -0.27564548707156, 0
533, 0.54546880910853, -0.24507164959148, 0
534, 0.5467791798559, -0.27313485006909, 0
535, 0.84067750578114, -0.11903508546517, 0
536, 0.80670278248277, -0.094047257224867, 0
537, 0.81179740243555, -0.12208492032579, 0
538, 0.31013503669543, -0.22099987811696, 0
539, 0.2413255528736, -0.27543289762088, 0
540, 0.36494646539485, -0.27702482981752, 0
541, 0.92190121242178, 0.077576211921737, 0
542, 0.89578239287988, 0.04919373390968, 0
543, 0.92173521045086, 0.050468369859351, 0
544, 0.84039105784156, 0.20672272665999, 0
545, 0.81519921871761, 0.17278231806904, 0
546, 0.72292172414088, 0.16377960698637, 0
547, 0.8126915733883, 0.20187992281872, 0
548, 0.74453359572059, -0.2791528673809, 0
549, 0.20508144813225, -0.036453335640182, 0
550, 0.049418348949283, -0.16295656632468, 0
551, 0.07617409036849, 0.21684215413098, 0
552, 0.896088077319, 0.10269907541892, 0
553, 0.92190662569683, 0.1046569840444, 0
554, 0.075418396757044, -0.18998246485634, 0
555, 0.18165659310483, -0.082641124233899, 0
556, 0.071030031860422, 0.024826784824783, 0
557, 0.87011580889864, 0.12706518155384, 0
558, 0.87047869729082, 0.074433756021383, 0
559, 0.84543459065599, 0.098576081660291, 0
560, 0.87053544517345, 0.10066875585568, 0
561, 0.59909463229909, 0.18251221681642, 0
562, 0.75397865891361, 0.2605544434206, 0
563, 0.55205363084499, -0.21937187654903, 0
564, 0.31934064318911, -0.26194107657346, 0
565, 0.076463913006966, -0.21749411286045, 0
566, 0.21770894481432, -0.21848205202076, 0
567, 0.24982468298686, -0.22607448489605, 0
568, 0.29465798300662, -0.27922815755882, 0
569, 0.074202265805082, 0.16157695131672, 0
570, 0.22623327807276, -0.038908726512132, 0
571, 0.92228948134623, -0.14087116570236, 0
572, 0.89503398708754, -0.1151149214013, 0
573, 0.92150329477354, -0.1136467266286, 0
574, 0.87366591904659, -0.19752433253208, 0
575, 0.89958565787666, -0.22230273853998, 0
576, 0.84930579593977, -0.22508104960486, 0
577, 0.87445463037327, -0.22351128755168, 0
578, 0.10302634626395, 0.24375340944932, 0
579, 0.023651444491269, -0.054882441010231, 0
580, 0.32118324033339, -0.20273434550884, 0
581, 0.43759701993562, -0.27393689793256, 0
582, 0.82397494473459, -0.2272417713061, 0
583, 0.047225153961817, -0.0011492433044245, 0
584, 0.21437726615749, 0.091946984382351, 0
585, 0.15452854654832, 0.2420827886645, 0
586, 0.1644270048881, 0.018200132585762, 0
587, 0.77365633055608, 0.072269005581092, 0
588, 0.79463389467068, 0.047497153120814, 0
589, 0.76694002610947, 0.024539256317265, 0
590, 0.77040663657811, 0.048938127504576, 0
591, 0.92397048354869, -0.19476457369472, 0
592, 0.92471351825644, -0.22135322780594, 0
593, 0.89449925730208, 0.21275783965193, 0
594, 0.92113840331863, 0.21481353358088, 0
595, 0.86727865539128, -0.033001660620569, 0
596, 0.84164694556756, -0.0057046041244981, 0
597, 0.86919056400757, 0.021490704033337, 0
598, 0.86822052459243, -0.0055191841416111, 0
599, 0.18563203698996, -0.21646825314391, 0
600, 0.81741868594493, 0.02136848464934, 0
601, 0.82062274473397, 0.072027876604688, 0
602, 0.84446202415729, 0.047320194216394, 0
603, 0.81930922420898, 0.047039118260388, 0
604, 0.023873041152977, 0.055021127766695, 0
605, 0.12371995075144, -0.16121759439547, 0
606, 0.071997961456681, 0.079232746705027, 0
607, 0.071087849899539, -0.082237027818519, 0
608, 0.047703081665089, 0.053504459600624, 0
609, 0.024703651152593, -0.16308311347783, 0
610, 0.21139373190034, 0.01324096179709, 0
611, 0.094537064195335, 0.02343327949661, 0
612, 0.86999257033526, 0.048101220558515, 0
613, 0.89761408205617, -0.1693425925884, 0
614, 0.92315640581933, -0.16792594176286, 0
615, 0.31385510080402, 0.22625574933067, 0
616, 0.10150617595086, 0.21570745889711, 0
617, 0.81236184823447, -0.032801043122788, 0
618, 0.78882504076291, -0.0034563683121607, 0
619, 0.81509260444417, -0.0051395999717544, 0
620, 0.84346412008113, 0.15044723993476, 0
621, 0.86836192338065, 0.18159328888227, 0
622, 0.86930664758074, 0.15394236960287, 0
623, 0.11871481042002, 0.048581336266223, 0
624, 0.86760531053942, 0.21017066314848, 0
625, 0.047513314947749, -0.082075552829239, 0
626, 0.21757217758701, 0.14785315006739, 0
627, 0.17396682744803, 0.18255539002058, 0
628, 0.025091421075913, 0.19192818164015, 0
629, 0.09877411697651, 0.15992253659075, 0
630, 0.16294667436429, -0.10673463634363, 0
631, 0.047418852958542, 0.026120619715755, 0
632, 0.11867462837511, -0.10831114867969, 0
633, 0.79787590289196, 0.094740528541688, 0
634, 0.82027327994428, 0.120899337952, 0
635, 0.82107408537192, 0.096512601279262, 0
636, 0.75682673991415, 0.095485752284888, 0
637, 0.77677621217512, 0.11334978163253, 0
638, 0.776362631817, 0.093892007983365, 0
639, 0.59741605127963, 0.22981777623332, 0
640, 0.67541612861606, 0.20571472874247, 0
641, 0.73788042085715, 0.13984257000159, 0
642, 0.79358888127985, 0.14021472328108, 0
643, 0.8180689358592, 0.14600035183787, 0
644, 0.24739261604276, -0.041800507291209, 0
645, 0.78865681428806, 0.16564099718338, 0
646, 0.75169186528562, 0.12200874874883, 0
647, 0.67193255163706, 0.14890636364334, 0
648, 0.77094212863489, 0.13256230586591, 0
649, 0.86682324063573, -0.089066659559997, 0
650, 0.87027979678091, -0.14415006276329, 0
651, 0.8681943746442, -0.11684338614505, 0
652, 0.87228126124496, -0.1710438368547, 0
653, 0.83858267596517, -0.061815180053262, 0
654, 0.86666291917579, -0.060933202186836, 0
655, 0.1679210834717, 0.098105510462739, 0
656, 0.19127058170867, 0.09524635381983, 0
657, 0.16123554716624, -0.0824804097397, 0
658, 0.10007320303347, 0.18775078831567, 0
659, 0.76325786799431, -0.00046337838993027, 0
660, 0.80928635814204, -0.062222823806483, 0
661, 0.7831809543177, 0.26392430647585, 0
662, 0.73793316617247, 0.10393159839472, 0
663, 0.051469014092635, 0.24531009760076, 0
664, 0.646454187652, 0.15967616860168, 0
665, 0.73493079382219, -0.020392833909487, 0
666, 0.095846439982184, 0.077457471813632, 0
667, 0.30208526304057, -0.2395624181858, 0
668, 0.53181555371842, 0.237215157155, 0
669, 0.78206258174269, -0.2840117098315, 0
670, 0.23919060981365, 0.14384818017354, 0
671, 0.754193066101, 0.18321020038761, 0
672, 0.05080201528291, 0.21793975793124, 0
673, 0.16567895704671, 0.044396767431388, 0
674, 0.18925209939316, 0.041854218018217, 0
675, 0.64505077412945, -0.24785828762162, 0
676, 0.19730209104911, -0.15166700052651, 0
677, 0.11792520193786, 0.021898323408556, 0
678, 0.1422099163496, 0.046618974544506, 0
679, 0.22882462427645, -0.12721516422981, 0
680, 0.20464991676193, -0.12325377954642, 0
681, 0.18740311238625, -0.12790165201536, 0
682, 0.1667154000646, -0.1311454821985, 0
683, 0.14423508535158, -0.13320568183164, 0
684, 0.12084591188833, -0.13446052098423, 0
685, 0.096991247784757, -0.13520191031075, 0
686, 0.072888019625105, -0.1356125945834, 0
687, 0.048648656513132, -0.13579318871688, 0
688, 0.02433761918485, -0.1357705776611, 0
689, 0.2171682918578, -0.10468939717242, 0
690, 0.21820893109998, -0.08512414897793, 0
691, 0.22130986649301, -0.062575230346338, 0
692, 0.2592094251198, 0.24071934372549, 0
693, 0.26017600645548, 0.083887213535982, 0
694, 0.18362929076554, -0.034498633958212, 0
695, 0.075148237661413, 0.18918199849934, 0
696, 0.26530516519083, 0.16858637765243, 0
697, 0.12677382655207, 0.21450218691089, 0
698, 0.3153476701171, 0.25204126240944, 0
699, 0.116816401702, -0.030674631234632, 0
700, 0.2591022333706, 0.13902304307084, 0
701, 0.025409713034738, 0.21903509445431, 0
702, 0.21672586958862, -0.11843774180075, 0
703, 0.36248549150448, -0.22805578769518, 0
704, 0.33821847777905, -0.26254960608457, 0
705, 0.34203083070871, -0.28013918164794, 0
706, 0.33546911528568, -0.24947972937209, 0
******* E L E M E N T S *************
*ELEMENT, type=T3D2, ELSET=Line1
1, 1, 10
2, 10, 18
3, 18, 11
4, 11, 19
5, 19, 12
6, 12, 20
7, 20, 13
8, 13, 21
9, 21, 14
10, 14, 22
11, 22, 15
12, 15, 23
13, 23, 16
14, 16, 24
15, 24, 17
16, 17, 2
*ELEMENT, type=T3D2, ELSET=Line2
17, 2, 25
18, 25, 28
19, 28, 26
20, 26, 29
21, 29, 27
22, 27, 3
*ELEMENT, type=T3D2, ELSET=Line3
23, 3, 30
24, 30, 39
25, 39, 31
26, 31, 40
27, 40, 32
28, 32, 41
29, 41, 33
30, 33, 42
31, 42, 34
32, 34, 43
33, 43, 35
34, 35, 44
35, 44, 36
36, 36, 45
37, 45, 37
38, 37, 46
39, 46, 38
40, 38, 4
*ELEMENT, type=T3D2, ELSET=Line4
41, 4, 47
42, 47, 58
43, 58, 48
44, 48, 59
45, 59, 49
46, 49, 60
47, 60, 50
48, 50, 61
49, 61, 51
50, 51, 62
51, 62, 52
52, 52, 63
53, 63, 53
54, 53, 64
55, 64, 54
56, 54, 65
57, 65, 55
58, 55, 66
59, 66, 56
60, 56, 67
61, 67, 57
62, 57, 5
*ELEMENT, type=T3D2, ELSET=Line5
63, 5, 68
64, 68, 76
65, 76, 69
66, 69, 77
67, 77, 70
68, 70, 78
69, 78, 71
70, 71, 79
71, 79, 72
72, 72, 80
73, 80, 73
74, 73, 81
75, 81, 74
76, 74, 82
77, 82, 75
78, 75, 6
*ELEMENT, type=T3D2, ELSET=Line6
79, 6, 83
80, 83, 86
81, 86, 84
82, 84, 87
83, 87, 85
84, 85, 7
*ELEMENT, type=T3D2, ELSET=Line7
85, 7, 88
86, 88, 96
87, 96, 89
88, 89, 97
89, 97, 90
90, 90, 98
91, 98, 91
92, 91, 99
93, 99, 92
94, 92, 100
95, 100, 93
96, 93, 101
97, 101, 94
98, 94, 102
99, 102, 95
100, 95, 8
*ELEMENT, type=T3D2, ELSET=Line8
101, 8, 103
102, 103, 114
103, 114, 104
104, 104, 115
105, 115, 105
106, 105, 116
107, 116, 106
108, 106, 117
109, 117, 107
110, 107, 118
111, 118, 108
112, 108, 119
113, 119, 109
114, 109, 120
115, 120, 110
116, 110, 121
117, 121, 111
118, 111, 122
119, 122, 112
120, 112, 123
121, 123, 113
122, 113, 1
*ELEMENT, type=T3D2, ELSET=Line9
123, 9, 124
124, 124, 157
125, 157, 155
126, 155, 158
127, 158, 154
128, 154, 159
129, 159, 153
130, 153, 160
131, 160, 152
132, 152, 161
133, 161, 151
134, 151, 162
135, 162, 150
136, 150, 163
137, 163, 149
138, 149, 164
139, 164, 148
140, 148, 165
141, 165, 147
142, 147, 166
143, 166, 146
144, 146, 167
145, 167, 145
146, 145, 168
147, 168, 144
148, 144, 169
149, 169, 143
150, 143, 170
151, 170, 142
152, 142, 171
153, 171, 141
154, 141, 172
155, 172, 140
156, 140, 173
157, 173, 139
158, 139, 174
159, 174, 138
160, 138, 175
161, 175, 137
162, 137, 176
163, 176, 136
164, 136, 177
165, 177, 135
166, 135, 178
167, 178, 134
168, 134, 179
169, 179, 133
170, 133, 180
171, 180, 132
172, 132, 181
173, 181, 131
174, 131, 182
175, 182, 130
176, 130, 183
177, 183, 129
178, 129, 184
179, 184, 128
180, 128, 185
181, 185, 127
182, 127, 186
183, 186, 126
184, 126, 187
185, 187, 125
186, 125, 188
187, 188, 156
188, 156, 9
*ELEMENT, type=CPS4, ELSET=Surface1
189, 373, 401, 195, 540
190, 374, 564, 318, 568
191, 667, 402, 522, 538
192, 225, 226, 294, 315
193, 392, 221, 323, 230
194, 300, 206, 690, 691
195, 206, 483, 689, 690
196, 315, 324, 676, 225
197, 1, 10, 328, 113
198, 113, 328, 326, 123
199, 328, 327, 191, 326
200, 10, 18, 327, 328
201, 228, 202, 421, 554
202, 475, 632, 446, 484
203, 656, 655, 481, 234
204, 484, 446, 630, 657
205, 286, 73, 81, 459
206, 666, 606, 499, 239
207, 208, 204, 485, 696
208, 337, 90, 98, 335
209, 336, 97, 90, 337
210, 245, 340, 341, 338
211, 338, 341, 339, 246
212, 341, 55, 66, 339
213, 340, 65, 55, 341
214, 419, 644, 171, 142
215, 578, 343, 371, 233
216, 345, 93, 101, 343
217, 344, 100, 93, 345
218, 63, 53, 349, 346
219, 346, 349, 347, 266
220, 349, 348, 263, 347
221, 53, 64, 348, 349
222, 280, 352, 353, 350
223, 350, 353, 49, 60
224, 353, 351, 59, 49
225, 352, 279, 351, 353
226, 694, 207, 219, 445
227, 204, 392, 462, 485
228, 392, 230, 464, 462
229, 356, 610, 511, 479
230, 201, 218, 310, 425
231, 325, 210, 284, 205
232, 676, 681, 682, 463
233, 549, 694, 445, 300
234, 98, 91, 362, 335
235, 570, 549, 300, 691
236, 282, 237, 332, 290
237, 91, 99, 361, 362
238, 191, 327, 365, 363
239, 363, 365, 364, 190
240, 365, 11, 19, 364
241, 327, 18, 11, 365
242, 46, 38, 368, 366
243, 366, 368, 367, 200
244, 368, 47, 58, 367
245, 38, 4, 47, 368
246, 101, 94, 371, 343
247, 695, 375, 282, 569
248, 239, 499, 556, 611
249, 94, 102, 370, 371
250, 23, 374, 568, 15
251, 540, 195, 704, 705
252, 568, 318, 321, 193
253, 539, 320, 194, 372
254, 357, 213, 238, 316
255, 369, 409, 355, 606
256, 376, 92, 100, 344
257, 361, 99, 92, 376
258, 66, 56, 379, 339
259, 339, 379, 377, 246
260, 379, 378, 249, 377
261, 56, 67, 378, 379
262, 198, 382, 383, 380
263, 380, 383, 381, 199
264, 383, 36, 45, 381
265, 382, 44, 36, 383
266, 190, 364, 386, 384
267, 384, 386, 385, 192
268, 386, 12, 20, 385
269, 364, 19, 12, 386
270, 269, 389, 390, 387
271, 387, 390, 388, 270
272, 390, 51, 62, 388
273, 389, 61, 51, 390
274, 551, 672, 375, 695
275, 655, 357, 316, 481
276, 235, 688, 687, 301
277, 690, 689, 220, 240
278, 45, 37, 394, 381
279, 381, 394, 393, 199
280, 394, 366, 200, 393
281, 37, 46, 366, 394
282, 78, 71, 397, 395
283, 395, 397, 396, 250
284, 429, 197, 295, 254
285, 248, 399, 400, 398
286, 398, 400, 395, 250
287, 400, 70, 78, 395
288, 399, 77, 70, 400
289, 522, 196, 703, 524
290, 401, 703, 196, 195
291, 524, 703, 137, 175
292, 24, 540, 705, 16
293, 64, 54, 405, 348
294, 348, 405, 404, 263
295, 405, 340, 245, 404
296, 54, 65, 340, 405
297, 192, 385, 407, 406
298, 406, 407, 372, 194
299, 407, 13, 21, 372
300, 385, 20, 13, 407
301, 329, 307, 579, 283
302, 309, 312, 584, 342
303, 689, 702, 679, 220
304, 632, 684, 683, 446
305, 60, 50, 411, 350
306, 350, 411, 410, 280
307, 411, 389, 269, 410
308, 50, 61, 389, 411
309, 242, 645, 545, 547
310, 429, 302, 422, 197
311, 459, 81, 74, 251
312, 416, 242, 547, 396
313, 102, 95, 415, 370
314, 208, 696, 167, 146
315, 208, 476, 692, 204
316, 95, 8, 103, 415
317, 647, 664, 153, 159
318, 412, 647, 333, 546
319, 285, 641, 646, 648
320, 412, 287, 562, 460
321, 270, 388, 418, 417
322, 417, 418, 346, 266
323, 418, 52, 63, 346
324, 388, 62, 52, 418
325, 513, 605, 202, 228
326, 483, 680, 702, 689
327, 446, 683, 682, 630
328, 584, 656, 234, 306
329, 6, 83, 424, 422
330, 422, 424, 297, 197
331, 424, 423, 253, 297
332, 83, 86, 423, 424
333, 173, 679, 324, 315
334, 218, 583, 329, 310
335, 679, 702, 680, 324
336, 480, 240, 172, 141
337, 67, 57, 428, 378
338, 378, 428, 427, 249
339, 428, 68, 76, 427
340, 57, 5, 68, 428
341, 639, 429, 254, 303
342, 413, 459, 251, 252
343, 287, 416, 661, 562
344, 187, 432, 433, 125
345, 516, 517, 665, 289
346, 125, 433, 430, 188
347, 432, 274, 431, 433
348, 87, 85, 437, 434
349, 434, 437, 435, 214
350, 437, 436, 215, 435
351, 85, 7, 436, 437
352, 122, 112, 439, 420
353, 420, 439, 438, 231
354, 439, 326, 191, 438
355, 112, 123, 326, 439
356, 214, 435, 442, 440
357, 440, 442, 149, 163
358, 442, 441, 164, 149
359, 435, 215, 441, 442
360, 59, 351, 444, 48
361, 48, 444, 367, 58
362, 444, 443, 200, 367
363, 351, 279, 443, 444
364, 670, 626, 312, 309
365, 408, 478, 369, 322
366, 213, 322, 666, 238
367, 311, 463, 470, 229
368, 249, 427, 449, 448
369, 448, 449, 399, 248
370, 449, 69, 77, 399
371, 427, 76, 69, 449
372, 215, 436, 452, 450
373, 450, 452, 451, 212
374, 452, 88, 96, 451
375, 436, 7, 88, 452
376, 460, 80, 73, 286
377, 254, 295, 162, 151
378, 641, 453, 662, 646
379, 252, 639, 303, 561
380, 268, 457, 458, 455
381, 455, 458, 456, 271
382, 458, 387, 270, 456
383, 457, 269, 387, 458
384, 640, 413, 334, 664
385, 334, 561, 152, 160
386, 412, 546, 671, 287
387, 204, 692, 221, 392
388, 414, 201, 425, 699
389, 672, 701, 628, 375
390, 332, 116, 106, 331
391, 258, 466, 467, 465
392, 665, 430, 433, 431
393, 467, 275, 288, 465
394, 466, 158, 155, 467
395, 227, 681, 680, 483
396, 696, 700, 145, 167
397, 626, 500, 447, 312
398, 473, 376, 344, 585
399, 214, 471, 472, 434
400, 434, 472, 84, 87
401, 472, 423, 86, 84
402, 471, 253, 423, 472
403, 569, 282, 290, 478
404, 306, 234, 674, 482
405, 476, 698, 336, 337
406, 470, 683, 684, 605
407, 210, 658, 629, 284
408, 579, 222, 625, 283
409, 500, 468, 426, 447
410, 375, 628, 237, 282
411, 420, 609, 111, 122
412, 677, 611, 201, 414
413, 330, 203, 170, 143
414, 605, 684, 685, 202
415, 468, 205, 292, 426
416, 208, 146, 166, 615
417, 324, 680, 681, 676
418, 413, 252, 561, 334
419, 671, 285, 645, 242
420, 460, 562, 72, 80
421, 181, 132, 489, 314
422, 314, 489, 487, 276
423, 489, 488, 189, 487
424, 132, 180, 488, 489
425, 277, 492, 493, 490
426, 490, 493, 127, 185
427, 493, 491, 186, 127
428, 492, 267, 491, 493
429, 271, 456, 496, 494
430, 494, 496, 495, 264
431, 496, 417, 266, 495
432, 456, 270, 417, 496
433, 97, 336, 498, 89
434, 89, 498, 451, 96
435, 498, 497, 212, 451
436, 511, 217, 694, 549
437, 463, 682, 683, 470
438, 292, 305, 213, 357
439, 627, 325, 205, 468
440, 623, 239, 611, 677
441, 479, 511, 549, 570
442, 699, 425, 236, 474
443, 317, 510, 211, 207
444, 308, 473, 585, 209
445, 212, 502, 503, 450
446, 450, 503, 441, 215
447, 503, 148, 164, 441
448, 502, 165, 148, 503
449, 41, 505, 506, 32
450, 32, 506, 504, 40
451, 506, 130, 182, 504
452, 505, 183, 130, 506
453, 276, 487, 509, 507
454, 507, 509, 30, 39
455, 509, 508, 3, 30
456, 487, 189, 508, 509
457, 216, 461, 354, 330
458, 550, 687, 688, 609
459, 236, 232, 475, 474
460, 304, 345, 343, 578
461, 192, 514, 515, 384
462, 384, 515, 512, 190
463, 515, 513, 228, 512
464, 514, 229, 513, 515
465, 157, 275, 467, 155
466, 288, 289, 659, 589
467, 124, 516, 275, 157
468, 289, 665, 431, 659
469, 28, 26, 520, 518
470, 518, 520, 135, 177
471, 520, 519, 178, 135
472, 26, 29, 519, 520
473, 163, 150, 521, 440
474, 440, 521, 471, 214
475, 521, 296, 253, 471
476, 150, 162, 296, 521
477, 705, 704, 564, 374
478, 566, 567, 226, 225
479, 293, 667, 538, 403
480, 22, 193, 539, 14
481, 40, 504, 525, 31
482, 31, 525, 507, 39
483, 525, 313, 276, 507
484, 504, 182, 313, 525
485, 426, 292, 357, 655
486, 497, 526, 502, 212
487, 526, 147, 165, 502
488, 224, 118, 108, 291
489, 246, 529, 530, 338
490, 338, 530, 527, 245
491, 530, 528, 244, 527
492, 529, 247, 528, 530
493, 198, 531, 532, 382
494, 382, 532, 35, 44
495, 532, 298, 43, 35
496, 531, 184, 298, 532
497, 189, 533, 534, 508
498, 508, 534, 27, 3
499, 534, 519, 29, 27
500, 533, 178, 519, 534
501, 273, 536, 537, 535
502, 535, 537, 491, 267
503, 537, 126, 186, 491
504, 536, 187, 126, 537
505, 315, 294, 139, 173
506, 16, 705, 374, 23
507, 704, 706, 402, 564
508, 193, 321, 320, 539
509, 262, 542, 543, 541
510, 541, 543, 347, 263
511, 543, 495, 266, 347
512, 542, 264, 495, 543
513, 250, 396, 547, 544
514, 544, 547, 545, 241
515, 546, 333, 453, 641
516, 252, 251, 454, 639
517, 42, 299, 548, 33
518, 33, 548, 505, 41
519, 548, 129, 183, 505
520, 299, 184, 129, 548
521, 391, 309, 342, 693
522, 701, 104, 115, 628
523, 203, 356, 479, 419
524, 691, 690, 240, 480
525, 263, 404, 553, 541
526, 541, 553, 552, 262
527, 553, 527, 244, 552
528, 404, 245, 527, 553
529, 231, 550, 609, 420
530, 305, 408, 322, 213
531, 221, 362, 361, 323
532, 419, 479, 570, 644
533, 243, 559, 560, 557
534, 557, 560, 552, 244
535, 560, 558, 262, 552
536, 559, 257, 558, 560
537, 287, 671, 242, 416
538, 416, 396, 397, 661
539, 639, 454, 302, 429
540, 412, 460, 286, 640
541, 546, 641, 285, 671
542, 179, 134, 563, 133
543, 133, 563, 488, 180
544, 563, 533, 189, 488
545, 134, 178, 533, 563
546, 318, 667, 293, 321
547, 14, 539, 372, 21
548, 294, 319, 174, 139
549, 564, 402, 667, 318
550, 231, 438, 565, 554
551, 554, 565, 512, 228
552, 565, 363, 190, 512
553, 438, 191, 363, 565
554, 538, 522, 524, 580
555, 15, 568, 193, 22
556, 320, 567, 566, 194
557, 567, 293, 403, 226
558, 240, 220, 140, 172
559, 556, 631, 583, 218
560, 657, 630, 227, 555
561, 447, 426, 655, 656
562, 268, 572, 573, 457
563, 457, 573, 410, 269
564, 573, 571, 280, 410
565, 572, 281, 571, 573
566, 277, 576, 577, 574
567, 574, 577, 575, 278
568, 577, 380, 199, 575
569, 576, 198, 380, 577
570, 625, 301, 469, 607
571, 510, 414, 699, 211
572, 663, 370, 415, 486
573, 225, 676, 463, 311
574, 195, 196, 706, 704
575, 321, 293, 567, 320
576, 226, 403, 319, 294
577, 319, 580, 138, 174
578, 177, 136, 581, 518
579, 518, 581, 25, 28
580, 581, 523, 2, 25
581, 136, 176, 523, 581
582, 185, 128, 582, 490
583, 490, 582, 576, 277
584, 582, 531, 198, 576
585, 128, 184, 531, 582
586, 672, 663, 486, 701
587, 322, 369, 606, 666
588, 469, 686, 685, 477
589, 216, 330, 143, 169
590, 237, 105, 116, 332
591, 209, 585, 304, 697
592, 360, 586, 317, 217
593, 331, 106, 117, 359
594, 156, 259, 517, 9
595, 465, 590, 587, 258
596, 590, 588, 261, 587
597, 589, 260, 588, 590
598, 199, 393, 592, 575
599, 575, 592, 591, 278
600, 592, 443, 279, 591
601, 393, 200, 443, 592
602, 246, 377, 594, 529
603, 529, 594, 593, 247
604, 594, 448, 248, 593
605, 377, 249, 448, 594
606, 271, 494, 598, 595
607, 595, 598, 596, 272
608, 598, 597, 265, 596
609, 494, 264, 597, 598
610, 194, 566, 599, 406
611, 406, 599, 514, 192
612, 599, 311, 229, 514
613, 566, 225, 311, 599
614, 265, 602, 603, 600
615, 600, 603, 588, 260
616, 603, 601, 261, 588
617, 602, 257, 601, 603
618, 608, 604, 224, 631
619, 474, 475, 484, 358
620, 307, 119, 109, 579
621, 291, 108, 119, 307
622, 477, 685, 684, 632
623, 554, 421, 550, 231
624, 701, 486, 114, 104
625, 222, 235, 301, 625
626, 257, 602, 612, 558
627, 558, 612, 542, 262
628, 612, 597, 264, 542
629, 602, 265, 597, 612
630, 280, 571, 614, 352
631, 352, 614, 591, 279
632, 614, 613, 278, 591
633, 571, 281, 613, 614
634, 630, 682, 681, 227
635, 611, 556, 218, 201
636, 232, 477, 632, 475
637, 209, 697, 210, 325
638, 260, 618, 619, 600
639, 600, 619, 596, 265
640, 619, 617, 272, 596
641, 618, 274, 617, 619
642, 244, 528, 622, 557
643, 557, 622, 620, 243
644, 622, 621, 241, 620
645, 528, 247, 621, 622
646, 606, 355, 608, 499
647, 220, 679, 173, 140
648, 323, 361, 376, 473
649, 205, 284, 305, 292
650, 250, 544, 624, 398
651, 398, 624, 593, 248
652, 624, 621, 247, 593
653, 544, 241, 621, 624
654, 445, 555, 206, 300
655, 342, 584, 306, 461
656, 229, 470, 605, 513
657, 482, 674, 360, 610
658, 607, 469, 477, 232
659, 462, 464, 500, 626
660, 223, 677, 414, 510
661, 283, 625, 607, 501
662, 673, 678, 223, 586
663, 290, 332, 331, 409
664, 316, 238, 623, 678
665, 555, 227, 483, 206
666, 697, 304, 578, 616
667, 219, 657, 555, 445
668, 700, 670, 309, 391
669, 481, 316, 678, 673
670, 257, 559, 635, 601
671, 601, 635, 633, 261
672, 635, 634, 256, 633
673, 559, 243, 634, 635
674, 256, 637, 638, 633
675, 633, 638, 587, 261
676, 638, 636, 258, 587
677, 637, 255, 636, 638
678, 285, 648, 642, 645
679, 333, 154, 158, 453
680, 664, 334, 160, 153
681, 545, 643, 620, 241
682, 643, 634, 243, 620
683, 642, 256, 634, 643
684, 211, 699, 474, 358
685, 355, 359, 604, 608
686, 230, 323, 473, 308
687, 583, 291, 307, 329
688, 454, 82, 75, 302
689, 661, 397, 71, 79
690, 303, 254, 151, 161
691, 251, 74, 82, 454
692, 642, 648, 637, 256
693, 648, 646, 255, 637
694, 267, 650, 651, 535
695, 535, 651, 649, 273
696, 651, 572, 268, 649
697, 650, 281, 572, 651
698, 281, 650, 652, 613
699, 613, 652, 574, 278
700, 652, 492, 277, 574
701, 650, 267, 492, 652
702, 272, 653, 654, 595
703, 595, 654, 455, 271
704, 654, 649, 268, 455
705, 653, 273, 649, 654
706, 312, 447, 656, 584
707, 208, 615, 698, 476
708, 586, 223, 510, 317
709, 615, 526, 497, 698
710, 698, 497, 498, 336
711, 464, 627, 468, 500
712, 616, 578, 233, 551
713, 692, 335, 362, 221
714, 644, 570, 691, 480
715, 678, 623, 677, 223
716, 609, 688, 121, 111
717, 465, 288, 589, 590
718, 517, 259, 430, 665
719, 659, 618, 260, 589
720, 431, 274, 618, 659
721, 274, 432, 660, 617
722, 617, 660, 653, 272
723, 660, 536, 273, 653
724, 432, 187, 536, 660
725, 640, 286, 459, 413
726, 412, 640, 664, 647
727, 562, 661, 79, 72
728, 255, 646, 662, 636
729, 636, 662, 466, 258
730, 662, 453, 158, 466
731, 645, 642, 643, 545
732, 330, 354, 356, 203
733, 476, 337, 335, 692
734, 359, 117, 107, 604
735, 302, 75, 6, 422
736, 647, 159, 154, 333
737, 188, 430, 259, 156
738, 9, 517, 516, 124
739, 275, 516, 289, 288
740, 644, 480, 141, 171
741, 425, 310, 501, 236
742, 501, 607, 232, 236
743, 402, 706, 196, 522
744, 580, 524, 175, 138
745, 403, 538, 580, 319
746, 197, 297, 668, 295
747, 295, 668, 296, 162
748, 297, 253, 296, 668
749, 184, 299, 669, 298
750, 298, 669, 34, 43
751, 299, 42, 34, 669
752, 700, 391, 168, 145
753, 308, 209, 325, 627
754, 674, 673, 586, 360
755, 561, 303, 161, 152
756, 284, 629, 408, 305
757, 693, 342, 461, 216
758, 658, 695, 569, 629
759, 461, 306, 482, 354
760, 358, 484, 657, 219
761, 202, 685, 686, 421
762, 478, 290, 409, 369
763, 485, 462, 626, 670
764, 421, 686, 687, 550
765, 181, 314, 675, 131
766, 131, 675, 313, 182
767, 314, 276, 313, 675
768, 391, 693, 144, 168
769, 217, 317, 207, 694
770, 301, 687, 686, 469
771, 234, 481, 673, 674
772, 310, 329, 283, 501
773, 230, 308, 627, 464
774, 604, 107, 118, 224
775, 631, 224, 291, 583
776, 696, 485, 670, 700
777, 585, 344, 345, 304
778, 693, 216, 169, 144
779, 616, 551, 695, 658
780, 233, 371, 370, 663
781, 499, 608, 631, 556
782, 551, 233, 663, 672
783, 110, 121, 688, 235
784, 120, 110, 235, 222
785, 109, 120, 222, 579
786, 629, 569, 478, 408
787, 203, 419, 142, 170
788, 238, 666, 239, 623
789, 615, 166, 147, 526
790, 697, 616, 658, 210
791, 354, 482, 610, 356
792, 486, 415, 103, 114
793, 610, 360, 217, 511
794, 409, 331, 359, 355
795, 207, 211, 358, 219
796, 628, 115, 105, 237
797, 17, 373, 540, 24
798, 176, 137, 703, 401
799, 523, 176, 401, 373
800, 2, 523, 373, 17
*ELSET,ELSET=contact_source
101, 102, 103, 104, 105, 106, 107, 108, 109, 110, 
111, 112, 113, 114, 115, 116, 117, 118, 119, 120, 
121, 122, 
*ELSET,ELSET=contact_drain
41, 42, 43, 44, 45, 46, 47, 48, 49, 50, 
51, 52, 53, 54, 55, 56, 57, 58, 59, 60, 
61, 62, 
*ELSET,ELSET=probe_A
79, 80, 81, 82, 83, 84, 
*ELSET,ELSET=probe_B
17, 18, 19, 20, 21, 22, 
*ELSET,ELSET=walls
1, 2, 3, 4, 5, 6, 7, 8, 9, 10, 
11, 12, 13, 14, 15, 16, 23, 24, 25, 26, 
27, 28, 29, 30, 31, 32, 33, 34, 35, 36, 
37, 38, 39, 40, 63, 64, 65, 66, 67, 68, 
69, 70, 71, 72, 73, 74, 75, 76, 77, 78, 
85, 86, 87, 88, 89, 90, 91, 92, 93, 94, 
95, 96, 97, 98, 99, 100, 123, 124, 125, 126, 
127, 128, 129, 130, 131, 132, 133, 134, 135, 136, 
137, 138, 139, 140, 141, 142, 143, 144, 145, 146, 
147, 148, 149, 150, 151, 152, 153, 154, 155, 156, 
157, 158, 159, 160, 161, 162, 163, 164, 165, 166, 
167, 168, 169, 170, 171, 172, 173, 174, 175, 176, 
177, 178, 179, 180, 181, 182, 183, 184, 185, 186, 
187, 188, 
*ELSET,ELSET=domain
189, 190, 191, 192, 193, 194, 195, 196, 197, 198, 
199, 200, 201, 202, 203, 204, 205, 206, 207, 208, 
209, 210, 211, 212, 213, 214, 215, 216, 217, 218, 
219, 220, 221, 222, 223, 224, 225, 226, 227, 228, 
229, 230, 231, 232, 233, 234, 235, 236, 237, 238, 
239, 240, 241, 242, 243, 244, 245, 246, 247, 248, 
249, 250, 251, 252, 253, 254, 255, 256, 257, 258, 
259, 260, 261, 262, 263, 264, 265, 266, 267, 268, 
269, 270, 271, 272, 273, 274, 275, 276, 277, 278, 
279, 280, 281, 282, 283, 284, 285, 286, 287, 288, 
289, 290, 291, 292, 293, 294, 295, 296, 297, 298, 
299, 300, 301, 302, 303, 304, 305, 306, 307, 308, 
309, 310, 311, 312, 313, 314, 315, 316, 317, 318, 
319, 320, 321, 322, 323, 324, 325, 326, 327, 328, 
329, 330, 331, 332, 333, 334, 335, 336, 337, 338, 
339, 340, 341, 342, 343, 344, 345, 346, 347, 348, 
349, 350, 351, 352, 353, 354, 355, 356, 357, 358, 
359, 360, 361, 362, 363, 364, 365, 366, 367, 368, 
369, 370, 371, 372, 373, 374, 375, 376, 377, 378, 
379, 380, 381, 382, 383, 384, 385, 386, 387, 388, 
389, 390, 391, 392, 393, 394, 395, 396, 397, 398, 
399, 400, 401, 402, 403, 404, 405, 406, 407, 408, 
409, 410, 411, 412, 413, 414, 415, 416, 417, 418, 
419, 420, 421, 422, 423, 424, 425, 426, 427, 428, 
429, 430, 431, 432, 433, 434, 435, 436, 437, 438, 
439, 440, 441, 442, 443, 444, 445, 446, 447, 448, 
449, 450, 451, 452, 453, 454, 455, 456, 457, 458, 
459, 460, 461, 462, 463, 464, 465, 466, 467, 468, 
469, 470, 471, 472, 473, 474, 475, 476, 477, 478, 
479, 480, 481, 482, 483, 484, 485, 486, 487, 488, 
489, 490, 491, 492, 493, 494, 495, 496, 497, 498, 
499, 500, 501, 502, 503, 504, 505, 506, 507, 508, 
509, 510, 511, 512, 513, 514, 515, 516, 517, 518, 
519, 520, 521, 522, 523, 524, 525, 526, 527, 528, 
529, 530, 531, 532, 533, 534, 535, 536, 537, 538, 
539, 540, 541, 542, 543, 544, 545, 546, 547, 548, 
549, 550, 551, 552, 553, 554, 555, 556, 557, 558, 
559, 560, 561, 562, 563, 564, 565, 566, 567, 568, 
569, 570, 571, 572, 573, 574, 575, 576, 577, 578, 
579, 580, 581, 582, 583, 584, 585, 586, 587, 588, 
589, 590, 591, 592, 593, 594, 595, 596, 597, 598, 
599, 600, 601, 602, 603, 604, 605, 606, 607, 608, 
609, 610, 611, 612, 613, 614, 615, 616, 617, 618, 
619, 620, 621, 622, 623, 624, 625, 626, 627, 628, 
629, 630, 631, 632, 633, 634, 635, 636, 637, 638, 
639, 640, 641, 642, 643, 644, 645, 646, 647, 648, 
649, 650, 651, 652, 653, 654, 655, 656, 657, 658, 
659, 660, 661, 662, 663, 664, 665, 666, 667, 668, 
669, 670, 671, 672, 673, 674, 675, 676, 677, 678, 
679, 680, 681, 682, 683, 684, 685, 686, 687, 688, 
689, 690, 691, 692, 693, 694, 695, 696, 697, 698, 
699, 700, 701, 702, 703, 704, 705, 706, 707, 708, 
709, 710, 711, 712, 713, 714, 715, 716, 717, 718, 
719, 720, 721, 722, 723, 724, 725, 726, 727, 728, 
729, 730, 731, 732, 733, 734, 735, 736, 737, 738, 
739, 740, 741, 742, 743, 744, 745, 746, 747, 748, 
749, 750, 751, 752, 753, 754, 755, 756, 757, 758, 
759, 760, 761, 762, 763, 764, 765, 766, 767, 768, 
769, 770, 771, 772, 773, 774, 775, 776, 777, 778, 
779, 780, 781, 782, 783, 784, 785, 786, 787, 788, 
789, 790, 791, 792, 793, 794, 795, 796, 797, 798, 
799, 800, 
*NSET,NSET=contact_source
1, 8, 103, 104, 105, 106, 107, 108, 109, 110, 
111, 112, 113, 114, 115, 116, 117, 118, 119, 120, 
121, 122, 123, 
*NSET,NSET=contact_drain
4, 5, 47, 48, 49, 50, 51, 52, 53, 54, 
55, 56, 57, 58, 59, 60, 61, 62, 63, 64, 
65, 66, 67, 
*NSET,NSET=probe_A
6, 7, 83, 84, 85, 86, 87, 
*NSET,NSET=probe_B
2, 3, 25, 26, 27, 28, 29, 
*NSET,NSET=walls
1, 2, 3, 4, 5, 6, 7, 8, 9, 10, 
11, 12, 13, 14, 15, 16, 17, 18, 19, 20, 
21, 22, 23, 24, 30, 31, 32, 33, 34, 35, 
36, 37, 38, 39, 40, 41, 42, 43, 44, 45, 
46, 68, 69, 70, 71, 72, 73, 74, 75, 76, 
77, 78, 79, 80, 81, 82, 88, 89, 90, 91, 
92, 93, 94, 95, 96, 97, 98, 99, 100, 101, 
102, 124, 125, 126, 127, 128, 129, 130, 131, 132, 
133, 134, 135, 136, 137, 138, 139, 140, 141, 142, 
143, 144, 145, 146, 147, 148, 149, 150, 151, 152, 
153, 154, 155, 156, 157, 158, 159, 160, 161, 162, 
163, 164, 165, 166, 167, 168, 169, 170, 171, 172, 
173, 174, 175, 176, 177, 178, 179, 180, 181, 182, 
183, 184, 185, 186, 187, 188, 
*NSET,NSET=domain
1, 2, 3, 4, 5, 6, 7, 8, 9, 10, 
11, 12, 13, 14, 15, 16, 17, 18, 19, 20, 
21, 22, 23, 24, 25, 26, 27, 28, 29, 30, 
31, 32, 33, 34, 35, 36, 37, 38, 39, 40, 
41, 42, 43, 44, 45, 46, 47, 48, 49, 50, 
51, 52, 53, 54, 55, 56, 57, 58, 59, 60, 
61, 62, 63, 64, 65, 66, 67, 68, 69, 70, 
71, 72, 73, 74, 75, 76, 77, 78, 79, 80, 
81, 82, 83, 84, 85, 86, 87, 88, 89, 90, 
91, 92, 93, 94, 95, 96, 97, 98, 99, 100, 
101, 102, 103, 104, 105, 106, 107, 108, 109, 110, 
111, 112, 113, 114, 115, 116, 117, 118, 119, 120, 
121, 122, 123, 124, 125, 126, 127, 128, 129, 130, 
131, 132, 133, 134, 135, 136, 137, 138, 139, 140, 
141, 142, 143, 144, 145, 146, 147, 148, 149, 150, 
151, 152, 153, 154, 155, 156, 157, 158, 159, 160, 
161, 162, 163, 164, 165, 166, 167, 168, 169, 170, 
171, 172, 173, 174, 175, 176, 177, 178, 179, 180, 
181, 182, 183, 184, 185, 186, 187, 188, 189, 190, 
191, 192, 193, 194, 195, 196, 197, 198, 199, 200, 
201, 202, 203, 204, 205, 206, 207, 208, 209, 210, 
211, 212, 213, 214, 215, 216, 217, 218, 219, 220, 
221, 222, 223, 224, 225, 226, 227, 228, 229, 230, 
231, 232, 233, 234, 235, 236, 237, 238, 239, 240, 
241, 242, 243, 244, 245, 246, 247, 248, 249, 250, 
251, 252, 253, 254, 255, 256, 257, 258, 259, 260, 
261, 262, 263, 264, 265, 266, 267, 268, 269, 270, 
271, 272, 273, 274, 275, 276, 277, 278, 279, 280, 
281, 282, 283, 284, 285, 286, 287, 288, 289, 290, 
291, 292, 293, 294, 295, 296, 297, 298, 299, 300, 
301, 302, 303, 304, 305, 306, 307, 308, 309, 310, 
311, 312, 313, 314, 315, 316, 317, 318, 319, 320, 
321, 322, 323, 324, 325, 326, 327, 328, 329, 330, 
331, 332, 333, 334, 335, 336, 337, 338, 339, 340, 
341, 342, 343, 344, 345, 346, 347, 348, 349, 350, 
351, 352, 353, 354, 355, 356, 357, 358, 359, 360, 
361, 362, 363, 364, 365, 366, 367, 368, 369, 370, 
371, 372, 373, 374, 375, 376, 377, 378, 379, 380, 
381, 382, 383, 384, 385, 386, 387, 388, 389, 390, 
391, 392, 393, 394, 395, 396, 397, 398, 399, 400, 
401, 402, 403, 404, 405, 406, 407, 408, 409, 410, 
411, 412, 413, 414, 415, 416, 417, 418, 419, 420, 
421, 422, 423, 424, 425, 426, 427, 428, 429, 430, 
431, 432, 433, 434, 435, 436, 437, 438, 439, 440, 
441, 442, 443, 444, 445, 446, 447, 448, 449, 450, 
451, 452, 453, 454, 455, 456, 457, 458, 459, 460, 
461, 462, 463, 464, 465, 466, 467, 468, 469, 470, 
471, 472, 473, 474, 475, 476, 477, 478, 479, 480, 
481, 482, 483, 484, 485, 486, 487, 488, 489, 490, 
491, 492, 493, 494, 495, 496, 497, 498, 499, 500, 
501, 502, 503, 504, 505, 506, 507, 508, 509, 510, 
511, 512, 513, 514, 515, 516, 517, 518, 519, 520, 
521, 522, 523, 524, 525, 526, 527, 528, 529, 530, 
531, 532, 533, 534, 535, 536, 537, 538, 539, 540, 
541, 542, 543, 544, 545, 546, 547, 548, 549, 550, 
551, 552, 553, 554, 555, 556, 557, 558, 559, 560, 
561, 562, 563, 564, 565, 566, 567, 568, 569, 570, 
571, 572, 573, 574, 575, 576, 577, 578, 579, 580, 
581, 582, 583, 584, 585, 586, 587, 588, 589, 590, 
591, 592, 593, 594, 595, 596, 597, 598, 599, 600, 
601, 602, 603, 604, 605, 606, 607, 608, 609, 610, 
611, 612, 613, 614, 615, 616, 617, 618, 619, 620, 
621, 622, 623, 624, 625, 626, 627, 628, 629, 630, 
631, 632, 633, 634, 635, 636, 637, 638, 639, 640, 
641, 642, 643, 644, 645, 646, 647, 648, 649, 650, 
651, 652, 653, 654, 655, 656, 657, 658, 659, 660, 
661, 662, 663, 664, 665, 666, 667, 668, 669, 670, 
671, 672, 673, 674, 675, 676, 677, 678, 679, 680, 
681, 682, 683, 684, 685, 686, 687, 688, 689, 690, 
691, 692, 693, 694, 695, 696, 697, 698, 699, 700, 
701, 702, 703, 704, 705, 706, 
