*Heading
 /Users/juliagao/geometry-optimization-net/scripts/../runs/run2/shape_137.inp
*NODE
1, 0, -0.3, 0
2, 0.425, -0.3, 0
3, 0.575, -0.3, 0
4, 1, -0.3, 0
5, 1, 0.3, 0
6, 0.575, 0.3, 0
7, 0.425, 0.3, 0
8, 0, 0.3, 0
9, 0.6408754017, -0.024097612, 0
10, 0.025505283903928, -0.3, 0
11, 0.076462822082882, -0.3, 0
12, 0.12776624275069, -0.3, 0
13, 0.17997878424247, -0.3, 0
14, 0.23329977821966, -0.3, 0
15, 0.28782669704587, -0.3, 0
16, 0.34313067429067, -0.3, 0
17, 0.39793367579373, -0.3, 0
18, 0.051010567807856, -0.3, 0
19, 0.10191507635791, -0.3, 0
20, 0.15361740914347, -0.3, 0
21, 0.20634015934146, -0.3, 0
22, 0.26025939709785, -0.3, 0
23, 0.31539399699389, -0.3, 0
24, 0.37086735158745, -0.3, 0
25, 0.45072430645295, -0.3, 0
26, 0.5007608397496, -0.3, 0
27, 0.55003653329666, -0.3, 0
28, 0.47644861290589, -0.3, 0
29, 0.52507306659332, -0.3, 0
30, 0.60013058944811, -0.3, 0
31, 0.65110891450797, -0.3, 0
32, 0.70414144356539, -0.3, 0
33, 0.7587502235849, -0.3, 0
34, 0.81348093545831, -0.3, 0
35, 0.86791469454201, -0.3, 0
36, 0.92163194708187, -0.3, 0
37, 0.9741110829188, -0.3, 0
38, 0.62526117889622, -0.3, 0
39, 0.67695665011972, -0.3, 0
40, 0.73132623701106, -0.3, 0
41, 0.78617421015874, -0.3, 0
42, 0.84078766075789, -0.3, 0
43, 0.89504172832614, -0.3, 0
44, 0.94822216583759, -0.3, 0
45, 1, -0.27362307416051, 0
46, 1, -0.2198296712223, 0
47, 1, -0.16467769150083, 0
48, 1, -0.10956219666516, 0
49, 1, -0.054633275569565, 0
50, 1, 0.00054925388444838, 0
51, 1, 0.055837914094737, 0
52, 1, 0.11132861642012, 0
53, 1, 0.16668031241402, 0
54, 1, 0.2208962918123, 0
55, 1, 0.27379810895155, 0
56, 1, -0.24724614832102, 0
57, 1, -0.19241319412358, 0
58, 1, -0.13694218887808, 0
59, 1, -0.082182204452245, 0
60, 1, -0.027084346686885, 0
61, 1, 0.028182854455782, 0
62, 1, 0.083492973733693, 0
63, 1, 0.13916425910655, 0
64, 1, 0.1941963657215, 0
65, 1, 0.2475962179031, 0
66, 0.97405120576123, 0.3, 0
67, 0.92176984894676, 0.3, 0
68, 0.86871738160027, 0.3, 0
69, 0.81488824910757, 0.3, 0
70, 0.76051061513024, 0.3, 0
71, 0.70612898213774, 0.3, 0
72, 0.65247591257597, 0.3, 0
73, 0.60046803487565, 0.3, 0
74, 0.94810241152246, 0.3, 0
75, 0.89543728637106, 0.3, 0
76, 0.84199747682949, 0.3, 0
77, 0.78777902138565, 0.3, 0
78, 0.73324220887483, 0.3, 0
79, 0.67901575540064, 0.3, 0
80, 0.6259360697513, 0.3, 0
81, 0.55012953791737, 0.3, 0
82, 0.50061291280299, 0.3, 0
83, 0.45048337488562, 0.3, 0
84, 0.52525907583475, 0.3, 0
85, 0.47596674977124, 0.3, 0
86, 0.39894142381112, 0.3, 0
87, 0.34640468799818, 0.3, 0
88, 0.29308897612992, 0.3, 0
89, 0.23907485554712, 0.3, 0
90, 0.18468386998497, 0.3, 0
91, 0.13070551828369, 0.3, 0
92, 0.077665357927176, 0.3, 0
93, 0.025694566024201, 0.3, 0
94, 0.37288284762225, 0.3, 0
95, 0.31992652837411, 0.3, 0
96, 0.26625142388574, 0.3, 0
97, 0.21189828720851, 0.3, 0
98, 0.15746945276143, 0.3, 0
99, 0.10394158380595, 0.3, 0
100, 0.051389132048401, 0.3, 0
101, 0, 0.2740924214629, 0
102, 0, 0.2211894214021, 0
103, 0, 0.1662815093982, 0
104, 0, 0.11068453738056, 0
105, 0, 0.055429909806284, 0
106, 0, 1.4997350813617e-05, 0
107, 0, -0.055788139686097, 0
108, 0, -0.11136918652873, 0
109, 0, -0.16633993562957, 0
110, 0, -0.22060518499235, 0
111, 0, -0.27376118073933, 0
112, 0, 0.2481848429258, 0
113, 0, 0.19419399987839, 0
114, 0, 0.13836901891801, 0
115, 0, 0.083000055843108, 0
116, 0, 0.027859763769461, 0
117, 0, -0.027829769067833, 0
118, 0, -0.083746510304361, 0
119, 0, -0.1389918627531, 0
120, 0, -0.19368800850604, 0
121, 0, -0.24752236147866, 0
122, 0.64163501340256, 0.0041326868792503, 0
123, 0.70751478080769, -0.077087138501497, 0
124, 0.74476250795077, -0.11807821381784, 0
125, 0.76685453485223, -0.16731129574257, 0
126, 0.75038878514558, -0.21794887287084, 0
127, 0.69725701739354, -0.23123834724019, 0
128, 0.64311410282991, -0.21860899701545, 0
129, 0.59283861740929, -0.19478688553682, 0
130, 0.54034310981389, -0.17643487293256, 0
131, 0.4956726442069, -0.20596720373008, 0
132, 0.4433678854304, -0.20996899216558, 0
133, 0.39476529531341, -0.18496556479296, 0
134, 0.33993481939166, -0.17339797558243, 0
135, 0.28870978532968, -0.15267289870246, 0
136, 0.26607109168863, -0.10319578806416, 0
137, 0.28543224843136, -0.050779913384992, 0
138, 0.3146408424083, -0.0029774062765836, 0
139, 0.31028802443721, 0.053145751516152, 0
140, 0.30366653752795, 0.11013347779494, 0
141, 0.32445961459902, 0.16414965570839, 0
142, 0.3697830266503, 0.19904615834258, 0
143, 0.42261791987115, 0.21312657986877, 0
144, 0.47443223517636, 0.20223927485756, 0
145, 0.5144623996847, 0.16560633304747, 0
146, 0.53957700633548, 0.11539541120376, 0
147, 0.58004400471, 0.085024084967085, 0
148, 0.63306313405757, 0.089090516042739, 0
149, 0.6634437126658, 0.049507884268236, 0
150, 0.66284301699006, -0.042228286431018, 0
151, 0.6544115094711, 0.025222879433079, 0
152, 0.65755556717645, 0.076234625139924, 0
153, 0.60636715799937, 0.089384307806363, 0
154, 0.55212822496326, 0.089883240627981, 0
155, 0.52847235250497, 0.141473221122, 0
156, 0.49617262991737, 0.18674931503273, 0
157, 0.44927558511442, 0.21126635438757, 0
158, 0.39630145520752, 0.20882586193763, 0
159, 0.34553442019209, 0.18449813301166, 0
160, 0.30994677487417, 0.13862620252134, 0
161, 0.30467393183323, 0.0810635701377, 0
162, 0.31658547359174, 0.025396937523059, 0
163, 0.30122576980584, -0.027346945128438, 0
164, 0.27237663641655, -0.075927542246793, 0
165, 0.27122657706365, -0.13104771222432, 0
166, 0.31280792663464, -0.16591451473509, 0
167, 0.36759924094672, -0.17818808672038, 0
168, 0.41980971142392, -0.19753641132054, 0
169, 0.47012463019256, -0.21426677274149, 0
170, 0.51722901776162, -0.19054270628504, 0
171, 0.56802003425382, -0.18184572905241, 0
172, 0.617712413425, -0.20762580385894, 0
173, 0.66953916173577, -0.22688796331244, 0
174, 0.72535618032256, -0.22936102476696, 0
175, 0.76586857805471, -0.19462355290616, 0
176, 0.75852899325152, -0.14158925403255, 0
177, 0.72765869502074, -0.096913525635893, 0
178, 0.68572277817768, -0.059105290794065, 0
179, 0.27994292895135, -0.16655043391771, 0
180, 0.35136530589781, 0.27272783364719, 0
181, 0.052787526415737, -0.24841810717243, 0
182, 0.10590487908452, -0.2501372591981, 0
183, 0.15999492818747, -0.25267458129629, 0
184, 0.21554934798619, -0.25659642154397, 0
185, 0.40743002211632, -0.24138028828302, 0
186, 0.43000920334626, -0.22015184872735, 0
187, 0.39936815643368, -0.25199686025978, 0
188, 0.37524212082584, -0.21400158132531, 0
189, 0.58198009041047, 0.25405415388908, 0
190, 0.40862168671384, -0.2739582750545, 0
191, 0.38434344408609, -0.19988453392257, 0
192, 0.47866085142757, -0.23597345784724, 0
193, 0.79353373883866, -0.24589301839109, 0
194, 0.23019531776843, -0.034734770022219, 0
195, 0.26808623343553, 0.26801362131264, 0
196, 0.10860672830198, 0.13046249820545, 0
197, 0.1599369083823, 0.18307759140901, 0
198, 0.054354212588115, 0.13439782932066, 0
199, 0.10689549147943, 0.18686921584235, 0
200, 0.14039434766118, 0.071283446141441, 0
201, 0.053452260327071, 0.19024135078796, 0
202, 0.052641344822932, 0.24547767016722, 0
203, 0.1591296253623, 0.24120857974586, 0
204, 0.10566778937685, 0.24344172487382, 0
205, 0.23953926287637, 0.021466700949335, 0
206, 0.21333572965491, 0.23818936032098, 0
207, 0.37828492536673, 0.27477056644759, 0
208, 0.32891457547665, 0.24059908646441, 0
209, 0.20128041082241, -0.027504981380896, 0
210, 0.23077906705258, 0.11634937653296, 0
211, 0.21069381685598, 0.14886025186443, 0
212, 0.18661054566445, 0.12536667414079, 0
213, 0.26445892347325, 0.16434471488066, 0
214, 0.17311038917554, 0.037930699465905, 0
215, 0.11161648084687, 0.073549369775892, 0
216, 0.055480970243871, 0.078317414532425, 0
217, 0.11351535119516, 0.015875384880081, 0
218, 0.056301880259524, 0.022113492158545, 0
219, 0.16539421548079, -0.20469183532353, 0
220, 0.1091117089912, -0.19974192782249, 0
221, 0.054320044221039, -0.19622188794745, 0
222, 0.22506662690357, -0.21288642730507, 0
223, 0.23563030761252, -0.16352620595544, 0
224, 0.27145577451168, -0.26222831713217, 0
225, 0.11111753422327, -0.14817055988679, 0
226, 0.16810946407214, -0.15467518322066, 0
227, 0.055382953843935, -0.14310149101573, 0
228, 0.11324533823171, -0.040592605818281, 0
229, 0.056415756466555, -0.033803418542961, 0
230, 0.056043601575461, -0.088965077032178, 0
231, 0.11223803099673, -0.095195199786749, 0
232, 0.22549847200925, -0.061512010156805, 0
233, 0.17038216981502, -0.049448922551567, 0
234, 0.16824722915255, -0.10302898143778, 0
235, 0.22167178558807, -0.11249879783675, 0
236, 0.78094259363458, 0.18269925770018, 0
237, 0.71837368123447, 0.17731690691499, 0
238, 0.69287526151545, 0.070491235316792, 0
239, 0.83591727110234, 0.12787178079909, 0
240, 0.891127553033, 0.13143923399874, 0
241, 0.94575688737832, 0.13513619113723, 0
242, 0.83707742185698, 0.18544635439197, 0
243, 0.8919792791645, 0.18798375771462, 0
244, 0.94618783403836, 0.1907388565524, 0
245, 0.94692071648224, 0.24564389768278, 0
246, 0.89337649657469, 0.24417349640936, 0
247, 0.83914444666428, 0.24294849685102, 0
248, 0.72873527197379, 0.24287861066942, 0
249, 0.78409252513426, 0.24211441770398, 0
250, 0.66965229669421, 0.19601722630534, 0
251, 0.67644496015845, 0.24723273164794, 0
252, 0.62620911947949, 0.20243667155526, 0
253, 0.62785417379391, 0.25112809166715, 0
254, 0.5383934505772, 0.254626914316, 0
255, 0.50620655037906, 0.19780973756569, 0
256, 0.52493418932243, 0.23168398906614, 0
257, 0.54362982656348, 0.18291776626392, 0
258, 0.62422011477991, 0.1471162911762, 0
259, 0.66061822692812, 0.15549911344118, 0
260, 0.68656164625828, 0.14829369554575, 0
261, 0.65520795131496, 0.12510262098834, 0
262, 0.68580831746354, 0.11899278867874, 0
263, 0.72582352711063, 0.094389076091965, 0
264, 0.80606668720524, 0.038428130401327, 0
265, 0.83507149186273, 0.070138489536171, 0
266, 0.83521646076257, 0.011439575761761, 0
267, 0.89081181399496, 0.074637338039064, 0
268, 0.94563168091542, 0.079152770591132, 0
269, 0.94591431191024, 0.023217901372748, 0
270, 0.89131630916748, 0.017759399606539, 0
271, 0.84558649844346, -0.099757004424225, 0
272, 0.89615590388154, -0.092435811325742, 0
273, 0.94786445957929, -0.086936719861256, 0
274, 0.94672628877475, -0.032288428021092, 0
275, 0.89325303183768, -0.0383637431822, 0
276, 0.83895775286032, -0.046685996845951, 0
277, 0.79833810659022, -0.11144594463999, 0
278, 0.77540822525968, -0.029718519024206, 0
279, 0.74235590443859, 0.0027606350229105, 0
280, 0.77820380275065, 0.066646079533561, 0
281, 0.71057582892556, 0.0081213821532134, 0
282, 0.84941069720153, -0.19733852561796, 0
283, 0.89839494549426, -0.19601783614977, 0
284, 0.94874251600465, -0.14072694697631, 0
285, 0.84976555222673, -0.14847488741112, 0
286, 0.89824931551715, -0.14452099069423, 0
287, 0.80543211731375, -0.15135441029862, 0
288, 0.80377982929051, -0.19686270870917, 0
289, 0.84546485410179, -0.24786355632564, 0
290, 0.89688756445929, -0.24781684747985, 0
291, 0.94891161887631, -0.19414513073903, 0
292, 0.94847690495447, -0.24726432657187, 0
293, 0.4172165216486, 0.23192513043689, 0
294, 0.43138548389828, 0.27645592180616, 0
295, 0.26975702360225, 0.23484111684426, 0
296, 0.70130819070668, -0.025693421124538, 0
297, 0.78214487406666, -0.061435682267772, 0
298, 0.20780950980302, 0.10432830587825, 0
299, 0.75333060052733, 0.12236018750514, 0
300, 0.51651105584589, 0.2533668302427, 0
301, 0.56346267107236, 0.23317279625295, 0
302, 0.60528177060312, 0.22923070779075, 0
303, 0.25727378103347, -0.1491769336095, 0
304, 0.22293362445988, -0.13646436341486, 0
305, 0.24529051610324, -0.11736678863146, 0
306, 0.30373967947437, 0.19248775568471, 0
307, 0.55995929185669, 0.17263142390449, 0
308, 0.21218328764817, 0.17711200989061, 0
309, 0.64402453630418, 0.15605195999266, 0
310, 0.65919292151759, 0.14017699715674, 0
311, 0.63960879327997, 0.13075512672339, 0
312, 0.22395603194726, 0.09242403749576, 0
313, 0.25820353304501, -0.042663574794324, 0
314, 0.1861510918926, 0.18057022847509, 0
315, 0.65209073634212, 0.10650352370648, 0
316, 0.67024162351965, 0.12249543799715, 0
317, 0.68008048823645, 0.099539665598159, 0
318, 0.77653536146828, 0.036528104289408, 0
319, 0.57021086077966, 0.13409572816967, 0
320, 0.53689291267565, 0.16514563809837, 0
321, 0.54789181856688, 0.21454322978861, 0
322, 0.47934160006554, 0.22193718599702, 0
323, 0.35688100730352, 0.24635348781574, 0
324, 0.26583485014534, -0.28087442233608, 0
325, 0.3933613616915, -0.27433592789813, 0
326, 0.77744154353252, -0.12125516021693, 0
327, 0.80447560760045, -0.13128472416182, 0
328, 0.78480753618889, -0.15069258298993, 0
329, 0.23015183297529, -0.18973189934469, 0
330, 0.27732818153042, -0.24404159897716, 0
331, 0.32472856908441, -0.20144153224233, 0
332, 0.7859155225536, 0.27117164662828, 0
333, 0.75633577305063, 0.24212942100009, 0
334, 0.73122605269803, 0.27165369845124, 0
335, 0.75850781286463, 0.27124293810065, 0
336, 0.97283958187566, 0.081357353703643, 0
337, 0.94565152228722, 0.10716374680813, 0
338, 0.97290741907647, 0.13708420827555, 0
339, 0.97285143663682, 0.10923653730073, 0
340, 0.97297702791448, 0.025740199841737, 0
341, 0.97336442023153, -0.029626249727778, 0
342, 0.94625416323356, -0.0046182962962454, 0
343, 0.97314029391195, -0.0019874701871928, 0
344, 0.97389824782099, -0.08450412909624, 0
345, 0.97432595088951, -0.13887952580728, 0
346, 0.9483747402279, -0.11390976767833, 0
347, 0.97414374008753, -0.11172429936606, 0
348, 0.028012801650767, -0.086256076249539, 0
349, 0.02817964701967, -0.030788285225216, 0
350, 0.056270416642589, -0.061502252541777, 0
351, 0.028119822277765, -0.058591369818929, 0
352, 0.84308506696435, -0.27377342135553, 0
353, 0.78926803967004, -0.27236304050637, 0
354, 0.81974877774725, -0.24730412414236, 0
355, 0.81642988589544, -0.2733417129341, 0
356, 0.945707488326, 0.051159818943329, 0
357, 0.97287952165854, 0.053529387885558, 0
358, 0.026379492847667, -0.24782995323992, 0
359, 0.05190432981486, -0.27424515905437, 0
360, 0.025945382719289, -0.27395755075089, 0
361, 0.027678452104545, -0.14095025278485, 0
362, 0.054912651337867, -0.16978365563895, 0
363, 0.027141298138933, -0.19483490866343, 0
364, 0.027439405133078, -0.16798499628689, 0
365, 0.055973596550292, 0.050212225352342, 0
366, 0.028095417332591, 0.024983959713805, 0
367, 0.027698271192078, 0.080689913759232, 0
368, 0.027931061809169, 0.052843647789182, 0
369, 0.94728399591364, -0.059734514774646, 0
370, 0.97362511179361, -0.057131634977721, 0
371, 0.056441338769339, -0.005916668531652, 0
372, 0.028176863531105, -0.0029230175517185, 0
373, 0.32044570555353, -0.28364770403503, 0
374, 0.29330869066734, -0.28229026065827, 0
375, 0.39471031022389, -0.28686770313649, 0
376, 0.23838895757104, -0.27947553782566, 0
377, 0.97442560899153, -0.19322896397746, 0
378, 0.94892554304327, -0.16746777842317, 0
379, 0.97442119567713, -0.16607764457537, 0
380, 0.053871280241395, 0.16236367152273, 0
381, 0.02716795084618, 0.1364037412377, 0
382, 0.026714407384062, 0.19206037263255, 0
383, 0.026929234572461, 0.16427912290047, 0
384, 0.079270928171887, -0.24919189379802, 0
385, 0.10398930750688, -0.27508326667805, 0
386, 0.07789507272515, -0.27462078952287, 0
387, 0.84046636466344, 0.27152114185824, 0
388, 0.81171638316343, 0.24245018876072, 0
389, 0.81325130462357, 0.27129520733559, 0
390, 0.87114268753887, -0.24796737743553, 0
391, 0.89590703752049, -0.27387602276981, 0
392, 0.86953398699567, -0.27390563944943, 0
393, 0.21276444396986, 0.26916281140585, 0
394, 0.18609123924581, 0.23982451020624, 0
395, 0.15844179780343, 0.27059426907596, 0
396, 0.18550769735608, 0.2699123427373, 0
397, 0.48386733690018, 0.27586485677078, 0
398, 0.40486752010227, 0.27607090619074, 0
399, 0.33529510463301, 0.21058221183043, 0
400, 0.39019500429577, 0.2285061788699, 0
401, 0.32402015766151, 0.2703479198476, 0
402, 0.70202212211961, 0.24490881711816, 0
403, 0.6780682005219, 0.27359122447906, 0
404, 0.70436451206537, 0.27252083413677, 0
405, 0.2411016562814, 0.23638281668788, 0
406, 0.24026675449567, 0.26843942606075, 0
407, 0.39431290505094, -0.26270893957561, 0
408, 0.40805544540764, -0.20946187597153, 0
409, 0.36738856088386, -0.22785791733779, 0
410, 0.37393917101775, -0.27260925785017, 0
411, 0.86635154246273, 0.24353290191302, 0
412, 0.89430366829474, 0.27212154329152, 0
413, 0.86746135999537, 0.27180333310176, 0
414, 0.055750906440746, -0.11616016587064, 0
415, 0.027866686436848, -0.11369269241996, 0
416, 0.054906393399667, 0.10638717145321, 0
417, 0.027430946284366, 0.108549054748, 0
418, 0.13234194460002, 0.2423906671273, 0
419, 0.10492473679961, 0.27173686882916, 0
420, 0.131609778506, 0.27119347993779, 0
421, 0.34333636348503, -0.22221014162607, 0
422, 0.42340057079316, -0.2500010758539, 0
423, 0.41782052147497, -0.23071041694603, 0
424, 0.052126902887381, 0.27279864606545, 0
425, 0.026286659316078, 0.24665454232367, 0
426, 0.026022237191421, 0.27340067843493, 0
427, 0.41104109935399, 0.25317151758579, 0
428, 0.53207990488651, 0.27702206863637, 0
429, 0.5084130299337, 0.27644362054988, 0
430, 0.13279020205626, -0.25128079850461, 0
431, 0.156885891797, -0.27632601784993, 0
432, 0.13032808244027, -0.27564445766394, 0
433, 0.18759964128104, -0.25440756777618, 0
434, 0.21094873420785, -0.27820749387882, 0
435, 0.18379758642986, -0.27716682893805, 0
436, 0.29955841634999, 0.23497457488833, 0
437, 0.43823381339882, 0.25342476304635, 0
438, 0.49311769937059, 0.25150539535707, 0
439, 0.29790636752262, -0.19357984306072, 0
440, 0.29049266742565, -0.20946560970497, 0
441, 0.94593900837906, 0.163006046753, 0
442, 0.97312387962765, 0.19231851262357, 0
443, 0.97299599704175, 0.16477874350607, 0
444, 0.94824201308802, -0.27365861329684, 0
445, 0.9742459671759, -0.2470907494672, 0
446, 0.97415086232006, -0.27359452112204, 0
447, 0.079105145765118, 0.24444380811004, 0
448, 0.078456389609695, 0.2722579564225, 0
449, 0.92267490504081, -0.24754679616714, 0
450, 0.92211866082049, -0.27377201084736, 0
451, 0.65179085754634, 0.24932105553814, 0
452, 0.6273208424123, 0.27556049855274, 0
453, 0.65243327439899, 0.27463058792195, 0
454, 0.94651185708519, 0.21827486481116, 0
455, 0.97349435934762, 0.24652564664344, 0
456, 0.97328968422298, 0.21951475081754, 0
457, 0.94742915039075, 0.27286372664375, 0
458, 0.9737477543242, 0.27330421346715, 0
459, 0.25510425701983, -0.21973645518042, 0
460, 0.38200054741185, -0.24668887062545, 0
461, 0.28363148151433, -0.22638944445537, 0
462, 0.57894946539199, 0.2769508601674, 0
463, 0.56000422851856, 0.2547998632425, 0
464, 0.55545403120622, 0.27721120489807, 0
465, 0.504816303961, 0.22740719548531, 0
466, 0.6045862422865, 0.25273675410988, 0
467, 0.60289812538055, 0.2763553413142, 0
468, 0.16165282970257, 0.12688909714875, 0
469, 0.30557603266843, -0.17903337294579, 0
470, 0.31755288824919, -0.21643756116249, 0
471, 0.24362591427496, -0.25930326316647, 0
472, 0.43710036837112, -0.24046979909217, 0
473, 0.91830198713441, 0.076911178124445, 0
474, 0.8908974202486, 0.10306603836014, 0
475, 0.91851097093507, 0.13326329628953, 0
476, 0.91834077013949, 0.10510940034299, 0
477, 0.67415925207706, -0.26320799455045, 0
478, 0.35068274058625, -0.20764265368231, 0
479, 0.053605310799653, -0.22242098059818, 0
480, 0.026784944894551, -0.2214254362789, 0
481, 0.42271395134618, -0.26866007897298, 0
482, 0.3322386617585, -0.18712640393934, 0
483, 0.92021948253902, 0.24487208492197, 0
484, 0.92093361209506, 0.27247289438204, 0
485, 0.053060123889087, 0.21794774327802, 0
486, 0.026508720138424, 0.21947653261405, 0
487, 0.92003707601908, -0.035157684118442, 0
488, 0.89209731806293, -0.01048808971482, 0
489, 0.9187197534633, 0.020575267515299, 0
490, 0.91926766925082, -0.0074196957600532, 0
491, 0.94873699597921, -0.22074659125428, 0
492, 0.97435445784648, -0.2202317782223, 0
493, 0.17071071472388, 0.069385305921308, 0
494, 0.10628913769339, 0.21513867912906, 0
495, 0.15959153672101, 0.21197215270611, 0
496, 0.13293573237798, 0.21365887867667, 0
497, 0.86307308556282, 0.072360471752164, 0
498, 0.83547867664069, 0.099081550790081, 0
499, 0.86360514891192, 0.12964309831053, 0
500, 0.86327946099908, 0.10104526646354, 0
501, 0.83799949061579, 0.21424885935771, 0
502, 0.80924656378273, 0.18414838956936, 0
503, 0.78232519613962, 0.21262871044495, 0
504, 0.81032834001411, 0.21338839052965, 0
505, 0.73034523154637, -0.26676143940361, 0
506, 0.35531922475031, -0.25584412282365, 0
507, 0.70166241502461, -0.26528424523377, 0
508, 0.081525467129018, 0.13241022914717, 0
509, 0.10996489714449, 0.1021605231868, 0
510, 0.08341282127156, 0.075923939640175, 0
511, 0.082426166013532, 0.10423320685051, 0
512, 0.84773472291644, -0.22239717653555, 0
513, 0.87362477243808, -0.19681101477969, 0
514, 0.89778043183262, -0.22186146394278, 0
515, 0.87259357937042, -0.2222658164315, 0
516, 0.17189890881568, -0.021488337454997, 0
517, 0.21323969227162, 0.20724549797828, 0
518, 0.1863039484077, 0.20991045064816, 0
519, 0.084761276047109, -0.03702307542528, 0
520, 0.11275815449945, -0.068119751379014, 0
521, 0.084119261420018, -0.091917822999121, 0
522, 0.084483535712012, -0.064637665929552, 0
523, 0.11171702450644, -0.12186586679249, 0
524, 0.083171356727582, -0.14548611354802, 0
525, 0.083691945730542, -0.11886035652495, 0
526, 0.72511527417752, 0.21268915623144, 0
527, 0.75151779134461, 0.18079172762008, 0
528, 0.75389220648257, 0.2121610320468, 0
529, 0.92192548270638, -0.08954374875001, 0
530, 0.89468014590172, -0.065699881137832, 0
531, 0.92097181279221, -0.062546036087376, 0
532, 0.92334006418826, -0.14259311444831, 0
533, 0.89741062558286, -0.11864691682204, 0
534, 0.92275994001703, -0.11619174703751, 0
535, 0.89091553347901, 0.046180370863148, 0
536, 0.91841792168787, 0.048713125807442, 0
537, 0.58388870430207, 0.2315152867823, 0
538, 0.44540576788695, 0.23099890450889, 0
539, 0.2504631787071, -0.068569437512399, 0
540, 0.13543222803945, 0.12859801134338, 0
541, 0.084724958349601, 0.019125670103313, 0
542, 0.11356501884813, -0.012584920981415, 0
543, 0.084875356983371, -0.0090859206451679, 0
544, 0.76516923292144, -0.24243763683115, 0
545, 0.76088227809055, -0.27037560212648, 0
546, 0.75219996848542, 0.094614145654339, 0
547, 0.70141824982712, 0.095615828353209, 0
548, 0.72137019436334, 0.067394988992175, 0
549, 0.77964271156617, 0.095691120410124, 0
550, 0.33673248395406, -0.2370286153635, 0
551, 0.32548507656599, -0.26772363773361, 0
552, 0.45777080335734, -0.25153301608395, 0
553, 0.61364526315201, 0.11773200575345, 0
554, 0.51900914140514, 0.20703741937948, 0
555, 0.59960661138993, 0.15403638114681, 0
556, 0.1896000164938, 0.099409355765458, 0
557, 0.25422440305561, 0.10606005169242, 0
558, 0.27747762608455, 0.066225621579995, 0
559, 0.20609556496977, 0.032306153693046, 0
560, 0.80553441497975, -0.17324533225684, 0
561, 0.78341200244991, -0.1957053986412, 0
562, 0.78543262672754, -0.17164758879839, 0
563, 0.37210658508686, -0.28617478331618, 0
564, 0.36076593572, -0.24174729110129, 0
565, 0.29885000917825, -0.26507299544893, 0
566, 0.13696696612933, -0.20198182783713, 0
567, 0.16288326904022, -0.22886135158195, 0
568, 0.10763412350437, -0.22505617608662, 0
569, 0.13504252058279, -0.22676978868762, 0
570, 0.7905601194602, -0.088398933523217, 0
571, 0.7661752399132, -0.10071612988623, 0
572, 0.77516636114233, 0.0046118005705645, 0
573, 0.17306658118445, 0.0075402508486365, 0
574, 0.36305911276645, 0.22146656053832, 0
575, 0.23484864404124, 0.14271619130785, 0
576, 0.35876192735229, -0.19311510150531, 0
577, 0.68864755115133, 0.043803345986645, 0
578, 0.22241646230169, -0.087544444937943, 0
579, 0.24587876140015, -0.094113680941434, 0
580, 0.89149222795623, 0.15974692998196, 0
581, 0.91915410104512, 0.18931445403106, 0
582, 0.91877622403404, 0.16134225768334, 0
583, 0.3841090870434, 0.25071416973004, 0
584, 0.24887980489803, 0.07926258859631, 0
585, 0.26187991050941, -0.20049635081176, 0
586, 0.24912869423444, -0.23939396813344, 0
587, 0.11289075133537, 0.044679716000697, 0
588, 0.084232950083548, 0.047510936392233, 0
589, 0.86356302137397, 0.014722363688378, 0
590, 0.83489430605907, 0.040918335614169, 0
591, 0.86311868001206, 0.043563032753397, 0
592, 0.45796702693934, 0.27588684007366, 0
593, 0.27004801289677, 0.19898330997292, 0
594, 0.46673663901574, 0.25093639284048, 0
595, 0.38893915753232, -0.23417965341562, 0
596, 0.43909165543697, -0.26132513537316, 0
597, 0.33082995565669, -0.25218909090413, 0
598, 0.54396756093905, 0.23348964792071, 0
599, 0.6737549537582, 0.22111737297782, 0
600, 0.6922939894049, 0.18962750651498, 0
601, 0.69838150774616, 0.21705077761233, 0
602, 0.2789067138709, 0.094114173801089, 0
603, 0.27652807730319, 0.038213835735583, 0
604, 0.20922257347968, 0.12371284093251, 0
605, 0.14229470376271, 0.04160026314612, 0
606, 0.79934395539352, -0.22123462548312, 0
607, 0.77572156616729, -0.21987416020553, 0
608, 0.62748664383124, 0.22678033044418, 0
609, 0.647862746567, 0.19977329236303, 0
610, 0.65028338916061, 0.22424187636161, 0
611, 0.081611039278756, -0.19784709324381, 0
612, 0.080526305908455, -0.22362353951069, 0
613, 0.31084791933277, -0.23209253819356, 0
614, 0.3469603952679, -0.28495635365435, 0
615, 0.80675940629329, 0.068132095972813, 0
616, 0.74644403406722, 0.03615583956804, 0
617, 0.70486897321485, 0.11835929603383, 0
618, 0.19470627692206, -0.20813780803818, 0
619, 0.22022968588705, -0.2349371269476, 0
620, 0.19128965194385, -0.23149708588723, 0
621, 0.11027757621458, -0.17412709202516, 0
622, 0.082492228039123, -0.17180905287604, 0
623, 0.60478062589971, 0.20568116468705, 0
624, 0.55272701556702, 0.14908705205118, 0
625, 0.59122972601085, 0.12388638263688, 0
626, 0.080192575534105, 0.18854936846415, 0
627, 0.079658606781976, 0.21653303155856, 0
628, 0.26998318663961, -0.18230710288508, 0
629, 0.89259797513497, 0.21613169193436, 0
630, 0.91962617718586, 0.21715875064819, 0
631, 0.5842912985115, 0.20931418565157, 0
632, 0.13933783811271, -0.15121410870314, 0
633, 0.1672536455837, -0.17998124067158, 0
634, 0.13842667211807, -0.17680627728059, 0
635, 0.63419003138607, 0.11093529291331, 0
636, 0.14257943410983, -0.016625507908646, 0
637, 0.14183780997275, -0.044671921867207, 0
638, 0.25899450436866, 0.13387834249051, 0
639, 0.92353382655728, -0.19509701845732, 0
640, 0.92318923168958, -0.22131909767277, 0
641, 0.71681668044029, 0.038845999746594, 0
642, 0.80753520258885, 0.097253056695939, 0
643, 0.10761887021856, 0.15865691102424, 0
644, 0.24282332212405, 0.051392359413985, 0
645, 0.16905925957576, -0.076574790665646, 0
646, 0.1403399260315, -0.098885247958054, 0
647, 0.14101956379412, -0.072060498946116, 0
648, 0.89857721016267, -0.170262176265, 0
649, 0.92360166329824, -0.1688680665042, 0
650, 0.86464293079295, 0.18670398310543, 0
651, 0.86540171004178, 0.21516576590947, 0
652, 0.080790277870411, 0.16050461771937, 0
653, 0.16798439764311, -0.1289794732611, 0
654, 0.13983055890097, -0.12523532444018, 0
655, 0.28231859200879, 0.12267933648508, 0
656, 0.23527181622335, -0.0071810900243196, 0
657, 0.16045568939846, 0.15471892567021, 0
658, 0.30464175859455, -0.24832879438531, 0
659, 0.39768775613432, -0.22177064159565, 0
660, 0.8364289914662, 0.15663381085035, 0
661, 0.86405519277885, 0.15818864170459, 0
662, 0.78069616887208, 0.1531345857197, 0
663, 0.80864061492774, 0.15500359852867, 0
664, 0.19849446333575, -0.055066042768178, 0
665, 0.19558118396352, -0.10760972408707, 0
666, 0.19644131026413, -0.081733867392776, 0
667, 0.13423802478934, 0.15675906186568, 0
668, 0.2736119633192, 0.010175671388731, 0
669, 0.87363780981216, -0.14650376734233, 0
670, 0.85012223811315, -0.17270687617336, 0
671, 0.87400975410646, -0.1715851555349, 0
672, 0.82694058625781, -0.15024145220296, 0
673, 0.82129740848216, -0.10477285953061, 0
674, 0.84828644918205, -0.12435986690466, 0
675, 0.82527574782518, -0.1277066262773, 0
676, 0.18601475319108, 0.15228732961121, 0
677, 0.26685018519492, -0.01665241405439, 0
678, 0.20668949844418, 0.068702534566275, 0
679, 0.68140443654817, 0.016393535374935, 0
680, 0.74962492183992, 0.06619122103612, 0
681, 0.28942411130517, 0.153269495045, 0
682, 0.24082789116188, 0.20369245729712, 0
683, 0.6753278491129, 0.15230378921377, 0
684, 0.68742062338065, 0.13582012173998, 0
685, 0.67307562685798, 0.13771769456831, 0
686, 0.37701927873758, -0.25943887908968, 0
687, 0.19840600431301, -0.15863883725945, 0
688, 0.19744300542798, -0.18394892604681, 0
689, 0.72603629132903, 0.14636250339259, 0
690, 0.752834251991, 0.15058686416412, 0
691, 0.87064449649466, -0.095763778077239, 0
692, 0.84223759020955, -0.073974805005881, 0
693, 0.86627658594953, -0.04209862575004, 0
694, 0.8684341564594, -0.069401523849463, 0
695, 0.72764029275587, 0.12023290852466, 0
696, 0.6972213467201, 0.15699583427649, 0
697, 0.70393582565498, 0.13911061724683, 0
698, 0.83646869366043, -0.018008492392226, 0
699, 0.86457780179042, -0.013950299177841, 0
700, 0.16437462189811, 0.099078530827366, 0
701, 0.14288386072904, 0.012150288304848, 0
702, 0.23825982976918, 0.17192514285455, 0
703, 0.78046771543054, 0.12429765338017, 0
704, 0.81102397940803, -0.052722430986039, 0
705, 0.81618617822376, -0.079983136849756, 0
706, 0.87249452293848, -0.12134840830256, 0
707, 0.19595598721155, -0.13295410579168, 0
708, 0.20406688696617, 0.0013020226445938, 0
709, 0.66440652457399, 0.1738406498281, 0
710, 0.62447955852296, 0.17735781107341, 0
711, 0.64514528051539, 0.17664884524145, 0
712, 0.82600294716053, -0.19741595355055, 0
713, 0.827196194471, -0.17339239433559, 0
714, 0.57847741472021, 0.16254597886899, 0
715, 0.7527639036746, -0.075373413073484, 0
716, 0.80814847962893, 0.12610325022276, 0
717, 0.82329988388855, -0.22209656898696, 0
718, 0.68228934421313, 0.16783179778144, 0
719, 0.80720691589637, -0.02300507194041, 0
720, 0.29612880478712, 0.26842312307746, 0
721, 0.73606382312451, -0.040983914435629, 0
722, 0.13741375029575, 0.10031197063712, 0
723, 0.67204532898774, -0.011587854219321, 0
724, 0.56519957640407, 0.2126399601273, 0
725, 0.2423374640872, -0.13501205462987, 0
726, 0.54848715794948, 0.19830625915946, 0
727, 0.1335011264327, 0.18509469744115, 0
728, 0.64715920856054, 0.14244858614022, 0
729, 0.6668338217334, 0.10814424772926, 0
730, 0.8059377397872, 0.0079568637134089, 0
731, 0.5326064472747, 0.21345770271978, 0
732, 0.35085069458719, -0.27024062651808, 0
733, 0.78817279352475, -0.13460387937124, 0
734, 0.41240681999772, -0.25836812789172, 0
735, 0.56429398093595, 0.1929671329703, 0
736, 0.58267797805962, 0.18687346128066, 0
737, 0.60296669043979, 0.18132851170357, 0
738, 0.52976030389033, 0.1927893677675, 0
739, 0.52166116310799, 0.18068250875909, 0
740, 0.53690294134913, 0.20150658790806, 0
741, 0.64756642017441, -0.25996247170896, 0
742, 0.62134931141245, -0.25580089217923, 0
743, 0.59510081357612, -0.25129873968579, 0
744, 0.56816893502901, -0.24735695524422, 0
745, 0.5396705013492, -0.24557431230329, 0
746, 0.43508354598479, -0.28198393151635, 0
747, 0.45708384272934, -0.27643481382508, 0
748, 0.48098191724215, -0.26753964111303, 0
749, 0.4051307825031, -0.26500469347725, 0
750, 0.45306571409886, -0.22933256710579, 0
751, 0.41491032508889, -0.28575823515673, 0
752, 0.50861597614502, -0.24735553859279, 0
******* E L E M E N T S *************
*ELEMENT, type=CPS4, ELSET=Surface1
1, 78, 334, 335, 70
2, 70, 335, 332, 77
3, 335, 333, 249, 332
4, 334, 248, 333, 335
5, 63, 338, 339, 52
6, 52, 339, 336, 62
7, 339, 337, 268, 336
8, 338, 241, 337, 339
9, 269, 342, 343, 340
10, 340, 343, 50, 61
11, 343, 341, 60, 50
12, 342, 274, 341, 343
13, 273, 346, 347, 344
14, 344, 347, 48, 59
15, 347, 345, 58, 48
16, 346, 284, 345, 347
17, 230, 350, 351, 348
18, 348, 351, 107, 118
19, 351, 349, 117, 107
20, 350, 229, 349, 351
21, 289, 354, 355, 352
22, 352, 355, 34, 42
23, 355, 353, 41, 34
24, 354, 193, 353, 355
25, 62, 336, 357, 51
26, 51, 357, 340, 61
27, 357, 356, 269, 340
28, 336, 268, 356, 357
29, 1, 10, 360, 111
30, 111, 360, 358, 121
31, 360, 359, 181, 358
32, 10, 18, 359, 360
33, 119, 109, 364, 361
34, 361, 364, 362, 227
35, 364, 363, 221, 362
36, 109, 120, 363, 364
37, 216, 367, 368, 365
38, 365, 368, 366, 218
39, 368, 105, 116, 366
40, 367, 115, 105, 368
41, 60, 341, 370, 49
42, 49, 370, 344, 59
43, 370, 369, 273, 344
44, 341, 274, 369, 370
45, 218, 366, 372, 371
46, 371, 372, 349, 229
47, 372, 106, 117, 349
48, 366, 116, 106, 372
49, 134, 166, 469, 482
50, 565, 658, 330, 224
51, 576, 482, 331, 478
52, 734, 187, 407, 749
53, 284, 378, 379, 345
54, 345, 379, 47, 58
55, 379, 377, 57, 47
56, 378, 291, 377, 379
57, 201, 382, 383, 380
58, 380, 383, 381, 198
59, 383, 103, 114, 381
60, 382, 113, 103, 383
61, 181, 359, 386, 384
62, 384, 386, 385, 182
63, 386, 11, 19, 385
64, 359, 18, 11, 386
65, 77, 332, 389, 69
66, 69, 389, 387, 76
67, 389, 388, 247, 387
68, 332, 249, 388, 389
69, 42, 35, 392, 352
70, 352, 392, 390, 289
71, 392, 391, 290, 390
72, 35, 43, 391, 392
73, 97, 90, 396, 393
74, 393, 396, 394, 206
75, 396, 395, 203, 394
76, 90, 98, 395, 396
77, 306, 141, 159, 399
78, 293, 538, 437, 427
79, 583, 427, 398, 207
80, 575, 702, 308, 211
81, 720, 88, 96, 195
82, 720, 401, 95, 88
83, 538, 322, 594, 437
84, 538, 157, 144, 322
85, 78, 71, 404, 334
86, 334, 404, 402, 248
87, 404, 403, 251, 402
88, 71, 79, 403, 404
89, 436, 208, 401, 720
90, 405, 406, 393, 206
91, 406, 89, 97, 393
92, 400, 158, 143, 293
93, 409, 421, 550, 564
94, 613, 461, 330, 658
95, 459, 222, 619, 586
96, 439, 628, 585, 440
97, 246, 412, 413, 411
98, 411, 413, 387, 247
99, 413, 68, 76, 387
100, 412, 75, 68, 413
101, 118, 108, 415, 348
102, 348, 415, 414, 230
103, 415, 361, 227, 414
104, 108, 119, 361, 415
105, 114, 104, 417, 381
106, 381, 417, 416, 198
107, 417, 367, 216, 416
108, 104, 115, 367, 417
109, 98, 91, 420, 395
110, 395, 420, 418, 203
111, 420, 419, 204, 418
112, 91, 99, 419, 420
113, 23, 373, 374, 15
114, 324, 224, 471, 376
115, 17, 375, 563, 24
116, 746, 481, 190, 751
117, 100, 93, 426, 424
118, 424, 426, 425, 202
119, 426, 101, 112, 425
120, 93, 8, 101, 426
121, 254, 428, 429, 300
122, 465, 554, 731, 256
123, 655, 681, 213, 638
124, 428, 84, 82, 429
125, 182, 385, 432, 430
126, 430, 432, 431, 183
127, 432, 12, 20, 431
128, 385, 19, 12, 432
129, 183, 431, 435, 433
130, 433, 435, 434, 184
131, 435, 13, 21, 434
132, 431, 20, 13, 435
133, 574, 400, 583, 323
134, 322, 465, 438, 594
135, 574, 142, 158, 400
136, 594, 438, 397, 592
137, 470, 440, 461, 613
138, 14, 376, 434, 21
139, 585, 329, 222, 459
140, 2, 751, 375, 17
141, 63, 53, 443, 338
142, 338, 443, 441, 241
143, 443, 442, 244, 441
144, 53, 64, 442, 443
145, 44, 37, 446, 444
146, 444, 446, 445, 292
147, 446, 45, 56, 445
148, 37, 4, 45, 446
149, 99, 92, 448, 419
150, 419, 448, 447, 204
151, 448, 424, 202, 447
152, 92, 100, 424, 448
153, 43, 36, 450, 391
154, 391, 450, 449, 290
155, 450, 444, 292, 449
156, 36, 44, 444, 450
157, 79, 72, 453, 403
158, 403, 453, 451, 251
159, 453, 452, 253, 451
160, 72, 80, 452, 453
161, 64, 54, 456, 442
162, 442, 456, 454, 244
163, 456, 455, 245, 454
164, 54, 65, 455, 456
165, 65, 55, 458, 455
166, 455, 458, 457, 245
167, 458, 66, 74, 457
168, 55, 5, 66, 458
169, 132, 168, 408, 186
170, 596, 422, 734, 481
171, 628, 223, 329, 585
172, 169, 132, 186, 750
173, 6, 81, 464, 462
174, 462, 464, 463, 189
175, 464, 428, 254, 463
176, 81, 84, 428, 464
177, 293, 143, 157, 538
178, 194, 232, 539, 313
179, 322, 144, 156, 255
180, 80, 73, 467, 452
181, 452, 467, 466, 253
182, 467, 462, 189, 466
183, 73, 6, 462, 467
184, 214, 605, 701, 573
185, 516, 636, 637, 233
186, 210, 575, 211, 604
187, 312, 210, 604, 298
188, 472, 423, 185, 422
189, 748, 552, 596, 747
190, 752, 192, 552, 748
191, 423, 659, 595, 185
192, 241, 475, 476, 337
193, 337, 476, 473, 268
194, 476, 474, 267, 473
195, 475, 240, 474, 476
196, 741, 477, 173, 128
197, 331, 439, 440, 470
198, 410, 686, 506, 732
199, 192, 750, 472, 552
200, 120, 110, 480, 363
201, 363, 480, 479, 221
202, 480, 358, 181, 479
203, 110, 121, 358, 480
204, 179, 303, 223, 628
205, 564, 550, 597, 506
206, 375, 325, 410, 563
207, 732, 506, 597, 551
208, 245, 457, 484, 483
209, 483, 484, 412, 246
210, 484, 67, 75, 412
211, 457, 74, 67, 484
212, 202, 425, 486, 485
213, 485, 486, 382, 201
214, 486, 102, 113, 382
215, 425, 112, 102, 486
216, 269, 489, 490, 342
217, 342, 490, 487, 274
218, 490, 488, 275, 487
219, 489, 270, 488, 490
220, 292, 445, 492, 491
221, 491, 492, 377, 291
222, 492, 46, 57, 377
223, 445, 56, 46, 492
224, 199, 727, 496, 494
225, 701, 217, 542, 636
226, 496, 418, 204, 494
227, 495, 203, 418, 496
228, 240, 499, 500, 474
229, 474, 500, 497, 267
230, 500, 498, 265, 497
231, 499, 239, 498, 500
232, 249, 503, 504, 388
233, 388, 504, 501, 247
234, 504, 502, 242, 501
235, 503, 236, 502, 504
236, 174, 127, 507, 505
237, 505, 507, 32, 40
238, 550, 613, 658, 597
239, 168, 133, 191, 408
240, 198, 416, 511, 508
241, 508, 511, 509, 196
242, 511, 510, 215, 509
243, 416, 216, 510, 511
244, 289, 390, 515, 512
245, 512, 515, 513, 282
246, 515, 514, 283, 513
247, 390, 290, 514, 515
248, 643, 667, 727, 199
249, 518, 394, 203, 495
250, 517, 206, 394, 518
251, 230, 521, 522, 350
252, 350, 522, 519, 229
253, 522, 520, 228, 519
254, 521, 231, 520, 522
255, 230, 414, 525, 521
256, 521, 525, 523, 231
257, 525, 524, 225, 523
258, 414, 227, 524, 525
259, 237, 527, 528, 526
260, 526, 528, 333, 248
261, 528, 503, 249, 333
262, 527, 236, 503, 528
263, 274, 487, 531, 369
264, 369, 531, 529, 273
265, 531, 530, 272, 529
266, 487, 275, 530, 531
267, 284, 346, 534, 532
268, 532, 534, 533, 286
269, 534, 529, 272, 533
270, 346, 273, 529, 534
271, 268, 473, 536, 356
272, 356, 536, 489, 269
273, 536, 535, 270, 489
274, 473, 267, 535, 536
275, 623, 737, 710, 252
276, 738, 740, 731, 554
277, 631, 736, 737, 623
278, 708, 573, 516, 209
279, 677, 313, 137, 163
280, 229, 519, 543, 371
281, 371, 543, 541, 218
282, 543, 542, 217, 541
283, 519, 228, 542, 543
284, 193, 544, 545, 353
285, 353, 545, 33, 41
286, 545, 505, 40, 33
287, 544, 174, 505, 545
288, 730, 719, 698, 266
289, 280, 615, 642, 549
290, 546, 549, 703, 299
291, 563, 410, 732, 614
292, 166, 135, 179, 469
293, 477, 507, 127, 173
294, 135, 165, 303, 179
295, 636, 542, 228, 637
296, 300, 256, 598, 254
297, 146, 624, 320, 155
298, 463, 301, 537, 189
299, 678, 493, 214, 559
300, 678, 559, 205, 644
301, 678, 556, 700, 493
302, 197, 314, 518, 495
303, 175, 561, 562, 125
304, 125, 562, 328, 176
305, 562, 560, 287, 328
306, 561, 288, 560, 562
307, 408, 191, 188, 659
308, 471, 586, 619, 184
309, 325, 407, 686, 410
310, 192, 131, 169, 750
311, 220, 568, 569, 566
312, 566, 569, 567, 219
313, 569, 430, 183, 567
314, 568, 182, 430, 569
315, 277, 570, 571, 326
316, 326, 571, 124, 176
317, 572, 730, 264, 318
318, 296, 723, 150, 178
319, 721, 278, 572, 279
320, 263, 695, 617, 547
321, 401, 180, 87, 95
322, 373, 551, 565, 374
323, 744, 743, 129, 171
324, 22, 324, 376, 14
325, 374, 565, 224, 324
326, 279, 572, 318, 616
327, 299, 703, 662, 690
328, 680, 280, 549, 546
329, 730, 266, 590, 264
330, 235, 305, 579, 578
331, 578, 579, 539, 232
332, 579, 136, 164, 539
333, 305, 165, 136, 579
334, 241, 441, 582, 475
335, 475, 582, 580, 240
336, 582, 581, 243, 580
337, 441, 244, 581, 582
338, 427, 437, 294, 398
339, 644, 603, 558, 584
340, 437, 594, 592, 294
341, 593, 295, 405, 682
342, 460, 564, 506, 686
343, 752, 170, 131, 192
344, 659, 188, 409, 595
345, 750, 186, 423, 472
346, 215, 510, 588, 587
347, 587, 588, 541, 217
348, 588, 365, 218, 541
349, 510, 216, 365, 588
350, 267, 497, 591, 535
351, 535, 591, 589, 270
352, 591, 590, 266, 589
353, 497, 265, 590, 591
354, 398, 294, 7, 86
355, 400, 293, 427, 583
356, 322, 255, 554, 465
357, 294, 592, 83, 7
358, 195, 96, 89, 406
359, 465, 256, 300, 438
360, 436, 720, 195, 295
361, 592, 397, 85, 83
362, 747, 596, 481, 746
363, 552, 472, 422, 596
364, 482, 469, 439, 331
365, 133, 167, 576, 191
366, 461, 459, 586, 330
367, 376, 471, 184, 434
368, 440, 585, 459, 461
369, 191, 576, 478, 188
370, 145, 739, 255, 156
371, 154, 319, 624, 146
372, 724, 735, 736, 631
373, 302, 623, 252, 608
374, 250, 600, 601, 599
375, 599, 601, 402, 251
376, 601, 526, 248, 402
377, 600, 237, 526, 601
378, 676, 211, 308, 314
379, 603, 162, 139, 558
380, 493, 200, 605, 214
381, 175, 126, 607, 561
382, 561, 607, 606, 288
383, 607, 544, 193, 606
384, 126, 174, 544, 607
385, 252, 609, 610, 608
386, 608, 610, 451, 253
387, 610, 599, 251, 451
388, 609, 250, 599, 610
389, 221, 479, 612, 611
390, 611, 612, 568, 220
391, 612, 384, 182, 568
392, 479, 181, 384, 612
393, 421, 470, 613, 550
394, 24, 563, 614, 16
395, 167, 134, 482, 576
396, 745, 744, 171, 130
397, 721, 279, 281, 296
398, 278, 297, 704, 719
399, 695, 689, 697, 617
400, 548, 263, 547, 238
401, 219, 567, 620, 618
402, 618, 620, 619, 222
403, 620, 433, 184, 619
404, 567, 183, 433, 620
405, 220, 621, 622, 611
406, 611, 622, 362, 221
407, 622, 524, 227, 362
408, 621, 225, 524, 622
409, 208, 323, 180, 401
410, 155, 320, 739, 145
411, 466, 302, 608, 253
412, 714, 736, 735, 307
413, 204, 447, 627, 494
414, 494, 627, 626, 199
415, 627, 485, 201, 626
416, 447, 202, 485, 627
417, 185, 595, 460, 187
418, 551, 597, 658, 565
419, 481, 734, 749, 190
420, 478, 331, 470, 421
421, 244, 454, 630, 581
422, 581, 630, 629, 243
423, 630, 483, 246, 629
424, 454, 245, 483, 630
425, 301, 724, 631, 537
426, 189, 537, 302, 466
427, 323, 583, 207, 180
428, 256, 731, 321, 598
429, 225, 621, 634, 632
430, 632, 634, 633, 226
431, 634, 566, 219, 633
432, 621, 220, 566, 634
433, 261, 311, 635, 315
434, 315, 635, 148, 152
435, 635, 553, 153, 148
436, 311, 258, 553, 635
437, 200, 722, 509, 215
438, 708, 209, 194, 656
439, 644, 205, 668, 603
440, 196, 540, 667, 643
441, 290, 449, 640, 514
442, 514, 640, 639, 283
443, 640, 491, 291, 639
444, 449, 292, 491, 640
445, 264, 590, 265, 615
446, 549, 642, 716, 703
447, 679, 151, 122, 723
448, 603, 668, 138, 162
449, 681, 306, 593, 213
450, 667, 657, 197, 727
451, 656, 194, 313, 677
452, 233, 637, 647, 645
453, 645, 647, 646, 234
454, 647, 520, 231, 646
455, 637, 228, 520, 647
456, 284, 532, 649, 378
457, 378, 649, 639, 291
458, 649, 648, 283, 639
459, 532, 286, 648, 649
460, 243, 629, 651, 650
461, 650, 651, 501, 242
462, 651, 411, 247, 501
463, 629, 246, 411, 651
464, 198, 508, 652, 380
465, 380, 652, 626, 201
466, 652, 643, 199, 626
467, 508, 196, 643, 652
468, 226, 653, 654, 632
469, 632, 654, 523, 225
470, 654, 646, 231, 523
471, 653, 234, 646, 654
472, 678, 644, 584, 312
473, 139, 161, 602, 558
474, 205, 656, 677, 668
475, 314, 308, 517, 518
476, 187, 460, 686, 407
477, 224, 330, 586, 471
478, 190, 749, 407, 325
479, 743, 742, 172, 129
480, 548, 680, 546, 263
481, 695, 299, 690, 689
482, 242, 660, 661, 650
483, 650, 661, 580, 243
484, 661, 499, 240, 580
485, 660, 239, 499, 661
486, 716, 239, 660, 663
487, 715, 571, 570, 297
488, 663, 502, 236, 662
489, 660, 242, 502, 663
490, 234, 665, 666, 645
491, 645, 666, 664, 233
492, 666, 578, 232, 664
493, 665, 235, 578, 666
494, 209, 664, 232, 194
495, 722, 700, 468, 540
496, 668, 677, 163, 138
497, 285, 670, 671, 669
498, 669, 671, 648, 286
499, 671, 513, 283, 648
500, 670, 282, 513, 671
501, 285, 674, 675, 672
502, 672, 675, 327, 287
503, 675, 673, 277, 327
504, 674, 271, 673, 675
505, 161, 140, 655, 602
506, 213, 593, 682, 702
507, 657, 676, 314, 197
508, 209, 516, 233, 664
509, 547, 617, 262, 317
510, 679, 577, 149, 151
511, 617, 697, 684, 262
512, 200, 215, 587, 605
513, 517, 682, 405, 206
514, 399, 574, 323, 208
515, 306, 436, 295, 593
516, 259, 310, 685, 683
517, 683, 685, 684, 260
518, 685, 316, 262, 684
519, 310, 261, 316, 685
520, 595, 409, 564, 460
521, 751, 190, 325, 375
522, 188, 478, 421, 409
523, 614, 732, 551, 373
524, 219, 618, 688, 633
525, 633, 688, 687, 226
526, 688, 329, 223, 687
527, 618, 222, 329, 688
528, 237, 689, 690, 527
529, 527, 690, 662, 236
530, 272, 530, 694, 691
531, 691, 694, 692, 271
532, 694, 693, 276, 692
533, 530, 275, 693, 694
534, 263, 546, 299, 695
535, 721, 123, 177, 715
536, 697, 696, 260, 684
537, 689, 237, 696, 697
538, 266, 698, 699, 589
539, 589, 699, 488, 270
540, 699, 693, 275, 488
541, 698, 276, 693, 699
542, 306, 399, 208, 436
543, 468, 212, 676, 657
544, 556, 298, 604, 212
545, 212, 604, 211, 676
546, 602, 655, 638, 557
547, 540, 468, 657, 667
548, 559, 708, 656, 205
549, 641, 548, 238, 577
550, 318, 264, 615, 280
551, 577, 238, 152, 149
552, 271, 692, 705, 673
553, 673, 705, 570, 277
554, 692, 276, 704, 705
555, 286, 533, 706, 669
556, 669, 706, 674, 285
557, 706, 691, 271, 674
558, 533, 272, 691, 706
559, 226, 687, 707, 653
560, 653, 707, 665, 234
561, 707, 304, 235, 665
562, 687, 223, 304, 707
563, 605, 587, 217, 701
564, 727, 197, 495, 496
565, 493, 700, 722, 200
566, 252, 710, 711, 609
567, 609, 711, 709, 250
568, 711, 309, 259, 709
569, 710, 258, 309, 711
570, 282, 670, 713, 712
571, 712, 713, 560, 288
572, 713, 672, 287, 560
573, 670, 285, 672, 713
574, 321, 726, 735, 724
575, 307, 735, 726, 257
576, 731, 740, 726, 321
577, 320, 257, 738, 739
578, 721, 296, 178, 123
579, 723, 122, 9, 150
580, 140, 160, 681, 655
581, 638, 213, 702, 575
582, 558, 602, 557, 584
583, 509, 722, 540, 196
584, 641, 616, 680, 548
585, 279, 616, 641, 281
586, 281, 641, 577, 679
587, 288, 606, 717, 712
588, 712, 717, 512, 282
589, 717, 354, 289, 512
590, 606, 193, 354, 717
591, 260, 696, 718, 683
592, 683, 718, 709, 259
593, 718, 600, 250, 709
594, 696, 237, 600, 718
595, 276, 698, 719, 704
596, 721, 715, 297, 278
597, 642, 498, 239, 716
598, 238, 547, 317, 152
599, 207, 398, 86, 94
600, 399, 159, 142, 574
601, 180, 207, 94, 87
602, 715, 177, 124, 571
603, 297, 570, 705, 704
604, 678, 312, 298, 556
605, 313, 539, 164, 137
606, 557, 638, 575, 210
607, 616, 318, 280, 680
608, 278, 719, 730, 572
609, 703, 716, 663, 662
610, 537, 631, 623, 302
611, 319, 714, 307, 624
612, 624, 307, 257, 320
613, 165, 305, 725, 303
614, 303, 725, 304, 223
615, 305, 235, 304, 725
616, 295, 195, 406, 405
617, 257, 726, 740, 738
618, 254, 598, 301, 463
619, 702, 682, 517, 308
620, 700, 556, 212, 468
621, 559, 214, 573, 708
622, 258, 311, 728, 309
623, 309, 728, 310, 259
624, 311, 261, 310, 728
625, 160, 141, 306, 681
626, 573, 701, 636, 516
627, 584, 557, 210, 312
628, 152, 317, 729, 315
629, 315, 729, 316, 261
630, 317, 262, 316, 729
631, 615, 265, 498, 642
632, 296, 281, 679, 723
633, 739, 738, 554, 255
634, 598, 321, 724, 301
635, 438, 300, 429, 397
636, 397, 429, 82, 85
637, 742, 741, 128, 172
638, 16, 614, 373, 23
639, 469, 179, 628, 439
640, 176, 328, 733, 326
641, 326, 733, 327, 277
642, 328, 287, 327, 733
643, 15, 374, 324, 22
644, 186, 408, 659, 423
645, 422, 185, 187, 734
646, 555, 737, 736, 714
647, 625, 555, 714, 319
648, 147, 625, 319, 154
649, 258, 710, 737, 555
650, 553, 258, 555, 625
651, 153, 553, 625, 147
652, 752, 745, 130, 170
653, 477, 39, 32, 507
654, 741, 31, 39, 477
655, 742, 38, 31, 741
656, 743, 30, 38, 742
657, 744, 3, 30, 743
658, 745, 27, 3, 744
659, 752, 29, 27, 745
660, 746, 751, 2, 25
661, 747, 746, 25, 28
662, 748, 747, 28, 26
663, 752, 748, 26, 29
*ELSET,ELSET=contact_source
99, 100, 101, 102, 103, 104, 105, 106, 107, 108, 
109, 110, 111, 112, 113, 114, 115, 116, 117, 118, 
119, 120, 
*ELSET,ELSET=contact_drain
39, 40, 41, 42, 43, 44, 45, 46, 47, 48, 
49, 50, 51, 52, 53, 54, 55, 56, 57, 58, 
59, 60, 
*ELSET,ELSET=probe_A
77, 78, 79, 80, 81, 82, 
*ELSET,ELSET=probe_B
17, 18, 19, 20, 21, 22, 
*ELSET,ELSET=walls
1, 2, 3, 4, 5, 6, 7, 8, 9, 10, 
11, 12, 13, 14, 15, 16, 23, 24, 25, 26, 
27, 28, 29, 30, 31, 32, 33, 34, 35, 36, 
37, 38, 61, 62, 63, 64, 65, 66, 67, 68, 
69, 70, 71, 72, 73, 74, 75, 76, 83, 84, 
85, 86, 87, 88, 89, 90, 91, 92, 93, 94, 
95, 96, 97, 98, 121, 122, 123, 124, 125, 126, 
127, 128, 129, 130, 131, 132, 133, 134, 135, 136, 
137, 138, 139, 140, 141, 142, 143, 144, 145, 146, 
147, 148, 149, 150, 151, 152, 153, 154, 155, 156, 
157, 158, 159, 160, 161, 162, 163, 164, 165, 166, 
167, 168, 169, 170, 171, 172, 173, 174, 175, 176, 
177, 178, 
*ELSET,ELSET=domain
179, 180, 181, 182, 183, 184, 185, 186, 187, 188, 
189, 190, 191, 192, 193, 194, 195, 196, 197, 198, 
199, 200, 201, 202, 203, 204, 205, 206, 207, 208, 
209, 210, 211, 212, 213, 214, 215, 216, 217, 218, 
219, 220, 221, 222, 223, 224, 225, 226, 227, 228, 
229, 230, 231, 232, 233, 234, 235, 236, 237, 238, 
239, 240, 241, 242, 243, 244, 245, 246, 247, 248, 
249, 250, 251, 252, 253, 254, 255, 256, 257, 258, 
259, 260, 261, 262, 263, 264, 265, 266, 267, 268, 
269, 270, 271, 272, 273, 274, 275, 276, 277, 278, 
279, 280, 281, 282, 283, 284, 285, 286, 287, 288, 
289, 290, 291, 292, 293, 294, 295, 296, 297, 298, 
299, 300, 301, 302, 303, 304, 305, 306, 307, 308, 
309, 310, 311, 312, 313, 314, 315, 316, 317, 318, 
319, 320, 321, 322, 323, 324, 325, 326, 327, 328, 
329, 330, 331, 332, 333, 334, 335, 336, 337, 338, 
339, 340, 341, 342, 343, 344, 345, 346, 347, 348, 
349, 350, 351, 352, 353, 354, 355, 356, 357, 358, 
359, 360, 361, 362, 363, 364, 365, 366, 367, 368, 
369, 370, 371, 372, 373, 374, 375, 376, 377, 378, 
379, 380, 381, 382, 383, 384, 385, 386, 387, 388, 
389, 390, 391, 392, 393, 394, 395, 396, 397, 398, 
399, 400, 401, 402, 403, 404, 405, 406, 407, 408, 
409, 410, 411, 412, 413, 414, 415, 416, 417, 418, 
419, 420, 421, 422, 423, 424, 425, 426, 427, 428, 
429, 430, 431, 432, 433, 434, 435, 436, 437, 438, 
439, 440, 441, 442, 443, 444, 445, 446, 447, 448, 
449, 450, 451, 452, 453, 454, 455, 456, 457, 458, 
459, 460, 461, 462, 463, 464, 465, 466, 467, 468, 
469, 470, 471, 472, 473, 474, 475, 476, 477, 478, 
479, 480, 481, 482, 483, 484, 485, 486, 487, 488, 
489, 490, 491, 492, 493, 494, 495, 496, 497, 498, 
499, 500, 501, 502, 503, 504, 505, 506, 507, 508, 
509, 510, 511, 512, 513, 514, 515, 516, 517, 518, 
519, 520, 521, 522, 523, 524, 525, 526, 527, 528, 
529, 530, 531, 532, 533, 534, 535, 536, 537, 538, 
539, 540, 541, 542, 543, 544, 545, 546, 547, 548, 
549, 550, 551, 552, 553, 554, 555, 556, 557, 558, 
559, 560, 561, 562, 563, 564, 565, 566, 567, 568, 
569, 570, 571, 572, 573, 574, 575, 576, 577, 578, 
579, 580, 581, 582, 583, 584, 585, 586, 587, 588, 
589, 590, 591, 592, 593, 594, 595, 596, 597, 598, 
599, 600, 601, 602, 603, 604, 605, 606, 607, 608, 
609, 610, 611, 612, 613, 614, 615, 616, 617, 618, 
619, 620, 621, 622, 623, 624, 625, 626, 627, 628, 
629, 630, 631, 632, 633, 634, 635, 636, 637, 638, 
639, 640, 641, 642, 643, 644, 645, 646, 647, 648, 
649, 650, 651, 652, 653, 654, 655, 656, 657, 658, 
659, 660, 661, 662, 663, 664, 665, 666, 667, 668, 
669, 670, 671, 672, 673, 674, 675, 676, 677, 678, 
679, 680, 681, 682, 683, 684, 685, 686, 687, 688, 
689, 690, 691, 692, 693, 694, 695, 696, 697, 698, 
699, 700, 701, 702, 703, 704, 705, 706, 707, 708, 
709, 710, 711, 712, 713, 714, 715, 716, 717, 718, 
719, 720, 721, 722, 723, 724, 725, 726, 727, 728, 
729, 730, 731, 732, 733, 734, 735, 736, 737, 738, 
739, 740, 741, 742, 743, 744, 745, 746, 747, 748, 
749, 750, 751, 752, 753, 754, 755, 756, 757, 758, 
759, 760, 761, 762, 763, 764, 765, 766, 767, 768, 
769, 770, 771, 772, 773, 774, 775, 776, 777, 778, 
779, 780, 781, 782, 783, 784, 785, 786, 787, 788, 
789, 790, 791, 792, 793, 794, 795, 796, 797, 798, 
799, 800, 801, 802, 803, 804, 805, 806, 807, 808, 
809, 810, 811, 812, 813, 814, 815, 816, 817, 818, 
819, 820, 821, 822, 823, 824, 825, 826, 827, 828, 
829, 830, 831, 832, 833, 834, 835, 836, 837, 838, 
839, 840, 841, 
*NSET,NSET=contact_source
1, 8, 101, 102, 103, 104, 105, 106, 107, 108, 
109, 110, 111, 112, 113, 114, 115, 116, 117, 118, 
119, 120, 121, 
*NSET,NSET=contact_drain
4, 5, 45, 46, 47, 48, 49, 50, 51, 52, 
53, 54, 55, 56, 57, 58, 59, 60, 61, 62, 
63, 64, 65, 
*NSET,NSET=probe_A
6, 7, 81, 82, 83, 84, 85, 
*NSET,NSET=probe_B
2, 3, 25, 26, 27, 28, 29, 
*NSET,NSET=walls
1, 2, 3, 4, 5, 6, 7, 8, 9, 10, 
11, 12, 13, 14, 15, 16, 17, 18, 19, 20, 
21, 22, 23, 24, 30, 31, 32, 33, 34, 35, 
36, 37, 38, 39, 40, 41, 42, 43, 44, 66, 
67, 68, 69, 70, 71, 72, 73, 74, 75, 76, 
77, 78, 79, 80, 86, 87, 88, 89, 90, 91, 
92, 93, 94, 95, 96, 97, 98, 99, 100, 122, 
123, 124, 125, 126, 127, 128, 129, 130, 131, 132, 
133, 134, 135, 136, 137, 138, 139, 140, 141, 142, 
143, 144, 145, 146, 147, 148, 149, 150, 151, 152, 
153, 154, 155, 156, 157, 158, 159, 160, 161, 162, 
163, 164, 165, 166, 167, 168, 169, 170, 171, 172, 
173, 174, 175, 176, 177, 178, 
*NSET,NSET=domain
1, 2, 3, 4, 5, 6, 7, 8, 9, 10, 
11, 12, 13, 14, 15, 16, 17, 18, 19, 20, 
21, 22, 23, 24, 25, 26, 27, 28, 29, 30, 
31, 32, 33, 34, 35, 36, 37, 38, 39, 40, 
41, 42, 43, 44, 45, 46, 47, 48, 49, 50, 
51, 52, 53, 54, 55, 56, 57, 58, 59, 60, 
61, 62, 63, 64, 65, 66, 67, 68, 69, 70, 
71, 72, 73, 74, 75, 76, 77, 78, 79, 80, 
81, 82, 83, 84, 85, 86, 87, 88, 89, 90, 
91, 92, 93, 94, 95, 96, 97, 98, 99, 100, 
101, 102, 103, 104, 105, 106, 107, 108, 109, 110, 
111, 112, 113, 114, 115, 116, 117, 118, 119, 120, 
121, 122, 123, 124, 125, 126, 127, 128, 129, 130, 
131, 132, 133, 134, 135, 136, 137, 138, 139, 140, 
141, 142, 143, 144, 145, 146, 147, 148, 149, 150, 
151, 152, 153, 154, 155, 156, 157, 158, 159, 160, 
161, 162, 163, 164, 165, 166, 167, 168, 169, 170, 
171, 172, 173, 174, 175, 176, 177, 178, 179, 180, 
181, 182, 183, 184, 185, 186, 187, 188, 189, 190, 
191, 192, 193, 194, 195, 196, 197, 198, 199, 200, 
201, 202, 203, 204, 205, 206, 207, 208, 209, 210, 
211, 212, 213, 214, 215, 216, 217, 218, 219, 220, 
221, 222, 223, 224, 225, 226, 227, 228, 229, 230, 
231, 232, 233, 234, 235, 236, 237, 238, 239, 240, 
241, 242, 243, 244, 245, 246, 247, 248, 249, 250, 
251, 252, 253, 254, 255, 256, 257, 258, 259, 260, 
261, 262, 263, 264, 265, 266, 267, 268, 269, 270, 
271, 272, 273, 274, 275, 276, 277, 278, 279, 280, 
281, 282, 283, 284, 285, 286, 287, 288, 289, 290, 
291, 292, 293, 294, 295, 296, 297, 298, 299, 300, 
301, 302, 303, 304, 305, 306, 307, 308, 309, 310, 
311, 312, 313, 314, 315, 316, 317, 318, 319, 320, 
321, 322, 323, 324, 325, 326, 327, 328, 329, 330, 
331, 332, 333, 334, 335, 336, 337, 338, 339, 340, 
341, 342, 343, 344, 345, 346, 347, 348, 349, 350, 
351, 352, 353, 354, 355, 356, 357, 358, 359, 360, 
361, 362, 363, 364, 365, 366, 367, 368, 369, 370, 
371, 372, 373, 374, 375, 376, 377, 378, 379, 380, 
381, 382, 383, 384, 385, 386, 387, 388, 389, 390, 
391, 392, 393, 394, 395, 396, 397, 398, 399, 400, 
401, 402, 403, 404, 405, 406, 407, 408, 409, 410, 
411, 412, 413, 414, 415, 416, 417, 418, 419, 420, 
421, 422, 423, 424, 425, 426, 427, 428, 429, 430, 
431, 432, 433, 434, 435, 436, 437, 438, 439, 440, 
441, 442, 443, 444, 445, 446, 447, 448, 449, 450, 
451, 452, 453, 454, 455, 456, 457, 458, 459, 460, 
461, 462, 463, 464, 465, 466, 467, 468, 469, 470, 
471, 472, 473, 474, 475, 476, 477, 478, 479, 480, 
481, 482, 483, 484, 485, 486, 487, 488, 489, 490, 
491, 492, 493, 494, 495, 496, 497, 498, 499, 500, 
501, 502, 503, 504, 505, 506, 507, 508, 509, 510, 
511, 512, 513, 514, 515, 516, 517, 518, 519, 520, 
521, 522, 523, 524, 525, 526, 527, 528, 529, 530, 
531, 532, 533, 534, 535, 536, 537, 538, 539, 540, 
541, 542, 543, 544, 545, 546, 547, 548, 549, 550, 
551, 552, 553, 554, 555, 556, 557, 558, 559, 560, 
561, 562, 563, 564, 565, 566, 567, 568, 569, 570, 
571, 572, 573, 574, 575, 576, 577, 578, 579, 580, 
581, 582, 583, 584, 585, 586, 587, 588, 589, 590, 
591, 592, 593, 594, 595, 596, 597, 598, 599, 600, 
601, 602, 603, 604, 605, 606, 607, 608, 609, 610, 
611, 612, 613, 614, 615, 616, 617, 618, 619, 620, 
621, 622, 623, 624, 625, 626, 627, 628, 629, 630, 
631, 632, 633, 634, 635, 636, 637, 638, 639, 640, 
641, 642, 643, 644, 645, 646, 647, 648, 649, 650, 
651, 652, 653, 654, 655, 656, 657, 658, 659, 660, 
661, 662, 663, 664, 665, 666, 667, 668, 669, 670, 
671, 672, 673, 674, 675, 676, 677, 678, 679, 680, 
681, 682, 683, 684, 685, 686, 687, 688, 689, 690, 
691, 692, 693, 694, 695, 696, 697, 698, 699, 700, 
701, 702, 703, 704, 705, 706, 707, 708, 709, 710, 
711, 712, 713, 714, 715, 716, 717, 718, 719, 720, 
721, 722, 723, 724, 725, 726, 727, 728, 729, 730, 
731, 732, 733, 734, 735, 736, 737, 738, 739, 740, 
741, 742, 743, 744, 745, 746, 747, 748, 749, 750, 
751, 752, 
