*Heading
 /Users/juliagao/geometry-optimization-net/scripts/../runs/run2/shape_120.inp
*NODE
1, 0, -0.3, 0
2, 0.425, -0.3, 0
3, 0.575, -0.3, 0
4, 1, -0.3, 0
5, 1, 0.3, 0
6, 0.575, 0.3, 0
7, 0.425, 0.3, 0
8, 0, 0.3, 0
9, 0.6783896223, -0.0157407169, 0
10, 0.025988657709467, -0.3, 0
11, 0.07778899700286, -0.3, 0
12, 0.12974573550171, -0.3, 0
13, 0.18314646822802, -0.3, 0
14, 0.23854605743788, -0.3, 0
15, 0.29462609461983, -0.3, 0
16, 0.34901440092825, -0.3, 0
17, 0.4002332917266, -0.3, 0
18, 0.051977315418934, -0.3, 0
19, 0.10360067858679, -0.3, 0
20, 0.15589079241664, -0.3, 0
21, 0.2104021440394, -0.3, 0
22, 0.26668997083636, -0.3, 0
23, 0.32256221840331, -0.3, 0
24, 0.3754665834532, -0.3, 0
25, 0.44331979729252, -0.3, 0
26, 0.47969272789867, -0.3, 0
27, 0.51644445114397, -0.3, 0
28, 0.55507152053782, -0.3, 0
29, 0.46163959458504, -0.3, 0
30, 0.49774586121231, -0.3, 0
31, 0.53514304107563, -0.3, 0
32, 0.60152403895834, -0.3, 0
33, 0.65593740425551, -0.3, 0
34, 0.71257506269358, -0.3, 0
35, 0.76916065723868, -0.3, 0
36, 0.82292043420834, -0.3, 0
37, 0.87400902349258, -0.3, 0
38, 0.92432485944632, -0.3, 0
39, 0.97473731031983, -0.3, 0
40, 0.62804807791669, -0.3, 0
41, 0.68382673059432, -0.3, 0
42, 0.74132339479284, -0.3, 0
43, 0.79699791968451, -0.3, 0
44, 0.84884294873218, -0.3, 0
45, 0.89917509825299, -0.3, 0
46, 0.94947462063966, -0.3, 0
47, 1, -0.27396128121446, 0
48, 1, -0.22108745755052, 0
49, 1, -0.16633616790767, 0
50, 1, -0.10968558974465, 0
51, 1, -0.052518685042385, 0
52, 1, 0.003590984220274, 0
53, 1, 0.059086013572463, 0
54, 1, 0.11458564271922, 0
55, 1, 0.16887193126084, 0
56, 1, 0.22173043239999, 0
57, 1, 0.27399220137553, 0
58, 1, -0.24792256242891, 0
59, 1, -0.19425235267213, 0
60, 1, -0.13841998314322, 0
61, 1, -0.080951196346075, 0
62, 1, -0.024086173738696, 0
63, 1, 0.031268142179244, 0
64, 1, 0.086903884965681, 0
65, 1, 0.14226740047275, 0
66, 1, 0.19547646204893, 0
67, 1, 0.24798440275105, 0
68, 0.97409664992747, 0.3, 0
69, 0.921708683221, 0.3, 0
70, 0.86792724523733, 0.3, 0
71, 0.81376300736584, 0.3, 0
72, 0.76023111910892, 0.3, 0
73, 0.70646697568272, 0.3, 0
74, 0.65283363225764, 0.3, 0
75, 0.60064998026181, 0.3, 0
76, 0.94819329985494, 0.3, 0
77, 0.89522406658705, 0.3, 0
78, 0.84063042388761, 0.3, 0
79, 0.78689559084407, 0.3, 0
80, 0.73356664737377, 0.3, 0
81, 0.67936730399166, 0.3, 0
82, 0.62629996052361, 0.3, 0
83, 0.55587266840924, 0.3, 0
84, 0.5180507461708, 0.3, 0
85, 0.48077173349848, 0.3, 0
86, 0.44359365573692, 0.3, 0
87, 0.53674533681848, 0.3, 0
88, 0.49935615552312, 0.3, 0
89, 0.46218731147383, 0.3, 0
90, 0.40043143696988, 0.3, 0
91, 0.34935767584213, 0.3, 0
92, 0.29571488756281, 0.3, 0
93, 0.24108352870436, 0.3, 0
94, 0.18581127634699, 0.3, 0
95, 0.13129449912306, 0.3, 0
96, 0.078403565765286, 0.3, 0
97, 0.026125462975423, 0.3, 0
98, 0.37586287393977, 0.3, 0
99, 0.32285247774448, 0.3, 0
100, 0.26857729738114, 0.3, 0
101, 0.21358976002759, 0.3, 0
102, 0.15803279266639, 0.3, 0
103, 0.10455620557973, 0.3, 0
104, 0.052250925950845, 0.3, 0
105, 0, 0.27329531218291, 0
106, 0, 0.21917484613569, 0
107, 0, 0.1637942684092, 0
108, 0, 0.10786002701589, 0
109, 0, 0.052471622241654, 0
110, 0, -0.002250520783129, 0
111, 0, -0.056948019265395, 0
112, 0, -0.11177261294738, 0
113, 0, -0.16671878827775, 0
114, 0, -0.22100505268286, 0
115, 0, -0.27388770855241, 0
116, 0, 0.24659062436582, 0
117, 0, 0.19175906790557, 0
118, 0, 0.13582946891283, 0
119, 0, 0.079890585118944, 0
120, 0, 0.025052659364364, 0
121, 0, -0.029553700930622, 0
122, 0, -0.084342337600168, 0
123, 0, -0.1392028882946, 0
124, 0, -0.1942346882609, 0
125, 0, -0.24777541710483, 0
126, 0.67554938349435, 0.013127694118072, 0
127, 0.74148739986213, -0.073561542285139, 0
128, 0.77946908999738, -0.11549269788473, 0
129, 0.8061300884477, -0.16372872987652, 0
130, 0.80958670730278, -0.21669177277329, 0
131, 0.77163941180275, -0.254358995546, 0
132, 0.71440454698927, -0.25759615555412, 0
133, 0.6583997612179, -0.24143248390781, 0
134, 0.60731523410568, -0.21736684794186, 0
135, 0.55546423395842, -0.20368167369691, 0
136, 0.51798088864207, -0.2380813605337, 0
137, 0.47882366617267, -0.26699055230541, 0
138, 0.4320238996475, -0.26261783976432, 0
139, 0.39864557303297, -0.22516370655049, 0
140, 0.36286249824118, -0.18544631314092, 0
141, 0.3080927422117, -0.17576618850343, 0
142, 0.25355829171741, -0.16366277673202, 0
143, 0.21245720251756, -0.12797944469995, 0
144, 0.21499369302805, -0.073210530518518, 0
145, 0.24843451342396, -0.027089901694242, 0
146, 0.288255614437, 0.014423929217966, 0
147, 0.28623109408077, 0.072679016227469, 0
148, 0.26691938427188, 0.12947534364307, 0
149, 0.26543461064598, 0.18846969033943, 0
150, 0.29583043879426, 0.2358582449341, 0
151, 0.34674930483935, 0.25503172400876, 0
152, 0.39966750393593, 0.25520316587938, 0
153, 0.45023681892834, 0.24743705561178, 0
154, 0.49971330604643, 0.23285363510187, 0
155, 0.54545017496364, 0.20456599533696, 0
156, 0.58471236224444, 0.16577930034838, 0
157, 0.63238652062234, 0.13920645863936, 0
158, 0.68014742016533, 0.11478499874402, 0
159, 0.6945169324293, 0.063480683794022, 0
160, 0.69838521869157, -0.03617445436867, 0
161, 0.68601620111686, 0.037358185233339, 0
162, 0.69402757131646, 0.091306491701963, 0
163, 0.65777755804161, 0.12959535477425, 0
164, 0.6071976185454, 0.14940980108469, 0
165, 0.56534793745001, 0.18549521901722, 0
166, 0.52318652196969, 0.22087664087345, 0
167, 0.47482992429283, 0.24145994071167, 0
168, 0.4253375395965, 0.25194221321088, 0
169, 0.37382050990547, 0.2566141749815, 0
170, 0.32030845605486, 0.24877146325549, 0
171, 0.27679969534445, 0.21563727515685, 0
172, 0.26284112327251, 0.15927023009556, 0
173, 0.27546463748614, 0.10069760181659, 0
174, 0.29507602342939, 0.043911106560639, 0
175, 0.26917603102556, -0.0067682310561893, 0
176, 0.22944908582869, -0.04911187574474, 0
177, 0.20772420566988, -0.10054709100067, 0
178, 0.22959980786584, -0.14978900869972, 0
179, 0.27997350355689, -0.1715037435358, 0
180, 0.33634718284759, -0.17880282333185, 0
181, 0.38426534426726, -0.2033290335389, 0
182, 0.4138586226348, -0.24647146312866, 0
183, 0.45530448249864, -0.27058393181832, 0
184, 0.49926942855013, -0.25530700382097, 0
185, 0.53499177583283, -0.21925464998501, 0
186, 0.58209868457133, -0.20585263618174, 0
187, 0.63211311980402, -0.2297153967798, 0
188, 0.68555053095176, -0.25101406329269, 0
189, 0.74399604416029, -0.25936830537251, 0
190, 0.79590624964529, -0.23963324218181, 0
191, 0.81205736368225, -0.19035678551159, 0
192, 0.79481448149797, -0.13899268220828, 0
193, 0.7615744652535, -0.093891636509089, 0
194, 0.72015094445829, -0.054559082884809, 0
195, 0.5501020103008, -0.24455369138138, 0
196, 0.1052166966215, -0.24480084093695, 0
197, 0.052459970070614, -0.24578419436882, 0
198, 0.15854149935182, -0.24550804655269, 0
199, 0.24131407405972, -0.20576502866769, 0
200, 0.31926154719333, -0.21480742327428, 0
201, 0.23619755430693, -0.25092524482652, 0
202, 0.80712376890872, 0.2587557428481, 0
203, 0.85012751152757, -0.24347824102091, 0
204, 0.89957926317988, -0.24409897133208, 0
205, 0.20893557644713, 0.18532146811942, 0
206, 0.052487545830067, 0.19167187487357, 0
207, 0.10504574446693, 0.1915829731864, 0
208, 0.15752633775789, 0.19028290341438, 0
209, 0.052471601802435, 0.24586161147488, 0
210, 0.1585215737937, 0.24359967004769, 0
211, 0.10516912010144, 0.24528634066881, 0
212, 0.21339230805212, 0.23823202339871, 0
213, 0.71321727853476, 0.1730296500843, 0
214, 0.20863232911893, 0.14180151766673, 0
215, 0.21364545300325, 0.093704827567144, 0
216, 0.12793383533097, -0.015152339127472, 0
217, 0.13001661177508, 0.036689367366604, 0
218, 0.052407000933116, 0.13754209653268, 0
219, 0.15733773931657, 0.14006830385874, 0
220, 0.10489807063559, 0.13898960678406, 0
221, 0.10469217172302, 0.086740950060347, 0
222, 0.052224744934952, 0.083569243519613, 0
223, 0.15795625263116, 0.089830001246461, 0
224, 0.10383798900618, 0.034386560694281, 0
225, 0.051865695998803, 0.029770249748881, 0
226, 0.10604982044413, -0.18781853023451, 0
227, 0.052716396161319, -0.19058670021265, 0
228, 0.29546773423294, -0.20082000662754, 0
229, 0.27417569130436, -0.2334553914305, 0
230, 0.10490541749745, -0.12902059666668, 0
231, 0.052369987472602, -0.13449589965004, 0
232, 0.051550241640567, -0.024185099581238, 0
233, 0.12910472855569, -0.096098880462756, 0
234, 0.05172690626906, -0.078831254877546, 0
235, 0.15488481046558, 0.01351198839281, 0
236, 0.153657912945, -0.090754657082515, 0
237, 0.24749053819187, 0.044054988269988, 0
238, 0.87087946433673, 0.025696577893789, 0
239, 0.54886943886173, 0.26205988584583, 0
240, 0.74896499591712, 0.24851855012067, 0
241, 0.79930753829912, 0.21724411920051, 0
242, 0.65807040616311, 0.15717690034842, 0
243, 0.84056838533528, -0.056277902090119, 0
244, 0.94867955221306, -0.16048697417014, 0
245, 0.63683683519913, 0.16902437156271, 0
246, 0.85556485835158, 0.12414770036815, 0
247, 0.6584574115049, 0.28715772857653, 0
248, 0.56423910870443, 0.22723852549999, 0
249, 0.73597575567817, 0.10172560657126, 0
250, 0.75005076568189, 0.17042322805899, 0
251, 0.60173127570263, 0.17371328547933, 0
252, 0.92772423765643, 0.0039190314136016, 0
253, 0.69060895256293, 0.18630876274655, 0
254, 0.53248201348453, 0.27977245478821, 0
255, 0.97570784261091, 0.0043355018312352, 0
256, 0.6810638692216, 0.28674914953582, 0
257, 0.66425125345703, 0.26264762380059, 0
258, 0.72619507001456, 0.029403695091417, 0
259, 0.88909480268444, 0.089804023828062, 0
260, 0.6072570293175, 0.26961093264195, 0
261, 0.77206939481322, 0.061406702576398, 0
262, 0.94691798093143, 0.27467741311354, 0
263, 0.72412067150186, 0.25337376412969, 0
264, 0.8349814223247, 0.25588014775621, 0
265, 0.93217231498391, -0.042643412785323, 0
266, 0.6538899860233, 0.20723841558314, 0
267, 0.87158715063454, -0.15680232851444, 0
268, 0.83192063472135, 0.23359885047736, 0
269, 0.83041093321836, -0.18882813492758, 0
270, 0.62885408256005, 0.24461428641079, 0
271, 0.5279076160928, 0.25892360305373, 0
272, 0.61883425168377, 0.25652189226767, 0
273, 0.89879013085007, -0.18684377072985, 0
274, 0.77678071771295, 0.0082296228464649, 0
275, 0.90398399008054, 0.0011371315852659, 0
276, 0.95318821249542, -0.046108805363721, 0
277, 0.94854075275131, -0.10043611308735, 0
278, 0.95157698858222, 0.0046569531981285, 0
279, 0.97457781333153, -0.19163482611445, 0
280, 0.94958464889032, -0.24544540109833, 0
281, 0.72071127386089, -0.002667146878959, 0
282, 0.74906105345125, 0.02398942513368, 0
283, 0.754264723075, -0.026678809200832, 0
284, 0.52614946667026, -0.2677410205139, 0
285, 0.16117648822572, -0.18716795091421, 0
286, 0.15659194486587, 0.038943757226166, 0
287, 0.10321330750855, 0.0081072029173261, 0
288, 0.55802665832017, -0.28734503903517, 0
289, 0.57342677536176, -0.28166101903901, 0
290, 0.64580436018364, 0.1484488057246, 0
291, 0.49040164726598, 0.27535771707208, 0
292, 0.9215880186858, -0.12686220594082, 0
293, 0.24716701909985, -0.1837737702953, 0
294, 0.22051882189592, -0.027500852081239, 0
295, 0.24190467053644, 0.018497423004714, 0
296, 0.12896772162975, 0.010823574027132, 0
297, 0.15155470441304, -0.063467915150992, 0
298, 0.2317411744685, -0.0049372241400406, 0
299, 0.89299292656213, 0.059049795838584, 0
300, 0.70550464118838, 0.094000430094479, 0
301, 0.94825777834973, -0.13070630538185, 0
302, 0.61464105406805, 0.23989422105203, 0
303, 0.95080747421875, -0.071912900122213, 0
304, 0.85145073563173, -0.18754265181489, 0
305, 0.85646274382625, -0.089729655585911, 0
306, 0.97528876968077, -0.076793017185041, 0
307, 0.15781599117982, -0.12062883644588, 0
308, 0.18959800373752, -0.18994846222449, 0
309, 0.417060401515, -0.27652024950066, 0
310, 0.28770379065278, -0.27132314524772, 0
311, 0.23383363826124, 0.17905045506931, 0
312, 0.233456529006, 0.14522689586923, 0
313, 0.20644773969592, 0.16338832909281, 0
314, 0.81336948572334, -0.067510246897959, 0
315, 0.82877067847131, 0.2107596658432, 0
316, 0.052211377886519, -0.27296355780797, 0
317, 0.078775874279755, -0.24515407558636, 0
318, 0.10449646392559, -0.27251583172599, 0
319, 0.078316071019099, -0.27266521059844, 0
320, 0.89938319836982, -0.27211085336769, 0
321, 0.92450577197559, -0.24464199805373, 0
322, 0.94957283890128, -0.27280324509789, 0
323, 0.92444934263488, -0.27239742736565, 0
324, 0.84196630778297, 0.021299322246287, 0
325, 0.6631493406451, 0.2165424060089, 0
326, 0.67066740748074, 0.22645773825265, 0
327, 0.784783871798, 0.14715743665028, 0
328, 0.02579968167767, -0.026908485040652, 0
329, 0.051557603907697, -0.051390276503406, 0
330, 0.025898018445342, -0.081654099501804, 0
331, 0.025814250044045, -0.054220058187086, 0
332, 0.97476905685228, -0.24652045183553, 0
333, 0.97477060845086, -0.27333175194814, 0
334, 0.051673757761632, 0.0028438150887739, 0
335, 0.025928091553368, 0.027441576446504, 0
336, 0.025845811232065, 0.0002905952275451, 0
337, 0.10500957534155, 0.27257243601344, 0
338, 0.078771444227892, 0.24562835037915, 0
339, 0.052388396824649, 0.2729346831823, 0
340, 0.0786444045082, 0.27278401917954, 0
341, 0.72763933675593, 0.26860775806615, 0
342, 0.6798820294923, 0.20779567115183, 0
343, 0.74750576401415, 0.063313226768079, 0
344, 0.85523978294396, 0.15345007729747, 0
345, 0.052029256309117, -0.10654269010798, 0
346, 0.026179766224973, -0.13689651888614, 0
347, 0.026033697342627, -0.10922250286078, 0
348, 0.84911682998927, -0.27179421065264, 0
349, 0.87483342301816, -0.24377015338499, 0
350, 0.87432702994169, -0.27192195406266, 0
351, 0.026196400095909, 0.13670908141539, 0
352, 0.052336287165268, 0.11053365698491, 0
353, 0.026098251427227, 0.081839852402571, 0
354, 0.026157021339845, 0.10924713112045, 0
355, 0.05245429420421, 0.16459010745482, 0
356, 0.026237907461703, 0.19163920927969, 0
357, 0.026222229723526, 0.16418743174604, 0
358, 0.71407800969222, 0.13267706990414, 0
359, 0.58223357534462, 0.23099503630397, 0
360, 0.97305572648535, 0.087357391300142, 0
361, 0.94500936911918, 0.22360333772991, 0
362, 0.052625803685318, -0.16257611753152, 0
363, 0.026326285359316, -0.19227491172837, 0
364, 0.026287637828736, -0.16462773702748, 0
365, 0.88891601927572, -0.081073545312872, 0
366, 0.89034155832251, -0.031940821352925, 0
367, 0.21364751119421, 0.2689727438484, 0
368, 0.18566392061221, 0.24167284946276, 0
369, 0.15854682383818, 0.27160581948721, 0
370, 0.185931277793, 0.27057812776651, 0
371, 0.91616067652739, 0.19939148780323, 0
372, 0.97227273591959, 0.19632398833034, 0
373, 0.70160702080751, 0.12531670375422, 0
374, 0.91719772457004, 0.22508121247671, 0
375, 0.026212306912388, -0.24664139994275, 0
376, 0.026101743263239, -0.27337944531615, 0
377, 0.31371766347266, -0.26298275098109, 0
378, 0.26257036808171, -0.27443884572341, 0
379, 0.25850145762464, -0.23135381274456, 0
380, 0.82427227998522, 0.097603256260664, 0
381, 0.66960315481205, 0.1661212286332, 0
382, 0.56876867501109, 0.26461415104129, 0
383, 0.02622440737204, 0.24612040240605, 0
384, 0.026184606608208, 0.27308943962339, 0
385, 0.052063321604095, 0.056662439839575, 0
386, 0.026019057883667, 0.054613339209792, 0
387, 0.69973529736773, 0.19796472648298, 0
388, 0.68746915170461, 0.21915077947592, 0
389, 0.75833797983204, 0.18796405146564, 0
390, 0.77970408842299, 0.26201013383323, 0
391, 0.56416255494088, 0.20739780931453, 0
392, 0.97478552658045, 0.031660478360118, 0
393, 0.97350786374265, 0.27429418996431, 0
394, 0.68145748984782, 0.26081762256051, 0
395, 0.13182253175689, -0.24485230706619, 0
396, 0.15734728105191, -0.27290659021858, 0
397, 0.13085200159317, -0.27257182535897, 0
398, 0.82863912322235, -0.09786800911468, 0
399, 0.91549974467219, 0.14575896602174, 0
400, 0.60210988249619, 0.25292200424677, 0
401, 0.65748613004178, 0.23305186960121, 0
402, 0.58814390520562, 0.26708061834062, 0
403, 0.81054673750722, 0.27930937540301, 0
404, 0.97426390357248, -0.13451993117733, 0
405, 0.21125571992779, -0.24906790819508, 0
406, 0.34343827687248, -0.24380237492778, 0
407, 0.27160335471178, -0.1921065553962, 0
408, 0.76990471744323, -0.054198088247267, 0
409, 0.69132958767059, 0.15211496530057, 0
410, 0.91036030096515, -0.022769806943323, 0
411, 0.87959154380457, -0.0048671591989969, 0
412, 0.97444950150806, -0.10535506612068, 0
413, 0.18518480382695, -0.24695674456353, 0
414, 0.18409216722509, -0.27356417418979, 0
415, 0.13173541887627, 0.24468316048548, 0
416, 0.13165127458139, 0.27221702384275, 0
417, 0.77555157148402, 0.2432998488021, 0
418, 0.6170487072205, 0.18181498721511, 0
419, 0.54487073119001, 0.22404200873238, 0
420, 0.78982811791415, 0.17290052452306, 0
421, 0.62294380792824, 0.15972746613175, 0
422, 0.86299539917446, 0.25351306835856, 0
423, 0.21297627398637, -0.22385907600059, 0
424, 0.21647880419482, -0.19832192791061, 0
425, 0.52481487027758, 0.23932354400046, 0
426, 0.82169259324846, 0.13207887612754, 0
427, 0.54618996305135, 0.24298529714739, 0
428, 0.05264650310688, -0.21833197992851, 0
429, 0.026295357782813, -0.21957716448444, 0
430, 0.42390970089483, 0.27599679709951, 0
431, 0.37444229473246, 0.27783744775721, 0
432, 0.39965018564543, 0.27730508986966, 0
433, 0.052499393133218, 0.21876070910918, 0
434, 0.026240764689196, 0.21892506960957, 0
435, 0.7197719955305, 0.23854186920522, 0
436, 0.69817116513848, 0.24413552429851, 0
437, 0.94946776104744, -0.21772299598455, 0
438, 0.97471035937578, -0.21927461198584, 0
439, 0.68490546294987, -0.2754918203106, 0
440, 0.74236739399684, -0.27902173060175, 0
441, 0.71354358434391, -0.27827374111855, 0
442, 0.077196635970814, -0.021338772188017, 0
443, 0.10247370871029, -0.045060912977804, 0
444, 0.077409574182164, -0.075758783820497, 0
445, 0.077150234483154, -0.048367161475104, 0
446, 0.97632027584005, -0.022530339490011, 0
447, 0.81651017456911, -0.13351848263786, 0
448, 0.85339034345784, -0.013160129049979, 0
449, 0.89691171631135, -0.1565448009493, 0
450, 0.10267697457032, -0.01832969621127, 0
451, 0.18138631548101, 0.015991390143385, 0
452, 0.077822270863397, 0.032078766683548, 0
453, 0.20950720197488, 0.017910277713859, 0
454, 0.077463580005586, 0.0054437300566364, 0
455, 0.79659705928092, -0.27249635577656, 0
456, 0.8247799032196, -0.24272245341471, 0
457, 0.82329693768689, -0.27176544487271, 0
458, 0.26384773864436, -0.21238919849369, 0
459, 0.28027350561442, -0.24847249421562, 0
460, 0.23726549878169, -0.22805524692974, 0
461, 0.32161054460636, 0.27435217499374, 0
462, 0.34804976818725, 0.27703870557119, 0
463, 0.7055541666802, 0.033553923622112, 0
464, 0.85185670831286, -0.21573337847347, 0
465, 0.82976629139758, -0.21614925656026, 0
466, 0.7966593953627, -0.035397885635425, 0
467, 0.75309670664097, 0.26538030178996, 0
468, 0.66891758437773, 0.13646715953751, 0
469, 0.66463258249239, 0.25154112145253, 0
470, 0.72286103354156, 0.18604004503256, 0
471, 0.64935097440911, 0.17808410615997, 0
472, 0.67091247829512, 0.19722939291869, 0
473, 0.21471460288686, 0.068309300542457, 0
474, 0.24355022013535, 0.096756233410384, 0
475, 0.24723329632924, 0.070446741924545, 0
476, 0.17381127935318, -0.058063464468411, 0
477, 0.2135126693886, 0.04286538334698, 0
478, 0.21150095277222, 0.21016793541922, 0
479, 0.24257228211623, 0.23168782395352, 0
480, 0.23857998846425, 0.20269599042778, 0
481, 0.94916114214931, -0.18947971589623, 0
482, 0.87446553564919, -0.18678508488591, 0
483, 0.18383611631796, -0.11301012163976, 0
484, 0.19422060371372, -0.15134506495614, 0
485, 0.078640864822149, 0.13830961339332, 0
486, 0.10484464938548, 0.11286468847399, 0
487, 0.078406960730261, 0.085185640278998, 0
488, 0.078557412054635, 0.111733900153, 0
489, 0.59026026721941, -0.25064971511964, 0
490, 0.62837813187337, -0.27022196511207, 0
491, 0.59817480031495, -0.27552040699175, 0
492, 0.6568819373089, -0.2719563171351, 0
493, 0.25934016073567, -0.25137119619426, 0
494, 0.37128856766399, -0.25597855401197, 0
495, 0.86397924542768, 0.058493117781943, 0
496, 0.19527985245825, -0.074950121885057, 0
497, 0.078600191875332, -0.13192413011592, 0
498, 0.077950233230774, -0.10360992736394, 0
499, 0.78342929777509, 0.28087635754805, 0
500, 0.82579007542203, -0.16103191086205, 0
501, 0.70524308863421, 0.28563526082159, 0
502, 0.59308964876028, 0.28395918570002, 0
503, 0.94950232648897, 0.031678887200907, 0
504, 0.63448435812712, 0.25991839256721, 0
505, 0.10436067806542, 0.060587024443928, 0
506, 0.07815862558214, 0.058644221208348, 0
507, 0.77010224484752, -0.27701488981585, 0
508, 0.54530473325515, -0.27868068150668, 0
509, 0.50029875685659, -0.27780429264825, 0
510, 0.45881331333378, -0.28446491730695, 0
511, 0.47924551360943, -0.28283976213701, 0
512, 0.62598594386695, 0.27209648515843, 0
513, 0.64150122383251, 0.24900507257097, 0
514, 0.63931406625811, 0.21725778770925, 0
515, 0.97249742168981, 0.11520923822756, 0
516, 0.28349260634457, -0.22046687277286, 0
517, 0.46793012725304, 0.27328881253381, 0
518, 0.44604666436269, 0.2745026486104, 0
519, 0.26977179149722, 0.26525738116327, 0
520, 0.24166675669818, 0.26684508016896, 0
521, 0.67969757577452, 0.24858368737214, 0
522, 0.66216901852003, 0.27462434589346, 0
523, 0.80323290067711, -0.10645884922817, 0
524, 0.91593643426062, -0.039493321612676, 0
525, 0.59889798106239, 0.19612796945026, 0
526, 0.91799916801889, 0.088641366713668, 0
527, 0.97256876401374, 0.22253916850004, 0
528, 0.86545640435306, 0.27678284308676, 0
529, 0.78101817811021, 0.11310166890126, 0
530, 0.69930892675547, 0.0039835042471654, 0
531, 0.50471574443162, 0.25387641092117, 0
532, 0.94583010851039, 0.08791448374184, 0
533, 0.21134127536151, 0.11845360718389, 0
534, 0.23876579687975, 0.12229141871182, 0
535, 0.1853158332729, 0.09154895717142, 0
536, 0.15764179417117, 0.06441482156001, 0
537, 0.18535631986162, 0.066329804623087, 0
538, 0.43807039661958, -0.28232601088933, 0
539, 0.9458674267641, 0.24926042143641, 0
540, 0.9446974398093, 0.11613503959547, 0
541, 0.97298894254419, 0.24851593385139, 0
542, 0.295498236652, 0.26974485749571, 0
543, 0.15809680992487, 0.21642993263395, 0
544, 0.13132730484965, 0.19118434094171, 0
545, 0.1051491254314, 0.21826996025838, 0
546, 0.13158057661674, 0.21763791113402, 0
547, 0.85837217453863, 0.092139797934349, 0
548, 0.07925142895358, -0.18908679590592, 0
549, 0.10576922927949, -0.2166256803755, 0
550, 0.079112996363599, -0.21731805813357, 0
551, 0.89954737938735, -0.21580730191099, 0
552, 0.84769255293648, -0.15852060049867, 0
553, 0.92436280761661, -0.21654019570497, 0
554, 0.2217448115394, -0.17216658385231, 0
555, 0.23696925664791, -0.27498654973514, 0
556, 0.078757344394522, 0.19169603146145, 0
557, 0.078795205351875, 0.21858650208157, 0
558, 0.58262439654857, 0.19018323307107, 0
559, 0.73120777277537, 0.20046537853426, 0
560, 0.61386809717458, 0.20276599285689, 0
561, 0.86601394456582, -0.12472820755798, 0
562, 0.93100059116485, -0.020705747666441, 0
563, 0.575051568155, -0.22940598462172, 0
564, 0.91626999093518, 0.11757424698121, 0
565, 0.51194862421785, 0.27786860699138, 0
566, 0.86743041792561, -0.045199522915152, 0
567, 0.56587175605831, 0.24616853626744, 0
568, 0.10583224630582, -0.1584329637303, 0
569, 0.079094395943425, -0.16052717966967, 0
570, 0.18326539281633, 0.14064120949538, 0
571, 0.15773776389526, 0.11506621015164, 0
572, 0.18441570278137, 0.11640379030929, 0
573, 0.71938378845314, 0.09743200484548, 0
574, 0.78712354897685, -0.080279652582, 0
575, 0.97439091224196, -0.16330448277237, 0
576, 0.57242425636088, 0.28261648035912, 0
577, 0.68006505737741, 0.14381515886563, 0
578, 0.10494831862357, 0.1651905854563, 0
579, 0.078700109728073, 0.16494825541875, 0
580, 0.13132192228284, -0.12547378905786, 0
581, 0.13328726114926, -0.18698637723148, 0
582, 0.1331366808888, -0.15624196345327, 0
583, 0.13115560523376, 0.13956767227782, 0
584, 0.13116182855347, 0.088269996991227, 0
585, 0.13122714936935, 0.11395188270348, 0
586, 0.70371315716103, 0.27145582659609, 0
587, 0.92383042727758, -0.1878194171148, 0
588, 0.19750325649684, -0.029767282716941, 0
589, 0.18406498820715, 0.041057554607599, 0
590, 0.19377161859233, -0.052742536567815, 0
591, 0.1529609970096, -0.011889482855265, 0
592, 0.17490607806989, -0.033356456662982, 0
593, 0.85831592468619, 0.20570150195874, 0
594, 0.92402328378582, 0.030947631616962, 0
595, 0.77076845187185, 0.22469108946586, 0
596, 0.73065311187971, 0.28415672121456, 0
597, 0.70146580756698, 0.25757482675986, 0
598, 0.18348363846377, 0.18854329727348, 0
599, 0.1847178126957, 0.21420989577385, 0
600, 0.15716366587389, 0.16498862061038, 0
601, 0.13114980855289, 0.16523460289777, 0
602, 0.13078209500986, 0.062507161369676, 0
603, 0.15982070224336, -0.21725311909657, 0
604, 0.13268004896622, -0.21646649602037, 0
605, 0.81082212143816, 0.015998111520656, 0
606, 0.92281848518682, -0.15808673837343, 0
607, 0.84018862020835, -0.1285710505145, 0
608, 0.87526733270604, -0.21556615588355, 0
609, 0.18687752106132, -0.2196167020079, 0
610, 0.72705624619241, 0.063642607990033, 0
611, 0.63079410562972, 0.19001673879357, 0
612, 0.80340583138274, 0.23814383638275, 0
613, 0.83790149491637, 0.27793004746631, 0
614, 0.94412370177576, 0.14390786173716, 0
615, 0.90488726928448, -0.053797186218766, 0
616, 0.97219587564166, 0.14277104501756, 0
617, 0.75599325934888, 0.10691328530164, 0
618, 0.12766881227345, -0.068237505022041, 0
619, 0.94437935366827, 0.19757534483292, 0
620, 0.55246994717128, 0.28127222824459, 0
621, 0.29959877560788, -0.2366789148309, 0
622, 0.18261322869472, 0.16437313503078, 0
623, 0.70961290606551, 0.063601632551235, 0
624, 0.74119506058138, -0.0037143789606934, 0
625, 0.10370994432395, -0.10023112260528, 0
626, 0.56421365881743, -0.26372853300077, 0
627, 0.86058331472657, 0.22992755988622, 0
628, 0.39481809956763, -0.26725088618043, 0
629, 0.21145113975481, -0.049294131270461, 0
630, 0.20877827778877, -0.066642472630588, 0
631, 0.97622155429282, -0.049375279140497, 0
632, 0.64945701859063, 0.2249904043938, 0
633, 0.16177582104352, -0.15389817038398, 0
634, 0.21067975327876, -0.27441425826275, 0
635, 0.22569115663078, 0.1623432233311, 0
636, 0.74409621818403, 0.23198249918831, 0
637, 0.10280769015176, -0.072286706036744, 0
638, 0.15156260240399, -0.037427935066548, 0
639, 0.20353045671967, -0.0062170262243411, 0
640, 0.17793457347039, -0.0087659125168358, 0
641, 0.12735346523007, -0.041405213759844, 0
642, 0.17633082351216, -0.083688312609176, 0
643, 0.69024418427837, 0.11949289008866, 0
644, 0.6151218814569, 0.28537782190971, 0
645, 0.70767611987871, 0.21066113638244, 0
646, 0.75676131870905, 0.2825292854971, 0
647, 0.92003949811592, 0.27519128474368, 0
648, 0.91851597052596, 0.25028152364755, 0
649, 0.82299193175532, 0.16113374906374, 0
650, 0.68182790696649, 0.27361210052502, 0
651, 0.89372553411931, -0.12339986293676, 0
652, 0.92685559413799, -0.065103236394342, 0
653, 0.58444759430885, 0.24943903158562, 0
654, 0.5990479878822, 0.23526981053247, 0
655, 0.89293760272768, 0.27587753890488, 0
656, 0.89089887100314, 0.25166763003759, 0
657, 0.88905850666048, 0.22713263015297, 0
658, 0.88748944539394, 0.20200392999153, 0
659, 0.63671794082333, 0.28660937073275, 0
660, 0.64399562865974, 0.27406107853846, 0
661, 0.64917176058951, 0.26244092932991, 0
662, 0.65265567430801, 0.25224981281558, 0
663, 0.66288573383986, 0.24161901034917, 0
664, 0.67623016595596, 0.23709503725382, 0
665, 0.69356593764488, 0.23128520318004, 0
666, 0.71434331161547, 0.22424743237567, 0
667, 0.73824460860685, 0.21589144413097, 0
668, 0.76512345689586, 0.20619710776246, 0
669, 0.79477162367421, 0.19571575124085, 0
670, 0.82567071238915, 0.18687670430035, 0
671, 0.85639914805491, 0.18040342547545, 0
672, 0.64800809294397, 0.23978892598328, 0
673, 0.63841516990194, 0.23402873713191, 0
674, 0.62660293862305, 0.2279925934823, 0
675, 0.91553331474195, 0.17300833941337, 0
676, 0.94405115514874, 0.17104028621894, 0
677, 0.97213451984897, 0.16974071510226, 0
678, 0.88599394402713, 0.14870122824615, 0
679, 0.88677294366545, 0.11994532562501, 0
680, 0.80098917717238, 0.060331809533985, 0
681, 0.97384608228065, 0.059417954073088, 0
682, 0.94748509238184, 0.059599464229669, 0
683, 0.92066334655913, 0.059491987374395, 0
684, 0.82530274343396, -0.022732844266374, 0
685, 0.92126367772141, -0.093704191042708, 0
686, 0.95312948230932, -0.021158414065179, 0
687, 0.89801441502049, 0.029034623175052, 0
688, 0.627383688071, 0.20984014903621, 0
689, 0.6430722555519, 0.19843994019984, 0
690, 0.66070202657674, 0.18738413839258, 0
691, 0.68049016109909, 0.1757364901216, 0
692, 0.70252309948055, 0.16175335591147, 0
693, 0.83327210329338, 0.058476619429638, 0
694, 0.59799294001688, 0.21646852125573, 0
695, 0.58165688393048, 0.21147355328038, 0
696, 0.72718178296696, 0.14214594134637, 0
697, 0.65452919904692, 0.24454235046913, 0
698, 0.88636905403487, 0.17597087062842, 0
699, 0.61303708486597, 0.22205758168226, 0
700, 0.73983142162226, 0.15450615226663, 0
******* E L E M E N T S *************
*ELEMENT, type=CPS4, ELSET=Surface1
1, 18, 11, 319, 316
2, 316, 319, 317, 197
3, 319, 318, 196, 317
4, 11, 19, 318, 319
5, 45, 38, 323, 320
6, 320, 323, 321, 204
7, 323, 322, 280, 321
8, 38, 46, 322, 323
9, 677, 372, 619, 676
10, 667, 636, 435, 666
11, 650, 256, 247, 522
12, 398, 314, 574, 523
13, 121, 111, 331, 328
14, 328, 331, 329, 232
15, 331, 330, 234, 329
16, 111, 122, 330, 331
17, 46, 39, 333, 322
18, 322, 333, 332, 280
19, 333, 47, 58, 332
20, 39, 4, 47, 333
21, 225, 335, 336, 334
22, 334, 336, 328, 232
23, 336, 110, 121, 328
24, 335, 120, 110, 336
25, 103, 96, 340, 337
26, 337, 340, 338, 211
27, 340, 339, 209, 338
28, 96, 104, 339, 340
29, 547, 495, 299, 259
30, 532, 360, 515, 540
31, 679, 678, 344, 246
32, 672, 697, 662, 513
33, 123, 346, 347, 112
34, 112, 347, 330, 122
35, 347, 345, 234, 330
36, 346, 231, 345, 347
37, 44, 37, 350, 348
38, 348, 350, 349, 203
39, 350, 320, 204, 349
40, 37, 45, 320, 350
41, 118, 108, 354, 351
42, 351, 354, 352, 218
43, 354, 353, 222, 352
44, 108, 119, 353, 354
45, 206, 356, 357, 355
46, 355, 357, 351, 218
47, 357, 107, 118, 351
48, 356, 117, 107, 357
49, 253, 387, 342, 472
50, 467, 646, 596, 341
51, 66, 56, 527, 372
52, 123, 113, 364, 346
53, 346, 364, 362, 231
54, 364, 363, 227, 362
55, 113, 124, 363, 364
56, 684, 605, 274, 466
57, 304, 269, 465, 464
58, 447, 192, 129, 500
59, 412, 50, 61, 306
60, 101, 94, 370, 367
61, 367, 370, 368, 212
62, 370, 369, 210, 368
63, 94, 102, 369, 370
64, 361, 539, 648, 374
65, 691, 253, 472, 690
66, 616, 65, 55, 677
67, 125, 115, 376, 375
68, 375, 376, 316, 197
69, 376, 10, 18, 316
70, 115, 1, 10, 376
71, 14, 555, 634, 21
72, 309, 2, 25, 538
73, 493, 379, 460, 201
74, 634, 405, 413, 414
75, 422, 528, 613, 264
76, 673, 672, 513, 270
77, 502, 644, 75, 6
78, 266, 325, 632, 514
79, 104, 97, 384, 339
80, 339, 384, 383, 209
81, 384, 105, 116, 383
82, 97, 8, 105, 384
83, 119, 109, 386, 353
84, 353, 386, 385, 222
85, 386, 335, 225, 385
86, 109, 120, 335, 386
87, 402, 260, 502, 576
88, 681, 53, 64, 360
89, 501, 73, 81, 256
90, 394, 650, 522, 257
91, 426, 649, 420, 327
92, 617, 696, 358, 249
93, 374, 648, 656, 657
94, 167, 531, 291, 517
95, 512, 660, 659, 644
96, 401, 663, 697, 672
97, 663, 469, 662, 697
98, 390, 499, 646, 467
99, 196, 318, 397, 395
100, 395, 397, 396, 198
101, 397, 12, 20, 396
102, 318, 19, 12, 397
103, 359, 654, 653, 567
104, 243, 684, 466, 314
105, 695, 694, 359, 248
106, 67, 57, 393, 541
107, 435, 263, 597, 436
108, 699, 674, 302, 654
109, 472, 342, 325, 266
110, 573, 373, 643, 300
111, 436, 597, 394, 521
112, 372, 527, 361, 619
113, 257, 522, 660, 661
114, 554, 484, 308, 424
115, 424, 308, 609, 423
116, 22, 378, 555, 14
117, 406, 140, 180, 200
118, 305, 243, 314, 398
119, 567, 653, 382, 239
120, 689, 266, 514, 688
121, 341, 596, 501, 586
122, 292, 606, 244, 301
123, 561, 607, 552, 267
124, 607, 447, 500, 552
125, 523, 128, 192, 447
126, 198, 396, 414, 413
127, 406, 377, 23, 16
128, 396, 20, 13, 414
129, 102, 95, 416, 369
130, 369, 416, 415, 210
131, 416, 337, 211, 415
132, 95, 103, 337, 416
133, 529, 380, 426, 327
134, 154, 425, 531, 167
135, 469, 257, 661, 662
136, 514, 632, 673, 674
137, 327, 420, 389, 250
138, 387, 645, 388, 342
139, 290, 421, 164, 157
140, 666, 435, 436, 665
141, 293, 554, 424, 199
142, 407, 293, 199, 458
143, 459, 229, 379, 493
144, 178, 143, 484, 554
145, 656, 655, 528, 422
146, 448, 324, 605, 684
147, 657, 656, 422, 627
148, 517, 291, 85, 89
149, 124, 114, 429, 363
150, 363, 429, 428, 227
151, 429, 375, 197, 428
152, 114, 125, 375, 429
153, 7, 90, 432, 430
154, 430, 432, 152, 168
155, 432, 431, 169, 152
156, 90, 98, 431, 432
157, 209, 383, 434, 433
158, 433, 434, 356, 206
159, 434, 106, 117, 356
160, 383, 116, 106, 434
161, 56, 67, 541, 527
162, 400, 272, 260, 402
163, 614, 616, 677, 676
164, 263, 341, 586, 597
165, 280, 332, 438, 437
166, 306, 61, 51, 631
167, 273, 482, 608, 551
168, 332, 58, 48, 438
169, 41, 34, 441, 439
170, 439, 441, 132, 188
171, 441, 440, 189, 132
172, 34, 42, 440, 441
173, 232, 329, 445, 442
174, 590, 629, 294, 588
175, 230, 580, 233, 625
176, 329, 234, 444, 445
177, 446, 255, 278, 686
178, 247, 74, 82, 659
179, 647, 69, 77, 655
180, 500, 129, 191, 269
181, 298, 294, 145, 175
182, 453, 295, 237, 477
183, 442, 450, 287, 454
184, 589, 477, 473, 537
185, 232, 442, 454, 334
186, 334, 454, 452, 225
187, 230, 625, 498, 497
188, 637, 618, 641, 443
189, 203, 456, 457, 348
190, 348, 457, 36, 44
191, 457, 455, 43, 36
192, 456, 190, 455, 457
193, 494, 628, 139, 181
194, 406, 16, 24, 494
195, 377, 621, 459, 310
196, 516, 458, 379, 229
197, 169, 431, 462, 151
198, 151, 462, 461, 170
199, 462, 91, 99, 461
200, 431, 98, 91, 462
201, 420, 669, 668, 389
202, 547, 259, 679, 246
203, 528, 70, 78, 613
204, 255, 392, 503, 278
205, 465, 456, 203, 464
206, 130, 190, 456, 465
207, 419, 425, 154, 166
208, 256, 81, 74, 247
209, 627, 422, 264, 268
210, 421, 251, 156, 164
211, 596, 80, 73, 501
212, 540, 515, 616, 614
213, 388, 665, 664, 326
214, 513, 662, 661, 504
215, 237, 295, 146, 174
216, 473, 475, 474, 215
217, 475, 147, 173, 474
218, 287, 296, 217, 224
219, 296, 235, 286, 217
220, 444, 637, 443, 445
221, 297, 476, 592, 638
222, 625, 637, 444, 498
223, 171, 479, 480, 149
224, 149, 480, 311, 172
225, 480, 478, 205, 311
226, 479, 212, 478, 480
227, 566, 366, 411, 448
228, 365, 305, 561, 651
229, 52, 63, 392, 255
230, 365, 651, 292, 685
231, 633, 307, 580, 582
232, 484, 633, 285, 308
233, 218, 352, 488, 485
234, 485, 488, 486, 220
235, 488, 487, 221, 486
236, 352, 222, 487, 488
237, 489, 491, 490, 187
238, 491, 32, 40, 490
239, 284, 195, 185, 136
240, 188, 133, 492, 439
241, 439, 492, 33, 41
242, 492, 490, 40, 33
243, 133, 187, 490, 492
244, 628, 17, 2, 309
245, 201, 460, 423, 405
246, 142, 178, 554, 293
247, 555, 201, 405, 634
248, 358, 409, 577, 373
249, 425, 427, 271, 531
250, 259, 299, 683, 526
251, 231, 497, 498, 345
252, 345, 498, 444, 234
253, 445, 443, 450, 442
254, 450, 216, 296, 287
255, 244, 481, 279, 575
256, 269, 191, 130, 465
257, 587, 553, 437, 481
258, 417, 390, 467, 240
259, 671, 593, 315, 670
260, 419, 248, 427, 425
261, 240, 467, 341, 263
262, 658, 657, 627, 593
263, 222, 385, 506, 487
264, 487, 506, 505, 221
265, 506, 452, 224, 505
266, 385, 225, 452, 506
267, 189, 440, 507, 131
268, 131, 507, 455, 190
269, 507, 35, 43, 455
270, 440, 42, 35, 507
271, 3, 32, 491, 289
272, 509, 184, 137, 511
273, 508, 288, 289, 626
274, 284, 509, 30, 27
275, 183, 510, 511, 137
276, 626, 289, 491, 489
277, 509, 511, 26, 30
278, 510, 29, 26, 511
279, 595, 417, 240, 636
280, 690, 472, 266, 689
281, 688, 514, 674, 699
282, 315, 268, 612, 241
283, 200, 228, 516, 621
284, 406, 200, 621, 377
285, 179, 142, 293, 407
286, 628, 309, 182, 139
287, 89, 86, 518, 517
288, 517, 518, 153, 167
289, 518, 430, 168, 153
290, 86, 7, 430, 518
291, 212, 479, 520, 367
292, 367, 520, 93, 101
293, 520, 519, 100, 93
294, 479, 171, 519, 520
295, 241, 612, 417, 595
296, 612, 202, 390, 417
297, 678, 399, 675, 698
298, 272, 504, 512, 260
299, 449, 273, 587, 606
300, 575, 279, 59, 49
301, 279, 438, 48, 59
302, 62, 52, 255, 446
303, 632, 401, 672, 673
304, 251, 558, 165, 156
305, 468, 290, 157, 163
306, 246, 344, 649, 426
307, 262, 76, 69, 647
308, 664, 521, 469, 663
309, 499, 79, 72, 646
310, 692, 213, 253, 691
311, 9, 160, 530, 126
312, 126, 530, 463, 161
313, 530, 281, 258, 463
314, 160, 194, 281, 530
315, 264, 613, 403, 202
316, 213, 470, 387, 253
317, 391, 419, 166, 155
318, 653, 400, 402, 382
319, 173, 148, 534, 474
320, 474, 534, 533, 215
321, 534, 312, 214, 533
322, 148, 172, 312, 534
323, 223, 536, 537, 535
324, 535, 537, 473, 215
325, 640, 639, 453, 451
326, 483, 177, 496, 642
327, 523, 574, 193, 128
328, 302, 270, 272, 400
329, 558, 391, 155, 165
330, 681, 392, 63, 53
331, 183, 138, 538, 510
332, 510, 538, 25, 29
333, 458, 199, 460, 379
334, 228, 407, 458, 516
335, 593, 627, 268, 315
336, 427, 567, 239, 271
337, 700, 213, 692, 696
338, 644, 659, 82, 75
339, 100, 519, 542, 92
340, 92, 542, 461, 99
341, 542, 150, 170, 461
342, 519, 171, 150, 542
343, 210, 415, 546, 543
344, 543, 546, 544, 208
345, 546, 545, 207, 544
346, 415, 211, 545, 546
347, 273, 551, 553, 587
348, 648, 647, 655, 656
349, 399, 614, 676, 675
350, 615, 524, 410, 366
351, 227, 428, 550, 548
352, 548, 550, 549, 226
353, 550, 317, 196, 549
354, 428, 197, 317, 550
355, 204, 321, 553, 551
356, 686, 278, 252, 562
357, 265, 562, 410, 524
358, 321, 280, 437, 553
359, 642, 496, 590, 476
360, 309, 538, 138, 182
361, 177, 144, 630, 496
362, 211, 338, 557, 545
363, 545, 557, 556, 207
364, 557, 433, 206, 556
365, 338, 209, 433, 557
366, 249, 358, 373, 573
367, 646, 72, 80, 596
368, 515, 54, 65, 616
369, 670, 315, 241, 669
370, 344, 671, 670, 649
371, 683, 682, 532, 526
372, 268, 264, 202, 612
373, 466, 274, 283, 408
374, 389, 668, 667, 559
375, 365, 566, 243, 305
376, 652, 303, 276, 265
377, 276, 686, 562, 265
378, 508, 31, 28, 288
379, 563, 134, 186, 135
380, 489, 187, 134, 563
381, 682, 503, 392, 681
382, 613, 78, 71, 403
383, 698, 658, 593, 671
384, 597, 586, 650, 394
385, 226, 568, 569, 548
386, 548, 569, 362, 227
387, 569, 497, 231, 362
388, 568, 230, 497, 569
389, 219, 571, 572, 570
390, 570, 572, 533, 214
391, 572, 535, 215, 533
392, 571, 223, 535, 572
393, 696, 692, 409, 358
394, 623, 159, 161, 463
395, 617, 249, 343, 261
396, 299, 687, 594, 683
397, 449, 267, 482, 273
398, 651, 561, 267, 449
399, 277, 301, 404, 412
400, 360, 64, 54, 515
401, 620, 576, 83, 87
402, 393, 68, 76, 262
403, 260, 512, 644, 502
404, 218, 485, 579, 355
405, 355, 579, 556, 206
406, 579, 578, 207, 556
407, 485, 220, 578, 579
408, 226, 581, 582, 568
409, 568, 582, 580, 230
410, 308, 285, 603, 609
411, 285, 581, 604, 603
412, 221, 584, 585, 486
413, 486, 585, 583, 220
414, 585, 571, 219, 583
415, 584, 223, 571, 585
416, 679, 564, 399, 678
417, 391, 695, 248, 419
418, 271, 239, 254, 565
419, 470, 559, 645, 387
420, 371, 374, 657, 658
421, 451, 453, 477, 589
422, 638, 592, 640, 591
423, 216, 591, 235, 296
424, 629, 630, 144, 176
425, 233, 236, 297, 618
426, 224, 217, 602, 505
427, 406, 494, 181, 140
428, 618, 297, 638, 641
429, 504, 661, 660, 512
430, 576, 502, 6, 83
431, 669, 241, 595, 668
432, 636, 240, 263, 435
433, 565, 254, 84, 88
434, 564, 540, 614, 399
435, 57, 5, 68, 393
436, 403, 71, 79, 499
437, 208, 598, 599, 543
438, 543, 599, 368, 210
439, 599, 478, 212, 368
440, 598, 205, 478, 599
441, 208, 544, 601, 600
442, 600, 601, 583, 219
443, 601, 578, 220, 583
444, 544, 207, 578, 601
445, 223, 584, 602, 536
446, 286, 589, 537, 536
447, 639, 298, 295, 453
448, 584, 221, 505, 602
449, 621, 516, 229, 459
450, 603, 604, 395, 198
451, 604, 549, 196, 395
452, 581, 226, 549, 604
453, 305, 398, 607, 561
454, 649, 670, 669, 420
455, 675, 371, 658, 698
456, 481, 437, 438, 279
457, 615, 652, 265, 524
458, 412, 404, 60, 50
459, 608, 349, 204, 551
460, 464, 203, 349, 608
461, 378, 493, 201, 555
462, 413, 609, 603, 198
463, 484, 483, 307, 633
464, 676, 619, 371, 675
465, 645, 666, 665, 388
466, 586, 501, 256, 650
467, 239, 382, 620, 254
468, 694, 699, 654, 359
469, 254, 620, 87, 84
470, 326, 664, 663, 401
471, 529, 327, 250, 700
472, 342, 388, 326, 325
473, 682, 681, 360, 532
474, 668, 595, 636, 667
475, 566, 448, 684, 243
476, 680, 261, 274, 605
477, 580, 307, 236, 233
478, 294, 629, 176, 145
479, 484, 143, 177, 483
480, 476, 590, 588, 592
481, 541, 393, 262, 539
482, 300, 162, 159, 623
483, 680, 605, 324, 693
484, 310, 459, 493, 378
485, 15, 310, 378, 22
486, 141, 179, 407, 228
487, 205, 598, 622, 313
488, 313, 622, 570, 214
489, 622, 600, 219, 570
490, 598, 208, 600, 622
491, 270, 513, 504, 272
492, 655, 77, 70, 528
493, 531, 271, 565, 291
494, 202, 403, 499, 390
495, 380, 547, 246, 426
496, 55, 66, 372, 677
497, 651, 449, 606, 292
498, 482, 304, 464, 608
499, 448, 411, 238, 324
500, 194, 283, 624, 281
501, 281, 624, 282, 258
502, 283, 274, 282, 624
503, 195, 626, 489, 563
504, 284, 27, 31, 508
505, 284, 136, 184, 509
506, 496, 630, 629, 590
507, 588, 294, 298, 639
508, 284, 508, 626, 195
509, 195, 563, 135, 185
510, 28, 3, 289, 288
511, 291, 565, 88, 85
512, 674, 673, 270, 302
513, 526, 532, 540, 564
514, 21, 634, 414, 13
515, 405, 423, 609, 413
516, 633, 582, 581, 285
517, 217, 286, 536, 602
518, 454, 287, 224, 452
519, 477, 237, 475, 473
520, 443, 641, 216, 450
521, 591, 640, 451, 235
522, 236, 642, 476, 297
523, 300, 643, 158, 162
524, 643, 468, 163, 158
525, 382, 402, 576, 620
526, 267, 552, 304, 482
527, 631, 446, 686, 276
528, 521, 394, 257, 469
529, 365, 685, 652, 615
530, 619, 361, 374, 371
531, 200, 180, 141, 228
532, 307, 483, 642, 236
533, 377, 310, 15, 23
534, 494, 24, 17, 628
535, 199, 424, 423, 460
536, 205, 313, 635, 311
537, 311, 635, 312, 172
538, 313, 214, 312, 635
539, 665, 436, 521, 664
540, 522, 247, 659, 660
541, 693, 324, 238, 495
542, 592, 588, 639, 640
543, 235, 451, 589, 286
544, 641, 638, 591, 216
545, 475, 237, 174, 147
546, 625, 233, 618, 637
547, 295, 298, 175, 146
548, 559, 667, 666, 645
549, 250, 389, 559, 470
550, 678, 698, 671, 344
551, 654, 302, 400, 653
552, 527, 541, 539, 361
553, 539, 262, 647, 648
554, 248, 359, 567, 427
555, 325, 326, 401, 632
556, 301, 244, 575, 404
557, 365, 615, 366, 566
558, 606, 587, 481, 244
559, 683, 594, 503, 682
560, 408, 283, 194, 127
561, 278, 503, 594, 252
562, 685, 277, 303, 652
563, 398, 523, 447, 607
564, 495, 238, 687, 299
565, 562, 252, 275, 410
566, 574, 408, 127, 193
567, 411, 275, 687, 238
568, 303, 306, 631, 276
569, 51, 62, 446, 631
570, 404, 575, 49, 60
571, 685, 292, 301, 277
572, 552, 500, 269, 304
573, 366, 410, 275, 411
574, 252, 594, 687, 275
575, 314, 466, 408, 574
576, 277, 412, 306, 303
577, 261, 343, 282, 274
578, 525, 695, 391, 558
579, 418, 525, 558, 251
580, 245, 418, 251, 421
581, 242, 245, 421, 290
582, 577, 242, 290, 468
583, 249, 573, 610, 343
584, 343, 610, 258, 282
585, 373, 577, 468, 643
586, 529, 617, 261, 680
587, 560, 694, 695, 525
588, 611, 560, 525, 418
589, 471, 611, 418, 245
590, 381, 471, 245, 242
591, 409, 381, 242, 577
592, 529, 680, 693, 380
593, 573, 300, 623, 610
594, 380, 693, 495, 547
595, 688, 699, 694, 560
596, 689, 688, 560, 611
597, 690, 689, 611, 471
598, 691, 690, 471, 381
599, 692, 691, 381, 409
600, 529, 700, 696, 617
601, 610, 623, 463, 258
602, 700, 250, 470, 213
603, 259, 526, 564, 679
*ELSET,ELSET=contact_source
103, 104, 105, 106, 107, 108, 109, 110, 111, 112, 
113, 114, 115, 116, 117, 118, 119, 120, 121, 122, 
123, 124, 
*ELSET,ELSET=contact_drain
41, 42, 43, 44, 45, 46, 47, 48, 49, 50, 
51, 52, 53, 54, 55, 56, 57, 58, 59, 60, 
61, 62, 
*ELSET,ELSET=probe_A
79, 80, 81, 82, 83, 84, 85, 86, 
*ELSET,ELSET=probe_B
17, 18, 19, 20, 21, 22, 23, 24, 
*ELSET,ELSET=walls
1, 2, 3, 4, 5, 6, 7, 8, 9, 10, 
11, 12, 13, 14, 15, 16, 25, 26, 27, 28, 
29, 30, 31, 32, 33, 34, 35, 36, 37, 38, 
39, 40, 63, 64, 65, 66, 67, 68, 69, 70, 
71, 72, 73, 74, 75, 76, 77, 78, 87, 88, 
89, 90, 91, 92, 93, 94, 95, 96, 97, 98, 
99, 100, 101, 102, 125, 126, 127, 128, 129, 130, 
131, 132, 133, 134, 135, 136, 137, 138, 139, 140, 
141, 142, 143, 144, 145, 146, 147, 148, 149, 150, 
151, 152, 153, 154, 155, 156, 157, 158, 159, 160, 
161, 162, 163, 164, 165, 166, 167, 168, 169, 170, 
171, 172, 173, 174, 175, 176, 177, 178, 179, 180, 
181, 182, 183, 184, 185, 186, 187, 188, 189, 190, 
191, 192, 193, 194, 
*ELSET,ELSET=domain
195, 196, 197, 198, 199, 200, 201, 202, 203, 204, 
205, 206, 207, 208, 209, 210, 211, 212, 213, 214, 
215, 216, 217, 218, 219, 220, 221, 222, 223, 224, 
225, 226, 227, 228, 229, 230, 231, 232, 233, 234, 
235, 236, 237, 238, 239, 240, 241, 242, 243, 244, 
245, 246, 247, 248, 249, 250, 251, 252, 253, 254, 
255, 256, 257, 258, 259, 260, 261, 262, 263, 264, 
265, 266, 267, 268, 269, 270, 271, 272, 273, 274, 
275, 276, 277, 278, 279, 280, 281, 282, 283, 284, 
285, 286, 287, 288, 289, 290, 291, 292, 293, 294, 
295, 296, 297, 298, 299, 300, 301, 302, 303, 304, 
305, 306, 307, 308, 309, 310, 311, 312, 313, 314, 
315, 316, 317, 318, 319, 320, 321, 322, 323, 324, 
325, 326, 327, 328, 329, 330, 331, 332, 333, 334, 
335, 336, 337, 338, 339, 340, 341, 342, 343, 344, 
345, 346, 347, 348, 349, 350, 351, 352, 353, 354, 
355, 356, 357, 358, 359, 360, 361, 362, 363, 364, 
365, 366, 367, 368, 369, 370, 371, 372, 373, 374, 
375, 376, 377, 378, 379, 380, 381, 382, 383, 384, 
385, 386, 387, 388, 389, 390, 391, 392, 393, 394, 
395, 396, 397, 398, 399, 400, 401, 402, 403, 404, 
405, 406, 407, 408, 409, 410, 411, 412, 413, 414, 
415, 416, 417, 418, 419, 420, 421, 422, 423, 424, 
425, 426, 427, 428, 429, 430, 431, 432, 433, 434, 
435, 436, 437, 438, 439, 440, 441, 442, 443, 444, 
445, 446, 447, 448, 449, 450, 451, 452, 453, 454, 
455, 456, 457, 458, 459, 460, 461, 462, 463, 464, 
465, 466, 467, 468, 469, 470, 471, 472, 473, 474, 
475, 476, 477, 478, 479, 480, 481, 482, 483, 484, 
485, 486, 487, 488, 489, 490, 491, 492, 493, 494, 
495, 496, 497, 498, 499, 500, 501, 502, 503, 504, 
505, 506, 507, 508, 509, 510, 511, 512, 513, 514, 
515, 516, 517, 518, 519, 520, 521, 522, 523, 524, 
525, 526, 527, 528, 529, 530, 531, 532, 533, 534, 
535, 536, 537, 538, 539, 540, 541, 542, 543, 544, 
545, 546, 547, 548, 549, 550, 551, 552, 553, 554, 
555, 556, 557, 558, 559, 560, 561, 562, 563, 564, 
565, 566, 567, 568, 569, 570, 571, 572, 573, 574, 
575, 576, 577, 578, 579, 580, 581, 582, 583, 584, 
585, 586, 587, 588, 589, 590, 591, 592, 593, 594, 
595, 596, 597, 598, 599, 600, 601, 602, 603, 604, 
605, 606, 607, 608, 609, 610, 611, 612, 613, 614, 
615, 616, 617, 618, 619, 620, 621, 622, 623, 624, 
625, 626, 627, 628, 629, 630, 631, 632, 633, 634, 
635, 636, 637, 638, 639, 640, 641, 642, 643, 644, 
645, 646, 647, 648, 649, 650, 651, 652, 653, 654, 
655, 656, 657, 658, 659, 660, 661, 662, 663, 664, 
665, 666, 667, 668, 669, 670, 671, 672, 673, 674, 
675, 676, 677, 678, 679, 680, 681, 682, 683, 684, 
685, 686, 687, 688, 689, 690, 691, 692, 693, 694, 
695, 696, 697, 698, 699, 700, 701, 702, 703, 704, 
705, 706, 707, 708, 709, 710, 711, 712, 713, 714, 
715, 716, 717, 718, 719, 720, 721, 722, 723, 724, 
725, 726, 727, 728, 729, 730, 731, 732, 733, 734, 
735, 736, 737, 738, 739, 740, 741, 742, 743, 744, 
745, 746, 747, 748, 749, 750, 751, 752, 753, 754, 
755, 756, 757, 758, 759, 760, 761, 762, 763, 764, 
765, 766, 767, 768, 769, 770, 771, 772, 773, 774, 
775, 776, 777, 778, 779, 780, 781, 782, 783, 784, 
785, 786, 787, 788, 789, 790, 791, 792, 793, 794, 
795, 796, 797, 
*NSET,NSET=contact_source
1, 8, 105, 106, 107, 108, 109, 110, 111, 112, 
113, 114, 115, 116, 117, 118, 119, 120, 121, 122, 
123, 124, 125, 
*NSET,NSET=contact_drain
4, 5, 47, 48, 49, 50, 51, 52, 53, 54, 
55, 56, 57, 58, 59, 60, 61, 62, 63, 64, 
65, 66, 67, 
*NSET,NSET=probe_A
6, 7, 83, 84, 85, 86, 87, 88, 89, 
*NSET,NSET=probe_B
2, 3, 25, 26, 27, 28, 29, 30, 31, 
*NSET,NSET=walls
1, 2, 3, 4, 5, 6, 7, 8, 9, 10, 
11, 12, 13, 14, 15, 16, 17, 18, 19, 20, 
21, 22, 23, 24, 32, 33, 34, 35, 36, 37, 
38, 39, 40, 41, 42, 43, 44, 45, 46, 68, 
69, 70, 71, 72, 73, 74, 75, 76, 77, 78, 
79, 80, 81, 82, 90, 91, 92, 93, 94, 95, 
96, 97, 98, 99, 100, 101, 102, 103, 104, 126, 
127, 128, 129, 130, 131, 132, 133, 134, 135, 136, 
137, 138, 139, 140, 141, 142, 143, 144, 145, 146, 
147, 148, 149, 150, 151, 152, 153, 154, 155, 156, 
157, 158, 159, 160, 161, 162, 163, 164, 165, 166, 
167, 168, 169, 170, 171, 172, 173, 174, 175, 176, 
177, 178, 179, 180, 181, 182, 183, 184, 185, 186, 
187, 188, 189, 190, 191, 192, 193, 194, 
*NSET,NSET=domain
1, 2, 3, 4, 5, 6, 7, 8, 9, 10, 
11, 12, 13, 14, 15, 16, 17, 18, 19, 20, 
21, 22, 23, 24, 25, 26, 27, 28, 29, 30, 
31, 32, 33, 34, 35, 36, 37, 38, 39, 40, 
41, 42, 43, 44, 45, 46, 47, 48, 49, 50, 
51, 52, 53, 54, 55, 56, 57, 58, 59, 60, 
61, 62, 63, 64, 65, 66, 67, 68, 69, 70, 
71, 72, 73, 74, 75, 76, 77, 78, 79, 80, 
81, 82, 83, 84, 85, 86, 87, 88, 89, 90, 
91, 92, 93, 94, 95, 96, 97, 98, 99, 100, 
101, 102, 103, 104, 105, 106, 107, 108, 109, 110, 
111, 112, 113, 114, 115, 116, 117, 118, 119, 120, 
121, 122, 123, 124, 125, 126, 127, 128, 129, 130, 
131, 132, 133, 134, 135, 136, 137, 138, 139, 140, 
141, 142, 143, 144, 145, 146, 147, 148, 149, 150, 
151, 152, 153, 154, 155, 156, 157, 158, 159, 160, 
161, 162, 163, 164, 165, 166, 167, 168, 169, 170, 
171, 172, 173, 174, 175, 176, 177, 178, 179, 180, 
181, 182, 183, 184, 185, 186, 187, 188, 189, 190, 
191, 192, 193, 194, 195, 196, 197, 198, 199, 200, 
201, 202, 203, 204, 205, 206, 207, 208, 209, 210, 
211, 212, 213, 214, 215, 216, 217, 218, 219, 220, 
221, 222, 223, 224, 225, 226, 227, 228, 229, 230, 
231, 232, 233, 234, 235, 236, 237, 238, 239, 240, 
241, 242, 243, 244, 245, 246, 247, 248, 249, 250, 
251, 252, 253, 254, 255, 256, 257, 258, 259, 260, 
261, 262, 263, 264, 265, 266, 267, 268, 269, 270, 
271, 272, 273, 274, 275, 276, 277, 278, 279, 280, 
281, 282, 283, 284, 285, 286, 287, 288, 289, 290, 
291, 292, 293, 294, 295, 296, 297, 298, 299, 300, 
301, 302, 303, 304, 305, 306, 307, 308, 309, 310, 
311, 312, 313, 314, 315, 316, 317, 318, 319, 320, 
321, 322, 323, 324, 325, 326, 327, 328, 329, 330, 
331, 332, 333, 334, 335, 336, 337, 338, 339, 340, 
341, 342, 343, 344, 345, 346, 347, 348, 349, 350, 
351, 352, 353, 354, 355, 356, 357, 358, 359, 360, 
361, 362, 363, 364, 365, 366, 367, 368, 369, 370, 
371, 372, 373, 374, 375, 376, 377, 378, 379, 380, 
381, 382, 383, 384, 385, 386, 387, 388, 389, 390, 
391, 392, 393, 394, 395, 396, 397, 398, 399, 400, 
401, 402, 403, 404, 405, 406, 407, 408, 409, 410, 
411, 412, 413, 414, 415, 416, 417, 418, 419, 420, 
421, 422, 423, 424, 425, 426, 427, 428, 429, 430, 
431, 432, 433, 434, 435, 436, 437, 438, 439, 440, 
441, 442, 443, 444, 445, 446, 447, 448, 449, 450, 
451, 452, 453, 454, 455, 456, 457, 458, 459, 460, 
461, 462, 463, 464, 465, 466, 467, 468, 469, 470, 
471, 472, 473, 474, 475, 476, 477, 478, 479, 480, 
481, 482, 483, 484, 485, 486, 487, 488, 489, 490, 
491, 492, 493, 494, 495, 496, 497, 498, 499, 500, 
501, 502, 503, 504, 505, 506, 507, 508, 509, 510, 
511, 512, 513, 514, 515, 516, 517, 518, 519, 520, 
521, 522, 523, 524, 525, 526, 527, 528, 529, 530, 
531, 532, 533, 534, 535, 536, 537, 538, 539, 540, 
541, 542, 543, 544, 545, 546, 547, 548, 549, 550, 
551, 552, 553, 554, 555, 556, 557, 558, 559, 560, 
561, 562, 563, 564, 565, 566, 567, 568, 569, 570, 
571, 572, 573, 574, 575, 576, 577, 578, 579, 580, 
581, 582, 583, 584, 585, 586, 587, 588, 589, 590, 
591, 592, 593, 594, 595, 596, 597, 598, 599, 600, 
601, 602, 603, 604, 605, 606, 607, 608, 609, 610, 
611, 612, 613, 614, 615, 616, 617, 618, 619, 620, 
621, 622, 623, 624, 625, 626, 627, 628, 629, 630, 
631, 632, 633, 634, 635, 636, 637, 638, 639, 640, 
641, 642, 643, 644, 645, 646, 647, 648, 649, 650, 
651, 652, 653, 654, 655, 656, 657, 658, 659, 660, 
661, 662, 663, 664, 665, 666, 667, 668, 669, 670, 
671, 672, 673, 674, 675, 676, 677, 678, 679, 680, 
681, 682, 683, 684, 685, 686, 687, 688, 689, 690, 
691, 692, 693, 694, 695, 696, 697, 698, 699, 700, 
