*Heading
 /Users/juliagao/geometry-optimization-net/scripts/../runs/run2/shape_190.inp
*NODE
1, 0, -0.3, 0
2, 0.425, -0.3, 0
3, 0.575, -0.3, 0
4, 1, -0.3, 0
5, 1, 0.3, 0
6, 0.575, 0.3, 0
7, 0.425, 0.3, 0
8, 0, 0.3, 0
9, 0.6361186685, -0.0335063775, 0
10, 0.02630701299047, -0.3, 0
11, 0.078724994579615, -0.3, 0
12, 0.1309265200107, -0.3, 0
13, 0.18365132578501, -0.3, 0
14, 0.23749463404527, -0.3, 0
15, 0.29170269966521, -0.3, 0
16, 0.34533842558116, -0.3, 0
17, 0.39848757259776, -0.3, 0
18, 0.05261402598094, -0.3, 0
19, 0.10483596317829, -0.3, 0
20, 0.1570170768431, -0.3, 0
21, 0.21028557472692, -0.3, 0
22, 0.26470369336361, -0.3, 0
23, 0.3187017059668, -0.3, 0
24, 0.37197514519552, -0.3, 0
25, 0.45085071405953, -0.3, 0
26, 0.50099855139963, -0.3, 0
27, 0.5501478373401, -0.3, 0
28, 0.47670142811907, -0.3, 0
29, 0.52529567468019, -0.3, 0
30, 0.60094812446078, -0.3, 0
31, 0.6532209514192, -0.3, 0
32, 0.70599304581712, -0.3, 0
33, 0.75968080144712, -0.3, 0
34, 0.8141067069531, -0.3, 0
35, 0.86770720875179, -0.3, 0
36, 0.92057983610075, -0.3, 0
37, 0.97351875171364, -0.3, 0
38, 0.62689624892156, -0.3, 0
39, 0.67954565391684, -0.3, 0
40, 0.7324404377174, -0.3, 0
41, 0.78692116517684, -0.3, 0
42, 0.84129224872936, -0.3, 0
43, 0.89412216877422, -0.3, 0
44, 0.94703750342727, -0.3, 0
45, 1, -0.27354327050521, 0
46, 1, -0.22017271433299, 0
47, 1, -0.16583659282617, 0
48, 1, -0.11056616074852, 0
49, 1, -0.054598305287555, 0
50, 1, 0.0015162696506781, 0
51, 1, 0.056907050592118, 0
52, 1, 0.1116074447846, 0
53, 1, 0.16621760387811, 0
54, 1, 0.22038176689267, 0
55, 1, 0.27362012039514, 0
56, 1, -0.24708654101042, 0
57, 1, -0.19325888765557, 0
58, 1, -0.13841429799678, 0
59, 1, -0.082718023500267, 0
60, 1, -0.026478587074844, 0
61, 1, 0.0295111263762, 0
62, 1, 0.084302974808037, 0
63, 1, 0.13891191476115, 0
64, 1, 0.19352329299507, 0
65, 1, 0.24724024079027, 0
66, 0.97435644364787, 0.3, 0
67, 0.92260802636621, 0.3, 0
68, 0.8694559336062, 0.3, 0
69, 0.81525905137506, 0.3, 0
70, 0.7614267271488, 0.3, 0
71, 0.70770521052426, 0.3, 0
72, 0.65376723527779, 0.3, 0
73, 0.60093405141513, 0.3, 0
74, 0.94871288729573, 0.3, 0
75, 0.89650316543668, 0.3, 0
76, 0.84240870177572, 0.3, 0
77, 0.7881094009744, 0.3, 0
78, 0.7347440533232, 0.3, 0
79, 0.68066636772531, 0.3, 0
80, 0.62686810283026, 0.3, 0
81, 0.55003411550587, 0.3, 0
82, 0.50014885224624, 0.3, 0
83, 0.45011473674037, 0.3, 0
84, 0.52506823101174, 0.3, 0
85, 0.47522947348074, 0.3, 0
86, 0.39899521296751, 0.3, 0
87, 0.3459619608558, 0.3, 0
88, 0.29196037915566, 0.3, 0
89, 0.23776942657682, 0.3, 0
90, 0.18320909718334, 0.3, 0
91, 0.12931915090855, 0.3, 0
92, 0.076934601272355, 0.3, 0
93, 0.025548752237699, 0.3, 0
94, 0.37299042593502, 0.3, 0
95, 0.31893349577658, 0.3, 0
96, 0.26498726253475, 0.3, 0
97, 0.21055159061889, 0.3, 0
98, 0.15586660374779, 0.3, 0
99, 0.10277169806931, 0.3, 0
100, 0.051097504475399, 0.3, 0
101, 0, 0.27378340024585, 0
102, 0, 0.22042242814612, 0
103, 0, 0.16558683868743, 0
104, 0, 0.10992634623592, 0
105, 0, 0.054071882462836, 0
106, 0, -0.0015552356478083, 0
107, 0, -0.057284508789442, 0
108, 0, -0.11278926114107, 0
109, 0, -0.16716409652269, 0
110, 0, -0.22066555731116, 0
111, 0, -0.27365479580199, 0
112, 0, 0.2475668004917, 0
113, 0, 0.19327805580053, 0
114, 0, 0.13789562157432, 0
115, 0, 0.081957070897523, 0
116, 0, 0.026186694028149, 0
117, 0, -0.029297165323766, 0
118, 0, -0.085271852255119, 0
119, 0, -0.14030667002702, 0
120, 0, -0.19402152301835, 0
121, 0, -0.24730959160397, 0
122, 0.63313268078273, -0.006978652222789, 0
123, 0.70091753876959, -0.081650058435105, 0
124, 0.73933753364517, -0.12171690031286, 0
125, 0.76288255035641, -0.17097255652035, 0
126, 0.74722852032021, -0.22080284834645, 0
127, 0.69606034341095, -0.23359444311887, 0
128, 0.64384615263472, -0.22158095836867, 0
129, 0.59689605292088, -0.19936317530113, 0
130, 0.55341993793786, -0.1776689055194, 0
131, 0.50882100601298, -0.20213199933836, 0
132, 0.46120559902675, -0.2206125003499, 0
133, 0.41481182037422, -0.19585077272677, 0
134, 0.36282687627279, -0.17672137772, 0
135, 0.30875777793929, -0.16068115104407, 0
136, 0.27845271617563, -0.11483587459293, 0
137, 0.29670901951217, -0.061741723816647, 0
138, 0.3287148044458, -0.015151807286048, 0
139, 0.32130300738198, 0.041221710557181, 0
140, 0.3100027805756, 0.096711939984928, 0
141, 0.32387131275296, 0.14993088769798, 0
142, 0.36392999045936, 0.1863684006604, 0
143, 0.41652988361849, 0.2014090391891, 0
144, 0.47089752920148, 0.19103622472225, 0
145, 0.51329876494343, 0.15467105225352, 0
146, 0.5399841610421, 0.10613332285214, 0
147, 0.5804400082324, 0.077364634598256, 0
148, 0.6313898425037, 0.077289271688506, 0
149, 0.65443236244468, 0.034929554891922, 0
150, 0.65733050699337, -0.049411720395909, 0
151, 0.64440381187687, 0.011687349852192, 0
152, 0.65262741052736, 0.061137644138613, 0
153, 0.60610656164205, 0.079852737379032, 0
154, 0.55398466932118, 0.082439219189096, 0
155, 0.52821361684594, 0.13083556869664, 0
156, 0.49423104999439, 0.17540296710865, 0
157, 0.44421391353654, 0.19987373181803, 0
158, 0.38926366619763, 0.19658667414965, 0
159, 0.34144443744567, 0.17079514807921, 0
160, 0.31319055559668, 0.12480891205223, 0
161, 0.31343694214871, 0.068725592882852, 0
162, 0.32995330770793, 0.013980960400809, 0
163, 0.31372055274736, -0.038619436845234, 0
164, 0.28331949151841, -0.087258762212373, 0
165, 0.28735040683298, -0.14184904279732, 0
166, 0.3349856954042, -0.17092849283069, 0
167, 0.39055638034987, -0.18313676202297, 0
168, 0.43696866763128, -0.21154262425224, 0
169, 0.48703096617873, -0.21656401823153, 0
170, 0.52785422064328, -0.18453726213615, 0
171, 0.57482423153645, -0.18707503587291, 0
172, 0.61931758277389, -0.21101600477729, 0
173, 0.66937195590902, -0.22948915719013, 0
174, 0.72309737506439, -0.23175475815528, 0
175, 0.76219518570885, -0.19833805441253, 0
176, 0.754021719714, -0.14541787100274, 0
177, 0.72123507832696, -0.10055886095422, 0
178, 0.67905463859636, -0.06456808436355, 0
179, 0.29356312610881, -0.28636865702929, 0
180, 0.47967088375426, 0.27072139663859, 0
181, 0.054982882968615, -0.24763092967654, 0
182, 0.11052307103372, -0.24904282047721, 0
183, 0.16721124714485, -0.25255882472638, 0
184, 0.32998095786573, -0.28345853743143, 0
185, 0.30624646779415, -0.22882254096559, 0
186, 0.24172126304953, -0.22144664969082, 0
187, 0.32914094958317, -0.24057191272328, 0
188, 0.33338960527409, -0.26320732943854, 0
189, 0.64945273129636, 0.15700878865653, 0
190, 0.56129796561806, -0.23919540271384, 0
191, 0.27030005390755, -0.28406188658408, 0
192, 0.62017681229194, -0.23370817583811, 0
193, 0.81079758266653, -0.2470902365373, 0
194, 0.21177813718636, 0.18351102512294, 0
195, 0.26061639027705, 0.12299237962836, 0
196, 0.20999877603407, 0.12836772398071, 0
197, 0.1052223918184, 0.13437650626895, 0
198, 0.15773699218269, 0.13204000912336, 0
199, 0.052626961106283, 0.13611686870447, 0
200, 0.15797611356184, 0.18705836246775, 0
201, 0.10499006907227, 0.18929625187377, 0
202, 0.052393689543199, 0.191116155199, 0
203, 0.10434917053404, 0.24461159844776, 0
204, 0.051964066259813, 0.24580459390792, 0
205, 0.15749178145339, 0.24329566313374, 0
206, 0.21149441644773, 0.24145599253144, 0
207, 0.27093093853612, 0.17594949650128, 0
208, 0.26605812013553, 0.23885659692837, 0
209, 0.30728986780064, 0.19209395971835, 0
210, 0.3234393037438, 0.23125291323667, 0
211, 0.51349681498314, 0.19867537235715, 0
212, 0.45918206928008, 0.24481728202277, 0
213, 0.26153457992699, 0.019541211526, 0
214, 0.26123905486205, 0.071888762791161, 0
215, 0.15785459081631, 0.026321567050152, 0
216, 0.20809977761866, 0.024097966681545, 0
217, 0.20924987094257, 0.075627465196232, 0
218, 0.10552722871661, 0.08009995249295, 0
219, 0.1575774845764, 0.078466069966004, 0
220, 0.05291928182256, 0.081129093523712, 0
221, 0.10649105045657, 0.026477119170446, 0
222, 0.053581312439222, 0.026334633418471, 0
223, 0.11564188410871, -0.19660081383923, 0
224, 0.057040614512609, -0.19440397036092, 0
225, 0.22824019271775, -0.15792111064217, 0
226, 0.14614727618115, -0.19914538489876, 0
227, 0.4902325177495, -0.27682808916744, 0
228, 0.11786939475139, -0.14073255046701, 0
229, 0.057827292117056, -0.13974557034177, 0
230, 0.054948152414843, -0.028515954397308, 0
231, 0.24151005170553, -0.086494283330554, 0
232, 0.18155281863464, -0.040362132816921, 0
233, 0.15994391166513, -0.023617588947679, 0
234, 0.056850757027261, -0.084005869233135, 0
235, 0.10919626072374, -0.02693931858885, 0
236, 0.11497067640961, -0.082336232525328, 0
237, 0.11173122562214, -0.054143823426809, 0
238, 0.14998158005094, -0.14246538750175, 0
239, 0.73546369083397, 0.14089040793808, 0
240, 0.7844016645131, 0.13860849667049, 0
241, 0.83650046704015, 0.13682230300329, 0
242, 0.89041522855757, 0.13637196936709, 0
243, 0.94512147205362, 0.13723846375556, 0
244, 0.8395053418003, 0.19146271708982, 0
245, 0.89267231033831, 0.19146898229969, 0
246, 0.9463028486843, 0.19212323596475, 0
247, 0.89438165382579, 0.24588185693574, 0
248, 0.94734173210195, 0.2463006918012, 0
249, 0.84118564545598, 0.24574169886543, 0
250, 0.78750112616966, 0.19179838524483, 0
251, 0.78841521677183, 0.24560606655416, 0
252, 0.73742762939448, 0.19155492222988, 0
253, 0.73660396738423, 0.24488585828945, 0
254, 0.63939465091042, 0.20731114047212, 0
255, 0.50923893640979, 0.23594285305431, 0
256, 0.61576642004931, 0.10203918404574, 0
257, 0.50466960230135, 0.26868688028061, 0
258, 0.62642268908296, 0.11992151701539, 0
259, 0.65402727070556, 0.13786261203165, 0
260, 0.69137502176271, 0.14181524353731, 0
261, 0.68552924186269, 0.10064334668999, 0
262, 0.6539668790157, 0.10713879275625, 0
263, 0.9153768893162, 0.080417733714409, 0
264, 0.75224080924567, 0.088281771021437, 0
265, 0.94192638812645, 0.024233696039799, 0
266, 0.66288405968809, -0.022978127380381, 0
267, 0.75868216462309, -0.0011137212064517, 0
268, 0.85630842602456, 0.050563751916539, 0
269, 0.9509507071299, -0.17369525429372, 0
270, 0.94122142195489, -0.0051001560155723, 0
271, 0.91256320416245, 0.022077465868185, 0
272, 0.84930395806076, -0.012477929426061, 0
273, 0.7372123943637, -0.066849498267654, 0
274, 0.77769698853106, 0.085045379030926, 0
275, 0.8410344332858, -0.088644935787585, 0
276, 0.88716417468218, 0.079852875988473, 0
277, 0.6863591133885, 0.050466948653783, 0
278, 0.83424472436557, 0.10907738264804, 0
279, 0.97235829120462, -0.11623139078594, 0
280, 0.853546865513, -0.17217027315111, 0
281, 0.90702549204368, -0.19755782216688, 0
282, 0.9482071749252, -0.27379638425078, 0
283, 0.64824244673957, -0.26083538447314, 0
284, 0.95145318190396, -0.19767726351103, 0
285, 0.80848012901151, -0.21784962105645, 0
286, 0.57163778058474, -0.21273515311241, 0
287, 0.53895495241353, -0.21252615393907, 0
288, 0.28460790708329, 0.12098063820085, 0
289, 0.26177566561362, 0.14765579150242, 0
290, 0.29355322493979, 0.15363453203724, 0
291, 0.72805578243639, 0.092034811428491, 0
292, 0.80756615003476, 0.1102766385554, 0
293, 0.97058374270737, -0.030585375379374, 0
294, 0.9448564019598, -0.1227082361421, 0
295, 0.94239736802316, -0.094314743789205, 0
296, 0.84432325355366, -0.12982843470353, 0
297, 0.71309595465391, 0.042297997416575, 0
298, 0.70509668363202, 0.016294972009286, 0
299, 0.31896928521329, 0.18276378846219, 0
300, 0.31025610295444, 0.20712263764988, 0
301, 0.33931370782215, 0.2036783055369, 0
302, 0.25153394386497, -0.26422774965364, 0
303, 0.17778463680549, -0.20353333596917, 0
304, 0.60997339197641, 0.23340674867679, 0
305, 0.6697590991634, 0.16184544436759, 0
306, 0.63026822656638, 0.14871246742109, 0
307, 0.40285297609475, 0.27266671013838, 0
308, 0.92634023176654, -0.22239413166702, 0
309, 0.97521750230153, -0.22142444360108, 0
310, 0.34540914808599, -0.22971011821587, 0
311, 0.35225301612505, -0.2556964844314, 0
312, 0.21491063234069, -0.083390934482401, 0
313, 0.18193965474178, -0.021916963860584, 0
314, 0.5366622459193, 0.1844467184554, 0
315, 0.61480679857572, 0.20024322791244, 0
316, 0.48961822196005, 0.20995882341278, 0
317, 0.67711619664451, 0.081011003718081, 0
318, 0.65047802759844, 0.090111898955583, 0
319, 0.66901240724478, 0.10517675268268, 0
320, 0.63860328408783, 0.132143012648, 0
321, 0.65645109294213, 0.12211883830223, 0
322, 0.63974230931305, 0.11081149234433, 0
323, 0.1641864396351, -0.047777788287167, 0
324, 0.22783445082628, -0.028941585862583, 0
325, 0.66680664627967, 0.18561843774844, 0
326, 0.22431621839087, -0.25963122851414, 0
327, 0.51841039465915, -0.22325383387103, 0
328, 0.51580855181914, -0.27516529833608, 0
329, 0.14572370999386, -0.080285529047469, 0
330, 0.20368195843371, -0.025178267923032, 0
331, 0.25366453745869, -0.032196953363928, 0
332, 0.89823510237531, -0.24660202441012, 0
333, 0.621722167493, -0.25612495993375, 0
334, 0.9718266903298, 0.082796501366538, 0
335, 0.68977644441323, 0.18886764595622, 0
336, 0.63527371316439, 0.23727061237032, 0
337, 0.67175801059687, 0.14078256822067, 0
338, 0.20277847339295, -0.23349049828122, 0
339, 0.78839298022694, 0.27275905945185, 0
340, 0.76238806064073, 0.24537148648242, 0
341, 0.73570662093619, 0.27231529236895, 0
342, 0.7619829633389, 0.27260793772898, 0
343, 0.051605336392528, 0.27294448472513, 0
344, 0.025952593730964, 0.24653550823046, 0
345, 0.025773126242495, 0.27332443809677, 0
346, 0.052748526348512, 0.10860230359871, 0
347, 0.026478582887707, 0.081558586067012, 0
348, 0.026314658764935, 0.13695938119837, 0
349, 0.026383873723352, 0.10925845454645, 0
350, 0.026828665226349, 0.026273807878619, 0
351, 0.054162739099838, -0.0010464684925573, 0
352, 0.027502281609363, -0.028970564063126, 0
353, 0.027121479884612, -0.0013238259261975, 0
354, 0.77260728042515, 0.057473029018944, 0
355, 0.76339583318672, -0.083580738527466, 0
356, 0.7939936286962, -0.10285456028409, 0
357, 0.36060423810744, 0.21220577565556, 0
358, 0.37638689028134, 0.27146702758547, 0
359, 0.68568421854622, 0.24253890678819, 0
360, 0.92407298800382, -0.24760674956498, 0
361, 0.67459571112266, -0.26384257842732, 0
362, 0.77530702164021, -0.22684486846025, 0
363, 0.8710430269509, -0.2449969652657, 0
364, 0.26559905038884, 0.26939575867908, 0
365, 0.32109502137391, 0.26767020980128, 0
366, 0.29344652760809, 0.23700211036024, 0
367, 0.2930414396614, 0.26857164175364, 0
368, 0.05589720531824, -0.056165132601484, 0
369, 0.028366885823392, -0.084575441457674, 0
370, 0.02794219650749, -0.056748402715163, 0
371, 0.54196225099953, -0.27305862833726, 0
372, 0.49503117230788, -0.23239138148386, 0
373, 0.35126998725651, -0.27939154198035, 0
374, 0.28413758703435, -0.25476607167094, 0
375, 0.82774811260474, 0.05157789670684, 0
376, 0.9444059302493, 0.10948553802731, 0
377, 0.97255834986383, 0.13802012711817, 0
378, 0.97221022833665, 0.11048316944869, 0
379, 0.053182350087582, 0.053711785548796, 0
380, 0.02661980363612, 0.053902205422215, 0
381, 0.32173173344799, -0.18201386577663, 0
382, 0.26972581114389, -0.23182684252915, 0
383, 0.37816075046229, -0.20251412356744, 0
384, 0.053772630052445, -0.27386538305024, 0
385, 0.082641186398219, -0.24815674826394, 0
386, 0.10765264979442, -0.27457729890883, 0
387, 0.080670771893986, -0.27413578211878, 0
388, 0.94574742477558, 0.16477487077024, 0
389, 0.9731545286213, 0.19271405259103, 0
390, 0.97287067748947, 0.1654334485121, 0
391, 0.53386081134187, 0.23070676303953, 0
392, 0.66046059369789, 0.24033792406863, 0
393, 0.25288168245109, -0.20369314089091, 0
394, 0.40281650553653, -0.27365988547908, 0
395, 0.23236029636118, -0.24026465626164, 0
396, 0.21711767981762, -0.27948880602206, 0
397, 0.13870371633622, -0.25044303313546, 0
398, 0.16205094127912, -0.27624698238507, 0
399, 0.13476145586907, -0.27525411953332, 0
400, 0.028796925396977, -0.13984440397339, 0
401, 0.057645172111553, -0.16726111773884, 0
402, 0.028429113869288, -0.19407039383431, 0
403, 0.02871016864593, -0.16707719071534, 0
404, 0.71104748536397, 0.24399678308726, 0
405, 0.57997589372663, 0.26548396506687, 0
406, 0.70945795106273, 0.27180728858208, 0
407, 0.027457097252782, -0.24736253694598, 0
408, 0.026877483633414, -0.27371826528478, 0
409, 0.97073257514658, -0.0018139974955489, 0
410, 0.83135476047846, 0.080773810311653, 0
411, 0.80999480425301, -0.049550568603236, 0
412, 0.9221925631924, -0.27364935181142, 0
413, 0.8755042476042, -0.21646960439082, 0
414, 0.05252015320443, 0.16363071980688, 0
415, 0.026181932444534, 0.19209517306216, 0
416, 0.026253314020692, 0.16456808356454, 0
417, 0.67204988108181, -0.24639715381819, 0
418, 0.97411760174684, -0.27371739293639, 0
419, 0.89585981478756, -0.27322909558401, 0
420, 0.97544122474028, -0.19558738194, 0
421, 0.79426112242154, 0.024015300339028, 0
422, 0.91246275602577, -0.18099828450377, 0
423, 0.94816113217907, -0.1491851411118, 0
424, 0.82329295050214, 0.020984452874358, 0
425, 0.29596867369918, -0.16844406187584, 0
426, 0.64423445217939, 0.1801998468272, 0
427, 0.65724316962635, 0.26985755626657, 0
428, 0.4334109719598, 0.24674441657491, 0
429, 0.21106135991368, 0.27069696508793, 0
430, 0.18439918017909, 0.24246101531553, 0
431, 0.15687210971211, 0.27162934958691, 0
432, 0.18389353941666, 0.27120350512246, 0
433, 0.38066313514124, 0.24404730837734, 0
434, 0.48444061134279, 0.24100503281478, 0
435, 0.40720491809544, 0.2465026856712, 0
436, 0.23873390236612, 0.2402617333544, 0
437, 0.23829307398762, 0.27009839883184, 0
438, 0.84179896672706, 0.27286978031282, 0
439, 0.81470188910607, 0.24570156010034, 0
440, 0.81503682504221, 0.27283250685986, 0
441, 0.9468185406937, 0.21928633665787, 0
442, 0.97369555283536, 0.24667365391347, 0
443, 0.97342102601714, 0.21976671757886, 0
444, 0.10373121035584, 0.27231173858041, 0
445, 0.07808379993249, 0.24519326489574, 0
446, 0.077588845377395, 0.27261888413324, 0
447, 0.58441602325699, 0.22932506786303, 0
448, 0.68329323255357, 0.27100639062248, 0
449, 0.46880261808795, -0.23633564641952, 0
450, 0.28129004697072, -0.2173159426174, 0
451, 0.29664508856771, -0.27356115992168, 0
452, 0.19592747208894, -0.25560157843214, 0
453, 0.18960577364828, -0.27764590917494, 0
454, 0.86777343258992, 0.24578956252342, 0
455, 0.89528398547388, 0.27296047828438, 0
456, 0.86857465166136, 0.27290533002499, 0
457, 0.84412187582979, -0.21298816275397, 0
458, 0.72520009434848, -0.24657610493585, 0
459, 0.78430353161691, -0.27623407506768, 0
460, 0.1308167435105, 0.24399661039074, 0
461, 0.13019072325695, 0.27199019405451, 0
462, 0.057546237026602, -0.11192819464374, 0
463, 0.028674521903046, -0.11228194891524, 0
464, 0.59409165100025, -0.24955153228431, 0
465, 0.97470305075741, -0.24751860889614, 0
466, 0.5694092760685, -0.27231530246526, 0
467, 0.9494249570193, -0.24781790451445, 0
468, 0.34915139960205, 0.26952040778493, 0
469, 0.69111682474937, 0.16445397054124, 0
470, 0.56007231981297, 0.16676889196312, 0
471, 0.55875293983522, 0.22705499743064, 0
472, 0.9479376263733, 0.27318360988953, 0
473, 0.9740005575753, 0.27337243195738, 0
474, 0.056113179098519, -0.22117254016766, 0
475, 0.02799359592877, -0.22081174800223, 0
476, 0.31863841530473, -0.27065324073748, 0
477, 0.24432008183316, -0.28168350526932, 0
478, 0.72762834417095, -0.26325249467092, 0
479, 0.754075084849, -0.25874722079923, 0
480, 0.080172413822033, 0.026403082269912, 0
481, 0.079282826141795, 0.08065523413923, 0
482, 0.10587897302013, 0.053215580941787, 0
483, 0.079625301685098, 0.053491681703409, 0
484, 0.37552547104423, -0.275899899581, 0
485, 0.3121100145783, -0.2873565036003, 0
486, 0.052217742284806, 0.21851323208389, 0
487, 0.02608595651629, 0.21939741639064, 0
488, 0.91038181738082, -0.039303982561903, 0
489, 0.81772181215432, -0.011951844634747, 0
490, 0.78734029506492, -0.0078939328592015, 0
491, 0.92090354526085, 0.24604581175869, 0
492, 0.92168485949419, 0.2730499559957, 0
493, 0.07893166151694, 0.13528062413135, 0
494, 0.10533351316802, 0.10715198945928, 0
495, 0.079072823521392, 0.10791781290523, 0
496, 0.62178735272341, 0.17139490193671, 0
497, 0.68797445659842, -0.037070039265354, 0
498, 0.9411124568562, -0.064772747127394, 0
499, 0.9714266725805, 0.054898311829372, 0
500, 0.87867871368529, -0.043833391209303, 0
501, 0.6791870824423, 0.025743166076314, 0
502, 0.73724382449392, 0.21791010091805, 0
503, 0.78815065072138, 0.218609203258, 0
504, 0.76217705708259, 0.19184073276105, 0
505, 0.7625018546986, 0.21842094571262, 0
506, 0.21176118019366, 0.21237209232669, 0
507, 0.18471270060667, 0.18552727237618, 0
508, 0.15784893735157, 0.21507499942878, 0
509, 0.18468797388574, 0.2138639539126, 0
510, 0.28745237040364, 0.070235464833863, 0
511, 0.26065876744931, 0.097786848163668, 0
512, 0.28567367448733, 0.096501242137219, 0
513, 0.75084809775358, -0.2392546091048, 0
514, 0.86889762578608, -0.27274382532839, 0
515, 0.5950042469268, -0.22417260466542, 0
516, 0.97104545188085, 0.026737210795042, 0
517, 0.79975621317643, 0.053900999212181, 0
518, 0.29429875749051, -0.20437404462044, 0
519, 0.26638070887193, -0.18855516823073, 0
520, 0.21880955133369, -0.18654164012102, 0
521, 0.31512074245987, -0.25121739850313, 0
522, 0.11326724023781, -0.22314217863335, 0
523, 0.25475189073445, -0.15144364493343, 0
524, 0.88290247157537, 0.020520612763768, 0
525, 0.88893246907771, 0.10835618466682, 0
526, 0.91771825267933, 0.13666493257166, 0
527, 0.9166228334556, 0.1087394927196, 0
528, 0.26190112857527, 0.045715681761596, 0
529, 0.29187057118682, 0.016894136909336, 0
530, 0.29021056231355, 0.043568943374359, 0
531, 0.71329205451215, 0.19068254710525, 0
532, 0.42889635049472, 0.27292563197338, 0
533, 0.71236966765221, 0.21686625755946, 0
534, 0.25984800054772, -0.24756846452525, 0
535, 0.34908394599169, -0.19188348351109, 0
536, 0.4399368230511, -0.23166164372812, 0
537, 0.082245351482993, -0.027881005068602, 0
538, 0.18127290292053, -0.074898901513335, 0
539, 0.085619497328892, -0.083356433587568, 0
540, 0.083860198973489, -0.055386802851463, 0
541, 0.43846173185006, 0.2222562806557, 0
542, 0.38555026840141, 0.21897669990526, 0
543, 0.70109113769224, -0.26483033626812, 0
544, 0.73694148238064, 0.16589271455133, 0
545, 0.78631446667314, 0.16515747110005, 0
546, 0.75943620848002, 0.13978041666683, 0
547, 0.76123691819434, 0.16564701918036, 0
548, 0.88513552785425, 0.050658140846321, 0
549, 0.91054326597931, -0.07092990478395, 0
550, 0.86330956949095, 0.13641213742643, 0
551, 0.86141699394642, 0.10844811543195, 0
552, 0.71246671899589, -0.051511059339975, 0
553, 0.88828149568407, -0.14418273350364, 0
554, 0.73145312629473, 0.0071953958022818, 0
555, 0.91265956436993, -0.1020396246607, 0
556, 0.94361348116959, 0.08145317612585, 0
557, 0.8041392752609, 0.08249850687061, 0
558, 0.88062048899123, -0.010868728862464, 0
559, 0.8404585338505, 0.21861336264714, 0
560, 0.81330812376616, 0.19162714366859, 0
561, 0.81416632953866, 0.21863143407777, 0
562, 0.95064204524875, -0.22234163632847, 0
563, 0.92857562354745, -0.19887447785604, 0
564, 0.69860026014762, -0.24855018352513, 0
565, 0.84108635954338, -0.27279924359895, 0
566, 0.31991306831503, -0.21682800416185, 0
567, 0.80581185256737, -0.18429316491942, 0
568, 0.8017347445356, -0.14784634637678, 0
569, 0.91399269315122, 0.051580122133533, 0
570, 0.74647084580443, 0.062068824420586, 0
571, 0.84520821812999, -0.047873789238105, 0
572, 0.10752139876377, -0.00018348685624145, 0
573, 0.081017190709345, -0.00067871041803809, 0
574, 0.97376754438463, -0.14348512609791, 0
575, 0.9194657982446, 0.19170873888081, 0
576, 0.89164452103869, 0.16404207972124, 0
577, 0.91865515442604, 0.16429885945759, 0
578, 0.6312975820055, 0.26838021112558, 0
579, 0.46457542392195, 0.21799334492142, 0
580, 0.59918517091173, 0.15672067135223, 0
581, 0.58905436772089, 0.18902090507663, 0
582, 0.72255746515146, -0.021700128646855, 0
583, 0.24222201720265, -0.11805640131221, 0
584, 0.263848976221, -0.087329820121599, 0
585, 0.14258830911089, -0.22521772504303, 0
586, 0.2626417600306, -0.1165971914814, 0
587, 0.28127308704633, -0.035060633653061, 0
588, 0.25886209316046, -0.006482544778332, 0
589, 0.28910587447936, -0.0097186445052824, 0
590, 0.29341074888769, 0.18645710573164, 0
591, 0.30705041964569, 0.16877352327493, 0
592, 0.57660509570027, 0.13100440502863, 0
593, 0.45443136326307, 0.27223393052426, 0
594, 0.086032101463521, -0.19516514367375, 0
595, 0.084488538506007, -0.22188741674501, 0
596, 0.26631440306714, 0.20887973428758, 0
597, 0.23971047484694, 0.18066628022292, 0
598, 0.23907588540033, 0.21060178634387, 0
599, 0.13142113606253, 0.18827515281124, 0
600, 0.10474809387179, 0.21692630271717, 0
601, 0.13121389593177, 0.2160703050549, 0
602, 0.14888138115191, -0.17171025766543, 0
603, 0.18249848205912, -0.17669842657317, 0
604, 0.97129867377622, -0.088126456992893, 0
605, 0.92914581092428, -0.1776454983716, 0
606, 0.11706179788885, -0.11154484439354, 0
607, 0.087378272850989, -0.139989135512, 0
608, 0.086875217219468, -0.11169445017209, 0
609, 0.23516422803591, 0.073777302842323, 0
610, 0.20953008865362, 0.10184547475671, 0
611, 0.23571186230165, 0.12583110102868, 0
612, 0.23525073313589, 0.099797202751565, 0
613, 0.46383889385943, -0.27707252993744, 0
614, 0.29417023827576, -0.24140249103845, 0
615, 0.81256907975265, -0.27399525496535, 0
616, 0.11730819670606, -0.16916652923304, 0
617, 0.087062048905522, -0.16786938657968, 0
618, 0.27164604914869, -0.060377534519899, 0
619, 0.07865614104811, 0.19021376483083, 0
620, 0.078427348187046, 0.21771567178757, 0
621, 0.59590342409622, 0.11224074078301, 0
622, 0.27632293723023, -0.26897005256259, 0
623, 0.89355594084478, 0.21873051237687, 0
624, 0.92018987612638, 0.21894487563886, 0
625, 0.15761651450622, 0.10508579986577, 0
626, 0.13162770482242, 0.079396738546356, 0
627, 0.13149278134764, 0.13332628992937, 0
628, 0.13151831317531, 0.1062332398583, 0
629, 0.27324921141392, -0.1460861765733, 0
630, 0.8101418854335, 0.13758029539037, 0
631, 0.75652250451849, 0.11407527403813, 0
632, 0.73935021432897, 0.035107805541833, 0
633, 0.85909608333518, 0.079922648144935, 0
634, 0.18292180828971, 0.025637592002491, 0
635, 0.20650919916122, -0.00092765830580988, 0
636, 0.15842682386849, 0.0010007250185401, 0
637, 0.18246496024417, 0.00095741691439749, 0
638, 0.21081570120433, 0.15544948316291, 0
639, 0.23704121518841, 0.15232531771187, 0
640, 0.63421274115555, 0.0950658754921, 0
641, 0.86599606611767, 0.19139170715945, 0
642, 0.86694738095858, 0.21863170790754, 0
643, 0.10512827711832, 0.16176616286611, 0
644, 0.078808570585851, 0.16272235028629, 0
645, 0.18393183524152, 0.13041994175724, 0
646, 0.15789260366186, 0.15935932615989, 0
647, 0.18434954459654, 0.15767979886851, 0
648, 0.83822658606068, 0.16422954685678, 0
649, 0.81202233648622, 0.16463724600758, 0
650, 0.86480490831931, 0.1640186893188, 0
651, 0.13148589302216, 0.16067899351612, 0
652, 0.67076615391882, 0.0011999346628625, 0
653, 0.88481661399212, -0.18838444374638, 0
654, 0.90150944236883, -0.16712144987947, 0
655, 0.18342235451066, 0.077220590094569, 0
656, 0.18362682721439, 0.10363436725175, 0
657, 0.23407468473402, 0.021969894336961, 0
658, 0.23178863902246, -0.0035961692588046, 0
659, 0.18501022959602, -0.14660907494188, 0
660, 0.20889233760844, 0.049676417608776, 0
661, 0.23498793420006, 0.047793014896726, 0
662, 0.84165399643964, -0.24445971780008, 0
663, 0.75699325458495, -0.27908355805303, 0
664, 0.76628263532586, 0.028887937751344, 0
665, 0.78159463211875, 0.11198119758675, 0
666, 0.69663573063059, -0.010189814681036, 0
667, 0.15764085802607, 0.052186729453907, 0
668, 0.13241173299397, 0.026501939138539, 0
669, 0.13188998398996, 0.05281617075082, 0
670, 0.17250784287541, -0.22851546095068, 0
671, 0.13536532414141, -0.025527436459961, 0
672, 0.22218100994982, -0.054732222098921, 0
673, 0.24715349817238, -0.058322185333162, 0
674, 0.91125196018533, -0.0082131798808609, 0
675, 0.85303654443192, 0.019973832065114, 0
676, 0.94276406980335, 0.053064269538822, 0
677, 0.66360586774855, 0.21198153069258, 0
678, 0.61244779494142, 0.13452618026862, 0
679, 0.90187083094034, -0.22073116653896, 0
680, 0.92369890335627, -0.15640502409115, 0
681, 0.68982204494979, 0.12070783123692, 0
682, 0.71269599444841, 0.14168443000556, 0
683, 0.73263238266721, 0.1163703837401, 0
684, 0.97500934315719, -0.16975709074151, 0
685, 0.72148361483782, 0.06747890265429, 0
686, 0.69797161460605, 0.073685304296489, 0
687, 0.13342144101604, 0.00043394843407341, 0
688, 0.71352663267869, 0.16562524292454, 0
689, 0.55465395577798, 0.26526975067442, 0
690, 0.71024041720998, 0.11867087637582, 0
691, 0.1832247021902, 0.051177520328734, 0
692, 0.67183319025511, 0.12209768214844, 0
693, 0.18246487355415, -0.11257613878537, 0
694, 0.14875304325653, -0.11156172702137, 0
695, 0.21559855829739, -0.11759467958636, 0
696, 0.29060285426659, 0.2094929419571, 0
697, 0.97072671090811, -0.059451338343568, 0
698, 0.70555872357273, 0.096188166864073, 0
699, 0.87795089033285, -0.078489023613352, 0
700, 0.94084605414632, -0.034849086429068, 0
701, 0.880877328837, -0.11273680914404, 0
702, 0.55466466545377, -0.20228952127637, 0
703, 0.28077911367443, 0.14100362498706, 0
704, 0.91714706061918, -0.13116148473562, 0
705, 0.77799265032511, -0.043106784858118, 0
706, 0.32345156062201, 0.19795182515082, 0
707, 0.21034994974562, -0.21079979271207, 0
708, 0.52960339192568, 0.26662962215894, 0
709, 0.35344153195755, 0.23929744003194, 0
710, 0.6459526307724, -0.24124182533921, 0
711, 0.19830564066154, -0.048793709605798, 0
712, 0.41189005353663, 0.22251007684494, 0
713, 0.6647934841548, 0.090867746542201, 0
714, 0.64486892085787, 0.12166604418297, 0
715, 0.60557874978477, 0.26677245954732, 0
716, 0.30403072109951, -0.26208885497994, 0
717, 0.13905230288155, -0.051914153401573, 0
718, 0.78093075098685, -0.25217700386529, 0
719, 0.74932135460797, -0.032965619052348, 0
720, 0.68786425587216, 0.21500621363811, 0
721, 0.73010660443887, -0.28124388630028, 0
722, 0.70356151692966, -0.28212955093734, 0
723, 0.67709373530613, -0.28179787591828, 0
724, 0.65071808727487, -0.28046648248092, 0
725, 0.62426884366003, -0.27832602887029, 0
726, 0.59746373276088, -0.27553644438114, 0
727, 0.37551369054366, -0.24854627776226, 0
728, 0.28178720686145, -0.17744544468278, 0
729, 0.30808051002784, -0.1928754724524, 0
730, 0.33460787203383, -0.20489372130052, 0
731, 0.36347371278325, -0.21799126411486, 0
732, 0.40880181243047, -0.21835255448499, 0
733, 0.43306513966082, -0.27412963535257, 0
734, 0.53138737301381, -0.24652315666681, 0
735, 0.50518120234608, -0.25217574939563, 0
736, 0.47871396200183, -0.25527215379169, 0
737, 0.44898161826616, -0.2537091774232, 0
738, 0.30916119504918, -0.27724775174555, 0
739, 0.405998601774, -0.24273408195705, 0
******* E L E M E N T S *************
*ELEMENT, type=CPS4, ELSET=Surface1
1, 78, 341, 342, 70
2, 70, 342, 339, 77
3, 342, 340, 251, 339
4, 341, 253, 340, 342
5, 100, 93, 345, 343
6, 343, 345, 344, 204
7, 345, 101, 112, 344
8, 93, 8, 101, 345
9, 199, 348, 349, 346
10, 346, 349, 347, 220
11, 349, 104, 115, 347
12, 348, 114, 104, 349
13, 117, 352, 353, 106
14, 106, 353, 350, 116
15, 353, 351, 222, 350
16, 352, 230, 351, 353
17, 652, 501, 149, 151
18, 524, 548, 268, 675
19, 712, 542, 158, 143
20, 435, 307, 358, 433
21, 542, 357, 142, 158
22, 405, 715, 73, 6
23, 34, 42, 565, 615
24, 718, 193, 285, 362
25, 721, 663, 479, 478
26, 40, 33, 663, 721
27, 208, 366, 367, 364
28, 364, 367, 88, 96
29, 367, 365, 95, 88
30, 366, 210, 365, 367
31, 118, 369, 370, 107
32, 107, 370, 352, 117
33, 370, 368, 230, 352
34, 369, 234, 368, 370
35, 310, 566, 185, 187
36, 188, 476, 184, 373
37, 536, 449, 132, 168
38, 477, 14, 22, 191
39, 63, 377, 378, 52
40, 552, 497, 178, 123
41, 556, 376, 527, 263
42, 377, 243, 376, 378
43, 222, 379, 380, 350
44, 350, 380, 105, 116
45, 380, 347, 115, 105
46, 379, 220, 347, 380
47, 395, 338, 452, 326
48, 716, 374, 622, 451
49, 383, 167, 134, 535
50, 326, 396, 477, 302
51, 18, 11, 387, 384
52, 384, 387, 385, 181
53, 387, 386, 182, 385
54, 11, 19, 386, 387
55, 63, 53, 390, 377
56, 377, 390, 388, 243
57, 390, 389, 246, 388
58, 53, 64, 389, 390
59, 307, 86, 94, 358
60, 359, 404, 406, 448
61, 468, 87, 95, 365
62, 732, 536, 168, 133
63, 311, 187, 521, 188
64, 739, 727, 394, 733
65, 451, 179, 485, 738
66, 182, 386, 399, 397
67, 397, 399, 398, 183
68, 399, 12, 20, 398
69, 386, 19, 12, 399
70, 119, 109, 403, 400
71, 400, 403, 401, 229
72, 403, 402, 224, 401
73, 109, 120, 402, 403
74, 211, 255, 434, 316
75, 71, 406, 341, 78
76, 406, 404, 253, 341
77, 471, 689, 708, 391
78, 121, 111, 408, 407
79, 407, 408, 384, 181
80, 408, 10, 18, 384
81, 111, 1, 10, 408
82, 574, 684, 47, 58
83, 266, 122, 9, 150
84, 552, 582, 666, 497
85, 286, 515, 129, 171
86, 42, 35, 514, 565
87, 479, 718, 362, 513
88, 193, 662, 457, 285
89, 202, 415, 416, 414
90, 414, 416, 348, 199
91, 416, 103, 114, 348
92, 415, 113, 103, 416
93, 515, 192, 172, 129
94, 615, 565, 662, 193
95, 662, 363, 413, 457
96, 361, 543, 564, 417
97, 272, 675, 424, 489
98, 553, 280, 653, 654
99, 409, 516, 265, 270
100, 61, 51, 499, 516
101, 266, 652, 151, 122
102, 570, 354, 274, 264
103, 62, 52, 378, 334
104, 354, 517, 557, 274
105, 697, 49, 60, 293
106, 728, 425, 629, 523
107, 622, 191, 179, 451
108, 734, 190, 287, 327
109, 311, 188, 373, 484
110, 427, 448, 79, 72
111, 189, 259, 337, 305
112, 470, 146, 154, 592
113, 336, 392, 427, 578
114, 97, 90, 432, 429
115, 429, 432, 430, 206
116, 432, 431, 205, 430
117, 90, 98, 431, 432
118, 541, 712, 143, 157
119, 426, 189, 305, 325
120, 316, 579, 144, 156
121, 208, 364, 437, 436
122, 436, 437, 429, 206
123, 437, 89, 97, 429
124, 364, 96, 89, 437
125, 76, 69, 440, 438
126, 438, 440, 439, 249
127, 440, 339, 251, 439
128, 69, 77, 339, 440
129, 64, 54, 443, 389
130, 389, 443, 441, 246
131, 443, 442, 248, 441
132, 54, 65, 442, 443
133, 99, 92, 446, 444
134, 444, 446, 445, 203
135, 446, 343, 204, 445
136, 92, 100, 343, 446
137, 325, 305, 469, 335
138, 621, 147, 153, 256
139, 496, 306, 189, 426
140, 314, 391, 255, 211
141, 729, 728, 519, 518
142, 393, 520, 707, 186
143, 452, 453, 396, 326
144, 186, 707, 338, 395
145, 183, 398, 453, 452
146, 373, 184, 16, 24
147, 521, 614, 374, 716
148, 398, 20, 13, 453
149, 247, 455, 456, 454
150, 454, 456, 438, 249
151, 456, 68, 76, 438
152, 455, 75, 68, 456
153, 362, 285, 567, 175
154, 459, 615, 193, 718
155, 465, 56, 46, 309
156, 710, 417, 173, 128
157, 98, 91, 461, 431
158, 431, 461, 460, 205
159, 461, 444, 203, 460
160, 91, 99, 444, 461
161, 118, 108, 463, 369
162, 369, 463, 462, 234
163, 463, 400, 229, 462
164, 108, 119, 400, 463
165, 363, 332, 679, 413
166, 412, 282, 467, 360
167, 458, 513, 126, 174
168, 478, 479, 513, 458
169, 257, 82, 85, 180
170, 358, 94, 87, 468
171, 335, 469, 688, 531
172, 579, 212, 428, 541
173, 471, 447, 405, 689
174, 689, 405, 6, 81
175, 306, 320, 259, 189
176, 65, 55, 473, 442
177, 442, 473, 472, 248
178, 473, 66, 74, 472
179, 55, 5, 66, 473
180, 120, 110, 475, 402
181, 402, 475, 474, 224
182, 475, 407, 181, 474
183, 110, 121, 407, 475
184, 187, 185, 614, 521
185, 484, 373, 24, 17
186, 302, 477, 191, 622
187, 733, 394, 2, 25
188, 43, 36, 412, 419
189, 419, 412, 360, 332
190, 464, 333, 192, 515
191, 418, 45, 56, 465
192, 221, 482, 483, 480
193, 480, 483, 379, 222
194, 483, 481, 220, 379
195, 482, 218, 481, 483
196, 185, 450, 382, 614
197, 535, 134, 166, 381
198, 394, 484, 17, 2
199, 614, 382, 534, 374
200, 204, 344, 487, 486
201, 486, 487, 415, 202
202, 487, 102, 113, 415
203, 344, 112, 102, 487
204, 356, 275, 571, 411
205, 704, 553, 654, 680
206, 488, 700, 270, 674
207, 517, 375, 410, 557
208, 248, 472, 492, 491
209, 491, 492, 455, 247
210, 492, 67, 75, 455
211, 472, 74, 67, 492
212, 220, 481, 495, 346
213, 346, 495, 493, 199
214, 495, 494, 197, 493
215, 481, 218, 494, 495
216, 391, 708, 257, 255
217, 258, 256, 640, 322
218, 532, 7, 86, 307
219, 549, 555, 295, 498
220, 699, 701, 555, 549
221, 700, 293, 409, 270
222, 705, 490, 267, 719
223, 47, 684, 420, 57
224, 685, 291, 698, 686
225, 252, 504, 505, 502
226, 502, 505, 340, 253
227, 505, 503, 251, 340
228, 504, 250, 503, 505
229, 206, 430, 509, 506
230, 506, 509, 507, 194
231, 509, 508, 200, 507
232, 430, 205, 508, 509
233, 161, 140, 512, 510
234, 510, 512, 511, 214
235, 512, 288, 195, 511
236, 140, 160, 288, 512
237, 282, 418, 465, 467
238, 466, 726, 464, 190
239, 513, 362, 175, 126
240, 308, 562, 284, 563
241, 421, 424, 375, 517
242, 51, 62, 334, 499
243, 271, 569, 548, 524
244, 719, 267, 554, 582
245, 179, 15, 23, 485
246, 188, 521, 716, 476
247, 396, 21, 14, 477
248, 729, 381, 425, 728
249, 739, 732, 383, 731
250, 518, 519, 393, 450
251, 243, 526, 527, 376
252, 423, 680, 605, 269
253, 516, 499, 676, 265
254, 526, 242, 525, 527
255, 213, 529, 530, 528
256, 528, 530, 510, 214
257, 530, 139, 161, 510
258, 529, 162, 139, 530
259, 470, 581, 447, 471
260, 404, 533, 502, 253
261, 533, 531, 252, 502
262, 314, 211, 145, 155
263, 449, 372, 169, 132
264, 730, 729, 518, 566
265, 566, 518, 450, 185
266, 534, 395, 326, 302
267, 234, 539, 540, 368
268, 368, 540, 537, 230
269, 324, 658, 635, 330
270, 330, 635, 637, 313
271, 720, 533, 404, 359
272, 708, 84, 82, 257
273, 709, 468, 365, 210
274, 720, 335, 531, 533
275, 514, 419, 332, 363
276, 565, 514, 363, 662
277, 679, 308, 563, 281
278, 726, 725, 333, 464
279, 315, 496, 426, 254
280, 433, 358, 468, 709
281, 254, 677, 392, 336
282, 254, 426, 325, 677
283, 239, 546, 547, 544
284, 544, 547, 504, 252
285, 547, 545, 250, 504
286, 546, 240, 545, 547
287, 242, 550, 551, 525
288, 267, 490, 421, 664
289, 631, 665, 240, 546
290, 292, 278, 241, 630
291, 549, 498, 700, 488
292, 680, 654, 422, 605
293, 274, 557, 292, 665
294, 291, 264, 631, 683
295, 654, 653, 281, 422
296, 499, 334, 556, 676
297, 569, 263, 276, 548
298, 295, 294, 279, 604
299, 249, 439, 561, 559
300, 559, 561, 560, 244
301, 561, 503, 250, 560
302, 439, 251, 503, 561
303, 44, 37, 418, 282
304, 36, 44, 282, 412
305, 309, 46, 57, 420
306, 190, 464, 515, 286
307, 722, 721, 478, 543
308, 457, 413, 653, 280
309, 467, 465, 309, 562
310, 192, 710, 128, 172
311, 382, 186, 395, 534
312, 453, 13, 21, 396
313, 732, 133, 167, 383
314, 381, 166, 135, 425
315, 280, 296, 568, 567
316, 567, 568, 125, 175
317, 500, 488, 674, 558
318, 582, 554, 298, 666
319, 676, 556, 263, 569
320, 230, 537, 573, 351
321, 351, 573, 480, 222
322, 573, 572, 221, 480
323, 411, 571, 272, 489
324, 264, 274, 665, 631
325, 699, 549, 488, 500
326, 245, 576, 577, 575
327, 575, 577, 388, 246
328, 577, 526, 243, 388
329, 576, 242, 526, 577
330, 689, 81, 84, 708
331, 392, 359, 448, 427
332, 685, 570, 264, 291
333, 273, 719, 582, 552
334, 275, 296, 701, 699
335, 581, 315, 304, 447
336, 305, 337, 260, 469
337, 211, 316, 156, 145
338, 592, 154, 147, 621
339, 265, 676, 569, 271
340, 666, 298, 501, 652
341, 698, 690, 681, 261
342, 659, 238, 602, 603
343, 329, 236, 606, 694
344, 586, 136, 164, 584
345, 163, 138, 589, 587
346, 618, 587, 331, 673
347, 589, 529, 213, 588
348, 138, 162, 529, 589
349, 209, 590, 591, 299
350, 299, 591, 141, 159
351, 591, 290, 160, 141
352, 590, 207, 290, 591
353, 435, 433, 542, 712
354, 357, 301, 159, 142
355, 581, 580, 496, 315
356, 447, 304, 715, 405
357, 224, 474, 595, 594
358, 594, 595, 522, 223
359, 595, 385, 182, 522
360, 474, 181, 385, 595
361, 470, 314, 155, 146
362, 580, 678, 306, 496
363, 212, 593, 532, 428
364, 206, 506, 598, 436
365, 436, 598, 596, 208
366, 598, 597, 207, 596
367, 506, 194, 597, 598
368, 205, 460, 601, 508
369, 508, 601, 599, 200
370, 601, 600, 201, 599
371, 460, 203, 600, 601
372, 659, 693, 694, 238
373, 225, 659, 603, 520
374, 423, 269, 684, 574
375, 605, 422, 281, 563
376, 498, 295, 604, 697
377, 555, 701, 553, 704
378, 234, 462, 608, 539
379, 538, 711, 232, 323
380, 608, 607, 228, 606
381, 462, 229, 607, 608
382, 195, 611, 612, 511
383, 511, 612, 609, 214
384, 612, 610, 217, 609
385, 611, 196, 610, 612
386, 727, 310, 187, 311
387, 191, 22, 15, 179
388, 184, 485, 23, 16
389, 327, 287, 170, 131
390, 450, 393, 186, 382
391, 285, 457, 280, 567
392, 35, 43, 419, 514
393, 413, 679, 281, 653
394, 562, 309, 420, 284
395, 229, 401, 617, 607
396, 607, 617, 616, 228
397, 617, 594, 223, 616
398, 401, 224, 594, 617
399, 164, 137, 618, 584
400, 587, 589, 588, 331
401, 329, 717, 237, 236
402, 137, 163, 587, 618
403, 203, 445, 620, 600
404, 600, 620, 619, 201
405, 620, 486, 202, 619
406, 445, 204, 486, 620
407, 316, 434, 212, 579
408, 428, 532, 307, 435
409, 715, 578, 80, 73
410, 255, 257, 180, 434
411, 730, 535, 381, 729
412, 226, 223, 522, 585
413, 739, 731, 310, 727
414, 246, 441, 624, 575
415, 575, 624, 623, 245
416, 624, 491, 247, 623
417, 441, 248, 491, 624
418, 198, 627, 628, 625
419, 625, 628, 626, 219
420, 628, 494, 218, 626
421, 627, 197, 494, 628
422, 731, 730, 566, 310
423, 520, 603, 303, 707
424, 731, 383, 535, 730
425, 548, 276, 633, 268
426, 632, 664, 354, 570
427, 268, 633, 410, 375
428, 215, 636, 637, 634
429, 634, 637, 635, 216
430, 671, 233, 636, 687
431, 195, 289, 639, 611
432, 611, 639, 638, 196
433, 639, 597, 194, 638
434, 289, 207, 597, 639
435, 262, 322, 640, 318
436, 318, 640, 148, 152
437, 315, 254, 336, 304
438, 245, 623, 642, 641
439, 641, 642, 559, 244
440, 642, 454, 249, 559
441, 623, 247, 454, 642
442, 199, 493, 644, 414
443, 414, 644, 619, 202
444, 644, 643, 201, 619
445, 493, 197, 643, 644
446, 200, 646, 647, 507
447, 507, 647, 638, 194
448, 647, 645, 196, 638
449, 646, 198, 645, 647
450, 250, 545, 649, 560
451, 560, 649, 648, 244
452, 649, 630, 241, 648
453, 545, 240, 630, 649
454, 244, 648, 650, 641
455, 641, 650, 576, 245
456, 650, 550, 242, 576
457, 648, 241, 550, 650
458, 200, 599, 651, 646
459, 646, 651, 627, 198
460, 651, 643, 197, 627
461, 599, 201, 643, 651
462, 279, 574, 58, 48
463, 356, 568, 296, 275
464, 219, 655, 656, 625
465, 625, 656, 645, 198
466, 656, 610, 196, 645
467, 655, 217, 610, 656
468, 672, 324, 330, 711
469, 635, 658, 657, 216
470, 658, 588, 213, 657
471, 538, 693, 695, 312
472, 523, 629, 586, 583
473, 602, 616, 223, 226
474, 216, 657, 661, 660
475, 660, 661, 609, 217
476, 661, 528, 214, 609
477, 657, 213, 528, 661
478, 33, 41, 459, 663
479, 663, 459, 718, 479
480, 564, 458, 174, 127
481, 543, 478, 458, 564
482, 497, 266, 150, 178
483, 501, 277, 152, 149
484, 356, 411, 705, 355
485, 277, 686, 317, 152
486, 221, 668, 669, 482
487, 482, 669, 626, 218
488, 669, 667, 219, 626
489, 668, 215, 667, 669
490, 225, 523, 583, 695
491, 522, 182, 397, 585
492, 603, 602, 226, 303
493, 629, 165, 136, 586
494, 225, 695, 693, 659
495, 711, 330, 313, 232
496, 235, 671, 687, 572
497, 717, 323, 233, 671
498, 236, 237, 540, 539
499, 673, 331, 324, 672
500, 331, 588, 658, 324
501, 276, 525, 551, 633
502, 633, 551, 278, 410
503, 278, 551, 550, 241
504, 60, 50, 409, 293
505, 686, 698, 261, 317
506, 557, 410, 278, 292
507, 675, 268, 375, 424
508, 270, 265, 271, 674
509, 50, 61, 516, 409
510, 621, 256, 258, 678
511, 678, 258, 320, 306
512, 724, 723, 361, 283
513, 37, 4, 45, 418
514, 332, 360, 308, 679
515, 417, 564, 127, 173
516, 355, 705, 719, 273
517, 273, 552, 123, 177
518, 701, 296, 280, 553
519, 298, 554, 632, 297
520, 297, 685, 686, 277
521, 683, 631, 546, 239
522, 334, 378, 376, 556
523, 664, 421, 517, 354
524, 356, 176, 125, 568
525, 497, 666, 652, 266
526, 604, 279, 48, 59
527, 221, 572, 687, 668
528, 668, 687, 636, 215
529, 538, 329, 694, 693
530, 323, 232, 313, 233
531, 593, 83, 7, 532
532, 688, 544, 252, 531
533, 682, 239, 544, 688
534, 180, 85, 83, 593
535, 677, 325, 335, 720
536, 541, 428, 435, 712
537, 297, 632, 570, 685
538, 294, 423, 574, 279
539, 217, 655, 691, 660
540, 660, 691, 634, 216
541, 691, 667, 215, 634
542, 655, 219, 667, 691
543, 259, 321, 692, 337
544, 337, 692, 681, 260
545, 692, 319, 261, 681
546, 321, 262, 319, 692
547, 538, 323, 717, 329
548, 670, 183, 452, 338
549, 238, 228, 616, 602
550, 728, 523, 225, 519
551, 425, 135, 165, 629
552, 233, 313, 637, 636
553, 209, 300, 696, 590
554, 590, 696, 596, 207
555, 696, 366, 208, 596
556, 300, 210, 366, 696
557, 269, 605, 563, 284
558, 554, 267, 664, 632
559, 263, 527, 525, 276
560, 690, 682, 260, 681
561, 275, 699, 500, 571
562, 298, 297, 277, 501
563, 558, 524, 675, 272
564, 291, 683, 690, 698
565, 697, 604, 59, 49
566, 411, 489, 490, 705
567, 571, 500, 558, 272
568, 684, 269, 284, 420
569, 170, 287, 702, 130
570, 130, 702, 286, 171
571, 287, 190, 286, 702
572, 160, 290, 703, 288
573, 288, 703, 289, 195
574, 290, 207, 289, 703
575, 498, 697, 293, 700
576, 665, 292, 630, 240
577, 356, 355, 124, 176
578, 295, 555, 704, 294
579, 355, 273, 177, 124
580, 683, 239, 682, 690
581, 159, 301, 706, 299
582, 299, 706, 300, 209
583, 301, 210, 300, 706
584, 372, 327, 131, 169
585, 238, 694, 606, 228
586, 677, 720, 359, 392
587, 258, 322, 714, 320
588, 433, 709, 357, 542
589, 434, 180, 593, 212
590, 725, 724, 283, 333
591, 41, 34, 615, 459
592, 283, 361, 417, 710
593, 476, 738, 485, 184
594, 707, 303, 670, 338
595, 312, 231, 673, 672
596, 237, 717, 671, 235
597, 537, 235, 572, 573
598, 579, 541, 157, 144
599, 578, 427, 72, 80
600, 709, 210, 301, 357
601, 261, 319, 713, 317
602, 317, 713, 318, 152
603, 319, 262, 318, 713
604, 256, 153, 148, 640
605, 320, 714, 321, 259
606, 322, 262, 321, 714
607, 236, 539, 608, 606
608, 312, 695, 583, 231
609, 538, 312, 672, 711
610, 304, 336, 578, 715
611, 448, 406, 71, 79
612, 470, 471, 391, 314
613, 727, 311, 484, 394
614, 476, 716, 451, 738
615, 735, 734, 327, 372
616, 231, 584, 618, 673
617, 231, 583, 586, 584
618, 540, 237, 235, 537
619, 360, 467, 562, 308
620, 333, 283, 710, 192
621, 723, 722, 543, 361
622, 294, 704, 680, 423
623, 490, 489, 424, 421
624, 674, 271, 524, 558
625, 592, 621, 678, 580
626, 469, 260, 682, 688
627, 470, 592, 580, 581
628, 303, 226, 585, 670
629, 519, 225, 520, 393
630, 32, 40, 721, 722
631, 39, 32, 722, 723
632, 31, 39, 723, 724
633, 38, 31, 724, 725
634, 30, 38, 725, 726
635, 3, 30, 726, 466
636, 374, 534, 302, 622
637, 585, 397, 183, 670
638, 736, 735, 372, 449
639, 737, 736, 449, 536
640, 739, 737, 536, 732
641, 371, 27, 3, 466
642, 734, 371, 466, 190
643, 328, 29, 27, 371
644, 735, 328, 371, 734
645, 227, 26, 29, 328
646, 736, 227, 328, 735
647, 613, 28, 26, 227
648, 737, 613, 227, 736
649, 733, 25, 28, 613
650, 739, 733, 613, 737
*ELSET,ELSET=contact_source
99, 100, 101, 102, 103, 104, 105, 106, 107, 108, 
109, 110, 111, 112, 113, 114, 115, 116, 117, 118, 
119, 120, 
*ELSET,ELSET=contact_drain
39, 40, 41, 42, 43, 44, 45, 46, 47, 48, 
49, 50, 51, 52, 53, 54, 55, 56, 57, 58, 
59, 60, 
*ELSET,ELSET=probe_A
77, 78, 79, 80, 81, 82, 
*ELSET,ELSET=probe_B
17, 18, 19, 20, 21, 22, 
*ELSET,ELSET=walls
1, 2, 3, 4, 5, 6, 7, 8, 9, 10, 
11, 12, 13, 14, 15, 16, 23, 24, 25, 26, 
27, 28, 29, 30, 31, 32, 33, 34, 35, 36, 
37, 38, 61, 62, 63, 64, 65, 66, 67, 68, 
69, 70, 71, 72, 73, 74, 75, 76, 83, 84, 
85, 86, 87, 88, 89, 90, 91, 92, 93, 94, 
95, 96, 97, 98, 121, 122, 123, 124, 125, 126, 
127, 128, 129, 130, 131, 132, 133, 134, 135, 136, 
137, 138, 139, 140, 141, 142, 143, 144, 145, 146, 
147, 148, 149, 150, 151, 152, 153, 154, 155, 156, 
157, 158, 159, 160, 161, 162, 163, 164, 165, 166, 
167, 168, 169, 170, 171, 172, 173, 174, 175, 176, 
177, 178, 
*ELSET,ELSET=domain
179, 180, 181, 182, 183, 184, 185, 186, 187, 188, 
189, 190, 191, 192, 193, 194, 195, 196, 197, 198, 
199, 200, 201, 202, 203, 204, 205, 206, 207, 208, 
209, 210, 211, 212, 213, 214, 215, 216, 217, 218, 
219, 220, 221, 222, 223, 224, 225, 226, 227, 228, 
229, 230, 231, 232, 233, 234, 235, 236, 237, 238, 
239, 240, 241, 242, 243, 244, 245, 246, 247, 248, 
249, 250, 251, 252, 253, 254, 255, 256, 257, 258, 
259, 260, 261, 262, 263, 264, 265, 266, 267, 268, 
269, 270, 271, 272, 273, 274, 275, 276, 277, 278, 
279, 280, 281, 282, 283, 284, 285, 286, 287, 288, 
289, 290, 291, 292, 293, 294, 295, 296, 297, 298, 
299, 300, 301, 302, 303, 304, 305, 306, 307, 308, 
309, 310, 311, 312, 313, 314, 315, 316, 317, 318, 
319, 320, 321, 322, 323, 324, 325, 326, 327, 328, 
329, 330, 331, 332, 333, 334, 335, 336, 337, 338, 
339, 340, 341, 342, 343, 344, 345, 346, 347, 348, 
349, 350, 351, 352, 353, 354, 355, 356, 357, 358, 
359, 360, 361, 362, 363, 364, 365, 366, 367, 368, 
369, 370, 371, 372, 373, 374, 375, 376, 377, 378, 
379, 380, 381, 382, 383, 384, 385, 386, 387, 388, 
389, 390, 391, 392, 393, 394, 395, 396, 397, 398, 
399, 400, 401, 402, 403, 404, 405, 406, 407, 408, 
409, 410, 411, 412, 413, 414, 415, 416, 417, 418, 
419, 420, 421, 422, 423, 424, 425, 426, 427, 428, 
429, 430, 431, 432, 433, 434, 435, 436, 437, 438, 
439, 440, 441, 442, 443, 444, 445, 446, 447, 448, 
449, 450, 451, 452, 453, 454, 455, 456, 457, 458, 
459, 460, 461, 462, 463, 464, 465, 466, 467, 468, 
469, 470, 471, 472, 473, 474, 475, 476, 477, 478, 
479, 480, 481, 482, 483, 484, 485, 486, 487, 488, 
489, 490, 491, 492, 493, 494, 495, 496, 497, 498, 
499, 500, 501, 502, 503, 504, 505, 506, 507, 508, 
509, 510, 511, 512, 513, 514, 515, 516, 517, 518, 
519, 520, 521, 522, 523, 524, 525, 526, 527, 528, 
529, 530, 531, 532, 533, 534, 535, 536, 537, 538, 
539, 540, 541, 542, 543, 544, 545, 546, 547, 548, 
549, 550, 551, 552, 553, 554, 555, 556, 557, 558, 
559, 560, 561, 562, 563, 564, 565, 566, 567, 568, 
569, 570, 571, 572, 573, 574, 575, 576, 577, 578, 
579, 580, 581, 582, 583, 584, 585, 586, 587, 588, 
589, 590, 591, 592, 593, 594, 595, 596, 597, 598, 
599, 600, 601, 602, 603, 604, 605, 606, 607, 608, 
609, 610, 611, 612, 613, 614, 615, 616, 617, 618, 
619, 620, 621, 622, 623, 624, 625, 626, 627, 628, 
629, 630, 631, 632, 633, 634, 635, 636, 637, 638, 
639, 640, 641, 642, 643, 644, 645, 646, 647, 648, 
649, 650, 651, 652, 653, 654, 655, 656, 657, 658, 
659, 660, 661, 662, 663, 664, 665, 666, 667, 668, 
669, 670, 671, 672, 673, 674, 675, 676, 677, 678, 
679, 680, 681, 682, 683, 684, 685, 686, 687, 688, 
689, 690, 691, 692, 693, 694, 695, 696, 697, 698, 
699, 700, 701, 702, 703, 704, 705, 706, 707, 708, 
709, 710, 711, 712, 713, 714, 715, 716, 717, 718, 
719, 720, 721, 722, 723, 724, 725, 726, 727, 728, 
729, 730, 731, 732, 733, 734, 735, 736, 737, 738, 
739, 740, 741, 742, 743, 744, 745, 746, 747, 748, 
749, 750, 751, 752, 753, 754, 755, 756, 757, 758, 
759, 760, 761, 762, 763, 764, 765, 766, 767, 768, 
769, 770, 771, 772, 773, 774, 775, 776, 777, 778, 
779, 780, 781, 782, 783, 784, 785, 786, 787, 788, 
789, 790, 791, 792, 793, 794, 795, 796, 797, 798, 
799, 800, 801, 802, 803, 804, 805, 806, 807, 808, 
809, 810, 811, 812, 813, 814, 815, 816, 817, 818, 
819, 820, 821, 822, 823, 824, 825, 826, 827, 828, 
*NSET,NSET=contact_source
1, 8, 101, 102, 103, 104, 105, 106, 107, 108, 
109, 110, 111, 112, 113, 114, 115, 116, 117, 118, 
119, 120, 121, 
*NSET,NSET=contact_drain
4, 5, 45, 46, 47, 48, 49, 50, 51, 52, 
53, 54, 55, 56, 57, 58, 59, 60, 61, 62, 
63, 64, 65, 
*NSET,NSET=probe_A
6, 7, 81, 82, 83, 84, 85, 
*NSET,NSET=probe_B
2, 3, 25, 26, 27, 28, 29, 
*NSET,NSET=walls
1, 2, 3, 4, 5, 6, 7, 8, 9, 10, 
11, 12, 13, 14, 15, 16, 17, 18, 19, 20, 
21, 22, 23, 24, 30, 31, 32, 33, 34, 35, 
36, 37, 38, 39, 40, 41, 42, 43, 44, 66, 
67, 68, 69, 70, 71, 72, 73, 74, 75, 76, 
77, 78, 79, 80, 86, 87, 88, 89, 90, 91, 
92, 93, 94, 95, 96, 97, 98, 99, 100, 122, 
123, 124, 125, 126, 127, 128, 129, 130, 131, 132, 
133, 134, 135, 136, 137, 138, 139, 140, 141, 142, 
143, 144, 145, 146, 147, 148, 149, 150, 151, 152, 
153, 154, 155, 156, 157, 158, 159, 160, 161, 162, 
163, 164, 165, 166, 167, 168, 169, 170, 171, 172, 
173, 174, 175, 176, 177, 178, 
*NSET,NSET=domain
1, 2, 3, 4, 5, 6, 7, 8, 9, 10, 
11, 12, 13, 14, 15, 16, 17, 18, 19, 20, 
21, 22, 23, 24, 25, 26, 27, 28, 29, 30, 
31, 32, 33, 34, 35, 36, 37, 38, 39, 40, 
41, 42, 43, 44, 45, 46, 47, 48, 49, 50, 
51, 52, 53, 54, 55, 56, 57, 58, 59, 60, 
61, 62, 63, 64, 65, 66, 67, 68, 69, 70, 
71, 72, 73, 74, 75, 76, 77, 78, 79, 80, 
81, 82, 83, 84, 85, 86, 87, 88, 89, 90, 
91, 92, 93, 94, 95, 96, 97, 98, 99, 100, 
101, 102, 103, 104, 105, 106, 107, 108, 109, 110, 
111, 112, 113, 114, 115, 116, 117, 118, 119, 120, 
121, 122, 123, 124, 125, 126, 127, 128, 129, 130, 
131, 132, 133, 134, 135, 136, 137, 138, 139, 140, 
141, 142, 143, 144, 145, 146, 147, 148, 149, 150, 
151, 152, 153, 154, 155, 156, 157, 158, 159, 160, 
161, 162, 163, 164, 165, 166, 167, 168, 169, 170, 
171, 172, 173, 174, 175, 176, 177, 178, 179, 180, 
181, 182, 183, 184, 185, 186, 187, 188, 189, 190, 
191, 192, 193, 194, 195, 196, 197, 198, 199, 200, 
201, 202, 203, 204, 205, 206, 207, 208, 209, 210, 
211, 212, 213, 214, 215, 216, 217, 218, 219, 220, 
221, 222, 223, 224, 225, 226, 227, 228, 229, 230, 
231, 232, 233, 234, 235, 236, 237, 238, 239, 240, 
241, 242, 243, 244, 245, 246, 247, 248, 249, 250, 
251, 252, 253, 254, 255, 256, 257, 258, 259, 260, 
261, 262, 263, 264, 265, 266, 267, 268, 269, 270, 
271, 272, 273, 274, 275, 276, 277, 278, 279, 280, 
281, 282, 283, 284, 285, 286, 287, 288, 289, 290, 
291, 292, 293, 294, 295, 296, 297, 298, 299, 300, 
301, 302, 303, 304, 305, 306, 307, 308, 309, 310, 
311, 312, 313, 314, 315, 316, 317, 318, 319, 320, 
321, 322, 323, 324, 325, 326, 327, 328, 329, 330, 
331, 332, 333, 334, 335, 336, 337, 338, 339, 340, 
341, 342, 343, 344, 345, 346, 347, 348, 349, 350, 
351, 352, 353, 354, 355, 356, 357, 358, 359, 360, 
361, 362, 363, 364, 365, 366, 367, 368, 369, 370, 
371, 372, 373, 374, 375, 376, 377, 378, 379, 380, 
381, 382, 383, 384, 385, 386, 387, 388, 389, 390, 
391, 392, 393, 394, 395, 396, 397, 398, 399, 400, 
401, 402, 403, 404, 405, 406, 407, 408, 409, 410, 
411, 412, 413, 414, 415, 416, 417, 418, 419, 420, 
421, 422, 423, 424, 425, 426, 427, 428, 429, 430, 
431, 432, 433, 434, 435, 436, 437, 438, 439, 440, 
441, 442, 443, 444, 445, 446, 447, 448, 449, 450, 
451, 452, 453, 454, 455, 456, 457, 458, 459, 460, 
461, 462, 463, 464, 465, 466, 467, 468, 469, 470, 
471, 472, 473, 474, 475, 476, 477, 478, 479, 480, 
481, 482, 483, 484, 485, 486, 487, 488, 489, 490, 
491, 492, 493, 494, 495, 496, 497, 498, 499, 500, 
501, 502, 503, 504, 505, 506, 507, 508, 509, 510, 
511, 512, 513, 514, 515, 516, 517, 518, 519, 520, 
521, 522, 523, 524, 525, 526, 527, 528, 529, 530, 
531, 532, 533, 534, 535, 536, 537, 538, 539, 540, 
541, 542, 543, 544, 545, 546, 547, 548, 549, 550, 
551, 552, 553, 554, 555, 556, 557, 558, 559, 560, 
561, 562, 563, 564, 565, 566, 567, 568, 569, 570, 
571, 572, 573, 574, 575, 576, 577, 578, 579, 580, 
581, 582, 583, 584, 585, 586, 587, 588, 589, 590, 
591, 592, 593, 594, 595, 596, 597, 598, 599, 600, 
601, 602, 603, 604, 605, 606, 607, 608, 609, 610, 
611, 612, 613, 614, 615, 616, 617, 618, 619, 620, 
621, 622, 623, 624, 625, 626, 627, 628, 629, 630, 
631, 632, 633, 634, 635, 636, 637, 638, 639, 640, 
641, 642, 643, 644, 645, 646, 647, 648, 649, 650, 
651, 652, 653, 654, 655, 656, 657, 658, 659, 660, 
661, 662, 663, 664, 665, 666, 667, 668, 669, 670, 
671, 672, 673, 674, 675, 676, 677, 678, 679, 680, 
681, 682, 683, 684, 685, 686, 687, 688, 689, 690, 
691, 692, 693, 694, 695, 696, 697, 698, 699, 700, 
701, 702, 703, 704, 705, 706, 707, 708, 709, 710, 
711, 712, 713, 714, 715, 716, 717, 718, 719, 720, 
721, 722, 723, 724, 725, 726, 727, 728, 729, 730, 
731, 732, 733, 734, 735, 736, 737, 738, 739, 
