*Heading
 /Users/juliagao/geometry-optimization-net/scripts/../runs/run2/shape_33.inp
*NODE
1, 0, -0.3, 0
2, 0.425, -0.3, 0
3, 0.575, -0.3, 0
4, 1, -0.3, 0
5, 1, 0.3, 0
6, 0.575, 0.3, 0
7, 0.425, 0.3, 0
8, 0, 0.3, 0
9, 0.6397953529, 0.0375787798, 0
10, 0.026388577838366, -0.3, 0
11, 0.079837689162054, -0.3, 0
12, 0.13446967346787, -0.3, 0
13, 0.18929403833068, -0.3, 0
14, 0.24273268785317, -0.3, 0
15, 0.2949426396838, -0.3, 0
16, 0.34707812180386, -0.3, 0
17, 0.39909469378673, -0.3, 0
18, 0.052777155676732, -0.3, 0
19, 0.10689822264738, -0.3, 0
20, 0.16204112428836, -0.3, 0
21, 0.216546952373, -0.3, 0
22, 0.26891842333334, -0.3, 0
23, 0.32096685603426, -0.3, 0
24, 0.37318938757346, -0.3, 0
25, 0.45031421977743, -0.3, 0
26, 0.50051852976205, -0.3, 0
27, 0.55020430998462, -0.3, 0
28, 0.47562843955486, -0.3, 0
29, 0.52540861996924, -0.3, 0
30, 0.60093050055357, -0.3, 0
31, 0.65307703869666, -0.3, 0
32, 0.70592865967642, -0.3, 0
33, 0.75952467970689, -0.3, 0
34, 0.81316611646795, -0.3, 0
35, 0.86697907725836, -0.3, 0
36, 0.92107140718506, -0.3, 0
37, 0.9740158882211, -0.3, 0
38, 0.62686100110715, -0.3, 0
39, 0.67929307628617, -0.3, 0
40, 0.73256424306666, -0.3, 0
41, 0.78648511634712, -0.3, 0
42, 0.83984711658879, -0.3, 0
43, 0.89411103792793, -0.3, 0
44, 0.94803177644219, -0.3, 0
45, 1, -0.27430942024173, 0
46, 1, -0.22205097009647, 0
47, 1, -0.16753807032978, 0
48, 1, -0.11092003393319, 0
49, 1, -0.053524584066564, 0
50, 1, 0.0031188388200078, 0
51, 1, 0.058053327487976, 0
52, 1, 0.11175338590606, 0
53, 1, 0.16522908259156, 0
54, 1, 0.21910511925799, 0
55, 1, 0.27309600451291, 0
56, 1, -0.24861884048345, 0
57, 1, -0.1954830997095, 0
58, 1, -0.13959304095007, 0
59, 1, -0.082247026916315, 0
60, 1, -0.024802141216812, 0
61, 1, 0.031039818856828, 0
62, 1, 0.085066836119124, 0
63, 1, 0.13843993569299, 0
64, 1, 0.19201822949014, 0
65, 1, 0.24619200902583, 0
66, 0.97401434884484, 0.3, 0
67, 0.92191247447206, 0.3, 0
68, 0.86948208852475, 0.3, 0
69, 0.81659528280563, 0.3, 0
70, 0.7627124395474, 0.3, 0
71, 0.70785434953224, 0.3, 0
72, 0.65350342273235, 0.3, 0
73, 0.6008501928394, 0.3, 0
74, 0.94802869768968, 0.3, 0
75, 0.89579625125443, 0.3, 0
76, 0.84316792579506, 0.3, 0
77, 0.79002263981621, 0.3, 0
78, 0.73540223927859, 0.3, 0
79, 0.68030645978588, 0.3, 0
80, 0.62670038567881, 0.3, 0
81, 0.5556816803619, 0.3, 0
82, 0.51775926992737, 0.3, 0
83, 0.48067322559983, 0.3, 0
84, 0.44359563603437, 0.3, 0
85, 0.53636336072381, 0.3, 0
86, 0.49915517913093, 0.3, 0
87, 0.46219127206874, 0.3, 0
88, 0.40046295914015, 0.3, 0
89, 0.34998096751368, 0.3, 0
90, 0.29681935825559, 0.3, 0
91, 0.24189764029329, 0.3, 0
92, 0.18704129943464, 0.3, 0
93, 0.13282416694611, 0.3, 0
94, 0.079088415323323, 0.3, 0
95, 0.026209257400611, 0.3, 0
96, 0.3759259182803, 0.3, 0
97, 0.32403601674706, 0.3, 0
98, 0.26960269976412, 0.3, 0
99, 0.21419258082247, 0.3, 0
100, 0.1598900180468, 0.3, 0
101, 0.10575831584542, 0.3, 0
102, 0.052418514801221, 0.3, 0
103, 0, 0.27322234113708, 0
104, 0, 0.21924911847731, 0
105, 0, 0.16474886023504, 0
106, 0, 0.10991773055974, 0
107, 0, 0.055047379802583, 0
108, 0, 0.0010080311975928, 0
109, 0, -0.052401470209489, 0
110, 0, -0.10654532432245, 0
111, 0, -0.16219401447279, 0
112, 0, -0.21833972585427, 0
113, 0, -0.2731332664345, 0
114, 0, 0.24644468227416, 0
115, 0, 0.19205355468045, 0
116, 0, 0.13744416578963, 0
117, 0, 0.082391295329859, 0
118, 0, 0.027703464275307, 0
119, 0, -0.025687401880121, 0
120, 0, -0.079115538538857, 0
121, 0, -0.13397511010604, 0
122, 0, -0.19041291883954, 0
123, 0, -0.246266532869, 0
124, 0.64416495791044, 0.065860014783386, 0
125, 0.68995239378411, -0.030275012525303, 0
126, 0.69336695276492, -0.083110877110535, 0
127, 0.64516188461202, -0.10448516438345, 0
128, 0.59144504435678, -0.09672077319954, 0
129, 0.54454451007882, -0.11567491051202, 0
130, 0.51186642586568, -0.15773279010934, 0
131, 0.46201311960356, -0.16340331910364, 0
132, 0.43163110996551, -0.12349156184723, 0
133, 0.40889444229797, -0.078411905561712, 0
134, 0.36146396399843, -0.058831687630595, 0
135, 0.3210658245259, -0.024428694493138, 0
136, 0.31230532178711, 0.03047657939138, 0
137, 0.30807435363454, 0.086607409454243, 0
138, 0.31634243211899, 0.14053199735238, 0
139, 0.35155795036883, 0.18050357672974, 0
140, 0.39283850202139, 0.21285828134585, 0
141, 0.43077769941991, 0.24548743144025, 0
142, 0.47705255849717, 0.25489368583199, 0
143, 0.5152904321871, 0.22532244192137, 0
144, 0.53624495504345, 0.17860816894986, 0
145, 0.56099723335072, 0.12885198243252, 0
146, 0.60514890879244, 0.13651697819891, 0
147, 0.65355852990564, 0.11790387953595, 0
148, 0.65654873011331, 0.01444069827339, 0
149, 0.654497960122, 0.091376556143953, 0
150, 0.63176061172693, 0.1348099547869, 0
151, 0.57911755970409, 0.13191378541329, 0
152, 0.54264975095644, 0.15329633312114, 0
153, 0.52747268586924, 0.2032367414791, 0
154, 0.49817023042857, 0.24398135244472, 0
155, 0.45313842995933, 0.25528149862106, 0
156, 0.41177218614586, 0.23048788957265, 0
157, 0.37293819949231, 0.19629104632641, 0
158, 0.33159725022682, 0.16285048624709, 0
159, 0.30879164537658, 0.11457452195952, 0
160, 0.31056949443426, 0.058832133875572, 0
161, 0.31383707162946, 0.002114512207685, 0
162, 0.338465255133, -0.046039759433854, 0
163, 0.38631889552618, -0.066882690467578, 0
164, 0.42201374453035, -0.099910715815338, 0
165, 0.44397718865588, -0.14586324907618, 0
166, 0.48729027101899, -0.16905318716412, 0
167, 0.52982993109522, -0.13820430797225, 0
168, 0.56395436423614, -0.096162170506142, 0
169, 0.61798287186501, -0.10205864508785, 0
170, 0.67226683984785, -0.099876549470883, 0
171, 0.69844593010835, -0.056654759197052, 0
172, 0.6749991790737, -0.0071832854117875, 0
173, 0.058874503371898, -0.12702810026964, 0
174, 0.56138395200695, -0.2429410902157, 0
175, 0.020632013712593, -0.16002241572446, 0
176, 0.10314927990849, 0.075463139957609, 0
177, 0.26480782275235, 0.029211377074963, 0
178, 0.10142203231111, 0.20289590800014, 0
179, 0.2048220454179, -0.15796612343971, 0
180, 0.38748821741533, -0.19126331552198, 0
181, 0.29546461143088, -0.011011927015717, 0
182, 0.15085263969694, -0.26740607839005, 0
183, 0.58548000198675, 0.23977594450764, 0
184, 0.29567493841544, 0.18092083953969, 0
185, 0.72545516198665, 0.014363877939022, 0
186, 0.78313711545635, -0.24088680416415, 0
187, 0.21170909288895, 0.08318243531165, 0
188, 0.33438936781169, -0.12486444946912, 0
189, 0.15560008618442, 0.11452924354438, 0
190, 0.25598546671739, 0.18775322022436, 0
191, 0.35165765079971, 0.20856990059923, 0
192, 0.24470852459606, 0.16465242029471, 0
193, 0.23986684132262, 0.095741250223908, 0
194, 0.1970502129871, 0.077268427988232, 0
195, 0.28454011459702, -0.050768236595013, 0
196, 0.23784610515604, 0.069317375914683, 0
197, 0.077184695229709, 0.17465255552985, 0
198, 0.44779913477345, -0.20878047883441, 0
199, 0.088427073666795, -0.037129985222343, 0
200, 0.3951632629282, 0.25737502721326, 0
201, 0.042724323155323, 0.22254265481951, 0
202, 0.37512821402103, 0.28511517799186, 0
203, 0.42405004855417, -0.1442855199788, 0
204, 0.18301928607304, 0.21401171098331, 0
205, 0.31174483607968, 0.20146442766051, 0
206, 0.33136599806649, 0.20534301036115, 0
207, 0.10052753961713, -0.26971913631903, 0
208, 0.08684477001973, -0.0096979939891376, 0
209, 0.39364937900845, 0.24310453263013, 0
210, 0.10811239179952, -0.060966293654825, 0
211, 0.056734076147971, -0.099024086079561, 0
212, 0.12184169727472, 0.2054394301193, 0
213, 0.071135965901169, -0.040575754752742, 0
214, 0.18423250899145, 0.25739166862343, 0
215, 0.035180783291361, -0.019739895901277, 0
216, 0.25486199200584, 0.26283892662708, 0
217, 0.037005870547305, 0.14280976772298, 0
218, 0.37259766827073, 0.25588562720931, 0
219, 0.41394488837885, 0.2446482150506, 0
220, 0.01920444528484, 0.16717495864134, 0
221, 0.23814651508452, -0.045454598582024, 0
222, 0.050152720193993, -0.27147118754961, 0
223, 0.25866495807532, 0.12808303547243, 0
224, 0.18623836103446, -0.098897719553167, 0
225, 0.08148875006683, -0.15258176435176, 0
226, 0.051966033811154, 0.06477204179616, 0
227, 0.017317257745482, 0.031080382946002, 0
228, 0.22440323598022, -0.26190899680595, 0
229, 0.25712097558268, -0.13745711016262, 0
230, 0.2895103024606, 0.21359405846854, 0
231, 0.12952128324296, 0.15808310178467, 0
232, 0.27161756439266, -0.25604041153891, 0
233, 0.2731062514188, -0.16888429774435, 0
234, 0.037991406231125, -0.10171674782716, 0
235, 0.35094289044596, 0.22362926313513, 0
236, 0.25029721289813, 0.20559423518336, 0
237, 0.31808236877574, -0.24766111017103, 0
238, 0.19469414278762, -0.12794834944416, 0
239, 0.16749126838007, 0.012475617770642, 0
240, 0.070139826514334, 0.095113959564984, 0
241, 0.31484515904629, 0.17092496132317, 0
242, 0.78503586609469, 0.24828468114277, 0
243, 0.94605393610818, 0.19290023096469, 0
244, 0.94561873872387, -0.051488682350751, 0
245, 0.80927073769579, -0.15492614864641, 0
246, 0.86389101480951, -0.020147991180875, 0
247, 0.89355042266653, 0.24688479385283, 0
248, 0.83679735404526, 0.19465826011954, 0
249, 0.72063008338121, 0.039731776781642, 0
250, 0.94536426444639, 0.11254205193793, 0
251, 0.83813241909257, 0.22108002330725, 0
252, 0.67836443591645, 0.25357944185132, 0
253, 0.63551232083461, 0.25180063315099, 0
254, 0.53683100358544, 0.25799863226744, 0
255, 0.6108595355568, 0.19887566141954, 0
256, 0.56517244709546, 0.20101079177469, 0
257, 0.65753161701133, 0.20694276137955, 0
258, 0.89141231799861, -0.076625186583529, 0
259, 0.75465825453706, 0.22319691181144, 0
260, 0.89107616793501, -0.021477850395768, 0
261, 0.81072765483793, -0.07107692178125, 0
262, 0.81055320374562, -0.043876339441145, 0
263, 0.75077693672597, 0.038759166240592, 0
264, 0.91794486872765, 0.11304852050852, 0
265, 0.92027828701069, 0.24666950724878, 0
266, 0.86296894068285, 0.14095941711225, 0
267, 0.68409209932094, 0.11769476230092, 0
268, 0.68469288613822, 0.091587726849536, 0
269, 0.83572401266957, 0.1681672757712, 0
270, 0.77726112933932, 0.090154299595459, 0
271, 0.97266615631185, 0.085272199208909, 0
272, 0.80887987020233, 0.19526534617555, 0
273, 0.8372889649967, -0.10080583754055, 0
274, 0.83678690222378, -0.018642494531325, 0
275, 0.78116226866519, -0.15245094196926, 0
276, 0.91843685080281, -0.050297300320491, 0
277, 0.97304534964656, 0.19250171843371, 0
278, 0.86440976472688, 0.1941408396037, 0
279, 0.7164043246108, 0.14417185022226, 0
280, 0.74862628578508, 0.064760366056872, 0
281, 0.8348864281557, 0.061784259224503, 0
282, 0.86419199438751, -0.047466600812509, 0
283, 0.43900874001933, 0.25772117597963, 0
284, 0.66950541995558, -0.23788231123682, 0
285, 0.60608561022032, -0.20882587652324, 0
286, 0.72376943186883, -0.20783519804759, 0
287, 0.6107512055867, -0.13906446992973, 0
288, 0.64141003599129, -0.23831715114127, 0
289, 0.6869586482289, 0.040012372582322, 0
290, 0.81244794079362, 0.24779460625194, 0
291, 0.71541527516242, -0.059847393444008, 0
292, 0.97298741342385, -0.1654656243705, 0
293, 0.78105645566689, -0.18169312435027, 0
294, 0.83708966165772, -0.18543618678956, 0
295, 0.5795280963927, -0.21199204372846, 0
296, 0.89187076960491, -0.18841364903623, 0
297, 0.83824897795449, -0.24270323488366, 0
298, 0.8927237701734, -0.24433885346294, 0
299, 0.94609651540816, -0.19139629076393, 0
300, 0.94666715162193, -0.24610043968683, 0
301, 0.89056462215961, 0.032970793116399, 0
302, 0.73002853514167, 0.25000300936999, 0
303, 0.71134943792921, -0.086058129371975, 0
304, 0.72697936247188, -0.11625642075791, 0
305, 0.94529929410926, 0.058655010584969, 0
306, 0.72676100805793, -0.23891170161434, 0
307, 0.59644377162244, -0.17739577045368, 0
308, 0.039422865927893, -0.12957751674793, 0
309, 0.28612975391081, 0.23037750653866, 0
310, 0.29271244342871, 0.19710588644941, 0
311, 0.32899123266502, -0.18401732877958, 0
312, 0.061396349536568, -0.15534024935347, 0
313, 0.65662793041509, 0.25533617206004, 0
314, 0.67398074315722, 0.23110972819544, 0
315, 0.642030625864, 0.22989647918584, 0
316, 0.61403261497613, -0.23941677301316, 0
317, 0.69810064596512, -0.23812439918816, 0
318, 0.69340063706844, -0.20619872379256, 0
319, 0.30962029859162, 0.21732018194646, 0
320, 0.021594949637139, -0.18827392809655, 0
321, 0.086211573697888, 0.071666322369892, 0
322, 0.27840006745046, 0.1755505230025, 0
323, 0.40851663224953, -0.12122865564838, 0
324, 0.17294415735975, 0.2783236566463, 0
325, 0.37205580241179, 0.22614793863772, 0
326, 0.23813753864812, 0.24222072409242, 0
327, 0.089819620864589, -0.21053745559572, 0
328, 0.072953811048482, -0.068138183130777, 0
329, 0.53456436780051, 0.23443658620423, 0
330, 0.55387244977297, -0.21570755666825, 0
331, 0.49173771112166, -0.18199478346645, 0
332, 0.26316721655027, 0.056324493482342, 0
333, 0.073352383499317, 0.27510581222958, 0
334, 0.18507512298016, -0.0093281343809117, 0
335, 0.78473496825371, -0.27047589260842, 0
336, 0.81081052944681, -0.24182705433014, 0
337, 0.83907977832157, -0.27136328304924, 0
338, 0.81195759931086, -0.27093067395379, 0
339, 0.89081897853394, 0.005833593724076, 0
340, 0.97272270090365, 0.0034657091069257, 0
341, 0.69172484966468, 0.20106176500635, 0
342, 0.83723919249954, -0.045777298255598, 0
343, 0.53568643049768, -0.24448647370661, 0
344, 0.56854604316537, -0.27116999987938, 0
345, 0.32729390969481, -0.08968106606973, 0
346, 0.54305941728802, -0.27179029180386, 0
347, 0.83457575248279, 0.088426552773417, 0
348, 0.91957871252827, 0.21998413576939, 0
349, 0.7059106380904, 0.27575318363061, 0
350, 0.70328418009084, 0.25152899782418, 0
351, 0.19960564724812, -0.0036256372079106, 0
352, 0.24044330445992, -0.14513805783441, 0
353, 0.35207361645253, 0.19402819672683, 0
354, 0.31353895666793, 0.1859906347661, 0
355, 0.051741313877843, 0.037649759433958, 0
356, 0.02130674891055, 0.2208855286369, 0
357, 0.2298039366433, 0.11529599214176, 0
358, 0.23799541125901, 0.042489254295749, 0
359, 0.7297681560453, -0.26957326464745, 0
360, 0.75513107074716, -0.23988967670927, 0
361, 0.75731358359993, -0.27001082565454, 0
362, 0.94535268980801, 0.031470595230826, 0
363, 0.68644292263862, 0.17247527838703, 0
364, 0.70441186534941, -0.0088126335610935, 0
365, 0.94743512648901, 0.27324275199801, 0
366, 0.18438142342533, 0.098190008333824, 0
367, 0.2527129229591, 0.022324567664319, 0
368, 0.11587887011329, 0.18027745678919, 0
369, 0.11452509853542, 0.25257503374787, 0
370, 0.35033090493833, 0.2388541129438, 0
371, 0.16311437650808, -0.075697719777471, 0
372, 0.018471239714146, -0.076740946391431, 0
373, 0.28545663242195, -0.01779005718542, 0
374, 0.31159189231223, -0.19530057395863, 0
375, 0.29019221210295, -0.15985235719349, 0
376, 0.21007016841542, -0.058723581960578, 0
377, 0.33009473008306, 0.22068449534328, 0
378, 0.22296452109691, -0.15185508246085, 0
379, 0.33894646136665, -0.079382098727079, 0
380, 0.20765954340461, 0.25918059125263, 0
381, 0.4965573490157, 0.28488439550367, 0
382, 0.30486949573055, -0.0043944140705657, 0
383, 0.72126535790773, -0.17622340527456, 0
384, 0.67477574977388, -0.26911761846388, 0
385, 0.62084366008926, -0.2697184292835, 0
386, 0.6476349811071, -0.26927467815426, 0
387, 0.13514473147003, 0.029899553745538, 0
388, 0.21804856882202, -0.024748118442728, 0
389, 0.41891147761935, -0.19075810721815, 0
390, 0.12574497893807, -0.26866039790206, 0
391, 0.12914934537845, -0.085013522473605, 0
392, 0.32875175384855, 0.23631198573587, 0
393, 0.86272930295962, 0.060830518325955, 0
394, 0.7843486095151, -0.041732730097312, 0
395, 0.83966473680707, 0.24742586033126, 0
396, 0.72057261594502, -0.14439057792497, 0
397, 0.75895648113967, -0.039332876114053, 0
398, 0.83544751707589, 0.035092609795833, 0
399, 0.78135960163926, 0.011279240167213, 0
400, 0.8361355356582, 0.0083015110706927, 0
401, 0.75678750228503, -0.01309194338141, 0
402, 0.068422935407473, 0.24985962283413, 0
403, 0.054970785979033, -0.071312754934568, 0
404, 0.2698015513975, 0.20966779099775, 0
405, 0.22001092346667, 0.17837512782777, 0
406, 0.67990391319903, 0.27656982463679, 0
407, 0.91883281230889, -0.16198377059745, 0
408, 0.74934220846924, 0.17043439251864, 0
409, 0.80657525199805, 0.14231754445183, 0
410, 0.27971887869719, 0.0090526111736686, 0
411, 0.24432892380423, 0.12150565519473, 0
412, 0.41989772412641, -0.16605396813213, 0
413, 0.13362455392698, -0.20535422715182, 0
414, 0.11109800803072, 0.15463776874762, 0
415, 0.2039258099393, -0.031059638385719, 0
416, 0.11185281786059, -0.2081252969772, 0
417, 0.14791146003755, 0.27744162573291, 0
418, 0.15507123150818, -0.20225300156101, 0
419, 0.77758363602673, 0.14304883113239, 0
420, 0.83706152068384, -0.12874583398815, 0
421, 0.9469087027128, 0.24647664853291, 0
422, 0.5944881236204, -0.27039624008397, 0
423, 0.14635279725594, -0.080661414263545, 0
424, 0.32743773065743, 0.252075986103, 0
425, 0.081060236029961, 0.20055083542782, 0
426, 0.86554689374188, -0.24352840383744, 0
427, 0.89335258642522, -0.2721967874695, 0
428, 0.86623983901697, -0.27178169551355, 0
429, 0.22718154367308, 0.0089939585358782, 0
430, 0.17000731679536, -0.014913103775462, 0
431, 0.66309281950299, -0.20582165775809, 0
432, 0.70222556890605, -0.2692390068035, 0
433, 0.83739959455932, -0.073158524356128, 0
434, 0.91785846421599, 0.086193146710445, 0
435, 0.9455313968449, -0.023608093507772, 0
436, 0.50978713026019, -0.24488025158752, 0
437, 0.41901894496407, 0.25832097440338, 0
438, 0.15114994214406, 0.061637122729574, 0
439, 0.51656386188991, 0.24754155425005, 0
440, 0.94717412770014, -0.27311136616361, 0
441, 0.97338572357738, -0.2471943900486, 0
442, 0.97365006445569, -0.273666620475, 0
443, 0.63108706935702, 0.27547016821642, 0
444, 0.65532534037096, 0.27690484889374, 0
445, 0.21365508329267, 0.0025619518354667, 0
446, 0.091438476220365, 0.25117742165837, 0
447, 0.22389290171587, 0.22044560914789, 0
448, 0.73479327812225, -0.036680857383918, 0
449, 0.94569275529639, -0.0795195372608, 0
450, 0.36558842068469, -0.23694320682958, 0
451, 0.19616694283634, 0.050590628166246, 0
452, 0.14776937374934, 0.16165805276292, 0
453, 0.30397556346624, 0.13238006415525, 0
454, 0.18922956831225, -0.036873648031373, 0
455, 0.35957528789879, -0.097779694794587, 0
456, 0.91976839146442, -0.24517528446902, 0
457, 0.92034036347042, -0.2726310632587, 0
458, 0.73328896945329, -0.089586553698915, 0
459, 0.91850613526224, 0.16656831351491, 0
460, 0.80613613326749, 0.11580340244536, 0
461, 0.97307501409842, -0.19318170031315, 0
462, 0.84134762663675, 0.27372199796435, 0
463, 0.19976697633156, 0.10352165962746, 0
464, 0.49668657182087, 0.25812599648933, 0
465, 0.86263714173499, 0.11430497083273, 0
466, 0.91813622366577, 0.0048476100270667, 0
467, 0.15196407601363, -0.10896018974212, 0
468, 0.094850237485897, -0.23996780628555, 0
469, 0.10365739252659, -0.0057696830566679, 0
470, 0.61214399398414, 0.24689977793637, 0
471, 0.58121058479207, 0.27308476516127, 0
472, 0.60634200850505, 0.27365567108386, 0
473, 0.77809275892036, 0.063824441868195, 0
474, 0.86435640415577, -0.10271982530733, 0
475, 0.97266301218829, 0.058257526117772, 0
476, 0.78313807788201, -0.015105183625039, 0
477, 0.71614476723441, 0.11766036674294, 0
478, 0.75476098789149, -0.12059130178343, 0
479, 0.17934514652062, -0.070507702301374, 0
480, 0.36787855216786, -0.13525935387423, 0
481, 0.94632916923938, -0.21886753147047, 0
482, 0.97320199299997, -0.22033731585349, 0
483, 0.55885668292626, 0.25019198491149, 0
484, 0.53694269143108, 0.27954405659729, 0
485, 0.55801428356892, 0.27623804509994, 0
486, 0.21679923251897, -0.18925687654353, 0
487, 0.040394285341208, 0.19619158096286, 0
488, 0.12676138412472, -0.17544468997298, 0
489, 0.28669489387321, 0.071043526234369, 0
490, 0.10243614445824, 0.048529511058359, 0
491, 0.28805185243038, 0.043594066961099, 0
492, 0.97373090904737, 0.27316058684002, 0
493, 0.97284757777358, -0.080878009261204, 0
494, 0.94593861380718, -0.16364045309117, 0
495, 0.89461864767177, 0.27344620041054, 0
496, 0.33226383186065, 0.19047551524391, 0
497, 0.12013185827062, -0.0017129120994649, 0
498, 0.97288987756639, 0.16568779208611, 0
499, 0.78742840739707, 0.2741653002766, 0
500, 0.81056270925883, 0.22159295189864, 0
501, 0.80673465003875, 0.062804656464602, 0
502, 0.13998924434116, -0.14239007963216, 0
503, 0.35619011834624, -0.152434075417, 0
504, 0.26358155999312, 0.083232624206167, 0
505, 0.51691142655922, 0.28267184808805, 0
506, 0.1388271739707, 0.11010240089126, 0
507, 0.069048151746697, 0.013990780444257, 0
508, 0.15440358250121, 0.18663291997379, 0
509, 0.47043713576559, -0.19637201230995, 0
510, 0.81036426183344, -0.098609015759035, 0
511, 0.86668747816456, 0.24713143555222, 0
512, 0.97276668055603, -0.024369193799416, 0
513, 0.40012542117443, 0.28543360232721, 0
514, 0.120836543956, -0.14613655918013, 0
515, 0.11990492065143, 0.079508806194039, 0
516, 0.1013123712577, -0.14958414559689, 0
517, 0.1521076448556, 0.0074871009965504, 0
518, 0.89153926800537, -0.13237794057498, 0
519, 0.78272909657706, 0.22226105649972, 0
520, 0.69501024887278, 0.015406202191214, 0
521, 0.071263116249364, -0.24156182364097, 0
522, 0.093551641392374, -0.092717943483954, 0
523, 0.23792988807729, 0.1829916598209, 0
524, 0.051953979355956, 0.010533287831435, 0
525, 0.86256857750678, 0.087595721407674, 0
526, 0.9185420226449, -0.078118654370509, 0
527, 0.89039043385308, 0.11364100354261, 0
528, 0.75178039419002, 0.19701611508383, 0
529, 0.78182403099491, -0.21125544518869, 0
530, 0.68762923236941, -0.17245165082629, 0
531, 0.75193821634468, -0.17925199216267, 0
532, 0.75319725958482, -0.20960651365249, 0
533, 0.57067067785283, -0.18294916771195, 0
534, 0.54622490668831, -0.18974518783752, 0
535, 0.62418657759061, -0.17396798289471, 0
536, 0.83754652593749, -0.21404003429067, 0
537, 0.80931677837266, -0.18371121587473, 0
538, 0.80987564515615, -0.21272616878454, 0
539, 0.97270147508741, 0.112114951941, 0
540, 0.74717946343157, 0.11723063701073, 0
541, 0.80751223786916, 0.16882719089917, 0
542, 0.94551043884031, 0.13934658123531, 0
543, 0.89128155850511, -0.04896209239885, 0
544, 0.94529794990391, 0.085662856742836, 0
545, 0.24443504141663, 0.22376628195423, 0
546, 0.036806697932386, -0.074135399015016, 0
547, 0.022697954696597, 0.24747937574594, 0
548, 0.27295557329737, -0.058094001757675, 0
549, 0.25511582469393, -0.17681329480904, 0
550, 0.21115121160588, 0.029697706095332, 0
551, 0.17249072976603, 0.2345887879147, 0
552, 0.092601461913952, 0.15140050307968, 0
553, 0.12293320043227, 0.276601563078, 0
554, 0.020145259536937, 0.19411366132716, 0
555, 0.30190903574373, -0.11018748694151, 0
556, 0.28678361361021, 0.14184214401256, 0
557, 0.025085343907991, -0.27228455472676, 0
558, 0.068819431572958, 0.041123731246155, 0
559, 0.31501270002834, -0.10004253708389, 0
560, 0.39153559960784, -0.16411320799586, 0
561, 0.1609525042575, 0.25570099762097, 0
562, 0.045504929476333, 0.2486285455617, 0
563, 0.019787199739057, -0.13189810918314, 0
564, 0.491532653587, -0.27092200275654, 0
565, 0.13772364357814, 0.25409842377736, 0
566, 0.10260537982203, 0.021405063293102, 0
567, 0.018470672749893, 0.14011247497732, 0
568, 0.10548337465093, -0.033251917869994, 0
569, 0.017561898392582, 0.085567975987936, 0
570, 0.3094684035182, -0.067555829491288, 0
571, 0.23103787284404, -0.22276204869347, 0
572, 0.31347993005878, -0.030284403702629, 0
573, 0.18604690073316, -0.163198063218, 0
574, 0.23629525990252, -0.18351184778507, 0
575, 0.83693872452838, -0.15697200376195, 0
576, 0.89178491442347, 0.19369154085099, 0
577, 0.89037254860359, 0.059968519265921, 0
578, 0.91829725001399, -0.022631188328828, 0
579, 0.11895973508902, 0.052664954236647, 0
580, 0.034744684708696, 0.0073022523396622, 0
581, 0.19803026733333, 0.27924698371747, 0
582, 0.62860444225044, 0.20036641427431, 0
583, 0.65136888345552, 0.17254230166049, 0
584, 0.60263389185107, 0.18184842913815, 0
585, 0.62360091414601, 0.1740553255416, 0
586, 0.78231548136649, -0.12390240950517, 0
587, 0.68190615821758, 0.14345926750013, 0
588, 0.80973270948063, -0.12654780085609, 0
589, 0.73602909383749, -0.062986895857638, 0
590, 0.8911338362903, 0.16704981663099, 0
591, 0.8098358157571, -0.016958678401707, 0
592, 0.86436819433108, -0.15875348109475, 0
593, 0.64059949024195, -0.13711249059063, 0
594, 0.29937254249221, 0.051101754412667, 0
595, 0.27278449967664, -0.092526364201009, 0
596, 0.49679092642441, -0.1991444942334, 0
597, 0.52196576085965, -0.19592110567814, 0
598, 0.51630060272347, -0.17574142556377, 0
599, 0.024331779989952, 0.27381140494904, 0
600, 0.12512355903431, 0.13228576679204, 0
601, 0.05358438181919, -0.043872877563203, 0
602, 0.21192754038368, 0.19764510369468, 0
603, 0.12519067851478, -0.056958726987798, 0
604, 0.19673121602797, -0.1943112377842, 0
605, 0.56018494586758, -0.1527494834725, 0
606, 0.11154027226582, -0.08897724196645, 0
607, 0.21613546138576, 0.23959632151517, 0
608, 0.34399761372041, -0.16970635200969, 0
609, 0.19429815172838, 0.23706056702559, 0
610, 0.72233136060361, 0.19849103468492, 0
611, 0.7521113723808, -0.14922466005344, 0
612, 0.83459351842256, 0.11503766393928, 0
613, 0.16936741876339, -0.10416945569458, 0
614, 0.28249874583175, 0.15872683719805, 0
615, 0.247167160437, -0.072838605450976, 0
616, 0.30140012995589, 0.023199083441644, 0
617, 0.090663675843288, -0.064783262551542, 0
618, 0.19428885121499, 0.14937146355411, 0
619, 0.18404557051948, 0.16958508034309, 0
620, 0.86457335377376, -0.18697423461016, 0
621, 0.89222714398618, -0.21640808376492, 0
622, 0.86497317023001, -0.21524926943707, 0
623, 0.57346862431491, 0.21573310691878, 0
624, 0.54955482403787, 0.20183027113943, 0
625, 0.55444525853671, 0.22498039634982, 0
626, 0.27298617331035, -0.12912465890339, 0
627, 0.13852468525927, -0.024854892134121, 0
628, 0.46422566247692, -0.2677040129658, 0
629, 0.096516370213894, 0.17735115939308, 0
630, 0.12193949928779, 0.10607042416179, 0
631, 0.043031203605499, -0.18614554938021, 0
632, 0.32953589367994, -0.052476445850654, 0
633, 0.16260296327683, 0.21097044590915, 0
634, 0.023840825281613, -0.24454858302538, 0
635, 0.91870667311831, -0.13402889543369, 0
636, 0.89066658633478, 0.14036669838276, 0
637, 0.68410443226019, 0.065740833153183, 0
638, 0.22027565942378, 0.13466655051746, 0
639, 0.29772829847419, 0.078725569025155, 0
640, 0.16453686666676, -0.23350996914267, 0
641, 0.86432654219073, -0.13065135930687, 0
642, 0.91898252888791, 0.19328519208606, 0
643, 0.71209666149823, -0.03373497130908, 0
644, 0.75374649137804, 0.012866801026162, 0
645, 0.7177143627372, 0.065458723730405, 0
646, 0.97324022373915, 0.21940035769952, 0
647, 0.14156604994995, -0.23596887734066, 0
648, 0.74748725900312, 0.090907284680579, 0
649, 0.94574069107667, 0.16612425296235, 0
650, 0.17612501395377, -0.19852527410596, 0
651, 0.17698116846229, -0.13325688062879, 0
652, 0.57183766423453, 0.18525145173845, 0
653, 0.55427675670917, 0.17866046833967, 0
654, 0.37240587790873, 0.21103773353704, 0
655, 0.20338990868998, 0.2171471204865, 0
656, 0.13636791956594, 0.083678453064315, 0
657, 0.03587025440374, -0.046857589677418, 0
658, 0.16600065423682, 0.16555269399892, 0
659, 0.22481713382778, 0.036050250786255, 0
660, 0.80877322316999, 0.0097374735410444, 0
661, 0.89165093065554, -0.16038775667159, 0
662, 0.77953047832199, 0.037556429967645, 0
663, 0.0487478656351, 0.27443159929001, 0
664, 0.24887605882494, 0.28120056031959, 0
665, 0.24443852655175, -0.011625771351973, 0
666, 0.26050050115425, -0.065590114869293, 0
667, 0.29487356789305, -0.25218735033997, 0
668, 0.057835406404686, 0.17208160360694, 0
669, 0.098068860671752, 0.27582983798218, 0
670, 0.3048327322621, -0.036675865367206, 0
671, 0.034696954693101, 0.061525172250319, 0
672, 0.21178223401643, -0.12186416680902, 0
673, 0.91903552029262, -0.18985298013857, 0
674, 0.91934091574506, -0.21758717233079, 0
675, 0.23599017484803, 0.14044339126598, 0
676, 0.1587274504122, -0.13800524961197, 0
677, 0.1469537802005, -0.17193976039384, 0
678, 0.26653465239221, 0.1094880585069, 0
679, 0.25223651951885, -0.21775870775673, 0
680, 0.20444896362145, 0.12923982384083, 0
681, 0.35019645437231, -0.069189701920243, 0
682, 0.272844088984, -0.21172156764139, 0
683, 0.10739326417888, 0.22798633764518, 0
684, 0.94644617836165, 0.21968931731298, 0
685, 0.75942776514411, -0.065979857599373, 0
686, 0.89259877259867, 0.22030134295635, 0
687, 0.97292771854643, -0.1374936809929, 0
688, 0.86356558250851, 0.16757562874941, 0
689, 0.86348397436458, 0.0069917321148492, 0
690, 0.78375676311787, -0.096038198094623, 0
691, 0.76011729750199, 0.27452257302952, 0
692, 0.25148212405237, 0.14635103389811, 0
693, 0.86434108920859, -0.074992788224319, 0
694, 0.81446997804984, 0.27391190523353, 0
695, 0.71878864968441, 0.17142177907191, 0
696, 0.18151069108923, 0.045041720016447, 0
697, 0.17363249603695, 0.19014505082852, 0
698, 0.2984089896214, 0.1061745245145, 0
699, 0.060709500047849, 0.19832570514132, 0
700, 0.14260391342685, 0.13612209707788, 0
701, 0.42392613193363, 0.28544746770606, 0
702, 0.22439914183976, 0.062897468384495, 0
703, 0.97347022851955, 0.24630753250792, 0
704, 0.78057426034567, 0.19601991326414, 0
705, 0.8903011732734, 0.086846309810648, 0
706, 0.91815901250981, 0.13982903585732, 0
707, 0.23119586305662, 0.26100135529629, 0
708, 0.0174151248897, 0.0041400977853336, 0
709, 0.035892639379108, 0.11582188487584, 0
710, 0.80764956364474, 0.036304403572125, 0
711, 0.91862285069872, -0.10605294015455, 0
712, 0.71657957234564, 0.091433053064195, 0
713, 0.43339161991992, -0.25887697144214, 0
714, 0.29835752092821, 0.16495059681582, 0
715, 0.18250731701437, 0.017979289191506, 0
716, 0.945759129476, -0.10761885940763, 0
717, 0.86804186992265, 0.27357111324619, 0
718, 0.97280926906548, -0.052556775254178, 0
719, 0.69902063768947, 0.22700105455894, 0
720, 0.2315572429115, -0.018198012084982, 0
721, 0.25673077575785, -0.0047612855217839, 0
722, 0.22446110658947, -0.052227328225093, 0
723, 0.97288472656514, -0.10922173683787, 0
724, 0.77708218387051, 0.11656290419927, 0
725, 0.73284639355289, 0.27503775851448, 0
726, 0.89148199858533, -0.10444442293534, 0
727, 0.75747059357341, 0.24897718046177, 0
728, 0.94583348796343, -0.13569520162411, 0
729, 0.91788134373095, 0.059231542487152, 0
730, 0.22337709282074, 0.28022429057479, 0
731, 0.30730429276654, 0.23346266161046, 0
732, 0.28739054840558, 0.098221893344646, 0
733, 0.34151383502668, -0.24255009676183, 0
734, 0.75782633124023, -0.093023386422771, 0
735, 0.86306396448754, 0.033968878981694, 0
736, 0.9454369316485, 0.0040451123176118, 0
737, 0.63389545529217, -0.20673171323538, 0
738, 0.52853021637659, -0.2189480438495, 0
739, 0.83497749590206, 0.14161644410441, 0
740, 0.74771808464965, 0.14373621946679, 0
741, 0.972684733533, 0.031059290061819, 0
742, 0.77879024434661, 0.16957550533866, 0
743, 0.017927362034955, 0.11287732620308, 0
744, 0.86546419566313, 0.22065799555356, 0
745, 0.73074493663343, -0.010959838133577, 0
746, 0.017644286992706, -0.022749509660241, 0
747, 0.10479347006323, 0.10216501868529, 0
748, 0.18714755539952, -0.23050785247055, 0
749, 0.78458189253097, -0.068688837536504, 0
750, 0.60166674354798, 0.21454917676772, 0
751, 0.62119969572973, 0.22282282236332, 0
752, 0.97277534552969, 0.13889647721228, 0
753, 0.72654573142282, 0.22462906244251, 0
754, 0.28793915785462, -0.12002779766786, 0
755, 0.097094184344667, -0.12099403061752, 0
756, 0.58399328306473, -0.14337109545333, 0
757, 0.58740284803008, -0.24106273202413, 0
758, 0.91798539697992, 0.032130021941487, 0
759, 0.19274303329335, 0.19377671540992, 0
760, 0.052669426839151, 0.091861467106883, 0
761, 0.15266774984862, 0.088272698175836, 0
762, 0.31567590820005, 0.15606998280446, 0
763, 0.11831079193151, -0.2381199784474, 0
764, 0.27435478445602, 0.2821534659289, 0
765, 0.58745187913215, 0.19961322667758, 0
766, 0.80620170655784, 0.089297297086572, 0
767, 0.92106471959516, 0.27333757232065, 0
768, 0.019069011570275, -0.10420411633259, 0
769, 0.65734136363166, 0.23811016083813, 0
770, 0.53849152415929, -0.16475145435646, 0
771, 0.29063406579894, 0.016085007558531, 0
772, 0.069831580866801, -0.013216529600551, 0
773, 0.33241479148477, 0.17629999929137, 0
774, 0.10621495350894, -0.17862717355908, 0
775, 0.65443721221963, -0.17227352528936, 0
776, 0.69868023175805, -0.11021213954821, 0
777, 0.67855752598571, -0.13353432501048, 0
778, 0.27514574703856, 0.063576022210824, 0
779, 0.25093172733691, 0.076143311324132, 0
780, 0.51753829065209, -0.27189864036928, 0
781, 0.30095880303325, 0.14897089901283, 0
782, 0.21116078065906, 0.15422280728335, 0
783, 0.29988052627714, 0.28306284601326, 0
784, 0.27863168202644, 0.26463369327355, 0
785, 0.16675609013093, 0.066486239348752, 0
786, 0.16639848266057, 0.039620151801689, 0
787, 0.12218429561207, -0.029213668076981, 0
788, 0.05257597995776, -0.016614975409305, 0
789, 0.42244248331282, -0.22085928405, 0
790, 0.1884140216909, 0.12409124728197, 0
791, 0.48301415496767, -0.24288088502389, 0
792, 0.24017174495264, 0.015483893810092, 0
793, 0.29814978387333, -0.075814787262275, 0
794, 0.13520492782, 0.18339304945317, 0
795, 0.045194546059602, -0.21459327631437, 0
796, 0.15097992487153, 0.034692876020249, 0
797, 0.074105849900294, 0.14841627236741, 0
798, 0.053853865069956, 0.11880806088582, 0
799, 0.071772700654088, 0.12188505225317, 0
800, 0.32512994317651, 0.28388136425099, 0
801, 0.30247236904539, 0.26634739483866, 0
802, 0.265147353275, 0.22709599394957, 0
803, 0.20209773810615, 0.17392351668288, 0
804, 0.064226435970565, 0.22426231215154, 0
805, 0.17207147644871, 0.11910403579802, 0
806, 0.16862086680403, 0.093009210789848, 0
807, 0.15079697786013, 0.23227898404448, 0
808, 0.17718502143922, 0.14466272551288, 0
809, 0.14188270553007, -0.052598402994272, 0
810, 0.29517118768744, -0.043540980066273, 0
811, 0.27416134371049, 0.19247029927993, 0
812, 0.041105052352492, -0.15776419259572, 0
813, 0.29269177142799, -0.20428969243203, 0
814, 0.017997543484159, -0.04968550277855, 0
815, 0.25341695982823, 0.10251264850689, 0
816, 0.16001855749646, 0.1403189068105, 0
817, 0.39235646908649, -0.09987676332269, 0
818, 0.21492794676908, 0.10926224562764, 0
819, 0.20250978578055, -0.092939213743679, 0
820, 0.30492572017068, 0.24982871248811, 0
821, 0.23302351463249, -0.079844232893305, 0
822, 0.19702960541328, 0.023600287537796, 0
823, 0.35025693332171, 0.2845804322102, 0
824, 0.32633694442134, 0.26791509406209, 0
825, 0.45437892186588, -0.23631111169377, 0
826, 0.15450639371755, -0.019958958858757, 0
827, 0.47596041846416, -0.21776262334756, 0
828, 0.18211285951741, 0.071807013526842, 0
829, 0.13516026343025, 0.056924800421144, 0
830, 0.017361692524259, 0.058301462888176, 0
831, 0.21813073397658, -0.086703141529328, 0
832, 0.13627473835634, 0.0026345253388503, 0
833, 0.50277783534217, -0.22029217910473, 0
834, 0.2104876679629, 0.056608200827092, 0
835, 0.047583190199948, -0.24305289630445, 0
836, 0.23106479102905, 0.20158139323117, 0
837, 0.22600381118288, 0.089379238470789, 0
838, 0.11577447548755, -0.11735146319993, 0
839, 0.26845876385399, 0.0020630057833034, 0
840, 0.27931136787572, 0.11683031955168, 0
841, 0.085790118333835, 0.22607119602346, 0
842, 0.17394951661733, -0.042554557024246, 0
843, 0.08961432042346, 0.12509518578448, 0
844, 0.27655281042529, 0.036272856681587, 0
845, 0.28248875753973, 0.24738208794902, 0
846, 0.078124644938239, -0.1241160103649, 0
847, 0.26144288828168, 0.17005415352503, 0
848, 0.22820890732615, -0.11536546576734, 0
849, 0.26023236307067, 0.24482639572196, 0
850, 0.28589904782848, -0.084138473153463, 0
851, 0.31991266486209, -0.059705948929845, 0
852, 0.22792488791024, 0.15930481208104, 0
853, 0.37957561720527, -0.11793529912245, 0
854, 0.087500109577821, 0.098493897493446, 0
855, 0.022667426414017, -0.21645450225574, 0
856, 0.2727458221078, 0.13483261104393, 0
857, 0.2507855100234, 0.049293719515758, 0
858, 0.19501951724961, -0.064703112578954, 0
859, 0.20933861976093, -0.22702687660453, 0
860, 0.29174526021031, 0.12446280390876, 0
861, 0.067583037383365, -0.2126775824599, 0
862, 0.16673578343734, -0.1677864404699, 0
863, 0.27575325800551, 0.090581402222292, 0
864, 0.35019919289039, 0.26927827743483, 0
865, 0.37426898432484, 0.27037805401933, 0
866, 0.39854715404353, 0.27106273378338, 0
867, 0.32084231501436, -0.13763969924286, 0
868, 0.17571087350276, -0.26590890347099, 0
869, 0.27475451359321, -0.024720692265917, 0
870, 0.12907957742577, 0.23006555568696, 0
871, 0.34714949086561, -0.11150692981333, 0
872, 0.35004535048019, 0.2541059723179, 0
873, 0.1581707494709, -0.047665692524687, 0
874, 0.10742416291214, 0.12857920804642, 0
875, 0.24814965879815, -0.25921820399399, 0
876, 0.44417594400437, -0.18533956977905, 0
877, 0.035131442644295, 0.088700269054403, 0
878, 0.20028005806531, -0.26409099038664, 0
879, 0.13407260547305, -0.11345952472047, 0
880, 0.24386689917979, -0.1081170934941, 0
881, 0.038496925422475, 0.16960277710982, 0
882, 0.075282724850463, -0.095971700883223, 0
883, 0.085696383967993, 0.044660045319136, 0
884, 0.44287158639904, -0.16487399812687, 0
885, 0.0642971585842, -0.18391880920404, 0
886, 0.44752657812863, 0.28510367026564, 0
887, 0.47223917575358, 0.28473100903037, 0
888, 0.51648223743901, 0.26548882116556, 0
889, 0.49488684478402, 0.27091286771682, 0
890, 0.46595957476605, -0.17853792441308, 0
891, 0.37193156060294, 0.24111012917956, 0
892, 0.25110469281713, -0.038663978143235, 0
893, 0.11905027869093, 0.025586399381863, 0
894, 0.085376600226434, -0.18142006948504, 0
895, 0.14226061954201, 0.20814841441564, 0
896, 0.034576589208598, 0.034360633156803, 0
897, 0.39277574967284, 0.22834015100474, 0
898, 0.069173877179868, 0.068184537304902, 0
899, 0.26330411981626, -0.031627229588761, 0
900, 0.39125909519312, -0.23142984430911, 0
901, 0.26698012647635, 0.15251642835606, 0
902, 0.085915851581475, 0.017526169834353, 0
903, 0.39882771041928, -0.14180788772161, 0
904, 0.37224512149293, -0.083367866384464, 0
905, 0.055563406110408, 0.1455651862301, 0
906, 0.30616432437737, -0.14946748774975, 0
907, 0.46889239866915, 0.26318394264608, 0
908, 0.25875035848261, -0.1005300114102, 0
909, 0.42406871113302, 0.27098714131698, 0
910, 0.075333339348905, -0.27064254286652, 0
911, 0.45540435084899, 0.26913454431714, 0
******* E L E M E N T S *************
*ELEMENT, type=CPS4, ELSET=Surface1
1, 222, 835, 634, 557
2, 479, 842, 873, 371
3, 345, 379, 851, 570
4, 41, 34, 338, 335
5, 335, 338, 336, 186
6, 338, 337, 297, 336
7, 34, 42, 337, 338
8, 242, 290, 694, 499
9, 724, 460, 409, 419
10, 752, 63, 53, 498
11, 776, 304, 458, 303
12, 368, 212, 178, 629
13, 317, 432, 359, 306
14, 346, 27, 3, 344
15, 847, 811, 190, 192
16, 734, 690, 749, 685
17, 661, 296, 673, 407
18, 495, 767, 67, 75
19, 716, 723, 493, 449
20, 569, 743, 106, 117
21, 906, 754, 626, 375
22, 628, 564, 791, 825
23, 900, 2, 25, 713
24, 228, 878, 21, 14
25, 804, 402, 562, 201
26, 609, 380, 214, 551
27, 820, 824, 801, 845
28, 186, 360, 361, 335
29, 335, 361, 33, 41
30, 361, 359, 40, 33
31, 530, 318, 286, 383
32, 259, 519, 242, 727
33, 705, 434, 264, 527
34, 637, 645, 712, 268
35, 342, 282, 246, 274
36, 436, 343, 738, 833
37, 845, 801, 784, 849
38, 852, 523, 405, 782
39, 326, 216, 707, 607
40, 803, 602, 759, 619
41, 900, 450, 17, 2
42, 325, 897, 219, 209
43, 683, 369, 446, 841
44, 730, 91, 99, 581
45, 211, 403, 546, 234
46, 629, 178, 425, 197
47, 310, 205, 377, 319
48, 595, 666, 615, 908
49, 352, 848, 672, 378
50, 319, 392, 731, 230
51, 835, 795, 855, 634
52, 811, 230, 404, 190
53, 659, 702, 834, 550
54, 285, 295, 757, 316
55, 535, 307, 285, 737
56, 386, 31, 39, 384
57, 385, 38, 31, 386
58, 815, 223, 411, 193
59, 868, 640, 647, 182
60, 713, 628, 825, 789
61, 900, 180, 503, 608
62, 553, 93, 101, 669
63, 793, 570, 810, 195
64, 692, 847, 192, 675
65, 836, 545, 447, 602
66, 510, 273, 433, 261
67, 401, 476, 399, 644
68, 281, 393, 525, 347
69, 349, 71, 79, 406
70, 592, 661, 518, 641
71, 407, 673, 299, 494
72, 693, 258, 543, 282
73, 744, 686, 247, 511
74, 767, 365, 74, 67
75, 473, 501, 766, 270
76, 688, 590, 576, 278
77, 686, 348, 265, 247
78, 193, 411, 357, 837
79, 411, 692, 675, 357
80, 424, 864, 824, 820
81, 893, 579, 490, 566
82, 695, 408, 528, 610
83, 448, 397, 401, 745
84, 660, 400, 398, 710
85, 694, 462, 76, 69
86, 357, 675, 638, 818
87, 773, 139, 157, 353
88, 819, 858, 479, 224
89, 720, 429, 445, 388
90, 175, 563, 121, 111
91, 417, 100, 93, 553
92, 561, 324, 417, 565
93, 559, 345, 570, 793
94, 721, 839, 177, 367
95, 392, 872, 424, 731
96, 873, 826, 627, 809
97, 468, 327, 861, 521
98, 540, 724, 419, 740
99, 420, 641, 474, 273
100, 243, 277, 646, 684
101, 459, 649, 243, 642
102, 289, 249, 645, 637
103, 737, 285, 316, 288
104, 422, 30, 38, 385
105, 344, 3, 30, 422
106, 833, 738, 597, 596
107, 656, 506, 630, 515
108, 859, 604, 650, 748
109, 452, 508, 794, 231
110, 297, 337, 428, 426
111, 426, 428, 427, 298
112, 428, 35, 43, 427
113, 337, 42, 35, 428
114, 180, 560, 480, 503
115, 700, 452, 231, 600
116, 554, 356, 104, 115
117, 780, 346, 343, 436
118, 40, 359, 432, 32
119, 32, 432, 384, 39
120, 777, 127, 169, 593
121, 383, 286, 532, 531
122, 587, 279, 695, 363
123, 729, 305, 544, 434
124, 273, 474, 693, 433
125, 711, 716, 449, 526
126, 771, 616, 594, 491
127, 713, 25, 28, 628
128, 883, 321, 898, 558
129, 423, 809, 603, 391
130, 671, 877, 569, 830
131, 799, 797, 905, 798
132, 450, 733, 24, 17
133, 895, 807, 870, 212
134, 44, 37, 442, 440
135, 440, 442, 441, 300
136, 442, 45, 56, 441
137, 37, 4, 45, 442
138, 79, 72, 444, 406
139, 406, 444, 313, 252
140, 444, 443, 253, 313
141, 72, 80, 443, 444
142, 663, 102, 95, 599
143, 876, 509, 890, 884
144, 226, 760, 877, 671
145, 7, 88, 202, 513
146, 758, 362, 305, 729
147, 494, 292, 687, 728
148, 301, 758, 729, 577
149, 526, 449, 244, 276
150, 615, 221, 722, 821
151, 548, 899, 892, 666
152, 667, 682, 679, 232
153, 522, 617, 328, 882
154, 370, 891, 200, 218
155, 601, 788, 215, 657
156, 613, 371, 423, 467
157, 818, 638, 680, 463
158, 491, 594, 639, 489
159, 388, 445, 351, 415
160, 446, 669, 333, 402
161, 43, 36, 457, 427
162, 427, 457, 456, 298
163, 457, 440, 300, 456
164, 36, 44, 440, 457
165, 250, 539, 752, 542
166, 396, 383, 531, 611
167, 753, 259, 727, 302
168, 282, 543, 260, 246
169, 723, 48, 59, 493
170, 646, 54, 65, 703
171, 408, 742, 704, 528
172, 393, 577, 705, 525
173, 696, 828, 785, 786
174, 604, 573, 862, 650
175, 450, 311, 374, 733
176, 399, 660, 710, 662
177, 611, 275, 586, 478
178, 492, 55, 5, 66
179, 742, 541, 272, 704
180, 523, 236, 836, 405
181, 869, 373, 410, 839
182, 844, 491, 489, 778
183, 886, 701, 866, 909
184, 80, 73, 472, 443
185, 443, 472, 470, 253
186, 472, 471, 183, 470
187, 73, 6, 471, 472
188, 474, 726, 258, 693
189, 736, 340, 741, 362
190, 291, 589, 448, 643
191, 302, 727, 691, 725
192, 269, 688, 278, 248
193, 636, 706, 459, 590
194, 394, 262, 591, 476
195, 728, 687, 723, 716
196, 402, 333, 663, 562
197, 184, 354, 206, 205
198, 310, 319, 230, 811
199, 300, 441, 482, 481
200, 481, 482, 461, 299
201, 482, 46, 57, 461
202, 441, 56, 46, 482
203, 6, 81, 485, 471
204, 471, 485, 483, 183
205, 485, 484, 254, 483
206, 81, 85, 484, 485
207, 677, 502, 514, 488
208, 333, 94, 102, 663
209, 779, 504, 678, 815
210, 680, 782, 618, 790
211, 697, 204, 633, 508
212, 834, 187, 194, 451
213, 826, 517, 832, 627
214, 214, 581, 324, 561
215, 689, 339, 301, 735
216, 704, 272, 500, 519
217, 648, 270, 724, 540
218, 289, 637, 124, 9
219, 791, 436, 833, 827
220, 571, 486, 604, 859
221, 682, 549, 574, 679
222, 902, 883, 558, 507
223, 735, 301, 577, 393
224, 643, 448, 745, 364
225, 263, 662, 473, 280
226, 498, 53, 64, 277
227, 322, 310, 811, 847
228, 607, 707, 380, 609
229, 853, 817, 904, 455
230, 196, 193, 837, 702
231, 283, 155, 142, 907
232, 860, 453, 762, 781
233, 379, 681, 632, 851
234, 551, 214, 561, 807
235, 190, 404, 236, 523
236, 334, 715, 239, 430
237, 261, 433, 342, 262
238, 576, 642, 348, 686
239, 264, 250, 542, 706
240, 245, 575, 420, 588
241, 894, 225, 312, 885
242, 817, 133, 163, 904
243, 900, 608, 311, 450
244, 714, 241, 496, 354
245, 547, 599, 103, 114
246, 200, 437, 911, 909
247, 455, 904, 681, 379
248, 788, 524, 580, 215
249, 267, 587, 150, 147
250, 691, 499, 77, 70
251, 719, 350, 252, 314
252, 511, 247, 495, 717
253, 229, 880, 848, 352
254, 392, 370, 218, 872
255, 904, 163, 134, 681
256, 223, 856, 614, 901
257, 612, 465, 266, 739
258, 274, 246, 689, 400
259, 712, 648, 540, 477
260, 477, 540, 740, 279
261, 293, 531, 532, 529
262, 529, 532, 360, 186
263, 465, 527, 636, 266
264, 174, 343, 346, 344
265, 770, 167, 130, 598
266, 307, 533, 295, 285
267, 756, 605, 533, 307
268, 294, 537, 538, 536
269, 536, 538, 336, 297
270, 538, 529, 186, 336
271, 537, 293, 529, 538
272, 278, 576, 686, 744
273, 407, 494, 728, 635
274, 501, 281, 347, 766
275, 611, 531, 293, 275
276, 520, 185, 249, 289
277, 462, 717, 68, 76
278, 347, 525, 465, 612
279, 644, 399, 662, 263
280, 825, 791, 827, 198
281, 199, 208, 772, 213
282, 366, 790, 805, 806
283, 490, 176, 321, 883
284, 562, 663, 599, 547
285, 222, 557, 10, 18
286, 209, 219, 283, 437
287, 628, 28, 26, 564
288, 187, 818, 463, 194
289, 857, 779, 196, 358
290, 828, 366, 806, 785
291, 412, 876, 884, 203
292, 312, 173, 308, 812
293, 581, 99, 92, 324
294, 748, 650, 418, 640
295, 374, 375, 233, 813
296, 221, 720, 388, 722
297, 721, 367, 792, 665
298, 236, 802, 545, 836
299, 480, 853, 455, 871
300, 230, 731, 309, 404
301, 390, 207, 19, 12
302, 198, 827, 509, 876
303, 545, 849, 326, 447
304, 516, 755, 846, 225
305, 868, 182, 20, 13
306, 177, 844, 778, 332
307, 633, 551, 807, 895
308, 654, 140, 156, 897
309, 626, 908, 880, 229
310, 546, 657, 814, 372
311, 504, 863, 840, 678
312, 862, 676, 502, 677
313, 513, 202, 864, 865
314, 754, 595, 908, 626
315, 488, 514, 516, 774
316, 575, 294, 620, 592
317, 268, 712, 477, 267
318, 260, 578, 466, 339
319, 777, 776, 170, 127
320, 295, 330, 174, 757
321, 684, 646, 703, 421
322, 330, 738, 343, 174
323, 890, 331, 166, 131
324, 871, 455, 379, 345
325, 418, 677, 488, 413
326, 319, 377, 370, 392
327, 255, 584, 585, 582
328, 582, 585, 583, 257
329, 585, 146, 150, 583
330, 584, 151, 146, 585
331, 409, 739, 269, 541
332, 292, 47, 58, 687
333, 305, 475, 271, 544
334, 718, 49, 60, 512
335, 363, 695, 610, 341
336, 525, 705, 527, 465
337, 280, 473, 270, 648
338, 350, 349, 406, 252
339, 476, 591, 660, 399
340, 348, 684, 421, 265
341, 244, 718, 512, 435
342, 592, 620, 296, 661
343, 306, 359, 361, 360
344, 757, 174, 344, 422
345, 182, 390, 12, 20
346, 565, 417, 553, 369
347, 201, 562, 547, 356
348, 808, 619, 658, 816
349, 579, 515, 176, 490
350, 608, 503, 188, 867
351, 231, 794, 368, 414
352, 556, 781, 241, 714
353, 701, 513, 865, 866
354, 655, 607, 609, 204
355, 469, 566, 902, 208
356, 369, 553, 669, 446
357, 596, 597, 598, 331
358, 178, 683, 841, 425
359, 530, 775, 431, 318
360, 316, 757, 422, 385
361, 287, 756, 307, 535
362, 287, 128, 168, 756
363, 672, 819, 224, 238
364, 846, 882, 211, 173
365, 218, 200, 909, 866
366, 327, 894, 885, 861
367, 262, 342, 274, 591
368, 588, 420, 273, 510
369, 527, 264, 706, 636
370, 687, 58, 48, 723
371, 797, 197, 668, 905
372, 787, 497, 469, 568
373, 743, 567, 116, 106
374, 608, 867, 906, 311
375, 759, 655, 204, 697
376, 872, 865, 864, 424
377, 806, 805, 189, 761
378, 320, 175, 111, 122
379, 487, 201, 356, 554
380, 747, 874, 843, 854
381, 308, 234, 768, 563
382, 410, 771, 491, 844
383, 294, 536, 622, 620
384, 620, 622, 621, 296
385, 622, 426, 298, 621
386, 536, 297, 426, 622
387, 153, 624, 625, 329
388, 329, 625, 483, 254
389, 625, 623, 183, 483
390, 624, 256, 623, 625
391, 438, 761, 656, 829
392, 84, 7, 513, 701
393, 785, 806, 761, 438
394, 842, 430, 826, 873
395, 848, 831, 819, 672
396, 762, 158, 139, 773
397, 550, 834, 451, 822
398, 328, 213, 601, 403
399, 782, 405, 803, 618
400, 614, 714, 354, 184
401, 638, 852, 782, 680
402, 839, 410, 844, 177
403, 641, 518, 726, 474
404, 251, 744, 511, 395
405, 703, 65, 55, 492
406, 642, 243, 684, 348
407, 809, 627, 787, 603
408, 445, 550, 822, 351
409, 731, 424, 820, 309
410, 220, 554, 115, 105
411, 232, 875, 22, 15
412, 632, 162, 135, 572
413, 189, 816, 700, 506
414, 829, 656, 515, 579
415, 500, 251, 395, 290
416, 249, 263, 280, 645
417, 397, 394, 476, 401
418, 365, 492, 66, 74
419, 518, 635, 711, 726
420, 643, 364, 172, 125
421, 275, 293, 537, 245
422, 578, 435, 736, 466
423, 404, 309, 802, 236
424, 778, 489, 732, 863
425, 843, 552, 797, 799
426, 795, 631, 320, 855
427, 339, 466, 758, 301
428, 449, 493, 718, 244
429, 276, 244, 435, 578
430, 543, 276, 578, 260
431, 208, 902, 507, 772
432, 564, 26, 29, 780
433, 650, 862, 677, 418
434, 670, 572, 382, 181
435, 152, 145, 653, 144
436, 144, 653, 624, 153
437, 653, 652, 256, 624
438, 145, 151, 652, 653
439, 658, 697, 508, 452
440, 837, 357, 818, 187
441, 855, 320, 122, 112
442, 884, 890, 131, 165
443, 353, 157, 140, 654
444, 506, 700, 600, 630
445, 679, 574, 486, 571
446, 179, 238, 651, 573
447, 275, 245, 588, 586
448, 727, 242, 499, 691
449, 593, 287, 535, 775
450, 647, 413, 416, 763
451, 780, 29, 27, 346
452, 355, 226, 671, 896
453, 176, 747, 854, 321
454, 524, 355, 896, 580
455, 732, 698, 453, 860
456, 772, 507, 524, 788
457, 616, 136, 160, 594
458, 234, 546, 372, 768
459, 631, 812, 175, 320
460, 206, 191, 325, 235
461, 850, 793, 195, 548
462, 390, 763, 468, 207
463, 707, 664, 730, 380
464, 238, 224, 613, 651
465, 298, 456, 674, 621
466, 621, 674, 673, 296
467, 674, 481, 299, 673
468, 456, 300, 481, 674
469, 875, 228, 14, 22
470, 872, 218, 866, 865
471, 451, 194, 828, 696
472, 841, 446, 402, 804
473, 878, 868, 13, 21
474, 733, 237, 16, 24
475, 356, 547, 114, 104
476, 676, 467, 879, 502
477, 856, 556, 714, 614
478, 403, 601, 657, 546
479, 664, 98, 91, 730
480, 821, 722, 376, 831
481, 237, 813, 682, 667
482, 223, 901, 692, 411
483, 378, 672, 238, 179
484, 878, 748, 640, 868
485, 433, 693, 282, 342
486, 292, 461, 57, 47
487, 247, 265, 767, 495
488, 726, 711, 526, 258
489, 661, 407, 635, 518
490, 749, 261, 262, 394
491, 270, 766, 460, 724
492, 706, 542, 649, 459
493, 197, 425, 699, 668
494, 746, 708, 108, 119
495, 371, 873, 809, 423
496, 372, 814, 109, 120
497, 542, 752, 498, 649
498, 341, 610, 753, 719
499, 362, 741, 475, 305
500, 777, 593, 775, 530
501, 414, 368, 629, 552
502, 321, 854, 240, 898
503, 425, 841, 804, 699
504, 815, 678, 856, 223
505, 351, 822, 715, 334
506, 508, 633, 895, 794
507, 574, 378, 179, 486
508, 792, 358, 659, 429
509, 587, 363, 583, 150
510, 364, 520, 148, 172
511, 719, 753, 302, 350
512, 458, 734, 685, 589
513, 885, 312, 812, 631
514, 380, 730, 581, 214
515, 733, 374, 813, 237
516, 182, 647, 763, 390
517, 460, 612, 739, 409
518, 512, 60, 50, 340
519, 645, 280, 648, 712
520, 245, 537, 294, 575
521, 901, 614, 184, 322
522, 861, 885, 631, 795
523, 555, 850, 595, 754
524, 851, 632, 572, 670
525, 494, 299, 461, 292
526, 776, 303, 126, 170
527, 499, 694, 69, 77
528, 303, 458, 589, 291
529, 766, 347, 612, 460
530, 265, 421, 365, 767
531, 520, 289, 9, 148
532, 248, 278, 744, 251
533, 560, 389, 412, 903
534, 192, 190, 523, 852
535, 603, 787, 568, 210
536, 675, 192, 852, 638
537, 266, 636, 590, 688
538, 590, 459, 642, 576
539, 349, 725, 78, 71
540, 400, 689, 735, 398
541, 303, 291, 171, 126
542, 466, 736, 362, 758
543, 279, 740, 408, 695
544, 635, 728, 716, 711
545, 589, 685, 397, 448
546, 544, 271, 539, 250
547, 185, 644, 263, 249
548, 740, 419, 742, 408
549, 382, 161, 136, 616
550, 619, 759, 697, 658
551, 903, 323, 817, 853
552, 896, 671, 830, 227
553, 867, 555, 754, 906
554, 454, 334, 430, 842
555, 594, 160, 137, 639
556, 447, 326, 607, 655
557, 435, 512, 340, 736
558, 246, 260, 339, 689
559, 685, 749, 394, 397
560, 649, 498, 277, 243
561, 290, 395, 462, 694
562, 717, 495, 75, 68
563, 363, 341, 257, 583
564, 340, 50, 61, 741
565, 775, 535, 737, 431
566, 519, 500, 290, 242
567, 770, 598, 597, 534
568, 286, 306, 360, 532
569, 880, 821, 831, 848
570, 548, 195, 869, 899
571, 610, 528, 259, 753
572, 690, 510, 261, 749
573, 725, 691, 70, 78
574, 341, 719, 314, 257
575, 586, 588, 510, 690
576, 395, 511, 717, 462
577, 277, 64, 54, 646
578, 421, 703, 492, 365
579, 541, 269, 248, 272
580, 497, 893, 566, 469
581, 892, 665, 720, 221
582, 667, 232, 15, 23
583, 377, 235, 891, 370
584, 478, 586, 690, 734
585, 528, 704, 519, 259
586, 258, 526, 276, 543
587, 739, 266, 688, 269
588, 413, 488, 774, 416
589, 854, 843, 799, 240
590, 698, 159, 138, 453
591, 323, 164, 133, 817
592, 207, 468, 521, 910
593, 324, 92, 100, 417
594, 225, 846, 173, 312
595, 816, 658, 452, 700
596, 502, 879, 838, 514
597, 891, 209, 437, 200
598, 877, 709, 743, 569
599, 558, 898, 226, 355
600, 364, 745, 185, 520
601, 662, 710, 501, 473
602, 741, 61, 51, 475
603, 777, 530, 383, 396
604, 255, 582, 751, 750
605, 750, 751, 470, 183
606, 751, 315, 253, 470
607, 582, 257, 315, 751
608, 317, 284, 384, 432
609, 710, 398, 281, 501
610, 272, 248, 251, 500
611, 268, 267, 147, 149
612, 637, 268, 149, 124
613, 434, 544, 250, 264
614, 291, 643, 125, 171
615, 539, 52, 63, 752
616, 898, 240, 760, 226
617, 235, 325, 209, 891
618, 563, 768, 110, 121
619, 227, 830, 107, 118
620, 534, 597, 738, 330
621, 431, 737, 288, 284
622, 493, 59, 49, 718
623, 575, 592, 641, 420
624, 745, 401, 644, 185
625, 350, 302, 725, 349
626, 180, 789, 389, 560
627, 503, 480, 871, 188
628, 87, 84, 701, 886
629, 813, 233, 549, 682
630, 210, 568, 199, 617
631, 774, 516, 225, 894
632, 429, 659, 550, 445
633, 309, 820, 845, 802
634, 88, 96, 823, 202
635, 367, 177, 332, 857
636, 437, 283, 907, 911
637, 756, 168, 129, 605
638, 605, 129, 167, 770
639, 577, 729, 434, 705
640, 567, 220, 105, 116
641, 699, 804, 201, 487
642, 606, 210, 617, 522
643, 212, 870, 683, 178
644, 870, 565, 369, 683
645, 367, 857, 358, 792
646, 617, 199, 213, 328
647, 867, 188, 559, 555
648, 857, 332, 504, 779
649, 666, 892, 221, 615
650, 241, 773, 353, 496
651, 256, 652, 765, 623
652, 623, 765, 750, 183
653, 765, 584, 255, 750
654, 652, 151, 584, 765
655, 271, 62, 52, 539
656, 398, 735, 393, 281
657, 304, 478, 734, 458
658, 419, 409, 541, 742
659, 591, 274, 400, 660
660, 267, 477, 279, 587
661, 288, 316, 385, 386
662, 475, 51, 62, 271
663, 318, 317, 306, 286
664, 217, 881, 220, 567
665, 755, 522, 882, 846
666, 239, 786, 796, 517
667, 669, 101, 94, 333
668, 897, 156, 141, 219
669, 768, 372, 120, 110
670, 253, 315, 769, 313
671, 313, 769, 314, 252
672, 315, 257, 314, 769
673, 593, 169, 128, 287
674, 318, 431, 284, 317
675, 786, 785, 438, 796
676, 391, 603, 210, 606
677, 822, 451, 696, 715
678, 599, 95, 8, 103
679, 453, 138, 158, 762
680, 486, 179, 573, 604
681, 509, 596, 331, 890
682, 639, 137, 159, 698
683, 194, 463, 366, 828
684, 568, 469, 208, 199
685, 358, 196, 702, 659
686, 202, 823, 824, 864
687, 533, 534, 330, 295
688, 605, 770, 534, 533
689, 284, 288, 386, 384
690, 396, 611, 478, 304
691, 777, 396, 304, 776
692, 789, 825, 198, 389
693, 879, 391, 606, 838
694, 715, 696, 786, 239
695, 798, 905, 217, 709
696, 764, 90, 98, 664
697, 216, 764, 664, 707
698, 560, 903, 853, 480
699, 910, 521, 835, 222
700, 901, 322, 847, 692
701, 812, 308, 563, 175
702, 840, 860, 781, 556
703, 205, 206, 235, 377
704, 665, 792, 429, 720
705, 323, 203, 132, 164
706, 549, 352, 378, 574
707, 827, 833, 596, 509
708, 387, 829, 579, 893
709, 215, 580, 708, 746
710, 570, 851, 670, 810
711, 702, 837, 187, 834
712, 882, 328, 403, 211
713, 228, 859, 748, 878
714, 783, 97, 90, 764
715, 784, 783, 764, 216
716, 555, 559, 793, 850
717, 634, 855, 112, 123
718, 640, 418, 413, 647
719, 805, 808, 816, 189
720, 630, 600, 874, 747
721, 657, 215, 746, 814
722, 213, 772, 788, 601
723, 832, 387, 893, 497
724, 903, 412, 203, 323
725, 322, 184, 205, 310
726, 389, 198, 876, 412
727, 905, 668, 881, 217
728, 850, 548, 666, 595
729, 668, 699, 487, 881
730, 416, 774, 894, 327
731, 802, 845, 849, 545
732, 800, 89, 97, 783
733, 801, 800, 783, 784
734, 849, 784, 216, 326
735, 831, 376, 858, 819
736, 204, 609, 551, 633
737, 814, 746, 119, 109
738, 602, 447, 655, 759
739, 515, 630, 747, 176
740, 354, 496, 191, 206
741, 232, 679, 571, 875
742, 332, 778, 863, 504
743, 207, 910, 11, 19
744, 807, 561, 565, 870
745, 874, 414, 552, 843
746, 779, 815, 193, 196
747, 233, 229, 352, 549
748, 708, 227, 118, 108
749, 173, 211, 234, 308
750, 823, 96, 89, 800
751, 824, 823, 800, 801
752, 881, 487, 554, 220
753, 430, 239, 517, 826
754, 908, 615, 821, 880
755, 557, 113, 1, 10
756, 219, 141, 155, 283
757, 496, 353, 654, 191
758, 517, 796, 387, 832
759, 899, 721, 665, 892
760, 838, 606, 522, 755
761, 566, 490, 883, 902
762, 618, 803, 619, 808
763, 790, 618, 808, 805
764, 237, 667, 23, 16
765, 311, 906, 375, 374
766, 899, 869, 839, 721
767, 600, 231, 414, 874
768, 195, 810, 373, 869
769, 573, 651, 676, 862
770, 763, 416, 327, 468
771, 651, 613, 467, 676
772, 521, 861, 795, 835
773, 875, 571, 859, 228
774, 858, 454, 842, 479
775, 405, 836, 602, 803
776, 572, 135, 161, 382
777, 331, 598, 130, 166
778, 887, 83, 87, 886
779, 911, 887, 886, 909
780, 505, 484, 85, 82
781, 381, 505, 82, 86
782, 887, 381, 86, 83
783, 888, 254, 484, 505
784, 889, 888, 505, 381
785, 911, 889, 381, 887
786, 439, 143, 153, 329
787, 888, 439, 329, 254
788, 464, 154, 143, 439
789, 889, 464, 439, 888
790, 907, 142, 154, 464
791, 911, 907, 464, 889
792, 188, 871, 345, 559
793, 507, 558, 355, 524
794, 552, 629, 197, 797
795, 760, 798, 709, 877
796, 678, 840, 556, 856
797, 863, 732, 860, 840
798, 722, 388, 415, 376
799, 580, 896, 227, 708
800, 373, 181, 771, 410
801, 627, 832, 497, 787
802, 564, 780, 436, 791
803, 810, 670, 181, 373
804, 203, 884, 165, 132
805, 224, 479, 371, 613
806, 240, 799, 798, 760
807, 376, 415, 454, 858
808, 681, 134, 162, 632
809, 761, 189, 506, 656
810, 796, 438, 829, 387
811, 900, 713, 789, 180
812, 375, 626, 229, 233
813, 467, 423, 391, 879
814, 910, 222, 18, 11
815, 415, 351, 334, 454
816, 181, 382, 616, 771
817, 191, 654, 897, 325
818, 514, 838, 755, 516
819, 830, 569, 117, 107
820, 489, 639, 698, 732
821, 557, 634, 123, 113
822, 794, 895, 212, 368
823, 709, 217, 567, 743
824, 463, 680, 790, 366
825, 781, 762, 773, 241
*ELSET,ELSET=contact_source
101, 102, 103, 104, 105, 106, 107, 108, 109, 110, 
111, 112, 113, 114, 115, 116, 117, 118, 119, 120, 
121, 122, 
*ELSET,ELSET=contact_drain
39, 40, 41, 42, 43, 44, 45, 46, 47, 48, 
49, 50, 51, 52, 53, 54, 55, 56, 57, 58, 
59, 60, 
*ELSET,ELSET=probe_A
77, 78, 79, 80, 81, 82, 83, 84, 
*ELSET,ELSET=probe_B
17, 18, 19, 20, 21, 22, 
*ELSET,ELSET=walls
1, 2, 3, 4, 5, 6, 7, 8, 9, 10, 
11, 12, 13, 14, 15, 16, 23, 24, 25, 26, 
27, 28, 29, 30, 31, 32, 33, 34, 35, 36, 
37, 38, 61, 62, 63, 64, 65, 66, 67, 68, 
69, 70, 71, 72, 73, 74, 75, 76, 85, 86, 
87, 88, 89, 90, 91, 92, 93, 94, 95, 96, 
97, 98, 99, 100, 123, 124, 125, 126, 127, 128, 
129, 130, 131, 132, 133, 134, 135, 136, 137, 138, 
139, 140, 141, 142, 143, 144, 145, 146, 147, 148, 
149, 150, 151, 152, 153, 154, 155, 156, 157, 158, 
159, 160, 161, 162, 163, 164, 165, 166, 167, 168, 
169, 170, 171, 172, 
*ELSET,ELSET=domain
173, 174, 175, 176, 177, 178, 179, 180, 181, 182, 
183, 184, 185, 186, 187, 188, 189, 190, 191, 192, 
193, 194, 195, 196, 197, 198, 199, 200, 201, 202, 
203, 204, 205, 206, 207, 208, 209, 210, 211, 212, 
213, 214, 215, 216, 217, 218, 219, 220, 221, 222, 
223, 224, 225, 226, 227, 228, 229, 230, 231, 232, 
233, 234, 235, 236, 237, 238, 239, 240, 241, 242, 
243, 244, 245, 246, 247, 248, 249, 250, 251, 252, 
253, 254, 255, 256, 257, 258, 259, 260, 261, 262, 
263, 264, 265, 266, 267, 268, 269, 270, 271, 272, 
273, 274, 275, 276, 277, 278, 279, 280, 281, 282, 
283, 284, 285, 286, 287, 288, 289, 290, 291, 292, 
293, 294, 295, 296, 297, 298, 299, 300, 301, 302, 
303, 304, 305, 306, 307, 308, 309, 310, 311, 312, 
313, 314, 315, 316, 317, 318, 319, 320, 321, 322, 
323, 324, 325, 326, 327, 328, 329, 330, 331, 332, 
333, 334, 335, 336, 337, 338, 339, 340, 341, 342, 
343, 344, 345, 346, 347, 348, 349, 350, 351, 352, 
353, 354, 355, 356, 357, 358, 359, 360, 361, 362, 
363, 364, 365, 366, 367, 368, 369, 370, 371, 372, 
373, 374, 375, 376, 377, 378, 379, 380, 381, 382, 
383, 384, 385, 386, 387, 388, 389, 390, 391, 392, 
393, 394, 395, 396, 397, 398, 399, 400, 401, 402, 
403, 404, 405, 406, 407, 408, 409, 410, 411, 412, 
413, 414, 415, 416, 417, 418, 419, 420, 421, 422, 
423, 424, 425, 426, 427, 428, 429, 430, 431, 432, 
433, 434, 435, 436, 437, 438, 439, 440, 441, 442, 
443, 444, 445, 446, 447, 448, 449, 450, 451, 452, 
453, 454, 455, 456, 457, 458, 459, 460, 461, 462, 
463, 464, 465, 466, 467, 468, 469, 470, 471, 472, 
473, 474, 475, 476, 477, 478, 479, 480, 481, 482, 
483, 484, 485, 486, 487, 488, 489, 490, 491, 492, 
493, 494, 495, 496, 497, 498, 499, 500, 501, 502, 
503, 504, 505, 506, 507, 508, 509, 510, 511, 512, 
513, 514, 515, 516, 517, 518, 519, 520, 521, 522, 
523, 524, 525, 526, 527, 528, 529, 530, 531, 532, 
533, 534, 535, 536, 537, 538, 539, 540, 541, 542, 
543, 544, 545, 546, 547, 548, 549, 550, 551, 552, 
553, 554, 555, 556, 557, 558, 559, 560, 561, 562, 
563, 564, 565, 566, 567, 568, 569, 570, 571, 572, 
573, 574, 575, 576, 577, 578, 579, 580, 581, 582, 
583, 584, 585, 586, 587, 588, 589, 590, 591, 592, 
593, 594, 595, 596, 597, 598, 599, 600, 601, 602, 
603, 604, 605, 606, 607, 608, 609, 610, 611, 612, 
613, 614, 615, 616, 617, 618, 619, 620, 621, 622, 
623, 624, 625, 626, 627, 628, 629, 630, 631, 632, 
633, 634, 635, 636, 637, 638, 639, 640, 641, 642, 
643, 644, 645, 646, 647, 648, 649, 650, 651, 652, 
653, 654, 655, 656, 657, 658, 659, 660, 661, 662, 
663, 664, 665, 666, 667, 668, 669, 670, 671, 672, 
673, 674, 675, 676, 677, 678, 679, 680, 681, 682, 
683, 684, 685, 686, 687, 688, 689, 690, 691, 692, 
693, 694, 695, 696, 697, 698, 699, 700, 701, 702, 
703, 704, 705, 706, 707, 708, 709, 710, 711, 712, 
713, 714, 715, 716, 717, 718, 719, 720, 721, 722, 
723, 724, 725, 726, 727, 728, 729, 730, 731, 732, 
733, 734, 735, 736, 737, 738, 739, 740, 741, 742, 
743, 744, 745, 746, 747, 748, 749, 750, 751, 752, 
753, 754, 755, 756, 757, 758, 759, 760, 761, 762, 
763, 764, 765, 766, 767, 768, 769, 770, 771, 772, 
773, 774, 775, 776, 777, 778, 779, 780, 781, 782, 
783, 784, 785, 786, 787, 788, 789, 790, 791, 792, 
793, 794, 795, 796, 797, 798, 799, 800, 801, 802, 
803, 804, 805, 806, 807, 808, 809, 810, 811, 812, 
813, 814, 815, 816, 817, 818, 819, 820, 821, 822, 
823, 824, 825, 826, 827, 828, 829, 830, 831, 832, 
833, 834, 835, 836, 837, 838, 839, 840, 841, 842, 
843, 844, 845, 846, 847, 848, 849, 850, 851, 852, 
853, 854, 855, 856, 857, 858, 859, 860, 861, 862, 
863, 864, 865, 866, 867, 868, 869, 870, 871, 872, 
873, 874, 875, 876, 877, 878, 879, 880, 881, 882, 
883, 884, 885, 886, 887, 888, 889, 890, 891, 892, 
893, 894, 895, 896, 897, 898, 899, 900, 901, 902, 
903, 904, 905, 906, 907, 908, 909, 910, 911, 912, 
913, 914, 915, 916, 917, 918, 919, 920, 921, 922, 
923, 924, 925, 926, 927, 928, 929, 930, 931, 932, 
933, 934, 935, 936, 937, 938, 939, 940, 941, 942, 
943, 944, 945, 946, 947, 948, 949, 950, 951, 952, 
953, 954, 955, 956, 957, 958, 959, 960, 961, 962, 
963, 964, 965, 966, 967, 968, 969, 970, 971, 972, 
973, 974, 975, 976, 977, 978, 979, 980, 981, 982, 
983, 984, 985, 986, 987, 988, 989, 990, 991, 992, 
993, 994, 995, 996, 997, 
*NSET,NSET=contact_source
1, 8, 103, 104, 105, 106, 107, 108, 109, 110, 
111, 112, 113, 114, 115, 116, 117, 118, 119, 120, 
121, 122, 123, 
*NSET,NSET=contact_drain
4, 5, 45, 46, 47, 48, 49, 50, 51, 52, 
53, 54, 55, 56, 57, 58, 59, 60, 61, 62, 
63, 64, 65, 
*NSET,NSET=probe_A
6, 7, 81, 82, 83, 84, 85, 86, 87, 
*NSET,NSET=probe_B
2, 3, 25, 26, 27, 28, 29, 
*NSET,NSET=walls
1, 2, 3, 4, 5, 6, 7, 8, 9, 10, 
11, 12, 13, 14, 15, 16, 17, 18, 19, 20, 
21, 22, 23, 24, 30, 31, 32, 33, 34, 35, 
36, 37, 38, 39, 40, 41, 42, 43, 44, 66, 
67, 68, 69, 70, 71, 72, 73, 74, 75, 76, 
77, 78, 79, 80, 88, 89, 90, 91, 92, 93, 
94, 95, 96, 97, 98, 99, 100, 101, 102, 124, 
125, 126, 127, 128, 129, 130, 131, 132, 133, 134, 
135, 136, 137, 138, 139, 140, 141, 142, 143, 144, 
145, 146, 147, 148, 149, 150, 151, 152, 153, 154, 
155, 156, 157, 158, 159, 160, 161, 162, 163, 164, 
165, 166, 167, 168, 169, 170, 171, 172, 
*NSET,NSET=domain
1, 2, 3, 4, 5, 6, 7, 8, 9, 10, 
11, 12, 13, 14, 15, 16, 17, 18, 19, 20, 
21, 22, 23, 24, 25, 26, 27, 28, 29, 30, 
31, 32, 33, 34, 35, 36, 37, 38, 39, 40, 
41, 42, 43, 44, 45, 46, 47, 48, 49, 50, 
51, 52, 53, 54, 55, 56, 57, 58, 59, 60, 
61, 62, 63, 64, 65, 66, 67, 68, 69, 70, 
71, 72, 73, 74, 75, 76, 77, 78, 79, 80, 
81, 82, 83, 84, 85, 86, 87, 88, 89, 90, 
91, 92, 93, 94, 95, 96, 97, 98, 99, 100, 
101, 102, 103, 104, 105, 106, 107, 108, 109, 110, 
111, 112, 113, 114, 115, 116, 117, 118, 119, 120, 
121, 122, 123, 124, 125, 126, 127, 128, 129, 130, 
131, 132, 133, 134, 135, 136, 137, 138, 139, 140, 
141, 142, 143, 144, 145, 146, 147, 148, 149, 150, 
151, 152, 153, 154, 155, 156, 157, 158, 159, 160, 
161, 162, 163, 164, 165, 166, 167, 168, 169, 170, 
171, 172, 173, 174, 175, 176, 177, 178, 179, 180, 
181, 182, 183, 184, 185, 186, 187, 188, 189, 190, 
191, 192, 193, 194, 195, 196, 197, 198, 199, 200, 
201, 202, 203, 204, 205, 206, 207, 208, 209, 210, 
211, 212, 213, 214, 215, 216, 217, 218, 219, 220, 
221, 222, 223, 224, 225, 226, 227, 228, 229, 230, 
231, 232, 233, 234, 235, 236, 237, 238, 239, 240, 
241, 242, 243, 244, 245, 246, 247, 248, 249, 250, 
251, 252, 253, 254, 255, 256, 257, 258, 259, 260, 
261, 262, 263, 264, 265, 266, 267, 268, 269, 270, 
271, 272, 273, 274, 275, 276, 277, 278, 279, 280, 
281, 282, 283, 284, 285, 286, 287, 288, 289, 290, 
291, 292, 293, 294, 295, 296, 297, 298, 299, 300, 
301, 302, 303, 304, 305, 306, 307, 308, 309, 310, 
311, 312, 313, 314, 315, 316, 317, 318, 319, 320, 
321, 322, 323, 324, 325, 326, 327, 328, 329, 330, 
331, 332, 333, 334, 335, 336, 337, 338, 339, 340, 
341, 342, 343, 344, 345, 346, 347, 348, 349, 350, 
351, 352, 353, 354, 355, 356, 357, 358, 359, 360, 
361, 362, 363, 364, 365, 366, 367, 368, 369, 370, 
371, 372, 373, 374, 375, 376, 377, 378, 379, 380, 
381, 382, 383, 384, 385, 386, 387, 388, 389, 390, 
391, 392, 393, 394, 395, 396, 397, 398, 399, 400, 
401, 402, 403, 404, 405, 406, 407, 408, 409, 410, 
411, 412, 413, 414, 415, 416, 417, 418, 419, 420, 
421, 422, 423, 424, 425, 426, 427, 428, 429, 430, 
431, 432, 433, 434, 435, 436, 437, 438, 439, 440, 
441, 442, 443, 444, 445, 446, 447, 448, 449, 450, 
451, 452, 453, 454, 455, 456, 457, 458, 459, 460, 
461, 462, 463, 464, 465, 466, 467, 468, 469, 470, 
471, 472, 473, 474, 475, 476, 477, 478, 479, 480, 
481, 482, 483, 484, 485, 486, 487, 488, 489, 490, 
491, 492, 493, 494, 495, 496, 497, 498, 499, 500, 
501, 502, 503, 504, 505, 506, 507, 508, 509, 510, 
511, 512, 513, 514, 515, 516, 517, 518, 519, 520, 
521, 522, 523, 524, 525, 526, 527, 528, 529, 530, 
531, 532, 533, 534, 535, 536, 537, 538, 539, 540, 
541, 542, 543, 544, 545, 546, 547, 548, 549, 550, 
551, 552, 553, 554, 555, 556, 557, 558, 559, 560, 
561, 562, 563, 564, 565, 566, 567, 568, 569, 570, 
571, 572, 573, 574, 575, 576, 577, 578, 579, 580, 
581, 582, 583, 584, 585, 586, 587, 588, 589, 590, 
591, 592, 593, 594, 595, 596, 597, 598, 599, 600, 
601, 602, 603, 604, 605, 606, 607, 608, 609, 610, 
611, 612, 613, 614, 615, 616, 617, 618, 619, 620, 
621, 622, 623, 624, 625, 626, 627, 628, 629, 630, 
631, 632, 633, 634, 635, 636, 637, 638, 639, 640, 
641, 642, 643, 644, 645, 646, 647, 648, 649, 650, 
651, 652, 653, 654, 655, 656, 657, 658, 659, 660, 
661, 662, 663, 664, 665, 666, 667, 668, 669, 670, 
671, 672, 673, 674, 675, 676, 677, 678, 679, 680, 
681, 682, 683, 684, 685, 686, 687, 688, 689, 690, 
691, 692, 693, 694, 695, 696, 697, 698, 699, 700, 
701, 702, 703, 704, 705, 706, 707, 708, 709, 710, 
711, 712, 713, 714, 715, 716, 717, 718, 719, 720, 
721, 722, 723, 724, 725, 726, 727, 728, 729, 730, 
731, 732, 733, 734, 735, 736, 737, 738, 739, 740, 
741, 742, 743, 744, 745, 746, 747, 748, 749, 750, 
751, 752, 753, 754, 755, 756, 757, 758, 759, 760, 
761, 762, 763, 764, 765, 766, 767, 768, 769, 770, 
771, 772, 773, 774, 775, 776, 777, 778, 779, 780, 
781, 782, 783, 784, 785, 786, 787, 788, 789, 790, 
791, 792, 793, 794, 795, 796, 797, 798, 799, 800, 
801, 802, 803, 804, 805, 806, 807, 808, 809, 810, 
811, 812, 813, 814, 815, 816, 817, 818, 819, 820, 
821, 822, 823, 824, 825, 826, 827, 828, 829, 830, 
831, 832, 833, 834, 835, 836, 837, 838, 839, 840, 
841, 842, 843, 844, 845, 846, 847, 848, 849, 850, 
851, 852, 853, 854, 855, 856, 857, 858, 859, 860, 
861, 862, 863, 864, 865, 866, 867, 868, 869, 870, 
871, 872, 873, 874, 875, 876, 877, 878, 879, 880, 
881, 882, 883, 884, 885, 886, 887, 888, 889, 890, 
891, 892, 893, 894, 895, 896, 897, 898, 899, 900, 
901, 902, 903, 904, 905, 906, 907, 908, 909, 910, 
911, 
