*Heading
 /Users/juliagao/geometry-optimization-net/scripts/../runs/run2/shape_27.inp
*NODE
1, 0, -0.3, 0
2, 0.425, -0.3, 0
3, 0.575, -0.3, 0
4, 1, -0.3, 0
5, 1, 0.3, 0
6, 0.575, 0.3, 0
7, 0.425, 0.3, 0
8, 0, 0.3, 0
9, 0.6228064122, -0.0047165308, 0
10, 0.025478470584292, -0.3, 0
11, 0.077090823366955, -0.3, 0
12, 0.12966119630071, -0.3, 0
13, 0.18288877090161, -0.3, 0
14, 0.23697753202135, -0.3, 0
15, 0.29174531799808, -0.3, 0
16, 0.34614668955622, -0.3, 0
17, 0.39903897619593, -0.3, 0
18, 0.050956941168585, -0.3, 0
19, 0.10322470556533, -0.3, 0
20, 0.1560976870361, -0.3, 0
21, 0.20967985476711, -0.3, 0
22, 0.26427520927559, -0.3, 0
23, 0.31921542672057, -0.3, 0
24, 0.37307795239186, -0.3, 0
25, 0.45051378800476, -0.3, 0
26, 0.50066259968136, -0.3, 0
27, 0.5501488116766, -0.3, 0
28, 0.47602757600952, -0.3, 0
29, 0.52529762335321, -0.3, 0
30, 0.60070463275127, -0.3, 0
31, 0.65351910203343, -0.3, 0
32, 0.70823982330886, -0.3, 0
33, 0.76289083303927, -0.3, 0
34, 0.81632618506072, -0.3, 0
35, 0.86896756168379, -0.3, 0
36, 0.92145482176366, -0.3, 0
37, 0.97384796612802, -0.3, 0
38, 0.62640926550254, -0.3, 0
39, 0.68062893856433, -0.3, 0
40, 0.73585070805339, -0.3, 0
41, 0.78993095802515, -0.3, 0
42, 0.84272141209629, -0.3, 0
43, 0.89521371127129, -0.3, 0
44, 0.94769593225604, -0.3, 0
45, 1, -0.27309301284506, 0
46, 1, -0.21872254326798, 0
47, 1, -0.16337287847288, 0
48, 1, -0.1078342682627, 0
49, 1, -0.052895177976046, 0
50, 1, 0.0017309969974224, 0
51, 1, 0.057014513316373, 0
52, 1, 0.11314227935047, 0
53, 1, 0.16869873012866, 0
54, 1, 0.22217742990895, 0
55, 1, 0.27414172057511, 0
56, 1, -0.24618602569012, 0
57, 1, -0.19125906084585, 0
58, 1, -0.1354866960999, 0
59, 1, -0.080181840425494, 0
60, 1, -0.025608515526599, 0
61, 1, 0.029070509521444, 0
62, 1, 0.084958517111301, 0
63, 1, 0.14132604158964, 0
64, 1, 0.19607141866768, 0
65, 1, 0.24828344115022, 0
66, 0.97434965950162, 0.3, 0
67, 0.92227561060383, 0.3, 0
68, 0.86888275915287, 0.3, 0
69, 0.81473121976508, 0.3, 0
70, 0.76029451358594, 0.3, 0
71, 0.70603256143658, 0.3, 0
72, 0.65268534338253, 0.3, 0
73, 0.60067288381747, 0.3, 0
74, 0.94869931900323, 0.3, 0
75, 0.89585190220443, 0.3, 0
76, 0.84191361610131, 0.3, 0
77, 0.78754882342884, 0.3, 0
78, 0.73304020374303, 0.3, 0
79, 0.67902491913012, 0.3, 0
80, 0.62634576763493, 0.3, 0
81, 0.54980440113886, 0.3, 0
82, 0.49972360150904, 0.3, 0
83, 0.44991920037018, 0.3, 0
84, 0.52460880227772, 0.3, 0
85, 0.47483840074036, 0.3, 0
86, 0.3992730474291, 0.3, 0
87, 0.34743959853179, 0.3, 0
88, 0.29507053551146, 0.3, 0
89, 0.24206124499421, 0.3, 0
90, 0.18776732774, 0.3, 0
91, 0.13253342899838, 0.3, 0
92, 0.078156220975883, 0.3, 0
93, 0.02573285913207, 0.3, 0
94, 0.3735460948582, 0.3, 0
95, 0.32133310220537, 0.3, 0
96, 0.26880796881756, 0.3, 0
97, 0.21531452117086, 0.3, 0
98, 0.16022013430913, 0.3, 0
99, 0.10484672368763, 0.3, 0
100, 0.05146571826414, 0.3, 0
101, 0, 0.27317523656512, 0
102, 0, 0.21837370604627, 0
103, 0, 0.16177412235197, 0
104, 0, 0.10533235924675, 0
105, 0, 0.050988980321573, 0
106, 0, -0.0018618378877245, 0
107, 0, -0.055156670090625, 0
108, 0, -0.10946178504987, 0
109, 0, -0.16441951279217, 0
110, 0, -0.21936133112531, 0
111, 0, -0.27334104512576, 0
112, 0, 0.24635047313024, 0
113, 0, 0.19039693896231, 0
114, 0, 0.13315130574163, 0
115, 0, 0.077513412751867, 0
116, 0, 0.024464547891279, 0
117, 0, -0.028188223666728, 0
118, 0, -0.082125116514523, 0
119, 0, -0.13679845358523, 0
120, 0, -0.19204057199911, 0
121, 0, -0.24668209025151, 0
122, 0.62910775498638, 0.021749207147677, 0
123, 0.67483964496475, -0.067607068207546, 0
124, 0.6742007491637, -0.11910390383795, 0
125, 0.62326756220249, -0.12769847572348, 0
126, 0.57315515403553, -0.11104824925708, 0
127, 0.53576127324976, -0.13129625680802, 0
128, 0.51628464423717, -0.1785360836927, 0
129, 0.47557374787452, -0.20658415646129, 0
130, 0.43892689874976, -0.17119502543261, 0
131, 0.42549989709421, -0.12147573629698, 0
132, 0.37722091258344, -0.10065459318906, 0
133, 0.32584608070655, -0.085980668496406, 0
134, 0.31188712334336, -0.03646701152778, 0
135, 0.33920112061337, 0.0090998702821288, 0
136, 0.35513253368905, 0.060259965501471, 0
137, 0.36562342926339, 0.11440461479912, 0
138, 0.39907718306435, 0.15885116541815, 0
139, 0.44550573302918, 0.18589890757273, 0
140, 0.49546404004889, 0.1703956838052, 0
141, 0.52308155863619, 0.12344038613387, 0
142, 0.53280272116293, 0.081944766541849, 0
143, 0.58873920958376, 0.081515718545099, 0
144, 0.63849774580422, 0.071327658451039, 0
145, 0.64031270949473, -0.025865874141354, 0
146, 0.64040615205539, 0.045357920742237, 0
147, 0.61560388374198, 0.083479367504299, 0
148, 0.56324354292818, 0.073444446387301, 0
149, 0.5299452322626, 0.096445046726375, 0
150, 0.51190364883612, 0.14901659134083, 0
151, 0.47220224541506, 0.18457505673948, 0
152, 0.42110634541005, 0.17587176895009, 0
153, 0.38027979414417, 0.13835803549066, 0
154, 0.35749483966041, 0.087483245732014, 0
155, 0.35165313693383, 0.033086484586311, 0
156, 0.32375823371303, -0.012804542231194, 0
157, 0.31021009287421, -0.063457916862381, 0
158, 0.35010039424921, -0.096846641487191, 0
159, 0.40446349743354, -0.10242715312341, 0
160, 0.43122227685617, -0.14536343491077, 0
161, 0.45280842791639, -0.19456399270081, 0
162, 0.49967542450508, -0.19795929520055, 0
163, 0.52748568901862, -0.155752073923, 0
164, 0.54664564004311, -0.10764606415074, 0
165, 0.59718362519541, -0.12054266038698, 0
166, 0.65042273302802, -0.12894374701896, 0
167, 0.68342689724479, -0.093495154993345, 0
168, 0.6591874538108, -0.045631376530019, 0
169, 0.43998153473306, -0.25882948577192, 0
170, 0.41843736397222, 0.24090798922609, 0
171, 0.052325535980448, -0.24542776353308, 0
172, 0.15742138160605, -0.24655471117032, 0
173, 0.10459387222697, -0.24583411549903, 0
174, 0.26583568867526, -0.24738362305004, 0
175, 0.2112123649449, -0.24735960050422, 0
176, 0.41536967812702, -0.27465955298691, 0
177, 0.31868862549105, -0.24296065855125, 0
178, 0.36392275267791, -0.23652780069211, 0
179, 0.57437920441373, 0.25046989994726, 0
180, 0.6354856946106, -0.18143963390375, 0
181, 0.76142518712749, -0.19232233423094, 0
182, 0.65310150853931, -0.20873670060973, 0
183, 0.92483003138011, -0.082750379423038, 0
184, 0.21057383411066, 0.1409497694093, 0
185, 0.10495360726614, 0.13904876992367, 0
186, 0.15761574756358, 0.14017018612128, 0
187, 0.052137691987818, 0.13703790150299, 0
188, 0.16063247210516, 0.19396410101573, 0
189, 0.10632870504665, 0.19308298441098, 0
190, 0.052555024000356, 0.1915066671087, 0
191, 0.053061921294369, 0.24557257806451, 0
192, 0.10680891218561, 0.24655859130404, 0
193, 0.21587012692143, 0.19339386134367, 0
194, 0.16121466812608, 0.24702040895248, 0
195, 0.21578984005596, 0.24626461274586, 0
196, 0.27212195282766, 0.18707937295672, 0
197, 0.2689953209155, 0.2433223930953, 0
198, 0.31749186106951, 0.23943941253384, 0
199, 0.36955375160903, 0.19790715229598, 0
200, 0.36788107293725, 0.24819130373496, 0
201, 0.46714371766025, 0.24338637218765, 0
202, 0.32571828689369, 0.17155702903429, 0
203, 0.31236604883589, 0.11645915718882, 0
204, 0.30134026927353, 0.059477258987755, 0
205, 0.27353234458613, 0.011952628357063, 0
206, 0.26433141725792, 0.13384863971352, 0
207, 0.20455355404679, 0.085530407341562, 0
208, 0.1552175077441, 0.084057239402063, 0
209, 0.21857733795269, 0.028706444168582, 0
210, 0.25439431258185, 0.078027923413498, 0
211, 0.16072606729694, 0.028010839394698, 0
212, 0.10430095041917, 0.08380067760858, 0
213, 0.0524213663781, 0.082111613305411, 0
214, 0.053441573960528, 0.02743923051277, 0
215, 0.10650720721782, 0.028518236921897, 0
216, 0.052075273657836, -0.19107101578687, 0
217, 0.2103706783687, -0.19510756568399, 0
218, 0.26671451611024, -0.19662769153464, 0
219, 0.25766154647939, -0.14667683796611, 0
220, 0.20536433794818, -0.141281385816, 0
221, 0.10427131311255, -0.19157403380215, 0
222, 0.15676661939435, -0.19299039525983, 0
223, 0.10333968353983, -0.13663431909381, 0
224, 0.15442710202048, -0.13816649624363, 0
225, 0.051806433113328, -0.13631414384091, 0
226, 0.10542122850361, -0.02565559305223, 0
227, 0.05300278617632, -0.026626355266567, 0
228, 0.052235081595861, -0.08126235650433, 0
229, 0.10397650304968, -0.08095039231741, 0
230, 0.20850356377839, -0.027230407550133, 0
231, 0.1575606369217, -0.025622041633998, 0
232, 0.25804794090992, -0.038548839070798, 0
233, 0.2631008830605, -0.094096123440718, 0
234, 0.15526561733855, -0.081796726496003, 0
235, 0.20669048449526, -0.085109454803088, 0
236, 0.3778353335662, -0.16653545843241, 0
237, 0.32607258123848, -0.18526070148596, 0
238, 0.31196379821022, -0.13665869588786, 0
239, 0.81898064434983, 0.11609803663492, 0
240, 0.974330842882, 0.16730414795893, 0
241, 0.86874633876921, 0.27385781816272, 0
242, 0.97486458363995, 0.057247619923792, 0
243, 0.81802979380968, 0.16844983271648, 0
244, 0.84487008194225, 0.14134176477664, 0
245, 0.94892688657186, 0.13963547074906, 0
246, 0.92398008811226, 0.085377103565077, 0
247, 0.84553634856736, 0.11486562273875, 0
248, 0.89511660611785, 0.24711869260736, 0
249, 0.81695953734009, 0.22136832487018, 0
250, 0.9230985853116, 0.13964271277537, 0
251, 0.86936734786262, 0.22073370164187, 0
252, 0.94928942280002, 0.11244103304607, 0
253, 0.79061939108285, 0.22159889072717, 0
254, 0.64647677877154, 0.14137950385431, 0
255, 0.68387399769968, 0.24805065276885, 0
256, 0.58748277858346, 0.20067150234981, 0
257, 0.6306310697483, 0.24860987148674, 0
258, 0.51631708969514, 0.23811429906508, 0
259, 0.61172965184015, 0.16693931008144, 0
260, 0.68364778766363, 0.16871224612592, 0
261, 0.67665548154615, 0.10209963633677, 0
262, 0.6770391066624, 0.14399884240734, 0
263, 0.56921215195453, 0.1774569209769, 0
264, 0.87420590081871, 0.032165420663596, 0
265, 0.89597902802505, 0.19363520509967, 0
266, 0.9739695636159, 0.19420466644646, 0
267, 0.81553287148983, 0.27407637520584, 0
268, 0.76624543278843, 0.094013725340982, 0
269, 0.76201257862007, 0.27418452246784, 0
270, 0.92197507700963, 0.19341772865997, 0
271, 0.73679283242808, 0.24803824538737, 0
272, 0.78980503109199, 0.24795856612752, 0
273, 0.94749609598575, 0.22023179140514, 0
274, 0.69953905283781, -0.07298400861408, 0
275, 0.94964013926213, -0.082498059287863, 0
276, 0.94963566386797, -0.026175554181848, 0
277, 0.81105071169328, -0.24698981003161, 0
278, 0.78519151240249, -0.27318289591333, 0
279, 0.75771550338288, -0.27301005590271, 0
280, 0.7571518449445, -0.13029565747954, 0
281, 0.9003615560304, -0.053789594487918, 0
282, 0.71964689136465, -0.11668229613353, 0
283, 0.92350498600615, -0.13912900078964, 0
284, 0.92480487402142, -0.025936912242103, 0
285, 0.86686171107314, -0.27324770844968, 0
286, 0.77298273307019, 0.015296380671035, 0
287, 0.71802960628763, 0.023149847598062, 0
288, 0.5700536627054, -0.20409174349269, 0
289, 0.78286401230803, -0.07046286776021, 0
290, 0.9489857802506, -0.13846340678555, 0
291, 0.86790803638785, -0.19435674584574, 0
292, 0.70271531831037, -0.15035430046705, 0
293, 0.82754916839936, -0.10842092473898, 0
294, 0.81170907841547, -0.22082232386672, 0
295, 0.85208249500401, -0.08036971450329, 0
296, 0.62378878157923, -0.23907456702297, 0
297, 0.72114039911132, -0.081031542611661, 0
298, 0.78339733789507, -0.24678026877434, 0
299, 0.6503525503072, -0.270131612875, 0
300, 0.64966285432079, -0.23946795146164, 0
301, 0.94773541120364, -0.19301717853955, 0
302, 0.94703498818497, -0.24640899646987, 0
303, 0.41048252708268, -0.24933357533142, 0
304, 0.37105149351792, -0.20161548656307, 0
305, 0.42034515083517, -0.23215133812044, 0
306, 0.54627478534141, -0.23221275345945, 0
307, 0.54197509302599, -0.19927455302614, 0
308, 0.57151032708141, -0.23457405684021, 0
309, 0.79375320464093, -0.16602621765448, 0
310, 0.7782919050355, -0.13425042890672, 0
311, 0.46210461398321, 0.21278603757017, 0
312, 0.49393666436142, 0.24761128703536, 0
313, 0.49937572342677, 0.20419116160781, 0
314, 0.25174209915172, -0.11828194973657, 0
315, 0.29270486447177, -0.11327331866541, 0
316, 0.2874383298115, -0.15123108736922, 0
317, 0.63317946202377, 0.16534797138621, 0
318, 0.57149529863837, 0.10753177113268, 0
319, 0.54432305668649, 0.24885795224729, 0
320, 0.56132119361641, 0.20320161335936, 0
321, 0.54225731947741, 0.18846362946201, 0
322, 0.50069836620016, -0.27075164957678, 0
323, 0.48703900896488, -0.24492779709287, 0
324, 0.38930331323337, -0.27143974703921, 0
325, 0.73557629836948, -0.18988931800895, 0
326, 0.83860739567392, -0.24703796650906, 0
327, 0.28563692556241, -0.042983260705476, 0
328, 0.29306431071046, -0.085780193892068, 0
329, 0.25231516537745, -0.066315690473341, 0
330, 0.73517440167466, 0.12052648441498, 0
331, 0.76410883834932, 0.11900127023683, 0
332, 0.97363055132057, 0.22077418332334, 0
333, 0.81627123943825, 0.24781444289494, 0
334, 0.84321265930339, 0.22106535804863, 0
335, 0.76471505614737, 0.16936399649922, 0
336, 0.20373526919157, 0.054949421177607, 0
337, 0.23089968935333, 0.090890943900751, 0
338, 0.24434594782345, 0.04913269651494, 0
339, 0.86638403910048, -0.22079028865561, 0
340, 0.89629407163069, -0.16709524208301, 0
341, 0.62632330201718, -0.20970432027901, 0
342, 0.8125650992361, -0.27322695740492, 0
343, 0.779726523334, -0.040117597356596, 0
344, 0.89351649056911, -0.22055224182782, 0
345, 0.67528783259768, -0.24157954252826, 0
346, 0.94714181161878, -0.27308573291819, 0
347, 0.8937721052092, -0.27322212616828, 0
348, 0.84265706941023, 0.24761325067962, 0
349, 0.79584870266326, 0.065484185183382, 0
350, 0.87347945175124, 0.059727223916302, 0
351, 0.82340383187579, 0.036015259733766, 0
352, 0.025889547494211, 0.13547355134233, 0
353, 0.02601524924745, 0.19075120267714, 0
354, 0.052237079814956, 0.16434453644445, 0
355, 0.025828234241451, 0.16315112090175, 0
356, 0.97403967247384, -0.19222559830872, 0
357, 0.94837095691712, -0.16594355849261, 0
358, 0.97451498044766, -0.13733964039627, 0
359, 0.97431803256896, -0.16491301355281, 0
360, 0.70312361294965, -0.27205737202385, 0
361, 0.8241864643605, -0.13829103759213, 0
362, 0.76022623085177, -0.064328440295212, 0
363, 0.92048232156338, -0.2202159038078, 0
364, 0.025909227825805, -0.1365019892606, 0
365, 0.051886935304253, -0.16376048801322, 0
366, 0.025990823559128, -0.19128744385011, 0
367, 0.025895478162018, -0.16394110873053, 0
368, 0.31827660116575, -0.27220827223421, 0
369, 0.26519029825614, -0.27372326422441, 0
370, 0.29294714170718, -0.24671325113911, 0
371, 0.29224287386939, -0.27356121177243, 0
372, 0.69125903567265, 0.050832178982683, 0
373, 0.82034343283818, 0.089843901212345, 0
374, 0.8489093530131, 0.033836032008768, 0
375, 0.34136174759484, 0.24346037750802, 0
376, 0.31837578407234, 0.2705840571373, 0
377, 0.36992860394902, 0.27385628015859, 0
378, 0.34328781299228, 0.27202940232853, 0
379, 0.1309073448702, -0.24616362133272, 0
380, 0.15705013177641, -0.27327163638145, 0
381, 0.10422193401015, -0.27292808266949, 0
382, 0.13053506989101, -0.27308759571052, 0
383, 0.97465950502406, -0.026037595811, 0
384, 0.9746799050506, -0.081704713957224, 0
385, 0.9496694493692, -0.054313332238696, 0
386, 0.97465581427264, -0.053848177754338, 0
387, 0.29393622236832, 0.24117051374411, 0
388, 0.26859770780245, 0.27191394726206, 0
389, 0.29390290147154, 0.27116158558884, 0
390, 0.57396860148367, 0.27440448287865, 0
391, 0.52113244394977, 0.26958835537881, 0
392, 0.54641211866695, 0.27362710048291, 0
393, 0.79757925001062, 0.038698113421949, 0
394, 0.84436643264242, 0.16785796202726, 0
395, 0.92139431557241, 0.27353102953672, 0
396, 0.84379827377492, 0.19445098966107, 0
397, 0.92233145418193, -0.16664193930469, 0
398, 0.81443074334581, -0.19430672558785, 0
399, 0.82618857337663, -0.019536086589792, 0
400, 0.052850276563675, 0.27267907960281, 0
401, 0.026447904736266, 0.2453986694646, 0
402, 0.02648416935843, 0.27253970273048, 0
403, 0.051849548871579, -0.10876454545404, 0
404, 0.026177643300877, -0.081674606717676, 0
405, 0.025970680563478, -0.10904356354148, 0
406, 0.4708096650183, 0.27166342875772, 0
407, 0.49698631858119, 0.27358392592629, 0
408, 0.2384797529114, -0.2475847183912, 0
409, 0.21077630375342, -0.27365355950666, 0
410, 0.23795791073242, -0.27378182010163, 0
411, 0.84786746625528, 0.061226401057879, 0
412, 0.94949590648535, 0.085062605191799, 0
413, 0.86993279430476, 0.19401661238698, 0
414, 0.94959968465146, 0.0018513265986014, 0
415, 0.87258979098521, 0.086943120342135, 0
416, 0.97467440135115, 0.0017282195797019, 0
417, 0.9235784396374, 0.11259982511056, 0
418, 0.97482558981588, 0.11262961978197, 0
419, 0.87053752014288, 0.16729160148636, 0
420, 0.97364389010384, -0.24617455512845, 0
421, 0.97360694624668, -0.27301616009237, 0
422, 0.94942849739103, -0.11060088345443, 0
423, 0.97464487760864, -0.10957015532359, 0
424, 0.02620122799801, -0.24560070506242, 0
425, 0.052093331409483, -0.27264614723932, 0
426, 0.02616191892484, -0.27266129138634, 0
427, 0.053377498739467, 0.00044789438330719, 0
428, 0.026611552318374, -0.027403272603452, 0
429, 0.026863104026104, 0.026207954165815, 0
430, 0.026839986063023, -0.00055665857699882, 0
431, 0.44627164266211, -0.27917287696442, 0
432, 0.39992001752688, -0.19152615022878, 0
433, 0.461991269354, -0.24922756233127, 0
434, 0.5266509161498, -0.26891926940512, 0
435, 0.052488043978902, -0.053876502942567, 0
436, 0.026324673143849, -0.054455603416954, 0
437, 0.68191778464689, 0.27407136960423, 0
438, 0.71032435350039, 0.24801669804344, 0
439, 0.70855559875081, 0.27412992022316, 0
440, 0.16091069846345, 0.2735760453739, 0
441, 0.13394609570831, 0.24694219062515, 0
442, 0.10634979894331, 0.27330692887349, 0
443, 0.13354593817627, 0.27356740086641, 0
444, 0.62858861957924, 0.2740878088463, 0
445, 0.60316776932196, 0.24966721386297, 0
446, 0.60154020437473, 0.27433044666266, 0
447, 0.44254090824636, 0.24295506861533, 0
448, 0.42111605523303, 0.27090859093914, 0
449, 0.44578576296575, 0.27163042916779, 0
450, 0.18418263149701, -0.24697191658064, 0
451, 0.18379765071089, -0.27346178344893, 0
452, 0.89938332154715, 0.030970829855207, 0
453, 0.92430858049235, 0.057911702777036, 0
454, 0.18853855979845, 0.24682811309428, 0
455, 0.21550477925663, 0.27313621942933, 0
456, 0.18828401386947, 0.27346329592664, 0
457, 0.078425047718264, -0.24557964614088, 0
458, 0.078087351964887, -0.27278936041524, 0
459, 0.39434483570596, 0.244401028155, 0
460, 0.39632081210335, 0.27226663182618, 0
461, 0.24278123163443, 0.2453503517125, 0
462, 0.24237902210874, 0.27270078557144, 0
463, 0.65735612378379, 0.24824790661698, 0
464, 0.65529745716537, 0.27406734920957, 0
465, 0.34220557223909, -0.23939601142861, 0
466, 0.36584021039637, -0.2700778759223, 0
467, 0.34272106062625, -0.27103767594536, 0
468, 0.026284167700733, 0.080386799082525, 0
469, 0.052728326404289, 0.05463089089207, 0
470, 0.026552120811778, 0.053146573066836, 0
471, 0.73700791469822, -0.056713228328344, 0
472, 0.76195603109448, -0.096983877217694, 0
473, 0.57455413285423, -0.26728359272642, 0
474, 0.55082133820909, -0.2659410429787, 0
475, 0.73817590812503, 0.19544128913462, 0
476, 0.92256449668036, 0.16657159469171, 0
477, 0.79148731208728, 0.16898332851098, 0
478, 0.44062643535258, -0.20891125942309, 0
479, 0.5205995804098, -0.24170110514151, 0
480, 0.89955988788462, -0.11116705834445, 0
481, 0.70018169847455, -0.021474306948531, 0
482, 0.75577928546793, -0.24623387831964, 0
483, 0.89894000593075, 0.058634375170796, 0
484, 0.97460327779267, 0.14010119838254, 0
485, 0.052192633264725, 0.1096043226963, 0
486, 0.026026638959922, 0.10785674572954, 0
487, 0.67811498990751, -0.21177452849568, 0
488, 0.74916108313072, -0.0065899962834509, 0
489, 0.92491674973398, -0.054299567378169, 0
490, 0.92021867720593, -0.24665078522487, 0
491, 0.39252051129313, -0.21392902365765, 0
492, 0.07984116239193, 0.24605078643212, 0
493, 0.079451376321383, 0.27298372175547, 0
494, 0.59750821612352, -0.23722188614144, 0
495, 0.59920759500807, -0.26852195599666, 0
496, 0.94726186954798, -0.21978492803277, 0
497, 0.97380752758644, -0.2192821564777, 0
498, 0.81836998586645, 0.14220030226502, 0
499, 0.89515177501683, 0.27368889457895, 0
500, 0.052243592635599, -0.21827074853572, 0
501, 0.026090935288258, -0.21850109657371, 0
502, 0.13340657530903, 0.19366274722491, 0
503, 0.10672342070392, 0.2198254958241, 0
504, 0.16112875935817, 0.22046934712054, 0
505, 0.13386226020202, 0.22030389815857, 0
506, 0.90026365973643, -0.082510315420152, 0
507, 0.68400814301188, -0.1436389267841, 0
508, 0.7713305096087, 0.041816493544049, 0
509, 0.89320601767171, -0.246839714359, 0
510, 0.052855121409832, 0.21855692142565, 0
511, 0.02621855221051, 0.21816278001474, 0
512, 0.73784389653587, 0.22173936508249, 0
513, 0.9245074589687, 0.030194321030269, 0
514, 0.97477540726792, 0.029479341821597, 0
515, 0.89716436404106, 0.13998926931025, 0
516, 0.58873440286395, -0.14863201970232, 0
517, 0.57865053215783, -0.17609041422995, 0
518, 0.56267548476291, -0.14093815331906, 0
519, 0.13044331525179, -0.19217475818745, 0
520, 0.15735249148761, -0.21982619212413, 0
521, 0.10457290469441, -0.21873754684749, 0
522, 0.13086755969721, -0.21921852108898, 0
523, 0.97361525936165, 0.27342939394169, 0
524, 0.74222696014061, 0.071266008102713, 0
525, 0.94796131801301, 0.19351766872443, 0
526, 0.92437856946556, -0.11110194313777, 0
527, 0.68619026148233, -0.043969681223739, 0
528, 0.66368991887633, -0.17735007270032, 0
529, 0.75697321474915, -0.21944549064451, 0
530, 0.92121755152148, 0.24690735051044, 0
531, 0.73772407656953, 0.16947740951964, 0
532, 0.82202211924321, 0.063147552090879, 0
533, 0.94848430850757, 0.16666005915602, 0
534, 0.26689151893998, -0.22153498319943, 0
535, 0.29674891640563, -0.19586791828839, 0
536, 0.32270485654181, -0.21341227637289, 0
537, 0.29527061398053, -0.22045562626528, 0
538, 0.89973934673064, 0.0030117080257853, 0
539, 0.92464393794091, 0.0022386542739175, 0
540, 0.97352445166545, 0.24713168852292, 0
541, 0.89835321105245, 0.085994781955549, 0
542, 0.73797598005713, 0.096535861983803, 0
543, 0.84662150420665, 0.08822754016975, 0
544, 0.60661206271941, -0.18033394975772, 0
545, 0.85101560782036, -0.10993898928531, 0
546, 0.61737798079127, -0.15432177825345, 0
547, 0.32625542072718, 0.047552592545045, 0
548, 0.30706813341894, 0.087340925943875, 0
549, 0.33486077589392, 0.10281502257612, 0
550, 0.33059628144708, 0.074454268347931, 0
551, 0.78294482335633, -0.1023298589267, 0
552, 0.73029398509242, -0.27263863322512, 0
553, 0.82859627113204, -0.078201339257205, 0
554, 0.84836836586794, -0.13911519150195, 0
555, 0.77573098184521, -0.011697301042025, 0
556, 0.87547197473765, -0.024017125038891, 0
557, 0.41665744955561, 0.20901638845942, 0
558, 0.43907568800091, 0.21317338428401, 0
559, 0.31962391876023, 0.14464867311032, 0
560, 0.35345921877682, 0.15226916745713, 0
561, 0.34300939544634, 0.12947527104702, 0
562, 0.92146099116586, 0.22019808587646, 0
563, 0.79191826905128, 0.1174965639434, 0
564, 0.79117374877235, 0.19521875056274, 0
565, 0.26311732150047, -0.01212555555623, 0
566, 0.30090182700932, 0.0030778714342755, 0
567, 0.28950098137334, -0.01889235028766, 0
568, 0.89774027176873, 0.11307905916174, 0
569, 0.84983737318884, 0.0060758634298733, 0
570, 0.87482842798263, 0.0042642484965453, 0
571, 0.94751647539601, 0.2733959593781, 0
572, 0.7915000311275, 0.14307722232046, 0
573, 0.87175077302025, 0.11384679006163, 0
574, 0.61705749849617, 0.13517677996254, 0
575, 0.5807544279446, 0.22659758830109, 0
576, 0.66000684034739, 0.19500835639192, 0
577, 0.7991124562, 0.011603649024019, 0
578, 0.65953773126825, 0.024027468379199, 0
579, 0.71770390527008, 0.04847096353907, 0
580, 0.18335613443734, -0.19399275624634, 0
581, 0.21124390970202, -0.22119753277941, 0
582, 0.18411439394922, -0.22051560870639, 0
583, 0.078168232804799, -0.081000618435972, 0
584, 0.10315205157129, -0.1087767362804, 0
585, 0.077628206298147, -0.13634505420525, 0
586, 0.077591368708958, -0.10865796764553, 0
587, 0.87599202846174, -0.081749310267282, 0
588, 0.75488285890458, -0.034146989038502, 0
589, 0.62462320719763, -0.26960522443908, 0
590, 0.80555273498019, -0.075000448578872, 0
591, 0.66985393708828, -0.019855269212406, 0
592, 0.80481648092712, -0.10600288404721, 0
593, 0.87600169577275, -0.052721372923345, 0
594, 0.10429491205862, -0.053221567610707, 0
595, 0.079252925740411, -0.026030955477523, 0
596, 0.078480498729146, -0.053446866942383, 0
597, 0.55649691862273, 0.11917495285825, 0
598, 0.23805603753748, -0.19618475971776, 0
599, 0.23883035128552, -0.22168930022249, 0
600, 0.6867134423327, -0.1816032470107, 0
601, 0.84116473830238, -0.19447210494509, 0
602, 0.10623702786289, 0.0015559398852066, 0
603, 0.079932880020308, 0.028198926794813, 0
604, 0.079802549400608, 0.0011513507381371, 0
605, 0.59116142317479, 0.17121065833339, 0
606, 0.52859039918222, 0.16621160089193, 0
607, 0.52889958410343, 0.21455399433624, 0
608, 0.68557592462656, 0.19513360260665, 0
609, 0.65750507723574, 0.16759971796801, 0
610, 0.29110740539969, 0.033896566319178, 0
611, 0.31606849105718, 0.023904652250151, 0
612, 0.68739285615452, 0.078054056692298, 0
613, 0.66092560262742, 0.079449686172918, 0
614, 0.74550069714879, -0.16114783477437, 0
615, 0.74159618747723, -0.089707900584829, 0
616, 0.69039818776228, 0.0022558675106867, 0
617, 0.3855309856767, -0.24084752499784, 0
618, 0.51628042294287, -0.21740403989057, 0
619, 0.47463701357006, -0.27384244309893, 0
620, 0.15519995871893, -0.053636784121159, 0
621, 0.12966689815303, -0.08118036300723, 0
622, 0.13153445729441, -0.025511746856013, 0
623, 0.12989579573039, -0.053253947055642, 0
624, 0.76469609274445, 0.19542661635082, 0
625, 0.73001103679971, -0.2176861250153, 0
626, 0.70838295925062, 0.099325683012632, 0
627, 0.71483664244958, 0.074609681343171, 0
628, 0.57496068142533, 0.14462835716568, 0
629, 0.7117371995513, 0.19528922216546, 0
630, 0.71154537114464, 0.22169419076397, 0
631, 0.40183276811159, -0.15383653719952, 0
632, 0.41666509105097, -0.179636279302, 0
633, 0.7036695309556, -0.21505116224439, 0
634, 0.7877961905187, -0.19368817472736, 0
635, 0.85086874791361, -0.022151705456493, 0
636, 0.70270207988745, -0.10712054312065, 0
637, 0.15566359489083, -0.16583768125301, 0
638, 0.17987100900541, -0.13950415173142, 0
639, 0.20819452815727, -0.16865138671072, 0
640, 0.18177501743175, -0.16709816781363, 0
641, 0.15949236816495, 0.001633486849477, 0
642, 0.13334903342572, 0.028427750852181, 0
643, 0.13277848699238, 0.0016924051587863, 0
644, 0.18808488828214, 0.19393273495716, 0
645, 0.21598967854659, 0.21960370281539, 0
646, 0.18851866537495, 0.22028519632116, 0
647, 0.078537854239082, 0.13818716339296, 0
648, 0.10447185477751, 0.11156501997643, 0
649, 0.078440078688854, 0.083189397091527, 0
650, 0.078372483005401, 0.11077984814688, 0
651, 0.10447370336046, 0.055890869336567, 0
652, 0.078698673855431, 0.055515039915776, 0
653, 0.12992774607283, 0.084048184155175, 0
654, 0.15518228450429, 0.055310145206897, 0
655, 0.12999994412899, 0.055804389803954, 0
656, 0.67073648115655, 0.12254198883981, 0
657, 0.55219960667106, 0.22662323781175, 0
658, 0.78879055035432, 0.27414228797339, 0
659, 0.76412431288123, 0.14387063722383, 0
660, 0.89543803914823, 0.22041095007448, 0
661, 0.36884250115668, -0.13262461848924, 0
662, 0.39351655356282, -0.12809006634851, 0
663, 0.34641044536443, 0.18478755905099, 0
664, 0.3953357622976, 0.18689869155392, 0
665, 0.37201984862451, 0.16964564468085, 0
666, 0.74463182150493, 0.045194680266013, 0
667, 0.68917392000723, 0.025358808046462, 0
668, 0.78428181805841, -0.22041443645708, 0
669, 0.89460957298815, -0.19406272406609, 0
670, 0.64936154731931, -0.15448967645773, 0
671, 0.73759890176123, -0.12450676135019, 0
672, 0.59358637693194, 0.10495866307131, 0
673, 0.6338002379239, 0.22251686254359, 0
674, 0.51426482004743, 0.18871807910816, 0
675, 0.24412375360264, 0.19210583878667, 0
676, 0.27022622446728, 0.21479044842036, 0
677, 0.24342920867218, 0.21832021851121, 0
678, 0.33557926036205, -0.12262014163478, 0
679, 0.31343413982206, -0.10427987304724, 0
680, 0.23298879929079, -0.032734178659015, 0
681, 0.2126720486633, 0.001520627907205, 0
682, 0.24617599447731, 0.019919666064256, 0
683, 0.23769670567579, -0.0051159538829515, 0
684, 0.97486852602644, 0.08498273818946, 0
685, 0.87110703838503, 0.14058202698438, 0
686, 0.18394524919365, 0.1405792514645, 0
687, 0.1592679163753, 0.16729885175335, 0
688, 0.21363907021654, 0.16737912356198, 0
689, 0.1862826669891, 0.16751307543357, 0
690, 0.90009869879595, -0.02524562908787, 0
691, 0.83910311811312, -0.22090749949247, 0
692, 0.078167114574731, -0.19119822182447, 0
693, 0.078389576114989, -0.21840684618942, 0
694, 0.87033061752433, -0.16733242829494, 0
695, 0.20741501110909, 0.11381760045302, 0
696, 0.18006537477928, 0.084195688821413, 0
697, 0.15614412433398, 0.11242637081899, 0
698, 0.18169671446437, 0.11287747782015, 0
699, 0.1037853368529, -0.16423454783983, 0
700, 0.077856751920101, -0.16386351764073, 0
701, 0.12893357995399, -0.13722527259051, 0
702, 0.15356699896361, -0.109918352696, 0
703, 0.12848987703161, -0.10917552585579, 0
704, 0.12970054508667, -0.16488612168743, 0
705, 0.079366978518482, 0.19233130574133, 0
706, 0.079712263625529, 0.21919140880561, 0
707, 0.23116465701011, -0.14373593748443, 0
708, 0.26339827941184, -0.17213055128493, 0
709, 0.23523296798295, -0.17050584327321, 0
710, 0.80074027104089, -0.13677798243452, 0
711, 0.72861386755729, -0.027401381216379, 0
712, 0.82783364866813, -0.048432010361956, 0
713, 0.87308201327952, -0.13946099377572, 0
714, 0.65946206502081, 0.22200982444083, 0
715, 0.70708944122992, 0.1445780064299, 0
716, 0.71060703218582, 0.16924305589456, 0
717, 0.76422775175, 0.2217302793032, 0
718, 0.94731002638824, 0.24683434245172, 0
719, 0.63551668722127, 0.19486488604337, 0
720, 0.68539864973305, 0.22174423943118, 0
721, 0.67642744812829, -0.27114964849346, 0
722, 0.85183659530597, -0.050986960688526, 0
723, 0.92123289748927, -0.19362002920941, 0
724, 0.59835527577339, -0.20781112722926, 0
725, 0.86893874819427, 0.24738102699772, 0
726, 0.73606384682253, 0.14443611791115, 0
727, 0.76926128908682, 0.068206667653102, 0
728, 0.94961715966847, 0.057490471728344, 0
729, 0.28893296548252, 0.12596345178266, 0
730, 0.26884977504399, 0.16070612464491, 0
731, 0.29933883509999, 0.18078418710949, 0
732, 0.29478622333875, 0.15371289767244, 0
733, 0.25985761513791, 0.10623002760223, 0
734, 0.27744128812092, 0.06899317495442, 0
735, 0.28368231704, 0.097352862125519, 0
736, 0.3223088555604, -0.16002867340118, 0
737, 0.29396960130364, -0.17319719332942, 0
738, 0.80124722815166, -0.016065108284519, 0
739, 0.18334200500136, -0.026087088795842, 0
740, 0.18903284798093, 0.027640110645354, 0
741, 0.1863112482139, 0.0015284594803107, 0
742, 0.20291132831895, -0.11272101880004, 0
743, 0.233612514109, -0.089258448970398, 0
744, 0.22737168840674, -0.11527941160514, 0
745, 0.8981691639514, -0.13945144715269, 0
746, 0.76329715322558, 0.24804081943399, 0
747, 0.10563021573742, 0.16620426998941, 0
748, 0.078886812923393, 0.16536181675508, 0
749, 0.13131525996407, 0.13969140306069, 0
750, 0.13041327963622, 0.11207331110336, 0
751, 0.20431249311228, -0.056411665645358, 0
752, 0.22825585476665, -0.061123248674869, 0
753, 0.13241620013955, 0.16685972819589, 0
754, 0.76916194846665, -0.1642213245992, 0
755, 0.86599979195496, -0.24697051888758, 0
756, 0.36719973661023, 0.22287480635361, 0
757, 0.39339456553327, 0.21602308049443, 0
758, 0.81754778355733, 0.19487372957245, 0
759, 0.23816553985045, 0.14137940437091, 0
760, 0.23461258732835, 0.11609025697124, 0
761, 0.24165859080268, 0.16672203778281, 0
762, 0.26704185359954, 0.041739820569189, 0
763, 0.3191876321933, 0.20640609370886, 0
764, 0.3415474547905, 0.21409993362269, 0
765, 0.64161934135049, 0.10207006877547, 0
766, 0.59460290755411, 0.13690482820944, 0
767, 0.29567949212325, 0.21064297439588, 0
768, 0.72321422435515, -0.15649894212166, 0
769, 0.65724243153115, 0.0013636677272271, 0
770, 0.17987267944747, 0.054669706780708, 0
771, 0.35321934399059, -0.17515037908713, 0
772, 0.34785834102211, -0.20671812084599, 0
773, 0.70151085025414, -0.24363756844171, 0
774, 0.71058741460655, -0.18621710482006, 0
775, 0.60784001079549, 0.22445145807484, 0
776, 0.92053221029622, -0.2731697445198, 0
777, 0.81894349984917, -0.16695218758349, 0
778, 0.7123851638697, -0.048860088822118, 0
779, 0.18085884127168, -0.082988233742685, 0
780, 0.17836379354415, -0.11107852978799, 0
781, 0.89658970927992, 0.16682784139599, 0
782, 0.82465448713989, 0.0085122252229804, 0
783, 0.18006489643465, -0.054568510307362, 0
784, 0.70445825981708, 0.12191517570366, 0
785, 0.72839942165757, -0.24520343007334, 0
786, 0.83979503292866, -0.27325989984715, 0
787, 0.74600889493587, 0.019351169751161, 0
788, 0.87506591165292, -0.11080306043618, 0
789, 0.66613011850998, 0.050220676742441, 0
790, 0.34826965365624, -0.14703027168895, 0
791, 0.79361391365936, 0.091778430800247, 0
792, 0.94962544146529, 0.029746298612976, 0
793, 0.80388232055744, -0.044868504070399, 0
794, 0.48125738295464, -0.22721318933827, 0
795, 0.55228516774286, -0.17007204883096, 0
796, 0.72091847289945, -0.0013841535293246, 0
797, 0.48532738488166, 0.22099116962451, 0
798, 0.27731941830031, -0.12751661164094, 0
799, 0.61176520952622, 0.19717793065394, 0
800, 0.55462122226469, 0.15835503198338, 0
801, 0.43124769013428, -0.22063599786688, 0
802, 0.27717373538392, -0.065309375633772, 0
803, 0.73525362602623, 0.27416209826109, 0
804, 0.8421981947899, 0.27397472938309, 0
805, 0.22631024247761, 0.064499803917502, 0
806, 0.84451534649429, -0.16732179724454, 0
807, 0.54118006827539, 0.13825111410835, 0
808, 0.63144561512955, 0.11785679739415, 0
******* E L E M E N T S *************
*ELEMENT, type=CPS4, ELSET=Surface1
1, 776, 36, 44, 346
2, 601, 691, 339, 291
3, 768, 774, 325, 614
4, 309, 634, 398, 777
5, 507, 636, 167, 124
6, 529, 482, 298, 668
7, 361, 554, 545, 293
8, 541, 415, 350, 483
9, 533, 476, 250, 245
10, 245, 250, 417, 252
11, 74, 67, 395, 571
12, 187, 354, 355, 352
13, 352, 355, 103, 114
14, 355, 353, 113, 103
15, 354, 190, 353, 355
16, 58, 358, 359, 47
17, 47, 359, 356, 57
18, 359, 357, 301, 356
19, 358, 290, 357, 359
20, 528, 182, 487, 600
21, 788, 480, 506, 587
22, 636, 274, 123, 167
23, 527, 778, 481, 591
24, 120, 366, 367, 109
25, 109, 367, 364, 119
26, 367, 365, 225, 364
27, 366, 216, 365, 367
28, 177, 370, 371, 368
29, 368, 371, 15, 23
30, 371, 369, 22, 15
31, 370, 174, 369, 371
32, 684, 412, 728, 242
33, 624, 475, 531, 335
34, 64, 266, 240, 53
35, 269, 803, 271, 746
36, 200, 377, 378, 375
37, 375, 378, 376, 198
38, 378, 87, 95, 376
39, 377, 94, 87, 378
40, 173, 381, 382, 379
41, 379, 382, 380, 172
42, 382, 12, 20, 380
43, 381, 19, 12, 382
44, 276, 385, 386, 383
45, 383, 386, 49, 60
46, 386, 384, 59, 49
47, 385, 275, 384, 386
48, 198, 376, 389, 387
49, 387, 389, 388, 197
50, 389, 88, 96, 388
51, 376, 95, 88, 389
52, 6, 81, 392, 390
53, 390, 392, 319, 179
54, 392, 391, 258, 319
55, 81, 84, 391, 392
56, 5, 66, 523, 55
57, 718, 530, 562, 273
58, 55, 523, 540, 65
59, 331, 330, 542, 268
60, 293, 545, 295, 553
61, 298, 278, 342, 277
62, 769, 578, 122, 9
63, 806, 601, 291, 694
64, 100, 93, 402, 400
65, 400, 402, 401, 191
66, 402, 101, 112, 401
67, 93, 8, 101, 402
68, 228, 404, 405, 403
69, 403, 405, 364, 225
70, 405, 108, 119, 364
71, 404, 118, 108, 405
72, 84, 82, 407, 391
73, 391, 407, 312, 258
74, 407, 406, 201, 312
75, 82, 85, 406, 407
76, 175, 409, 410, 408
77, 408, 410, 369, 174
78, 410, 14, 22, 369
79, 409, 21, 14, 410
80, 241, 804, 348, 725
81, 242, 728, 792, 514
82, 573, 247, 543, 415
83, 250, 515, 568, 417
84, 658, 269, 746, 272
85, 50, 416, 383, 60
86, 416, 414, 276, 383
87, 67, 75, 499, 395
88, 330, 784, 626, 542
89, 75, 68, 241, 499
90, 477, 335, 659, 572
91, 63, 484, 418, 52
92, 44, 37, 421, 346
93, 346, 421, 420, 302
94, 421, 45, 56, 420
95, 37, 4, 45, 421
96, 275, 422, 423, 384
97, 384, 423, 48, 59
98, 423, 358, 58, 48
99, 422, 290, 358, 423
100, 121, 111, 426, 424
101, 424, 426, 425, 171
102, 426, 10, 18, 425
103, 111, 1, 10, 426
104, 214, 429, 430, 427
105, 427, 430, 428, 227
106, 430, 106, 117, 428
107, 429, 116, 106, 430
108, 288, 308, 494, 724
109, 617, 324, 176, 303
110, 432, 236, 304, 491
111, 322, 619, 28, 26
112, 227, 428, 436, 435
113, 435, 436, 404, 228
114, 436, 107, 118, 404
115, 428, 117, 107, 436
116, 255, 438, 439, 437
117, 437, 439, 71, 79
118, 300, 296, 589, 299
119, 271, 438, 630, 512
120, 98, 91, 443, 440
121, 440, 443, 441, 194
122, 443, 442, 192, 441
123, 91, 99, 442, 443
124, 80, 73, 446, 444
125, 444, 446, 445, 257
126, 446, 390, 179, 445
127, 73, 6, 390, 446
128, 201, 406, 449, 447
129, 447, 449, 448, 170
130, 449, 83, 7, 448
131, 406, 85, 83, 449
132, 172, 380, 451, 450
133, 450, 451, 409, 175
134, 451, 13, 21, 409
135, 380, 20, 13, 451
136, 746, 271, 512, 717
137, 515, 685, 573, 568
138, 251, 334, 396, 413
139, 540, 718, 273, 332
140, 195, 455, 456, 454
141, 454, 456, 440, 194
142, 456, 90, 98, 440
143, 455, 97, 90, 456
144, 171, 425, 458, 457
145, 457, 458, 381, 173
146, 458, 11, 19, 381
147, 425, 18, 11, 458
148, 170, 448, 460, 459
149, 459, 460, 377, 200
150, 460, 86, 94, 377
151, 448, 7, 86, 460
152, 197, 388, 462, 461
153, 461, 462, 455, 195
154, 462, 89, 97, 455
155, 388, 96, 89, 462
156, 79, 72, 464, 437
157, 437, 464, 463, 255
158, 464, 444, 257, 463
159, 72, 80, 444, 464
160, 23, 16, 467, 368
161, 368, 467, 465, 177
162, 467, 466, 178, 465
163, 16, 24, 466, 467
164, 115, 105, 470, 468
165, 468, 470, 469, 213
166, 470, 429, 214, 469
167, 105, 116, 429, 470
168, 722, 593, 556, 635
169, 668, 298, 277, 294
170, 614, 325, 181, 754
171, 616, 796, 287, 667
172, 466, 24, 17, 324
173, 795, 518, 127, 163
174, 474, 27, 3, 473
175, 324, 17, 2, 176
176, 484, 245, 252, 418
177, 272, 746, 717, 253
178, 453, 483, 452, 513
179, 323, 322, 434, 479
180, 303, 176, 431, 169
181, 433, 169, 431, 619
182, 176, 2, 25, 431
183, 526, 422, 275, 183
184, 180, 544, 724, 341
185, 769, 616, 667, 578
186, 281, 489, 284, 690
187, 417, 568, 541, 246
188, 78, 71, 439, 803
189, 660, 251, 413, 265
190, 523, 571, 718, 540
191, 114, 104, 486, 352
192, 352, 486, 485, 187
193, 486, 468, 213, 485
194, 104, 115, 468, 486
195, 279, 33, 41, 278
196, 773, 360, 552, 785
197, 363, 490, 302, 496
198, 671, 280, 472, 615
199, 632, 130, 160, 631
200, 801, 478, 632, 432
201, 323, 433, 619, 322
202, 322, 26, 29, 434
203, 99, 92, 493, 442
204, 442, 493, 492, 192
205, 493, 400, 191, 492
206, 92, 100, 400, 493
207, 308, 473, 495, 494
208, 552, 40, 33, 279
209, 473, 3, 30, 495
210, 57, 356, 497, 46
211, 46, 497, 420, 56
212, 497, 496, 302, 420
213, 356, 301, 496, 497
214, 70, 78, 803, 269
215, 332, 273, 525, 266
216, 247, 239, 373, 543
217, 413, 396, 394, 419
218, 120, 110, 501, 366
219, 366, 501, 500, 216
220, 501, 424, 171, 500
221, 110, 121, 424, 501
222, 188, 504, 505, 502
223, 502, 505, 503, 189
224, 505, 441, 192, 503
225, 504, 194, 441, 505
226, 723, 363, 496, 301
227, 553, 295, 722, 712
228, 593, 281, 690, 556
229, 627, 579, 666, 524
230, 191, 401, 511, 510
231, 510, 511, 353, 190
232, 511, 102, 113, 353
233, 401, 112, 102, 511
234, 265, 413, 419, 781
235, 66, 74, 571, 523
236, 244, 498, 239, 247
237, 395, 499, 248, 530
238, 164, 127, 518, 126
239, 126, 518, 516, 165
240, 323, 479, 618, 794
241, 221, 521, 522, 519
242, 519, 522, 520, 222
243, 522, 379, 172, 520
244, 521, 173, 379, 522
245, 266, 525, 533, 240
246, 499, 241, 725, 248
247, 791, 268, 727, 349
248, 61, 514, 416, 50
249, 635, 556, 570, 569
250, 507, 124, 166, 670
251, 555, 738, 577, 286
252, 528, 180, 341, 182
253, 396, 758, 243, 394
254, 685, 244, 247, 573
255, 476, 781, 515, 250
256, 174, 370, 537, 534
257, 534, 537, 535, 218
258, 537, 536, 237, 535
259, 370, 177, 536, 537
260, 514, 792, 414, 416
261, 490, 776, 346, 302
262, 670, 166, 125, 546
263, 273, 562, 270, 525
264, 562, 660, 265, 270
265, 524, 666, 508, 727
266, 51, 242, 514, 61
267, 571, 395, 530, 718
268, 556, 690, 538, 570
269, 795, 517, 516, 518
270, 546, 125, 165, 516
271, 745, 283, 526, 480
272, 154, 549, 550, 136
273, 136, 550, 547, 155
274, 550, 548, 204, 547
275, 549, 203, 548, 550
276, 755, 285, 347, 509
277, 399, 635, 569, 782
278, 310, 710, 592, 551
279, 285, 35, 43, 347
280, 527, 591, 145, 168
281, 554, 713, 788, 545
282, 340, 669, 723, 397
283, 347, 43, 36, 776
284, 170, 557, 558, 447
285, 447, 558, 311, 201
286, 558, 139, 151, 311
287, 557, 152, 139, 558
288, 153, 560, 561, 137
289, 137, 561, 549, 154
290, 561, 559, 203, 549
291, 560, 202, 559, 561
292, 512, 630, 629, 475
293, 803, 439, 438, 271
294, 717, 512, 475, 624
295, 758, 564, 477, 243
296, 156, 566, 567, 134
297, 134, 567, 327, 157
298, 567, 565, 232, 327
299, 566, 205, 565, 567
300, 572, 659, 331, 563
301, 726, 715, 784, 330
302, 268, 542, 524, 727
303, 334, 249, 758, 396
304, 53, 240, 484, 63
305, 397, 723, 301, 357
306, 713, 745, 480, 788
307, 542, 626, 627, 524
308, 335, 531, 726, 659
309, 240, 533, 245, 484
310, 248, 725, 251, 660
311, 452, 264, 570, 538
312, 629, 630, 720, 608
313, 575, 179, 319, 657
314, 775, 445, 179, 575
315, 672, 574, 766, 318
316, 333, 272, 253, 249
317, 483, 350, 264, 452
318, 694, 291, 669, 340
319, 222, 520, 582, 580
320, 580, 582, 581, 217
321, 582, 450, 175, 581
322, 520, 172, 450, 582
323, 225, 585, 586, 403
324, 403, 586, 583, 228
325, 586, 584, 229, 583
326, 585, 223, 584, 586
327, 754, 181, 634, 309
328, 785, 552, 279, 482
329, 182, 300, 345, 487
330, 295, 587, 593, 722
331, 592, 293, 553, 590
332, 806, 694, 713, 554
333, 777, 398, 601, 806
334, 226, 595, 596, 594
335, 594, 596, 583, 229
336, 596, 435, 228, 583
337, 595, 227, 435, 596
338, 807, 800, 321, 606
339, 799, 775, 575, 256
340, 317, 719, 799, 259
341, 141, 807, 606, 150
342, 174, 534, 599, 408
343, 408, 599, 581, 175
344, 599, 598, 217, 581
345, 534, 218, 598, 599
346, 666, 787, 286, 508
347, 487, 345, 773, 633
348, 215, 603, 604, 602
349, 602, 604, 595, 226
350, 604, 427, 227, 595
351, 603, 214, 427, 604
352, 597, 628, 800, 807
353, 260, 608, 576, 609
354, 765, 613, 612, 261
355, 321, 320, 657, 607
356, 156, 135, 611, 566
357, 566, 611, 610, 205
358, 611, 547, 204, 610
359, 135, 155, 547, 611
360, 605, 256, 320, 263
361, 591, 769, 9, 145
362, 691, 326, 755, 339
363, 800, 263, 320, 321
364, 633, 773, 785, 625
365, 614, 754, 310, 280
366, 634, 668, 294, 398
367, 300, 299, 721, 345
368, 288, 724, 544, 517
369, 794, 129, 161, 478
370, 479, 306, 307, 618
371, 479, 434, 474, 306
372, 801, 432, 491, 305
373, 307, 288, 517, 795
374, 307, 795, 163, 128
375, 231, 622, 623, 620
376, 620, 623, 621, 234
377, 623, 594, 229, 621
378, 622, 226, 594, 623
379, 243, 477, 572, 498
380, 77, 70, 269, 658
381, 612, 372, 579, 627
382, 608, 720, 714, 576
383, 318, 766, 628, 597
384, 720, 255, 463, 714
385, 513, 452, 538, 539
386, 348, 333, 249, 334
387, 478, 161, 130, 632
388, 323, 794, 478, 801
389, 433, 305, 303, 169
390, 434, 29, 27, 474
391, 507, 670, 180, 528
392, 786, 42, 35, 285
393, 339, 755, 509, 344
394, 507, 528, 600, 292
395, 217, 639, 640, 580
396, 580, 640, 637, 222
397, 640, 638, 224, 637
398, 639, 220, 638, 640
399, 211, 642, 643, 641
400, 641, 643, 622, 231
401, 643, 602, 226, 622
402, 642, 215, 602, 643
403, 193, 645, 646, 644
404, 644, 646, 504, 188
405, 646, 454, 194, 504
406, 645, 195, 454, 646
407, 187, 485, 650, 647
408, 647, 650, 648, 185
409, 650, 649, 212, 648
410, 485, 213, 649, 650
411, 213, 469, 652, 649
412, 649, 652, 651, 212
413, 652, 603, 215, 651
414, 469, 214, 603, 652
415, 212, 651, 655, 653
416, 653, 655, 654, 208
417, 655, 642, 211, 654
418, 651, 215, 642, 655
419, 609, 576, 719, 317
420, 254, 262, 260, 609
421, 630, 438, 255, 720
422, 808, 765, 261, 656
423, 65, 540, 332, 54
424, 267, 658, 272, 333
425, 563, 331, 268, 791
426, 246, 541, 483, 453
427, 159, 132, 662, 131
428, 131, 662, 631, 160
429, 662, 661, 236, 631
430, 132, 158, 661, 662
431, 153, 138, 665, 560
432, 560, 665, 663, 202
433, 665, 664, 199, 663
434, 138, 152, 664, 665
435, 341, 724, 494, 296
436, 774, 633, 625, 325
437, 796, 488, 787, 287
438, 122, 578, 789, 146
439, 181, 529, 668, 634
440, 778, 471, 711, 481
441, 694, 340, 745, 713
442, 345, 721, 360, 773
443, 297, 615, 471, 778
444, 325, 625, 529, 181
445, 669, 344, 363, 723
446, 765, 147, 144, 613
447, 256, 575, 657, 320
448, 808, 656, 262, 254
449, 628, 605, 263, 800
450, 196, 676, 677, 675
451, 675, 677, 645, 193
452, 677, 461, 195, 645
453, 676, 197, 461, 677
454, 157, 328, 679, 133
455, 133, 679, 678, 158
456, 679, 315, 238, 678
457, 328, 233, 315, 679
458, 205, 682, 683, 565
459, 565, 683, 680, 232
460, 683, 681, 230, 680
461, 682, 209, 681, 683
462, 374, 351, 782, 569
463, 481, 711, 796, 616
464, 68, 76, 804, 241
465, 727, 508, 393, 349
466, 184, 688, 689, 686
467, 686, 689, 687, 186
468, 689, 644, 188, 687
469, 688, 193, 644, 689
470, 600, 487, 633, 774
471, 299, 589, 38, 31
472, 344, 509, 490, 363
473, 342, 34, 42, 786
474, 216, 500, 693, 692
475, 692, 693, 521, 221
476, 693, 457, 173, 521
477, 500, 171, 457, 693
478, 625, 785, 482, 529
479, 292, 600, 774, 768
480, 186, 697, 698, 686
481, 686, 698, 695, 184
482, 698, 696, 207, 695
483, 697, 208, 696, 698
484, 221, 699, 700, 692
485, 692, 700, 365, 216
486, 700, 585, 225, 365
487, 699, 223, 585, 700
488, 224, 702, 703, 701
489, 701, 703, 584, 223
490, 703, 621, 229, 584
491, 702, 234, 621, 703
492, 223, 699, 704, 701
493, 701, 704, 637, 224
494, 704, 519, 222, 637
495, 699, 221, 519, 704
496, 192, 492, 706, 503
497, 503, 706, 705, 189
498, 706, 510, 190, 705
499, 492, 191, 510, 706
500, 217, 598, 709, 639
501, 639, 709, 707, 220
502, 709, 708, 219, 707
503, 598, 218, 708, 709
504, 488, 555, 286, 787
505, 670, 546, 544, 180
506, 274, 527, 168, 123
507, 712, 722, 635, 399
508, 574, 317, 259, 766
509, 318, 597, 149, 142
510, 351, 393, 577, 782
511, 498, 572, 563, 239
512, 76, 69, 267, 804
513, 792, 513, 539, 414
514, 411, 532, 351, 374
515, 613, 789, 372, 612
516, 254, 609, 317, 574
517, 808, 143, 147, 765
518, 766, 259, 605, 628
519, 716, 629, 608, 260
520, 543, 373, 532, 411
521, 589, 495, 30, 38
522, 284, 276, 414, 539
523, 738, 399, 782, 577
524, 360, 32, 40, 552
525, 280, 310, 551, 472
526, 306, 474, 473, 308
527, 517, 544, 546, 516
528, 52, 418, 684, 62
529, 373, 791, 349, 532
530, 54, 332, 266, 64
531, 350, 411, 374, 264
532, 203, 559, 732, 729
533, 729, 732, 730, 206
534, 732, 731, 196, 730
535, 559, 202, 731, 732
536, 210, 734, 735, 733
537, 733, 735, 729, 206
538, 735, 548, 203, 729
539, 734, 204, 548, 735
540, 218, 535, 737, 708
541, 708, 737, 316, 219
542, 737, 736, 238, 316
543, 535, 237, 736, 737
544, 551, 592, 590, 289
545, 471, 362, 588, 711
546, 274, 297, 778, 527
547, 291, 339, 344, 669
548, 230, 681, 741, 739
549, 739, 741, 641, 231
550, 741, 740, 211, 641
551, 681, 209, 740, 741
552, 233, 743, 744, 314
553, 314, 744, 707, 219
554, 744, 742, 220, 707
555, 743, 235, 742, 744
556, 412, 246, 453, 728
557, 270, 265, 781, 476
558, 532, 349, 393, 351
559, 69, 77, 658, 267
560, 187, 647, 748, 354
561, 354, 748, 705, 190
562, 748, 747, 189, 705
563, 647, 185, 747, 748
564, 212, 653, 750, 648
565, 648, 750, 749, 185
566, 750, 697, 186, 749
567, 653, 208, 697, 750
568, 230, 751, 752, 680
569, 680, 752, 329, 232
570, 752, 743, 233, 329
571, 751, 235, 743, 752
572, 188, 502, 753, 687
573, 687, 753, 749, 186
574, 753, 747, 185, 749
575, 502, 189, 747, 753
576, 292, 768, 671, 282
577, 482, 279, 278, 298
578, 489, 385, 276, 284
579, 296, 494, 495, 589
580, 199, 664, 757, 756
581, 756, 757, 459, 200
582, 757, 557, 170, 459
583, 664, 152, 557, 757
584, 415, 543, 411, 350
585, 781, 419, 685, 515
586, 804, 267, 333, 348
587, 207, 337, 760, 695
588, 695, 760, 759, 184
589, 760, 733, 206, 759
590, 337, 210, 733, 760
591, 206, 730, 761, 759
592, 759, 761, 688, 184
593, 761, 675, 193, 688
594, 730, 196, 675, 761
595, 210, 338, 762, 734
596, 734, 762, 610, 204
597, 762, 682, 205, 610
598, 338, 209, 682, 762
599, 198, 763, 764, 375
600, 375, 764, 756, 200
601, 764, 663, 199, 756
602, 763, 202, 663, 764
603, 262, 715, 716, 260
604, 576, 714, 673, 719
605, 714, 463, 257, 673
606, 150, 606, 674, 140
607, 196, 731, 767, 676
608, 676, 767, 387, 197
609, 767, 763, 198, 387
610, 731, 202, 763, 767
611, 472, 551, 289, 362
612, 362, 289, 343, 588
613, 289, 590, 793, 343
614, 299, 31, 39, 721
615, 211, 740, 770, 654
616, 654, 770, 696, 208
617, 770, 336, 207, 696
618, 740, 209, 336, 770
619, 178, 304, 772, 465
620, 465, 772, 536, 177
621, 772, 771, 237, 536
622, 304, 236, 771, 772
623, 789, 578, 667, 372
624, 579, 287, 787, 666
625, 372, 667, 287, 579
626, 294, 277, 326, 691
627, 808, 254, 574, 672
628, 607, 657, 319, 258
629, 597, 807, 141, 149
630, 261, 612, 627, 626
631, 182, 341, 296, 300
632, 397, 357, 290, 283
633, 480, 526, 183, 506
634, 309, 777, 361, 710
635, 343, 793, 738, 555
636, 507, 292, 282, 636
637, 636, 282, 297, 274
638, 220, 742, 780, 638
639, 638, 780, 702, 224
640, 780, 779, 234, 702
641, 742, 235, 779, 780
642, 278, 41, 34, 342
643, 475, 629, 716, 531
644, 253, 717, 624, 564
645, 591, 481, 616, 769
646, 235, 751, 783, 779
647, 779, 783, 620, 234
648, 783, 739, 231, 620
649, 751, 230, 739, 783
650, 525, 270, 476, 533
651, 62, 684, 242, 51
652, 719, 673, 775, 799
653, 606, 321, 607, 674
654, 398, 294, 691, 601
655, 710, 361, 293, 592
656, 509, 347, 776, 490
657, 340, 397, 283, 745
658, 793, 712, 399, 738
659, 590, 553, 712, 793
660, 615, 472, 362, 471
661, 711, 588, 488, 796
662, 508, 286, 577, 393
663, 282, 671, 615, 297
664, 768, 614, 280, 671
665, 238, 736, 790, 678
666, 678, 790, 661, 158
667, 790, 771, 236, 661
668, 736, 237, 771, 790
669, 728, 453, 513, 792
670, 252, 417, 246, 412
671, 564, 624, 335, 477
672, 725, 348, 334, 251
673, 264, 374, 569, 570
674, 239, 563, 791, 373
675, 394, 243, 498, 244
676, 659, 726, 330, 331
677, 690, 284, 539, 538
678, 506, 183, 489, 281
679, 146, 789, 613, 144
680, 326, 786, 285, 755
681, 323, 801, 305, 433
682, 491, 304, 178, 617
683, 794, 618, 162, 129
684, 618, 307, 128, 162
685, 307, 306, 308, 288
686, 619, 431, 25, 28
687, 587, 506, 281, 593
688, 754, 309, 710, 310
689, 777, 806, 554, 361
690, 151, 313, 797, 311
691, 311, 797, 312, 201
692, 313, 258, 312, 797
693, 219, 316, 798, 314
694, 314, 798, 315, 233
695, 316, 238, 315, 798
696, 673, 257, 445, 775
697, 259, 799, 256, 605
698, 140, 674, 313, 151
699, 656, 261, 626, 784
700, 674, 607, 258, 313
701, 656, 784, 715, 262
702, 305, 491, 617, 303
703, 178, 466, 324, 617
704, 432, 632, 631, 236
705, 277, 342, 786, 326
706, 588, 343, 555, 488
707, 721, 39, 32, 360
708, 232, 329, 802, 327
709, 327, 802, 328, 157
710, 329, 233, 328, 802
711, 418, 252, 412, 684
712, 568, 573, 415, 541
713, 419, 394, 244, 685
714, 531, 716, 715, 726
715, 530, 248, 660, 562
716, 249, 253, 564, 758
717, 209, 338, 805, 336
718, 336, 805, 337, 207
719, 338, 210, 337, 805
720, 183, 275, 385, 489
721, 283, 290, 422, 526
722, 545, 788, 587, 295
723, 672, 318, 142, 148
724, 808, 672, 148, 143
*ELSET,ELSET=contact_source
99, 100, 101, 102, 103, 104, 105, 106, 107, 108, 
109, 110, 111, 112, 113, 114, 115, 116, 117, 118, 
119, 120, 
*ELSET,ELSET=contact_drain
39, 40, 41, 42, 43, 44, 45, 46, 47, 48, 
49, 50, 51, 52, 53, 54, 55, 56, 57, 58, 
59, 60, 
*ELSET,ELSET=probe_A
77, 78, 79, 80, 81, 82, 
*ELSET,ELSET=probe_B
17, 18, 19, 20, 21, 22, 
*ELSET,ELSET=walls
1, 2, 3, 4, 5, 6, 7, 8, 9, 10, 
11, 12, 13, 14, 15, 16, 23, 24, 25, 26, 
27, 28, 29, 30, 31, 32, 33, 34, 35, 36, 
37, 38, 61, 62, 63, 64, 65, 66, 67, 68, 
69, 70, 71, 72, 73, 74, 75, 76, 83, 84, 
85, 86, 87, 88, 89, 90, 91, 92, 93, 94, 
95, 96, 97, 98, 121, 122, 123, 124, 125, 126, 
127, 128, 129, 130, 131, 132, 133, 134, 135, 136, 
137, 138, 139, 140, 141, 142, 143, 144, 145, 146, 
147, 148, 149, 150, 151, 152, 153, 154, 155, 156, 
157, 158, 159, 160, 161, 162, 163, 164, 165, 166, 
167, 168, 
*ELSET,ELSET=domain
169, 170, 171, 172, 173, 174, 175, 176, 177, 178, 
179, 180, 181, 182, 183, 184, 185, 186, 187, 188, 
189, 190, 191, 192, 193, 194, 195, 196, 197, 198, 
199, 200, 201, 202, 203, 204, 205, 206, 207, 208, 
209, 210, 211, 212, 213, 214, 215, 216, 217, 218, 
219, 220, 221, 222, 223, 224, 225, 226, 227, 228, 
229, 230, 231, 232, 233, 234, 235, 236, 237, 238, 
239, 240, 241, 242, 243, 244, 245, 246, 247, 248, 
249, 250, 251, 252, 253, 254, 255, 256, 257, 258, 
259, 260, 261, 262, 263, 264, 265, 266, 267, 268, 
269, 270, 271, 272, 273, 274, 275, 276, 277, 278, 
279, 280, 281, 282, 283, 284, 285, 286, 287, 288, 
289, 290, 291, 292, 293, 294, 295, 296, 297, 298, 
299, 300, 301, 302, 303, 304, 305, 306, 307, 308, 
309, 310, 311, 312, 313, 314, 315, 316, 317, 318, 
319, 320, 321, 322, 323, 324, 325, 326, 327, 328, 
329, 330, 331, 332, 333, 334, 335, 336, 337, 338, 
339, 340, 341, 342, 343, 344, 345, 346, 347, 348, 
349, 350, 351, 352, 353, 354, 355, 356, 357, 358, 
359, 360, 361, 362, 363, 364, 365, 366, 367, 368, 
369, 370, 371, 372, 373, 374, 375, 376, 377, 378, 
379, 380, 381, 382, 383, 384, 385, 386, 387, 388, 
389, 390, 391, 392, 393, 394, 395, 396, 397, 398, 
399, 400, 401, 402, 403, 404, 405, 406, 407, 408, 
409, 410, 411, 412, 413, 414, 415, 416, 417, 418, 
419, 420, 421, 422, 423, 424, 425, 426, 427, 428, 
429, 430, 431, 432, 433, 434, 435, 436, 437, 438, 
439, 440, 441, 442, 443, 444, 445, 446, 447, 448, 
449, 450, 451, 452, 453, 454, 455, 456, 457, 458, 
459, 460, 461, 462, 463, 464, 465, 466, 467, 468, 
469, 470, 471, 472, 473, 474, 475, 476, 477, 478, 
479, 480, 481, 482, 483, 484, 485, 486, 487, 488, 
489, 490, 491, 492, 493, 494, 495, 496, 497, 498, 
499, 500, 501, 502, 503, 504, 505, 506, 507, 508, 
509, 510, 511, 512, 513, 514, 515, 516, 517, 518, 
519, 520, 521, 522, 523, 524, 525, 526, 527, 528, 
529, 530, 531, 532, 533, 534, 535, 536, 537, 538, 
539, 540, 541, 542, 543, 544, 545, 546, 547, 548, 
549, 550, 551, 552, 553, 554, 555, 556, 557, 558, 
559, 560, 561, 562, 563, 564, 565, 566, 567, 568, 
569, 570, 571, 572, 573, 574, 575, 576, 577, 578, 
579, 580, 581, 582, 583, 584, 585, 586, 587, 588, 
589, 590, 591, 592, 593, 594, 595, 596, 597, 598, 
599, 600, 601, 602, 603, 604, 605, 606, 607, 608, 
609, 610, 611, 612, 613, 614, 615, 616, 617, 618, 
619, 620, 621, 622, 623, 624, 625, 626, 627, 628, 
629, 630, 631, 632, 633, 634, 635, 636, 637, 638, 
639, 640, 641, 642, 643, 644, 645, 646, 647, 648, 
649, 650, 651, 652, 653, 654, 655, 656, 657, 658, 
659, 660, 661, 662, 663, 664, 665, 666, 667, 668, 
669, 670, 671, 672, 673, 674, 675, 676, 677, 678, 
679, 680, 681, 682, 683, 684, 685, 686, 687, 688, 
689, 690, 691, 692, 693, 694, 695, 696, 697, 698, 
699, 700, 701, 702, 703, 704, 705, 706, 707, 708, 
709, 710, 711, 712, 713, 714, 715, 716, 717, 718, 
719, 720, 721, 722, 723, 724, 725, 726, 727, 728, 
729, 730, 731, 732, 733, 734, 735, 736, 737, 738, 
739, 740, 741, 742, 743, 744, 745, 746, 747, 748, 
749, 750, 751, 752, 753, 754, 755, 756, 757, 758, 
759, 760, 761, 762, 763, 764, 765, 766, 767, 768, 
769, 770, 771, 772, 773, 774, 775, 776, 777, 778, 
779, 780, 781, 782, 783, 784, 785, 786, 787, 788, 
789, 790, 791, 792, 793, 794, 795, 796, 797, 798, 
799, 800, 801, 802, 803, 804, 805, 806, 807, 808, 
809, 810, 811, 812, 813, 814, 815, 816, 817, 818, 
819, 820, 821, 822, 823, 824, 825, 826, 827, 828, 
829, 830, 831, 832, 833, 834, 835, 836, 837, 838, 
839, 840, 841, 842, 843, 844, 845, 846, 847, 848, 
849, 850, 851, 852, 853, 854, 855, 856, 857, 858, 
859, 860, 861, 862, 863, 864, 865, 866, 867, 868, 
869, 870, 871, 872, 873, 874, 875, 876, 877, 878, 
879, 880, 881, 882, 883, 884, 885, 886, 887, 888, 
889, 890, 891, 892, 
*NSET,NSET=contact_source
1, 8, 101, 102, 103, 104, 105, 106, 107, 108, 
109, 110, 111, 112, 113, 114, 115, 116, 117, 118, 
119, 120, 121, 
*NSET,NSET=contact_drain
4, 5, 45, 46, 47, 48, 49, 50, 51, 52, 
53, 54, 55, 56, 57, 58, 59, 60, 61, 62, 
63, 64, 65, 
*NSET,NSET=probe_A
6, 7, 81, 82, 83, 84, 85, 
*NSET,NSET=probe_B
2, 3, 25, 26, 27, 28, 29, 
*NSET,NSET=walls
1, 2, 3, 4, 5, 6, 7, 8, 9, 10, 
11, 12, 13, 14, 15, 16, 17, 18, 19, 20, 
21, 22, 23, 24, 30, 31, 32, 33, 34, 35, 
36, 37, 38, 39, 40, 41, 42, 43, 44, 66, 
67, 68, 69, 70, 71, 72, 73, 74, 75, 76, 
77, 78, 79, 80, 86, 87, 88, 89, 90, 91, 
92, 93, 94, 95, 96, 97, 98, 99, 100, 122, 
123, 124, 125, 126, 127, 128, 129, 130, 131, 132, 
133, 134, 135, 136, 137, 138, 139, 140, 141, 142, 
143, 144, 145, 146, 147, 148, 149, 150, 151, 152, 
153, 154, 155, 156, 157, 158, 159, 160, 161, 162, 
163, 164, 165, 166, 167, 168, 
*NSET,NSET=domain
1, 2, 3, 4, 5, 6, 7, 8, 9, 10, 
11, 12, 13, 14, 15, 16, 17, 18, 19, 20, 
21, 22, 23, 24, 25, 26, 27, 28, 29, 30, 
31, 32, 33, 34, 35, 36, 37, 38, 39, 40, 
41, 42, 43, 44, 45, 46, 47, 48, 49, 50, 
51, 52, 53, 54, 55, 56, 57, 58, 59, 60, 
61, 62, 63, 64, 65, 66, 67, 68, 69, 70, 
71, 72, 73, 74, 75, 76, 77, 78, 79, 80, 
81, 82, 83, 84, 85, 86, 87, 88, 89, 90, 
91, 92, 93, 94, 95, 96, 97, 98, 99, 100, 
101, 102, 103, 104, 105, 106, 107, 108, 109, 110, 
111, 112, 113, 114, 115, 116, 117, 118, 119, 120, 
121, 122, 123, 124, 125, 126, 127, 128, 129, 130, 
131, 132, 133, 134, 135, 136, 137, 138, 139, 140, 
141, 142, 143, 144, 145, 146, 147, 148, 149, 150, 
151, 152, 153, 154, 155, 156, 157, 158, 159, 160, 
161, 162, 163, 164, 165, 166, 167, 168, 169, 170, 
171, 172, 173, 174, 175, 176, 177, 178, 179, 180, 
181, 182, 183, 184, 185, 186, 187, 188, 189, 190, 
191, 192, 193, 194, 195, 196, 197, 198, 199, 200, 
201, 202, 203, 204, 205, 206, 207, 208, 209, 210, 
211, 212, 213, 214, 215, 216, 217, 218, 219, 220, 
221, 222, 223, 224, 225, 226, 227, 228, 229, 230, 
231, 232, 233, 234, 235, 236, 237, 238, 239, 240, 
241, 242, 243, 244, 245, 246, 247, 248, 249, 250, 
251, 252, 253, 254, 255, 256, 257, 258, 259, 260, 
261, 262, 263, 264, 265, 266, 267, 268, 269, 270, 
271, 272, 273, 274, 275, 276, 277, 278, 279, 280, 
281, 282, 283, 284, 285, 286, 287, 288, 289, 290, 
291, 292, 293, 294, 295, 296, 297, 298, 299, 300, 
301, 302, 303, 304, 305, 306, 307, 308, 309, 310, 
311, 312, 313, 314, 315, 316, 317, 318, 319, 320, 
321, 322, 323, 324, 325, 326, 327, 328, 329, 330, 
331, 332, 333, 334, 335, 336, 337, 338, 339, 340, 
341, 342, 343, 344, 345, 346, 347, 348, 349, 350, 
351, 352, 353, 354, 355, 356, 357, 358, 359, 360, 
361, 362, 363, 364, 365, 366, 367, 368, 369, 370, 
371, 372, 373, 374, 375, 376, 377, 378, 379, 380, 
381, 382, 383, 384, 385, 386, 387, 388, 389, 390, 
391, 392, 393, 394, 395, 396, 397, 398, 399, 400, 
401, 402, 403, 404, 405, 406, 407, 408, 409, 410, 
411, 412, 413, 414, 415, 416, 417, 418, 419, 420, 
421, 422, 423, 424, 425, 426, 427, 428, 429, 430, 
431, 432, 433, 434, 435, 436, 437, 438, 439, 440, 
441, 442, 443, 444, 445, 446, 447, 448, 449, 450, 
451, 452, 453, 454, 455, 456, 457, 458, 459, 460, 
461, 462, 463, 464, 465, 466, 467, 468, 469, 470, 
471, 472, 473, 474, 475, 476, 477, 478, 479, 480, 
481, 482, 483, 484, 485, 486, 487, 488, 489, 490, 
491, 492, 493, 494, 495, 496, 497, 498, 499, 500, 
501, 502, 503, 504, 505, 506, 507, 508, 509, 510, 
511, 512, 513, 514, 515, 516, 517, 518, 519, 520, 
521, 522, 523, 524, 525, 526, 527, 528, 529, 530, 
531, 532, 533, 534, 535, 536, 537, 538, 539, 540, 
541, 542, 543, 544, 545, 546, 547, 548, 549, 550, 
551, 552, 553, 554, 555, 556, 557, 558, 559, 560, 
561, 562, 563, 564, 565, 566, 567, 568, 569, 570, 
571, 572, 573, 574, 575, 576, 577, 578, 579, 580, 
581, 582, 583, 584, 585, 586, 587, 588, 589, 590, 
591, 592, 593, 594, 595, 596, 597, 598, 599, 600, 
601, 602, 603, 604, 605, 606, 607, 608, 609, 610, 
611, 612, 613, 614, 615, 616, 617, 618, 619, 620, 
621, 622, 623, 624, 625, 626, 627, 628, 629, 630, 
631, 632, 633, 634, 635, 636, 637, 638, 639, 640, 
641, 642, 643, 644, 645, 646, 647, 648, 649, 650, 
651, 652, 653, 654, 655, 656, 657, 658, 659, 660, 
661, 662, 663, 664, 665, 666, 667, 668, 669, 670, 
671, 672, 673, 674, 675, 676, 677, 678, 679, 680, 
681, 682, 683, 684, 685, 686, 687, 688, 689, 690, 
691, 692, 693, 694, 695, 696, 697, 698, 699, 700, 
701, 702, 703, 704, 705, 706, 707, 708, 709, 710, 
711, 712, 713, 714, 715, 716, 717, 718, 719, 720, 
721, 722, 723, 724, 725, 726, 727, 728, 729, 730, 
731, 732, 733, 734, 735, 736, 737, 738, 739, 740, 
741, 742, 743, 744, 745, 746, 747, 748, 749, 750, 
751, 752, 753, 754, 755, 756, 757, 758, 759, 760, 
761, 762, 763, 764, 765, 766, 767, 768, 769, 770, 
771, 772, 773, 774, 775, 776, 777, 778, 779, 780, 
781, 782, 783, 784, 785, 786, 787, 788, 789, 790, 
791, 792, 793, 794, 795, 796, 797, 798, 799, 800, 
801, 802, 803, 804, 805, 806, 807, 808, 
