*Heading
 /Users/juliagao/geometry-optimization-net/scripts/../runs/run2/shape_165.inp
*NODE
1, 0, -0.3, 0
2, 0.425, -0.3, 0
3, 0.575, -0.3, 0
4, 1, -0.3, 0
5, 1, 0.3, 0
6, 0.575, 0.3, 0
7, 0.425, 0.3, 0
8, 0, 0.3, 0
9, 0.6670786989, 0.0270231778, 0
10, 0.025319193564806, -0.3, 0
11, 0.076779058841642, -0.3, 0
12, 0.13032461164967, -0.3, 0
13, 0.18574383981482, -0.3, 0
14, 0.24122417965501, -0.3, 0
15, 0.29540989896316, -0.3, 0
16, 0.34828380414965, -0.3, 0
17, 0.39971899139952, -0.3, 0
18, 0.050638387129612, -0.3, 0
19, 0.10291973055367, -0.3, 0
20, 0.15772949274567, -0.3, 0
21, 0.21375818688396, -0.3, 0
22, 0.26869017242606, -0.3, 0
23, 0.32212962550026, -0.3, 0
24, 0.37443798279905, -0.3, 0
25, 0.44987792035908, -0.3, 0
26, 0.49940576425908, -0.3, 0
27, 0.5495278439, -0.3, 0
28, 0.47475584071816, -0.3, 0
29, 0.5240556878, -0.3, 0
30, 0.60116060088176, -0.3, 0
31, 0.65357604319851, -0.3, 0
32, 0.70640511922642, -0.3, 0
33, 0.76004248807164, -0.3, 0
34, 0.81398365598335, -0.3, 0
35, 0.86735036186743, -0.3, 0
36, 0.92037226183397, -0.3, 0
37, 0.97345274478792, -0.3, 0
38, 0.62732120176352, -0.3, 0
39, 0.6798308846335, -0.3, 0
40, 0.73297935381933, -0.3, 0
41, 0.78710562232395, -0.3, 0
42, 0.84086168964275, -0.3, 0
43, 0.89383903409211, -0.3, 0
44, 0.94690548957584, -0.3, 0
45, 1, -0.27309202353443, 0
46, 1, -0.21869267140477, 0
47, 1, -0.16318989525015, 0
48, 1, -0.10715436636964, 0
49, 1, -0.051748915782246, 0
50, 1, 0.0023621348557702, 0
51, 1, 0.05599351508094, 0
52, 1, 0.10994339862404, 0
53, 1, 0.16446968726769, 0
54, 1, 0.21944075738652, 0
55, 1, 0.27346688531012, 0
56, 1, -0.24618404706886, 0
57, 1, -0.19120129574068, 0
58, 1, -0.13517849475962, 0
59, 1, -0.079130237979663, 0
60, 1, -0.024367593584829, 0
61, 1, 0.02909186329637, 0
62, 1, 0.082895166865511, 0
63, 1, 0.13699163038258, 0
64, 1, 0.1919477441528, 0
65, 1, 0.24693377062023, 0
66, 0.97397728155398, 0.3, 0
67, 0.92132097562133, 0.3, 0
68, 0.86835705276096, 0.3, 0
69, 0.81552312784726, 0.3, 0
70, 0.76172132047599, 0.3, 0
71, 0.7072607145444, 0.3, 0
72, 0.65327999269236, 0.3, 0
73, 0.60073082947029, 0.3, 0
74, 0.94795456310796, 0.3, 0
75, 0.89468738813471, 0.3, 0
76, 0.8420267173872, 0.3, 0
77, 0.78901953830732, 0.3, 0
78, 0.73442310264466, 0.3, 0
79, 0.68009832644413, 0.3, 0
80, 0.62646165894058, 0.3, 0
81, 0.55492145549825, 0.3, 0
82, 0.51625656458912, 0.3, 0
83, 0.47971921345187, 0.3, 0
84, 0.44338410436099, 0.3, 0
85, 0.53484291099649, 0.3, 0
86, 0.49767021818175, 0.3, 0
87, 0.46176820872198, 0.3, 0
88, 0.40076520002594, 0.3, 0
89, 0.3499829052361, 0.3, 0
90, 0.29698133461242, 0.3, 0
91, 0.24388455376061, 0.3, 0
92, 0.1901189216382, 0.3, 0
93, 0.13532795293812, 0.3, 0
94, 0.080395946239545, 0.3, 0
95, 0.026565990581277, 0.3, 0
96, 0.37653040005188, 0.3, 0
97, 0.32343541042032, 0.3, 0
98, 0.27052725880452, 0.3, 0
99, 0.2172418487167, 0.3, 0
100, 0.16299599455971, 0.3, 0
101, 0.10765991131653, 0.3, 0
102, 0.053131981162555, 0.3, 0
103, 0, 0.27374016842113, 0
104, 0, 0.21990331842006, 0
105, 0, 0.16388191840356, 0
106, 0, 0.1070616506786, 0
107, 0, 0.050735035178953, 0
108, 0, -0.0048008970727898, 0
109, 0, -0.059866823565611, 0
110, 0, -0.11450747157159, 0
111, 0, -0.16833962475011, 0
112, 0, -0.22140621940025, 0
113, 0, -0.27390029263389, 0
114, 0, 0.24748033684227, 0
115, 0, 0.19232629999786, 0
116, 0, 0.13543753680926, 0
117, 0, 0.078685764547942, 0
118, 0, 0.022784305809964, 0
119, 0, -0.032386099955544, 0
120, 0, -0.087347547175678, 0
121, 0, -0.1416673959675, 0
122, 0, -0.19501185353272, 0
123, 0, -0.24780058526777, 0
124, 0.65712867917579, 0.053712269623006, 0
125, 0.73055205390711, -0.030261237739073, 0
126, 0.7646645284832, -0.074334575410878, 0
127, 0.77989623563376, -0.12573004338152, 0
128, 0.75315964389673, -0.16977898163006, 0
129, 0.70138235413733, -0.17775896103309, 0
130, 0.64940688170736, -0.1652075623406, 0
131, 0.60056768279832, -0.14339880784924, 0
132, 0.54852638931004, -0.13527490926862, 0
133, 0.5182195839098, -0.17500097889884, 0
134, 0.47554378193708, -0.20369157941305, 0
135, 0.43186864755294, -0.17798663359835, 0
136, 0.41170566078459, -0.12942871789868, 0
137, 0.3697618318568, -0.10185964090926, 0
138, 0.31566914813299, -0.10263178230855, 0
139, 0.26362329890889, -0.088859020140993, 0
140, 0.23823990999385, -0.042255438869684, 0
141, 0.26330397175919, 0.0068268582117729, 0
142, 0.3045544651425, 0.044467896131935, 0
143, 0.32420743342171, 0.09388101730429, 0
144, 0.30765705032167, 0.14718446526345, 0
145, 0.30536944573331, 0.20305969269604, 0
146, 0.33288223041851, 0.24896166615833, 0
147, 0.37991255846828, 0.26975486616549, 0
148, 0.42792050845495, 0.27270593748815, 0
149, 0.47168487562195, 0.26481984226862, 0
150, 0.51127581956797, 0.244396420092, 0
151, 0.54442661206769, 0.20868281080998, 0
152, 0.57385860505658, 0.16415910858233, 0
153, 0.62592879454113, 0.14316696478395, 0
154, 0.66422661442215, 0.10555013056461, 0
155, 0.68818805160583, 0.0077271865782349, 0
156, 0.66262236308172, 0.078951243406399, 0
157, 0.6511901077785, 0.12978208094788, 0
158, 0.59865523438822, 0.15008606939636, 0
159, 0.55818197380672, 0.18677933100575, 0
160, 0.52830199932759, 0.22895782914249, 0
161, 0.49178861398048, 0.25659657774629, 0
162, 0.45061073048136, 0.27002290943837, 0
163, 0.40507481936765, 0.27282492822704, 0
164, 0.35560562596711, 0.26242450877038, 0
165, 0.31545370285008, 0.22900406979916, 0
166, 0.30341470973032, 0.1754096831977, 0
167, 0.3157781056634, 0.1198811389533, 0
168, 0.32305613671535, 0.065416298094915, 0
169, 0.28344083481821, 0.026528736037486, 0
170, 0.24681709554905, -0.016122161941925, 0
171, 0.24393979104409, -0.069812643351057, 0
172, 0.28874050937775, -0.098707588976473, 0
173, 0.34283341115635, -0.10288562099757, 0
174, 0.39676884850708, -0.10676509982433, 0
175, 0.42048174656969, -0.15436550056559, 0
176, 0.44993757225658, -0.19740552698603, 0
177, 0.49918472182925, -0.19366817788846, 0
178, 0.53374465074926, -0.15348664164121, 0
179, 0.57629739331203, -0.13256586478675, 0
180, 0.62451826688442, -0.15488410879205, 0
181, 0.67515332137, -0.17320091289447, 0
182, 0.72806172996135, -0.17743062733351, 0
183, 0.7727214019173, -0.15169225002947, 0
184, 0.77584631704099, -0.09949648613189, 0
185, 0.74927118574899, -0.051570659700419, 0
186, 0.70996473858265, -0.010771740413327, 0
187, 0.36649065057196, -0.24265995175279, 0
188, 0.053250595067007, -0.2460004985071, 0
189, 0.10610788012965, -0.24652154704133, 0
190, 0.1591375384183, -0.24692451313868, 0
191, 0.21085261791203, -0.2452170154435, 0
192, 0.26139363826392, -0.24665324971288, 0
193, 0.67468652383786, -0.26837609634099, 0
194, 0.40088189838938, -0.26491713147486, 0
195, 0.31392512848321, -0.25043218924755, 0
196, 0.78972750569887, 0.19583134016916, 0
197, 0.88650581093051, 0.14890965645784, 0
198, 0.60453238169169, -0.26475179549061, 0
199, 0.52429264473626, -0.23798709566671, 0
200, 0.20242697559859, 0.19134973584474, 0
201, 0.15130493674892, 0.18869770981291, 0
202, 0.25445883116811, 0.18808450259225, 0
203, 0.15112498618277, 0.13043464961101, 0
204, 0.10188967633062, 0.12945932433804, 0
205, 0.051270288560811, 0.13144939734355, 0
206, 0.1014907307911, 0.18777076201153, 0
207, 0.051210205495336, 0.18867187281674, 0
208, 0.05260463796425, 0.24511931265656, 0
209, 0.10420074723927, 0.24502544872727, 0
210, 0.15587673193681, 0.24530565493768, 0
211, 0.20876263100982, 0.24551587646195, 0
212, 0.26284526819811, 0.24279223107275, 0
213, 0.23266858120262, 0.11756872904211, 0
214, 0.29390028277072, 0.075639386082438, 0
215, 0.15733658170973, 0.070500795202233, 0
216, 0.23403472011078, 0.014374975279199, 0
217, 0.25521761812032, 0.033727240905416, 0
218, 0.10680907033778, 0.071968403817764, 0
219, 0.053176715408266, 0.075423048226075, 0
220, 0.056449804371398, 0.022903536523258, 0
221, 0.1175738584912, 0.019331545016966, 0
222, 0.053222551141346, -0.19260675723422, 0
223, 0.2152213461911, -0.18707338268261, 0
224, 0.26752026710142, -0.19176107757818, 0
225, 0.2264340970321, -0.13041012720476, 0
226, 0.16058625414939, -0.1444898585061, 0
227, 0.10644961963135, -0.19311869270931, 0
228, 0.16097159680411, -0.19353632207625, 0
229, 0.10430874761191, -0.14003588280338, 0
230, 0.052212316497851, -0.1385266196583, 0
231, 0.05553117926307, -0.027350846576419, 0
232, 0.11504163187746, -0.027847139349728, 0
233, 0.050864974020184, -0.082167261227848, 0
234, 0.14504646380236, -0.090920472493967, 0
235, 0.099614572708233, -0.082559988187732, 0
236, 0.18422270051684, 0.011346615300616, 0
237, 0.18088917381502, -0.034246085099124, 0
238, 0.19112032716857, -0.091147675889179, 0
239, 0.32294250825436, -0.19880738051163, 0
240, 0.80205540503865, -0.27503836077733, 0
241, 0.35013321690728, -0.15500433928719, 0
242, 0.2825447776655, -0.14566797737874, 0
243, 0.78169907020472, 0.10722980310205, 0
244, 0.90838095450112, 0.011252937815494, 0
245, 0.61673817171651, 0.23730947643986, 0
246, 0.77352077273906, 0.13417530783506, 0
247, 0.92949692177533, -0.11051627709072, 0
248, 0.60520851170668, 0.27733856047101, 0
249, 0.78686354025862, 0.15268164480974, 0
250, 0.65930699042811, 0.16429960621725, 0
251, 0.87024107104008, -0.082500157142231, 0
252, 0.81488408834789, 0.19097076898926, 0
253, 0.92525160433541, 0.0096355512452771, 0
254, 0.70077118006207, 0.088949067007737, 0
255, 0.66632954592154, 0.13802309326378, 0
256, 0.83615838709031, -0.059878838531609, 0
257, 0.96077100576757, 0.014094785699969, 0
258, 0.85264867971691, 0.12971947463121, 0
259, 0.89937255512561, -0.1383541795055, 0
260, 0.91163732679426, -0.086045626166832, 0
261, 0.80540452811297, 0.040151880667797, 0
262, 0.85254793720039, -0.072877913250646, 0
263, 0.95949118350762, -0.017253574718531, 0
264, 0.92686708169726, 0.077738609652055, 0
265, 0.83842579204356, 0.18621381106744, 0
266, 0.82414053789664, 0.16511302289492, 0
267, 0.83218809929161, 0.13716027241691, 0
268, 0.83840677044778, 0.10720305330428, 0
269, 0.92400163767721, 0.14266265832572, 0
270, 0.95569315667512, -0.076772687736281, 0
271, 0.97650233162368, -0.12101020370248, 0
272, 0.83659758771435, -0.1540358134645, 0
273, 0.98019528300834, 0.079708306057351, 0
274, 0.75499115629566, -0.2013736893075, 0
275, 0.45639438796491, -0.27459909052518, 0
276, 0.60390756752328, -0.18275729984795, 0
277, 0.50153225341652, -0.22019500897607, 0
278, 0.95026943151016, -0.15533253813582, 0
279, 0.89527645932273, -0.16155968589155, 0
280, 0.72292082490957, -0.23747735051894, 0
281, 0.67443318817692, -0.20380871778511, 0
282, 0.83981288038538, -0.20798748398484, 0
283, 0.89386646448839, -0.20910523645905, 0
284, 0.82822740953825, -0.25323798196302, 0
285, 0.88907902349973, -0.25416639443894, 0
286, 0.94914218483586, -0.20446161478158, 0
287, 0.94731266033581, -0.25216015976055, 0
288, 0.7976326818144, -0.25105977508794, 0
289, 0.52650695719518, -0.20538076914135, 0
290, 0.60594855521304, -0.22451182965396, 0
291, 0.17595972164328, 0.13389183505799, 0
292, 0.26431665294896, 0.085048846713808, 0
293, 0.17563092544007, 0.16194947211735, 0
294, 0.48692731026543, -0.27280845751526, 0
295, 0.81250983723231, -0.16376669313714, 0
296, 0.84783250866075, -0.18154506137449, 0
297, 0.81217833004607, -0.20750049423386, 0
298, 0.4100523103949, -0.235786873647, 0
299, 0.38363011888183, -0.22987776894209, 0
300, 0.64315662563646, 0.20298681468513, 0
301, 0.96150725613108, 0.045865749820334, 0
302, 0.73413154509915, 0.204268450578, 0
303, 0.40876958659685, -0.1839950754579, 0
304, 0.3694074447766, -0.18131446680782, 0
305, 0.38446503486738, -0.14663670379512, 0
306, 0.20213746265231, 0.13785443922365, 0
307, 0.17749565339746, 0.10586776095054, 0
308, 0.16578232209878, 0.039666506306316, 0
309, 0.20528411861357, 0.086653278785494, 0
310, 0.22929722016478, 0.043094120238984, 0
311, 0.62689815384171, -0.22862823926285, 0
312, 0.51487299307066, -0.26938272149089, 0
313, 0.64939270005657, -0.19809609698962, 0
314, 0.58320109200022, -0.26389043227321, 0
315, 0.77524054713684, -0.2148083351078, 0
316, 0.76280410241143, 0.20042964288012, 0
317, 0.87254308248305, -0.13751685077486, 0
318, 0.75400512829567, -0.027486730326854, 0
319, 0.7725443299978, -0.049426851269944, 0
320, 0.69764211663867, 0.11692758407639, 0
321, 0.15135547090518, -0.058504698546294, 0
322, 0.19060323999918, -0.061590219519057, 0
323, 0.16954774758774, -0.098297822643298, 0
324, 0.72452888610347, -0.26950964432207, 0
325, 0.61260969306897, 0.16816075263302, 0
326, 0.79088099065417, -0.039966074186092, 0
327, 0.81051390576579, -0.12923191835263, 0
328, 0.3434855285572, -0.25414595649333, 0
329, 0.30857034721638, -0.22305450280609, 0
330, 0.34832672934688, -0.21470044165824, 0
331, 0.1587116255738, -0.27375800713579, 0
332, 0.18536944610714, -0.24650476041067, 0
333, 0.21190841500023, -0.27323084203242, 0
334, 0.18551459873283, -0.27372541803469, 0
335, 0.9186874218032, -0.25352699624854, 0
336, 0.94715794276869, -0.27579881803315, 0
337, 0.89028106337039, -0.27646650445092, 0
338, 0.91905906777766, -0.27627913041158, 0
339, 0.64940203428287, -0.23246715696304, 0
340, 0.8215105576159, -0.042302625154149, 0
341, 0.823260796607, 0.026094753822292, 0
342, 0.8235566529735, -0.115941680182, 0
343, 0.65029407771975, -0.26723247536314, 0
344, 0.74872446673555, -0.26945174142792, 0
345, 0.027304490453198, -0.02900787127042, 0
346, 0.052323457223833, -0.053935984324235, 0
347, 0.025663623112104, -0.083972673802634, 0
348, 0.026143267751127, -0.056032786429709, 0
349, 0.027578578412367, 0.02322279548694, 0
350, 0.056393722925099, -0.0021145907894648, 0
351, 0.027568027347965, -0.0028330843733244, 0
352, 0.43457665688725, -0.24775251986967, 0
353, 0.74647155492211, -0.23614882540184, 0
354, 0.8064975419124, -0.061206049382746, 0
355, 0.72065436244648, 0.069755756896544, 0
356, 0.72992459729394, 0.018790942814168, 0
357, 0.78834901316254, -0.0058786600348553, 0
358, 0.83150644614751, -0.27591505708781, 0
359, 0.85883082058312, -0.25413609979969, 0
360, 0.86102997872369, -0.27636777204431, 0
361, 0.9438346273312, 0.043783406026082, 0
362, 0.97784149893429, -0.066644266699002, 0
363, 0.12996664373201, 0.24517738879182, 0
364, 0.10570400070724, 0.27292683858648, 0
365, 0.15817532584639, 0.27297277297001, 0
366, 0.13196560595562, 0.27302326770307, 0
367, 0.82039544804648, -0.081963473419646, 0
368, 0.89036204355982, 0.11767226554939, 0
369, 0.80057554468723, 0.17144958506888, 0
370, 0.97595073287647, -0.14721781876188, 0
371, 0.9045959370236, -0.022969379134138, 0
372, 0.84614711381702, 0.15901248615707, 0
373, 0.025644909111332, 0.13312112005877, 0
374, 0.052010842786606, 0.10313556876256, 0
375, 0.026376383546585, 0.076971874708666, 0
376, 0.025922529010446, 0.10483856810125, 0
377, 0.97540030638279, -0.19911891199766, 0
378, 0.95040123089017, -0.17978507124493, 0
379, 0.97595707009519, -0.17311541960343, 0
380, 0.050986131377271, 0.16005629971399, 0
381, 0.025716610979283, 0.18998300886982, 0
382, 0.025537319410037, 0.16159096146812, 0
383, 0.96172168052867, 0.077613294646876, 0
384, 0.75922518585707, 0.11572134531967, 0
385, 0.95168616900798, -0.13038001416573, 0
386, 0.97453954532809, -0.24986137829182, 0
387, 0.97428313839963, -0.2749390375148, 0
388, 0.026241300726591, -0.13951386460175, 0
389, 0.052842096487356, -0.16574725892631, 0
390, 0.02666520807033, -0.19331914023093, 0
391, 0.02650205070458, -0.16657179159336, 0
392, 0.49651204386842, -0.24671891658872, 0
393, 0.72819608226148, -0.20660642440618, 0
394, 0.56128542460197, 0.26955799533978, 0
395, 0.94352079233284, 0.10938331433987, 0
396, 0.84602475651861, -0.1329610085958, 0
397, 0.86057492393313, 0.18188568459897, 0
398, 0.051226778503016, -0.11066615830541, 0
399, 0.025839860966922, -0.11197595695153, 0
400, 0.054630417890964, 0.048591699578821, 0
401, 0.02690898256233, 0.049717891501097, 0
402, 0.88118462605481, -0.11316523280951, 0
403, 0.80308740285153, 0.097243291304315, 0
404, 0.87693584683822, 0.057096002643279, 0
405, 0.47186406037357, -0.22821068468425, 0
406, 0.70088391073579, -0.20701730533136, 0
407, 0.18210767125648, 0.24550254073272, 0
408, 0.21010664665358, 0.27275826438002, 0
409, 0.18426371053198, 0.27291129101903, 0
410, 0.58316110293159, -0.17507416902999, 0
411, 0.79476201915625, -0.1920511852398, 0
412, 0.71999725737276, 0.094816810970411, 0
413, 0.92146166077779, 0.17292151071803, 0
414, 0.68200295206681, 0.082707427622524, 0
415, 0.23581747751897, 0.24498262659044, 0
416, 0.25954700267066, 0.27166640543266, 0
417, 0.23540090392875, 0.27242670977418, 0
418, 0.26460107254698, -0.27370744853035, 0
419, 0.28722036924524, -0.24804243858549, 0
420, 0.31966635761856, -0.27511989016847, 0
421, 0.29159050324048, -0.27422524849227, 0
422, 0.54666267394631, -0.18995825694688, 0
423, 0.34989783330356, -0.27639253530433, 0
424, 0.89197612378742, 0.015528369313805, 0
425, 0.76910365252722, 0.011287653606892, 0
426, 0.90180310318278, 0.17522069393835, 0
427, 0.053203776644039, 0.27279134705581, 0
428, 0.026504774828566, 0.24571889938081, 0
429, 0.026843332481745, 0.27294294356745, 0
430, 0.078453563364046, 0.24497650692243, 0
431, 0.07945875082176, 0.27284306576005, 0
432, 0.81814297920192, 0.11647606892542, 0
433, 0.66161973330713, 0.1865449115998, 0
434, 0.23598267959566, -0.24578399484259, 0
435, 0.23811961891819, -0.27342918572052, 0
436, 0.92585876263884, 0.11084821491368, 0
437, 0.85991171386501, 0.065687942221385, 0
438, 0.39342640233758, -0.20629325935419, 0
439, 0.46485667552923, -0.251447, 0
440, 0.026735051168748, -0.24634777390021, 0
441, 0.052619414178833, -0.27283477526225, 0
442, 0.026482601092827, -0.27290125483068, 0
443, 0.13262796361387, -0.24687851674637, 0
444, 0.10519939358784, -0.27332534691658, 0
445, 0.13187181132284, -0.2736324434736, 0
446, 0.9535654735576, -0.10431264723744, 0
447, 0.93355140857057, -0.083050848471528, 0
448, 0.079662665342196, -0.24614045689926, 0
449, 0.078808074122324, -0.27300732886187, 0
450, 0.86683755183873, 0.15352821252061, 0
451, 0.80081515163261, -0.096424544264853, 0
452, 0.9479467420647, -0.22853310885845, 0
453, 0.97488160614929, -0.22466325334247, 0
454, 0.60140361532501, 0.21162301274466, 0
455, 0.053341920690065, -0.21930925414495, 0
456, 0.02673787308373, -0.21987480763439, 0
457, 0.051793010075975, 0.21707509818649, 0
458, 0.026042596533007, 0.21806433689344, 0
459, 0.07559446947564, -0.081650775566494, 0
460, 0.10116305767516, -0.11218164408574, 0
461, 0.078119046992035, -0.13869420295336, 0
462, 0.076290902265556, -0.11067355953912, 0
463, 0.076735361438118, 0.13023175131625, 0
464, 0.1037232488866, 0.10044492706316, 0
465, 0.080110356059498, 0.073768587192656, 0
466, 0.078033805628028, 0.10166841240052, 0
467, 0.80575609788002, -0.023899622936732, 0
468, 0.5896291182954, 0.23015831721209, 0
469, 0.87547599036288, 0.090820542332835, 0
470, 0.34767365124851, -0.13021915863464, 0
471, 0.31616021460962, -0.15006647512466, 0
472, 0.28683643230634, -0.12333021029589, 0
473, 0.3175681117689, -0.12759236781177, 0
474, 0.15960804358089, -0.21994669610676, 0
475, 0.18853256177742, -0.19183629519709, 0
476, 0.21112451425549, -0.21620707894068, 0
477, 0.18587539588138, -0.21891843850321, 0
478, 0.11120019401227, 0.044607840445115, 0
479, 0.086428780064457, 0.02166571462797, 0
480, 0.082837365196453, 0.046936417015433, 0
481, 0.69963664125569, -0.26915241523019, 0
482, 0.69810561704025, -0.23734169886492, 0
483, 0.18095079762583, -0.011318749334915, 0
484, 0.21782115061616, -0.004206078372414, 0
485, 0.21480208639571, -0.052784900507041, 0
486, 0.21117964692529, -0.02614984461345, 0
487, 0.84277010753925, 0.04369596838322, 0
488, 0.74946257382036, 0.14124118130026, 0
489, 0.89353664784585, 0.050390156262015, 0
490, 0.12638199897691, 0.1880003577186, 0
491, 0.10257908828332, 0.21661891170804, 0
492, 0.15316633634525, 0.21727877453308, 0
493, 0.12782294957794, 0.21684565791799, 0
494, 0.74793631445068, 0.027817460944671, 0
495, 0.67913892498792, 0.056175485901837, 0
496, 0.74825053482318, 0.18301732305498, 0
497, 0.084700029110412, -0.026935994883865, 0
498, 0.104174229158, -0.053127603888595, 0
499, 0.078427926459766, -0.052994461237683, 0
500, 0.11715925468523, -0.0042319381516112, 0
501, 0.086276335377602, -0.0025454651253799, 0
502, 0.71969933787533, 0.18702378714827, 0
503, 0.97712021200111, -0.094210885285953, 0
504, 0.58168369157547, 0.27411256181838, 0
505, 0.89036516555194, -0.23201628931337, 0
506, 0.830936457694, -0.23109477863403, 0
507, 0.86634955594587, -0.2090636484149, 0
508, 0.860721761229, -0.23210998457082, 0
509, 0.18719940721096, 0.048347504368758, 0
510, 0.27903124859035, 0.18277227876693, 0
511, 0.28764273377148, 0.12619178164893, 0
512, 0.25184816917127, -0.13912721982487, 0
513, 0.23689484527799, -0.098987669403712, 0
514, 0.25863026972052, -0.11497668258082, 0
515, 0.82501840308496, 0.056035520734579, 0
516, 0.84210513503334, 0.075761692581656, 0
517, 0.87582872914685, 0.022700439199378, 0
518, 0.50823466737274, 0.27373687179961, 0
519, 0.46377979094569, 0.2833486504011, 0
520, 0.48728333573361, 0.2792171638865, 0
521, 0.28944938304711, 0.23860878251523, 0
522, 0.25717873315024, 0.21593564654453, 0
523, 0.28184172627333, 0.2115765979931, 0
524, 0.30169367692133, 0.26976057827723, 0
525, 0.28190668587823, 0.27082585385309, 0
526, 0.77528504477099, 0.17759622275045, 0
527, 0.78805659537928, -0.072788566095129, 0
528, 0.92220634602905, -0.02394298406107, 0
529, 0.84000324699101, 0.012074375845772, 0
530, 0.90988429420854, 0.080310371280542, 0
531, 0.70014124880937, 0.062393707446912, 0
532, 0.92328201663527, -0.16001820399541, 0
533, 0.68275009148889, 0.16821917400958, 0
534, 0.565421897274, 0.22033733001822, 0
535, 0.62685571634639, -0.26596749025997, 0
536, 0.82321767783407, 0.086514364852327, 0
537, 0.9800590951506, 0.049955986636558, 0
538, 0.96022203808715, 0.16944142177969, 0
539, 0.80042835771371, -0.2284745185408, 0
540, 0.67329700105119, -0.23555766725674, 0
541, 0.25935104425521, 0.13382198428737, 0
542, 0.78241571185289, -0.17530740400718, 0
543, 0.56758050067133, -0.22308481252677, 0
544, 0.59169848156042, 0.18133643267444, 0
545, 0.63956868580597, 0.15628304462725, 0
546, 0.76557223757577, 0.065821774525798, 0
547, 0.8928529988489, 0.084676088810824, 0
548, 0.90823355397208, 0.11357655969674, 0
549, 0.63498702095953, 0.18008740694144, 0
550, 0.57951005811412, 0.24944836459601, 0
551, 0.89033955835793, -0.085943432916683, 0
552, 0.91005036669211, 0.045970493162103, 0
553, 0.71565724894667, 0.12072343110795, 0
554, 0.54354845415982, 0.26513005710623, 0
555, 0.68332714934644, 0.14340497306087, 0
556, 0.42224965263618, -0.20971777957233, 0
557, 0.92172873152356, -0.20767454837593, 0
558, 0.91960229943066, -0.23088421517829, 0
559, 0.56431535461061, -0.17749910506801, 0
560, 0.40886082438185, 0.28596258961248, 0
561, 0.43751078134155, 0.28563024682829, 0
562, 0.52687126331343, 0.26816310191239, 0
563, 0.24067595032819, -0.18942692512866, 0
564, 0.26013615636119, -0.2184602006868, 0
565, 0.23553337952776, -0.21717720957993, 0
566, 0.37756480004566, -0.12582435362451, 0
567, 0.77398605939774, -0.271884571142, 0
568, 0.53958437727457, -0.26644991694517, 0
569, 0.34894298465411, 0.27870486934038, 0
570, 0.37859437136881, 0.2836927889233, 0
571, 0.10638145759137, -0.21973065676992, 0
572, 0.13350015542441, -0.19366631727235, 0
573, 0.13299420921114, -0.2200811567107, 0
574, 0.79857823875209, -0.14518345323236, 0
575, 0.76419329280085, 0.090374039425392, 0
576, 0.85743421866078, 0.098451355868569, 0
577, 0.25593403553767, 0.061526252466889, 0
578, 0.28157766451018, 0.15396177240876, 0
579, 0.87193818031777, 0.1231218708002, 0
580, 0.88160317625371, 0.17819468749128, 0
581, 0.73295327202155, -0.0069505361799788, 0
582, 0.62870459031492, 0.2196691150493, 0
583, 0.88777190974904, -0.018999794639065, 0
584, 0.81031144756136, 0.1449791392472, 0
585, 0.89738594854578, -0.18504922194267, 0
586, 0.92394393513577, -0.1836524616603, 0
587, 0.21986757236382, -0.15859581550228, 0
588, 0.27521600608803, -0.16770344499923, 0
589, 0.24614704896789, -0.16356428971008, 0
590, 0.32281008806139, 0.27315468603236, 0
591, 0.98005240171388, 0.13856510636047, 0
592, 0.70286702804551, 0.14611388857453, 0
593, 0.076461262046736, 0.18798743461976, 0
594, 0.077275261997389, 0.2166678159548, 0
595, 0.94268280021004, 0.010590692014083, 0
596, 0.16166417441901, -0.16832551857243, 0
597, 0.19281312896791, -0.14305819049924, 0
598, 0.19113086434301, -0.16626570359109, 0
599, 0.98016865330227, 0.10928841238014, 0
600, 0.73548000537457, 0.16531876969079, 0
601, 0.07975630515705, -0.19262419156134, 0
602, 0.079852013996819, -0.21935462311526, 0
603, 0.60690440015967, 0.25587675014072, 0
604, 0.94052394693608, -0.02205443323166, 0
605, 0.10119107284019, 0.1586510643805, 0
606, 0.076222045683288, 0.15910130157725, 0
607, 0.20911580486862, 0.059910784530743, 0
608, 0.20571948267338, 0.026157226760147, 0
609, 0.22875025246658, 0.19171722479886, 0
610, 0.2285377940245, 0.16549916331415, 0
611, 0.15057562445067, 0.15971725975192, 0
612, 0.12665041738986, 0.12936833529854, 0
613, 0.12591936672211, 0.15879349403602, 0
614, 0.13144858652799, -0.14237393050104, 0
615, 0.1058285573618, -0.16667429451173, 0
616, 0.13318518786917, -0.16786190179392, 0
617, 0.20495995227433, 0.2186133218996, 0
618, 0.17658073403772, 0.19007273026502, 0
619, 0.17884246347094, 0.21802074871074, 0
620, 0.15316876529606, 0.10077617571394, 0
621, 0.13277595513908, 0.070434545071408, 0
622, 0.12880909951472, 0.099847718366487, 0
623, 0.079187797849314, -0.16583360540299, 0
624, 0.25551043950613, 0.16041900875205, 0
625, 0.20356720366214, 0.11222123432814, 0
626, 0.94405814836248, 0.076889349769601, 0
627, 0.86639841957521, -0.15982720266981, 0
628, 0.94084911374373, 0.17110700798901, 0
629, 0.57787752831627, 0.20002752371024, 0
630, 0.90545939685327, 0.14529231142232, 0
631, 0.14684653319817, -0.030573409347463, 0
632, 0.1500690161823, 0.015840200912162, 0
633, 0.1488080451387, -0.0073577061967606, 0
634, 0.61536418678632, 0.19477931542702, 0
635, 0.85811523086028, -0.1094836686415, 0
636, 0.96150920655624, 0.1089670841629, 0
637, 0.76184035452158, 0.15969108938296, 0
638, 0.68101559956263, 0.111478005357, 0
639, 0.55351128245387, 0.24010922091593, 0
640, 0.13923139441949, 0.041798647543667, 0
641, 0.96099791487309, 0.13964305151346, 0
642, 0.78625512730132, 0.053545421653737, 0
643, 0.90522069577303, -0.11340585381015, 0
644, 0.70989312748026, 0.012664073340553, 0
645, 0.87167269923474, -0.18421658730319, 0
646, 0.83856294582011, -0.097279367437804, 0
647, 0.77289184836358, -0.019471964182829, 0
648, 0.92587172045375, -0.13600376572273, 0
649, 0.12268290621999, -0.085548729541715, 0
650, 0.12890369859779, -0.054817180113093, 0
651, 0.80608065355969, 0.068415403165638, 0
652, 0.85956603554185, 0.032212728675417, 0
653, 0.97972146602919, 0.020216768471755, 0
654, 0.85592138408649, -0.00096238432816836, 0
655, 0.44362629779626, -0.22365774592093, 0
656, 0.29524840321795, -0.19428181523231, 0
657, 0.28458046364833, -0.2201495262391, 0
658, 0.33622846611488, -0.17687181993835, 0
659, 0.306041631209, -0.17125008529355, 0
660, 0.79650537085731, 0.12568149639285, 0
661, 0.23019674990146, 0.1406808266684, 0
662, 0.20157550654273, 0.16426556510988, 0
663, 0.20991358864628, -0.11128995925837, 0
664, 0.21595462022452, -0.080297925397819, 0
665, 0.15280733680473, -0.11984542807593, 0
666, 0.18249637519478, -0.12236166144964, 0
667, 0.23138157728025, 0.21852079336916, 0
668, 0.12629942274038, -0.11546935649346, 0
669, 0.97918379580433, -0.0092774939747852, 0
670, 0.29455504675974, 0.099812382841965, 0
671, 0.36033675268078, -0.19950484944953, 0
672, 0.75250793794107, -3.404511888332e-06, 0
673, 0.5864714488727, -0.22134074364963, 0
674, 0.87169436824336, -0.011381101928516, 0
675, 0.42653779994938, -0.27231018440304, 0
676, 0.2338347567664, 0.095566257639256, 0
677, 0.76995989546173, -0.24294117283477, 0
678, 0.82419936120178, -0.18404248315881, 0
679, 0.37763607441605, -0.27045291902172, 0
680, 0.38754062045825, -0.17004087879341, 0
681, 0.1805276698527, 0.077430839132615, 0
682, 0.26405553490496, 0.10863143346207, 0
683, 0.56197749054202, -0.26448230371667, 0
684, 0.54748658319659, -0.22948267987503, 0
685, 0.94241928594874, 0.14087285403804, 0
686, 0.9267498601189, 0.043789233378367, 0
687, 0.16975392394685, -0.071737513637729, 0
688, 0.62591211962245, -0.19087889411812, 0
689, 0.78583072303367, 0.080094709207917, 0
690, 0.33350527116049, -0.23047368638556, 0
691, 0.70400717704026, 0.20667159990349, 0
692, 0.97983671823133, 0.16745477071056, 0
693, 0.28007983088412, 0.053553402204142, 0
694, 0.233015028641, 0.072436236266046, 0
695, 0.68970851282248, 0.22507597558005, 0
696, 0.72057303415931, 0.22398679056876, 0
697, 0.75029037410964, 0.22155964489636, 0
698, 0.77843978686359, 0.21839949273104, 0
699, 0.80492469345156, 0.21493959686694, 0
700, 0.82985629425066, 0.21147283115332, 0
701, 0.85341421472979, 0.20828317996251, 0
702, 0.87582954510754, 0.20555239279353, 0
703, 0.89736651561989, 0.20331846777433, 0
704, 0.9182796618567, 0.20152411039194, 0
705, 0.93880371866224, 0.19995141235862, 0
706, 0.95914332343448, 0.19822699130958, 0
707, 0.9794697454708, 0.1958412467668, 0
708, 0.67709867039965, 0.24302027699676, 0
709, 0.70807264743349, 0.2428174912742, 0
710, 0.73824402562523, 0.24151620262343, 0
711, 0.76713036794688, 0.23959496348701, 0
712, 0.79457113359868, 0.23738995983599, 0
713, 0.82063850470894, 0.2350959866769, 0
714, 0.84545813530083, 0.23295894162786, 0
715, 0.86920630546435, 0.23114595996059, 0
716, 0.89211136113567, 0.22966295553084, 0
717, 0.91438297655342, 0.22846078419041, 0
718, 0.93620680345972, 0.22731897963134, 0
719, 0.95771699453756, 0.22585831812782, 0
720, 0.97896620089922, 0.22357838887559, 0
721, 0.66637361426893, 0.26103178083359, 0
722, 0.69692292969606, 0.26131431613439, 0
723, 0.72694519710954, 0.26082676631959, 0
724, 0.75601324879849, 0.25989716579984, 0
725, 0.78395150162384, 0.25874851615901, 0
726, 0.81080599271009, 0.25745550907739, 0
727, 0.83664161333365, 0.25622554111967, 0
728, 0.8615753184162, 0.25521756153312, 0
729, 0.88580561880052, 0.25440669859834, 0
730, 0.90949334998311, 0.25377929277853, 0
731, 0.93277158465172, 0.25314530570162, 0
732, 0.95569110681316, 0.25217018031536, 0
733, 0.97814180710814, 0.2504551023051, 0
734, 0.65944409295517, 0.27988396956311, 0
735, 0.68817821771432, 0.28016226333672, 0
736, 0.71695380757835, 0.2801089414391, 0
737, 0.74535617699578, 0.27984563485436, 0
738, 0.77317090586644, 0.27947855847623, 0
739, 0.80034880465454, 0.27895737381691, 0
740, 0.82682057947, 0.27843905659593, 0
741, 0.85267515124011, 0.27805980657688, 0
742, 0.87809402275207, 0.277755595645, 0
743, 0.9031970315654, 0.27756709594142, 0
744, 0.92809564195606, 0.27736950562932, 0
745, 0.95274865836447, 0.27692864541466, 0
746, 0.97688143571247, 0.27609699931977, 0
747, 0.72550282403008, 0.045342536398809, 0
748, 0.70702919375787, 0.038275056124963, 0
749, 0.68721766116595, 0.032639914685603, 0
750, 0.74262904351363, 0.076581574661619, 0
751, 0.74108014303746, 0.098559206431407, 0
752, 0.73604300263988, 0.12193915149656, 0
753, 0.72494637055091, 0.14606752161396, 0
754, 0.70840303288149, 0.16870957919914, 0
755, 0.69026182733193, 0.18868858833631, 0
756, 0.67317393210491, 0.20669151158538, 0
757, 0.65859480949235, 0.22398275320258, 0
758, 0.64623524157059, 0.24144114932275, 0
759, 0.6360519322494, 0.25944293662426, 0
760, 0.63146397781843, 0.2790149098977, 0
761, 0.76415335722937, 0.04123616442497, 0
762, 0.78296276324097, 0.027854000596057, 0
763, 0.80076081885883, 0.013365969823627, 0
764, 0.81754154738382, -0.0020594376979872, 0
765, 0.83334087489279, -0.017744833899135, 0
766, 0.84844411884585, -0.032529510634789, 0
767, 0.8641057226757, -0.043901223820477, 0
768, 0.88061038168231, -0.05212383893811, 0
769, 0.89857266310203, -0.055710377320138, 0
770, 0.91762303778859, -0.056096258569325, 0
771, 0.93743859112199, -0.053462255845096, 0
772, 0.95778120408301, -0.047675305046663, 0
773, 0.97856867541374, -0.038279770331446, 0
774, 0.74399172717884, 0.054324619014139, 0
******* E L E M E N T S *************
*ELEMENT, type=T3D2, ELSET=Line1
1, 1, 10
2, 10, 18
3, 18, 11
4, 11, 19
5, 19, 12
6, 12, 20
7, 20, 13
8, 13, 21
9, 21, 14
10, 14, 22
11, 22, 15
12, 15, 23
13, 23, 16
14, 16, 24
15, 24, 17
16, 17, 2
*ELEMENT, type=T3D2, ELSET=Line2
17, 2, 25
18, 25, 28
19, 28, 26
20, 26, 29
21, 29, 27
22, 27, 3
*ELEMENT, type=T3D2, ELSET=Line3
23, 3, 30
24, 30, 38
25, 38, 31
26, 31, 39
27, 39, 32
28, 32, 40
29, 40, 33
30, 33, 41
31, 41, 34
32, 34, 42
33, 42, 35
34, 35, 43
35, 43, 36
36, 36, 44
37, 44, 37
38, 37, 4
*ELEMENT, type=T3D2, ELSET=Line4
39, 4, 45
40, 45, 56
41, 56, 46
42, 46, 57
43, 57, 47
44, 47, 58
45, 58, 48
46, 48, 59
47, 59, 49
48, 49, 60
49, 60, 50
50, 50, 61
51, 61, 51
52, 51, 62
53, 62, 52
54, 52, 63
55, 63, 53
56, 53, 64
57, 64, 54
58, 54, 65
59, 65, 55
60, 55, 5
*ELEMENT, type=T3D2, ELSET=Line5
61, 5, 66
62, 66, 74
63, 74, 67
64, 67, 75
65, 75, 68
66, 68, 76
67, 76, 69
68, 69, 77
69, 77, 70
70, 70, 78
71, 78, 71
72, 71, 79
73, 79, 72
74, 72, 80
75, 80, 73
76, 73, 6
*ELEMENT, type=T3D2, ELSET=Line6
77, 6, 81
78, 81, 85
79, 85, 82
80, 82, 86
81, 86, 83
82, 83, 87
83, 87, 84
84, 84, 7
*ELEMENT, type=T3D2, ELSET=Line7
85, 7, 88
86, 88, 96
87, 96, 89
88, 89, 97
89, 97, 90
90, 90, 98
91, 98, 91
92, 91, 99
93, 99, 92
94, 92, 100
95, 100, 93
96, 93, 101
97, 101, 94
98, 94, 102
99, 102, 95
100, 95, 8
*ELEMENT, type=T3D2, ELSET=Line8
101, 8, 103
102, 103, 114
103, 114, 104
104, 104, 115
105, 115, 105
106, 105, 116
107, 116, 106
108, 106, 117
109, 117, 107
110, 107, 118
111, 118, 108
112, 108, 119
113, 119, 109
114, 109, 120
115, 120, 110
116, 110, 121
117, 121, 111
118, 111, 122
119, 122, 112
120, 112, 123
121, 123, 113
122, 113, 1
*ELEMENT, type=T3D2, ELSET=Line9
123, 9, 124
124, 124, 156
125, 156, 154
126, 154, 157
127, 157, 153
128, 153, 158
129, 158, 152
130, 152, 159
131, 159, 151
132, 151, 160
133, 160, 150
134, 150, 161
135, 161, 149
136, 149, 162
137, 162, 148
138, 148, 163
139, 163, 147
140, 147, 164
141, 164, 146
142, 146, 165
143, 165, 145
144, 145, 166
145, 166, 144
146, 144, 167
147, 167, 143
148, 143, 168
149, 168, 142
150, 142, 169
151, 169, 141
152, 141, 170
153, 170, 140
154, 140, 171
155, 171, 139
156, 139, 172
157, 172, 138
158, 138, 173
159, 173, 137
160, 137, 174
161, 174, 136
162, 136, 175
163, 175, 135
164, 135, 176
165, 176, 134
166, 134, 177
167, 177, 133
168, 133, 178
169, 178, 132
170, 132, 179
171, 179, 131
172, 131, 180
173, 180, 130
174, 130, 181
175, 181, 129
176, 129, 182
177, 182, 128
178, 128, 183
179, 183, 127
180, 127, 184
181, 184, 126
182, 126, 185
183, 185, 125
184, 125, 186
185, 186, 155
186, 155, 9
*ELEMENT, type=CPS4, ELSET=Surface1
187, 21, 333, 334, 13
188, 13, 334, 331, 20
189, 334, 332, 190, 331
190, 333, 191, 332, 334
191, 285, 337, 338, 335
192, 335, 338, 336, 287
193, 338, 36, 44, 336
194, 337, 43, 36, 338
195, 539, 506, 282, 297
196, 422, 178, 133, 289
197, 274, 353, 677, 315
198, 288, 240, 358, 284
199, 603, 759, 760, 248
200, 686, 552, 244, 253
201, 437, 516, 487, 652
202, 361, 686, 253, 595
203, 540, 339, 343, 193
204, 199, 392, 294, 312
205, 119, 109, 348, 345
206, 345, 348, 346, 231
207, 348, 347, 233, 346
208, 109, 120, 347, 348
209, 118, 108, 351, 349
210, 349, 351, 350, 220
211, 351, 345, 231, 350
212, 108, 119, 345, 351
213, 482, 540, 193, 481
214, 542, 574, 127, 183
215, 353, 344, 567, 677
216, 289, 133, 177, 277
217, 273, 383, 301, 537
218, 672, 356, 644, 581
219, 319, 318, 125, 185
220, 771, 770, 260, 447
221, 285, 359, 360, 337
222, 337, 360, 35, 43
223, 360, 358, 42, 35
224, 359, 284, 358, 360
225, 581, 644, 155, 186
226, 531, 355, 412, 254
227, 210, 365, 366, 363
228, 363, 366, 364, 209
229, 366, 93, 101, 364
230, 365, 100, 93, 366
231, 264, 530, 552, 686
232, 496, 502, 600, 637
233, 342, 451, 184, 327
234, 488, 753, 752, 384
235, 243, 384, 575, 689
236, 49, 362, 503, 59
237, 124, 495, 414, 156
238, 196, 316, 526, 369
239, 116, 106, 376, 373
240, 373, 376, 374, 205
241, 376, 375, 219, 374
242, 106, 117, 375, 376
243, 58, 370, 379, 47
244, 47, 379, 377, 57
245, 379, 378, 286, 377
246, 370, 278, 378, 379
247, 207, 381, 382, 380
248, 380, 382, 373, 205
249, 382, 105, 116, 373
250, 381, 115, 105, 382
251, 254, 412, 553, 320
252, 552, 489, 424, 244
253, 403, 243, 689, 651
254, 249, 637, 246, 660
255, 44, 37, 387, 336
256, 336, 387, 386, 287
257, 387, 45, 56, 386
258, 37, 4, 45, 387
259, 121, 111, 391, 388
260, 388, 391, 389, 230
261, 391, 390, 222, 389
262, 111, 122, 390, 391
263, 344, 324, 40, 33
264, 405, 655, 352, 439
265, 276, 131, 179, 410
266, 277, 177, 134, 405
267, 246, 488, 384, 243
268, 555, 592, 533, 250
269, 48, 271, 370, 58
270, 357, 425, 672, 647
271, 120, 110, 399, 347
272, 347, 399, 398, 233
273, 399, 388, 230, 398
274, 110, 121, 388, 399
275, 117, 107, 401, 375
276, 375, 401, 400, 219
277, 401, 349, 220, 400
278, 107, 118, 349, 401
279, 301, 361, 595, 257
280, 530, 547, 489, 552
281, 592, 753, 754, 533
282, 315, 539, 297, 411
283, 410, 179, 132, 559
284, 353, 280, 324, 344
285, 211, 408, 409, 407
286, 407, 409, 365, 210
287, 409, 92, 100, 365
288, 408, 99, 92, 409
289, 406, 129, 181, 281
290, 655, 176, 135, 556
291, 559, 422, 684, 543
292, 534, 468, 550, 639
293, 269, 630, 548, 436
294, 629, 454, 468, 534
295, 156, 414, 638, 154
296, 212, 416, 417, 415
297, 415, 417, 408, 211
298, 417, 91, 99, 408
299, 416, 98, 91, 417
300, 22, 15, 421, 418
301, 418, 421, 419, 192
302, 421, 420, 195, 419
303, 15, 23, 420, 421
304, 23, 16, 423, 420
305, 420, 423, 328, 195
306, 299, 671, 330, 187
307, 187, 330, 690, 328
308, 160, 639, 394, 554
309, 244, 424, 583, 371
310, 551, 251, 635, 402
311, 528, 371, 769, 770
312, 102, 95, 429, 427
313, 427, 429, 428, 208
314, 429, 103, 114, 428
315, 95, 8, 103, 429
316, 101, 94, 431, 364
317, 364, 431, 430, 209
318, 431, 427, 208, 430
319, 94, 102, 427, 431
320, 266, 369, 584, 267
321, 767, 766, 256, 262
322, 637, 600, 488, 246
323, 257, 595, 604, 263
324, 21, 14, 435, 333
325, 333, 435, 434, 191
326, 435, 418, 192, 434
327, 14, 22, 418, 435
328, 271, 385, 278, 370
329, 362, 270, 446, 503
330, 674, 654, 766, 767
331, 344, 33, 41, 567
332, 683, 568, 29, 27
333, 539, 288, 284, 506
334, 343, 535, 38, 31
335, 275, 675, 2, 25
336, 543, 684, 568, 683
337, 274, 393, 280, 353
338, 123, 113, 442, 440
339, 440, 442, 441, 188
340, 442, 10, 18, 441
341, 113, 1, 10, 442
342, 189, 444, 445, 443
343, 443, 445, 331, 190
344, 445, 12, 20, 331
345, 444, 19, 12, 445
346, 153, 545, 325, 158
347, 595, 253, 528, 604
348, 259, 317, 627, 279
349, 355, 750, 751, 412
350, 194, 299, 187, 679
351, 393, 406, 482, 280
352, 194, 679, 24, 17
353, 188, 441, 449, 448
354, 448, 449, 444, 189
355, 449, 11, 19, 444
356, 441, 18, 11, 449
357, 495, 531, 254, 414
358, 494, 747, 748, 356
359, 263, 604, 771, 772
360, 638, 320, 555, 255
361, 287, 386, 453, 452
362, 452, 453, 377, 286
363, 453, 46, 57, 377
364, 386, 56, 46, 453
365, 250, 533, 433, 549
366, 643, 402, 317, 259
367, 158, 325, 544, 152
368, 122, 112, 456, 390
369, 390, 456, 455, 222
370, 456, 440, 188, 455
371, 112, 123, 440, 456
372, 208, 428, 458, 457
373, 457, 458, 381, 207
374, 458, 104, 115, 381
375, 428, 114, 104, 458
376, 233, 398, 462, 459
377, 459, 462, 460, 235
378, 462, 461, 229, 460
379, 398, 230, 461, 462
380, 219, 465, 466, 374
381, 374, 466, 463, 205
382, 466, 464, 204, 463
383, 465, 218, 464, 466
384, 261, 642, 762, 763
385, 371, 583, 768, 769
386, 59, 503, 271, 48
387, 369, 526, 249, 584
388, 172, 472, 473, 138
389, 138, 473, 470, 173
390, 473, 471, 241, 470
391, 472, 242, 471, 473
392, 191, 476, 477, 332
393, 332, 477, 474, 190
394, 477, 475, 228, 474
395, 476, 223, 475, 477
396, 219, 400, 480, 465
397, 465, 480, 478, 218
398, 480, 479, 221, 478
399, 400, 220, 479, 480
400, 406, 281, 540, 482
401, 280, 482, 481, 324
402, 439, 352, 675, 275
403, 237, 485, 486, 483
404, 483, 486, 484, 236
405, 486, 140, 170, 484
406, 485, 171, 140, 486
407, 402, 635, 396, 317
408, 247, 643, 259, 648
409, 201, 492, 493, 490
410, 490, 493, 491, 206
411, 493, 363, 209, 491
412, 492, 210, 363, 493
413, 356, 748, 749, 644
414, 318, 581, 186, 125
415, 765, 764, 467, 340
416, 748, 747, 355, 531
417, 233, 459, 499, 346
418, 346, 499, 497, 231
419, 499, 498, 232, 497
420, 459, 235, 498, 499
421, 231, 497, 501, 350
422, 350, 501, 479, 220
423, 501, 500, 221, 479
424, 497, 232, 500, 501
425, 396, 342, 327, 272
426, 270, 447, 247, 446
427, 316, 302, 496, 526
428, 283, 507, 508, 505
429, 505, 508, 359, 285
430, 508, 506, 284, 359
431, 507, 282, 506, 508
432, 670, 682, 292, 214
433, 144, 578, 511, 167
434, 142, 693, 217, 169
435, 309, 676, 213, 625
436, 172, 139, 514, 472
437, 472, 514, 512, 242
438, 514, 513, 225, 512
439, 139, 171, 513, 514
440, 450, 372, 258, 579
441, 546, 750, 774, 761
442, 634, 300, 582, 454
443, 503, 446, 385, 271
444, 87, 519, 520, 83
445, 83, 520, 518, 86
446, 520, 149, 161, 518
447, 519, 162, 149, 520
448, 212, 522, 523, 521
449, 521, 523, 145, 165
450, 523, 510, 166, 145
451, 522, 202, 510, 523
452, 212, 521, 525, 416
453, 416, 525, 90, 98
454, 525, 524, 97, 90
455, 521, 165, 524, 525
456, 626, 264, 686, 361
457, 469, 576, 437, 404
458, 762, 761, 494, 425
459, 317, 396, 272, 627
460, 685, 269, 436, 395
461, 669, 263, 772, 773
462, 550, 603, 248, 504
463, 384, 752, 751, 575
464, 412, 751, 752, 553
465, 60, 773, 362, 49
466, 653, 257, 263, 669
467, 544, 634, 454, 629
468, 324, 481, 32, 40
469, 422, 289, 199, 684
470, 352, 298, 194, 675
471, 583, 674, 767, 768
472, 584, 249, 660, 432
473, 515, 651, 261, 341
474, 652, 487, 529, 654
475, 281, 313, 339, 540
476, 411, 297, 678, 295
477, 215, 681, 307, 620
478, 167, 511, 670, 143
479, 169, 217, 216, 141
480, 202, 609, 610, 624
481, 339, 311, 535, 343
482, 405, 134, 176, 655
483, 487, 515, 341, 529
484, 773, 772, 270, 362
485, 772, 771, 447, 270
486, 368, 579, 469, 547
487, 385, 648, 532, 278
488, 253, 244, 371, 528
489, 367, 354, 527, 451
490, 326, 647, 318, 319
491, 320, 553, 592, 555
492, 517, 652, 654, 674
493, 766, 765, 340, 256
494, 761, 774, 747, 494
495, 268, 432, 536, 516
496, 553, 752, 753, 592
497, 262, 256, 367, 646
498, 194, 298, 438, 299
499, 303, 556, 135, 175
500, 393, 182, 129, 406
501, 285, 335, 558, 505
502, 505, 558, 557, 283
503, 558, 452, 286, 557
504, 335, 287, 452, 558
505, 559, 132, 178, 422
506, 675, 194, 17, 2
507, 7, 560, 561, 84
508, 84, 561, 519, 87
509, 561, 148, 162, 519
510, 560, 163, 148, 561
511, 161, 150, 562, 518
512, 518, 562, 82, 86
513, 562, 554, 85, 82
514, 150, 160, 554, 562
515, 191, 434, 565, 476
516, 476, 565, 563, 223
517, 565, 564, 224, 563
518, 434, 192, 564, 565
519, 241, 305, 566, 470
520, 470, 566, 137, 173
521, 566, 136, 174, 137
522, 305, 175, 136, 566
523, 277, 405, 439, 392
524, 281, 181, 130, 313
525, 311, 290, 198, 535
526, 163, 560, 570, 147
527, 147, 570, 569, 164
528, 570, 88, 96, 569
529, 560, 7, 88, 570
530, 190, 474, 573, 443
531, 443, 573, 571, 189
532, 573, 572, 227, 571
533, 474, 228, 572, 573
534, 312, 294, 28, 26
535, 127, 574, 327, 184
536, 574, 295, 272, 327
537, 677, 567, 240, 288
538, 267, 584, 432, 268
539, 749, 748, 531, 495
540, 245, 758, 759, 603
541, 258, 267, 268, 576
542, 624, 610, 661, 541
543, 682, 213, 676, 292
544, 608, 509, 308, 236
545, 217, 310, 608, 216
546, 300, 756, 757, 582
547, 354, 326, 319, 527
548, 255, 555, 250, 545
549, 159, 629, 534, 151
550, 404, 437, 652, 517
551, 157, 255, 545, 153
552, 548, 368, 547, 530
553, 278, 532, 586, 378
554, 378, 586, 557, 286
555, 586, 585, 283, 557
556, 532, 279, 585, 586
557, 224, 588, 589, 563
558, 563, 589, 587, 223
559, 589, 512, 225, 587
560, 588, 242, 512, 589
561, 97, 524, 590, 89
562, 89, 590, 569, 96
563, 590, 146, 164, 569
564, 524, 165, 146, 590
565, 451, 527, 126, 184
566, 433, 755, 756, 300
567, 536, 403, 651, 515
568, 468, 245, 603, 550
569, 467, 357, 647, 326
570, 63, 591, 599, 52
571, 529, 341, 764, 765
572, 209, 430, 594, 491
573, 491, 594, 593, 206
574, 594, 457, 207, 593
575, 430, 208, 457, 594
576, 549, 433, 300, 634
577, 764, 763, 357, 467
578, 516, 536, 515, 487
579, 223, 587, 598, 475
580, 475, 598, 596, 228
581, 598, 597, 226, 596
582, 587, 225, 597, 598
583, 152, 544, 629, 159
584, 61, 653, 669, 50
585, 489, 404, 517, 424
586, 302, 691, 502, 496
587, 189, 571, 602, 448
588, 448, 602, 455, 188
589, 602, 601, 222, 455
590, 571, 227, 601, 602
591, 644, 749, 9, 155
592, 414, 254, 320, 638
593, 527, 319, 185, 126
594, 205, 463, 606, 380
595, 380, 606, 593, 207
596, 606, 605, 206, 593
597, 463, 204, 605, 606
598, 511, 541, 682, 670
599, 662, 610, 609, 200
600, 681, 309, 625, 307
601, 307, 625, 306, 291
602, 201, 490, 613, 611
603, 611, 613, 612, 203
604, 613, 605, 204, 612
605, 490, 206, 605, 613
606, 229, 615, 616, 614
607, 614, 616, 596, 226
608, 616, 572, 228, 596
609, 615, 227, 572, 616
610, 201, 618, 619, 492
611, 492, 619, 407, 210
612, 619, 617, 211, 407
613, 618, 200, 617, 619
614, 218, 621, 622, 464
615, 464, 622, 612, 204
616, 622, 620, 203, 612
617, 621, 215, 620, 622
618, 230, 389, 623, 461
619, 461, 623, 615, 229
620, 623, 601, 227, 615
621, 389, 222, 601, 623
622, 607, 694, 676, 309
623, 214, 292, 577, 693
624, 168, 214, 693, 142
625, 292, 676, 694, 577
626, 769, 768, 251, 551
627, 432, 660, 403, 536
628, 425, 494, 356, 672
629, 654, 529, 765, 766
630, 599, 636, 383, 273
631, 447, 260, 643, 247
632, 600, 754, 753, 488
633, 236, 632, 633, 483
634, 483, 633, 631, 237
635, 633, 500, 232, 631
636, 632, 221, 500, 633
637, 575, 751, 750, 546
638, 9, 749, 495, 124
639, 636, 395, 626, 383
640, 689, 575, 546, 642
641, 341, 261, 763, 764
642, 260, 551, 402, 643
643, 579, 258, 576, 469
644, 221, 632, 640, 478
645, 478, 640, 621, 218
646, 640, 308, 215, 621
647, 632, 236, 308, 640
648, 635, 646, 342, 396
649, 372, 266, 267, 258
650, 591, 641, 636, 599
651, 446, 247, 648, 385
652, 648, 259, 279, 532
653, 256, 340, 354, 367
654, 279, 627, 645, 585
655, 585, 645, 507, 283
656, 645, 296, 282, 507
657, 627, 272, 296, 645
658, 454, 582, 245, 468
659, 52, 599, 273, 62
660, 394, 504, 6, 81
661, 424, 517, 674, 583
662, 234, 321, 650, 649
663, 649, 650, 498, 235
664, 650, 631, 232, 498
665, 321, 237, 631, 650
666, 641, 685, 395, 636
667, 62, 273, 537, 51
668, 502, 755, 754, 600
669, 691, 756, 755, 502
670, 197, 450, 579, 368
671, 604, 528, 770, 771
672, 576, 268, 516, 437
673, 248, 760, 80, 73
674, 313, 688, 311, 339
675, 673, 543, 683, 314
676, 655, 556, 298, 352
677, 688, 276, 290, 311
678, 195, 329, 657, 419
679, 419, 657, 564, 192
680, 657, 656, 224, 564
681, 329, 239, 656, 657
682, 224, 656, 659, 588
683, 588, 659, 471, 242
684, 659, 658, 241, 471
685, 656, 239, 658, 659
686, 651, 689, 642, 261
687, 639, 550, 504, 394
688, 770, 769, 551, 260
689, 395, 436, 264, 626
690, 306, 661, 610, 662
691, 308, 509, 681, 215
692, 310, 607, 509, 608
693, 293, 662, 200, 618
694, 238, 663, 664, 322
695, 322, 664, 485, 237
696, 664, 513, 171, 485
697, 663, 225, 513, 664
698, 238, 323, 666, 663
699, 663, 666, 597, 225
700, 666, 665, 226, 597
701, 323, 234, 665, 666
702, 202, 522, 667, 609
703, 609, 667, 617, 200
704, 667, 415, 211, 617
705, 522, 212, 415, 667
706, 229, 614, 668, 460
707, 460, 668, 649, 235
708, 668, 665, 234, 649
709, 614, 226, 665, 668
710, 582, 757, 758, 245
711, 325, 549, 634, 544
712, 504, 248, 73, 6
713, 533, 754, 755, 433
714, 203, 291, 293, 611
715, 611, 293, 618, 201
716, 143, 670, 214, 168
717, 291, 306, 662, 293
718, 239, 330, 671, 658
719, 658, 671, 304, 241
720, 679, 187, 328, 423
721, 679, 423, 16, 24
722, 660, 246, 243, 403
723, 545, 250, 549, 325
724, 340, 467, 326, 354
725, 647, 672, 581, 318
726, 688, 180, 131, 276
727, 411, 295, 574, 542
728, 481, 193, 39, 32
729, 314, 683, 27, 3
730, 251, 262, 646, 635
731, 436, 548, 530, 264
732, 383, 626, 361, 301
733, 768, 767, 262, 251
734, 276, 410, 673, 290
735, 684, 199, 312, 568
736, 274, 315, 411, 542
737, 141, 216, 484, 170
738, 541, 661, 213, 682
739, 578, 624, 541, 511
740, 313, 130, 180, 688
741, 410, 559, 543, 673
742, 274, 542, 183, 128
743, 289, 277, 392, 199
744, 295, 678, 296, 272
745, 297, 282, 296, 678
746, 567, 41, 34, 240
747, 290, 673, 314, 198
748, 298, 556, 303, 438
749, 154, 638, 255, 157
750, 151, 534, 639, 160
751, 175, 305, 680, 303
752, 299, 438, 304, 671
753, 305, 241, 304, 680
754, 216, 608, 236, 484
755, 693, 577, 310, 217
756, 620, 307, 291, 203
757, 577, 694, 607, 310
758, 625, 213, 661, 306
759, 509, 607, 309, 681
760, 438, 303, 680, 304
761, 294, 275, 25, 28
762, 240, 34, 42, 358
763, 315, 677, 288, 539
764, 198, 314, 3, 30
765, 568, 312, 26, 29
766, 646, 367, 451, 342
767, 50, 669, 773, 60
768, 537, 301, 257, 653
769, 747, 774, 750, 355
770, 554, 394, 81, 85
771, 526, 496, 637, 249
772, 234, 323, 687, 321
773, 321, 687, 322, 237
774, 323, 238, 322, 687
775, 392, 439, 275, 294
776, 193, 343, 31, 39
777, 274, 128, 182, 393
778, 763, 762, 425, 357
779, 642, 546, 761, 762
780, 547, 469, 404, 489
781, 535, 198, 30, 38
782, 328, 690, 329, 195
783, 330, 239, 329, 690
784, 51, 537, 653, 61
785, 630, 197, 368, 548
786, 510, 202, 624, 578
787, 166, 510, 578, 144
788, 252, 196, 369, 266
789, 265, 252, 266, 372
790, 397, 265, 372, 450
791, 580, 397, 450, 197
792, 426, 580, 197, 630
793, 413, 426, 630, 269
794, 628, 413, 269, 685
795, 538, 628, 685, 641
796, 692, 538, 641, 591
797, 53, 692, 591, 63
798, 695, 757, 756, 691
799, 696, 695, 691, 302
800, 697, 696, 302, 316
801, 698, 697, 316, 196
802, 699, 698, 196, 252
803, 700, 699, 252, 265
804, 701, 700, 265, 397
805, 702, 701, 397, 580
806, 703, 702, 580, 426
807, 704, 703, 426, 413
808, 705, 704, 413, 628
809, 706, 705, 628, 538
810, 707, 706, 538, 692
811, 64, 707, 692, 53
812, 708, 758, 757, 695
813, 709, 708, 695, 696
814, 710, 709, 696, 697
815, 711, 710, 697, 698
816, 712, 711, 698, 699
817, 713, 712, 699, 700
818, 714, 713, 700, 701
819, 715, 714, 701, 702
820, 716, 715, 702, 703
821, 717, 716, 703, 704
822, 718, 717, 704, 705
823, 719, 718, 705, 706
824, 720, 719, 706, 707
825, 54, 720, 707, 64
826, 721, 759, 758, 708
827, 722, 721, 708, 709
828, 723, 722, 709, 710
829, 724, 723, 710, 711
830, 725, 724, 711, 712
831, 726, 725, 712, 713
832, 727, 726, 713, 714
833, 728, 727, 714, 715
834, 729, 728, 715, 716
835, 730, 729, 716, 717
836, 731, 730, 717, 718
837, 732, 731, 718, 719
838, 733, 732, 719, 720
839, 65, 733, 720, 54
840, 734, 760, 759, 721
841, 735, 734, 721, 722
842, 736, 735, 722, 723
843, 737, 736, 723, 724
844, 738, 737, 724, 725
845, 739, 738, 725, 726
846, 740, 739, 726, 727
847, 741, 740, 727, 728
848, 742, 741, 728, 729
849, 743, 742, 729, 730
850, 744, 743, 730, 731
851, 745, 744, 731, 732
852, 746, 745, 732, 733
853, 55, 746, 733, 65
854, 72, 80, 760, 734
855, 79, 72, 734, 735
856, 71, 79, 735, 736
857, 78, 71, 736, 737
858, 70, 78, 737, 738
859, 77, 70, 738, 739
860, 69, 77, 739, 740
861, 76, 69, 740, 741
862, 68, 76, 741, 742
863, 75, 68, 742, 743
864, 67, 75, 743, 744
865, 74, 67, 744, 745
866, 66, 74, 745, 746
867, 5, 66, 746, 55
*ELSET,ELSET=contact_source
101, 102, 103, 104, 105, 106, 107, 108, 109, 110, 
111, 112, 113, 114, 115, 116, 117, 118, 119, 120, 
121, 122, 
*ELSET,ELSET=contact_drain
39, 40, 41, 42, 43, 44, 45, 46, 47, 48, 
49, 50, 51, 52, 53, 54, 55, 56, 57, 58, 
59, 60, 
*ELSET,ELSET=probe_A
77, 78, 79, 80, 81, 82, 83, 84, 
*ELSET,ELSET=probe_B
17, 18, 19, 20, 21, 22, 
*ELSET,ELSET=walls
1, 2, 3, 4, 5, 6, 7, 8, 9, 10, 
11, 12, 13, 14, 15, 16, 23, 24, 25, 26, 
27, 28, 29, 30, 31, 32, 33, 34, 35, 36, 
37, 38, 61, 62, 63, 64, 65, 66, 67, 68, 
69, 70, 71, 72, 73, 74, 75, 76, 85, 86, 
87, 88, 89, 90, 91, 92, 93, 94, 95, 96, 
97, 98, 99, 100, 123, 124, 125, 126, 127, 128, 
129, 130, 131, 132, 133, 134, 135, 136, 137, 138, 
139, 140, 141, 142, 143, 144, 145, 146, 147, 148, 
149, 150, 151, 152, 153, 154, 155, 156, 157, 158, 
159, 160, 161, 162, 163, 164, 165, 166, 167, 168, 
169, 170, 171, 172, 173, 174, 175, 176, 177, 178, 
179, 180, 181, 182, 183, 184, 185, 186, 
*ELSET,ELSET=domain
187, 188, 189, 190, 191, 192, 193, 194, 195, 196, 
197, 198, 199, 200, 201, 202, 203, 204, 205, 206, 
207, 208, 209, 210, 211, 212, 213, 214, 215, 216, 
217, 218, 219, 220, 221, 222, 223, 224, 225, 226, 
227, 228, 229, 230, 231, 232, 233, 234, 235, 236, 
237, 238, 239, 240, 241, 242, 243, 244, 245, 246, 
247, 248, 249, 250, 251, 252, 253, 254, 255, 256, 
257, 258, 259, 260, 261, 262, 263, 264, 265, 266, 
267, 268, 269, 270, 271, 272, 273, 274, 275, 276, 
277, 278, 279, 280, 281, 282, 283, 284, 285, 286, 
287, 288, 289, 290, 291, 292, 293, 294, 295, 296, 
297, 298, 299, 300, 301, 302, 303, 304, 305, 306, 
307, 308, 309, 310, 311, 312, 313, 314, 315, 316, 
317, 318, 319, 320, 321, 322, 323, 324, 325, 326, 
327, 328, 329, 330, 331, 332, 333, 334, 335, 336, 
337, 338, 339, 340, 341, 342, 343, 344, 345, 346, 
347, 348, 349, 350, 351, 352, 353, 354, 355, 356, 
357, 358, 359, 360, 361, 362, 363, 364, 365, 366, 
367, 368, 369, 370, 371, 372, 373, 374, 375, 376, 
377, 378, 379, 380, 381, 382, 383, 384, 385, 386, 
387, 388, 389, 390, 391, 392, 393, 394, 395, 396, 
397, 398, 399, 400, 401, 402, 403, 404, 405, 406, 
407, 408, 409, 410, 411, 412, 413, 414, 415, 416, 
417, 418, 419, 420, 421, 422, 423, 424, 425, 426, 
427, 428, 429, 430, 431, 432, 433, 434, 435, 436, 
437, 438, 439, 440, 441, 442, 443, 444, 445, 446, 
447, 448, 449, 450, 451, 452, 453, 454, 455, 456, 
457, 458, 459, 460, 461, 462, 463, 464, 465, 466, 
467, 468, 469, 470, 471, 472, 473, 474, 475, 476, 
477, 478, 479, 480, 481, 482, 483, 484, 485, 486, 
487, 488, 489, 490, 491, 492, 493, 494, 495, 496, 
497, 498, 499, 500, 501, 502, 503, 504, 505, 506, 
507, 508, 509, 510, 511, 512, 513, 514, 515, 516, 
517, 518, 519, 520, 521, 522, 523, 524, 525, 526, 
527, 528, 529, 530, 531, 532, 533, 534, 535, 536, 
537, 538, 539, 540, 541, 542, 543, 544, 545, 546, 
547, 548, 549, 550, 551, 552, 553, 554, 555, 556, 
557, 558, 559, 560, 561, 562, 563, 564, 565, 566, 
567, 568, 569, 570, 571, 572, 573, 574, 575, 576, 
577, 578, 579, 580, 581, 582, 583, 584, 585, 586, 
587, 588, 589, 590, 591, 592, 593, 594, 595, 596, 
597, 598, 599, 600, 601, 602, 603, 604, 605, 606, 
607, 608, 609, 610, 611, 612, 613, 614, 615, 616, 
617, 618, 619, 620, 621, 622, 623, 624, 625, 626, 
627, 628, 629, 630, 631, 632, 633, 634, 635, 636, 
637, 638, 639, 640, 641, 642, 643, 644, 645, 646, 
647, 648, 649, 650, 651, 652, 653, 654, 655, 656, 
657, 658, 659, 660, 661, 662, 663, 664, 665, 666, 
667, 668, 669, 670, 671, 672, 673, 674, 675, 676, 
677, 678, 679, 680, 681, 682, 683, 684, 685, 686, 
687, 688, 689, 690, 691, 692, 693, 694, 695, 696, 
697, 698, 699, 700, 701, 702, 703, 704, 705, 706, 
707, 708, 709, 710, 711, 712, 713, 714, 715, 716, 
717, 718, 719, 720, 721, 722, 723, 724, 725, 726, 
727, 728, 729, 730, 731, 732, 733, 734, 735, 736, 
737, 738, 739, 740, 741, 742, 743, 744, 745, 746, 
747, 748, 749, 750, 751, 752, 753, 754, 755, 756, 
757, 758, 759, 760, 761, 762, 763, 764, 765, 766, 
767, 768, 769, 770, 771, 772, 773, 774, 775, 776, 
777, 778, 779, 780, 781, 782, 783, 784, 785, 786, 
787, 788, 789, 790, 791, 792, 793, 794, 795, 796, 
797, 798, 799, 800, 801, 802, 803, 804, 805, 806, 
807, 808, 809, 810, 811, 812, 813, 814, 815, 816, 
817, 818, 819, 820, 821, 822, 823, 824, 825, 826, 
827, 828, 829, 830, 831, 832, 833, 834, 835, 836, 
837, 838, 839, 840, 841, 842, 843, 844, 845, 846, 
847, 848, 849, 850, 851, 852, 853, 854, 855, 856, 
857, 858, 859, 860, 861, 862, 863, 864, 865, 866, 
867, 
*NSET,NSET=contact_source
1, 8, 103, 104, 105, 106, 107, 108, 109, 110, 
111, 112, 113, 114, 115, 116, 117, 118, 119, 120, 
121, 122, 123, 
*NSET,NSET=contact_drain
4, 5, 45, 46, 47, 48, 49, 50, 51, 52, 
53, 54, 55, 56, 57, 58, 59, 60, 61, 62, 
63, 64, 65, 
*NSET,NSET=probe_A
6, 7, 81, 82, 83, 84, 85, 86, 87, 
*NSET,NSET=probe_B
2, 3, 25, 26, 27, 28, 29, 
*NSET,NSET=walls
1, 2, 3, 4, 5, 6, 7, 8, 9, 10, 
11, 12, 13, 14, 15, 16, 17, 18, 19, 20, 
21, 22, 23, 24, 30, 31, 32, 33, 34, 35, 
36, 37, 38, 39, 40, 41, 42, 43, 44, 66, 
67, 68, 69, 70, 71, 72, 73, 74, 75, 76, 
77, 78, 79, 80, 88, 89, 90, 91, 92, 93, 
94, 95, 96, 97, 98, 99, 100, 101, 102, 124, 
125, 126, 127, 128, 129, 130, 131, 132, 133, 134, 
135, 136, 137, 138, 139, 140, 141, 142, 143, 144, 
145, 146, 147, 148, 149, 150, 151, 152, 153, 154, 
155, 156, 157, 158, 159, 160, 161, 162, 163, 164, 
165, 166, 167, 168, 169, 170, 171, 172, 173, 174, 
175, 176, 177, 178, 179, 180, 181, 182, 183, 184, 
185, 186, 
*NSET,NSET=domain
1, 2, 3, 4, 5, 6, 7, 8, 9, 10, 
11, 12, 13, 14, 15, 16, 17, 18, 19, 20, 
21, 22, 23, 24, 25, 26, 27, 28, 29, 30, 
31, 32, 33, 34, 35, 36, 37, 38, 39, 40, 
41, 42, 43, 44, 45, 46, 47, 48, 49, 50, 
51, 52, 53, 54, 55, 56, 57, 58, 59, 60, 
61, 62, 63, 64, 65, 66, 67, 68, 69, 70, 
71, 72, 73, 74, 75, 76, 77, 78, 79, 80, 
81, 82, 83, 84, 85, 86, 87, 88, 89, 90, 
91, 92, 93, 94, 95, 96, 97, 98, 99, 100, 
101, 102, 103, 104, 105, 106, 107, 108, 109, 110, 
111, 112, 113, 114, 115, 116, 117, 118, 119, 120, 
121, 122, 123, 124, 125, 126, 127, 128, 129, 130, 
131, 132, 133, 134, 135, 136, 137, 138, 139, 140, 
141, 142, 143, 144, 145, 146, 147, 148, 149, 150, 
151, 152, 153, 154, 155, 156, 157, 158, 159, 160, 
161, 162, 163, 164, 165, 166, 167, 168, 169, 170, 
171, 172, 173, 174, 175, 176, 177, 178, 179, 180, 
181, 182, 183, 184, 185, 186, 187, 188, 189, 190, 
191, 192, 193, 194, 195, 196, 197, 198, 199, 200, 
201, 202, 203, 204, 205, 206, 207, 208, 209, 210, 
211, 212, 213, 214, 215, 216, 217, 218, 219, 220, 
221, 222, 223, 224, 225, 226, 227, 228, 229, 230, 
231, 232, 233, 234, 235, 236, 237, 238, 239, 240, 
241, 242, 243, 244, 245, 246, 247, 248, 249, 250, 
251, 252, 253, 254, 255, 256, 257, 258, 259, 260, 
261, 262, 263, 264, 265, 266, 267, 268, 269, 270, 
271, 272, 273, 274, 275, 276, 277, 278, 279, 280, 
281, 282, 283, 284, 285, 286, 287, 288, 289, 290, 
291, 292, 293, 294, 295, 296, 297, 298, 299, 300, 
301, 302, 303, 304, 305, 306, 307, 308, 309, 310, 
311, 312, 313, 314, 315, 316, 317, 318, 319, 320, 
321, 322, 323, 324, 325, 326, 327, 328, 329, 330, 
331, 332, 333, 334, 335, 336, 337, 338, 339, 340, 
341, 342, 343, 344, 345, 346, 347, 348, 349, 350, 
351, 352, 353, 354, 355, 356, 357, 358, 359, 360, 
361, 362, 363, 364, 365, 366, 367, 368, 369, 370, 
371, 372, 373, 374, 375, 376, 377, 378, 379, 380, 
381, 382, 383, 384, 385, 386, 387, 388, 389, 390, 
391, 392, 393, 394, 395, 396, 397, 398, 399, 400, 
401, 402, 403, 404, 405, 406, 407, 408, 409, 410, 
411, 412, 413, 414, 415, 416, 417, 418, 419, 420, 
421, 422, 423, 424, 425, 426, 427, 428, 429, 430, 
431, 432, 433, 434, 435, 436, 437, 438, 439, 440, 
441, 442, 443, 444, 445, 446, 447, 448, 449, 450, 
451, 452, 453, 454, 455, 456, 457, 458, 459, 460, 
461, 462, 463, 464, 465, 466, 467, 468, 469, 470, 
471, 472, 473, 474, 475, 476, 477, 478, 479, 480, 
481, 482, 483, 484, 485, 486, 487, 488, 489, 490, 
491, 492, 493, 494, 495, 496, 497, 498, 499, 500, 
501, 502, 503, 504, 505, 506, 507, 508, 509, 510, 
511, 512, 513, 514, 515, 516, 517, 518, 519, 520, 
521, 522, 523, 524, 525, 526, 527, 528, 529, 530, 
531, 532, 533, 534, 535, 536, 537, 538, 539, 540, 
541, 542, 543, 544, 545, 546, 547, 548, 549, 550, 
551, 552, 553, 554, 555, 556, 557, 558, 559, 560, 
561, 562, 563, 564, 565, 566, 567, 568, 569, 570, 
571, 572, 573, 574, 575, 576, 577, 578, 579, 580, 
581, 582, 583, 584, 585, 586, 587, 588, 589, 590, 
591, 592, 593, 594, 595, 596, 597, 598, 599, 600, 
601, 602, 603, 604, 605, 606, 607, 608, 609, 610, 
611, 612, 613, 614, 615, 616, 617, 618, 619, 620, 
621, 622, 623, 624, 625, 626, 627, 628, 629, 630, 
631, 632, 633, 634, 635, 636, 637, 638, 639, 640, 
641, 642, 643, 644, 645, 646, 647, 648, 649, 650, 
651, 652, 653, 654, 655, 656, 657, 658, 659, 660, 
661, 662, 663, 664, 665, 666, 667, 668, 669, 670, 
671, 672, 673, 674, 675, 676, 677, 678, 679, 680, 
681, 682, 683, 684, 685, 686, 687, 688, 689, 690, 
691, 692, 693, 694, 695, 696, 697, 698, 699, 700, 
701, 702, 703, 704, 705, 706, 707, 708, 709, 710, 
711, 712, 713, 714, 715, 716, 717, 718, 719, 720, 
721, 722, 723, 724, 725, 726, 727, 728, 729, 730, 
731, 732, 733, 734, 735, 736, 737, 738, 739, 740, 
741, 742, 743, 744, 745, 746, 747, 748, 749, 750, 
751, 752, 753, 754, 755, 756, 757, 758, 759, 760, 
761, 762, 763, 764, 765, 766, 767, 768, 769, 770, 
771, 772, 773, 774, 
