*Heading
 /Users/juliagao/geometry-optimization-net/scripts/../runs/run2/shape_40.inp
*NODE
1, 0, -0.3, 0
2, 0.425, -0.3, 0
3, 0.575, -0.3, 0
4, 1, -0.3, 0
5, 1, 0.3, 0
6, 0.575, 0.3, 0
7, 0.425, 0.3, 0
8, 0, 0.3, 0
9, 0.6484321928, 0.0033214381, 0
10, 0.025688339080346, -0.3, 0
11, 0.07742378127642, -0.3, 0
12, 0.13000400395757, -0.3, 0
13, 0.18347387665398, -0.3, 0
14, 0.23770508689132, -0.3, 0
15, 0.29182743459471, -0.3, 0
16, 0.34518734338976, -0.3, 0
17, 0.39835968079389, -0.3, 0
18, 0.051376678160692, -0.3, 0
19, 0.10347088439215, -0.3, 0
20, 0.15653712352299, -0.3, 0
21, 0.21041062978496, -0.3, 0
22, 0.26499954399768, -0.3, 0
23, 0.31865532519174, -0.3, 0
24, 0.37171936158778, -0.3, 0
25, 0.45023154408555, -0.3, 0
26, 0.50051794114817, -0.3, 0
27, 0.55028639706262, -0.3, 0
28, 0.47546308817111, -0.3, 0
29, 0.52557279412524, -0.3, 0
30, 0.60067072660119, -0.3, 0
31, 0.65282786955292, -0.3, 0
32, 0.70654794292978, -0.3, 0
33, 0.760785537473, -0.3, 0
34, 0.81445664773265, -0.3, 0
35, 0.86797602153236, -0.3, 0
36, 0.92142247489288, -0.3, 0
37, 0.97400836359823, -0.3, 0
38, 0.62634145320238, -0.3, 0
39, 0.67931428590345, -0.3, 0
40, 0.73378159995611, -0.3, 0
41, 0.78778947498989, -0.3, 0
42, 0.84112382047542, -0.3, 0
43, 0.89482822258931, -0.3, 0
44, 0.94801672719646, -0.3, 0
45, 1, -0.27361425051588, 0
46, 1, -0.22006392834625, 0
47, 1, -0.16561969804666, 0
48, 1, -0.1113803756222, 0
49, 1, -0.057274399126987, 0
50, 1, -0.0029069367525119, 0
51, 1, 0.052064939237954, 0
52, 1, 0.10790832157902, 0
53, 1, 0.16393369568979, 0
54, 1, 0.21939667103781, 0
55, 1, 0.27346346465766, 0
56, 1, -0.24722850103175, 0
57, 1, -0.19289935566076, 0
58, 1, -0.13834004043257, 0
59, 1, -0.084420710811826, 0
60, 1, -0.030128087442148, 0
61, 1, 0.024314213937124, 0
62, 1, 0.079815664538784, 0
63, 1, 0.13600097861926, 0
64, 1, 0.19186641276032, 0
65, 1, 0.24692692931531, 0
66, 0.97425727097659, 0.3, 0
67, 0.92217205531165, 0.3, 0
68, 0.86924523660443, 0.3, 0
69, 0.816221638504, 0.3, 0
70, 0.76300040272765, 0.3, 0
71, 0.70902932687372, 0.3, 0
72, 0.65477603668703, 0.3, 0
73, 0.60135592630633, 0.3, 0
74, 0.94851454195319, 0.3, 0
75, 0.89582956867012, 0.3, 0
76, 0.84266090453874, 0.3, 0
77, 0.78978237246927, 0.3, 0
78, 0.73621843298603, 0.3, 0
79, 0.6818402207614, 0.3, 0
80, 0.62771185261265, 0.3, 0
81, 0.55036303670772, 0.3, 0
82, 0.50130014767287, 0.3, 0
83, 0.45093711096514, 0.3, 0
84, 0.52572607341544, 0.3, 0
85, 0.47687422193029, 0.3, 0
86, 0.39720510510714, 0.3, 0
87, 0.34224036894454, 0.3, 0
88, 0.28873053615487, 0.3, 0
89, 0.23599885872981, 0.3, 0
90, 0.18286102105075, 0.3, 0
91, 0.1296918903152, 0.3, 0
92, 0.077180365315568, 0.3, 0
93, 0.025545909638793, 0.3, 0
94, 0.36941021021429, 0.3, 0
95, 0.31507052767479, 0.3, 0
96, 0.26239054463496, 0.3, 0
97, 0.20960717282465, 0.3, 0
98, 0.15611486927685, 0.3, 0
99, 0.10326891135355, 0.3, 0
100, 0.051091819277587, 0.3, 0
101, 0, 0.27557659295925, 0
102, 0, 0.22636819902081, 0
103, 0, 0.17591832440658, 0
104, 0, 0.12443938986681, 0
105, 0, 0.073170732597498, 0
106, 0, 0.021868746796491, 0
107, 0, -0.029610369976047, 0
108, 0, -0.080101004108599, 0
109, 0, -0.12948884060694, 0
110, 0, -0.17849303942233, 0
111, 0, -0.22730804595185, 0
112, 0, -0.27582389872469, 0
113, 0, 0.25115318591851, 0
114, 0, 0.20158321212311, 0
115, 0, 0.15025343669004, 0
116, 0, 0.098625343043572, 0
117, 0, 0.047716122151424, 0
118, 0, -0.0039786285584421, 0
119, 0, -0.055242111393651, 0
120, 0, -0.10495989682355, 0
121, 0, -0.15401778439034, 0
122, 0, -0.20296829445432, 0
123, 0, -0.25164779744938, 0
124, 0.65931120444621, 0.027849048590055, 0
125, 0.70193831340396, -0.057401865684097, 0
126, 0.73310379831046, -0.10228775042799, 0
127, 0.74119156473012, -0.15475463259695, 0
128, 0.70190552717635, -0.18911312165162, 0
129, 0.64768387132908, -0.18679831054383, 0
130, 0.59526421698873, -0.16948346850971, 0
131, 0.54170180652112, -0.17061970895354, 0
132, 0.50476541855965, -0.21003245406474, 0
133, 0.45657177187411, -0.23536121327529, 0
134, 0.40506948608019, -0.22047310402077, 0
135, 0.367365821649, -0.18103592568588, 0
136, 0.33385432835334, -0.13653024420667, 0
137, 0.31582101820029, -0.082740989937303, 0
138, 0.32823365034726, -0.026903349202111, 0
139, 0.32342104527529, 0.027797508550045, 0
140, 0.29405697886712, 0.075138473691223, 0
141, 0.27513171833115, 0.12857846015378, 0
142, 0.28250532067485, 0.18525443490072, 0
143, 0.32001995278143, 0.22738772762683, 0
144, 0.37130083582878, 0.25094090231647, 0
145, 0.42770222890333, 0.25820463136526, 0
146, 0.48008806048982, 0.23987102457757, 0
147, 0.51685229525426, 0.19883540033925, 0
148, 0.53835522928354, 0.14777707464305, 0
149, 0.57259055454012, 0.11045912783439, 0
150, 0.62014861267152, 0.12369154389604, 0
151, 0.67226233847431, 0.11987701585198, 0
152, 0.68706560083812, 0.072114816555011, 0
153, 0.66342847340972, -0.019319882835675, 0
154, 0.67486441530669, 0.048856482563294, 0
155, 0.68944461034352, 0.098865847514091, 0
156, 0.64729708117215, 0.12588685081828, 0
157, 0.59385162333501, 0.11693597777021, 0
158, 0.54688151677274, 0.12162764577916, 0
159, 0.52920954755572, 0.17373466065584, 0
160, 0.50046001624387, 0.22155282508588, 0
161, 0.45571265748886, 0.2524714554537, 0
162, 0.3992073112705, 0.25708160326061, 0
163, 0.34453222267783, 0.2409713219494, 0
164, 0.29864263174287, 0.20916990837956, 0
165, 0.27459889686726, 0.15749000431381, 0
166, 0.28241188091532, 0.1006712657868, 0
167, 0.30848753939811, 0.051107318245232, 0
168, 0.33327720879912, 0.0014989710008736, 0
169, 0.31955186946893, -0.054084805519036, 0
170, 0.32097353942568, -0.11128333230718, 0
171, 0.35042095029972, -0.1593835454003, 0
172, 0.38507576448108, -0.20207976709992, 0
173, 0.42933015713275, -0.23310464198867, 0
174, 0.48230826382047, -0.22657512391984, 0
175, 0.52384684146713, -0.18983693017764, 0
176, 0.56864844522366, -0.16184104246672, 0
177, 0.62117989038487, -0.17901491112384, 0
178, 0.67503902801272, -0.19093032462049, 0
179, 0.7266520212074, -0.17764202633263, 0
180, 0.74175835218605, -0.12817204636005, 0
181, 0.71922929295522, -0.078890543688729, 0
182, 0.68268363396836, -0.037680959009204, 0
183, 0.47843569403024, -0.26360323689287, 0
184, 0.05233430712317, -0.24962236151799, 0
185, 0.15943275483959, -0.24543422215558, 0
186, 0.10529340236459, -0.24759496265234, 0
187, 0.30872027544074, -0.24130590463038, 0
188, 0.2155798421791, -0.24309952717231, 0
189, 0.37612128062691, -0.26353365138822, 0
190, 0.56405149586097, 0.17421467200657, 0
191, 0.67875325883227, -0.22322924023139, 0
192, 0.72942606692015, -0.2206737935546, 0
193, 0.66526430965079, -0.28056379291087, 0
194, 0.72327862836351, -0.25438983572723, 0
195, 0.071368863349775, 0.035736855932102, 0
196, 0.021099074246157, 0.12691419616115, 0
197, 0.23072477572755, 0.26294189799106, 0
198, 0.080964924570487, 0.17200198461556, 0
199, 0.022741813461022, 0.22494537522308, 0
200, 0.13418433381642, 0.10704963834359, 0
201, 0.11116530683242, 0.098284455904564, 0
202, 0.18945970090283, 0.091956479814274, 0
203, 0.022484125273683, 0.077223539568897, 0
204, 0.066890069361505, 0.086028620018867, 0
205, 0.2749129385963, 0.21888229806753, 0
206, 0.021734439480701, 0.10220304130469, 0
207, 0.16422174077421, 0.086481206343032, 0
208, 0.19639297732792, 0.23057968641651, 0
209, 0.25110574344506, 0.043281759059381, 0
210, 0.19846173181414, 0.035042802409615, 0
211, 0.0905827370562, 0.21788591473756, 0
212, 0.1701350768863, 0.23354071554662, 0
213, 0.15907946708053, 0.11744500667573, 0
214, 0.23448464994266, 0.15938247774436, 0
215, 0.16057485979497, -0.19071030486359, 0
216, 0.10600992210547, -0.19506098439121, 0
217, 0.052709148185284, -0.19907538964865, 0
218, 0.2175161270134, -0.1856280129342, 0
219, 0.21491969575643, -0.12917287733135, 0
220, 0.33815914319761, -0.2473673704044, 0
221, 0.15955775018045, -0.13625579197319, 0
222, 0.10555418875418, -0.14251976247225, 0
223, 0.052547761480633, -0.14837268480422, 0
224, 0.04880520348947, 0.0052510153896356, 0
225, 0.097628072790859, 0.014828553265792, 0
226, 0.10141021205809, -0.037568810013589, 0
227, 0.050633881400934, -0.046284948299603, 0
228, 0.051858677420401, -0.097495681593, 0
229, 0.10400410718502, -0.090035737457733, 0
230, 0.14731174394059, 0.025113730251234, 0
231, 0.15296787667405, -0.028599677202557, 0
232, 0.20595140665533, -0.019477788011847, 0
233, 0.15693502510331, -0.082272024563573, 0
234, 0.21091831996797, -0.073968785443327, 0
235, 0.26552696598341, -0.064813197269882, 0
236, 0.26189575492648, -0.010179619316894, 0
237, 0.85439263537409, 0.2398901504509, 0
238, 0.67447765268999, 0.2123042251799, 0
239, 0.70999153187516, 0.15722895114576, 0
240, 0.83850735778324, 0.098711952949692, 0
241, 0.93999385243531, 0.16588300011291, 0
242, 0.89028053610763, 0.191114631503, 0
243, 0.89989701076199, 0.28053980607358, 0
244, 0.94680697861099, 0.21099488346497, 0
245, 0.94928237707445, 0.25552817778682, 0
246, 0.74675737018266, 0.18227914667075, 0
247, 0.847784195638, 0.17346068059754, 0
248, 0.82555554086333, 0.19250715946732, 0
249, 0.86258514438935, 0.26101198815603, 0
250, 0.80673383897922, 0.12625043079499, 0
251, 0.87857977171746, 0.21727638293288, 0
252, 0.5939833609951, 0.20215033847645, 0
253, 0.52565565193314, 0.24074901705328, 0
254, 0.86187221333873, 0.13687604389215, 0
255, 0.55792726394346, 0.23761049546819, 0
256, 0.71934367276757, -0.011541894759669, 0
257, 0.858907578091, 0.015433589229477, 0
258, 0.7955444758577, 0.042435354420962, 0
259, 0.87250031282225, 0.23428081821306, 0
260, 0.73825403749292, 0.001202780787836, 0
261, 0.76330890508544, -0.03286253494885, 0
262, 0.785856990488, 0.20362273687215, 0
263, 0.76265071980225, -0.17642705859873, 0
264, 0.87661011760482, 0.28066313910809, 0
265, 0.92959333272022, -0.1267204149326, 0
266, 0.87323106218387, -0.18693264731698, 0
267, 0.87237318260793, 0.15539357122523, 0
268, 0.68824838058456, -0.20468260112044, 0
269, 0.79356927599882, -0.23377137618768, 0
270, 0.77454811936058, -0.19254023875414, 0
271, 0.88509951155608, -0.24557176341906, 0
272, 0.82835344992824, -0.25058690613766, 0
273, 0.93691834797292, -0.18814973741692, 0
274, 0.94276605053313, -0.24523119513517, 0
275, 0.58170191858153, 0.26764151868357, 0
276, 0.88459436986522, 0.24574086619989, 0
277, 0.56783115681629, 0.14472052159551, 0
278, 0.1444178444779, 0.23731398883626, 0
279, 0.25592401904463, 0.15854458514312, 0
280, 0.22268182088876, 0.22778022164116, 0
281, 0.73746234335454, -0.23415768499231, 0
282, 0.64198795441646, -0.27427354587951, 0
283, 0.70838547033269, 0.10550063734336, 0
284, 0.95824668718313, -0.041641864052295, 0
285, 0.7425322784955, -0.19662137341628, 0
286, 0.72696197026165, 0.17086414987455, 0
287, 0.6538413354218, 0.14228528687704, 0
288, 0.62374735157999, 0.14569368839213, 0
289, 0.75994591086294, 0.26679263385518, 0
290, 0.098164776248398, 0.1415450292275, 0
291, 0.32714107335555, 0.26661248465998, 0
292, 0.27535542516915, -0.14903317435474, 0
293, 0.27574631684924, -0.24108095882714, 0
294, 0.27978064961618, -0.17844893135601, 0
295, 0.73858762211792, -0.074729652032288, 0
296, 0.89284572060593, -0.12000254739261, 0
297, 0.75119579765578, -0.16432410140317, 0
298, 0.79664435263256, -0.11051058320351, 0
299, 0.092329673493946, 0.066539748018133, 0
300, 0.0856919718127, 0.19340819380985, 0
301, 0.15052545596362, 0.26839439842549, 0
302, 0.11350076228709, 0.21311218416525, 0
303, 0.17269985959541, 0.030247309749447, 0
304, 0.044770001669665, 0.081411522049198, 0
305, 0.061922182164561, 0.13218134314528, 0
306, 0.099300682940068, 0.27181626427278, 0
307, 0.069277410124507, 0.061193940871875, 0
308, 0.70892184323082, -0.22853517531288, 0
309, 0.93541610479453, 0.14275345431962, 0
310, 0.77512189437189, -0.26050888548839, 0
311, 0.69560373556929, 0.14307421659074, 0
312, 0.96630227643864, 0.12614674039585, 0
313, 0.81670481822531, -0.020673057416985, 0
314, 0.38016918378401, 0.27796805702049, 0
315, 0.41594093462155, 0.27967798419044, 0
316, 0.8115589215165, -0.19757788751247, 0
317, 0.9050178257411, -0.1867098565493, 0
318, 0.75756500067071, -0.13477545822822, 0
319, 0.4953160817862, 0.25580218508669, 0
320, 0.51062738451488, 0.22909942125396, 0
321, 0.5374849219082, 0.20917004336608, 0
322, 0.72784594696026, 0.050554734814815, 0
323, 0.85739578590374, -0.11533739114509, 0
324, 0.65832669278527, -0.23119825786826, 0
325, 0.83500859155586, -0.27523332462821, 0
326, 0.69932967820882, -0.21661622718793, 0
327, 0.81143579160976, 0.060305693369037, 0
328, 0.78282295081492, 0.23815511205742, 0
329, 0.74296192698298, 0.12773326391019, 0
330, 0.84007374925889, 0.20475913575568, 0
331, 0.32705333687374, -0.27342748689806, 0
332, 0.36099136004787, -0.25572061063825, 0
333, 0.37467992749043, -0.2797537173636, 0
334, 0.35239710134541, -0.27681667731084, 0
335, 0.02625148145534, -0.15121648052426, 0
336, 0.052695234022051, -0.17374106605255, 0
337, 0.026317960710184, -0.20102322771593, 0
338, 0.026316986966441, -0.17613846188631, 0
339, 0.2700973662865, -0.27091010524565, 0
340, 0.213170659477, -0.2716500277179, 0
341, 0.24495211946231, -0.24194862117366, 0
342, 0.24139128118609, -0.27116680186757, 0
343, 0.08499506500981, 0.11492229024138, 0
344, 0.078162660110005, 0.15383952702354, 0
345, 0.25961680267801, 0.26013121229557, 0
346, 0.061996032816564, 0.17425020969525, 0
347, 0.96520361271938, -0.13283703310837, 0
348, 0.9247082689347, -0.093515000814154, 0
349, 0.96314452592302, -0.10325393442037, 0
350, 0.82450064429747, 0.2513014799288, 0
351, 0.62377251479655, 0.22859006078958, 0
352, 0.88192927332416, 0.17347121009541, 0
353, 0.96875310181632, 0.15182483853171, 0
354, 0.71294967877241, 0.033826735163353, 0
355, 0.93039346723091, 0.1190415401283, 0
356, 0.95924132940914, 0.045986409186276, 0
357, 0.8564695801424, -0.24732441319821, 0
358, 0.89012164004346, -0.27295778758124, 0
359, 0.86245538787694, -0.27376575729989, 0
360, 0.97265267651471, 0.20212920134409, 0
361, 0.9438730333879, 0.18858181286766, 0
362, 0.97092533699854, 0.17712141684654, 0
363, 0.16868757499963, 0.057891504383271, 0
364, 0.021104518808871, 0.17567255722297, 0
365, 0.12644192049861, 0.13438533411345, 0
366, 0.23444872603905, 0.12795150977248, 0
367, 0.025928390756356, -0.10120096842956, 0
368, 0.052268603795401, -0.12296347022706, 0
369, 0.026121975168097, -0.12624419364845, 0
370, 0.80848865503466, 0.27369224711713, 0
371, 0.62832345806348, 0.196327016522, 0
372, 0.55349644915958, 0.26954163521118, 0
373, 0.58907039799156, 0.23420052264147, 0
374, 0.96132549716059, 0.073344185314671, 0
375, 0.8835254869906, 0.093302820432347, 0
376, 0.92012727265289, 0.069020226572724, 0
377, 0.7556317691402, -0.28215763516781, 0
378, 0.61636224712683, -0.26367828165824, 0
379, 0.9251917513208, 0.094559106423103, 0
380, 0.68638814956334, -0.25406449685756, 0
381, 0.96046471804782, -0.072603516755418, 0
382, 0.75748079017964, 0.014094143781848, 0
383, 0.96860671659512, -0.19038305049402, 0
384, 0.93350639457953, -0.15810944164507, 0
385, 0.96699412929546, -0.16186438719382, 0
386, 0.043450284945411, 0.19887216434209, 0
387, 0.041850351404522, 0.12939448696351, 0
388, 0.21520353434845, 0.19387958369992, 0
389, 0.13218104728751, -0.24653636607077, 0
390, 0.15814963513154, -0.27275261461408, 0
391, 0.10452128769615, -0.27381912185967, 0
392, 0.13120629012139, -0.27329389949194, 0
393, 0.66899181186722, 0.18350998421118, 0
394, 0.73562389870661, 0.22426188755091, 0
395, 0.041233783248577, 0.15232436449504, 0
396, 0.19397296443676, 0.062914699117588, 0
397, 0.14373763855772, 0.052167854529817, 0
398, 0.1247254303351, 0.27020666867764, 0
399, 0.024449907084844, 0.00064849088416422, 0
400, 0.16259699388704, 0.19946423314047, 0
401, 0.83250760078864, -0.15461595466904, 0
402, 0.7207015203819, -0.20876200286692, 0
403, 0.73082637925584, -0.28408753334806, 0
404, 0.70780245517198, -0.27117109080508, 0
405, 0.94539651357466, -0.2727680878197, 0
406, 0.9714591704596, -0.24600697303389, 0
407, 0.97275712364859, -0.2731122361045, 0
408, 0.71158975594127, -0.19837061967423, 0
409, 0.69151715109985, -0.27118987034098, 0
410, 0.66450499526916, -0.20842224990136, 0
411, 0.6739558791944, -0.24419541686467, 0
412, 0.80800355249469, -0.27736086678545, 0
413, 0.11325775053021, 0.15470262491419, 0
414, 0.020819856211504, 0.15132526761116, 0
415, 0.064309264316395, 0.10983135980009, 0
416, 0.18717605542285, -0.24428423038473, 0
417, 0.18547123243844, -0.27219792056476, 0
418, 0.76013809400861, 0.23118860930213, 0
419, 0.78468376455471, 0.27024532673149, 0
420, 0.30516217910709, -0.14350492334766, 0
421, 0.29911199836881, -0.27128083588095, 0
422, 0.078705431552099, -0.24861928397656, 0
423, 0.051941255135542, -0.27482953249762, 0
424, 0.078142340666256, -0.27432879856985, 0
425, 0.91393011800496, -0.24499540246976, 0
426, 0.91779134526114, -0.27267566340888, 0
427, 0.77688341305916, 0.027512932163847, 0
428, 0.77612071931537, 0.095015964676336, 0
429, 0.071162098213713, 0.24671072165292, 0
430, 0.025340616719352, -0.050660858995011, 0
431, 0.051315928102376, -0.07193902789821, 0
432, 0.025668910651248, -0.07600180343506, 0
433, 0.21048566961129, 0.15968546884633, 0
434, 0.13726073887467, 0.20658039574557, 0
435, 0.064757711198725, 0.19683434470651, 0
436, 0.94860551687559, 0.2332710409511, 0
437, 0.97435615010323, 0.25146166474254, 0
438, 0.97380359380915, 0.22687907733737, 0
439, 0.049801127806466, -0.020525029366277, 0
440, 0.024935883087663, -0.025043368339619, 0
441, 0.88422525093331, 0.23090796769658, 0
442, 0.82556411597321, 0.079354007049192, 0
443, 0.52550091322958, 0.27204798904948, 0
444, 0.85962578424608, 0.18860406309046, 0
445, 0.76006663304783, 0.080049677820798, 0
446, 0.59507485483113, 0.17267235993834, 0
447, 0.71700588181979, -0.24103509603875, 0
448, 0.67613150458426, -0.26551234878507, 0
449, 0.16027639754498, -0.21806810488373, 0
450, 0.10579593158648, -0.22133716330554, 0
451, 0.13308303043388, -0.19294473044648, 0
452, 0.13282697116226, -0.21974334120456, 0
453, 0.94909262725209, 0.27777752555334, 0
454, 0.97442887441074, 0.27576922341466, 0
455, 0.023215282908685, 0.051953240281206, 0
456, 0.073163704223113, 0.0099505363609983, 0
457, 0.045388581490599, 0.22332877253769, 0
458, 0.08087010074285, 0.13580133450232, 0
459, 0.026126565651442, -0.25062052160493, 0
460, 0.02593591663295, -0.27532645760227, 0
461, 0.93997055700771, -0.21710289782153, 0
462, 0.9700839099233, -0.21840906103621, 0
463, 0.2442964100353, 0.070259660613523, 0
464, 0.18547888008499, 0.12339578483422, 0
465, 0.92518000874005, 0.25896617108402, 0
466, 0.92410707665686, 0.27944291943087, 0
467, 0.052588880674562, -0.22436930566964, 0
468, 0.026254476246222, -0.22584438239995, 0
469, 0.18362882098415, 0.15921269739464, 0
470, 0.21086660922756, 0.12645720268863, 0
471, 0.21721551227185, -0.21434436935295, 0
472, 0.18863867253388, -0.1883027433436, 0
473, 0.18831029864846, -0.21628242089531, 0
474, 0.2785721053073, 0.047007997856397, 0
475, 0.09512163835979, 0.24429904919908, 0
476, 0.26095978124438, 0.099839435462555, 0
477, 0.26907464664225, 0.072872283923647, 0
478, 0.6905346266749, -0.23557329181822, 0
479, 0.80117023357184, -0.25535386094246, 0
480, 0.70773501425733, -0.28520797235171, 0
481, 0.77559627951078, -0.14444360931247, 0
482, 0.81003150090296, 0.17977967025024, 0
483, 0.91248480944175, 0.012844192987441, 0
484, 0.75992271774708, -0.071789819569503, 0
485, 0.78480229866905, -0.21268280089467, 0
486, 0.85403220110266, 0.27940155557426, 0
487, 0.8222472115171, 0.22331150308437, 0
488, 0.7599615566728, 0.1405844175116, 0
489, 0.088934823783631, 0.091474965720372, 0
490, 0.047391197528986, 0.2484842739885, 0
491, 0.074209663059046, 0.27310801432328, 0
492, 0.060683060131563, 0.15319125900406, 0
493, 0.25593710663561, 0.12852844268807, 0
494, 0.25737792703993, 0.016662047358346, 0
495, 0.29315351945382, -0.0050521884429204, 0
496, 0.28747206705167, 0.02142180327004, 0
497, 0.91191495706143, -0.019371147953357, 0
498, 0.78794603831184, -0.026013686630706, 0
499, 0.86652122510322, 0.044118629536071, 0
500, 0.95780177439532, 0.017812779456354, 0
501, 0.87954889915755, -0.21720128517647, 0
502, 0.82078702579579, -0.22527668524095, 0
503, 0.84974604825267, -0.21985796883429, 0
504, 0.91633432037426, -0.055697282340352, 0
505, 0.83488821311005, 0.15792333723654, 0
506, 0.92288340523547, 0.21879853969352, 0
507, 0.91372257546538, 0.17883387734149, 0
508, 0.91905382291771, 0.19891401761905, 0
509, 0.39285327538895, -0.25444346223077, 0
510, 0.42558301818014, -0.27028204696789, 0
511, 0.39759783420638, -0.27649284477815, 0
512, 0.74447241653313, -0.24905436746701, 0
513, 0.45250110256772, -0.26741693355507, 0
514, 0.0238763467767, 0.026367944586007, 0
515, 0.18933856345155, 0.19612177705186, 0
516, 0.24887313494836, 0.2242709115307, 0
517, 0.83150882643396, 0.2768682666853, 0
518, 0.85057307410954, 0.11795257267206, 0
519, 0.64413844053138, 0.26133196993315, 0
520, 0.96375773657969, 0.10000606941512, 0
521, 0.72086708962427, -0.048610892215348, 0
522, 0.7838486460314, -0.070150841535989, 0
523, 0.2811934380732, -0.2095779705836, 0
524, 0.35700126851816, -0.22237646268538, 0
525, 0.76024660351987, -0.22499835974839, 0
526, 0.75040056072556, -0.2651336567298, 0
527, 0.90723360806731, 0.15837529115329, 0
528, 0.88177914421027, 0.26241797147311, 0
529, 0.62699906830524, 0.16935501100812, 0
530, 0.83892031716098, 0.2321977806564, 0
531, 0.70807323753455, 0.21771537808825, 0
532, 0.79170033587358, 0.1104749086692, 0
533, 0.69696581541596, 0.016844139547614, 0
534, 0.70081834130835, -0.024416839137635, 0
535, 0.68033490213671, -0.00054614936129611, 0
536, 0.06796937029493, 0.22113076656354, 0
537, 0.29399555925846, 0.25474129768372, 0
538, 0.077861705658511, -0.09378737673249, 0
539, 0.10490861019835, -0.11627185178804, 0
540, 0.078959042212904, -0.1454805499868, 0
541, 0.078508951838866, -0.11964739734992, 0
542, 0.72762284259268, -0.26879246882311, 0
543, 0.63734201562571, -0.24319060647643, 0
544, 0.21926001414706, 0.067009625777473, 0
545, 0.046280026976494, 0.056400432015718, 0
546, 0.20346931697559, 0.26487428529179, 0
547, 0.049319782036726, 0.27409955928134, 0
548, 0.31512983957063, -0.1721361684897, 0
549, 0.46851684396264, 0.27667841773929, 0
550, 0.49795323665125, 0.27648645667736, 0
551, 0.86439786286108, 0.22643533817443, 0
552, 0.90163651312558, 0.22553869297367, 0
553, 0.84386024956587, 0.2568747499085, 0
554, 0.69978921051997, -0.24702095915032, 0
555, 0.75181930624487, -0.10330404614976, 0
556, 0.89703486730425, 0.20839526040773, 0
557, 0.89988224278751, 0.13740331962589, 0
558, 0.66141998919943, 0.16110101596306, 0
559, 0.29258084097427, -0.059751632085532, 0
560, 0.26737749740465, -0.092588778192278, 0
561, 0.29299006998157, -0.087737903781955, 0
562, 0.26424255729353, -0.037365948201685, 0
563, 0.29390240728587, -0.032311275894644, 0
564, 0.44088389885287, 0.27843242904789, 0
565, 0.12769297216686, 0.17671004370571, 0
566, 0.1870683756142, -0.13285289804411, 0
567, 0.21658796407088, -0.15721331551674, 0
568, 0.16031183510104, -0.16342561389277, 0
569, 0.18816198010351, -0.16047183844189, 0
570, 0.099683220392805, -0.011344500229863, 0
571, 0.075963475676152, -0.041946816758719, 0
572, 0.07468652298414, -0.015979591901867, 0
573, 0.76812520149241, -0.24213911227, 0
574, 0.35512153418045, 0.27316067692916, 0
575, 0.24763277469576, -0.18249673238622, 0
576, 0.3258627397324, -0.20548107417751, 0
577, 0.24760885059812, -0.21217884352689, 0
578, 0.10284222809688, -0.063802679162826, 0
579, 0.077016318799647, -0.067888031444704, 0
580, 0.72593369386868, 0.11569103023614, 0
581, 0.87007143143945, 0.2032329406916, 0
582, 0.61118710170695, 0.26546801453177, 0
583, 0.12705298547799, -0.033118491741835, 0
584, 0.15513579980471, -0.055414535090489, 0
585, 0.13034601948962, -0.086206925642084, 0
586, 0.12886170661644, -0.059650256316102, 0
587, 0.70593130361963, -0.25843430568324, 0
588, 0.12230912232715, 0.0199076950406, 0
589, 0.15037380793032, -0.0017790116116806, 0
590, 0.12488308619281, -0.00659890728162, 0
591, 0.82502193814548, -0.11296653931789, 0
592, 0.87495195720428, 0.069631647034097, 0
593, 0.82115819510411, 0.14213174263232, 0
594, 0.84190909803527, -0.18995361258079, 0
595, 0.88194725177079, -0.079401925148905, 0
596, 0.90971949580219, -0.2165223383285, 0
597, 0.73396812529068, 0.26358706773249, 0
598, 0.9033379928372, 0.24310971836907, 0
599, 0.37820801805396, -0.23797441054541, 0
600, 0.79376989847211, 0.16677259213578, 0
601, 0.86881187460229, 0.24543600289072, 0
602, 0.67658688546585, 0.25976398877911, 0
603, 0.92489589211219, 0.23875092566971, 0
604, 0.75155834508997, -0.20961756838492, 0
605, 0.80420020293215, 0.24493875610972, 0
606, 0.079247643448337, -0.19709554197909, 0
607, 0.07907870351575, -0.22287263109327, 0
608, 0.17678605405567, 0.26658597401025, 0
609, 0.11946288064948, 0.24111511661532, 0
610, 0.23964593288359, 0.19158910902521, 0
611, 0.10592676314504, -0.16878407906133, 0
612, 0.079207169402103, -0.17129605181167, 0
613, 0.24296280114032, -0.12512194643931, 0
614, 0.24567101770376, -0.15348667477798, 0
615, 0.29725156222344, -0.11581912060075, 0
616, 0.041890599048837, 0.17524680529529, 0
617, 0.21434730112188, 0.09576050364407, 0
618, 0.20253935959757, 0.0076978741224871, 0
619, 0.17923281620746, -0.024042721489023, 0
620, 0.17623286043277, 0.003022554803248, 0
621, 0.90256421131464, 0.26146201362636, 0
622, 0.85322066962852, 0.21624364748975, 0
623, 0.84337950059269, -0.071606126394785, 0
624, 0.79779033160074, -0.15977723359922, 0
625, 0.89956403327939, -0.15486546690025, 0
626, 0.74376009493919, 0.065503255451996, 0
627, 0.21296507015076, -0.10144926613438, 0
628, 0.2382206405635, -0.069523906401195, 0
629, 0.24039094647574, -0.097175249334401, 0
630, 0.13240007788225, -0.13945890646226, 0
631, 0.13293265726058, -0.16617495958755, 0
632, 0.11564082522076, 0.072631787190818, 0
633, 0.095199294702774, 0.040856504865402, 0
634, 0.11926967686582, 0.046364617711799, 0
635, 0.85377569412102, -0.019460963631043, 0
636, 0.86583517906164, -0.1533802648316, 0
637, 0.56356017436724, 0.20562261777902, 0
638, 0.95735594123023, -0.011377628504461, 0
639, 0.22456289624165, 0.039370006739321, 0
640, 0.2382771504917, 0.09827090210647, 0
641, 0.59504843301555, 0.14509286324407, 0
642, 0.024641567936306, 0.27488273199774, 0
643, 0.70636192825342, 0.26101109414912, 0
644, 0.23333150381888, -0.014891536166871, 0
645, 0.22944833282286, 0.012210078354409, 0
646, 0.15841043205009, -0.1092096315594, 0
647, 0.13152711022737, -0.11280488872358, 0
648, 0.74119425230735, -0.040441870126257, 0
649, 0.18379690589875, -0.078203601990797, 0
650, 0.18557354648105, -0.10544200132095, 0
651, 0.023703874842261, 0.24986736938267, 0
652, 0.021825406651457, 0.20025449913556, 0
653, 0.78151728705789, -0.27980637622754, 0
654, 0.20867287727877, -0.04666826680487, 0
655, 0.18171981900546, -0.051090228666996, 0
656, 0.047633232004193, 0.030946300873417, 0
657, 0.23609541150539, -0.042116572244674, 0
658, 0.80450295057805, 0.21370640782744, 0
659, 0.26228628944336, 0.18875644131042, 0
660, 0.65812026562896, -0.25662398951502, 0
661, 0.91564961087203, 0.041998637282055, 0
662, 0.7726756779718, -0.10604133575796, 0
663, 0.68293467119422, 0.13031331848012, 0
664, 0.27074109006421, -0.12063327520444, 0
665, 0.81124387183159, -0.069689426339509, 0
666, 0.13951323851846, 0.079480130527726, 0
667, 0.043203034846643, 0.10579328696886, 0
668, 0.098272129684956, 0.16705617792072, 0
669, 0.89190983441328, 0.11577927801407, 0
670, 0.39782214199407, 0.28578793932648, 0
671, 0.73400867534531, -0.18607394429146, 0
672, 0.49464325454426, 0.23992415399028, 0
673, 0.52004820149942, 0.21218997827838, 0
674, 0.50371434457851, -0.25761224866298, 0
675, 0.52896236117038, -0.25014304668692, 0
676, 0.55541543020218, -0.24263405146232, 0
677, 0.6140350051253, -0.21905578741738, 0
678, 0.6945933601952, -0.26123216693262, 0
679, 0.68654986284469, -0.28445527210534, 0
680, 0.63999723199178, -0.21216220733061, 0
681, 0.58547287198272, -0.23705025337285, 0
682, 0.091615438611173, 0.15415776179303, 0
683, 0.10642427983938, 0.18743850152511, 0
684, 0.10542033801455, 0.12219114264108, 0
685, 0.15189751388074, 0.15750624675675, 0
686, 0.77700511306082, 0.15364977293566, 0
687, 0.76651296345024, 0.1931555958095, 0
******* E L E M E N T S *************
*ELEMENT, type=CPS4, ELSET=Surface1
1, 676, 675, 29, 27
2, 177, 680, 410, 129
3, 412, 325, 272, 479
4, 553, 249, 486, 517
5, 519, 80, 73, 582
6, 283, 626, 445, 580
7, 517, 486, 76, 69
8, 24, 333, 334, 16
9, 16, 334, 331, 23
10, 548, 171, 136, 420
11, 333, 189, 332, 334
12, 121, 110, 338, 335
13, 335, 338, 336, 223
14, 338, 337, 217, 336
15, 110, 122, 337, 338
16, 339, 342, 14, 22
17, 342, 340, 21, 14
18, 341, 188, 340, 342
19, 470, 617, 640, 366
20, 301, 98, 91, 398
21, 685, 213, 464, 469
22, 300, 435, 346, 198
23, 580, 445, 428, 329
24, 686, 250, 593, 600
25, 349, 347, 58, 48
26, 348, 265, 347, 349
27, 238, 351, 371, 393
28, 238, 531, 602, 519
29, 238, 519, 582, 351
30, 328, 605, 419, 289
31, 497, 284, 638, 483
32, 593, 518, 254, 505
33, 247, 267, 352, 444
34, 687, 600, 482, 262
35, 272, 325, 359, 357
36, 357, 359, 358, 271
37, 359, 35, 43, 358
38, 325, 42, 35, 359
39, 244, 361, 362, 360
40, 360, 362, 53, 64
41, 362, 353, 63, 53
42, 361, 241, 353, 362
43, 387, 395, 414, 196
44, 92, 100, 547, 491
45, 433, 470, 366, 214
46, 195, 307, 545, 656
47, 120, 109, 369, 367
48, 367, 369, 368, 228
49, 369, 335, 223, 368
50, 109, 121, 335, 369
51, 444, 352, 242, 581
52, 519, 602, 72, 80
53, 190, 159, 148, 277
54, 532, 442, 240, 250
55, 504, 348, 349, 381
56, 379, 374, 520, 355
57, 543, 660, 411, 324
58, 681, 3, 30, 378
59, 377, 653, 310, 526
60, 409, 404, 587, 678
61, 520, 312, 309, 355
62, 284, 49, 60, 638
63, 533, 354, 152, 154
64, 381, 59, 49, 284
65, 57, 47, 385, 383
66, 383, 385, 384, 273
67, 385, 347, 265, 384
68, 47, 58, 347, 385
69, 515, 388, 280, 208
70, 685, 565, 413, 365
71, 366, 640, 476, 493
72, 206, 196, 104, 116
73, 186, 391, 392, 389
74, 389, 392, 390, 185
75, 392, 12, 20, 390
76, 391, 19, 12, 392
77, 600, 593, 505, 482
78, 330, 444, 581, 622
79, 287, 156, 151, 663
80, 419, 370, 77, 70
81, 475, 429, 536, 211
82, 305, 492, 395, 387
83, 516, 205, 537, 345
84, 656, 545, 455, 514
85, 415, 305, 387, 667
86, 469, 464, 470, 433
87, 565, 434, 302, 683
88, 363, 397, 230, 303
89, 380, 678, 587, 554
90, 410, 191, 326, 268
91, 554, 587, 194, 447
92, 268, 326, 402, 408
93, 44, 37, 407, 405
94, 405, 407, 406, 274
95, 407, 45, 56, 406
96, 37, 4, 45, 407
97, 40, 33, 377, 403
98, 660, 448, 380, 411
99, 183, 513, 25, 28
100, 191, 478, 308, 326
101, 34, 42, 325, 412
102, 521, 534, 182, 125
103, 308, 447, 281, 192
104, 479, 272, 502, 269
105, 398, 306, 475, 609
106, 616, 364, 414, 395
107, 202, 396, 544, 617
108, 197, 345, 96, 89
109, 185, 390, 417, 416
110, 416, 417, 340, 188
111, 417, 13, 21, 340
112, 390, 20, 13, 417
113, 530, 622, 551, 237
114, 352, 527, 507, 242
115, 240, 592, 375, 518
116, 246, 686, 600, 687
117, 22, 15, 421, 339
118, 294, 292, 614, 575
119, 524, 220, 332, 599
120, 15, 23, 331, 421
121, 184, 423, 424, 422
122, 422, 424, 391, 186
123, 424, 11, 19, 391
124, 423, 18, 11, 424
125, 43, 36, 426, 358
126, 358, 426, 425, 271
127, 426, 405, 274, 425
128, 36, 44, 405, 426
129, 62, 52, 312, 520
130, 327, 257, 499, 442
131, 565, 683, 668, 413
132, 399, 514, 106, 118
133, 536, 457, 386, 435
134, 205, 164, 143, 537
135, 119, 108, 432, 430
136, 430, 432, 431, 227
137, 432, 367, 228, 431
138, 108, 120, 367, 432
139, 608, 90, 98, 301
140, 457, 199, 652, 386
141, 666, 632, 634, 397
142, 413, 668, 682, 290
143, 64, 54, 438, 360
144, 360, 438, 436, 244
145, 438, 437, 245, 436
146, 54, 65, 437, 438
147, 118, 107, 440, 399
148, 399, 440, 439, 224
149, 440, 430, 227, 439
150, 107, 119, 430, 440
151, 249, 601, 276, 528
152, 373, 275, 372, 255
153, 488, 532, 250, 686
154, 264, 528, 621, 243
155, 556, 508, 506, 552
156, 428, 327, 442, 532
157, 626, 427, 258, 445
158, 529, 446, 641, 288
159, 403, 377, 526, 542
160, 297, 318, 180, 127
161, 558, 529, 288, 287
162, 215, 451, 452, 449
163, 449, 452, 389, 185
164, 452, 450, 186, 389
165, 451, 216, 450, 452
166, 65, 55, 454, 437
167, 437, 454, 453, 245
168, 454, 66, 74, 453
169, 55, 5, 66, 454
170, 224, 656, 514, 399
171, 343, 458, 305, 415
172, 208, 280, 197, 546
173, 609, 475, 211, 302
174, 123, 112, 460, 459
175, 459, 460, 423, 184
176, 460, 10, 18, 423
177, 112, 1, 10, 460
178, 274, 406, 462, 461
179, 461, 462, 383, 273
180, 462, 46, 57, 383
181, 406, 56, 46, 462
182, 434, 278, 609, 302
183, 464, 202, 617, 470
184, 458, 344, 492, 305
185, 290, 682, 344, 458
186, 245, 453, 466, 465
187, 528, 276, 598, 621
188, 482, 505, 247, 248
189, 453, 74, 67, 466
190, 122, 111, 468, 337
191, 337, 468, 467, 217
192, 468, 459, 184, 467
193, 111, 123, 459, 468
194, 302, 211, 300, 683
195, 588, 634, 633, 225
196, 489, 343, 415, 204
197, 667, 387, 196, 206
198, 218, 472, 473, 471
199, 471, 473, 416, 188
200, 473, 449, 185, 416
201, 472, 215, 449, 473
202, 166, 476, 477, 140
203, 140, 477, 474, 167
204, 396, 210, 639, 544
205, 99, 92, 491, 306
206, 41, 34, 412, 653
207, 526, 310, 573, 512
208, 193, 679, 409, 448
209, 680, 324, 191, 410
210, 313, 427, 382, 498
211, 295, 181, 126, 555
212, 442, 499, 592, 240
213, 625, 317, 273, 384
214, 381, 349, 48, 59
215, 604, 285, 402, 192
216, 637, 255, 253, 321
217, 393, 558, 311, 239
218, 505, 254, 267, 247
219, 663, 151, 155, 283
220, 397, 634, 588, 230
221, 640, 463, 477, 476
222, 214, 366, 493, 279
223, 514, 455, 117, 106
224, 196, 414, 115, 104
225, 490, 651, 199, 457
226, 493, 476, 166, 141
227, 463, 209, 474, 477
228, 236, 495, 496, 494
229, 494, 496, 474, 209
230, 496, 139, 167, 474
231, 495, 168, 139, 496
232, 636, 266, 317, 625
233, 261, 260, 256, 648
234, 624, 316, 594, 401
235, 401, 594, 266, 636
236, 661, 500, 356, 376
237, 503, 357, 271, 501
238, 502, 272, 357, 503
239, 248, 247, 444, 330
240, 296, 265, 348, 595
241, 323, 296, 595, 623
242, 518, 375, 669, 254
243, 506, 508, 361, 244
244, 508, 507, 241, 361
245, 394, 418, 597, 643
246, 2, 510, 511, 17
247, 17, 511, 333, 24
248, 511, 509, 189, 333
249, 510, 173, 509, 511
250, 378, 282, 660, 543
251, 25, 513, 510, 2
252, 513, 133, 173, 510
253, 282, 193, 448, 660
254, 307, 204, 304, 545
255, 547, 642, 651, 490
256, 386, 652, 364, 616
257, 435, 386, 616, 346
258, 605, 487, 530, 350
259, 351, 582, 275, 373
260, 286, 488, 686, 246
261, 658, 248, 330, 487
262, 635, 313, 623, 595
263, 313, 498, 665, 623
264, 522, 298, 591, 665
265, 524, 599, 134, 172
266, 576, 187, 220, 524
267, 523, 294, 575, 577
268, 576, 135, 171, 548
269, 33, 41, 653, 377
270, 324, 411, 478, 191
271, 282, 38, 31, 193
272, 484, 295, 555, 662
273, 374, 51, 62, 520
274, 260, 382, 322, 354
275, 286, 239, 329, 488
276, 635, 595, 348, 504
277, 277, 148, 158, 149
278, 551, 251, 441, 259
279, 394, 687, 262, 418
280, 371, 252, 446, 529
281, 9, 153, 535, 124
282, 124, 535, 533, 154
283, 535, 534, 256, 533
284, 153, 182, 534, 535
285, 537, 291, 95, 88
286, 207, 666, 397, 363
287, 291, 574, 87, 95
288, 537, 143, 163, 291
289, 228, 368, 541, 538
290, 538, 541, 539, 229
291, 541, 540, 222, 539
292, 368, 223, 540, 541
293, 261, 648, 484, 522
294, 411, 380, 554, 478
295, 542, 526, 512, 194
296, 669, 379, 355, 557
297, 212, 608, 301, 278
298, 278, 301, 398, 609
299, 213, 207, 202, 464
300, 469, 433, 388, 515
301, 576, 523, 293, 187
302, 292, 664, 613, 614
303, 576, 524, 172, 135
304, 85, 549, 550, 82
305, 82, 550, 443, 84
306, 550, 319, 253, 443
307, 549, 161, 319, 550
308, 487, 330, 622, 530
309, 597, 289, 78, 71
310, 251, 556, 552, 441
311, 237, 551, 259, 601
312, 674, 183, 28, 26
313, 309, 241, 507, 527
314, 675, 674, 26, 29
315, 671, 297, 127, 179
316, 372, 81, 84, 443
317, 75, 243, 466, 67
318, 238, 286, 246, 531
319, 641, 277, 149, 157
320, 621, 598, 603, 465
321, 382, 427, 626, 322
322, 635, 504, 497, 257
323, 376, 356, 374, 379
324, 483, 638, 500, 661
325, 276, 441, 552, 598
326, 235, 560, 561, 559
327, 559, 561, 137, 169
328, 187, 421, 331, 220
329, 420, 615, 664, 292
330, 169, 138, 563, 559
331, 559, 563, 562, 235
332, 563, 495, 236, 562
333, 138, 168, 495, 563
334, 7, 315, 564, 83
335, 83, 564, 549, 85
336, 564, 145, 161, 549
337, 315, 162, 145, 564
338, 684, 290, 458, 343
339, 291, 163, 144, 574
340, 659, 279, 165, 142
341, 93, 8, 101, 642
342, 221, 568, 569, 566
343, 566, 569, 567, 219
344, 569, 472, 218, 567
345, 568, 215, 472, 569
346, 224, 439, 572, 456
347, 456, 572, 570, 225
348, 572, 571, 226, 570
349, 439, 227, 571, 572
350, 178, 268, 408, 128
351, 448, 409, 678, 380
352, 193, 31, 39, 679
353, 310, 479, 269, 573
354, 94, 87, 574, 314
355, 314, 574, 144, 162
356, 652, 114, 103, 364
357, 188, 341, 577, 471
358, 471, 577, 575, 218
359, 293, 341, 342, 339
360, 227, 431, 579, 571
361, 571, 579, 578, 226
362, 579, 538, 229, 578
363, 431, 228, 538, 579
364, 288, 641, 157, 150
365, 601, 259, 441, 276
366, 255, 372, 443, 253
367, 239, 311, 580, 329
368, 257, 497, 483, 499
369, 498, 382, 260, 261
370, 638, 60, 50, 500
371, 226, 578, 586, 583
372, 583, 586, 584, 231
373, 586, 585, 233, 584
374, 578, 229, 585, 586
375, 624, 298, 662, 481
376, 480, 403, 542, 404
377, 679, 480, 404, 409
378, 129, 410, 268, 178
379, 225, 570, 590, 588
380, 588, 590, 589, 230
381, 590, 583, 231, 589
382, 570, 226, 583, 590
383, 322, 626, 283, 155
384, 522, 484, 662, 298
385, 648, 521, 295, 484
386, 401, 636, 323, 591
387, 604, 192, 281, 525
388, 356, 61, 51, 374
389, 317, 596, 461, 273
390, 271, 425, 596, 501
391, 624, 270, 485, 316
392, 316, 502, 503, 594
393, 425, 274, 461, 596
394, 582, 73, 6, 275
395, 351, 373, 252, 371
396, 531, 394, 643, 602
397, 329, 428, 532, 488
398, 187, 293, 339, 421
399, 134, 599, 509, 173
400, 599, 332, 189, 509
401, 615, 561, 560, 664
402, 602, 643, 79, 72
403, 531, 246, 687, 394
404, 605, 350, 370, 419
405, 267, 557, 527, 352
406, 581, 242, 556, 251
407, 465, 603, 436, 245
408, 603, 506, 244, 436
409, 427, 313, 635, 258
410, 32, 40, 403, 480
411, 653, 412, 479, 310
412, 677, 543, 324, 680
413, 375, 376, 379, 669
414, 186, 450, 607, 422
415, 422, 607, 467, 184
416, 607, 606, 217, 467
417, 450, 216, 606, 607
418, 211, 536, 435, 300
419, 456, 195, 656, 224
420, 345, 537, 88, 96
421, 608, 546, 97, 90
422, 223, 336, 612, 540
423, 540, 612, 611, 222
424, 612, 606, 216, 611
425, 336, 217, 606, 612
426, 523, 577, 341, 293
427, 575, 614, 567, 218
428, 614, 613, 219, 567
429, 548, 420, 292, 294
430, 420, 136, 170, 615
431, 220, 331, 334, 332
432, 576, 548, 294, 523
433, 545, 304, 203, 455
434, 683, 300, 198, 668
435, 388, 610, 516, 280
436, 364, 103, 115, 414
437, 230, 589, 620, 303
438, 303, 620, 618, 210
439, 620, 619, 232, 618
440, 589, 231, 619, 620
441, 289, 419, 70, 78
442, 250, 240, 518, 593
443, 311, 663, 283, 580
444, 418, 328, 289, 597
445, 350, 530, 237, 553
446, 592, 661, 376, 375
447, 558, 287, 663, 311
448, 402, 285, 671, 408
449, 318, 555, 126, 180
450, 613, 629, 627, 219
451, 629, 628, 234, 627
452, 560, 235, 628, 629
453, 215, 568, 631, 451
454, 451, 631, 611, 216
455, 631, 630, 222, 611
456, 568, 221, 630, 631
457, 544, 639, 209, 463
458, 201, 684, 343, 489
459, 429, 490, 457, 536
460, 100, 93, 642, 547
461, 400, 212, 278, 434
462, 204, 415, 667, 304
463, 198, 346, 492, 344
464, 214, 279, 659, 610
465, 355, 309, 527, 557
466, 316, 485, 269, 502
467, 270, 263, 285, 604
468, 485, 525, 573, 269
469, 288, 150, 156, 287
470, 553, 237, 601, 249
471, 68, 264, 243, 75
472, 486, 249, 528, 264
473, 504, 381, 284, 497
474, 499, 483, 661, 592
475, 632, 201, 489, 299
476, 546, 197, 89, 97
477, 299, 489, 204, 307
478, 199, 102, 114, 652
479, 328, 658, 487, 605
480, 252, 373, 255, 637
481, 252, 637, 190, 446
482, 275, 6, 81, 372
483, 491, 547, 490, 429
484, 279, 493, 141, 165
485, 212, 208, 546, 608
486, 363, 303, 210, 396
487, 243, 621, 465, 466
488, 622, 581, 251, 551
489, 643, 597, 71, 79
490, 210, 618, 645, 639
491, 639, 645, 494, 209
492, 645, 644, 236, 494
493, 618, 232, 644, 645
494, 229, 539, 647, 585
495, 585, 647, 646, 233
496, 647, 630, 221, 646
497, 539, 222, 630, 647
498, 521, 125, 181, 295
499, 624, 401, 591, 298
500, 52, 63, 353, 312
501, 418, 262, 658, 328
502, 219, 627, 650, 566
503, 566, 650, 646, 221
504, 650, 649, 233, 646
505, 627, 234, 649, 650
506, 304, 667, 206, 203
507, 203, 206, 116, 105
508, 633, 299, 307, 195
509, 617, 544, 463, 640
510, 378, 30, 38, 282
511, 681, 378, 543, 677
512, 326, 308, 192, 402
513, 263, 481, 318, 297
514, 231, 584, 655, 619
515, 619, 655, 654, 232
516, 655, 649, 234, 654
517, 584, 233, 649, 655
518, 625, 384, 265, 296
519, 270, 604, 525, 485
520, 624, 481, 263, 270
521, 455, 203, 105, 117
522, 610, 659, 205, 516
523, 91, 99, 306, 398
524, 651, 113, 102, 199
525, 235, 562, 657, 628
526, 628, 657, 654, 234
527, 657, 644, 232, 654
528, 562, 236, 644, 657
529, 636, 625, 296, 323
530, 256, 260, 354, 533
531, 258, 635, 257, 327
532, 254, 669, 557, 267
533, 446, 190, 277, 641
534, 280, 516, 345, 197
535, 225, 633, 195, 456
536, 365, 413, 290, 684
537, 478, 554, 447, 308
538, 404, 542, 194, 587
539, 242, 507, 508, 556
540, 238, 393, 239, 286
541, 598, 552, 506, 603
542, 500, 50, 61, 356
543, 525, 281, 512, 573
544, 285, 263, 297, 671
545, 637, 321, 159, 190
546, 262, 482, 248, 658
547, 393, 371, 529, 558
548, 306, 491, 429, 475
549, 433, 214, 610, 388
550, 664, 560, 629, 613
551, 615, 170, 137, 561
552, 591, 323, 623, 665
553, 354, 322, 155, 152
554, 594, 503, 501, 266
555, 498, 261, 522, 665
556, 668, 198, 344, 682
557, 642, 101, 113, 651
558, 207, 363, 396, 202
559, 346, 616, 395, 492
560, 400, 515, 208, 212
561, 634, 632, 299, 633
562, 685, 400, 434, 565
563, 685, 469, 515, 400
564, 659, 142, 164, 205
565, 312, 353, 241, 309
566, 39, 32, 480, 679
567, 447, 194, 512, 281
568, 445, 258, 327, 428
569, 350, 553, 517, 370
570, 76, 486, 264, 68
571, 162, 315, 670, 314
572, 314, 670, 86, 94
573, 315, 7, 86, 670
574, 266, 501, 596, 317
575, 648, 256, 534, 521
576, 160, 320, 672, 146
577, 146, 672, 319, 161
578, 320, 253, 319, 672
579, 253, 320, 673, 321
580, 321, 673, 147, 159
581, 320, 160, 147, 673
582, 481, 662, 555, 318
583, 408, 671, 179, 128
584, 681, 676, 27, 3
585, 183, 174, 133, 513
586, 674, 132, 174, 183
587, 675, 175, 132, 674
588, 676, 131, 175, 675
589, 681, 176, 131, 676
590, 677, 680, 177, 130
591, 681, 677, 130, 176
592, 200, 201, 632, 666
593, 213, 200, 666, 207
594, 365, 684, 201, 200
595, 685, 365, 200, 213
596, 370, 517, 69, 77
*ELSET,ELSET=contact_source
99, 100, 101, 102, 103, 104, 105, 106, 107, 108, 
109, 110, 111, 112, 113, 114, 115, 116, 117, 118, 
119, 120, 121, 122, 
*ELSET,ELSET=contact_drain
39, 40, 41, 42, 43, 44, 45, 46, 47, 48, 
49, 50, 51, 52, 53, 54, 55, 56, 57, 58, 
59, 60, 
*ELSET,ELSET=probe_A
77, 78, 79, 80, 81, 82, 
*ELSET,ELSET=probe_B
17, 18, 19, 20, 21, 22, 
*ELSET,ELSET=walls
1, 2, 3, 4, 5, 6, 7, 8, 9, 10, 
11, 12, 13, 14, 15, 16, 23, 24, 25, 26, 
27, 28, 29, 30, 31, 32, 33, 34, 35, 36, 
37, 38, 61, 62, 63, 64, 65, 66, 67, 68, 
69, 70, 71, 72, 73, 74, 75, 76, 83, 84, 
85, 86, 87, 88, 89, 90, 91, 92, 93, 94, 
95, 96, 97, 98, 123, 124, 125, 126, 127, 128, 
129, 130, 131, 132, 133, 134, 135, 136, 137, 138, 
139, 140, 141, 142, 143, 144, 145, 146, 147, 148, 
149, 150, 151, 152, 153, 154, 155, 156, 157, 158, 
159, 160, 161, 162, 163, 164, 165, 166, 167, 168, 
169, 170, 171, 172, 173, 174, 175, 176, 177, 178, 
179, 180, 181, 182, 
*ELSET,ELSET=domain
183, 184, 185, 186, 187, 188, 189, 190, 191, 192, 
193, 194, 195, 196, 197, 198, 199, 200, 201, 202, 
203, 204, 205, 206, 207, 208, 209, 210, 211, 212, 
213, 214, 215, 216, 217, 218, 219, 220, 221, 222, 
223, 224, 225, 226, 227, 228, 229, 230, 231, 232, 
233, 234, 235, 236, 237, 238, 239, 240, 241, 242, 
243, 244, 245, 246, 247, 248, 249, 250, 251, 252, 
253, 254, 255, 256, 257, 258, 259, 260, 261, 262, 
263, 264, 265, 266, 267, 268, 269, 270, 271, 272, 
273, 274, 275, 276, 277, 278, 279, 280, 281, 282, 
283, 284, 285, 286, 287, 288, 289, 290, 291, 292, 
293, 294, 295, 296, 297, 298, 299, 300, 301, 302, 
303, 304, 305, 306, 307, 308, 309, 310, 311, 312, 
313, 314, 315, 316, 317, 318, 319, 320, 321, 322, 
323, 324, 325, 326, 327, 328, 329, 330, 331, 332, 
333, 334, 335, 336, 337, 338, 339, 340, 341, 342, 
343, 344, 345, 346, 347, 348, 349, 350, 351, 352, 
353, 354, 355, 356, 357, 358, 359, 360, 361, 362, 
363, 364, 365, 366, 367, 368, 369, 370, 371, 372, 
373, 374, 375, 376, 377, 378, 379, 380, 381, 382, 
383, 384, 385, 386, 387, 388, 389, 390, 391, 392, 
393, 394, 395, 396, 397, 398, 399, 400, 401, 402, 
403, 404, 405, 406, 407, 408, 409, 410, 411, 412, 
413, 414, 415, 416, 417, 418, 419, 420, 421, 422, 
423, 424, 425, 426, 427, 428, 429, 430, 431, 432, 
433, 434, 435, 436, 437, 438, 439, 440, 441, 442, 
443, 444, 445, 446, 447, 448, 449, 450, 451, 452, 
453, 454, 455, 456, 457, 458, 459, 460, 461, 462, 
463, 464, 465, 466, 467, 468, 469, 470, 471, 472, 
473, 474, 475, 476, 477, 478, 479, 480, 481, 482, 
483, 484, 485, 486, 487, 488, 489, 490, 491, 492, 
493, 494, 495, 496, 497, 498, 499, 500, 501, 502, 
503, 504, 505, 506, 507, 508, 509, 510, 511, 512, 
513, 514, 515, 516, 517, 518, 519, 520, 521, 522, 
523, 524, 525, 526, 527, 528, 529, 530, 531, 532, 
533, 534, 535, 536, 537, 538, 539, 540, 541, 542, 
543, 544, 545, 546, 547, 548, 549, 550, 551, 552, 
553, 554, 555, 556, 557, 558, 559, 560, 561, 562, 
563, 564, 565, 566, 567, 568, 569, 570, 571, 572, 
573, 574, 575, 576, 577, 578, 579, 580, 581, 582, 
583, 584, 585, 586, 587, 588, 589, 590, 591, 592, 
593, 594, 595, 596, 597, 598, 599, 600, 601, 602, 
603, 604, 605, 606, 607, 608, 609, 610, 611, 612, 
613, 614, 615, 616, 617, 618, 619, 620, 621, 622, 
623, 624, 625, 626, 627, 628, 629, 630, 631, 632, 
633, 634, 635, 636, 637, 638, 639, 640, 641, 642, 
643, 644, 645, 646, 647, 648, 649, 650, 651, 652, 
653, 654, 655, 656, 657, 658, 659, 660, 661, 662, 
663, 664, 665, 666, 667, 668, 669, 670, 671, 672, 
673, 674, 675, 676, 677, 678, 679, 680, 681, 682, 
683, 684, 685, 686, 687, 688, 689, 690, 691, 692, 
693, 694, 695, 696, 697, 698, 699, 700, 701, 702, 
703, 704, 705, 706, 707, 708, 709, 710, 711, 712, 
713, 714, 715, 716, 717, 718, 719, 720, 721, 722, 
723, 724, 725, 726, 727, 728, 729, 730, 731, 732, 
733, 734, 735, 736, 737, 738, 739, 740, 741, 742, 
743, 744, 745, 746, 747, 748, 749, 750, 751, 752, 
753, 754, 755, 756, 757, 758, 759, 760, 761, 762, 
763, 764, 765, 766, 767, 768, 769, 770, 771, 772, 
773, 774, 775, 776, 777, 778, 
*NSET,NSET=contact_source
1, 8, 101, 102, 103, 104, 105, 106, 107, 108, 
109, 110, 111, 112, 113, 114, 115, 116, 117, 118, 
119, 120, 121, 122, 123, 
*NSET,NSET=contact_drain
4, 5, 45, 46, 47, 48, 49, 50, 51, 52, 
53, 54, 55, 56, 57, 58, 59, 60, 61, 62, 
63, 64, 65, 
*NSET,NSET=probe_A
6, 7, 81, 82, 83, 84, 85, 
*NSET,NSET=probe_B
2, 3, 25, 26, 27, 28, 29, 
*NSET,NSET=walls
1, 2, 3, 4, 5, 6, 7, 8, 9, 10, 
11, 12, 13, 14, 15, 16, 17, 18, 19, 20, 
21, 22, 23, 24, 30, 31, 32, 33, 34, 35, 
36, 37, 38, 39, 40, 41, 42, 43, 44, 66, 
67, 68, 69, 70, 71, 72, 73, 74, 75, 76, 
77, 78, 79, 80, 86, 87, 88, 89, 90, 91, 
92, 93, 94, 95, 96, 97, 98, 99, 100, 124, 
125, 126, 127, 128, 129, 130, 131, 132, 133, 134, 
135, 136, 137, 138, 139, 140, 141, 142, 143, 144, 
145, 146, 147, 148, 149, 150, 151, 152, 153, 154, 
155, 156, 157, 158, 159, 160, 161, 162, 163, 164, 
165, 166, 167, 168, 169, 170, 171, 172, 173, 174, 
175, 176, 177, 178, 179, 180, 181, 182, 
*NSET,NSET=domain
1, 2, 3, 4, 5, 6, 7, 8, 9, 10, 
11, 12, 13, 14, 15, 16, 17, 18, 19, 20, 
21, 22, 23, 24, 25, 26, 27, 28, 29, 30, 
31, 32, 33, 34, 35, 36, 37, 38, 39, 40, 
41, 42, 43, 44, 45, 46, 47, 48, 49, 50, 
51, 52, 53, 54, 55, 56, 57, 58, 59, 60, 
61, 62, 63, 64, 65, 66, 67, 68, 69, 70, 
71, 72, 73, 74, 75, 76, 77, 78, 79, 80, 
81, 82, 83, 84, 85, 86, 87, 88, 89, 90, 
91, 92, 93, 94, 95, 96, 97, 98, 99, 100, 
101, 102, 103, 104, 105, 106, 107, 108, 109, 110, 
111, 112, 113, 114, 115, 116, 117, 118, 119, 120, 
121, 122, 123, 124, 125, 126, 127, 128, 129, 130, 
131, 132, 133, 134, 135, 136, 137, 138, 139, 140, 
141, 142, 143, 144, 145, 146, 147, 148, 149, 150, 
151, 152, 153, 154, 155, 156, 157, 158, 159, 160, 
161, 162, 163, 164, 165, 166, 167, 168, 169, 170, 
171, 172, 173, 174, 175, 176, 177, 178, 179, 180, 
181, 182, 183, 184, 185, 186, 187, 188, 189, 190, 
191, 192, 193, 194, 195, 196, 197, 198, 199, 200, 
201, 202, 203, 204, 205, 206, 207, 208, 209, 210, 
211, 212, 213, 214, 215, 216, 217, 218, 219, 220, 
221, 222, 223, 224, 225, 226, 227, 228, 229, 230, 
231, 232, 233, 234, 235, 236, 237, 238, 239, 240, 
241, 242, 243, 244, 245, 246, 247, 248, 249, 250, 
251, 252, 253, 254, 255, 256, 257, 258, 259, 260, 
261, 262, 263, 264, 265, 266, 267, 268, 269, 270, 
271, 272, 273, 274, 275, 276, 277, 278, 279, 280, 
281, 282, 283, 284, 285, 286, 287, 288, 289, 290, 
291, 292, 293, 294, 295, 296, 297, 298, 299, 300, 
301, 302, 303, 304, 305, 306, 307, 308, 309, 310, 
311, 312, 313, 314, 315, 316, 317, 318, 319, 320, 
321, 322, 323, 324, 325, 326, 327, 328, 329, 330, 
331, 332, 333, 334, 335, 336, 337, 338, 339, 340, 
341, 342, 343, 344, 345, 346, 347, 348, 349, 350, 
351, 352, 353, 354, 355, 356, 357, 358, 359, 360, 
361, 362, 363, 364, 365, 366, 367, 368, 369, 370, 
371, 372, 373, 374, 375, 376, 377, 378, 379, 380, 
381, 382, 383, 384, 385, 386, 387, 388, 389, 390, 
391, 392, 393, 394, 395, 396, 397, 398, 399, 400, 
401, 402, 403, 404, 405, 406, 407, 408, 409, 410, 
411, 412, 413, 414, 415, 416, 417, 418, 419, 420, 
421, 422, 423, 424, 425, 426, 427, 428, 429, 430, 
431, 432, 433, 434, 435, 436, 437, 438, 439, 440, 
441, 442, 443, 444, 445, 446, 447, 448, 449, 450, 
451, 452, 453, 454, 455, 456, 457, 458, 459, 460, 
461, 462, 463, 464, 465, 466, 467, 468, 469, 470, 
471, 472, 473, 474, 475, 476, 477, 478, 479, 480, 
481, 482, 483, 484, 485, 486, 487, 488, 489, 490, 
491, 492, 493, 494, 495, 496, 497, 498, 499, 500, 
501, 502, 503, 504, 505, 506, 507, 508, 509, 510, 
511, 512, 513, 514, 515, 516, 517, 518, 519, 520, 
521, 522, 523, 524, 525, 526, 527, 528, 529, 530, 
531, 532, 533, 534, 535, 536, 537, 538, 539, 540, 
541, 542, 543, 544, 545, 546, 547, 548, 549, 550, 
551, 552, 553, 554, 555, 556, 557, 558, 559, 560, 
561, 562, 563, 564, 565, 566, 567, 568, 569, 570, 
571, 572, 573, 574, 575, 576, 577, 578, 579, 580, 
581, 582, 583, 584, 585, 586, 587, 588, 589, 590, 
591, 592, 593, 594, 595, 596, 597, 598, 599, 600, 
601, 602, 603, 604, 605, 606, 607, 608, 609, 610, 
611, 612, 613, 614, 615, 616, 617, 618, 619, 620, 
621, 622, 623, 624, 625, 626, 627, 628, 629, 630, 
631, 632, 633, 634, 635, 636, 637, 638, 639, 640, 
641, 642, 643, 644, 645, 646, 647, 648, 649, 650, 
651, 652, 653, 654, 655, 656, 657, 658, 659, 660, 
661, 662, 663, 664, 665, 666, 667, 668, 669, 670, 
671, 672, 673, 674, 675, 676, 677, 678, 679, 680, 
681, 682, 683, 684, 685, 686, 687, 
