*Heading
 /Users/juliagao/geometry-optimization-net/scripts/../runs/run2/shape_38.inp
*NODE
1, 0, -0.3, 0
2, 0.425, -0.3, 0
3, 0.575, -0.3, 0
4, 1, -0.3, 0
5, 1, 0.3, 0
6, 0.575, 0.3, 0
7, 0.425, 0.3, 0
8, 0, 0.3, 0
9, 0.6276326466, 0.0645486022, 0
10, 0.026071883217391, -0.3, 0
11, 0.078888013041168, -0.3, 0
12, 0.13247150765911, -0.3, 0
13, 0.18576132453494, -0.3, 0
14, 0.23894019171618, -0.3, 0
15, 0.29268553989068, -0.3, 0
16, 0.34650842198155, -0.3, 0
17, 0.39915712710745, -0.3, 0
18, 0.052143766434781, -0.3, 0
19, 0.10563225964756, -0.3, 0
20, 0.15931075567066, -0.3, 0
21, 0.21221189339921, -0.3, 0
22, 0.26566849003315, -0.3, 0
23, 0.31970258974821, -0.3, 0
24, 0.37331425421489, -0.3, 0
25, 0.44991015208047, -0.3, 0
26, 0.49982456233119, -0.3, 0
27, 0.54991441025072, -0.3, 0
28, 0.47482030416095, -0.3, 0
29, 0.52482882050144, -0.3, 0
30, 0.60041645181017, -0.3, 0
31, 0.65232685646476, -0.3, 0
32, 0.70596396625827, -0.3, 0
33, 0.76021956877246, -0.3, 0
34, 0.81448137630588, -0.3, 0
35, 0.86882408977118, -0.3, 0
36, 0.92243778884942, -0.3, 0
37, 0.97442906821535, -0.3, 0
38, 0.62583290362035, -0.3, 0
39, 0.67882080930918, -0.3, 0
40, 0.73310712320737, -0.3, 0
41, 0.78733201433755, -0.3, 0
42, 0.84163073827421, -0.3, 0
43, 0.89601744126816, -0.3, 0
44, 0.94885813643069, -0.3, 0
45, 1, -0.27360446358553, 0
46, 1, -0.21972631411191, 0
47, 1, -0.1641011908697, 0
48, 1, -0.10811208749407, 0
49, 1, -0.052696858346196, 0
50, 1, 0.0024707516369312, 0
51, 1, 0.057281663039292, 0
52, 1, 0.11137675797634, 0
53, 1, 0.16548649429443, 0
54, 1, 0.21991144928446, 0
55, 1, 0.27355491275945, 0
56, 1, -0.24720892717106, 0
57, 1, -0.19224370105276, 0
58, 1, -0.13595868068664, 0
59, 1, -0.080265494301504, 0
60, 1, -0.025128222390887, 0
61, 1, 0.030069725664749, 0
62, 1, 0.084493600413835, 0
63, 1, 0.13825991553885, 0
64, 1, 0.19271307305001, 0
65, 1, 0.24710982551891, 0
66, 0.97405518107481, 0.3, 0
67, 0.92195054489521, 0.3, 0
68, 0.86897150122343, 0.3, 0
69, 0.81473386968343, 0.3, 0
70, 0.75934530796773, 0.3, 0
71, 0.70420457011981, 0.3, 0
72, 0.65136392710074, 0.3, 0
73, 0.60034693266826, 0.3, 0
74, 0.94811036214962, 0.3, 0
75, 0.8957907276408, 0.3, 0
76, 0.84215227480607, 0.3, 0
77, 0.7873154645608, 0.3, 0
78, 0.73137515137467, 0.3, 0
79, 0.67703398886496, 0.3, 0
80, 0.62569386533653, 0.3, 0
81, 0.5499372807079, 0.3, 0
82, 0.50021240659108, 0.3, 0
83, 0.45027512588318, 0.3, 0
84, 0.5248745614158, 0.3, 0
85, 0.47555025176636, 0.3, 0
86, 0.39842493597769, 0.3, 0
87, 0.34503955546659, 0.3, 0
88, 0.2913451122645, 0.3, 0
89, 0.23747503059131, 0.3, 0
90, 0.18344143801382, 0.3, 0
91, 0.12931288788127, 0.3, 0
92, 0.07619663536315, 0.3, 0
93, 0.025080647680001, 0.3, 0
94, 0.37184987195538, 0.3, 0
95, 0.3182292389778, 0.3, 0
96, 0.26446098555121, 0.3, 0
97, 0.21048907563141, 0.3, 0
98, 0.15639380039624, 0.3, 0
99, 0.1022319753663, 0.3, 0
100, 0.050161295360001, 0.3, 0
101, 0, 0.2743747113093, 0
102, 0, 0.2224740494351, 0
103, 0, 0.16898066583407, 0
104, 0, 0.11403626962243, 0
105, 0, 0.058080893146396, 0
106, 0, 0.00092378893932615, 0
107, 0, -0.056876919387068, 0
108, 0, -0.11335339763381, 0
109, 0, -0.1677611838804, 0
110, 0, -0.22099104986368, 0
111, 0, -0.27370850652294, 0
112, 0, 0.2487494226186, 0
113, 0, 0.19619867625159, 0
114, 0, 0.14176265541654, 0
115, 0, 0.086309883828322, 0
116, 0, 0.029851902464469, 0
117, 0, -0.028004324585817, 0
118, 0, -0.085749514188319, 0
119, 0, -0.1409572810793, 0
120, 0, -0.1945650866815, 0
121, 0, -0.24741701304587, 0
122, 0.6143739011693, 0.092908328231581, 0
123, 0.69928245989703, 0.023613932262285, 0
124, 0.73835741881492, -0.017085191845492, 0
125, 0.74815717727755, -0.07048641304811, 0
126, 0.70449142571417, -0.10019155063237, 0
127, 0.65019368391117, -0.099605227689638, 0
128, 0.59696970270749, -0.090794152401936, 0
129, 0.54875707565053, -0.10989471773058, 0
130, 0.50188996633066, -0.13277401256221, 0
131, 0.44812596560433, -0.12456098633078, 0
132, 0.39166982917796, -0.11983336849549, 0
133, 0.33754583917029, -0.10994189465312, 0
134, 0.30890418442624, -0.065672620222091, 0
135, 0.3238363989426, -0.012773749320646, 0
136, 0.35756876512972, 0.032449149074259, 0
137, 0.37920489925773, 0.081040417501876, 0
138, 0.40705919519213, 0.12152712922671, 0
139, 0.44025111781124, 0.15360851984433, 0
140, 0.45049324840249, 0.20057666102528, 0
141, 0.49424530831115, 0.19716707874813, 0
142, 0.51362492396963, 0.16030942645515, 0
143, 0.55453357818324, 0.16636483068712, 0
144, 0.59700256637866, 0.19530494802208, 0
145, 0.6463902214508, 0.20775512812348, 0
146, 0.66937684361457, 0.16541237824422, 0
147, 0.64130848258231, 0.12052768217521, 0
148, 0.65214136423091, 0.052674345018058, 0
149, 0.62270833738646, 0.10136651360834, 0
150, 0.65770466080727, 0.14165631160411, 0
151, 0.66958749714724, 0.19276633030235, 0
152, 0.6213183498701, 0.20504190336088, 0
153, 0.57463521421219, 0.18176879936247, 0
154, 0.53518417012088, 0.15005571291098, 0
155, 0.50671394667097, 0.17650955615135, 0
156, 0.47435938293736, 0.21189347713552, 0
157, 0.44281368080145, 0.17915641934923, 0
158, 0.4319589744325, 0.12836718427105, 0
159, 0.38422058616345, 0.10743342988968, 0
160, 0.37489401930456, 0.054695561473362, 0
161, 0.33956082492052, 0.010797390116667, 0
162, 0.31253698881801, -0.038830520198781, 0
163, 0.3169903698157, -0.091948717902029, 0
164, 0.36325128529901, -0.1177928994823, 0
165, 0.42011126632966, -0.12046060719467, 0
166, 0.47555120217433, -0.13120729544451, 0
167, 0.52718384007491, -0.12482723885048, 0
168, 0.57024437345488, -0.094855479432644, 0
169, 0.62307313683763, -0.094832627619958, 0
170, 0.67764966974871, -0.10207269057079, 0
171, 0.7300064632041, -0.091042201056425, 0
172, 0.74977943792704, -0.043293879937295, 0
173, 0.7204934768801, 0.004999849256544, 0
174, 0.6759685551231, 0.039478908719021, 0
175, 0.42226904526632, -0.24192295562708, 0
176, 0.57175667238106, -0.24968046689317, 0
177, 0.43496687295155, 0.25056852759685, 0
178, 0.39530626138655, -0.21092214588866, 0
179, 0.18488684398209, -0.2110475436566, 0
180, 0.31751752540684, -0.23869141786344, 0
181, 0.026193657950903, -0.110232177212, 0
182, 0.39327075922842, -0.15009692055143, 0
183, 0.47329113672199, -0.24444193574283, 0
184, 0.20367232789278, 0.11378577893037, 0
185, 0.34279963380959, -0.20827533218269, 0
186, 0.69311155334343, 0.078804295098009, 0
187, 0.59901354683004, 0.25756156851559, 0
188, 0.52309697001315, -0.24735458015989, 0
189, 0.8085224908505, -0.22053057424158, 0
190, 0.7440951572784, -0.16935939980984, 0
191, 0.67579673107034, -0.27463618807284, 0
192, 0.077039218837136, 0.11480139582709, 0
193, 0.30410125611646, 0.18533733731279, 0
194, 0.078773588531535, -0.13257300634878, 0
195, 0.10241947564917, 0.036593066088373, 0
196, 0.076960227593679, 0.27367001434752, 0
197, 0.025677517327693, 0.059072008127328, 0
198, 0.17852997524994, 0.11513932170522, 0
199, 0.1040572812445, -0.045051715996849, 0
200, 0.025763562401942, 0.14143616665268, 0
201, 0.12838378991967, 0.012810989110469, 0
202, 0.078913168888128, -0.16067377286179, 0
203, 0.13108326374381, -0.098417469859602, 0
204, 0.051647227380513, 0.22126669726082, 0
205, 0.26864233362612, 0.24460939060998, 0
206, 0.32845245124188, 0.24540529257325, 0
207, 0.38312387018575, 0.25276331539461, 0
208, 0.47554683458128, 0.26781528046703, 0
209, 0.27008934570538, 0.18791472826416, 0
210, 0.29984106028557, 0.15578426841296, 0
211, 0.35005669252004, 0.18107544966715, 0
212, 0.23746763081024, -0.051626279780758, 0
213, 0.26727271730813, 0.15983249372182, 0
214, 0.2177611549467, 0.066504815695648, 0
215, 0.28969590123449, -0.042465206198155, 0
216, 0.025920371245873, -0.025430812615225, 0
217, 0.15683416092471, 0.27321627369455, 0
218, 0.21052486622562, -0.11778037943981, 0
219, 0.18057689817109, 0.14029081387611, 0
220, 0.23969696898661, 0.18989944222785, 0
221, 0.025826608460849, 0.19530686162555, 0
222, 0.1835443807691, 0.19250084284236, 0
223, 0.36786882208906, -0.17871846678472, 0
224, 0.23690438464337, -0.11396213648218, 0
225, 0.39632653778234, -0.24086072599066, 0
226, 0.29186680345003, -0.26938529171592, 0
227, 0.051315433983115, 0.08740259362069, 0
228, 0.23856250304673, -0.26970171118243, 0
229, 0.02543438841692, 0.27407307769035, 0
230, 0.051643428537592, 0.16811752354771, 0
231, 0.051439464321466, 0.24762065436324, 0
232, 0.10385642749923, 0.22056261973079, 0
233, 0.18516798796363, -0.24078973652183, 0
234, 0.20029856900674, 0.090054724023266, 0
235, 0.10564833399072, -0.27177111809893, 0
236, 0.10506158866721, -0.12993441285152, 0
237, 0.10304815485633, 0.14140527017357, 0
238, 0.2387762342431, 0.27257545045155, 0
239, 0.1034725532654, 0.16771070332324, 0
240, 0.078041883869732, -0.0481166055423, 0
241, 0.31660635213297, -0.20740961025131, 0
242, 0.2632313256821, -0.1094626663031, 0
243, 0.078347460535419, -0.076220670351907, 0
244, 0.42090120650491, -0.18269491949828, 0
245, 0.47313538016501, -0.18789740121815, 0
246, 0.91986267952444, 0.24764142770799, 0
247, 0.72321019345006, 0.16579936747606, 0
248, 0.9162316520125, 0.030444613191495, 0
249, 0.74794586844255, -0.19565470178633, 0
250, 0.85886421707989, 0.089470316527643, 0
251, 0.75718407953625, 0.25199313526425, 0
252, 0.79773572106971, 0.066502976027588, 0
253, 0.86191178212441, 0.17108827064585, 0
254, 0.91600241305824, 0.058567617487498, 0
255, 0.77238190712216, 0.1295667017617, 0
256, 0.86066099278733, 0.14452355774486, 0
257, 0.9723257621859, 0.13919119444959, 0
258, 0.73018113694871, 0.25238889311131, 0
259, 0.72891042970404, 0.20661622659582, 0
260, 0.67600732227254, 0.25194453469201, 0
261, 0.62408049592061, 0.25513314414345, 0
262, 0.59140586339217, 0.21991221029769, 0
263, 0.57671043894807, 0.24038088784982, 0
264, 0.83022620480099, 0.032263010584398, 0
265, 0.7099000799967, 0.12242169559391, 0
266, 0.97252051790755, 0.16628197955237, 0
267, 0.91741274269538, 0.16815776888078, 0
268, 0.97214031654639, 0.0300302945828, 0
269, 0.89437054712066, -0.27318606938485, 0
270, 0.76834493591262, 0.10304312689092, 0
271, 0.78575565750202, 0.27558667053053, 0
272, 0.91602660670761, 0.08644362820941, 0
273, 0.83569067132223, 0.19887307306624, 0
274, 0.92010851540913, -0.24624926686315, 0
275, 0.86721039089303, -0.27326225348566, 0
276, 0.7340313223315, -0.11425955646583, 0
277, 0.94444565592944, 0.0022639295759507, 0
278, 0.89200697396177, -0.21937951343066, 0
279, 0.86349066307411, -0.19274941371404, 0
280, 0.64226139282746, -0.22491298877027, 0
281, 0.89306382359109, -0.24632583329718, 0
282, 0.56869437750717, -0.16474620930024, 0
283, 0.80541133895245, -0.14051868259141, 0
284, 0.56879606317504, -0.20164960192868, 0
285, 0.52305706443972, -0.19434903404667, 0
286, 0.81088514763288, -0.059292179807296, 0
287, 0.62077580777259, -0.25006043079657, 0
288, 0.83313632707128, 0.0014346162159241, 0
289, 0.66811117494932, -0.22421689718393, 0
290, 0.60840501759611, -0.17772293219487, 0
291, 0.91663169023607, 0.002211529760922, 0
292, 0.97251471976583, -0.080837147610884, 0
293, 0.8622151168413, -0.027153409365096, 0
294, 0.81245084336956, -0.27352732338091, 0
295, 0.89034088588679, -0.13782913799194, 0
296, 0.83635663867357, -0.057126670116515, 0
297, 0.86295894159507, -0.083664335567327, 0
298, 0.88878669180482, 0.0021337267663548, 0
299, 0.86270426428059, -0.1112463458615, 0
300, 0.97351694091918, -0.24655610898193, 0
301, 0.86290129245265, -0.055676138025405, 0
302, 0.89020314360883, -0.082667873592938, 0
303, 0.80667443400097, -0.11372842206969, 0
304, 0.75744037597061, -0.27391702106099, 0
305, 0.15867051529414, -0.24167066039375, 0
306, 0.21269550126963, 0.051157829523761, 0
307, 0.052682429490488, -0.21803714564447, 0
308, 0.38295717258599, 0.19758301694572, 0
309, 0.79920484788557, 0.096386045884644, 0
310, 0.94548552932033, 0.19399733632783, 0
311, 0.8366681150451, -0.22005276855608, 0
312, 0.69919619677346, 0.173456257443, 0
313, 0.70352738189177, 0.2058482249565, 0
314, 0.72819669031817, 0.1858371513308, 0
315, 0.4066931483921, 0.25578431408209, 0
316, 0.42108183317949, 0.22848389471096, 0
317, 0.3902404215464, 0.23146432409186, 0
318, 0.53353631156769, 0.22681747170169, 0
319, 0.55115708451342, 0.25594108231997, 0
320, 0.62261636458959, 0.23198257274229, 0
321, 0.57768888691577, 0.20713334894859, 0
322, 0.56470246842463, 0.21956808453191, 0
323, 0.55690696495663, 0.23593377999438, 0
324, 0.35762105260611, 0.11373128982305, 0
325, 0.63748931353866, -0.20029797408863, 0
326, 0.8398801284287, -0.27337803087486, 0
327, 0.97233603428787, -0.025391392256616, 0
328, 0.70514412033589, -0.14622237467645, 0
329, 0.77912087195807, -0.002523810946527, 0
330, 0.73138786376932, 0.08781366029349, 0
331, 0.61344028412254, -0.20130501387286, 0
332, 0.80154118430885, 0.12408384957168, 0
333, 0.21035011650887, -0.087245046641141, 0
334, 0.15742158198907, -0.095083466637929, 0
335, 0.18289488055626, -0.032951549399133, 0
336, 0.2116518290274, -0.23997277807911, 0
337, 0.23813923881565, -0.23927335341689, 0
338, 0.026326434946043, -0.21949772978404, 0
339, 0.2622088389989, 0.048395271228911, 0
340, 0.2102159460358, -0.027078821347796, 0
341, 0.26434538545217, -0.046739497687005, 0
342, 0.24244837040925, 0.017046870004452, 0
343, 0.28964251789982, -0.10327475604188, 0
344, 0.15893072581869, -0.27085353175356, 0
345, 0.17535733752178, 0.067427648871117, 0
346, 0.73088394542629, 0.27612579885126, 0
347, 0.86574572123023, -0.24649519222548, 0
348, 0.75459107073448, 0.20513970344351, 0
349, 0.77893122803605, 0.17899103228473, 0
350, 0.12746263511795, 0.08992468888065, 0
351, 0.26518409839754, -0.26947471977734, 0
352, 0.36624591863343, -0.14779211552349, 0
353, 0.10560680616232, -0.24351390933296, 0
354, 0.69502874151801, -0.22343152512697, 0
355, 0.86258524849966, -0.13857074350395, 0
356, 0.89063818494625, -0.16514509293349, 0
357, 0.78723645189432, -0.06236570951121, 0
358, 0.91862478911873, -0.19202955013335, 0
359, 0.9732023618113, -0.21934883190389, 0
360, 0.917722445745, -0.10966056367868, 0
361, 0.97392342096002, -0.27334671475085, 0
362, 0.85877122456578, 0.060766301420182, 0
363, 0.83071797905952, 0.12013823488436, 0
364, 0.88971560684743, 0.16944022559643, 0
365, 0.75252889957204, 0.18246778783085, 0
366, 0.79896306942916, 0.033724778581752, 0
367, 0.94411909738953, 0.057956821804288, 0
368, 0.26659697358103, 0.27241356654647, 0
369, 0.2368122836145, -0.082606934649033, 0
370, 0.10481264916466, -0.10148639978571, 0
371, 0.076871237582135, 0.08819654210105, 0
372, 0.47556338851791, 0.28234541574242, 0
373, 0.52258384949535, 0.27671523624163, 0
374, 0.49060947952165, 0.26022853000627, 0
375, 0.49688188952921, 0.27960456638202, 0
376, 0.32288998916704, 0.27292997770041, 0
377, 0.37722439060985, 0.27592067919245, 0
378, 0.35722853058837, 0.24853362885023, 0
379, 0.35058831783024, 0.27418112625163, 0
380, 0.49835344953224, -0.24587027365153, 0
381, 0.52389109546449, -0.27367928696907, 0
382, 0.4739727054332, -0.27228755520359, 0
383, 0.4990025891027, -0.27298050961369, 0
384, 0.97243382540519, -0.053117485986699, 0
385, 0.94488511833916, -0.053546244828732, 0
386, 0.76611391510168, -0.066330236266505, 0
387, 0.29825308279963, 0.24451192037584, 0
388, 0.29468575405046, 0.27245071672986, 0
389, 0.83498489357346, -0.11238131437349, 0
390, 0.77766028749864, -0.19471751848916, 0
391, 0.72999363426761, -0.27415296763655, 0
392, 0.28976761439537, -0.17496157115499, 0
393, 0.026026419714969, -0.053885091235249, 0
394, 0.31518982402987, -0.14016187922164, 0
395, 0.71842732572969, -0.19689377349771, 0
396, 0.97223060530102, 0.0023432415775088, 0
397, 0.69353678499215, -0.12276787868245, 0
398, 0.18545913094416, -0.27042280322022, 0
399, 0.19687631482381, 0.047971360061822, 0
400, 0.10219396224137, 0.062920833837031, 0
401, 0.54753265243821, -0.24872700468465, 0
402, 0.57342807197102, -0.27474485537782, 0
403, 0.54867761985987, -0.27430423313244, 0
404, 0.86448547087111, -0.21966604262542, 0
405, 0.97267416910421, -0.13639098004569, 0
406, 0.86283714640121, -0.16572512604207, 0
407, 0.078584343432926, -0.10439750939659, 0
408, 0.103198123609, 0.2735243205764, 0
409, 0.29108889514592, -0.23855048193301, 0
410, 0.62506597167008, 0.27761003156443, 0
411, 0.57511911108559, 0.27882337041493, 0
412, 0.59985188493864, 0.27854018600608, 0
413, 0.54985872195465, 0.27789992484846, 0
414, 0.42339406481224, -0.2710524880212, 0
415, 0.44792754297966, -0.24312012201919, 0
416, 0.44879570741161, -0.27163926013043, 0
417, 0.7582809089584, 0.27593054193339, 0
418, 0.85958073739214, 0.1173677893798, 0
419, 0.051700547012278, 0.1947757967281, 0
420, 0.026294808591738, -0.16531830378574, 0
421, 0.025664061804948, 0.24805963065566, 0
422, 0.23750728748923, 0.16273615310282, 0
423, 0.66382446258978, -0.12436487363679, 0
424, 0.80566334601805, -0.1672772902787, 0
425, 0.15462950274593, 0.14105302909362, 0
426, 0.12934394556165, -0.01402953868391, 0
427, 0.13137842543507, -0.12720663542855, 0
428, 0.3975838478582, -0.27052086938062, 0
429, 0.34509161905588, -0.26969872130878, 0
430, 0.34166583329175, -0.17673419850565, 0
431, 0.31853029433104, -0.26946115500433, 0
432, 0.10540298090255, -0.18683228929538, 0
433, 0.29721687815842, -0.013905651491697, 0
434, 0.33724229100919, 0.062851078199717, 0
435, 0.1517494441594, 0.06603937744023, 0
436, 0.079018701649823, -0.18868918333107, 0
437, 0.12881837614932, 0.14135484103589, 0
438, 0.20240216217014, 0.02760578616535, 0
439, 0.94732841835633, 0.27366524242735, 0
440, 0.88804380061026, 0.030851883037745, 0
441, 0.83877106632453, 0.24954972708879, 0
442, 0.34388595103415, -0.23918761283526, 0
443, 0.051525542172829, 0.14133727227224, 0
444, 0.052383654698226, -0.10727298484263, 0
445, 0.73820987878, 0.11250879095906, 0
446, 0.94430757771226, 0.11294211291764, 0
447, 0.81153754556741, 0.25039658108807, 0
448, 0.91814780389041, 0.19484071669969, 0
449, 0.76064455658157, 0.037478546739229, 0
450, 0.18384679673143, -0.091385323392465, 0
451, 0.26908722108833, -0.015898283229475, 0
452, 0.26361246072967, -0.17592690837619, 0
453, 0.13012625797605, -0.041648051733888, 0
454, 0.18416553424929, 0.21919320795349, 0
455, 0.23986054003265, 0.24506664723559, 0
456, 0.71146929680887, 0.041905174426108, 0
457, 0.1835157388373, -0.06192267126723, 0
458, 0.19750922747698, 0.068064641799805, 0
459, 0.34763398025693, 0.088207551736702, 0
460, 0.12723630120049, 0.064465247624316, 0
461, 0.13180459608124, -0.1849680551985, 0
462, 0.22914410862017, 0.11106405487169, 0
463, 0.94516626446277, -0.10910442210203, 0
464, 0.88952110595021, -0.026434404525745, 0
465, 0.89000723350928, -0.054710130065504, 0
466, 0.4292628416924, 0.27674288642858, 0
467, 0.40288026028556, 0.27726986109752, 0
468, 0.91788808470854, -0.13724584069084, 0
469, 0.94531543271246, -0.13678488969261, 0
470, 0.77448966903993, -0.14157096486473, 0
471, 0.59606578516595, -0.25008390575634, 0
472, 0.59834977772595, -0.27495075720257, 0
473, 0.67685399203504, 0.27619598569661, 0
474, 0.64974390457813, 0.25345634600021, 0
475, 0.6507366846536, 0.27680203846045, 0
476, 0.1029226299021, 0.0098804811554661, 0
477, 0.17842135514781, 0.020993642394485, 0
478, 0.64615778505452, -0.24977864804187, 0
479, 0.89119337373481, -0.19232421450332, 0
480, 0.13214072532516, -0.24258313008033, 0
481, 0.026252846838594, -0.13795424207448, 0
482, 0.46060940249645, 0.26037055095066, 0
483, 0.45429358432016, 0.27961743511999, 0
484, 0.15524366364182, -0.010047139703778, 0
485, 0.051397481132103, 0.11443204287113, 0
486, 0.82905236100084, 0.062845688450633, 0
487, 0.83724435886291, 0.22427821515572, 0
488, 0.70320401841175, 0.25227080116662, 0
489, 0.70377678343484, 0.27614654931504, 0
490, 0.42047864629282, -0.15224629408645, 0
491, 0.47395745333566, -0.15914195898346, 0
492, 0.44722543984928, -0.18514604166476, 0
493, 0.44746649656649, -0.15540255773865, 0
494, 0.37151448260758, -0.2700646577504, 0
495, 0.12953393746736, 0.16744421143922, 0
496, 0.077308310679839, 0.0073493066769333, 0
497, 0.10525216362845, -0.15840043811174, 0
498, 0.29037597230343, -0.20722242437603, 0
499, 0.025676685963596, 0.0867492926953, 0
500, 0.052595038199227, -0.16296134651135, 0
501, 0.23929704343768, -0.019741703746022, 0
502, 0.80996285643937, 0.22563269012222, 0
503, 0.72312301719127, 0.063139850404455, 0
504, 0.15843888904599, -0.21241537048096, 0
505, 0.15336562385639, 0.11558840598555, 0
506, 0.025709789110324, 0.11416860160639, 0
507, 0.62357116279354, -0.27495843095884, 0
508, 0.80684697145563, -0.19394812230323, 0
509, 0.77615384016859, -0.11498702498397, 0
510, 0.88808700383432, 0.11541168264939, 0
511, 0.97209182946914, 0.057544529953017, 0
512, 0.89296886242133, 0.24815384021826, 0
513, 0.52270045451211, -0.22100590324902, 0
514, 0.5467016331114, -0.19884276268743, 0
515, 0.57013363097512, -0.22512132800552, 0
516, 0.54671317429833, -0.22347091241421, 0
517, 0.10448874184167, -0.073153542280102, 0
518, 0.1306926094, -0.06985029833214, 0
519, 0.58262277992599, -0.15935724019589, 0
520, 0.55519308512209, -0.15397269944224, 0
521, 0.57024811750267, -0.13948977539678, 0
522, 0.70272468442358, -0.27440010891208, 0
523, 0.63146962403874, -0.17590228557181, 0
524, 0.64810069571731, -0.14973612673669, 0
525, 0.71281137701613, -0.17133233139087, 0
526, 0.94503842347147, -0.08135548455857, 0
527, 0.67431717743828, 0.22608956249602, 0
528, 0.64826062942797, 0.22996404769683, 0
529, 0.91817212553173, -0.16470394828797, 0
530, 0.63721630093554, -0.12430880299486, 0
531, 0.8344256280284, -0.13947935736659, 0
532, 0.60149500328975, -0.15449848333042, 0
533, 0.2376830443841, 0.058400876594673, 0
534, 0.28451677507613, 0.10117106721659, 0
535, 0.40864574265329, 0.17565878826414, 0
536, 0.24775998696791, 0.081741563951066, 0
537, 0.97218420207694, 0.11210367407506, 0
538, 0.94500498197001, 0.16713854180698, 0
539, 0.97303300118855, 0.22024188165324, 0
540, 0.10552274088486, -0.21520552693116, 0
541, 0.052505871453129, -0.13521001980857, 0
542, 0.15360583755097, 0.016371330080189, 0
543, 0.10376890775172, 0.19410669320832, 0
544, 0.52586661189091, 0.19451931067089, 0
545, 0.49473448112036, 0.22944473371769, 0
546, 0.51205269223382, 0.21204253215385, 0
547, 0.72665561833141, -0.2483499378301, 0
548, 0.76600930985579, -0.038388744939996, 0
549, 0.78005132432777, -0.22110087381246, 0
550, 0.94772159004816, -0.27320533568995, 0
551, 0.75600022105417, 0.22833581477617, 0
552, 0.91678256655602, 0.14122514723233, 0
553, 0.97210503435262, 0.084920643307068, 0
554, 0.86738610851728, 0.27440531643732, 0
555, 0.75138434878646, -0.22178114805963, 0
556, 0.64943526507706, -0.27483433168704, 0
557, 0.8359737477911, -0.085037339553568, 0
558, 0.77597571875329, 0.15467914398555, 0
559, 0.88881104620711, 0.14264243900362, 0
560, 0.84036077127985, 0.27477231820366, 0
561, 0.39098731873589, 0.15600016400984, 0
562, 0.40442049752696, 0.21311067025401, 0
563, 0.052656640388848, -0.19056665263343, 0
564, 0.18394016886131, 0.27302304062179, 0
565, 0.24033629192348, 0.21746097238923, 0
566, 0.78112411978775, 0.20300670973926, 0
567, 0.052519710405832, -0.27272540758599, 0
568, 0.22361912434107, 0.087380312884213, 0
569, 0.27010856793835, 0.21641689405721, 0
570, 0.12990255682103, 0.27337896246603, 0
571, 0.69916812595721, -0.24886849661054, 0
572, 0.75597384558536, -0.091888498661354, 0
573, 0.49845801856472, -0.19079312553967, 0
574, 0.52460584366868, -0.1658847365475, 0
575, 0.49968598733496, -0.16207779749972, 0
576, 0.54602812049529, 0.20897920136414, 0
577, 0.53898357817941, 0.17943917476354, 0
578, 0.71713967296026, 0.14455420692006, 0
579, 0.68311146069137, 0.13233770400266, 0
580, 0.69204006924579, 0.15373132113786, 0
581, 0.39436814877103, -0.18064152719812, 0
582, 0.34015606834798, -0.1442986400302, 0
583, 0.051816081698861, -0.022878384601052, 0
584, 0.12755522417227, 0.038885431421625, 0
585, 0.80976883007684, -0.030429517668207, 0
586, 0.97258826569189, -0.10861170844506, 0
587, 0.7755857383402, -0.1682176734795, 0
588, 0.1521612709031, 0.041524625304789, 0
589, 0.21178834151581, 0.24559240476815, 0
590, 0.23771631549468, -0.20857207165665, 0
591, 0.077655296594429, 0.22088701868591, 0
592, 0.18412120430082, -0.1211968400662, 0
593, 0.077521862690301, 0.16789846504366, 0
594, 0.10368882987825, 0.24704154711576, 0
595, 0.052036744105319, -0.051009446111983, 0
596, 0.077286698620487, 0.14135974468613, 0
597, 0.15228485634319, 0.090608949531563, 0
598, 0.57740238714901, 0.22676474977025, 0
599, 0.42297734805626, 0.19554911002074, 0
600, 0.32556856246671, 0.12177313368582, 0
601, 0.30918388366864, 0.013172879087974, 0
602, 0.29234653635668, 0.042943443614237, 0
603, 0.32358325386894, 0.038316731229602, 0
604, 0.72289060007057, -0.22259155233867, 0
605, 0.83541857713527, -0.19329388542172, 0
606, 0.80564123715261, 0.00023109747588568, 0
607, 0.94468099162203, -0.02566499456149, 0
608, 0.70171131584211, 0.10026166790773, 0
609, 0.66304380293079, 0.091480500201958, 0
610, 0.67283343862593, 0.1113442800227, 0
611, 0.15821281242245, -0.18307882252846, 0
612, 0.20685577465475, 0.13881788115232, 0
613, 0.59067961242237, -0.20200631580543, 0
614, 0.5935221834539, -0.22564746945378, 0
615, 0.1566052087702, 0.19325044453424, 0
616, 0.21110543578323, 0.19140916298493, 0
617, 0.18232702067696, 0.16613735046497, 0
618, 0.45550580284064, 0.23017902755785, 0
619, 0.43724517555351, 0.21382462320636, 0
620, 0.052653316428337, -0.24541461403838, 0
621, 0.10228306278285, 0.08906778023856, 0
622, 0.23706249522821, -0.14588167866668, 0
623, 0.025810878804645, 0.16846093526645, 0
624, 0.13025209324533, 0.24677282687803, 0
625, 0.12805786101377, 0.11552213024118, 0
626, 0.026222585219024, -0.2732138282373, 0
627, 0.30479542195623, 0.069067388259034, 0
628, 0.78621009324986, -0.033732292547566, 0
629, 0.94603262818091, 0.22070382898485, 0
630, 0.94460440740001, 0.14012192477616, 0
631, 0.86455183074678, 0.22309510211406, 0
632, 0.68448184731479, 0.058601026162334, 0
633, 0.9189648084496, 0.22132057419466, 0
634, 0.94664399765822, 0.24726117795534, 0
635, 0.33609585475041, 0.21614106486061, 0
636, 0.30178429647383, 0.21562819414048, 0
637, 0.36904390507342, -0.20950861394239, 0
638, 0.80629402292965, 0.17583647773935, 0
639, 0.26282768826366, -0.077523916484232, 0
640, 0.28747887198281, -0.071789854541899, 0
641, 0.68997572726841, -0.19813627842317, 0
642, 0.65627936411645, 0.072896925827602, 0
643, 0.079042816509866, -0.2722440484202, 0
644, 0.025727677344911, 0.031192832413199, 0
645, 0.051000253606439, 0.2738440012555, 0
646, 0.051594158728659, 0.0050763965812897, 0
647, 0.077667246830372, 0.19441443046119, 0
648, 0.18146416102559, -0.0048870744611348, 0
649, 0.15577825037599, 0.16696772937373, 0
650, 0.91738562188404, -0.0540453904237, 0
651, 0.73963532796072, -0.14256691179019, 0
652, 0.23388033457061, 0.13635183904208, 0
653, 0.13160885745592, -0.15608469559154, 0
654, 0.025815569784366, 0.0029647718428776, 0
655, 0.15700691432746, -0.0661545794219, 0
656, 0.076842898132491, 0.061488554891708, 0
657, 0.21197648134245, -0.27003000133177, 0
658, 0.079099812033955, -0.2444554321254, 0
659, 0.26407728287617, -0.20767431952484, 0
660, 0.31577400310391, -0.17509412663055, 0
661, 0.2646210607182, -0.2387689008791, 0
662, 0.83235138700783, 0.14704473560437, 0
663, 0.89425979590788, 0.27409403333895, 0
664, 0.78432170673093, 0.25125901851793, 0
665, 0.92085676207714, 0.27384580937602, 0
666, 0.97275832249154, 0.19330932620565, 0
667, 0.88765180654807, 0.087682195650044, 0
668, 0.27826584813645, 0.014894765746896, 0
669, 0.15704504918307, 0.21977886743979, 0
670, 0.3701809912564, -0.23993940715291, 0
671, 0.68353143575361, -0.17307857550969, 0
672, 0.81309821388745, 0.27517926254742, 0
673, 0.83405560629997, 0.17319697279423, 0
674, 0.17659674836241, 0.090829828330935, 0
675, 0.15709565491493, 0.24645938930618, 0
676, 0.22394110381605, 0.038399496825267, 0
677, 0.66297808993853, -0.19925061858826, 0
678, 0.83460598208994, -0.16644125100786, 0
679, 0.80939251253224, -0.086895901941533, 0
680, 0.91926683546139, -0.21921016158962, 0
681, 0.86093066281656, 0.0019359158670034, 0
682, 0.92116507351659, -0.27316094348193, 0
683, 0.67228665284115, -0.24935962106446, 0
684, 0.94586141124155, -0.19188329384958, 0
685, 0.97334255781057, 0.24704249186268, 0
686, 0.8632207782353, 0.1972300337817, 0
687, 0.80825545518504, 0.20082793034947, 0
688, 0.89024545162871, -0.11035317432812, 0
689, 0.20942717941759, 0.16478350679249, 0
690, 0.05140963027467, 0.032782762749468, 0
691, 0.026300424374684, -0.24639636652361, 0
692, 0.25578322488069, 0.10665134522754, 0
693, 0.18436678611988, -0.15118657057034, 0
694, 0.78495162401735, -0.27370734688231, 0
695, 0.94631504102507, -0.21918598973425, 0
696, 0.81043639140327, -0.24704732334068, 0
697, 0.13197926712076, -0.21380638684511, 0
698, 0.47296021806181, -0.21635309259352, 0
699, 0.49809130031533, -0.21856211991764, 0
700, 0.10351815368959, -0.017335066126118, 0
701, 0.21124282818285, 0.27280085903716, 0
702, 0.88762224602961, 0.05945298375493, 0
703, 0.89072355612034, 0.19590079167009, 0
704, 0.025785076020843, 0.22177929475679, 0
705, 0.026320920521583, -0.19250669727533, 0
706, 0.94691978903033, -0.24630081357437, 0
707, 0.65648088379508, -0.17446951856521, 0
708, 0.7825119954297, -0.24741778160203, 0
709, 0.61744960329134, -0.22545555412948, 0
710, 0.07743892885183, 0.24730513953141, 0
711, 0.26330205907864, -0.14322014330685, 0
712, 0.051311127329073, 0.060201332687575, 0
713, 0.72947216167595, 0.22904360772027, 0
714, 0.7828369793411, 0.22706071093453, 0
715, 0.91630129074196, 0.11399929258635, 0
716, 0.4214662267198, -0.21251394638604, 0
717, 0.44738876999644, -0.21433168931455, 0
718, 0.89180568392879, 0.22211180815186, 0
719, 0.86592511795264, 0.24879198027369, 0
720, 0.94423558524258, 0.030171244392704, 0
721, 0.94553556472956, -0.16439461992114, 0
722, 0.33681507352626, 0.14942217858736, 0
723, 0.36658969920911, 0.22284730036686, 0
724, 0.28939367373554, -0.14091806608033, 0
725, 0.052228249658432, -0.07919887033777, 0
726, 0.21032034883406, -0.057055391579119, 0
727, 0.18424595567616, 0.2460685134834, 0
728, 0.70278647678895, 0.22851783063078, 0
729, 0.21183644385008, 0.21841878908192, 0
730, 0.83819370406626, -0.24673891756823, 0
731, 0.97296606294695, -0.19192182283297, 0
732, 0.91705596659307, -0.025984868401598, 0
733, 0.13005564003245, 0.1937528713069, 0
734, 0.74400577421008, 0.13659443780505, 0
735, 0.73812962403448, 0.0195549389844, 0
736, 0.37272192923679, 0.13636733504892, 0
737, 0.9727941529806, -0.16420375751985, 0
738, 0.76416946606429, 0.073842768830098, 0
739, 0.56814752930171, -0.18056003542082, 0
740, 0.8354345620492, -0.02836895834466, 0
741, 0.58735134407725, -0.17971236303804, 0
742, 0.18461694387128, -0.18116899728074, 0
743, 0.13030697650401, 0.22021454348321, 0
744, 0.17569828324663, 0.044576123510918, 0
745, 0.61264754547823, -0.1251748085511, 0
746, 0.15773048101634, -0.12431437510637, 0
747, 0.31552740675254, 0.095142972693177, 0
748, 0.15634519562883, -0.037706669360852, 0
749, 0.077680991940652, -0.02022467994017, 0
750, 0.8294477611911, 0.092165532646395, 0
751, 0.62360156062832, -0.15137160574895, 0
752, 0.91758836827609, -0.081933672921219, 0
753, 0.10260474791794, 0.11520260090213, 0
754, 0.079084575259081, -0.21661125881395, 0
755, 0.26230665641313, 0.13270728984484, 0
756, 0.78322261184349, -0.089276262173536, 0
757, 0.21131431831796, -0.20973949287534, 0
758, 0.026118764699264, -0.082278540008852, 0
759, 0.076996456324104, 0.034576300616975, 0
760, 0.97368445170108, 0.27356435728535, 0
761, 0.85951031452526, 0.031423051049946, 0
762, 0.74882193555791, 0.15985766805048, 0
763, 0.13229869660939, -0.27130603445655, 0
764, 0.47532170986529, 0.24472662712554, 0
765, 0.94414085403073, 0.085560341510664, 0
766, 0.5486033488798, -0.17538569857181, 0
767, 0.75670456650779, -0.0094045036386511, 0
768, 0.21100225880548, -0.17927219656558, 0
769, 0.29282896709212, 0.12791936016943, 0
770, 0.80401284957428, 0.15038895264804, 0
771, 0.70877183851243, 0.18838650208209, 0
772, 0.40675467191091, 0.23869574854319, 0
773, 0.55943493244042, 0.19443240034572, 0
774, 0.59699869435616, 0.23766208152193, 0
775, 0.754520397401, -0.24785283156976, 0
776, 0.67502715946512, -0.14844501663382, 0
777, 0.58986917711977, -0.12978606243681, 0
778, 0.15798212760821, -0.15368701301851, 0
779, 0.21073652417123, -0.14857302705422, 0
780, 0.27467917220606, 0.074997509914304, 0
781, 0.20895675347447, 0.0026062934642223, 0
782, 0.23734407576002, -0.17746835177074, 0
783, 0.57559879777107, 0.25848223639397, 0
784, 0.51836483161243, 0.24993501121548, 0
******* E L E M E N T S *************
*ELEMENT, type=T3D2, ELSET=Line1
1, 1, 10
2, 10, 18
3, 18, 11
4, 11, 19
5, 19, 12
6, 12, 20
7, 20, 13
8, 13, 21
9, 21, 14
10, 14, 22
11, 22, 15
12, 15, 23
13, 23, 16
14, 16, 24
15, 24, 17
16, 17, 2
*ELEMENT, type=T3D2, ELSET=Line2
17, 2, 25
18, 25, 28
19, 28, 26
20, 26, 29
21, 29, 27
22, 27, 3
*ELEMENT, type=T3D2, ELSET=Line3
23, 3, 30
24, 30, 38
25, 38, 31
26, 31, 39
27, 39, 32
28, 32, 40
29, 40, 33
30, 33, 41
31, 41, 34
32, 34, 42
33, 42, 35
34, 35, 43
35, 43, 36
36, 36, 44
37, 44, 37
38, 37, 4
*ELEMENT, type=T3D2, ELSET=Line4
39, 4, 45
40, 45, 56
41, 56, 46
42, 46, 57
43, 57, 47
44, 47, 58
45, 58, 48
46, 48, 59
47, 59, 49
48, 49, 60
49, 60, 50
50, 50, 61
51, 61, 51
52, 51, 62
53, 62, 52
54, 52, 63
55, 63, 53
56, 53, 64
57, 64, 54
58, 54, 65
59, 65, 55
60, 55, 5
*ELEMENT, type=T3D2, ELSET=Line5
61, 5, 66
62, 66, 74
63, 74, 67
64, 67, 75
65, 75, 68
66, 68, 76
67, 76, 69
68, 69, 77
69, 77, 70
70, 70, 78
71, 78, 71
72, 71, 79
73, 79, 72
74, 72, 80
75, 80, 73
76, 73, 6
*ELEMENT, type=T3D2, ELSET=Line6
77, 6, 81
78, 81, 84
79, 84, 82
80, 82, 85
81, 85, 83
82, 83, 7
*ELEMENT, type=T3D2, ELSET=Line7
83, 7, 86
84, 86, 94
85, 94, 87
86, 87, 95
87, 95, 88
88, 88, 96
89, 96, 89
90, 89, 97
91, 97, 90
92, 90, 98
93, 98, 91
94, 91, 99
95, 99, 92
96, 92, 100
97, 100, 93
98, 93, 8
*ELEMENT, type=T3D2, ELSET=Line8
99, 8, 101
100, 101, 112
101, 112, 102
102, 102, 113
103, 113, 103
104, 103, 114
105, 114, 104
106, 104, 115
107, 115, 105
108, 105, 116
109, 116, 106
110, 106, 117
111, 117, 107
112, 107, 118
113, 118, 108
114, 108, 119
115, 119, 109
116, 109, 120
117, 120, 110
118, 110, 121
119, 121, 111
120, 111, 1
*ELEMENT, type=T3D2, ELSET=Line9
121, 9, 122
122, 122, 149
123, 149, 147
124, 147, 150
125, 150, 146
126, 146, 151
127, 151, 145
128, 145, 152
129, 152, 144
130, 144, 153
131, 153, 143
132, 143, 154
133, 154, 142
134, 142, 155
135, 155, 141
136, 141, 156
137, 156, 140
138, 140, 157
139, 157, 139
140, 139, 158
141, 158, 138
142, 138, 159
143, 159, 137
144, 137, 160
145, 160, 136
146, 136, 161
147, 161, 135
148, 135, 162
149, 162, 134
150, 134, 163
151, 163, 133
152, 133, 164
153, 164, 132
154, 132, 165
155, 165, 131
156, 131, 166
157, 166, 130
158, 130, 167
159, 167, 129
160, 129, 168
161, 168, 128
162, 128, 169
163, 169, 127
164, 127, 170
165, 170, 126
166, 126, 171
167, 171, 125
168, 125, 172
169, 172, 124
170, 124, 173
171, 173, 123
172, 123, 174
173, 174, 148
174, 148, 9
*ELEMENT, type=CPS4, ELSET=Surface1
175, 348, 551, 713, 259
176, 686, 703, 718, 631
177, 239, 495, 733, 543
178, 753, 625, 437, 237
179, 626, 567, 620, 691
180, 436, 432, 497, 202
181, 190, 249, 390, 587
182, 406, 279, 479, 356
183, 355, 406, 356, 295
184, 731, 359, 46, 57
185, 555, 775, 708, 549
186, 294, 34, 42, 326
187, 397, 423, 776, 328
188, 295, 356, 529, 468
189, 510, 715, 552, 559
190, 631, 718, 512, 719
191, 447, 441, 560, 672
192, 735, 456, 123, 173
193, 775, 547, 391, 304
194, 456, 632, 174, 123
195, 332, 363, 662, 770
196, 737, 731, 57, 47
197, 10, 18, 567, 626
198, 112, 421, 229, 101
199, 588, 744, 345, 435
200, 342, 339, 533, 676
201, 208, 374, 375, 372
202, 372, 375, 82, 85
203, 375, 373, 84, 82
204, 784, 545, 546, 318
205, 206, 378, 379, 376
206, 376, 379, 87, 95
207, 379, 377, 94, 87
208, 378, 207, 377, 379
209, 183, 382, 383, 380
210, 380, 383, 381, 188
211, 383, 26, 29, 381
212, 382, 28, 26, 383
213, 465, 650, 732, 464
214, 327, 60, 50, 396
215, 732, 607, 277, 291
216, 206, 376, 388, 387
217, 387, 388, 368, 205
218, 388, 88, 96, 368
219, 376, 95, 88, 388
220, 331, 613, 614, 709
221, 328, 776, 671, 525
222, 281, 269, 682, 274
223, 359, 300, 56, 46
224, 231, 710, 196, 645
225, 428, 414, 175, 225
226, 758, 725, 595, 393
227, 393, 595, 583, 216
228, 360, 463, 526, 752
229, 296, 301, 293, 740
230, 299, 688, 302, 297
231, 299, 355, 295, 688
232, 212, 369, 639, 341
233, 21, 14, 228, 657
234, 691, 620, 307, 338
235, 459, 137, 159, 324
236, 188, 381, 403, 401
237, 401, 403, 402, 176
238, 403, 27, 3, 402
239, 381, 29, 27, 403
240, 740, 293, 681, 288
241, 289, 280, 478, 683
242, 405, 737, 47, 58
243, 681, 298, 440, 761
244, 729, 565, 455, 589
245, 623, 230, 419, 221
246, 15, 23, 431, 226
247, 724, 394, 163, 343
248, 6, 411, 412, 73
249, 73, 412, 410, 80
250, 411, 783, 187, 412
251, 318, 576, 322, 323
252, 6, 81, 413, 411
253, 577, 143, 153, 773
254, 318, 546, 544, 576
255, 81, 84, 373, 413
256, 2, 25, 416, 414
257, 414, 416, 415, 175
258, 416, 382, 183, 415
259, 25, 28, 382, 416
260, 558, 770, 638, 349
261, 362, 702, 667, 250
262, 566, 687, 502, 714
263, 537, 52, 63, 257
264, 565, 569, 205, 455
265, 453, 748, 484, 426
266, 307, 754, 436, 563
267, 120, 705, 420, 109
268, 189, 696, 730, 311
269, 326, 42, 35, 275
270, 550, 44, 37, 361
271, 288, 681, 761, 264
272, 778, 693, 592, 746
273, 454, 729, 589, 727
274, 497, 653, 427, 236
275, 442, 670, 637, 185
276, 582, 352, 164, 133
277, 344, 398, 233, 305
278, 235, 763, 480, 353
279, 460, 435, 597, 350
280, 644, 690, 712, 197
281, 435, 345, 674, 597
282, 233, 336, 757, 179
283, 779, 622, 224, 218
284, 590, 659, 452, 782
285, 620, 658, 754, 307
286, 264, 761, 362, 486
287, 605, 311, 404, 279
288, 664, 447, 672, 271
289, 767, 735, 173, 124
290, 627, 434, 459, 747
291, 353, 480, 697, 540
292, 185, 637, 223, 430
293, 443, 596, 593, 230
294, 512, 246, 665, 663
295, 449, 738, 330, 503
296, 266, 53, 64, 666
297, 672, 560, 76, 69
298, 276, 397, 328, 651
299, 248, 720, 367, 254
300, 738, 270, 445, 330
301, 615, 222, 454, 669
302, 1, 10, 626, 111
303, 227, 371, 192, 485
304, 583, 749, 496, 646
305, 204, 591, 710, 231
306, 237, 437, 495, 239
307, 653, 778, 746, 427
308, 114, 200, 623, 103
309, 305, 233, 179, 504
310, 689, 422, 220, 616
311, 107, 393, 216, 117
312, 624, 675, 217, 570
313, 559, 552, 267, 364
314, 417, 70, 78, 346
315, 526, 292, 384, 385
316, 445, 734, 578, 265
317, 408, 570, 91, 99
318, 12, 20, 344, 763
319, 400, 460, 350, 621
320, 184, 198, 674, 234
321, 108, 181, 758, 118
322, 211, 722, 736, 561
323, 236, 427, 203, 370
324, 684, 695, 359, 731
325, 650, 385, 607, 732
326, 530, 745, 751, 524
327, 358, 680, 695, 684
328, 177, 466, 467, 315
329, 315, 467, 377, 207
330, 467, 86, 94, 377
331, 466, 7, 86, 467
332, 301, 465, 464, 293
333, 607, 327, 396, 277
334, 298, 291, 248, 440
335, 523, 290, 331, 325
336, 176, 402, 472, 471
337, 572, 756, 357, 386
338, 730, 326, 275, 347
339, 402, 3, 30, 472
340, 261, 474, 475, 410
341, 410, 475, 72, 80
342, 475, 473, 79, 72
343, 474, 260, 473, 475
344, 494, 428, 225, 670
345, 452, 392, 724, 711
346, 658, 353, 540, 754
347, 209, 220, 422, 213
348, 586, 405, 58, 48
349, 190, 525, 395, 249
350, 390, 549, 189, 508
351, 641, 677, 289, 354
352, 14, 22, 351, 228
353, 222, 616, 729, 454
354, 419, 647, 591, 204
355, 625, 505, 425, 437
356, 7, 466, 483, 83
357, 83, 483, 372, 85
358, 483, 482, 208, 372
359, 466, 177, 482, 483
360, 228, 351, 661, 337
361, 338, 307, 563, 705
362, 501, 340, 726, 212
363, 710, 594, 408, 196
364, 718, 633, 246, 512
365, 251, 417, 346, 258
366, 254, 367, 765, 272
367, 702, 254, 272, 667
368, 78, 71, 489, 346
369, 346, 489, 488, 258
370, 489, 473, 260, 488
371, 71, 79, 473, 489
372, 244, 492, 493, 490
373, 490, 493, 131, 165
374, 493, 491, 166, 131
375, 492, 245, 491, 493
376, 429, 494, 670, 442
377, 659, 498, 392, 452
378, 20, 13, 398, 344
379, 782, 452, 711, 622
380, 180, 442, 185, 241
381, 195, 584, 460, 400
382, 595, 240, 749, 583
383, 690, 759, 656, 712
384, 178, 716, 244, 581
385, 18, 11, 643, 567
386, 394, 582, 133, 163
387, 714, 502, 447, 664
388, 745, 128, 168, 777
389, 117, 216, 654, 106
390, 425, 219, 617, 649
391, 430, 223, 352, 582
392, 221, 419, 204, 704
393, 767, 329, 449, 735
394, 385, 384, 327, 607
395, 777, 521, 519, 532
396, 279, 404, 278, 479
397, 553, 62, 52, 537
398, 310, 666, 539, 629
399, 311, 730, 347, 404
400, 418, 510, 559, 256
401, 188, 401, 516, 513
402, 513, 516, 514, 285
403, 516, 515, 284, 514
404, 401, 176, 515, 516
405, 592, 218, 333, 450
406, 612, 219, 198, 184
407, 451, 341, 215, 433
408, 179, 757, 768, 742
409, 464, 732, 291, 298
410, 682, 36, 44, 550
411, 521, 520, 282, 519
412, 129, 167, 520, 521
413, 678, 605, 279, 406
414, 532, 519, 741, 290
415, 694, 41, 34, 294
416, 721, 684, 731, 737
417, 356, 479, 358, 529
418, 587, 390, 508, 424
419, 463, 469, 405, 586
420, 283, 424, 678, 531
421, 152, 145, 528, 320
422, 320, 528, 474, 261
423, 528, 527, 260, 474
424, 145, 151, 527, 528
425, 525, 671, 641, 395
426, 357, 286, 585, 628
427, 529, 358, 684, 721
428, 424, 508, 605, 678
429, 534, 747, 600, 769
430, 462, 184, 234, 568
431, 469, 721, 737, 405
432, 253, 364, 703, 686
433, 557, 297, 301, 296
434, 255, 558, 762, 734
435, 484, 648, 477, 542
436, 725, 243, 240, 595
437, 697, 504, 611, 461
438, 229, 645, 100, 93
439, 412, 187, 261, 410
440, 576, 773, 321, 322
441, 546, 141, 155, 544
442, 545, 156, 141, 546
443, 463, 586, 292, 526
444, 389, 531, 355, 299
445, 304, 391, 40, 33
446, 354, 289, 683, 571
447, 270, 255, 734, 445
448, 715, 446, 630, 552
449, 255, 332, 770, 558
450, 651, 328, 525, 190
451, 688, 360, 752, 302
452, 706, 550, 361, 300
453, 249, 555, 549, 390
454, 745, 777, 532, 751
455, 750, 250, 418, 363
456, 630, 257, 266, 538
457, 308, 562, 317, 723
458, 139, 535, 561, 158
459, 722, 210, 769, 600
460, 342, 781, 340, 501
461, 661, 409, 498, 659
462, 342, 668, 602, 339
463, 480, 305, 504, 697
464, 446, 537, 257, 630
465, 667, 272, 715, 510
466, 673, 253, 686, 273
467, 396, 50, 61, 268
468, 19, 12, 763, 235
469, 432, 461, 653, 497
470, 601, 161, 136, 603
471, 708, 694, 294, 696
472, 303, 389, 557, 679
473, 651, 190, 587, 470
474, 775, 304, 694, 708
475, 285, 574, 575, 573
476, 573, 575, 491, 245
477, 575, 130, 166, 491
478, 574, 167, 130, 575
479, 321, 144, 152, 262
480, 783, 263, 774, 187
481, 577, 142, 154, 143
482, 544, 155, 142, 577
483, 247, 312, 580, 578
484, 578, 580, 579, 265
485, 580, 146, 150, 579
486, 312, 151, 146, 580
487, 337, 661, 659, 590
488, 22, 15, 226, 351
489, 119, 481, 181, 108
490, 754, 540, 432, 436
491, 556, 507, 38, 31
492, 325, 331, 709, 280
493, 300, 361, 45, 56
494, 276, 509, 756, 572
495, 437, 425, 649, 495
496, 118, 758, 393, 107
497, 748, 335, 648, 484
498, 743, 669, 675, 624
499, 106, 654, 644, 116
500, 746, 592, 450, 334
501, 212, 726, 333, 369
502, 541, 194, 407, 444
503, 669, 454, 727, 675
504, 370, 203, 518, 517
505, 216, 583, 646, 654
506, 232, 743, 624, 594
507, 187, 774, 320, 261
508, 322, 321, 262, 598
509, 784, 374, 764, 545
510, 319, 323, 263, 783
511, 138, 736, 324, 159
512, 568, 234, 458, 214
513, 501, 212, 341, 451
514, 781, 438, 477, 648
515, 342, 501, 451, 668
516, 458, 345, 744, 399
517, 276, 651, 470, 509
518, 278, 281, 274, 680
519, 709, 614, 471, 287
520, 606, 288, 264, 366
521, 150, 147, 610, 579
522, 579, 610, 608, 265
523, 610, 609, 186, 608
524, 147, 149, 609, 610
525, 211, 561, 535, 308
526, 427, 746, 334, 203
527, 495, 649, 615, 733
528, 616, 220, 565, 729
529, 284, 515, 614, 613
530, 776, 524, 707, 671
531, 397, 170, 127, 423
532, 515, 176, 471, 614
533, 115, 499, 506, 104
534, 217, 564, 90, 98
535, 218, 224, 369, 333
536, 201, 542, 588, 584
537, 177, 316, 619, 618
538, 618, 619, 140, 156
539, 619, 599, 157, 140
540, 211, 635, 636, 193
541, 506, 485, 443, 200
542, 594, 624, 570, 408
543, 563, 436, 202, 500
544, 768, 782, 622, 779
545, 570, 217, 98, 91
546, 543, 733, 743, 232
547, 567, 643, 658, 620
548, 656, 400, 621, 371
549, 341, 639, 640, 215
550, 342, 676, 438, 781
551, 604, 354, 571, 547
552, 629, 539, 685, 634
553, 511, 51, 62, 553
554, 633, 629, 634, 246
555, 634, 685, 760, 439
556, 502, 487, 441, 447
557, 538, 266, 666, 310
558, 703, 448, 633, 718
559, 308, 535, 599, 562
560, 636, 387, 205, 569
561, 635, 206, 387, 636
562, 352, 182, 132, 164
563, 102, 704, 421, 112
564, 564, 701, 97, 90
565, 712, 656, 371, 227
566, 257, 63, 53, 266
567, 761, 440, 702, 362
568, 364, 267, 448, 703
569, 585, 740, 288, 606
570, 668, 451, 433, 601
571, 640, 343, 163, 134
572, 639, 242, 343, 640
573, 304, 33, 41, 694
574, 677, 325, 280, 289
575, 191, 556, 31, 39
576, 548, 767, 124, 172
577, 186, 609, 642, 632
578, 632, 642, 148, 174
579, 642, 122, 9, 148
580, 609, 149, 122, 642
581, 611, 742, 693, 778
582, 103, 623, 221, 113
583, 421, 231, 645, 229
584, 593, 239, 543, 647
585, 757, 590, 782, 768
586, 199, 453, 426, 700
587, 518, 655, 748, 453
588, 596, 237, 239, 593
589, 292, 59, 49, 384
590, 384, 49, 60, 327
591, 391, 522, 32, 40
592, 297, 302, 465, 301
593, 645, 196, 92, 100
594, 350, 597, 505, 625
595, 111, 626, 691, 121
596, 759, 195, 400, 656
597, 517, 518, 453, 199
598, 589, 455, 238, 701
599, 121, 691, 338, 110
600, 693, 779, 218, 592
601, 670, 225, 178, 637
602, 700, 426, 201, 476
603, 654, 646, 690, 644
604, 240, 199, 700, 749
605, 637, 178, 581, 223
606, 542, 477, 744, 588
607, 621, 350, 625, 753
608, 13, 21, 657, 398
609, 591, 232, 594, 710
610, 104, 506, 200, 114
611, 581, 244, 490, 182
612, 17, 2, 414, 428
613, 448, 310, 629, 633
614, 246, 634, 439, 665
615, 329, 606, 366, 449
616, 330, 445, 265, 608
617, 560, 554, 68, 76
618, 503, 330, 608, 186
619, 268, 61, 51, 511
620, 558, 349, 365, 762
621, 646, 496, 759, 690
622, 498, 241, 660, 392
623, 226, 431, 180, 409
624, 367, 511, 553, 765
625, 671, 707, 677, 641
626, 665, 439, 74, 67
627, 720, 268, 511, 367
628, 273, 686, 631, 487
629, 449, 503, 456, 735
630, 349, 638, 687, 566
631, 238, 368, 96, 89
632, 105, 197, 499, 115
633, 500, 202, 194, 541
634, 704, 204, 231, 421
635, 339, 780, 536, 533
636, 536, 692, 462, 568
637, 193, 636, 569, 209
638, 652, 612, 184, 462
639, 274, 682, 550, 706
640, 548, 628, 329, 767
641, 395, 641, 354, 604
642, 507, 472, 30, 38
643, 572, 386, 125, 171
644, 275, 35, 43, 269
645, 555, 604, 547, 775
646, 751, 532, 290, 523
647, 286, 296, 740, 585
648, 752, 526, 385, 650
649, 638, 673, 273, 687
650, 539, 54, 65, 685
651, 666, 64, 54, 539
652, 267, 538, 310, 448
653, 649, 617, 222, 615
654, 496, 476, 195, 759
655, 485, 192, 596, 443
656, 219, 612, 689, 617
657, 293, 464, 298, 681
658, 695, 706, 300, 359
659, 680, 274, 706, 695
660, 249, 395, 604, 555
661, 426, 484, 542, 201
662, 780, 627, 747, 534
663, 647, 543, 232, 591
664, 701, 238, 89, 97
665, 285, 573, 699, 513
666, 513, 699, 380, 188
667, 699, 698, 183, 380
668, 573, 245, 698, 699
669, 241, 185, 430, 660
670, 23, 16, 429, 431
671, 197, 712, 227, 499
672, 371, 621, 753, 192
673, 551, 251, 258, 713
674, 271, 77, 70, 417
675, 664, 271, 417, 251
676, 487, 631, 719, 441
677, 224, 242, 639, 369
678, 540, 697, 461, 432
679, 438, 399, 744, 477
680, 455, 205, 368, 238
681, 291, 277, 720, 248
682, 389, 299, 297, 557
683, 530, 169, 128, 745
684, 386, 548, 172, 125
685, 423, 127, 169, 530
686, 531, 678, 406, 355
687, 290, 741, 613, 331
688, 688, 295, 468, 360
689, 433, 215, 162, 135
690, 655, 457, 335, 748
691, 214, 458, 399, 306
692, 534, 769, 755, 692
693, 444, 407, 243, 725
694, 11, 19, 235, 643
695, 431, 429, 442, 180
696, 256, 559, 364, 253
697, 441, 719, 554, 560
698, 770, 662, 673, 638
699, 685, 65, 55, 760
700, 245, 492, 717, 698
701, 698, 717, 415, 183
702, 717, 716, 175, 415
703, 492, 244, 716, 717
704, 566, 714, 551, 348
705, 738, 252, 309, 270
706, 250, 667, 510, 418
707, 635, 723, 378, 206
708, 723, 317, 207, 378
709, 213, 422, 652, 755
710, 622, 711, 242, 224
711, 110, 338, 705, 120
712, 182, 490, 165, 132
713, 407, 370, 517, 243
714, 747, 459, 324, 600
715, 260, 527, 728, 488
716, 488, 728, 713, 258
717, 728, 313, 259, 713
718, 527, 151, 313, 728
719, 711, 724, 343, 242
720, 24, 17, 428, 494
721, 675, 727, 564, 217
722, 660, 430, 582, 394
723, 571, 683, 191, 522
724, 269, 43, 36, 682
725, 303, 283, 531, 389
726, 276, 572, 171, 126
727, 351, 226, 409, 661
728, 16, 24, 494, 429
729, 392, 660, 394, 724
730, 449, 366, 252, 738
731, 503, 186, 632, 456
732, 486, 362, 250, 750
733, 756, 679, 286, 357
734, 210, 213, 755, 769
735, 157, 599, 535, 139
736, 193, 209, 213, 210
737, 280, 709, 287, 478
738, 479, 278, 680, 358
739, 696, 294, 326, 730
740, 287, 471, 472, 507
741, 363, 418, 256, 662
742, 270, 309, 332, 255
743, 366, 264, 486, 252
744, 284, 613, 741, 739
745, 739, 741, 519, 282
746, 276, 126, 170, 397
747, 361, 37, 4, 45
748, 420, 500, 541, 481
749, 742, 768, 779, 693
750, 203, 334, 655, 518
751, 726, 457, 450, 333
752, 504, 179, 742, 611
753, 749, 700, 476, 496
754, 243, 517, 199, 240
755, 584, 588, 435, 460
756, 347, 275, 269, 281
757, 549, 708, 696, 189
758, 524, 751, 523, 707
759, 683, 478, 556, 191
760, 705, 563, 500, 420
761, 643, 235, 353, 658
762, 499, 227, 485, 506
763, 612, 652, 422, 689
764, 733, 615, 669, 743
765, 194, 236, 370, 407
766, 101, 229, 93, 8
767, 196, 408, 99, 92
768, 662, 256, 253, 673
769, 714, 664, 251, 551
770, 252, 486, 750, 309
771, 440, 248, 254, 702
772, 586, 48, 59, 292
773, 277, 396, 268, 720
774, 386, 357, 628, 548
775, 679, 557, 296, 286
776, 476, 201, 584, 195
777, 601, 433, 135, 161
778, 215, 640, 134, 162
779, 505, 198, 219, 425
780, 692, 755, 652, 462
781, 158, 561, 736, 138
782, 707, 523, 325, 677
783, 360, 468, 469, 463
784, 478, 287, 507, 556
785, 522, 191, 39, 32
786, 780, 534, 692, 536
787, 676, 533, 214, 306
788, 340, 335, 457, 726
789, 192, 753, 237, 596
790, 181, 444, 725, 758
791, 200, 443, 230, 623
792, 336, 337, 590, 757
793, 461, 611, 778, 653
794, 334, 450, 457, 655
795, 202, 497, 236, 194
796, 657, 228, 337, 336
797, 719, 512, 663, 554
798, 302, 752, 650, 465
799, 365, 348, 259, 314
800, 271, 672, 69, 77
801, 554, 663, 75, 68
802, 663, 665, 67, 75
803, 765, 553, 537, 446
804, 760, 55, 5, 66
805, 597, 674, 198, 505
806, 617, 689, 616, 222
807, 722, 600, 324, 736
808, 602, 603, 434, 627
809, 156, 545, 764, 618
810, 618, 764, 482, 177
811, 764, 374, 208, 482
812, 784, 373, 375, 374
813, 272, 765, 446, 715
814, 309, 750, 363, 332
815, 439, 760, 66, 74
816, 470, 587, 424, 283
817, 282, 520, 766, 739
818, 739, 766, 514, 284
819, 766, 574, 285, 514
820, 520, 167, 574, 766
821, 468, 529, 721, 469
822, 423, 530, 524, 776
823, 508, 189, 311, 605
824, 109, 420, 481, 119
825, 668, 601, 603, 602
826, 398, 657, 336, 233
827, 562, 316, 772, 317
828, 211, 193, 210, 722
829, 562, 599, 619, 316
830, 687, 273, 487, 502
831, 349, 566, 348, 365
832, 247, 314, 771, 312
833, 312, 771, 313, 151
834, 314, 259, 313, 771
835, 207, 317, 772, 315
836, 315, 772, 316, 177
837, 434, 160, 137, 459
838, 784, 318, 323, 319
839, 323, 322, 598, 263
840, 544, 577, 773, 576
841, 263, 598, 262, 774
842, 773, 153, 144, 321
843, 774, 262, 152, 320
844, 209, 569, 565, 220
845, 211, 308, 723, 635
846, 509, 470, 283, 303
847, 404, 347, 281, 278
848, 628, 585, 606, 329
849, 777, 168, 129, 521
850, 509, 303, 679, 756
851, 547, 571, 522, 391
852, 734, 762, 247, 578
853, 762, 365, 314, 247
854, 552, 630, 538, 267
855, 113, 221, 704, 102
856, 116, 644, 197, 105
857, 481, 541, 444, 181
858, 230, 593, 647, 419
859, 223, 581, 182, 352
860, 727, 589, 701, 564
861, 533, 536, 568, 214
862, 339, 602, 627, 780
863, 603, 136, 160, 434
864, 234, 674, 345, 458
865, 781, 648, 335, 340
866, 676, 306, 399, 438
867, 763, 344, 305, 480
868, 409, 180, 241, 498
869, 225, 175, 716, 178
870, 319, 783, 411, 413
871, 784, 319, 413, 373
*ELSET,ELSET=contact_source
99, 100, 101, 102, 103, 104, 105, 106, 107, 108, 
109, 110, 111, 112, 113, 114, 115, 116, 117, 118, 
119, 120, 
*ELSET,ELSET=contact_drain
39, 40, 41, 42, 43, 44, 45, 46, 47, 48, 
49, 50, 51, 52, 53, 54, 55, 56, 57, 58, 
59, 60, 
*ELSET,ELSET=probe_A
77, 78, 79, 80, 81, 82, 
*ELSET,ELSET=probe_B
17, 18, 19, 20, 21, 22, 
*ELSET,ELSET=walls
1, 2, 3, 4, 5, 6, 7, 8, 9, 10, 
11, 12, 13, 14, 15, 16, 23, 24, 25, 26, 
27, 28, 29, 30, 31, 32, 33, 34, 35, 36, 
37, 38, 61, 62, 63, 64, 65, 66, 67, 68, 
69, 70, 71, 72, 73, 74, 75, 76, 83, 84, 
85, 86, 87, 88, 89, 90, 91, 92, 93, 94, 
95, 96, 97, 98, 121, 122, 123, 124, 125, 126, 
127, 128, 129, 130, 131, 132, 133, 134, 135, 136, 
137, 138, 139, 140, 141, 142, 143, 144, 145, 146, 
147, 148, 149, 150, 151, 152, 153, 154, 155, 156, 
157, 158, 159, 160, 161, 162, 163, 164, 165, 166, 
167, 168, 169, 170, 171, 172, 173, 174, 
*ELSET,ELSET=domain
175, 176, 177, 178, 179, 180, 181, 182, 183, 184, 
185, 186, 187, 188, 189, 190, 191, 192, 193, 194, 
195, 196, 197, 198, 199, 200, 201, 202, 203, 204, 
205, 206, 207, 208, 209, 210, 211, 212, 213, 214, 
215, 216, 217, 218, 219, 220, 221, 222, 223, 224, 
225, 226, 227, 228, 229, 230, 231, 232, 233, 234, 
235, 236, 237, 238, 239, 240, 241, 242, 243, 244, 
245, 246, 247, 248, 249, 250, 251, 252, 253, 254, 
255, 256, 257, 258, 259, 260, 261, 262, 263, 264, 
265, 266, 267, 268, 269, 270, 271, 272, 273, 274, 
275, 276, 277, 278, 279, 280, 281, 282, 283, 284, 
285, 286, 287, 288, 289, 290, 291, 292, 293, 294, 
295, 296, 297, 298, 299, 300, 301, 302, 303, 304, 
305, 306, 307, 308, 309, 310, 311, 312, 313, 314, 
315, 316, 317, 318, 319, 320, 321, 322, 323, 324, 
325, 326, 327, 328, 329, 330, 331, 332, 333, 334, 
335, 336, 337, 338, 339, 340, 341, 342, 343, 344, 
345, 346, 347, 348, 349, 350, 351, 352, 353, 354, 
355, 356, 357, 358, 359, 360, 361, 362, 363, 364, 
365, 366, 367, 368, 369, 370, 371, 372, 373, 374, 
375, 376, 377, 378, 379, 380, 381, 382, 383, 384, 
385, 386, 387, 388, 389, 390, 391, 392, 393, 394, 
395, 396, 397, 398, 399, 400, 401, 402, 403, 404, 
405, 406, 407, 408, 409, 410, 411, 412, 413, 414, 
415, 416, 417, 418, 419, 420, 421, 422, 423, 424, 
425, 426, 427, 428, 429, 430, 431, 432, 433, 434, 
435, 436, 437, 438, 439, 440, 441, 442, 443, 444, 
445, 446, 447, 448, 449, 450, 451, 452, 453, 454, 
455, 456, 457, 458, 459, 460, 461, 462, 463, 464, 
465, 466, 467, 468, 469, 470, 471, 472, 473, 474, 
475, 476, 477, 478, 479, 480, 481, 482, 483, 484, 
485, 486, 487, 488, 489, 490, 491, 492, 493, 494, 
495, 496, 497, 498, 499, 500, 501, 502, 503, 504, 
505, 506, 507, 508, 509, 510, 511, 512, 513, 514, 
515, 516, 517, 518, 519, 520, 521, 522, 523, 524, 
525, 526, 527, 528, 529, 530, 531, 532, 533, 534, 
535, 536, 537, 538, 539, 540, 541, 542, 543, 544, 
545, 546, 547, 548, 549, 550, 551, 552, 553, 554, 
555, 556, 557, 558, 559, 560, 561, 562, 563, 564, 
565, 566, 567, 568, 569, 570, 571, 572, 573, 574, 
575, 576, 577, 578, 579, 580, 581, 582, 583, 584, 
585, 586, 587, 588, 589, 590, 591, 592, 593, 594, 
595, 596, 597, 598, 599, 600, 601, 602, 603, 604, 
605, 606, 607, 608, 609, 610, 611, 612, 613, 614, 
615, 616, 617, 618, 619, 620, 621, 622, 623, 624, 
625, 626, 627, 628, 629, 630, 631, 632, 633, 634, 
635, 636, 637, 638, 639, 640, 641, 642, 643, 644, 
645, 646, 647, 648, 649, 650, 651, 652, 653, 654, 
655, 656, 657, 658, 659, 660, 661, 662, 663, 664, 
665, 666, 667, 668, 669, 670, 671, 672, 673, 674, 
675, 676, 677, 678, 679, 680, 681, 682, 683, 684, 
685, 686, 687, 688, 689, 690, 691, 692, 693, 694, 
695, 696, 697, 698, 699, 700, 701, 702, 703, 704, 
705, 706, 707, 708, 709, 710, 711, 712, 713, 714, 
715, 716, 717, 718, 719, 720, 721, 722, 723, 724, 
725, 726, 727, 728, 729, 730, 731, 732, 733, 734, 
735, 736, 737, 738, 739, 740, 741, 742, 743, 744, 
745, 746, 747, 748, 749, 750, 751, 752, 753, 754, 
755, 756, 757, 758, 759, 760, 761, 762, 763, 764, 
765, 766, 767, 768, 769, 770, 771, 772, 773, 774, 
775, 776, 777, 778, 779, 780, 781, 782, 783, 784, 
785, 786, 787, 788, 789, 790, 791, 792, 793, 794, 
795, 796, 797, 798, 799, 800, 801, 802, 803, 804, 
805, 806, 807, 808, 809, 810, 811, 812, 813, 814, 
815, 816, 817, 818, 819, 820, 821, 822, 823, 824, 
825, 826, 827, 828, 829, 830, 831, 832, 833, 834, 
835, 836, 837, 838, 839, 840, 841, 842, 843, 844, 
845, 846, 847, 848, 849, 850, 851, 852, 853, 854, 
855, 856, 857, 858, 859, 860, 861, 862, 863, 864, 
865, 866, 867, 868, 869, 870, 871, 
*NSET,NSET=contact_source
1, 8, 101, 102, 103, 104, 105, 106, 107, 108, 
109, 110, 111, 112, 113, 114, 115, 116, 117, 118, 
119, 120, 121, 
*NSET,NSET=contact_drain
4, 5, 45, 46, 47, 48, 49, 50, 51, 52, 
53, 54, 55, 56, 57, 58, 59, 60, 61, 62, 
63, 64, 65, 
*NSET,NSET=probe_A
6, 7, 81, 82, 83, 84, 85, 
*NSET,NSET=probe_B
2, 3, 25, 26, 27, 28, 29, 
*NSET,NSET=walls
1, 2, 3, 4, 5, 6, 7, 8, 9, 10, 
11, 12, 13, 14, 15, 16, 17, 18, 19, 20, 
21, 22, 23, 24, 30, 31, 32, 33, 34, 35, 
36, 37, 38, 39, 40, 41, 42, 43, 44, 66, 
67, 68, 69, 70, 71, 72, 73, 74, 75, 76, 
77, 78, 79, 80, 86, 87, 88, 89, 90, 91, 
92, 93, 94, 95, 96, 97, 98, 99, 100, 122, 
123, 124, 125, 126, 127, 128, 129, 130, 131, 132, 
133, 134, 135, 136, 137, 138, 139, 140, 141, 142, 
143, 144, 145, 146, 147, 148, 149, 150, 151, 152, 
153, 154, 155, 156, 157, 158, 159, 160, 161, 162, 
163, 164, 165, 166, 167, 168, 169, 170, 171, 172, 
173, 174, 
*NSET,NSET=domain
1, 2, 3, 4, 5, 6, 7, 8, 9, 10, 
11, 12, 13, 14, 15, 16, 17, 18, 19, 20, 
21, 22, 23, 24, 25, 26, 27, 28, 29, 30, 
31, 32, 33, 34, 35, 36, 37, 38, 39, 40, 
41, 42, 43, 44, 45, 46, 47, 48, 49, 50, 
51, 52, 53, 54, 55, 56, 57, 58, 59, 60, 
61, 62, 63, 64, 65, 66, 67, 68, 69, 70, 
71, 72, 73, 74, 75, 76, 77, 78, 79, 80, 
81, 82, 83, 84, 85, 86, 87, 88, 89, 90, 
91, 92, 93, 94, 95, 96, 97, 98, 99, 100, 
101, 102, 103, 104, 105, 106, 107, 108, 109, 110, 
111, 112, 113, 114, 115, 116, 117, 118, 119, 120, 
121, 122, 123, 124, 125, 126, 127, 128, 129, 130, 
131, 132, 133, 134, 135, 136, 137, 138, 139, 140, 
141, 142, 143, 144, 145, 146, 147, 148, 149, 150, 
151, 152, 153, 154, 155, 156, 157, 158, 159, 160, 
161, 162, 163, 164, 165, 166, 167, 168, 169, 170, 
171, 172, 173, 174, 175, 176, 177, 178, 179, 180, 
181, 182, 183, 184, 185, 186, 187, 188, 189, 190, 
191, 192, 193, 194, 195, 196, 197, 198, 199, 200, 
201, 202, 203, 204, 205, 206, 207, 208, 209, 210, 
211, 212, 213, 214, 215, 216, 217, 218, 219, 220, 
221, 222, 223, 224, 225, 226, 227, 228, 229, 230, 
231, 232, 233, 234, 235, 236, 237, 238, 239, 240, 
241, 242, 243, 244, 245, 246, 247, 248, 249, 250, 
251, 252, 253, 254, 255, 256, 257, 258, 259, 260, 
261, 262, 263, 264, 265, 266, 267, 268, 269, 270, 
271, 272, 273, 274, 275, 276, 277, 278, 279, 280, 
281, 282, 283, 284, 285, 286, 287, 288, 289, 290, 
291, 292, 293, 294, 295, 296, 297, 298, 299, 300, 
301, 302, 303, 304, 305, 306, 307, 308, 309, 310, 
311, 312, 313, 314, 315, 316, 317, 318, 319, 320, 
321, 322, 323, 324, 325, 326, 327, 328, 329, 330, 
331, 332, 333, 334, 335, 336, 337, 338, 339, 340, 
341, 342, 343, 344, 345, 346, 347, 348, 349, 350, 
351, 352, 353, 354, 355, 356, 357, 358, 359, 360, 
361, 362, 363, 364, 365, 366, 367, 368, 369, 370, 
371, 372, 373, 374, 375, 376, 377, 378, 379, 380, 
381, 382, 383, 384, 385, 386, 387, 388, 389, 390, 
391, 392, 393, 394, 395, 396, 397, 398, 399, 400, 
401, 402, 403, 404, 405, 406, 407, 408, 409, 410, 
411, 412, 413, 414, 415, 416, 417, 418, 419, 420, 
421, 422, 423, 424, 425, 426, 427, 428, 429, 430, 
431, 432, 433, 434, 435, 436, 437, 438, 439, 440, 
441, 442, 443, 444, 445, 446, 447, 448, 449, 450, 
451, 452, 453, 454, 455, 456, 457, 458, 459, 460, 
461, 462, 463, 464, 465, 466, 467, 468, 469, 470, 
471, 472, 473, 474, 475, 476, 477, 478, 479, 480, 
481, 482, 483, 484, 485, 486, 487, 488, 489, 490, 
491, 492, 493, 494, 495, 496, 497, 498, 499, 500, 
501, 502, 503, 504, 505, 506, 507, 508, 509, 510, 
511, 512, 513, 514, 515, 516, 517, 518, 519, 520, 
521, 522, 523, 524, 525, 526, 527, 528, 529, 530, 
531, 532, 533, 534, 535, 536, 537, 538, 539, 540, 
541, 542, 543, 544, 545, 546, 547, 548, 549, 550, 
551, 552, 553, 554, 555, 556, 557, 558, 559, 560, 
561, 562, 563, 564, 565, 566, 567, 568, 569, 570, 
571, 572, 573, 574, 575, 576, 577, 578, 579, 580, 
581, 582, 583, 584, 585, 586, 587, 588, 589, 590, 
591, 592, 593, 594, 595, 596, 597, 598, 599, 600, 
601, 602, 603, 604, 605, 606, 607, 608, 609, 610, 
611, 612, 613, 614, 615, 616, 617, 618, 619, 620, 
621, 622, 623, 624, 625, 626, 627, 628, 629, 630, 
631, 632, 633, 634, 635, 636, 637, 638, 639, 640, 
641, 642, 643, 644, 645, 646, 647, 648, 649, 650, 
651, 652, 653, 654, 655, 656, 657, 658, 659, 660, 
661, 662, 663, 664, 665, 666, 667, 668, 669, 670, 
671, 672, 673, 674, 675, 676, 677, 678, 679, 680, 
681, 682, 683, 684, 685, 686, 687, 688, 689, 690, 
691, 692, 693, 694, 695, 696, 697, 698, 699, 700, 
701, 702, 703, 704, 705, 706, 707, 708, 709, 710, 
711, 712, 713, 714, 715, 716, 717, 718, 719, 720, 
721, 722, 723, 724, 725, 726, 727, 728, 729, 730, 
731, 732, 733, 734, 735, 736, 737, 738, 739, 740, 
741, 742, 743, 744, 745, 746, 747, 748, 749, 750, 
751, 752, 753, 754, 755, 756, 757, 758, 759, 760, 
761, 762, 763, 764, 765, 766, 767, 768, 769, 770, 
771, 772, 773, 774, 775, 776, 777, 778, 779, 780, 
781, 782, 783, 784, 
