*Heading
 /Users/juliagao/geometry-optimization-net/scripts/../runs/run2/shape_22.inp
*NODE
1, 0, -0.3, 0
2, 0.425, -0.3, 0
3, 0.575, -0.3, 0
4, 1, -0.3, 0
5, 1, 0.3, 0
6, 0.575, 0.3, 0
7, 0.425, 0.3, 0
8, 0, 0.3, 0
9, 0.6397953529, 0.0375787798, 0
10, 0.026002946827223, -0.3, 0
11, 0.077662783263843, -0.3, 0
12, 0.1286530868682, -0.3, 0
13, 0.17997647770116, -0.3, 0
14, 0.23327636776242, -0.3, 0
15, 0.28803515910944, -0.3, 0
16, 0.34312460332805, -0.3, 0
17, 0.39788258471145, -0.3, 0
18, 0.052005893654446, -0.3, 0
19, 0.10331967287324, -0.3, 0
20, 0.15398650086316, -0.3, 0
21, 0.20596645453916, -0.3, 0
22, 0.26058628098567, -0.3, 0
23, 0.31548403723321, -0.3, 0
24, 0.3707651694229, -0.3, 0
25, 0.45018311105476, -0.3, 0
26, 0.49967450288132, -0.3, 0
27, 0.54949139182656, -0.3, 0
28, 0.47536622210953, -0.3, 0
29, 0.52398278365312, -0.3, 0
30, 0.6021910380776, -0.3, 0
31, 0.65737449406916, -0.3, 0
32, 0.71248525458077, -0.3, 0
33, 0.76580157841459, -0.3, 0
34, 0.81819931968835, -0.3, 0
35, 0.87070949509072, -0.3, 0
36, 0.92300579044693, -0.3, 0
37, 0.97449583521917, -0.3, 0
38, 0.6293820761552, -0.3, 0
39, 0.68536691198311, -0.3, 0
40, 0.73960359717842, -0.3, 0
41, 0.79199955965077, -0.3, 0
42, 0.84439907972592, -0.3, 0
43, 0.89701991045553, -0.3, 0
44, 0.94899167043833, -0.3, 0
45, 1, -0.27336641516647, 0
46, 1, -0.21949992306993, 0
47, 1, -0.16488797949252, 0
48, 1, -0.11121317413102, 0
49, 1, -0.05832172949067, 0
50, 1, -0.0040258554430348, 0
51, 1, 0.051157621150539, 0
52, 1, 0.1064185201243, 0
53, 1, 0.16254934690185, 0
54, 1, 0.21857263874462, 0
55, 1, 0.27312136232221, 0
56, 1, -0.24673283033294, 0
57, 1, -0.19226701580692, 0
58, 1, -0.13750894317812, 0
59, 1, -0.084917405083912, 0
60, 1, -0.031726053897428, 0
61, 1, 0.023674343011359, 0
62, 1, 0.07864089928972, 0
63, 1, 0.13419614095888, 0
64, 1, 0.19090255284482, 0
65, 1, 0.24624272464442, 0
66, 0.97375216730165, 0.3, 0
67, 0.92115021440958, 0.3, 0
68, 0.86851789866141, 0.3, 0
69, 0.81548884014986, 0.3, 0
70, 0.76135918225808, 0.3, 0
71, 0.706690895839, 0.3, 0
72, 0.65289499424454, 0.3, 0
73, 0.60069429206725, 0.3, 0
74, 0.94750433460331, 0.3, 0
75, 0.89479609421586, 0.3, 0
76, 0.84223970310696, 0.3, 0
77, 0.78873797719275, 0.3, 0
78, 0.7339803873234, 0.3, 0
79, 0.67940140435459, 0.3, 0
80, 0.62638858413449, 0.3, 0
81, 0.54945605512521, 0.3, 0
82, 0.49930259051991, 0.3, 0
83, 0.4498465353947, 0.3, 0
84, 0.52391211025043, 0.3, 0
85, 0.4746930707894, 0.3, 0
86, 0.39870075118344, 0.3, 0
87, 0.34512449720204, 0.3, 0
88, 0.29105990283061, 0.3, 0
89, 0.23837748177986, 0.3, 0
90, 0.18662871281016, 0.3, 0
91, 0.13427798897812, 0.3, 0
92, 0.080841493351181, 0.3, 0
93, 0.026950892215374, 0.3, 0
94, 0.37240150236688, 0.3, 0
95, 0.31784749203719, 0.3, 0
96, 0.26427231362403, 0.3, 0
97, 0.21248264993569, 0.3, 0
98, 0.16077477568462, 0.3, 0
99, 0.10778120227161, 0.3, 0
100, 0.053901784430747, 0.3, 0
101, 0, 0.27340546986469, 0
102, 0, 0.21985646808127, 0
103, 0, 0.16578966602586, 0
104, 0, 0.1113754627284, 0
105, 0, 0.056082331765692, 0
106, 0, 0.00026211345520949, 0
107, 0, -0.054649601763133, 0
108, 0, -0.10915426095053, 0
109, 0, -0.16435851255039, 0
110, 0, -0.21961382124499, 0
111, 0, -0.27354339127335, 0
112, 0, 0.24681093972937, 0
113, 0, 0.19290199643316, 0
114, 0, 0.13867733561856, 0
115, 0, 0.084073589838248, 0
116, 0, 0.028091073693135, 0
117, 0, -0.027566846782716, 0
118, 0, -0.081732356743551, 0
119, 0, -0.13657616515751, 0
120, 0, -0.19214085994327, 0
121, 0, -0.2470867825467, 0
122, 0.63458530762091, 0.065355448083668, 0
123, 0.69658279014929, -0.023359612507205, 0
124, 0.70998593523056, -0.075752741848209, 0
125, 0.66507164263875, -0.10549800850441, 0
126, 0.60813151119336, -0.096308191962067, 0
127, 0.54675778751946, -0.092307075972255, 0
128, 0.52247413870413, -0.13946325565761, 0
129, 0.47936081602903, -0.17474142666619, 0
130, 0.43237418006184, -0.14844986111315, 0
131, 0.41091971319051, -0.09751080879034, 0
132, 0.3754031899153, -0.057169541101632, 0
133, 0.33442718353513, -0.019848149153164, 0
134, 0.31355577936311, 0.033259991532654, 0
135, 0.29671251199557, 0.087045253330243, 0
136, 0.30187611167951, 0.14120077998921, 0
137, 0.34123488646539, 0.17699226261333, 0
138, 0.38983867083619, 0.19745298259028, 0
139, 0.4315016524194, 0.22932162693103, 0
140, 0.47894507106544, 0.24893064107576, 0
141, 0.52340626017644, 0.22049119471071, 0
142, 0.54702593413175, 0.1685309603083, 0
143, 0.58810169909003, 0.13576308685925, 0
144, 0.63932942928173, 0.11679578184439, 0
145, 0.65946572589993, 0.017973950318127, 0
146, 0.64181374134745, 0.089672837276867, 0
147, 0.61674052472343, 0.13310390053249, 0
148, 0.55943940624544, 0.141741820287, 0
149, 0.53696395151354, 0.1960876760779, 0
150, 0.50348747699067, 0.24033485008068, 0
151, 0.45351576136483, 0.24379065966859, 0
152, 0.41165087840782, 0.21222319939487, 0
153, 0.36570416032234, 0.18710881677995, 0
154, 0.31881796108493, 0.16265220183115, 0
155, 0.29476775934935, 0.11482119322095, 0
156, 0.30406779289827, 0.060323821710685, 0
157, 0.32281972366755, 0.006118166906397, 0
158, 0.35287854211811, -0.041740664044143, 0
159, 0.39746535345521, -0.0733709381611, 0
160, 0.42012596674722, -0.12324411810687, 0
161, 0.45191402995806, -0.16902050666887, 0
162, 0.50359953403709, -0.16234257396453, 0
163, 0.53611776742483, -0.11331891222233, 0
164, 0.58007591529057, -0.086538967413434, 0
165, 0.63696331639792, -0.10367836590869, 0
166, 0.69256992127013, -0.097947800104324, 0
167, 0.70877748532088, -0.04858290702067, 0
168, 0.67924474301743, -0.0015137672946337, 0
169, 0.19026457879349, 0.12189803093413, 0
170, 0.32380599834889, 0.22122551387514, 0
171, 0.62579667969067, -0.13452371065655, 0
172, 0.59542017328022, -0.2398672992292, 0
173, 0.13506936826525, 0.22222847126725, 0
174, 0.51279478207952, -0.22438581886686, 0
175, 0.17595647518005, -0.014761524618883, 0
176, 0.9759072416055, -0.001999559331865, 0
177, 0.57462586831694, 0.24711434508814, 0
178, 0.15346124010713, 0.092101938591041, 0
179, 0.49120686357489, -0.25006069021501, 0
180, 0.071807672848942, 0.24725313673037, 0
181, 0.10437326170054, 0.16874790159406, 0
182, 0.2458290904566, -0.0058922562313655, 0
183, 0.024004257565825, 0.24685001877524, 0
184, 0.19872984923935, -0.040185273752793, 0
185, 0.28720727281336, -0.027425306879991, 0
186, 0.021973158244919, -0.13583425677973, 0
187, 0.025368164115659, 0.27345157935221, 0
188, 0.26168015029817, 0.079563228423136, 0
189, 0.31804212862999, -0.14009196809148, 0
190, 0.28723223170726, 0.17997326439247, 0
191, 0.13647481352858, 0.0091053076469033, 0
192, 0.25092476407229, 0.050338475403273, 0
193, 0.17502588564576, 0.27441462735123, 0
194, 0.304099108407, 0.20106509583574, 0
195, 0.61845584513665, -0.20510194321316, 0
196, 0.043733079548571, 0.19361758413102, 0
197, 0.48110622896976, -0.18855052314166, 0
198, 0.020546226964918, 0.13916885268828, 0
199, 0.11240419372994, -0.159756952995, 0
200, 0.27040198270145, 0.17901255459515, 0
201, 0.15332709853995, 0.038044277714964, 0
202, 0.15541671903061, 0.11881793947074, 0
203, 0.075960592055579, 0.27366835630961, 0
204, 0.021894654067143, 0.1932228699956, 0
205, 0.22256892911486, 0.12557653113391, 0
206, 0.079871245449293, 0.11421292990309, 0
207, 0.23617352320707, 0.048012695666545, 0
208, 0.26106830347389, 0.22516189422341, 0
209, 0.17028361713, 0.066802623040338, 0
210, 0.3205984816414, 0.27228025273436, 0
211, 0.11637546242497, 0.062241242509508, 0
212, 0.24396428939422, 0.15315633571484, 0
213, 0.33471695763494, -0.045925277686605, 0
214, 0.11694930522354, 0.089334311760292, 0
215, 0.18254623779127, 0.17274038288432, 0
216, 0.050702013083214, 0.27354030180605, 0
217, 0.27149198642631, 0.27437117476129, 0
218, 0.23762459343641, 0.12761949036865, 0
219, 0.2826461398619, -0.11495929456508, 0
220, 0.30468126015006, -0.11078089432285, 0
221, 0.22812066044526, 0.15137271717041, 0
222, 0.020957971937279, -0.08085938328308, 0
223, 0.19407875701122, -0.012794941857524, 0
224, 0.17807915869915, 0.22345921811589, 0
225, 0.29408618747864, -0.14410235880146, 0
226, 0.59022949184, -0.20933018284677, 0
227, 0.089985776730352, -0.16079449451982, 0
228, 0.764989928015, 0.014937819598023, 0
229, 0.85679013436269, -0.10048765611958, 0
230, 0.80794622277616, 0.037101816131899, 0
231, 0.85770136037958, -0.019406070304442, 0
232, 0.84741612631348, -0.24179415665161, 0
233, 0.74811035788672, -0.0080243313900563, 0
234, 0.65492456922102, 0.24696743309813, 0
235, 0.71827386405328, 0.018397860825063, 0
236, 0.94945652967813, -0.24504476223615, 0
237, 0.94988760227491, -0.2175055635276, 0
238, 0.8172350363468, 0.24675177067937, 0
239, 0.73735250788236, -0.055949520889776, 0
240, 0.92161745971048, 0.27303856089855, 0
241, 0.71433071351739, 0.16797695591977, 0
242, 0.79970732623492, 0.11514536938668, 0
243, 0.77011748653351, -0.089216975165156, 0
244, 0.77391068600173, 0.11583398690901, 0
245, 0.62784085088331, 0.19345683046367, 0
246, 0.62800229973619, 0.24702182921568, 0
247, 0.57778661891377, 0.19649080784082, 0
248, 0.77151443326833, -0.20753384094087, 0
249, 0.97458862461776, -0.27293363463096, 0
250, 0.97390119268594, 0.27301997408413, 0
251, 0.83165467066619, 0.035472146757156, 0
252, 0.7669387609431, -0.26911145843745, 0
253, 0.65400255288518, 0.27349436750005, 0
254, 0.7021677499677, 0.066471901834983, 0
255, 0.97562345169456, -0.13654525643241, 0
256, 0.77112379288689, 0.14178689146524, 0
257, 0.88091173555987, -0.021411087117141, 0
258, 0.81326645879475, -0.068310941052153, 0
259, 0.79731592935435, 0.14130152605179, 0
260, 0.7444420737167, 0.14207267317246, 0
261, 0.89677847302504, 0.21925830879473, 0
262, 0.87811739119973, 0.058911195018325, 0
263, 0.73311067656095, -0.13949387078497, 0
264, 0.88085053574119, -0.075403203180629, 0
265, 0.65667801790126, -0.13185862199131, 0
266, 0.84587280096384, 0.19320156939016, 0
267, 0.87080092823521, 0.21957450447632, 0
268, 0.85806393074351, -0.046219397031666, 0
269, 0.18784876124065, 0.095368155915323, 0
270, 0.76914397296764, -0.010475296367345, 0
271, 0.22903921979197, -0.0083302828818019, 0
272, 0.85776480843608, -0.073226822193395, 0
273, 0.97514997063855, 0.10776692037756, 0
274, 0.665183804374, 0.11617710230804, 0
275, 0.70805324168141, 0.27350677299794, 0
276, 0.79225311526163, -0.065523732396368, 0
277, 0.78117448728335, -0.14811584388305, 0
278, 0.68320444831005, 0.2204658278018, 0
279, 0.85210157275322, 0.086855151931176, 0
280, 0.74435836650814, -0.1123724406785, 0
281, 0.88010567773459, -0.10265444609848, 0
282, 0.92704314659594, -0.13370651235555, 0
283, 0.81627395113932, 0.2733714279276, 0
284, 0.87291533195825, 0.16594001177971, 0
285, 0.75129056768902, 0.090763580336005, 0
286, 0.23914016719908, -0.12116543294066, 0
287, 0.039516092447209, 0.030191603844746, 0
288, 0.30335517608344, 0.16110166351542, 0
289, 0.24017534144207, 0.021100398303614, 0
290, 0.23531184701864, -0.035487208136249, 0
291, 0.46525804437347, -0.24999498317386, 0
292, 0.2772178627983, 0.2491539536349, 0
293, 0.039682151930279, 0.08530451947078, 0
294, 0.27063416358117, -0.14727016668801, 0
295, 0.025203965754806, -0.27308952562452, 0
296, 0.28470606331533, 0.11171799777346, 0
297, 0.27065965556034, 0.025908573814358, 0
298, 0.24757581489804, -0.1499418448189, 0
299, 0.29153188903249, 0.057765138387541, 0
300, 0.25480572695536, 0.24960337014899, 0
301, 0.17991394954157, -0.042215352531552, 0
302, 0.46884591423087, 0.27528427743283, 0
303, 0.434109474403, 0.26704415699783, 0
304, 0.059041448789627, 0.058766946793305, 0
305, 0.53810692642687, -0.21983496935086, 0
306, 0.46074471023111, -0.22645739571788, 0
307, 0.020130553370468, 0.11195190344194, 0
308, 0.34410985720437, 0.19496352239851, 0
309, 0.14217959375721, 0.24829542870617, 0
310, 0.23109167574226, -0.093015940400359, 0
311, 0.02054194562078, -0.053543109579028, 0
312, 0.81049454120764, 0.011056751639173, 0
313, 0.70820311509377, -0.10300968494385, 0
314, 0.80882625697145, -0.12301640319515, 0
315, 0.21990621045231, 0.22463249160308, 0
316, 0.078547311915528, 0.032388822169999, 0
317, 0.26541944540214, 0.13227893313984, 0
318, 0.90188988251567, -0.15961943543029, 0
319, 0.90452621559666, -0.050357204743881, 0
320, 0.90441185104972, -0.023359322963191, 0
321, 0.70937854247049, 0.0421487930562, 0
322, 0.84367553503494, 0.24658088001566, 0
323, 0.68439956651444, 0.19395004263625, 0
324, 0.1130825916186, 0.22166311916839, 0
325, 0.7525056462724, -0.033360318765744, 0
326, 0.62690723145185, -0.26883742825288, 0
327, 0.27171663020853, -0.08707423082185, 0
328, 0.54990700223838, -0.15497159088547, 0
329, 0.098055226168118, 0.088125594056049, 0
330, 0.55684635797721, 0.19810878800396, 0
331, 0.57516088564439, 0.17149693165929, 0
332, 0.71708745987661, 0.14207103595161, 0
333, 0.79030397860673, -0.092470459478549, 0
334, 0.92409214376081, -0.24431015448047, 0
335, 0.21891634211647, 0.17523149321177, 0
336, 0.039818689160485, 0.0025911545541183, 0
337, 0.54621828575234, -0.27274122601379, 0
338, 0.26172331876947, -0.059872154118211, 0
339, 0.19917952147252, 0.27458911775008, 0
340, 0.21753943839171, -0.12361401994638, 0
341, 0.10039554145574, -0.27211605327224, 0
342, 0.13111107757705, -0.13059594227533, 0
343, 0.085417998649102, -0.10528384922231, 0
344, 0.22414906099873, 0.018779279169479, 0
345, 0.18775356958529, 0.24909109386271, 0
346, 0.26147742419922, 0.10621175017612, 0
347, 0.16480673568165, -0.071705722673885, 0
348, 0.59924338119631, -0.26997662669385, 0
349, 0.39017408259735, 0.2260438525751, 0
350, 0.15277012119884, -0.12913416352885, 0
351, 0.1011004403293, 0.27383247194177, 0
352, 0.24840601709298, 0.10372877911418, 0
353, 0.19050287376106, 0.014456555237941, 0
354, 0.71446846224125, -0.20241547788869, 0
355, 0.72535871586032, -0.10791337257754, 0
356, 0.8291413104477, -0.15377474304059, 0
357, 0.94932632385833, 0.16392405718115, 0
358, 0.72065469475787, 0.11653416223196, 0
359, 0.92348784110499, -0.2721472665715, 0
360, 0.92610697457261, 0.083051060398134, 0
361, 0.90430109735339, -0.077432597742028, 0
362, 0.21019090946386, 0.24942406017538, 0
363, 0.11896522425551, 0.24790474869929, 0
364, 0.04390859572911, -0.13496672680542, 0
365, 0.65563333213261, 0.22036668150432, 0
366, 0.92813163658114, -0.025288086143849, 0
367, 0.73973911157204, 0.19425239048693, 0
368, 0.97474428769812, -0.24581141956967, 0
369, 0.22370044504553, -0.065315672604809, 0
370, 0.34526358059198, 0.26981866434521, 0
371, 0.08762389706515, -0.1330080755232, 0
372, 0.52865345041459, -0.16906397873457, 0
373, 0.51675699765608, -0.24854506695588, 0
374, 0.28590763403251, 0.084564879786116, 0
375, 0.040197977547371, 0.11260063125324, 0
376, 0.15491589354643, 0.010781007693648, 0
377, 0.20430793888867, -0.067702468757289, 0
378, 0.24829774626252, 0.077135211071845, 0
379, 0.20353602138716, 0.070561025163853, 0
380, 0.065445168697206, 0.19408733198025, 0
381, 0.20477004924723, 0.043633833844253, 0
382, 0.47017293893476, -0.27472299802122, 0
383, 0.87680194500902, 0.085637197916105, 0
384, 0.16365927613416, 0.17161471111401, 0
385, 0.17293618694478, 0.012549752717095, 0
386, 0.90398595533908, 0.0035956553866828, 0
387, 0.89864496834484, -0.24354741800715, 0
388, 0.89967023014948, -0.21542739267815, 0
389, 0.29983665081191, 0.24802762110091, 0
390, 0.1528010289306, 0.065162643473427, 0
391, 0.68872211220431, 0.14160629935658, 0
392, 0.87895655589905, -0.13014841245458, 0
393, 0.89774558290019, -0.27175002024757, 0
394, 0.80514445944681, 0.063084837013614, 0
395, 0.92679611318169, 0.055940073017337, 0
396, 0.71588095849661, -0.026960453770092, 0
397, 0.74206930806379, 0.016792340471095, 0
398, 0.92785602661887, 0.0017745980218609, 0
399, 0.73659627157475, 0.24702838171376, 0
400, 0.97538129047809, 0.080217074198361, 0
401, 0.68208674086142, 0.24698759145723, 0
402, 0.34254839947253, -0.13474833924932, 0
403, 0.57173546878908, -0.14319752905584, 0
404, 0.097556401482782, 0.060957897495812, 0
405, 0.7380426918507, 0.22059644269905, 0
406, 0.67976241086881, 0.04173621423215, 0
407, 0.76874283020098, 0.16789740171792, 0
408, 0.85037850740515, 0.11338226230806, 0
409, 0.89606069461899, 0.24620193425282, 0
410, 0.78769654444569, 0.013001143501372, 0
411, 0.85327796054826, -0.15598589219433, 0
412, 0.69214791318876, 0.019318877581808, 0
413, 0.95027528229493, 0.1090231127423, 0
414, 0.21178393985211, -0.01060303265368, 0
415, 0.21919240231868, 0.072657433082436, 0
416, 0.098557446401737, 0.0062111826371536, 0
417, 0.019873542089653, 0.084603895200436, 0
418, 0.14982108630068, 0.19678431245645, 0
419, 0.7905491068296, -0.012852982006503, 0
420, 0.87753121080321, -0.15791375245465, 0
421, 0.24744488616175, 0.20108631052071, 0
422, 0.15879576140432, 0.14534043751298, 0
423, 0.17094966722035, 0.093666616167815, 0
424, 0.21720337018974, -0.037888208658192, 0
425, 0.19007485040365, -0.0975863407685, 0
426, 0.24724364634159, 0.27465479086423, 0
427, 0.59788865464846, -0.13655352609851, 0
428, 0.17965803630852, -0.15579939098485, 0
429, 0.194601290486, 0.14810080363985, 0
430, 0.95191035266535, -0.08121215799432, 0
431, 0.84585642181604, -0.27084580750488, 0
432, 0.9253753309408, 0.11020072853504, 0
433, 0.74182915211706, 0.16805689893546, 0
434, 0.97598598271305, -0.056253159658743, 0
435, 0.80511735453785, -0.15119144240399, 0
436, 0.20216071601662, -0.15409064999725, 0
437, 0.078845605160236, 0.087081744286987, 0
438, 0.24051432058761, 0.22503520080208, 0
439, 0.36939553119814, 0.26573049355513, 0
440, 0.080238734792375, -0.022549478543943, 0
441, 0.62733390432835, 0.2735099988245, 0
442, 0.60139809126541, 0.24715473688173, 0
443, 0.57443032201291, 0.27340025228834, 0
444, 0.60096169676661, 0.27351729223577, 0
445, 0.74121716814583, -0.23685602452267, 0
446, 0.72961848370294, 0.06617117921874, 0
447, 0.68556932927804, -0.12113131686134, 0
448, 0.70495527074082, -0.0031797831221536, 0
449, 0.97494776789862, -0.21849009808656, 0
450, 0.86917604473876, 0.27320035196188, 0
451, 0.6929887875731, 0.11642768152093, 0
452, 0.43307145188914, -0.22210713263813, 0
453, 0.57227602699856, -0.2713489340335, 0
454, 0.022550074462274, -0.16351104474628, 0
455, 0.97592382359114, -0.083044977741922, 0
456, 0.9491237885675, -0.27253414783912, 0
457, 0.9477842534045, 0.27299886432644, 0
458, 0.77241064041471, -0.062515053758448, 0
459, 0.95200671980936, -0.027246230569361, 0
460, 0.97425047909064, 0.21857501401795, 0
461, 0.87931095928693, 0.032180468906662, 0
462, 0.12532857074165, -0.2718322421611, 0
463, 0.84284182536553, 0.27328983983165, 0
464, 0.097743079841348, 0.03363082438167, 0
465, 0.27799997577054, -0.00092423372867661, 0
466, 0.92818831965357, -0.052316984441924, 0
467, 0.92739560884862, 0.028852701450045, 0
468, 0.32210590712241, 0.17976885261285, 0
469, 0.095502811614396, 0.24755888966569, 0
470, 0.89943197211731, 0.13829082189898, 0
471, 0.82952252283658, 0.061746086865691, 0
472, 0.83547058025644, -0.043971215232251, 0
473, 0.70936425943634, 0.24702276387574, 0
474, 0.17560027241885, -0.27120050158898, 0
475, 0.08167000043025, -0.050077601585649, 0
476, 0.20676361160227, 0.12366594294401, 0
477, 0.083896815266278, 0.16799309384685, 0
478, 0.17314554826136, 0.12031208944275, 0
479, 0.11767903397742, 0.0076183661478826, 0
480, 0.041020980876609, -0.052435249472105, 0
481, 0.35331542383035, -0.066786156973751, 0
482, 0.6581769714787, 0.14007773316744, 0
483, 0.042834966306011, -0.10738032269891, 0
484, 0.14136428977887, -0.045755214589386, 0
485, 0.4539081440193, -0.18541715275279, 0
486, 0.14857076419733, -0.1011856888024, 0
487, 0.43849256650339, -0.24803923795417, 0
488, 0.26081682119771, -0.11830784110971, 0
489, 0.20411668727345, 0.097255191832652, 0
490, 0.14011382443963, 0.14413974877837, 0
491, 0.76675422222306, 0.19415617007444, 0
492, 0.87448051812701, -0.21424362284555, 0
493, 0.081541897688178, 0.14118299333818, 0
494, 0.1348020219025, 0.063612826877422, 0
495, 0.15744649881521, -0.01656528783148, 0
496, 0.15721849439785, -0.15725267985072, 0
497, 0.8116826317015, -0.095429605586126, 0
498, 0.97540876572888, -0.16376457499023, 0
499, 0.7934979530327, -0.2697345550217, 0
500, 0.76369132164591, 0.24698504019708, 0
501, 0.90243839338006, 0.057443230095305, 0
502, 0.71219268868492, -0.26798582024225, 0
503, 0.68087970562278, 0.27349734035826, 0
504, 0.82372858819323, -0.21138102513569, 0
505, 0.22078728658719, 0.045791750737796, 0
506, 0.065793477821101, -0.13403124005773, 0
507, 0.65527456371306, -0.26806552963194, 0
508, 0.76021448633811, 0.040158341832781, 0
509, 0.79793036758894, -0.2096073604508, 0
510, 0.90146192812562, 0.084368943143885, 0
511, 0.9520298343178, -0.05426407443322, 0
512, 0.85382341377784, 0.060347222211288, 0
513, 0.97579943288202, -0.10974587877744, 0
514, 0.76246847375158, 0.27348350335474, 0
515, 0.72241298398985, -0.052424844662412, 0
516, 0.95165720493334, -0.10816088103318, 0
517, 0.54239153141168, -0.24595166178281, 0
518, 0.17697194174852, 0.14665982904666, 0
519, 0.019763892155234, 0.056923889028229, 0
520, 0.040330048054645, -0.024981123440377, 0
521, 0.29944635782417, 0.030825441252648, 0
522, 0.059126717560815, 0.031278767859632, 0
523, 0.30833641687611, 0.0039537699292701, 0
524, 0.21064315978791, -0.095478902635612, 0
525, 0.079180007865887, 0.0049537273033626, 0
526, 0.1881554407845, 0.041595204892681, 0
527, 0.60152452676176, 0.19449643970737, 0
528, 0.62524492676504, 0.16524519636119, 0
529, 0.59807021442447, 0.16696598060668, 0
530, 0.81976118193761, 0.19360174002027, 0
531, 0.83485699347794, -0.017319568700458, 0
532, 0.73527746547605, 0.27350557050971, 0
533, 0.042202861515758, 0.16674024460308, 0
534, 0.059584616914765, 0.0037623964537455, 0
535, 0.6234746123204, -0.23735317913867, 0
536, 0.10400889576143, -0.076408123364861, 0
537, 0.062693026219465, -0.078792610644328, 0
538, 0.12599027566562, 0.27401705352617, 0
539, 0.067541800401638, -0.16174412069222, 0
540, 0.11939233340375, -0.019807320533774, 0
541, 0.56368638620857, -0.21446530573407, 0
542, 0.49547606633459, -0.27464903664202, 0
543, 0.29194626777989, -0.083365032635367, 0
544, 0.36732424587659, 0.20936934117219, 0
545, 0.56847411894471, -0.24287423414115, 0
546, 0.020199290236443, -0.026197719856079, 0
547, 0.68391109657871, -0.26776985398994, 0
548, 0.71230305095381, 0.19418822670464, 0
549, 0.8124539163079, -0.015136706439573, 0
550, 0.9497951950983, 0.13644022684479, 0
551, 0.76509609204073, 0.22053146907725, 0
552, 0.84919323440081, -0.2129104557127, 0
553, 0.79058521397966, 0.2468903677528, 0
554, 0.82731066530297, 0.088012283851536, 0
555, 0.13857180256582, -0.018295737977405, 0
556, 0.20097546648996, 0.17396532673891, 0
557, 0.90044189264961, 0.1113163739977, 0
558, 0.8351785730327, -0.070873242200489, 0
559, 0.74761412400839, 0.1163206830322, 0
560, 0.79521426092291, 0.16756388103303, 0
561, 0.65647289825752, 0.16664626768684, 0
562, 0.75154451139355, -0.085728314366797, 0
563, 0.79223077745575, -0.039002889020396, 0
564, 0.26504599878314, 0.052773927245812, 0
565, 0.89758206777883, 0.19228265783337, 0
566, 0.76482389329127, -0.11639334458579, 0
567, 0.7270453259699, -0.0055470513071204, 0
568, 0.73992645983011, -0.2684956543978, 0
569, 0.5457881573294, 0.24612844929286, 0
570, 0.51745023958311, 0.27187614612425, 0
571, 0.54706368477958, 0.27294390142334, 0
572, 0.047958094403652, 0.24701352740474, 0
573, 0.64893725671756, -0.20193398607398, 0
574, 0.92326778859753, 0.1918136944149, 0
575, 0.73506458274335, -0.082149113296288, 0
576, 0.94811146566337, 0.24592905374717, 0
577, 0.23250477789398, 0.24963826588495, 0
578, 0.29868673967984, -0.053403629969873, 0
579, 0.49140617448063, 0.27384233200022, 0
580, 0.76870333076014, -0.23825045820677, 0
581, 0.97406581507658, 0.24594927928518, 0
582, 0.7211261119607, -0.07871630736127, 0
583, 0.92211425342525, 0.24603532125943, 0
584, 0.82155593228445, -0.24074764835505, 0
585, 0.94847831599583, 0.21871643496844, 0
586, 0.84468890065121, 0.21988128237604, 0
587, 0.85542943909721, 0.033828764456158, 0
588, 0.25566835293551, 0.023451863537258, 0
589, 0.060130484732, 0.11334173873789, 0
590, 0.28501364492435, 0.20171582401478, 0
591, 0.11845821455724, 0.11627673060916, 0
592, 0.15032862036376, -0.27152576360542, 0
593, 0.1693856230184, -0.099524345981188, 0
594, 0.25191002807207, 0.12983883818173, 0
595, 0.28033412074069, -0.056747380206371, 0
596, 0.21166235848334, 0.14968038700306, 0
597, 0.090824558210039, 0.22116938838612, 0
598, 0.13718176831023, 0.11750339317901, 0
599, 0.97559353347216, 0.052796992367953, 0
600, 0.92633567851621, -0.16114638969414, 0
601, 0.92762076873409, -0.10646018788195, 0
602, 0.06036098798441, -0.023767370844608, 0
603, 0.068319585253971, 0.22073020868199, 0
604, 0.099326818123985, 0.11516914501244, 0
605, 0.22322394005398, 0.27468921698324, 0
606, 0.12097289079291, 0.14304964000682, 0
607, 0.045643407716653, 0.22037220858601, 0
608, 0.039462405770725, 0.057799818433446, 0
609, 0.086975700992104, 0.19465155449051, 0
610, 0.11664553249243, 0.034988736343176, 0
611, 0.16509470332503, 0.24869308042905, 0
612, 0.078419984228805, 0.059792668723004, 0
613, 0.23445509957724, 0.10143285766795, 0
614, 0.66877203741425, 0.090804783131896, 0
615, 0.075402600033356, -0.27240346531785, 0
616, 0.10824245264203, 0.19528184612223, 0
617, 0.12921596095919, 0.19600884062224, 0
618, 0.19596233253019, -0.12567992407051, 0
619, 0.57657698473001, 0.22163126791658, 0
620, 0.55147356558836, 0.22179285900923, 0
621, 0.14431332647668, 0.17057449652928, 0
622, 0.18720866273336, 0.068584983416159, 0
623, 0.26620399950097, 0.20161313442951, 0
624, 0.20940105901863, 0.19944925465292, 0
625, 0.10141734132838, 0.14204581536406, 0
626, 0.83181651969913, -0.12570490669161, 0
627, 0.95084849814152, -0.16252412534575, 0
628, 0.50599665913637, -0.18160532155846, 0
629, 0.16078307067136, -0.044068324617867, 0
630, 0.3887863564713, -0.11355479641937, 0
631, 0.083414981406995, -0.07764879606663, 0
632, 0.9280144581008, -0.07935580260582, 0
633, 0.89541421712773, 0.27311221799609, 0
634, 0.82134697278186, 0.16710397619265, 0
635, 0.88112034128678, -0.048337591975552, 0
636, 0.26214817803425, -0.0034244121991877, 0
637, 0.045064909403129, -0.16263720675131, 0
638, 0.061382573948682, 0.14040290587381, 0
639, 0.25925164203337, 0.15505624802831, 0
640, 0.7107273307962, 0.22056817007743, 0
641, 0.78420451517632, 0.038683977054507, 0
642, 0.92479929587532, -0.21650099342487, 0
643, 0.19911300684127, 0.22407039001977, 0
644, 0.23412325976988, 0.074836243984924, 0
645, 0.059367950384805, 0.086148844649552, 0
646, 0.063143981314548, 0.16731390783708, 0
647, 0.25354004384065, 0.17782542956332, 0
648, 0.92393141607817, 0.1646094893093, 0
649, 0.88027838432811, 0.0054163600847301, 0
650, 0.6560802627728, 0.19359824970736, 0
651, 0.78055369542245, 0.064324232732972, 0
652, 0.97445446952991, 0.19103632344401, 0
653, 0.82315230533089, 0.14067432992691, 0
654, 0.95074701180209, 0.081673964708937, 0
655, 0.70829114063544, -0.13270461706094, 0
656, 0.78641853658036, -0.1199332019147, 0
657, 0.83350962539441, 0.0091388427049976, 0
658, 0.62836404219818, 0.22044843388301, 0
659, 0.75403111904831, -0.059311492104738, 0
660, 0.9029147633798, -0.13201830692189, 0
661, 0.69715573981238, 0.091256191375343, 0
662, 0.87309283478828, -0.24271890888703, 0
663, 0.13544315243634, 0.090666558342682, 0
664, 0.13518294952244, 0.036421282155315, 0
665, 0.10657523742061, -0.10410053953613, 0
666, 0.04186399552467, -0.079872452914029, 0
667, 0.73555397491779, 0.041401076257049, 0
668, 0.81347575443431, -0.041570109505089, 0
669, 0.6019849394492, 0.22094438281432, 0
670, 0.84722488261965, 0.16655344595162, 0
671, 0.80234540069145, 0.089082307165188, 0
672, 0.9246406269263, 0.13739044096717, 0
673, 0.97598056330524, -0.029326404034355, 0
674, 0.77707176566311, 0.090021789544139, 0
675, 0.81839414938552, 0.22015632800673, 0
676, 0.29594200409854, 0.27366708307465, 0
677, 0.021130446830547, 0.16623993295311, 0
678, 0.68601795503637, 0.16755716169204, 0
679, 0.95129279555728, -0.13522659651483, 0
680, 0.86992963399441, 0.24639183367885, 0
681, 0.82515723599448, 0.11431397778393, 0
682, 0.75551347921497, 0.065392783997857, 0
683, 0.12168017188597, -0.047349657388039, 0
684, 0.13480940084651, -0.15859810316552, 0
685, 0.83392492916487, -0.098092849973358, 0
686, 0.97577382055033, 0.025412962022393, 0
687, 0.10176810499674, -0.048800383936321, 0
688, 0.15672783040895, 0.22282358978988, 0
689, 0.87414344205078, 0.13914556844215, 0
690, 0.9511857536757, 0.054393520586789, 0
691, 0.95156175556907, 0.027150021786145, 0
692, 0.89847083930608, 0.1652860954761, 0
693, 0.95184452177021, -7.7892723385514e-05, 0
694, 0.85677509120995, 0.007259554719212, 0
695, 0.97491168548277, 0.1354091821052, 0
696, 0.67182395130545, 0.066070646546423, 0
697, 0.87179683245246, 0.19275388451014, 0
698, 0.87185031240856, -0.27132055827654, 0
699, 0.22853889860525, 0.20031230454426, 0
700, 0.97467681096185, 0.16323825066379, 0
701, 0.12763138444085, -0.10272640008575, 0
702, 0.65272755265365, -0.23559110523963, 0
703, 0.7953860333245, -0.23956646935991, 0
704, 0.74397744457595, -0.20511495133564, 0
705, 0.050359616488299, -0.27271706184172, 0
706, 0.52063159881384, -0.27392612067317, 0
707, 0.29023367413428, 0.13791659255547, 0
708, 0.31220629071166, -0.079010984759707, 0
709, 0.92266159393113, 0.21896011928014, 0
710, 0.81976660818826, -0.27031777761213, 0
711, 0.34558341736032, 0.24203552968793, 0
712, 0.42773015865925, -0.1699570370356, 0
713, 0.30258668431952, 0.22365474139324, 0
714, 0.71259779334063, -0.23556857232048, 0
715, 0.12445742352702, -0.074982453219692, 0
716, 0.022848607263179, 0.2200843508203, 0
717, 0.18467103216719, -0.069817858945206, 0
718, 0.48718217950772, -0.22695315936933, 0
719, 0.25144662177942, -0.090277556409982, 0
720, 0.17099636926584, 0.039749866913052, 0
721, 0.78952127146192, 0.27343777844611, 0
722, 0.041031480912077, 0.13974238802394, 0
723, 0.17006951759891, 0.19764727431451, 0
724, 0.14473127811236, -0.073398588178642, 0
725, 0.28171688761657, 0.22481214379609, 0
726, 0.72473570812842, 0.0912129239011, 0
727, 0.32701421874629, -0.10547639685003, 0
728, 0.019791765033137, 0.029157901048104, 0
729, 0.85523020223868, -0.12806074592732, 0
730, 0.73401059465385, -0.030274373816599, 0
731, 0.41236181462015, 0.24582041573254, 0
732, 0.84873569317335, 0.13994615923938, 0
733, 0.25302855223317, -0.032872911366318, 0
734, 0.23642479562695, 0.17654458887322, 0
735, 0.9037466648792, -0.10463325753287, 0
736, 0.87545482406239, 0.11237790980289, 0
737, 0.75723059326041, -0.14433959851018, 0
738, 0.77188009455537, -0.036266068951732, 0
739, 0.37239207540122, -0.088101491245886, 0
740, 0.21967887174134, 0.099294175362843, 0
741, 0.24284542844938, -0.062749595324635, 0
742, 0.061411436609456, -0.05127132785342, 0
743, 0.32267147498845, 0.24583172052837, 0
744, 0.064164593147334, -0.10638996304457, 0
745, 0.1743824101582, -0.1275474494283, 0
746, 0.31936694472905, -0.022088145505749, 0
747, 0.1899133828004, 0.19853222965645, 0
748, 0.45100064788522, 0.28102294080164, 0
749, 0.20758674450603, 0.016561345999336, 0
750, 0.27033837928544, -0.030183940032634, 0
751, 0.90330419561866, 0.030525215159732, 0
752, 0.15066695271577, 0.2742164523344, 0
753, 0.94888414208081, 0.19138015820337, 0
754, 0.79340830097845, 0.19392913616553, 0
755, 0.55887067285741, 0.17874328760977, 0
756, 0.79187583140739, 0.22037940869302, 0
757, 0.44424932154991, -0.27403025333983, 0
758, 0.01994315960511, 0.0014459239831692, 0
759, 0.68281760429433, -0.23486599354735, 0
760, 0.681982942533, -0.20012839843695, 0
761, 0.97517630276379, -0.19112683802725, 0
762, 0.95036565690304, -0.18997849693991, 0
763, 0.9255657494033, -0.18876231297292, 0
764, 0.90077582863565, -0.18743431219982, 0
765, 0.87599031305799, -0.18595591778172, 0
766, 0.85118820251902, -0.18427994143734, 0
767, 0.82631480896659, -0.18234721283468, 0
768, 0.80124810954253, -0.18007203773779, 0
769, 0.77572699822205, -0.17731773895028, 0
770, 0.74915717230481, -0.17383054713285, 0
771, 0.71993855043428, -0.16896877172283, 0
772, 0.68163422732182, -0.1600235986171, 0
773, 0.10939562490933, -0.13188967924668, 0
774, 0.021439719564878, -0.10830782646628, 0
775, 0.27409124338561, 0.1570685575012, 0
776, 0.22477953268971, -0.15218023215672, 0
777, 0.099926403937106, -0.021261328132103, 0
778, 0.12454055914737, 0.16962441388503, 0
779, 0.20113664013009, -0.27085438264586, 0
780, 0.22719382022701, -0.27048017934722, 0
781, 0.25359237037874, -0.27009168185351, 0
782, 0.28029877401954, -0.26976265783093, 0
783, 0.30730580775843, -0.26956776644922, 0
784, 0.33466279281387, -0.26962134444307, 0
785, 0.36231874248297, -0.27008946991955, 0
786, 0.39003436821368, -0.2711138616854, 0
787, 0.024481075898966, -0.2460866010625, 0
788, 0.048914244002463, -0.24538508526068, 0
789, 0.07329891115613, -0.24481052974664, 0
790, 0.097660780741702, -0.24427292817321, 0
791, 0.12202891908836, -0.24373324962344, 0
792, 0.146471198277, -0.24315809255473, 0
793, 0.17107959359466, -0.24251879948148, 0
794, 0.19591825780672, -0.24183042859326, 0
795, 0.22108307136832, -0.24108456562001, 0
796, 0.24660089982839, -0.24029799968321, 0
797, 0.27251435619137, -0.23952149006032, 0
798, 0.29890650525627, -0.23890042902561, 0
799, 0.3258926148008, -0.23862180821784, 0
800, 0.3535789215035, -0.23908224048232, 0
801, 0.3819188713339, -0.24080173829302, 0
802, 0.023803365149207, -0.21871029101548, 0
803, 0.047568196147507, -0.21789901231061, 0
804, 0.071302222879859, -0.21715685842133, 0
805, 0.095024589699845, -0.21641883040276, 0
806, 0.1187609473922, -0.21566996424756, 0
807, 0.14255430119522, -0.21483907186966, 0
808, 0.1664587989511, -0.2139483153231, 0
809, 0.19053115785794, -0.21293578325371, 0
810, 0.21484166910331, -0.21183647639155, 0
811, 0.2394587780546, -0.21062885978601, 0
812, 0.26447276690054, -0.20932779295144, 0
813, 0.29002660041226, -0.20802838320779, 0
814, 0.31634244651772, -0.20692607614976, 0
815, 0.34374568720602, -0.20643896649431, 0
816, 0.37264529377643, -0.20760473035397, 0
817, 0.39250925037572, 0.25914580396827, 0
818, 0.36829647990611, 0.23591406117861, 0
819, 0.34541023002027, 0.21682798643431, 0
820, 0.32370882092796, 0.19911507270808, 0
821, 0.30431453186548, 0.18040239497409, 0
822, 0.28866410511558, 0.15912234060465, 0
823, 0.27816277526129, 0.13495663533149, 0
824, 0.27359607824504, 0.10886523940165, 0
825, 0.27422376846246, 0.082039430669952, 0
826, 0.27856027049766, 0.055237987874368, 0
827, 0.28521385616616, 0.028358191929446, 0
828, 0.29339391393455, 0.0015587229425109, 0
829, 0.30358238716831, -0.024685641847527, 0
830, 0.31677910626385, -0.049774647580823, 0
831, 0.33259069702083, -0.073673121709322, 0
832, 0.34964170710479, -0.098313615467582, 0
833, 0.36718266234694, -0.12694181265861, 0
834, 0.40514633821387, -0.14379301477033, 0
835, 0.64156921722579, -0.16707721469343, 0
836, 0.61050227976189, -0.17174820468453, 0
837, 0.5828874103045, -0.17775597644129, 0
838, 0.55771913437951, -0.18570062757064, 0
839, 0.5335161342286, -0.19443244712794, 0
840, 0.50910060138876, -0.20197944873988, 0
841, 0.48371445275291, -0.20615143550867, 0
842, 0.4567641679792, -0.20463314948415, 0
843, 0.42788562195002, -0.19487282778242, 0
844, 0.023162364088118, -0.19117936646564, 0
845, 0.046288610406962, -0.19029784889699, 0
846, 0.069384231335382, -0.18945863364844, 0
847, 0.092462517322448, -0.18860527368542, 0
848, 0.11554196497943, -0.18767956519339, 0
849, 0.13864709453914, -0.18666229950976, 0
850, 0.16181200877091, -0.18552783056705, 0
851, 0.18508011701135, -0.18427506121169, 0
852, 0.20850434338523, -0.18284747221627, 0
853, 0.23214792900259, -0.18119236688515, 0
854, 0.25610941963713, -0.17933961552613, 0
855, 0.28053786740023, -0.17729568580321, 0
856, 0.30566126408366, -0.17501750074001, 0
857, 0.33190436454462, -0.17259324629775, 0
858, 0.36016681026154, -0.17036649171267, 0
859, 0.41759486758595, -0.27260459532641, 0
860, 0.41052596612772, -0.24411130440015, 0
861, 0.40300428861072, -0.21265086652673, 0
862, 0.39281954498256, -0.16967024890215, 0
******* E L E M E N T S *************
*ELEMENT, type=CPS4, ELSET=Surface1
1, 839, 305, 541, 838
2, 421, 208, 438, 699
3, 352, 594, 218, 613
4, 833, 630, 739, 832
5, 727, 708, 543, 220
6, 589, 638, 722, 375
7, 821, 820, 194, 190
8, 624, 315, 643, 747
9, 612, 437, 645, 304
10, 436, 618, 745, 428
11, 723, 224, 688, 418
12, 839, 838, 328, 372
13, 758, 728, 116, 106
14, 595, 750, 733, 338
15, 200, 590, 623, 647
16, 189, 220, 219, 225
17, 213, 158, 133, 746
18, 198, 677, 103, 114
19, 763, 762, 627, 600
20, 764, 388, 642, 763
21, 332, 260, 433, 241
22, 451, 391, 482, 274
23, 732, 689, 284, 670
24, 393, 43, 36, 359
25, 557, 432, 672, 470
26, 264, 361, 319, 635
27, 743, 370, 210, 389
28, 842, 841, 197, 485
29, 858, 402, 189, 857
30, 427, 171, 126, 164
31, 357, 700, 652, 753
32, 709, 585, 576, 583
33, 512, 262, 383, 279
34, 386, 398, 467, 751
35, 734, 421, 699, 335
36, 185, 465, 636, 750
37, 564, 188, 378, 192
38, 403, 427, 164, 127
39, 604, 625, 493, 206
40, 525, 316, 522, 534
41, 733, 182, 271, 290
42, 711, 439, 370, 743
43, 464, 404, 612, 316
44, 724, 484, 683, 715
45, 820, 308, 544, 819
46, 835, 772, 265, 171
47, 199, 773, 371, 227
48, 825, 824, 346, 188
49, 327, 338, 741, 719
50, 720, 209, 390, 201
51, 252, 33, 41, 499
52, 517, 337, 453, 545
53, 736, 557, 470, 689
54, 434, 49, 60, 673
55, 431, 42, 35, 698
56, 229, 281, 264, 272
57, 507, 31, 39, 547
58, 220, 543, 327, 219
59, 296, 155, 136, 707
60, 617, 173, 324, 616
61, 447, 313, 166, 125
62, 659, 458, 738, 325
63, 283, 463, 76, 69
64, 735, 601, 632, 361
65, 632, 430, 511, 466
66, 766, 765, 420, 411
67, 497, 685, 558, 258
68, 321, 667, 446, 254
69, 406, 696, 122, 9
70, 499, 41, 34, 710
71, 411, 420, 392, 729
72, 453, 3, 30, 348
73, 716, 183, 112, 102
74, 731, 139, 151, 303
75, 616, 324, 597, 609
76, 399, 500, 514, 532
77, 531, 231, 694, 657
78, 280, 566, 243, 562
79, 655, 355, 313, 447
80, 491, 754, 756, 551
81, 826, 825, 188, 564
82, 656, 314, 497, 333
83, 563, 668, 549, 419
84, 463, 450, 68, 76
85, 388, 387, 334, 642
86, 756, 675, 238, 553
87, 359, 36, 44, 456
88, 837, 836, 427, 403
89, 773, 665, 343, 371
90, 628, 372, 128, 162
91, 593, 347, 724, 486
92, 422, 384, 621, 490
93, 297, 564, 192, 588
94, 308, 153, 138, 544
95, 534, 522, 287, 336
96, 653, 732, 670, 634
97, 726, 285, 559, 358
98, 642, 334, 236, 237
99, 586, 267, 680, 322
100, 852, 436, 428, 851
101, 197, 628, 162, 129
102, 687, 777, 440, 475
103, 684, 342, 773, 199
104, 855, 294, 298, 854
105, 578, 185, 750, 595
106, 722, 533, 677, 198
107, 573, 702, 759, 760
108, 480, 520, 546, 311
109, 316, 612, 304, 522
110, 747, 643, 224, 723
111, 663, 598, 591, 214
112, 503, 275, 71, 79
113, 470, 672, 648, 692
114, 446, 682, 285, 726
115, 554, 279, 408, 681
116, 496, 350, 342, 684
117, 635, 319, 320, 257
118, 552, 232, 662, 492
119, 274, 482, 147, 144
120, 289, 207, 505, 344
121, 835, 573, 760, 772
122, 844, 454, 109, 120
123, 725, 389, 292, 208
124, 605, 89, 97, 339
125, 749, 381, 526, 353
126, 521, 134, 156, 299
127, 299, 156, 135, 374
128, 80, 73, 444, 441
129, 441, 444, 442, 246
130, 444, 443, 177, 442
131, 73, 6, 443, 444
132, 395, 690, 654, 360
133, 764, 763, 600, 318
134, 668, 472, 531, 549
135, 689, 470, 692, 284
136, 366, 459, 693, 398
137, 685, 229, 272, 558
138, 325, 738, 270, 233
139, 530, 266, 586, 675
140, 279, 383, 736, 408
141, 251, 587, 512, 471
142, 667, 508, 682, 446
143, 259, 653, 634, 560
144, 476, 596, 429, 169
145, 286, 310, 524, 340
146, 339, 97, 90, 193
147, 196, 607, 716, 204
148, 415, 740, 489, 379
149, 326, 38, 31, 507
150, 505, 415, 379, 381
151, 831, 830, 578, 708
152, 234, 253, 441, 246
153, 250, 55, 5, 66
154, 278, 401, 234, 365
155, 730, 567, 448, 396
156, 466, 511, 459, 366
157, 498, 47, 58, 255
158, 355, 575, 582, 313
159, 268, 635, 257, 231
160, 640, 405, 399, 473
161, 576, 581, 250, 457
162, 565, 574, 709, 261
163, 767, 766, 411, 356
164, 400, 62, 52, 273
165, 650, 365, 658, 245
166, 261, 709, 583, 409
167, 392, 660, 735, 281
168, 222, 311, 107, 118
169, 777, 416, 525, 440
170, 465, 297, 588, 636
171, 374, 135, 155, 296
172, 240, 457, 74, 67
173, 383, 510, 557, 736
174, 273, 52, 63, 695
175, 738, 563, 419, 270
176, 423, 478, 202, 178
177, 384, 723, 418, 621
178, 626, 729, 229, 685
179, 256, 259, 560, 407
180, 696, 614, 146, 122
181, 680, 409, 633, 450
182, 646, 380, 196, 533
183, 818, 817, 439, 711
184, 345, 339, 193, 611
185, 216, 100, 93, 187
186, 343, 631, 537, 744
187, 847, 227, 539, 846
188, 742, 602, 520, 480
189, 683, 540, 777, 687
190, 826, 299, 374, 825
191, 647, 623, 421, 734
192, 823, 707, 288, 822
193, 440, 525, 534, 602
194, 682, 651, 674, 285
195, 178, 202, 598, 663
196, 817, 7, 86, 439
197, 831, 481, 213, 830
198, 205, 221, 596, 476
199, 223, 353, 385, 175
200, 489, 476, 169, 269
201, 486, 724, 715, 701
202, 838, 837, 403, 328
203, 254, 661, 614, 696
204, 703, 499, 710, 584
205, 677, 204, 113, 103
206, 307, 198, 114, 104
207, 298, 286, 340, 776
208, 380, 603, 607, 196
209, 541, 545, 172, 226
210, 833, 832, 727, 402
211, 242, 681, 653, 259
212, 449, 368, 56, 46
213, 419, 549, 312, 410
214, 266, 697, 267, 586
215, 210, 87, 95, 676
216, 851, 428, 496, 850
217, 630, 131, 159, 739
218, 207, 644, 415, 505
219, 678, 241, 548, 323
220, 367, 491, 551, 405
221, 312, 657, 251, 230
222, 355, 280, 562, 575
223, 235, 397, 667, 321
224, 323, 548, 640, 278
225, 585, 460, 581, 576
226, 661, 726, 358, 451
227, 827, 826, 564, 297
228, 719, 741, 369, 310
229, 701, 715, 536, 665
230, 416, 464, 316, 525
231, 655, 263, 280, 355
232, 467, 691, 690, 395
233, 765, 492, 388, 764
234, 241, 433, 367, 548
235, 277, 435, 314, 656
236, 405, 551, 500, 399
237, 510, 360, 432, 557
238, 768, 509, 504, 767
239, 191, 664, 610, 479
240, 468, 137, 153, 308
241, 309, 752, 538, 363
242, 518, 215, 384, 422
243, 337, 27, 3, 453
244, 715, 683, 687, 536
245, 524, 377, 717, 425
246, 834, 712, 130, 160
247, 328, 403, 127, 163
248, 269, 169, 478, 423
249, 381, 379, 622, 526
250, 349, 152, 139, 731
251, 147, 528, 529, 143
252, 143, 529, 331, 148
253, 529, 527, 247, 331
254, 528, 245, 527, 529
255, 674, 671, 242, 244
256, 513, 48, 59, 455
257, 686, 61, 51, 599
258, 599, 51, 62, 400
259, 484, 555, 540, 683
260, 425, 717, 347, 593
261, 636, 588, 289, 182
262, 217, 88, 96, 426
263, 577, 426, 605, 362
264, 221, 734, 335, 596
265, 336, 287, 728, 758
266, 175, 385, 376, 495
267, 271, 344, 749, 414
268, 644, 613, 740, 415
269, 613, 218, 205, 740
270, 520, 336, 758, 546
271, 506, 744, 483, 364
272, 821, 468, 308, 820
273, 544, 138, 152, 349
274, 717, 301, 629, 347
275, 450, 633, 75, 68
276, 651, 394, 671, 674
277, 730, 325, 233, 567
278, 401, 503, 253, 234
279, 690, 599, 400, 654
280, 472, 268, 231, 531
281, 320, 366, 398, 386
282, 230, 251, 471, 394
283, 203, 92, 100, 216
284, 315, 577, 362, 643
285, 182, 289, 344, 271
286, 729, 392, 281, 229
287, 459, 673, 176, 693
288, 501, 395, 360, 510
289, 358, 559, 260, 332
290, 368, 249, 45, 56
291, 649, 386, 751, 461
292, 282, 679, 516, 601
293, 228, 410, 641, 508
294, 394, 471, 554, 671
295, 643, 362, 345, 224
296, 249, 37, 4, 45
297, 574, 753, 585, 709
298, 233, 270, 228, 397
299, 634, 670, 266, 530
300, 284, 692, 565, 697
301, 457, 250, 66, 74
302, 84, 570, 571, 81
303, 81, 571, 443, 6
304, 571, 569, 177, 443
305, 570, 150, 569, 571
306, 193, 90, 98, 752
307, 539, 506, 364, 637
308, 488, 719, 310, 286
309, 426, 96, 89, 605
310, 301, 175, 495, 629
311, 817, 731, 303, 7
312, 771, 770, 737, 263
313, 495, 376, 191, 555
314, 751, 467, 395, 501
315, 558, 272, 268, 472
316, 186, 774, 108, 119
317, 746, 133, 157, 523
318, 829, 746, 523, 828
319, 728, 519, 105, 116
320, 150, 570, 579, 140
321, 140, 579, 302, 151
322, 579, 82, 85, 302
323, 570, 84, 82, 579
324, 318, 600, 282, 660
325, 737, 277, 656, 566
326, 763, 642, 237, 762
327, 548, 367, 405, 640
328, 681, 408, 732, 653
329, 232, 431, 698, 662
330, 587, 461, 262, 512
331, 243, 333, 276, 458
332, 260, 256, 407, 433
333, 471, 512, 279, 554
334, 693, 176, 686, 691
335, 412, 406, 9, 145
336, 596, 335, 556, 429
337, 194, 170, 713, 590
338, 224, 345, 611, 688
339, 526, 622, 209, 720
340, 292, 676, 217, 300
341, 572, 216, 187, 183
342, 439, 86, 94, 370
343, 227, 371, 506, 539
344, 317, 775, 639, 594
345, 519, 417, 115, 105
346, 363, 538, 351, 469
347, 623, 725, 208, 421
348, 768, 767, 356, 435
349, 500, 553, 721, 514
350, 614, 274, 144, 146
351, 769, 768, 435, 277
352, 218, 212, 221, 205
353, 638, 646, 533, 722
354, 523, 157, 134, 521
355, 324, 363, 469, 597
356, 265, 447, 125, 165
357, 828, 523, 521, 827
358, 344, 505, 381, 749
359, 378, 352, 613, 644
360, 215, 747, 723, 384
361, 845, 637, 454, 844
362, 483, 666, 222, 774
363, 688, 611, 309, 173
364, 602, 534, 336, 520
365, 666, 480, 311, 222
366, 639, 200, 647, 212
367, 744, 537, 666, 483
368, 739, 159, 132, 481
369, 310, 369, 377, 524
370, 708, 578, 595, 543
371, 712, 485, 161, 130
372, 209, 423, 178, 390
373, 481, 132, 158, 213
374, 379, 489, 269, 622
375, 862, 833, 402, 858
376, 485, 197, 129, 161
377, 335, 699, 624, 556
378, 836, 835, 171, 427
379, 594, 639, 212, 218
380, 584, 710, 431, 232
381, 691, 686, 599, 690
382, 410, 312, 230, 641
383, 225, 219, 488, 294
384, 533, 196, 204, 677
385, 390, 178, 663, 494
386, 348, 30, 38, 326
387, 300, 217, 426, 577
388, 290, 271, 414, 424
389, 745, 593, 486, 350
390, 834, 160, 131, 630
391, 177, 569, 620, 619
392, 619, 620, 330, 247
393, 620, 141, 149, 330
394, 569, 150, 141, 620
395, 293, 375, 307, 417
396, 590, 713, 725, 623
397, 370, 94, 87, 210
398, 840, 839, 372, 628
399, 180, 203, 216, 572
400, 338, 733, 290, 741
401, 588, 192, 207, 289
402, 675, 586, 322, 238
403, 458, 276, 563, 738
404, 235, 321, 406, 412
405, 409, 583, 240, 633
406, 171, 265, 165, 126
407, 625, 181, 477, 493
408, 477, 609, 380, 646
409, 665, 536, 631, 343
410, 710, 34, 42, 431
411, 460, 54, 65, 581
412, 673, 60, 50, 176
413, 314, 626, 685, 497
414, 850, 496, 684, 849
415, 371, 343, 744, 506
416, 391, 678, 561, 482
417, 836, 195, 573, 835
418, 329, 604, 206, 437
419, 294, 488, 286, 298
420, 819, 818, 711, 170
421, 522, 304, 608, 287
422, 553, 238, 283, 721
423, 549, 531, 657, 312
424, 600, 627, 679, 282
425, 575, 562, 659, 239
426, 679, 255, 513, 516
427, 566, 656, 333, 243
428, 753, 652, 460, 585
429, 473, 399, 532, 275
430, 212, 647, 734, 221
431, 830, 829, 185, 578
432, 346, 317, 594, 352
433, 188, 346, 352, 378
434, 823, 822, 775, 317
435, 591, 606, 625, 604
436, 181, 616, 609, 477
437, 340, 524, 425, 618
438, 461, 751, 501, 262
439, 236, 456, 249, 368
440, 654, 400, 273, 413
441, 762, 761, 498, 627
442, 231, 257, 649, 694
443, 580, 252, 499, 703
444, 581, 65, 55, 250
445, 648, 357, 753, 574
446, 176, 50, 61, 686
447, 401, 473, 275, 503
448, 456, 44, 37, 249
449, 694, 649, 461, 587
450, 254, 446, 726, 661
451, 559, 244, 256, 260
452, 770, 769, 277, 737
453, 660, 282, 601, 735
454, 772, 655, 447, 265
455, 672, 550, 357, 648
456, 551, 756, 553, 500
457, 433, 407, 491, 367
458, 662, 698, 393, 387
459, 766, 552, 492, 765
460, 695, 63, 53, 700
461, 537, 742, 480, 666
462, 350, 486, 701, 342
463, 848, 199, 227, 847
464, 664, 494, 211, 610
465, 843, 842, 485, 712
466, 195, 535, 702, 573
467, 555, 191, 479, 540
468, 214, 591, 604, 329
469, 376, 201, 664, 191
470, 257, 320, 386, 649
471, 516, 513, 455, 430
472, 567, 233, 397, 235
473, 334, 359, 456, 236
474, 247, 527, 669, 619
475, 619, 669, 442, 177
476, 669, 658, 246, 442
477, 527, 245, 658, 669
478, 504, 584, 232, 552
479, 492, 662, 387, 388
480, 508, 641, 651, 682
481, 356, 411, 729, 626
482, 535, 326, 507, 702
483, 275, 532, 78, 71
484, 765, 764, 318, 420
485, 767, 504, 552, 766
486, 862, 843, 712, 834
487, 369, 424, 184, 377
488, 818, 349, 731, 817
489, 183, 187, 101, 112
490, 365, 234, 246, 658
491, 575, 239, 515, 582
492, 601, 516, 430, 632
493, 391, 332, 241, 678
494, 776, 340, 618, 436
495, 202, 422, 490, 598
496, 545, 453, 348, 172
497, 761, 449, 46, 57
498, 239, 730, 396, 515
499, 322, 680, 450, 463
500, 276, 258, 668, 563
501, 540, 479, 416, 777
502, 740, 205, 476, 489
503, 454, 186, 119, 109
504, 678, 323, 650, 561
505, 267, 261, 409, 680
506, 772, 771, 263, 655
507, 281, 735, 361, 264
508, 387, 393, 359, 334
509, 455, 59, 49, 434
510, 633, 240, 67, 75
511, 285, 674, 244, 559
512, 430, 455, 434, 511
513, 398, 693, 691, 467
514, 253, 72, 80, 441
515, 560, 634, 530, 754
516, 237, 236, 368, 449
517, 515, 396, 123, 167
518, 321, 254, 696, 406
519, 846, 539, 637, 845
520, 618, 425, 593, 745
521, 219, 327, 719, 488
522, 208, 292, 300, 438
523, 546, 758, 106, 117
524, 532, 514, 70, 78
525, 323, 278, 365, 650
526, 652, 64, 54, 460
527, 562, 243, 458, 659
528, 187, 93, 8, 101
529, 645, 589, 375, 293
530, 469, 351, 203, 180
531, 830, 213, 746, 829
532, 692, 648, 574, 565
533, 514, 721, 77, 70
534, 511, 434, 673, 459
535, 606, 778, 181, 625
536, 775, 190, 200, 639
537, 778, 617, 616, 181
538, 829, 828, 465, 185
539, 304, 645, 293, 608
540, 201, 390, 494, 664
541, 849, 684, 199, 848
542, 609, 597, 603, 380
543, 550, 695, 700, 357
544, 360, 654, 413, 432
545, 272, 264, 635, 268
546, 428, 745, 350, 496
547, 832, 739, 481, 831
548, 822, 288, 468, 821
549, 169, 429, 518, 478
550, 361, 632, 466, 319
551, 239, 659, 325, 730
552, 263, 737, 566, 280
553, 700, 53, 64, 652
554, 713, 743, 389, 725
555, 417, 307, 104, 115
556, 402, 727, 220, 189
557, 538, 91, 99, 351
558, 226, 172, 535, 195
559, 822, 821, 190, 775
560, 856, 225, 294, 855
561, 192, 378, 644, 207
562, 288, 154, 137, 468
563, 342, 701, 665, 773
564, 206, 493, 638, 589
565, 351, 99, 92, 203
566, 721, 283, 69, 77
567, 396, 448, 168, 123
568, 377, 184, 301, 717
569, 404, 329, 437, 612
570, 438, 300, 577, 315
571, 603, 180, 572, 607
572, 862, 834, 630, 833
573, 364, 483, 774, 186
574, 479, 610, 464, 416
575, 827, 521, 299, 826
576, 597, 469, 180, 603
577, 375, 722, 198, 307
578, 754, 530, 675, 756
579, 420, 318, 660, 392
580, 408, 736, 689, 732
581, 255, 58, 48, 513
582, 494, 663, 214, 211
583, 854, 298, 776, 853
584, 820, 819, 170, 194
585, 435, 356, 626, 314
586, 204, 716, 102, 113
587, 671, 554, 681, 242
588, 610, 211, 404, 464
589, 832, 831, 708, 727
590, 347, 629, 484, 724
591, 333, 497, 258, 276
592, 397, 228, 508, 667
593, 657, 694, 587, 251
594, 561, 650, 245, 528
595, 353, 526, 720, 385
596, 819, 544, 349, 818
597, 493, 477, 646, 638
598, 385, 720, 201, 376
599, 270, 419, 410, 228
600, 824, 823, 317, 346
601, 702, 507, 547, 759
602, 313, 582, 124, 166
603, 503, 79, 72, 253
604, 262, 501, 510, 383
605, 661, 451, 274, 614
606, 244, 242, 259, 256
607, 407, 560, 754, 491
608, 670, 284, 697, 266
609, 762, 237, 449, 761
610, 761, 57, 47, 498
611, 432, 413, 550, 672
612, 582, 515, 167, 124
613, 627, 498, 255, 679
614, 509, 703, 584, 504
615, 637, 364, 186, 454
616, 583, 576, 457, 240
617, 698, 35, 43, 393
618, 362, 605, 339, 345
619, 598, 490, 606, 591
620, 418, 688, 173, 617
621, 372, 328, 163, 128
622, 707, 136, 154, 288
623, 448, 412, 145, 168
624, 608, 293, 417, 519
625, 828, 827, 297, 465
626, 838, 541, 226, 837
627, 170, 711, 743, 713
628, 475, 440, 602, 742
629, 841, 840, 628, 197
630, 825, 374, 296, 824
631, 287, 608, 519, 728
632, 853, 776, 436, 852
633, 750, 636, 182, 733
634, 414, 749, 353, 223
635, 543, 595, 338, 327
636, 621, 418, 617, 778
637, 607, 572, 183, 716
638, 837, 226, 195, 836
639, 311, 546, 117, 107
640, 85, 83, 748, 302
641, 302, 748, 303, 151
642, 83, 7, 303, 748
643, 752, 98, 91, 538
644, 676, 95, 88, 217
645, 184, 223, 175, 301
646, 631, 475, 742, 537
647, 629, 495, 555, 484
648, 490, 621, 778, 606
649, 305, 517, 545, 541
650, 190, 194, 590, 200
651, 451, 358, 332, 391
652, 278, 640, 473, 401
653, 319, 466, 366, 320
654, 172, 348, 326, 535
655, 824, 296, 707, 823
656, 857, 189, 225, 856
657, 641, 230, 394, 651
658, 429, 556, 215, 518
659, 741, 290, 424, 369
660, 567, 235, 412, 448
661, 413, 273, 695, 550
662, 238, 322, 463, 283
663, 556, 624, 747, 215
664, 389, 210, 676, 292
665, 699, 438, 315, 624
666, 536, 687, 475, 631
667, 148, 331, 755, 142
668, 142, 755, 330, 149
669, 331, 247, 330, 755
670, 258, 558, 472, 668
671, 482, 561, 528, 147
672, 697, 565, 261, 267
673, 437, 206, 589, 645
674, 424, 414, 223, 184
675, 248, 580, 703, 509
676, 769, 248, 509, 768
677, 568, 40, 33, 252
678, 445, 568, 252, 580
679, 704, 445, 580, 248
680, 770, 704, 248, 769
681, 502, 32, 40, 568
682, 714, 502, 568, 445
683, 354, 714, 445, 704
684, 771, 354, 704, 770
685, 547, 39, 32, 502
686, 759, 547, 502, 714
687, 760, 759, 714, 354
688, 772, 760, 354, 771
689, 774, 222, 118, 108
690, 211, 214, 329, 404
691, 478, 518, 422, 202
692, 611, 193, 752, 309
693, 173, 309, 363, 324
694, 622, 269, 423, 209
695, 706, 29, 27, 337
696, 373, 706, 337, 517
697, 174, 373, 517, 305
698, 840, 174, 305, 839
699, 542, 26, 29, 706
700, 179, 542, 706, 373
701, 718, 179, 373, 174
702, 841, 718, 174, 840
703, 382, 28, 26, 542
704, 291, 382, 542, 179
705, 306, 291, 179, 718
706, 842, 306, 718, 841
707, 757, 25, 28, 382
708, 487, 757, 382, 291
709, 452, 487, 291, 306
710, 843, 452, 306, 842
711, 859, 2, 25, 757
712, 860, 859, 757, 487
713, 861, 860, 487, 452
714, 862, 861, 452, 843
715, 295, 111, 1, 10
716, 705, 295, 10, 18
717, 615, 705, 18, 11
718, 341, 615, 11, 19
719, 462, 341, 19, 12
720, 592, 462, 12, 20
721, 474, 592, 20, 13
722, 779, 474, 13, 21
723, 780, 779, 21, 14
724, 781, 780, 14, 22
725, 782, 781, 22, 15
726, 783, 782, 15, 23
727, 784, 783, 23, 16
728, 785, 784, 16, 24
729, 786, 785, 24, 17
730, 859, 786, 17, 2
731, 787, 121, 111, 295
732, 788, 787, 295, 705
733, 789, 788, 705, 615
734, 790, 789, 615, 341
735, 791, 790, 341, 462
736, 792, 791, 462, 592
737, 793, 792, 592, 474
738, 794, 793, 474, 779
739, 795, 794, 779, 780
740, 796, 795, 780, 781
741, 797, 796, 781, 782
742, 798, 797, 782, 783
743, 799, 798, 783, 784
744, 800, 799, 784, 785
745, 801, 800, 785, 786
746, 860, 801, 786, 859
747, 802, 110, 121, 787
748, 803, 802, 787, 788
749, 804, 803, 788, 789
750, 805, 804, 789, 790
751, 806, 805, 790, 791
752, 807, 806, 791, 792
753, 808, 807, 792, 793
754, 809, 808, 793, 794
755, 810, 809, 794, 795
756, 811, 810, 795, 796
757, 812, 811, 796, 797
758, 813, 812, 797, 798
759, 814, 813, 798, 799
760, 815, 814, 799, 800
761, 816, 815, 800, 801
762, 861, 816, 801, 860
763, 844, 120, 110, 802
764, 845, 844, 802, 803
765, 846, 845, 803, 804
766, 847, 846, 804, 805
767, 848, 847, 805, 806
768, 849, 848, 806, 807
769, 850, 849, 807, 808
770, 851, 850, 808, 809
771, 852, 851, 809, 810
772, 853, 852, 810, 811
773, 854, 853, 811, 812
774, 855, 854, 812, 813
775, 856, 855, 813, 814
776, 857, 856, 814, 815
777, 858, 857, 815, 816
778, 862, 858, 816, 861
*ELSET,ELSET=contact_source
99, 100, 101, 102, 103, 104, 105, 106, 107, 108, 
109, 110, 111, 112, 113, 114, 115, 116, 117, 118, 
119, 120, 
*ELSET,ELSET=contact_drain
39, 40, 41, 42, 43, 44, 45, 46, 47, 48, 
49, 50, 51, 52, 53, 54, 55, 56, 57, 58, 
59, 60, 
*ELSET,ELSET=probe_A
77, 78, 79, 80, 81, 82, 
*ELSET,ELSET=probe_B
17, 18, 19, 20, 21, 22, 
*ELSET,ELSET=walls
1, 2, 3, 4, 5, 6, 7, 8, 9, 10, 
11, 12, 13, 14, 15, 16, 23, 24, 25, 26, 
27, 28, 29, 30, 31, 32, 33, 34, 35, 36, 
37, 38, 61, 62, 63, 64, 65, 66, 67, 68, 
69, 70, 71, 72, 73, 74, 75, 76, 83, 84, 
85, 86, 87, 88, 89, 90, 91, 92, 93, 94, 
95, 96, 97, 98, 121, 122, 123, 124, 125, 126, 
127, 128, 129, 130, 131, 132, 133, 134, 135, 136, 
137, 138, 139, 140, 141, 142, 143, 144, 145, 146, 
147, 148, 149, 150, 151, 152, 153, 154, 155, 156, 
157, 158, 159, 160, 161, 162, 163, 164, 165, 166, 
167, 168, 
*ELSET,ELSET=domain
169, 170, 171, 172, 173, 174, 175, 176, 177, 178, 
179, 180, 181, 182, 183, 184, 185, 186, 187, 188, 
189, 190, 191, 192, 193, 194, 195, 196, 197, 198, 
199, 200, 201, 202, 203, 204, 205, 206, 207, 208, 
209, 210, 211, 212, 213, 214, 215, 216, 217, 218, 
219, 220, 221, 222, 223, 224, 225, 226, 227, 228, 
229, 230, 231, 232, 233, 234, 235, 236, 237, 238, 
239, 240, 241, 242, 243, 244, 245, 246, 247, 248, 
249, 250, 251, 252, 253, 254, 255, 256, 257, 258, 
259, 260, 261, 262, 263, 264, 265, 266, 267, 268, 
269, 270, 271, 272, 273, 274, 275, 276, 277, 278, 
279, 280, 281, 282, 283, 284, 285, 286, 287, 288, 
289, 290, 291, 292, 293, 294, 295, 296, 297, 298, 
299, 300, 301, 302, 303, 304, 305, 306, 307, 308, 
309, 310, 311, 312, 313, 314, 315, 316, 317, 318, 
319, 320, 321, 322, 323, 324, 325, 326, 327, 328, 
329, 330, 331, 332, 333, 334, 335, 336, 337, 338, 
339, 340, 341, 342, 343, 344, 345, 346, 347, 348, 
349, 350, 351, 352, 353, 354, 355, 356, 357, 358, 
359, 360, 361, 362, 363, 364, 365, 366, 367, 368, 
369, 370, 371, 372, 373, 374, 375, 376, 377, 378, 
379, 380, 381, 382, 383, 384, 385, 386, 387, 388, 
389, 390, 391, 392, 393, 394, 395, 396, 397, 398, 
399, 400, 401, 402, 403, 404, 405, 406, 407, 408, 
409, 410, 411, 412, 413, 414, 415, 416, 417, 418, 
419, 420, 421, 422, 423, 424, 425, 426, 427, 428, 
429, 430, 431, 432, 433, 434, 435, 436, 437, 438, 
439, 440, 441, 442, 443, 444, 445, 446, 447, 448, 
449, 450, 451, 452, 453, 454, 455, 456, 457, 458, 
459, 460, 461, 462, 463, 464, 465, 466, 467, 468, 
469, 470, 471, 472, 473, 474, 475, 476, 477, 478, 
479, 480, 481, 482, 483, 484, 485, 486, 487, 488, 
489, 490, 491, 492, 493, 494, 495, 496, 497, 498, 
499, 500, 501, 502, 503, 504, 505, 506, 507, 508, 
509, 510, 511, 512, 513, 514, 515, 516, 517, 518, 
519, 520, 521, 522, 523, 524, 525, 526, 527, 528, 
529, 530, 531, 532, 533, 534, 535, 536, 537, 538, 
539, 540, 541, 542, 543, 544, 545, 546, 547, 548, 
549, 550, 551, 552, 553, 554, 555, 556, 557, 558, 
559, 560, 561, 562, 563, 564, 565, 566, 567, 568, 
569, 570, 571, 572, 573, 574, 575, 576, 577, 578, 
579, 580, 581, 582, 583, 584, 585, 586, 587, 588, 
589, 590, 591, 592, 593, 594, 595, 596, 597, 598, 
599, 600, 601, 602, 603, 604, 605, 606, 607, 608, 
609, 610, 611, 612, 613, 614, 615, 616, 617, 618, 
619, 620, 621, 622, 623, 624, 625, 626, 627, 628, 
629, 630, 631, 632, 633, 634, 635, 636, 637, 638, 
639, 640, 641, 642, 643, 644, 645, 646, 647, 648, 
649, 650, 651, 652, 653, 654, 655, 656, 657, 658, 
659, 660, 661, 662, 663, 664, 665, 666, 667, 668, 
669, 670, 671, 672, 673, 674, 675, 676, 677, 678, 
679, 680, 681, 682, 683, 684, 685, 686, 687, 688, 
689, 690, 691, 692, 693, 694, 695, 696, 697, 698, 
699, 700, 701, 702, 703, 704, 705, 706, 707, 708, 
709, 710, 711, 712, 713, 714, 715, 716, 717, 718, 
719, 720, 721, 722, 723, 724, 725, 726, 727, 728, 
729, 730, 731, 732, 733, 734, 735, 736, 737, 738, 
739, 740, 741, 742, 743, 744, 745, 746, 747, 748, 
749, 750, 751, 752, 753, 754, 755, 756, 757, 758, 
759, 760, 761, 762, 763, 764, 765, 766, 767, 768, 
769, 770, 771, 772, 773, 774, 775, 776, 777, 778, 
779, 780, 781, 782, 783, 784, 785, 786, 787, 788, 
789, 790, 791, 792, 793, 794, 795, 796, 797, 798, 
799, 800, 801, 802, 803, 804, 805, 806, 807, 808, 
809, 810, 811, 812, 813, 814, 815, 816, 817, 818, 
819, 820, 821, 822, 823, 824, 825, 826, 827, 828, 
829, 830, 831, 832, 833, 834, 835, 836, 837, 838, 
839, 840, 841, 842, 843, 844, 845, 846, 847, 848, 
849, 850, 851, 852, 853, 854, 855, 856, 857, 858, 
859, 860, 861, 862, 863, 864, 865, 866, 867, 868, 
869, 870, 871, 872, 873, 874, 875, 876, 877, 878, 
879, 880, 881, 882, 883, 884, 885, 886, 887, 888, 
889, 890, 891, 892, 893, 894, 895, 896, 897, 898, 
899, 900, 901, 902, 903, 904, 905, 906, 907, 908, 
909, 910, 911, 912, 913, 914, 915, 916, 917, 918, 
919, 920, 921, 922, 923, 924, 925, 926, 927, 928, 
929, 930, 931, 932, 933, 934, 935, 936, 937, 938, 
939, 940, 941, 942, 943, 944, 945, 946, 
*NSET,NSET=contact_source
1, 8, 101, 102, 103, 104, 105, 106, 107, 108, 
109, 110, 111, 112, 113, 114, 115, 116, 117, 118, 
119, 120, 121, 
*NSET,NSET=contact_drain
4, 5, 45, 46, 47, 48, 49, 50, 51, 52, 
53, 54, 55, 56, 57, 58, 59, 60, 61, 62, 
63, 64, 65, 
*NSET,NSET=probe_A
6, 7, 81, 82, 83, 84, 85, 
*NSET,NSET=probe_B
2, 3, 25, 26, 27, 28, 29, 
*NSET,NSET=walls
1, 2, 3, 4, 5, 6, 7, 8, 9, 10, 
11, 12, 13, 14, 15, 16, 17, 18, 19, 20, 
21, 22, 23, 24, 30, 31, 32, 33, 34, 35, 
36, 37, 38, 39, 40, 41, 42, 43, 44, 66, 
67, 68, 69, 70, 71, 72, 73, 74, 75, 76, 
77, 78, 79, 80, 86, 87, 88, 89, 90, 91, 
92, 93, 94, 95, 96, 97, 98, 99, 100, 122, 
123, 124, 125, 126, 127, 128, 129, 130, 131, 132, 
133, 134, 135, 136, 137, 138, 139, 140, 141, 142, 
143, 144, 145, 146, 147, 148, 149, 150, 151, 152, 
153, 154, 155, 156, 157, 158, 159, 160, 161, 162, 
163, 164, 165, 166, 167, 168, 
*NSET,NSET=domain
1, 2, 3, 4, 5, 6, 7, 8, 9, 10, 
11, 12, 13, 14, 15, 16, 17, 18, 19, 20, 
21, 22, 23, 24, 25, 26, 27, 28, 29, 30, 
31, 32, 33, 34, 35, 36, 37, 38, 39, 40, 
41, 42, 43, 44, 45, 46, 47, 48, 49, 50, 
51, 52, 53, 54, 55, 56, 57, 58, 59, 60, 
61, 62, 63, 64, 65, 66, 67, 68, 69, 70, 
71, 72, 73, 74, 75, 76, 77, 78, 79, 80, 
81, 82, 83, 84, 85, 86, 87, 88, 89, 90, 
91, 92, 93, 94, 95, 96, 97, 98, 99, 100, 
101, 102, 103, 104, 105, 106, 107, 108, 109, 110, 
111, 112, 113, 114, 115, 116, 117, 118, 119, 120, 
121, 122, 123, 124, 125, 126, 127, 128, 129, 130, 
131, 132, 133, 134, 135, 136, 137, 138, 139, 140, 
141, 142, 143, 144, 145, 146, 147, 148, 149, 150, 
151, 152, 153, 154, 155, 156, 157, 158, 159, 160, 
161, 162, 163, 164, 165, 166, 167, 168, 169, 170, 
171, 172, 173, 174, 175, 176, 177, 178, 179, 180, 
181, 182, 183, 184, 185, 186, 187, 188, 189, 190, 
191, 192, 193, 194, 195, 196, 197, 198, 199, 200, 
201, 202, 203, 204, 205, 206, 207, 208, 209, 210, 
211, 212, 213, 214, 215, 216, 217, 218, 219, 220, 
221, 222, 223, 224, 225, 226, 227, 228, 229, 230, 
231, 232, 233, 234, 235, 236, 237, 238, 239, 240, 
241, 242, 243, 244, 245, 246, 247, 248, 249, 250, 
251, 252, 253, 254, 255, 256, 257, 258, 259, 260, 
261, 262, 263, 264, 265, 266, 267, 268, 269, 270, 
271, 272, 273, 274, 275, 276, 277, 278, 279, 280, 
281, 282, 283, 284, 285, 286, 287, 288, 289, 290, 
291, 292, 293, 294, 295, 296, 297, 298, 299, 300, 
301, 302, 303, 304, 305, 306, 307, 308, 309, 310, 
311, 312, 313, 314, 315, 316, 317, 318, 319, 320, 
321, 322, 323, 324, 325, 326, 327, 328, 329, 330, 
331, 332, 333, 334, 335, 336, 337, 338, 339, 340, 
341, 342, 343, 344, 345, 346, 347, 348, 349, 350, 
351, 352, 353, 354, 355, 356, 357, 358, 359, 360, 
361, 362, 363, 364, 365, 366, 367, 368, 369, 370, 
371, 372, 373, 374, 375, 376, 377, 378, 379, 380, 
381, 382, 383, 384, 385, 386, 387, 388, 389, 390, 
391, 392, 393, 394, 395, 396, 397, 398, 399, 400, 
401, 402, 403, 404, 405, 406, 407, 408, 409, 410, 
411, 412, 413, 414, 415, 416, 417, 418, 419, 420, 
421, 422, 423, 424, 425, 426, 427, 428, 429, 430, 
431, 432, 433, 434, 435, 436, 437, 438, 439, 440, 
441, 442, 443, 444, 445, 446, 447, 448, 449, 450, 
451, 452, 453, 454, 455, 456, 457, 458, 459, 460, 
461, 462, 463, 464, 465, 466, 467, 468, 469, 470, 
471, 472, 473, 474, 475, 476, 477, 478, 479, 480, 
481, 482, 483, 484, 485, 486, 487, 488, 489, 490, 
491, 492, 493, 494, 495, 496, 497, 498, 499, 500, 
501, 502, 503, 504, 505, 506, 507, 508, 509, 510, 
511, 512, 513, 514, 515, 516, 517, 518, 519, 520, 
521, 522, 523, 524, 525, 526, 527, 528, 529, 530, 
531, 532, 533, 534, 535, 536, 537, 538, 539, 540, 
541, 542, 543, 544, 545, 546, 547, 548, 549, 550, 
551, 552, 553, 554, 555, 556, 557, 558, 559, 560, 
561, 562, 563, 564, 565, 566, 567, 568, 569, 570, 
571, 572, 573, 574, 575, 576, 577, 578, 579, 580, 
581, 582, 583, 584, 585, 586, 587, 588, 589, 590, 
591, 592, 593, 594, 595, 596, 597, 598, 599, 600, 
601, 602, 603, 604, 605, 606, 607, 608, 609, 610, 
611, 612, 613, 614, 615, 616, 617, 618, 619, 620, 
621, 622, 623, 624, 625, 626, 627, 628, 629, 630, 
631, 632, 633, 634, 635, 636, 637, 638, 639, 640, 
641, 642, 643, 644, 645, 646, 647, 648, 649, 650, 
651, 652, 653, 654, 655, 656, 657, 658, 659, 660, 
661, 662, 663, 664, 665, 666, 667, 668, 669, 670, 
671, 672, 673, 674, 675, 676, 677, 678, 679, 680, 
681, 682, 683, 684, 685, 686, 687, 688, 689, 690, 
691, 692, 693, 694, 695, 696, 697, 698, 699, 700, 
701, 702, 703, 704, 705, 706, 707, 708, 709, 710, 
711, 712, 713, 714, 715, 716, 717, 718, 719, 720, 
721, 722, 723, 724, 725, 726, 727, 728, 729, 730, 
731, 732, 733, 734, 735, 736, 737, 738, 739, 740, 
741, 742, 743, 744, 745, 746, 747, 748, 749, 750, 
751, 752, 753, 754, 755, 756, 757, 758, 759, 760, 
761, 762, 763, 764, 765, 766, 767, 768, 769, 770, 
771, 772, 773, 774, 775, 776, 777, 778, 779, 780, 
781, 782, 783, 784, 785, 786, 787, 788, 789, 790, 
791, 792, 793, 794, 795, 796, 797, 798, 799, 800, 
801, 802, 803, 804, 805, 806, 807, 808, 809, 810, 
811, 812, 813, 814, 815, 816, 817, 818, 819, 820, 
821, 822, 823, 824, 825, 826, 827, 828, 829, 830, 
831, 832, 833, 834, 835, 836, 837, 838, 839, 840, 
841, 842, 843, 844, 845, 846, 847, 848, 849, 850, 
851, 852, 853, 854, 855, 856, 857, 858, 859, 860, 
861, 862, 
