*Heading
 /Users/juliagao/geometry-optimization-net/scripts/../runs/run2/shape_83.inp
*NODE
1, 0, -0.3, 0
2, 0.425, -0.3, 0
3, 0.575, -0.3, 0
4, 1, -0.3, 0
5, 1, 0.3, 0
6, 0.575, 0.3, 0
7, 0.425, 0.3, 0
8, 0, 0.3, 0
9, 0.6351068841, 0.0252180669, 0
10, 0.025072673810713, -0.3, 0
11, 0.075870004199639, -0.3, 0
12, 0.12829977199931, -0.3, 0
13, 0.18249012702673, -0.3, 0
14, 0.23772877679009, -0.3, 0
15, 0.29292874224857, -0.3, 0
16, 0.34708387642383, -0.3, 0
17, 0.399396225549, -0.3, 0
18, 0.050145347621426, -0.3, 0
19, 0.10159466077785, -0.3, 0
20, 0.15500488322077, -0.3, 0
21, 0.20997537083269, -0.3, 0
22, 0.26548218274749, -0.3, 0
23, 0.32037530174965, -0.3, 0
24, 0.373792451098, -0.3, 0
25, 0.45020935030985, -0.3, 0
26, 0.50007068927647, -0.3, 0
27, 0.54986133896661, -0.3, 0
28, 0.47541870061971, -0.3, 0
29, 0.52472267793323, -0.3, 0
30, 0.60055774480245, -0.3, 0
31, 0.65253282485552, -0.3, 0
32, 0.70614756997451, -0.3, 0
33, 0.76100963709798, -0.3, 0
34, 0.81606278299725, -0.3, 0
35, 0.87015954113084, -0.3, 0
36, 0.92283261919197, -0.3, 0
37, 0.97439871388184, -0.3, 0
38, 0.62611548960489, -0.3, 0
39, 0.67895016010615, -0.3, 0
40, 0.73334497984287, -0.3, 0
41, 0.78867429435309, -0.3, 0
42, 0.84345127164141, -0.3, 0
43, 0.89686781062026, -0.3, 0
44, 0.94879742776368, -0.3, 0
45, 1, -0.27520731447547, 0
46, 1, -0.22545635407226, 0
47, 1, -0.17529549129931, 0
48, 1, -0.12476492810038, 0
49, 1, -0.074400415503079, 0
50, 1, -0.024877226036794, 0
51, 1, 0.024201224795935, 0
52, 1, 0.073743048147153, 0
53, 1, 0.12360003110918, 0
54, 1, 0.1735162128468, 0
55, 1, 0.22402856467163, 0
56, 1, 0.27476584651437, 0
57, 1, -0.25041462895094, 0
58, 1, -0.20049807919359, 0
59, 1, -0.15009290340502, 0
60, 1, -0.099436952795734, 0
61, 1, -0.049363878210425, 0
62, 1, -0.00039057386316316, 0
63, 1, 0.048793023455034, 0
64, 1, 0.098693072839273, 0
65, 1, 0.14850698937908, 0
66, 1, 0.19852543631451, 0
67, 1, 0.24953169302874, 0
68, 0.97466388380488, 0.3, 0
69, 0.92354083034418, 0.3, 0
70, 0.87136393050314, 0.3, 0
71, 0.81830088831337, 0.3, 0
72, 0.76490231655946, 0.3, 0
73, 0.7111268666397, 0.3, 0
74, 0.65653222193803, 0.3, 0
75, 0.60199376750826, 0.3, 0
76, 0.94932776760976, 0.3, 0
77, 0.89775389307859, 0.3, 0
78, 0.84497396792769, 0.3, 0
79, 0.79162780869905, 0.3, 0
80, 0.73817682441988, 0.3, 0
81, 0.68407690885953, 0.3, 0
82, 0.62898753501653, 0.3, 0
83, 0.5490378128564, 0.3, 0
84, 0.49835387554588, 0.3, 0
85, 0.44931606268948, 0.3, 0
86, 0.52307562571281, 0.3, 0
87, 0.47363212537895, 0.3, 0
88, 0.40024371337615, 0.3, 0
89, 0.34972776819305, 0.3, 0
90, 0.29705043599759, 0.3, 0
91, 0.24312773681822, 0.3, 0
92, 0.18853381273899, 0.3, 0
93, 0.13329508760819, 0.3, 0
94, 0.078798834852188, 0.3, 0
95, 0.025976204345445, 0.3, 0
96, 0.37548742675229, 0.3, 0
97, 0.32396810963381, 0.3, 0
98, 0.27013276236136, 0.3, 0
99, 0.21612271127508, 0.3, 0
100, 0.1609449142029, 0.3, 0
101, 0.10564526101348, 0.3, 0
102, 0.05195240869089, 0.3, 0
103, 0, 0.27397699108926, 0
104, 0, 0.22169593884973, 0
105, 0, 0.16801364933498, 0
106, 0, 0.11225514026165, 0
107, 0, 0.055792187047095, 0
108, 0, -9.2880499465264e-05, 0
109, 0, -0.05568444099524, 0
110, 0, -0.11111259136013, 0
111, 0, -0.16616100965192, 0
112, 0, -0.22066883463846, 0
113, 0, -0.27386060421086, 0
114, 0, 0.24795398217853, 0
115, 0, 0.19543789552093, 0
116, 0, 0.14058940314903, 0
117, 0, 0.083920877374269, 0
118, 0, 0.027663496719921, 0
119, 0, -0.027849257718851, 0
120, 0, -0.083519624271629, 0
121, 0, -0.13870555844863, 0
122, 0, -0.19361646085522, 0
123, 0, -0.24772120842171, 0
124, 0.63568674536284, 0.05329048714038, 0
125, 0.70306991517302, -0.025880478148236, 0
126, 0.74096559455184, -0.065682280701844, 0
127, 0.76512839069135, -0.11369739826464, 0
128, 0.75552103253663, -0.16606996341817, 0
129, 0.70577405073689, -0.1864250675558, 0
130, 0.65255240940342, -0.17911119073595, 0
131, 0.60232224093881, -0.16058793774373, 0
132, 0.55008701535899, -0.1476495869047, 0
133, 0.50340025445187, -0.17363767349665, 0
134, 0.45223790737677, -0.18162680063355, 0
135, 0.40675961480502, -0.15698186056984, 0
136, 0.35958157760873, -0.13493997809794, 0
137, 0.31029813548032, -0.11668806853646, 0
138, 0.27504229826444, -0.077266236077545, 0
139, 0.27835567241521, -0.024397451896846, 0
140, 0.30262673378656, 0.022843059312965, 0
141, 0.31269812945701, 0.076098337529674, 0
142, 0.30393165461636, 0.13259641362151, 0
143, 0.31407849016752, 0.18926055964838, 0
144, 0.34748771519266, 0.23430515155911, 0
145, 0.3906599395503, 0.26502234051903, 0
146, 0.43894443115473, 0.2784443697165, 0
147, 0.48645629091649, 0.26480533429178, 0
148, 0.52226453004784, 0.2276142533837, 0
149, 0.54584387142622, 0.17803381165538, 0
150, 0.58322273419266, 0.14069773893359, 0
151, 0.6346453677352, 0.13940899198065, 0
152, 0.6590157044054, 0.096887946714595, 0
153, 0.65778822717032, 0.0078967183134566, 0
154, 0.64878925557007, 0.073310864598626, 0
155, 0.65658331166835, 0.12352421537358, 0
156, 0.60890103410187, 0.14212719512135, 0
157, 0.55723252252572, 0.15230645909257, 0
158, 0.53512976331454, 0.20401816783647, 0
159, 0.50568920883382, 0.24882093951537, 0
160, 0.46366427971779, 0.2752463782144, 0
161, 0.41437590458689, 0.274577647716, 0
162, 0.36886996493581, 0.25171874011275, 0
163, 0.32890928979741, 0.21389802507907, 0
164, 0.30560908514038, 0.16174704274821, 0
165, 0.3075482957301, 0.10370015996918, 0
166, 0.312550038295, 0.047709458209626, 0
167, 0.28959332743165, -0.00035201818272939, 0
168, 0.27221108566352, -0.050334597750577, 0
169, 0.28899372210125, -0.10056491442196, 0
170, 0.33470806504473, -0.12715930861802, 0
171, 0.38406693098806, -0.14397207426339, 0
172, 0.42854132031862, -0.17135479038412, 0
173, 0.47826119792032, -0.18273222249849, 0
174, 0.52572162405663, -0.15934754159907, 0
175, 0.57719282984196, -0.15079060920994, 0
176, 0.62732325645309, -0.17069201607523, 0
177, 0.67854801526425, -0.18482774681888, 0
178, 0.73269762678873, -0.18132341270681, 0
179, 0.76684331769353, -0.1408168527653, 0
180, 0.75543498358454, -0.088531823236353, 0
181, 0.72345261299746, -0.045107132396164, 0
182, 0.6811113333554, -0.0084907979188472, 0
183, 0.42576579550219, -0.25503361961281, 0
184, 0.10359680295243, -0.24527598842071, 0
185, 0.40043571615726, -0.25285132296673, 0
186, 0.32386817515487, -0.2175372980302, 0
187, 0.18418051205336, -0.24313121443169, 0
188, 0.025866368859867, -0.2199332728802, 0
189, 0.47594890965951, -0.25694086758221, 0
190, 0.052002650482929, -0.19229897500086, 0
191, 0.27137876486291, -0.18137613018639, 0
192, 0.57923590355167, 0.25405735232582, 0
193, 0.57577406044256, -0.25364524777368, 0
194, 0.52572952395294, -0.25549249608677, 0
195, 0.62649776523586, -0.25204732053178, 0
196, 0.6794515264424, -0.24724045947677, 0
197, 0.14314244695096, 0.019196889184194, 0
198, 0.28005875108564, 0.14177461831026, 0
199, 0.23642676171147, 0.035447591589952, 0
200, 0.19661265979993, -0.015350807966325, 0
201, 0.27413592493159, 0.056470227356265, 0
202, 0.24924796371808, 0.12121207519475, 0
203, 0.058838808645376, 0.1387898364889, 0
204, 0.1163125466162, 0.19683928788545, 0
205, 0.057468023002891, 0.19456487552824, 0
206, 0.054995029741556, 0.24801055945375, 0
207, 0.11042664490751, 0.24981434041051, 0
208, 0.28598436863386, 0.17061581897632, 0
209, 0.20452098682038, 0.24497648998312, 0
210, 0.2192783922288, 0.12948212441627, 0
211, 0.21677132078405, 0.23647326463993, 0
212, 0.2248828338633, -0.019053210739644, 0
213, 0.26790835797397, 0.029882807932777, 0
214, 0.16835461660054, -0.01172670202388, 0
215, 0.11427950635553, 0.021719299211504, 0
216, 0.11211450359833, -0.0061182054176668, 0
217, 0.058464349663181, 0.081809004906088, 0
218, 0.26431157978701, 0.18019191299695, 0
219, 0.27793587497027, 0.11267206168287, 0
220, 0.056977180860734, 0.025305047915545, 0
221, 0.15696690257211, -0.18813654861578, 0
222, 0.10417069319959, -0.19091652374064, 0
223, 0.21181209462799, -0.24243122186977, 0
224, 0.12936537342513, -0.27232544753085, 0
225, 0.025427688637951, -0.27347841697238, 0
226, 0.26639706278803, -0.27143955853203, 0
227, 0.15437361244806, -0.13556168947697, 0
228, 0.10420967137381, -0.13796380933047, 0
229, 0.052401956395633, -0.13840614309085, 0
230, 0.10991021947329, -0.033453756692085, 0
231, 0.055079722692765, -0.030151704367286, 0
232, 0.053372676648639, -0.084604082712039, 0
233, 0.10593652133509, -0.086444314595098, 0
234, 0.16448366333262, -0.039011928887459, 0
235, 0.21987247739129, -0.047042633347713, 0
236, 0.15624882519399, -0.090501004586688, 0
237, 0.20615076546331, -0.11314270638738, 0
238, 0.42713228503463, -0.21195788601905, 0
239, 0.47689871054585, -0.21656630870523, 0
240, 0.21242731972863, -0.18273203660039, 0
241, 0.15693080649808, -0.24393519479163, 0
242, 0.79101283573883, 0.20349658107545, 0
243, 0.74005860489156, 0.20402610998823, 0
244, 0.69487265795144, 0.11611783074532, 0
245, 0.78976120584152, 0.15548343052234, 0
246, 0.84274327814268, 0.15345490766904, 0
247, 0.89522040494417, 0.15187380500919, 0
248, 0.9476077714596, 0.15026601949817, 0
249, 0.84333370035545, 0.2023305794525, 0
250, 0.89572245580288, 0.20121818506078, 0
251, 0.94792502593584, 0.20004986920742, 0
252, 0.94840866072554, 0.25002235435518, 0
253, 0.89645123494774, 0.25058996462206, 0
254, 0.84400326354361, 0.2511182074187, 0
255, 0.73828012485248, 0.25112878356194, 0
256, 0.79128002632701, 0.25148971701345, 0
257, 0.68290967532732, 0.2494877062957, 0
258, 0.60616176533067, 0.20652565204472, 0
259, 0.62689905514659, 0.25356608871889, 0
260, 0.73218282588226, 0.13642074268877, 0
261, 0.68548157584893, 0.18883159418067, 0
262, 0.84265919115381, 0.1044066597371, 0
263, 0.79608347315282, 0.053483730643483, 0
264, 0.84271669823745, 0.056531311230511, 0
265, 0.894787583562, 0.10254128538651, 0
266, 0.94732548991918, 0.10058412894514, 0
267, 0.94699710858614, 0.05083015771207, 0
268, 0.89396651497341, 0.053107030252564, 0
269, 0.94834918289276, -0.09941443213676, 0
270, 0.89720268443875, -0.099373525184073, 0
271, 0.84784956738278, -0.099896266295598, 0
272, 0.94686181780041, 0.00084734912836831, 0
273, 0.94747531869055, -0.049307382344988, 0
274, 0.89255349875266, 0.0024068997303824, 0
275, 0.84147937105549, -0.051492897313331, 0
276, 0.89462863404954, -0.049269761745425, 0
277, 0.80300220297888, -0.10046093507268, 0
278, 0.79338215156773, -0.061547965270768, 0
279, 0.82826738018268, 0.0071803535411849, 0
280, 0.76846238941259, -0.016359524874442, 0
281, 0.5263650637605, -0.21064720503029, 0
282, 0.57600886547995, -0.206461832145, 0
283, 0.62507733434952, -0.20726146686573, 0
284, 0.81967707095104, -0.22163385433043, 0
285, 0.81692740969798, -0.27374090110366, 0
286, 0.89697353264431, -0.24924212782821, 0
287, 0.94881474475648, -0.14951457337748, 0
288, 0.73481560026842, -0.24476054901303, 0
289, 0.8704356958157, -0.27438735251736, 0
290, 0.87160230594744, -0.22343113684926, 0
291, 0.97437740250871, -0.14978670387446, 0
292, 0.80379212498466, -0.14549874597468, 0
293, 0.89776314905062, -0.19881483276611, 0
294, 0.80433992239358, -0.12212559809308, 0
295, 0.8733830638312, -0.14851399814941, 0
296, 0.72825879199881, 0.10921625841198, 0
297, 0.75994257658957, 0.1060159101222, 0
298, 0.1198039804551, 0.13824120994547, 0
299, 0.1459474738998, 0.047601047779073, 0
300, 0.11897935520681, 0.16811834557837, 0
301, 0.79115957395258, 0.079150954755342, 0
302, 0.78923467721804, 0.10513111062516, 0
303, 0.16798845677856, 0.23209166130796, 0
304, 0.16184486318148, 0.2773879095339, 0
305, 0.6490286771985, -0.20406502701059, 0
306, 0.62435390646411, -0.18813637565022, 0
307, 0.17215799479189, 0.016053012259151, 0
308, 0.94879531181967, -0.19965444187223, 0
309, 0.89734390546406, -0.22396884187065, 0
310, 0.87312747775472, -0.12397880360107, 0
311, 0.7664691094931, 0.048194899969143, 0
312, 0.74084773574175, 0.18258701099825, 0
313, 0.72167164790411, 0.18441358501594, 0
314, 0.82469036610084, -0.10035046862611, 0
315, 0.82599910573643, -0.12326362092147, 0
316, 0.94870400862081, -0.2247346346639, 0
317, 0.15273592408044, -0.11289027010249, 0
318, 0.18027681404948, -0.095786036399013, 0
319, 0.17883765710918, -0.13107631523228, 0
320, 0.58584128740874, 0.23133127650978, 0
321, 0.60327950525013, 0.25644136269229, 0
322, 0.62244146720245, 0.2304558837692, 0
323, 0.19200292149571, 0.17612135833776, 0
324, 0.14019991144478, -0.0086213143554215, 0
325, 0.13527574561007, 0.27602396127876, 0
326, 0.78233598480621, -0.099124842977323, 0
327, 0.7734691509287, -0.070722253600133, 0
328, 0.8009291754108, -0.080684513959463, 0
329, 0.81977803900645, 0.057870260969394, 0
330, 0.84048257725145, 0.033325108764492, 0
331, 0.80569628079762, 0.029473884561462, 0
332, 0.9233862599258, -0.14923733477322, 0
333, 0.84466718189917, -0.24830369745761, 0
334, 0.97415019961602, -0.099473279101259, 0
335, 0.84576305604092, -0.2226889470457, 0
336, 0.50085709614865, -0.25648836640053, 0
337, 0.52529956682439, -0.27773983229167, 0
338, 0.47559728647912, -0.27831909983125, 0
339, 0.5004551958355, -0.27815628506869, 0
340, 0.026231406358675, -0.13853080858282, 0
341, 0.052176753065556, -0.16531704439366, 0
342, 0.23970048239307, -0.24214784047125, 0
343, 0.026098269764246, -0.16572352842331, 0
344, 0.027561697288536, -0.02894729740819, 0
345, 0.054163821364912, -0.057494110391764, 0
346, 0.026731340033978, -0.083990097564435, 0
347, 0.027117700294497, -0.05653246452509, 0
348, 0.94813701684286, 0.22502368114928, 0
349, 0.97422731910138, 0.24974463164031, 0
350, 0.97397094892385, 0.19937638808186, 0
351, 0.9740834198022, 0.22454564254699, 0
352, 0.79142130767406, 0.27570888537475, 0
353, 0.76486082714289, 0.25146992472669, 0
354, 0.73807480328884, 0.27551374364919, 0
355, 0.76482085696146, 0.27567917460523, 0
356, 0.028473099410348, 0.026607327783475, 0
357, 0.056041999268208, -0.0025570219604704, 0
358, 0.028025749436005, -0.0012468033038562, 0
359, 0.37774391090474, -0.19983437894258, 0
360, 0.050955592568841, -0.27317211321883, 0
361, 0.37404228115277, -0.27517424447034, 0
362, 0.34772375943805, -0.2739532614375, 0
363, 0.8444275967709, 0.27554848963762, 0
364, 0.81765794207507, 0.25134192008065, 0
365, 0.81795348764422, 0.27565115541245, 0
366, 0.97365693928915, 0.099634721142253, 0
367, 0.94746990158193, 0.1254227580677, 0
368, 0.97380219707344, 0.14941655040859, 0
369, 0.97372899338947, 0.12451982035472, 0
370, 0.68339597976984, 0.27504451900882, 0
371, 0.65408699568567, 0.25076624009133, 0
372, 0.62843343289194, 0.27670922147272, 0
373, 0.65558116093001, 0.27559341693175, 0
374, 0.73420650153326, -0.27264992724245, 0
375, 0.76321913413275, -0.24553857816772, 0
376, 0.92285441391763, -0.24955360074899, 0
377, 0.76202138552502, -0.27286204843355, 0
378, 0.94716538758606, 0.0757266891648, 0
379, 0.97350835318818, 0.049851223527085, 0
380, 0.97357919344041, 0.074740215142768, 0
381, 0.97438749257882, -0.20003789524709, 0
382, 0.79617314127837, -0.19424917301931, 0
383, 0.9232452245721, -0.19926845471561, 0
384, 0.1900316974987, 0.23914420506756, 0
385, 0.2548171050301, 0.1512491331512, 0
386, 0.18650530303685, 0.13665205919099, 0
387, 0.077416739486811, -0.24579400810397, 0
388, 0.32103043653438, -0.27285722226637, 0
389, 0.29943226750935, -0.18424986012198, 0
390, 0.97375517240259, -0.049422080034168, 0
391, 0.94707938228915, -0.024231804959365, 0
392, 0.97347957894191, 0.00022508893099332, 0
393, 0.97358237054973, -0.024580524289935, 0
394, 0.058840238504641, 0.11031687660141, 0
395, 0.029165805922463, 0.082920730293488, 0
396, 0.029301720262768, 0.13946595390564, 0
397, 0.02932522414963, 0.11124096686346, 0
398, 0.052778102748477, -0.11153445597657, 0
399, 0.026433747285296, -0.11129227859381, 0
400, 0.94686262266019, 0.025879327058155, 0
401, 0.97346327755533, 0.025036277348042, 0
402, 0.22577032241231, 0.25495039938347, 0
403, 0.27643444209107, 0.20731146689128, 0
404, 0.10802445087266, 0.27502293592847, 0
405, 0.3087882118924, 0.26496112360285, 0
406, 0.87027593691278, 0.25086182260819, 0
407, 0.89698592557497, 0.27529060805872, 0
408, 0.87076642275306, 0.27542447527365, 0
409, 0.057811764073561, 0.053442636194599, 0
410, 0.028867050976995, 0.054694530108011, 0
411, 0.40134445606153, -0.22948085186382, 0
412, 0.21236860830742, -0.21303609393797, 0
413, 0.13009175068351, -0.24466541579723, 0
414, 0.94775347689054, 0.1751365861315, 0
415, 0.97387989701724, 0.17436399816974, 0
416, 0.24549044829394, 0.091788887023408, 0
417, 0.21070846621412, 0.27869932489485, 0
418, 0.71115123452218, 0.2503390419824, 0
419, 0.71095733075218, 0.27522088297594, 0
420, 0.34872951764661, -0.24776126013298, 0
421, 0.29385998915003, -0.27199041990902, 0
422, 0.82180292672966, -0.19614918716608, 0
423, 0.84837936503488, -0.17246584770139, 0
424, 0.78966075487788, -0.27329927313966, 0
425, 0.70689999364217, -0.24543446811709, 0
426, 0.67944328677863, -0.27383080778989, 0
427, 0.70666916637116, -0.27298716632027, 0
428, 0.94793456374008, -0.074371918449101, 0
429, 0.97395958501908, -0.074417800668862, 0
430, 0.87237552907262, -0.19821999567641, 0
431, 0.94863187074125, -0.24982206744602, 0
432, 0.89791692159698, -0.12413865483775, 0
433, 0.9742945555499, -0.12462064813743, 0
434, 0.94884973722816, -0.1745777823907, 0
435, 0.80069006825545, -0.16971593464597, 0
436, 0.55069143934593, -0.25444143472717, 0
437, 0.57549085306313, -0.27684303013218, 0
438, 0.55033080072476, -0.277260941418, 0
439, 0.60101504808739, -0.25300407900327, 0
440, 0.62654386779942, -0.27590001726872, 0
441, 0.60089316470369, -0.27644787994845, 0
442, 0.65251048947423, -0.25018340538698, 0
443, 0.65274286316807, -0.27500758638674, 0
444, 0.3221728024383, -0.24547694103485, 0
445, 0.40255459747753, -0.20617849235289, 0
446, 0.37601821693373, -0.22529201937515, 0
447, 0.053593367057951, 0.27408958601914, 0
448, 0.027445100679595, 0.24783555373127, 0
449, 0.026742224274486, 0.27397309475226, 0
450, 0.082708227612688, 0.2486070888028, 0
451, 0.08076674061601, 0.27440938876258, 0
452, 0.13042322884369, -0.18980529180215, 0
453, 0.1834724760576, -0.27161878651354, 0
454, 0.078052793435171, -0.19168875247767, 0
455, 0.18448250557557, -0.21447984050836, 0
456, 0.37480880356199, -0.25031023121907, 0
457, 0.42528122508503, -0.27739509822615, 0
458, 0.45091274447437, -0.25647670923109, 0
459, 0.45050861898405, -0.27807548716878, 0
460, 0.26756183616839, -0.24252483491211, 0
461, 0.077821280186958, -0.21869585970887, 0
462, 0.058369688150508, 0.16692896441131, 0
463, 0.028641354984815, 0.19465642629593, 0
464, 0.029066682681573, 0.16725774264376, 0
465, 0.57642819975694, 0.27696286820542, 0
466, 0.60257755086949, 0.27765184357395, 0
467, 0.67900235151978, -0.21922807696771, 0
468, 0.73494117912156, -0.21538348538985, 0
469, 0.70667745875939, -0.21665776546873, 0
470, 0.94863701596083, -0.27490915704231, 0
471, 0.87092267743465, -0.24884207646059, 0
472, 0.94878011535326, 0.27501274865406, 0
473, 0.97441841854287, 0.27488047311247, 0
474, 0.056295658383377, 0.22155868281374, 0
475, 0.028084774847319, 0.22142858339745, 0
476, 0.84365236475618, 0.22671598724832, 0
477, 0.8171182172134, 0.20290611027306, 0
478, 0.79117928781616, 0.22741024680087, 0
479, 0.81739592286317, 0.22709718903516, 0
480, 0.078431855646142, -0.13825952044165, 0
481, 0.079823187391679, -0.085392330183935, 0
482, 0.10465666230206, -0.11219058452232, 0
483, 0.078917604316399, -0.11183970647185, 0
484, 0.10284104242774, -0.27263179183043, 0
485, 0.35022896122152, -0.22118891124716, 0
486, 0.085565673492445, 0.023712503038235, 0
487, 0.082536135716422, -0.031604986294985, 0
488, 0.084067261699901, -0.0041389403199778, 0
489, 0.38022469532862, -0.17326279874962, 0
490, 0.23870421276213, -0.27123483500356, 0
491, 0.32986626124853, -0.15841101950189, 0
492, 0.35541348918818, -0.16532575435915, 0
493, 0.9233925928341, -0.17422098629134, 0
494, 0.84387803091782, -0.27410719425981, 0
495, 0.74441919337619, -0.030046969109095, 0
496, 0.78262291146285, -0.04005250657756, 0
497, 0.76045919798944, -0.051637809159365, 0
498, 0.73893795214644, 0.22710442018397, 0
499, 0.76522023234697, 0.20401271127443, 0
500, 0.76504706348093, 0.22752315385812, 0
501, 0.10778821084842, -0.060240669796467, 0
502, 0.08107804843666, -0.058682904088885, 0
503, 0.92315356639415, -0.12429652570541, 0
504, 0.9743547787503, -0.22507934453794, 0
505, 0.9226623090524, -0.099355437052684, 0
506, 0.87305667598015, -0.17324936923542, 0
507, 0.47748652218309, -0.19855285871884, 0
508, 0.45189366056718, -0.21578129572532, 0
509, 0.4278633615267, -0.19152253949635, 0
510, 0.45225797597317, -0.19764357780164, 0
511, 0.92248571687687, 0.2503090612021, 0
512, 0.92295083576139, 0.27515216557415, 0
513, 0.21099420685404, -0.27132957518729, 0
514, 0.40419085628596, -0.18250032996912, 0
515, 0.89319904618241, 0.028045484576846, 0
516, 0.92046224202888, 0.051873387585573, 0
517, 0.91999763575975, 0.0015390721453838, 0
518, 0.92013187241182, 0.026823243436754, 0
519, 0.24151667390277, 0.063197410665474, 0
520, 0.11320346549762, 0.22393445742507, 0
521, 0.31159978099747, 0.22550915519708, 0
522, 0.25799093504012, 0.27296921835099, 0
523, 0.2475682844031, -0.049381573583133, 0
524, 0.14656041170415, 0.20035280295122, 0
525, 0.27700791112049, 0.084281614048495, 0
526, 0.7249472450509, 0.042510529062617, 0
527, 0.68214776127967, 0.060136415032226, 0
528, 0.69009523383646, 0.088164778674208, 0
529, 0.76884474339434, -0.19089172111323, 0
530, 0.82582140582855, -0.14698218188852, 0
531, 0.76504284405428, -0.21796682384865, 0
532, 0.088043052646425, 0.080531947196902, 0
533, 0.13776329684661, 0.25186691266175, 0
534, 0.086929650992991, 0.05194331851342, 0
535, 0.89448355272775, 0.077867968276325, 0
536, 0.92102294548624, 0.10154989148763, 0
537, 0.92077685460567, 0.076753603941179, 0
538, 0.86780343881652, 0.054659930295042, 0
539, 0.86353262252626, 0.003774662266532, 0
540, 0.86620664010963, 0.029926982560355, 0
541, 0.89500914171205, 0.12720503045453, 0
542, 0.92141236162473, 0.15108008146998, 0
543, 0.92122746359777, 0.12631560972932, 0
544, 0.17659932574698, 0.20761055594965, 0
545, 0.2103333959649, 0.068901089978114, 0
546, 0.26860799359498, 0.24177196271508, 0
547, 0.23059171461386, 0.0082191725916302, 0
548, 0.5496045761888, 0.25205387701381, 0
549, 0.51766744122098, 0.27625278755962, 0
550, 0.54841115394891, 0.27626024886115, 0
551, 0.8954488232986, 0.17654554459904, 0
552, 0.92184558759935, 0.20065080167754, 0
553, 0.92161539833781, 0.17585490807961, 0
554, 0.92111457913254, -0.049198545226922, 0
555, 0.89325487013851, -0.023598303771557, 0
556, 0.92037604440973, -0.023875481701787, 0
557, 0.33749735525282, 0.2600860828198, 0
558, 0.66951457199221, 0.034165454499877, 0
559, 0.46854034547531, 0.28675298449966, 0
560, 0.49254724612615, 0.28172113004679, 0
561, 0.89606133186047, -0.074480692120316, 0
562, 0.92194638869315, -0.074348729640503, 0
563, 0.21501395242127, -0.07693903591477, 0
564, 0.24592416262203, -0.11037784617963, 0
565, 0.24595508642807, -0.07842584843111, 0
566, 0.18412954381107, -0.18572298952458, 0
567, 0.15721686377736, -0.21592473312855, 0
568, 0.29684417465872, -0.21461032931924, 0
569, 0.24190159915771, -0.1811040364346, 0
570, 0.051789301232333, -0.21930457825228, 0
571, 0.051463524268054, -0.24628757439178, 0
572, 0.84286653875642, 0.080178104167613, 0
573, 0.86867514380842, 0.10352937218589, 0
574, 0.86844799953106, 0.079066067387573, 0
575, 0.60875874498057, 0.17202217193425, 0
576, 0.64579211859122, 0.19621525289409, 0
577, 0.67121904615451, 0.15552568480431, 0
578, 0.64036956821083, 0.16602092779376, 0
579, 0.62598818318086, -0.22890221064821, 0
580, 0.65149452958708, -0.22605371873133, 0
581, 0.29509828449202, -0.24366791024844, 0
582, 0.27566003229059, -0.14657141363802, 0
583, 0.3035350290082, -0.15181908480219, 0
584, 0.71532010175049, 0.20196936513902, 0
585, 0.68292219592799, 0.22209536928288, 0
586, 0.71224862036311, 0.22549662627958, 0
587, 0.41961111701602, 0.28772474973034, 0
588, 0.44414655132717, 0.28886687202897, 0
589, 0.84259624558787, 0.12891305839796, 0
590, 0.86900945868647, 0.15265978879357, 0
591, 0.86882290425313, 0.1280792833695, 0
592, 0.60075536406011, -0.20702670273995, 0
593, 0.57627916197969, -0.18107818093997, 0
594, 0.60096945356553, -0.1844561228021, 0
595, 0.15069565768575, 0.10677812469523, 0
596, 0.11803507945177, 0.078929853625236, 0
597, 0.39979888535091, -0.27637284743768, 0
598, 0.025687740689201, -0.24686301538947, 0
599, 0.15620225391586, -0.27197874978438, 0
600, 0.82420128437278, -0.17132254443758, 0
601, 0.89809783063801, -0.17380095062074, 0
602, 0.94865206163841, -0.12446053670873, 0
603, 0.84904248958862, -0.12374864411316, 0
604, 0.088872538363146, 0.13839851732476, 0
605, 0.11930977408681, 0.10835668011095, 0
606, 0.088756103799811, 0.10940998357914, 0
607, 0.52646606222719, -0.18697856086835, 0
608, 0.50177303355244, -0.21436968380538, 0
609, 0.502410478755, -0.19408696828513, 0
610, 0.75020011698264, 0.0093220860599528, 0
611, 0.72455832631192, -0.007478614377413, 0
612, 0.56865635519948, 0.20324217407373, 0
613, 0.57739989385362, 0.17402902246832, 0
614, 0.39492282593127, 0.2836003964478, 0
615, 0.78378024044049, -0.14335692490917, 0
616, 0.78429766363019, -0.11963081667919, 0
617, 0.24657950527835, 0.24863162755454, 0
618, 0.25256010123751, -0.022104498370622, 0
619, 0.2828251777512, 0.2691943327712, 0
620, 0.21448773842671, 0.098512217013095, 0
621, 0.55108579999562, -0.20750782267125, 0
622, 0.5510252189035, -0.18142243399354, 0
623, 0.5571745504057, 0.22848858651129, 0
624, 0.086638530352809, 0.19518238158384, 0
625, 0.084695517795105, 0.22229249882653, 0
626, 0.1793717861265, 0.073492579502055, 0
627, 0.17585523163313, 0.044377370263837, 0
628, 0.20683346994745, 0.25952774973587, 0
629, 0.16375884365697, 0.25486000919947, 0
630, 0.23451777529774, 0.22627587212718, 0
631, 0.2007085614077, 0.22158725051115, 0
632, 0.2552636696452, 0.21654268730299, 0
633, 0.15220472222387, 0.13805391830755, 0
634, 0.11629642143032, 0.05005809239711, 0
635, 0.025990888190407, -0.19289353660321, 0
636, 0.13044535509195, -0.21710132096104, 0
637, 0.77802640530641, -0.16777246463467, 0
638, 0.84916215609221, -0.14792008273292, 0
639, 0.89676646693885, -0.27459947933214, 0
640, 0.89604629489705, 0.2258989972055, 0
641, 0.92212884543886, 0.22547163767568, 0
642, 0.22686181912303, 0.16185466501293, 0
643, 0.088181365496319, 0.16714447521996, 0
644, 0.29068416691315, 0.23429230117667, 0
645, 0.14140579080433, 0.22699078556415, 0
646, 0.24115889529469, 0.19095011678031, 0
647, 0.10416883659214, -0.16419124059498, 0
648, 0.078208142574586, -0.16485722650106, 0
649, 0.84708384517112, -0.1973816758328, 0
650, 0.92277344902357, -0.2747654733934, 0
651, 0.076773559640843, -0.27290361649848, 0
652, 0.24074876801014, -0.21231823907362, 0
653, 0.65121161561907, 0.22471979528466, 0
654, 0.72587523724793, 0.079199830348226, 0
655, 0.16045622426901, -0.065532451833992, 0
656, 0.13149691188191, -0.087965776676663, 0
657, 0.13720282941706, -0.035864520111775, 0
658, 0.13423240559227, -0.062394377480478, 0
659, 0.8695490905099, 0.2017726959838, 0
660, 0.86988298336167, 0.22631275084615, 0
661, 0.12957697379077, -0.13726587506425, 0
662, 0.15602944053112, -0.16104141081917, 0
663, 0.130065024331, -0.16306819895747, 0
664, 0.19195797469409, -0.042938894236679, 0
665, 0.23396240395776, 0.27631008976221, 0
666, 0.20596660717522, 0.040287921839364, 0
667, 0.20131373786573, 0.012316720453974, 0
668, 0.79100147585828, -0.24662562332732, 0
669, 0.71151320647029, 0.16809951084047, 0
670, 0.70257799013946, 0.14374988281885, 0
671, 0.73682380896376, 0.16096346480396, 0
672, 0.12959305487343, -0.11255610064974, 0
673, 0.84302006186317, 0.17792621530326, 0
674, 0.86925665885666, 0.17722660442989, 0
675, 0.86800591225616, -0.049824594979413, 0
676, 0.83591595306694, -0.024826061590376, 0
677, 0.86530116921746, -0.023634467334371, 0
678, 0.47639173981431, -0.23621117796024, 0
679, 0.52608314719048, -0.23321294203812, 0
680, 0.50128578842462, -0.23517495179094, 0
681, 0.18701058946421, 0.25817637957199, 0
682, 0.18689523817741, -0.070290888742691, 0
683, 0.89819258642244, -0.14892080112143, 0
684, 0.79300507763543, -0.22011861285574, 0
685, 0.21126801926089, -0.15058930095723, 0
686, 0.18258244419003, -0.1573295759383, 0
687, 0.18277816599414, 0.10387228221394, 0
688, 0.81635397521258, 0.1543246067527, 0
689, 0.79057954549831, 0.17963868014097, 0
690, 0.8167567500039, 0.17869583859164, 0
691, 0.42640393564661, -0.23315053230724, 0
692, 0.45139910251422, -0.23556493665047, 0
693, 0.84545020979244, -0.076057142669988, 0
694, 0.87215881797654, -0.099539414541809, 0
695, 0.87043619736744, -0.074959121906983, 0
696, 0.57591298785139, -0.2303022820025, 0
697, 0.60091941057211, -0.22981985879281, 0
698, 0.81807873154985, -0.24757436608801, 0
699, 0.3523757449573, -0.19388584591751, 0
700, 0.26909876326944, -0.21276824743192, 0
701, 0.76309864891608, 0.15740984084248, 0
702, 0.78907027962875, 0.13066642698527, 0
703, 0.76107677155415, 0.13252688216125, 0
704, 0.81621905003824, -0.055433938973374, 0
705, 0.82188253228288, -0.078037729870794, 0
706, 0.79587455673354, -0.0049833184709437, 0
707, 0.80778126485789, -0.031126422869747, 0
708, 0.21814748539043, 0.20420444945696, 0
709, 0.29639125477125, 0.19821135125775, 0
710, 0.81647159248816, 0.10496096769849, 0
711, 0.8161378750197, 0.12970600086263, 0
712, 0.5509431611387, -0.23136149636723, 0
713, 0.81765544747332, 0.080597595028729, 0
714, 0.76487879972819, 0.18090810487114, 0
715, 0.10401426666946, -0.21799770551227, 0
716, 0.24331414157173, -0.14745899148192, 0
717, 0.77973211665163, 0.020225031000524, 0
718, 0.32632372815504, -0.18864220962497, 0
719, 0.76098158182947, 0.077812079147496, 0
720, 0.18704504311992, 0.2786825110513, 0
721, 0.69993232205085, 0.015356955245197, 0
722, 0.36945449223647, 0.27619418613812, 0
723, 0.64281358977439, -0.18901575853689, 0
724, 0.14850970661359, 0.076719819698191, 0
725, 0.15196650912167, 0.17040801414367, 0
726, 0.92303619004836, -0.22438196292479, 0
727, 0.97440287537399, -0.17492355958423, 0
728, 0.17143784735829, -0.11315826346094, 0
729, 0.60397620798333, 0.23872974865642, 0
730, 0.25994510241295, 0.0040385700808007, 0
731, 0.78475745064169, -0.083511615446692, 0
732, 0.82216292892203, 0.039645554279147, 0
733, 0.97433125515354, -0.25009053599066, 0
734, 0.97434128854185, -0.2750504677571, 0
******* E L E M E N T S *************
*ELEMENT, type=T3D2, ELSET=Line1
1, 1, 10
2, 10, 18
3, 18, 11
4, 11, 19
5, 19, 12
6, 12, 20
7, 20, 13
8, 13, 21
9, 21, 14
10, 14, 22
11, 22, 15
12, 15, 23
13, 23, 16
14, 16, 24
15, 24, 17
16, 17, 2
*ELEMENT, type=T3D2, ELSET=Line2
17, 2, 25
18, 25, 28
19, 28, 26
20, 26, 29
21, 29, 27
22, 27, 3
*ELEMENT, type=T3D2, ELSET=Line3
23, 3, 30
24, 30, 38
25, 38, 31
26, 31, 39
27, 39, 32
28, 32, 40
29, 40, 33
30, 33, 41
31, 41, 34
32, 34, 42
33, 42, 35
34, 35, 43
35, 43, 36
36, 36, 44
37, 44, 37
38, 37, 4
*ELEMENT, type=T3D2, ELSET=Line4
39, 4, 45
40, 45, 57
41, 57, 46
42, 46, 58
43, 58, 47
44, 47, 59
45, 59, 48
46, 48, 60
47, 60, 49
48, 49, 61
49, 61, 50
50, 50, 62
51, 62, 51
52, 51, 63
53, 63, 52
54, 52, 64
55, 64, 53
56, 53, 65
57, 65, 54
58, 54, 66
59, 66, 55
60, 55, 67
61, 67, 56
62, 56, 5
*ELEMENT, type=T3D2, ELSET=Line5
63, 5, 68
64, 68, 76
65, 76, 69
66, 69, 77
67, 77, 70
68, 70, 78
69, 78, 71
70, 71, 79
71, 79, 72
72, 72, 80
73, 80, 73
74, 73, 81
75, 81, 74
76, 74, 82
77, 82, 75
78, 75, 6
*ELEMENT, type=T3D2, ELSET=Line6
79, 6, 83
80, 83, 86
81, 86, 84
82, 84, 87
83, 87, 85
84, 85, 7
*ELEMENT, type=T3D2, ELSET=Line7
85, 7, 88
86, 88, 96
87, 96, 89
88, 89, 97
89, 97, 90
90, 90, 98
91, 98, 91
92, 91, 99
93, 99, 92
94, 92, 100
95, 100, 93
96, 93, 101
97, 101, 94
98, 94, 102
99, 102, 95
100, 95, 8
*ELEMENT, type=T3D2, ELSET=Line8
101, 8, 103
102, 103, 114
103, 114, 104
104, 104, 115
105, 115, 105
106, 105, 116
107, 116, 106
108, 106, 117
109, 117, 107
110, 107, 118
111, 118, 108
112, 108, 119
113, 119, 109
114, 109, 120
115, 120, 110
116, 110, 121
117, 121, 111
118, 111, 122
119, 122, 112
120, 112, 123
121, 123, 113
122, 113, 1
*ELEMENT, type=T3D2, ELSET=Line9
123, 9, 124
124, 124, 154
125, 154, 152
126, 152, 155
127, 155, 151
128, 151, 156
129, 156, 150
130, 150, 157
131, 157, 149
132, 149, 158
133, 158, 148
134, 148, 159
135, 159, 147
136, 147, 160
137, 160, 146
138, 146, 161
139, 161, 145
140, 145, 162
141, 162, 144
142, 144, 163
143, 163, 143
144, 143, 164
145, 164, 142
146, 142, 165
147, 165, 141
148, 141, 166
149, 166, 140
150, 140, 167
151, 167, 139
152, 139, 168
153, 168, 138
154, 138, 169
155, 169, 137
156, 137, 170
157, 170, 136
158, 136, 171
159, 171, 135
160, 135, 172
161, 172, 134
162, 134, 173
163, 173, 133
164, 133, 174
165, 174, 132
166, 132, 175
167, 175, 131
168, 131, 176
169, 176, 130
170, 130, 177
171, 177, 129
172, 129, 178
173, 178, 128
174, 128, 179
175, 179, 127
176, 127, 180
177, 180, 126
178, 126, 181
179, 181, 125
180, 125, 182
181, 182, 153
182, 153, 9
*ELEMENT, type=CPS4, ELSET=Surface1
183, 57, 46, 504, 733
184, 309, 293, 430, 290
185, 383, 493, 601, 293
186, 37, 734, 470, 44
187, 189, 338, 339, 336
188, 336, 339, 337, 194
189, 339, 26, 29, 337
190, 338, 28, 26, 339
191, 121, 111, 343, 340
192, 340, 343, 341, 229
193, 187, 223, 412, 455
194, 120, 346, 347, 109
195, 109, 347, 344, 119
196, 347, 345, 231, 344
197, 346, 232, 345, 347
198, 251, 350, 351, 348
199, 348, 351, 349, 252
200, 351, 55, 67, 349
201, 350, 66, 55, 351
202, 80, 354, 355, 72
203, 72, 355, 352, 79
204, 355, 353, 256, 352
205, 354, 255, 353, 355
206, 231, 357, 358, 344
207, 344, 358, 108, 119
208, 358, 356, 118, 108
209, 357, 220, 356, 358
210, 23, 16, 362, 388
211, 18, 11, 651, 360
212, 20, 13, 453, 599
213, 456, 185, 411, 446
214, 79, 352, 365, 71
215, 71, 365, 363, 78
216, 365, 364, 254, 363
217, 352, 256, 364, 365
218, 64, 53, 369, 366
219, 366, 369, 367, 266
220, 369, 368, 248, 367
221, 53, 65, 368, 369
222, 82, 372, 373, 74
223, 74, 373, 370, 81
224, 373, 371, 257, 370
225, 372, 259, 371, 373
226, 316, 308, 383, 726
227, 33, 377, 374, 40
228, 377, 375, 288, 374
229, 308, 434, 493, 383
230, 267, 379, 380, 378
231, 378, 380, 366, 266
232, 380, 52, 64, 366
233, 379, 63, 52, 380
234, 291, 433, 602, 287
235, 376, 726, 309, 286
236, 494, 333, 698, 285
237, 43, 639, 289, 35
238, 642, 210, 202, 385
239, 323, 386, 210, 642
240, 323, 725, 633, 386
241, 413, 241, 567, 636
242, 17, 2, 457, 597
243, 191, 389, 583, 582
244, 651, 484, 184, 387
245, 61, 50, 393, 390
246, 390, 393, 391, 273
247, 393, 392, 272, 391
248, 50, 62, 392, 393
249, 203, 396, 397, 394
250, 394, 397, 395, 217
251, 397, 106, 117, 395
252, 396, 116, 106, 397
253, 229, 398, 399, 340
254, 340, 399, 110, 121
255, 399, 346, 120, 110
256, 398, 232, 346, 399
257, 272, 392, 401, 400
258, 400, 401, 379, 267
259, 401, 51, 63, 379
260, 392, 62, 51, 401
261, 210, 620, 416, 202
262, 386, 633, 595, 687
263, 644, 405, 619, 546
264, 402, 665, 417, 628
265, 253, 407, 408, 406
266, 406, 408, 363, 254
267, 408, 70, 78, 363
268, 407, 77, 70, 408
269, 117, 107, 410, 395
270, 395, 410, 409, 217
271, 410, 356, 220, 409
272, 107, 118, 356, 410
273, 24, 17, 597, 361
274, 21, 14, 490, 513
275, 190, 454, 648, 341
276, 461, 715, 222, 454
277, 248, 368, 415, 414
278, 414, 415, 350, 251
279, 415, 54, 66, 350
280, 368, 65, 54, 415
281, 646, 218, 403, 632
282, 323, 544, 524, 725
283, 384, 209, 628, 681
284, 211, 402, 628, 209
285, 81, 370, 419, 73
286, 73, 419, 354, 80
287, 419, 418, 255, 354
288, 370, 257, 418, 419
289, 568, 186, 718, 389
290, 571, 387, 461, 570
291, 420, 456, 446, 485
292, 513, 490, 342, 223
293, 650, 376, 286, 639
294, 310, 694, 271, 603
295, 422, 600, 435, 382
296, 335, 649, 422, 284
297, 196, 426, 427, 425
298, 425, 427, 374, 288
299, 427, 32, 40, 374
300, 426, 39, 32, 427
301, 60, 49, 429, 334
302, 334, 429, 428, 269
303, 429, 390, 273, 428
304, 49, 61, 390, 429
305, 683, 432, 310, 295
306, 44, 470, 650, 36
307, 470, 431, 376, 650
308, 433, 334, 269, 602
309, 290, 430, 649, 335
310, 48, 60, 334, 433
311, 668, 684, 531, 375
312, 47, 59, 291, 727
313, 194, 337, 438, 436
314, 436, 438, 437, 193
315, 438, 27, 3, 437
316, 337, 29, 27, 438
317, 193, 437, 441, 439
318, 439, 441, 440, 195
319, 441, 30, 38, 440
320, 437, 3, 30, 441
321, 195, 440, 443, 442
322, 442, 443, 426, 196
323, 443, 31, 39, 426
324, 440, 38, 31, 443
325, 597, 457, 183, 185
326, 342, 460, 700, 652
327, 699, 359, 489, 492
328, 388, 362, 420, 444
329, 102, 95, 449, 447
330, 447, 449, 448, 206
331, 449, 103, 114, 448
332, 95, 8, 103, 449
333, 101, 94, 451, 404
334, 404, 451, 450, 207
335, 451, 447, 206, 450
336, 94, 102, 447, 451
337, 240, 569, 716, 685
338, 452, 221, 662, 663
339, 453, 513, 223, 187
340, 15, 23, 388, 421
341, 454, 222, 647, 648
342, 599, 453, 187, 241
343, 188, 570, 190, 635
344, 700, 568, 389, 191
345, 2, 25, 459, 457
346, 457, 459, 458, 183
347, 459, 338, 189, 458
348, 25, 28, 338, 459
349, 715, 636, 452, 222
350, 16, 24, 361, 362
351, 19, 12, 224, 484
352, 652, 700, 191, 569
353, 205, 463, 464, 462
354, 462, 464, 396, 203
355, 464, 105, 116, 396
356, 463, 115, 105, 464
357, 82, 75, 466, 372
358, 372, 466, 321, 259
359, 466, 465, 192, 321
360, 75, 6, 465, 466
361, 288, 468, 469, 425
362, 425, 469, 467, 196
363, 469, 129, 177, 467
364, 468, 178, 129, 469
365, 435, 292, 615, 637
366, 698, 284, 684, 668
367, 285, 698, 668, 424
368, 530, 315, 294, 292
369, 76, 472, 473, 68
370, 68, 473, 56, 5
371, 473, 349, 67, 56
372, 472, 252, 349, 473
373, 115, 463, 475, 104
374, 104, 475, 448, 114
375, 475, 474, 206, 448
376, 463, 205, 474, 475
377, 256, 478, 479, 364
378, 364, 479, 476, 254
379, 479, 477, 249, 476
380, 478, 242, 477, 479
381, 228, 482, 483, 480
382, 480, 483, 398, 229
383, 483, 481, 232, 398
384, 482, 233, 481, 483
385, 445, 238, 509, 514
386, 359, 445, 514, 489
387, 361, 597, 185, 456
388, 221, 566, 686, 662
389, 231, 487, 488, 357
390, 357, 488, 486, 220
391, 214, 324, 657, 234
392, 385, 202, 219, 198
393, 170, 491, 492, 136
394, 136, 492, 489, 171
395, 421, 388, 444, 581
396, 184, 413, 636, 715
397, 733, 504, 316, 431
398, 639, 286, 471, 289
399, 638, 603, 315, 530
400, 35, 289, 494, 42
401, 278, 496, 497, 327
402, 327, 497, 126, 180
403, 497, 495, 181, 126
404, 496, 280, 495, 497
405, 243, 499, 500, 498
406, 498, 500, 353, 255
407, 500, 478, 256, 353
408, 499, 242, 478, 500
409, 232, 481, 502, 345
410, 345, 502, 487, 231
411, 502, 501, 230, 487
412, 481, 233, 501, 502
413, 381, 727, 434, 308
414, 315, 314, 277, 294
415, 493, 332, 683, 601
416, 431, 316, 726, 376
417, 172, 509, 510, 134
418, 134, 510, 507, 173
419, 510, 508, 239, 507
420, 509, 238, 508, 510
421, 252, 472, 512, 511
422, 511, 512, 407, 253
423, 512, 69, 77, 407
424, 472, 76, 69, 512
425, 172, 135, 514, 509
426, 10, 18, 360, 225
427, 135, 171, 489, 514
428, 274, 517, 518, 515
429, 515, 518, 516, 268
430, 518, 400, 267, 516
431, 517, 272, 400, 518
432, 403, 644, 546, 632
433, 645, 303, 629, 533
434, 557, 89, 97, 405
435, 404, 325, 93, 101
436, 521, 557, 405, 644
437, 323, 642, 646, 708
438, 654, 719, 297, 296
439, 528, 152, 154, 527
440, 584, 313, 312, 243
441, 684, 382, 529, 531
442, 375, 531, 468, 288
443, 531, 529, 178, 468
444, 286, 309, 290, 471
445, 207, 533, 325, 404
446, 486, 534, 409, 220
447, 534, 532, 217, 409
448, 201, 213, 140, 166
449, 268, 516, 537, 535
450, 535, 537, 536, 265
451, 537, 378, 266, 536
452, 516, 267, 378, 537
453, 279, 539, 540, 330
454, 330, 540, 538, 264
455, 540, 515, 268, 538
456, 539, 274, 515, 540
457, 266, 367, 543, 536
458, 536, 543, 541, 265
459, 543, 542, 247, 541
460, 367, 248, 542, 543
461, 547, 212, 618, 730
462, 604, 298, 300, 643
463, 619, 90, 98, 522
464, 212, 235, 523, 618
465, 86, 549, 550, 83
466, 83, 550, 465, 6
467, 550, 548, 192, 465
468, 549, 159, 548, 550
469, 247, 542, 553, 551
470, 551, 553, 552, 250
471, 553, 414, 251, 552
472, 542, 248, 414, 553
473, 273, 391, 556, 554
474, 554, 556, 555, 276
475, 556, 517, 274, 555
476, 391, 272, 517, 556
477, 722, 614, 88, 96
478, 557, 521, 163, 144
479, 557, 722, 96, 89
480, 642, 385, 218, 646
481, 9, 153, 558, 124
482, 124, 558, 527, 154
483, 526, 721, 611, 610
484, 301, 713, 710, 302
485, 87, 559, 560, 84
486, 84, 560, 549, 86
487, 560, 147, 159, 549
488, 559, 160, 147, 560
489, 269, 428, 562, 505
490, 505, 562, 561, 270
491, 562, 554, 276, 561
492, 428, 273, 554, 562
493, 237, 564, 565, 563
494, 563, 565, 523, 235
495, 565, 138, 168, 523
496, 564, 169, 138, 565
497, 224, 599, 241, 413
498, 222, 452, 663, 647
499, 112, 188, 635, 122
500, 412, 652, 569, 240
501, 223, 342, 652, 412
502, 635, 190, 341, 343
503, 264, 538, 574, 572
504, 572, 574, 573, 262
505, 574, 535, 265, 573
506, 538, 268, 535, 574
507, 156, 151, 578, 575
508, 575, 578, 576, 258
509, 578, 577, 261, 576
510, 151, 155, 577, 578
511, 177, 305, 580, 467
512, 467, 580, 442, 196
513, 580, 579, 195, 442
514, 305, 283, 579, 580
515, 169, 582, 583, 137
516, 137, 583, 491, 170
517, 455, 412, 240, 566
518, 225, 360, 571, 598
519, 257, 585, 586, 418
520, 418, 586, 498, 255
521, 586, 584, 243, 498
522, 585, 261, 584, 586
523, 7, 587, 588, 85
524, 85, 588, 559, 87
525, 588, 146, 160, 559
526, 587, 161, 146, 588
527, 265, 541, 591, 573
528, 573, 591, 589, 262
529, 591, 590, 246, 589
530, 541, 247, 590, 591
531, 175, 593, 594, 131
532, 131, 594, 306, 176
533, 594, 592, 283, 306
534, 593, 282, 592, 594
535, 681, 628, 417, 720
536, 307, 197, 324, 214
537, 730, 618, 139, 167
538, 667, 200, 212, 547
539, 569, 191, 582, 716
540, 484, 224, 413, 184
541, 411, 691, 238, 445
542, 11, 19, 484, 651
543, 293, 601, 506, 430
544, 287, 602, 503, 332
545, 59, 48, 433, 291
546, 506, 295, 638, 423
547, 217, 532, 606, 394
548, 394, 606, 604, 203
549, 307, 214, 200, 667
550, 687, 595, 724, 626
551, 173, 507, 609, 133
552, 133, 609, 607, 174
553, 609, 608, 281, 607
554, 507, 239, 608, 609
555, 181, 495, 611, 125
556, 526, 610, 717, 311
557, 495, 280, 610, 611
558, 258, 612, 613, 575
559, 575, 613, 150, 156
560, 613, 149, 157, 150
561, 612, 158, 149, 613
562, 161, 587, 614, 145
563, 557, 144, 162, 722
564, 533, 629, 304, 325
565, 587, 7, 88, 614
566, 179, 615, 616, 127
567, 127, 616, 326, 180
568, 382, 435, 637, 529
569, 332, 503, 432, 683
570, 618, 523, 168, 139
571, 620, 545, 519, 416
572, 632, 546, 617, 630
573, 519, 199, 213, 201
574, 687, 626, 545, 620
575, 200, 664, 235, 212
576, 199, 547, 730, 213
577, 282, 593, 622, 621
578, 621, 622, 607, 281
579, 622, 132, 174, 607
580, 593, 175, 132, 622
581, 158, 612, 623, 148
582, 148, 623, 548, 159
583, 623, 320, 192, 548
584, 612, 258, 320, 623
585, 143, 163, 521, 709
586, 725, 524, 204, 300
587, 625, 474, 205, 624
588, 450, 206, 474, 625
589, 303, 384, 681, 629
590, 386, 687, 620, 210
591, 405, 97, 90, 619
592, 720, 417, 99, 92
593, 546, 619, 522, 617
594, 201, 166, 141, 525
595, 164, 143, 709, 208
596, 213, 730, 167, 140
597, 627, 307, 667, 666
598, 629, 681, 720, 304
599, 724, 596, 634, 299
600, 567, 455, 566, 221
601, 490, 226, 460, 342
602, 22, 15, 421, 226
603, 113, 225, 598, 123
604, 36, 650, 639, 43
605, 529, 637, 128, 178
606, 637, 615, 179, 128
607, 603, 271, 314, 315
608, 289, 471, 333, 494
609, 430, 506, 423, 649
610, 294, 277, 326, 616
611, 734, 733, 431, 470
612, 253, 640, 641, 511
613, 511, 641, 348, 252
614, 641, 552, 251, 348
615, 640, 250, 552, 641
616, 625, 520, 207, 450
617, 596, 532, 534, 634
618, 643, 462, 203, 604
619, 624, 205, 462, 643
620, 216, 488, 487, 230
621, 709, 521, 644, 403
622, 385, 198, 208, 218
623, 596, 605, 606, 532
624, 362, 361, 456, 420
625, 636, 567, 221, 452
626, 648, 480, 229, 341
627, 647, 228, 480, 648
628, 432, 270, 694, 310
629, 295, 310, 603, 638
630, 727, 291, 287, 434
631, 602, 269, 505, 503
632, 122, 635, 343, 111
633, 581, 444, 186, 568
634, 570, 461, 454, 190
635, 444, 420, 485, 186
636, 634, 534, 486, 215
637, 214, 234, 664, 200
638, 323, 708, 631, 544
639, 524, 645, 520, 204
640, 259, 322, 653, 371
641, 371, 653, 585, 257
642, 653, 576, 261, 585
643, 322, 258, 576, 653
644, 296, 297, 703, 260
645, 526, 311, 719, 654
646, 671, 669, 670, 260
647, 234, 657, 658, 655
648, 655, 658, 656, 236
649, 658, 501, 233, 656
650, 657, 230, 501, 658
651, 254, 476, 660, 406
652, 406, 660, 640, 253
653, 660, 659, 250, 640
654, 476, 249, 659, 660
655, 228, 647, 663, 661
656, 661, 663, 662, 227
657, 123, 598, 188, 112
658, 14, 22, 226, 490
659, 197, 215, 216, 324
660, 544, 303, 645, 524
661, 708, 646, 632, 630
662, 215, 486, 488, 216
663, 725, 300, 298, 633
664, 292, 294, 616, 615
665, 424, 668, 375, 377
666, 726, 383, 293, 309
667, 333, 335, 284, 698
668, 526, 527, 558, 721
669, 312, 313, 669, 671
670, 227, 317, 672, 661
671, 661, 672, 482, 228
672, 672, 656, 233, 482
673, 317, 236, 656, 672
674, 247, 551, 674, 590
675, 590, 674, 673, 246
676, 674, 659, 249, 673
677, 551, 250, 659, 674
678, 274, 539, 677, 555
679, 555, 677, 675, 276
680, 677, 676, 275, 675
681, 539, 279, 676, 677
682, 194, 679, 680, 336
683, 336, 680, 678, 189
684, 680, 608, 239, 678
685, 679, 281, 608, 680
686, 624, 204, 520, 625
687, 304, 720, 92, 100
688, 142, 164, 208, 198
689, 299, 634, 215, 197
690, 236, 318, 682, 655
691, 655, 682, 664, 234
692, 682, 563, 235, 664
693, 318, 237, 563, 682
694, 41, 424, 377, 33
695, 600, 530, 292, 435
696, 504, 381, 308, 316
697, 471, 290, 335, 333
698, 485, 446, 359, 699
699, 566, 240, 685, 686
700, 686, 319, 227, 662
701, 685, 237, 319, 686
702, 202, 416, 525, 219
703, 325, 304, 100, 93
704, 630, 617, 402, 211
705, 627, 299, 197, 307
706, 242, 689, 690, 477
707, 477, 690, 673, 249
708, 690, 688, 246, 673
709, 689, 245, 688, 690
710, 239, 508, 692, 678
711, 678, 692, 458, 189
712, 692, 691, 183, 458
713, 508, 238, 691, 692
714, 271, 694, 695, 693
715, 693, 695, 675, 275
716, 695, 561, 276, 675
717, 694, 270, 561, 695
718, 283, 592, 697, 579
719, 579, 697, 439, 195
720, 697, 696, 193, 439
721, 592, 282, 696, 697
722, 34, 285, 424, 41
723, 46, 58, 381, 504
724, 434, 287, 332, 493
725, 503, 505, 270, 432
726, 360, 651, 387, 571
727, 13, 21, 513, 453
728, 185, 183, 691, 411
729, 186, 485, 699, 718
730, 446, 411, 445, 359
731, 718, 699, 492, 491
732, 226, 421, 581, 460
733, 598, 571, 570, 188
734, 243, 312, 714, 499
735, 701, 703, 702, 245
736, 302, 710, 711, 702
737, 271, 693, 705, 314
738, 314, 705, 328, 277
739, 705, 704, 278, 328
740, 693, 275, 704, 705
741, 279, 706, 707, 676
742, 676, 707, 704, 275
743, 707, 496, 278, 704
744, 706, 280, 496, 707
745, 606, 605, 298, 604
746, 626, 724, 299, 627
747, 643, 300, 204, 624
748, 165, 142, 198, 219
749, 245, 702, 711, 688
750, 688, 711, 589, 246
751, 711, 710, 262, 589
752, 297, 302, 702, 703
753, 194, 436, 712, 679
754, 679, 712, 621, 281
755, 712, 696, 282, 621
756, 436, 193, 696, 712
757, 721, 558, 153, 182
758, 710, 713, 572, 262
759, 713, 329, 264, 572
760, 263, 331, 732, 329
761, 714, 689, 242, 499
762, 701, 245, 689, 714
763, 324, 216, 230, 657
764, 633, 298, 605, 595
765, 545, 666, 199, 519
766, 237, 685, 716, 564
767, 564, 716, 582, 169
768, 460, 581, 568, 700
769, 387, 184, 715, 461
770, 708, 630, 211, 631
771, 595, 605, 596, 724
772, 626, 627, 666, 545
773, 280, 706, 717, 610
774, 296, 260, 670, 244
775, 263, 329, 713, 301
776, 706, 279, 331, 717
777, 577, 670, 669, 261
778, 701, 671, 260, 703
779, 714, 312, 671, 701
780, 1, 10, 225, 113
781, 12, 20, 599, 224
782, 241, 187, 455, 567
783, 389, 718, 491, 583
784, 526, 654, 528, 527
785, 311, 717, 331, 263
786, 719, 301, 302, 297
787, 544, 631, 384, 303
788, 218, 208, 709, 403
789, 416, 519, 201, 525
790, 311, 263, 301, 719
791, 654, 296, 244, 528
792, 722, 162, 145, 614
793, 665, 91, 99, 417
794, 520, 645, 533, 207
795, 176, 306, 723, 130
796, 130, 723, 305, 177
797, 306, 283, 305, 723
798, 666, 667, 547, 199
799, 631, 211, 209, 384
800, 522, 98, 91, 665
801, 284, 422, 382, 684
802, 42, 494, 285, 34
803, 649, 423, 600, 422
804, 152, 528, 244, 155
805, 155, 244, 670, 577
806, 261, 669, 313, 584
807, 601, 683, 295, 506
808, 423, 638, 530, 600
809, 58, 47, 727, 381
810, 227, 319, 728, 317
811, 317, 728, 318, 236
812, 319, 237, 318, 728
813, 258, 322, 729, 320
814, 320, 729, 321, 192
815, 322, 259, 321, 729
816, 617, 522, 665, 402
817, 141, 165, 219, 525
818, 277, 328, 731, 326
819, 326, 731, 327, 180
820, 328, 278, 327, 731
821, 721, 182, 125, 611
822, 329, 732, 330, 264
823, 331, 279, 330, 732
824, 45, 57, 733, 734
825, 4, 45, 734, 37
*ELSET,ELSET=contact_source
101, 102, 103, 104, 105, 106, 107, 108, 109, 110, 
111, 112, 113, 114, 115, 116, 117, 118, 119, 120, 
121, 122, 
*ELSET,ELSET=contact_drain
39, 40, 41, 42, 43, 44, 45, 46, 47, 48, 
49, 50, 51, 52, 53, 54, 55, 56, 57, 58, 
59, 60, 61, 62, 
*ELSET,ELSET=probe_A
79, 80, 81, 82, 83, 84, 
*ELSET,ELSET=probe_B
17, 18, 19, 20, 21, 22, 
*ELSET,ELSET=walls
1, 2, 3, 4, 5, 6, 7, 8, 9, 10, 
11, 12, 13, 14, 15, 16, 23, 24, 25, 26, 
27, 28, 29, 30, 31, 32, 33, 34, 35, 36, 
37, 38, 63, 64, 65, 66, 67, 68, 69, 70, 
71, 72, 73, 74, 75, 76, 77, 78, 85, 86, 
87, 88, 89, 90, 91, 92, 93, 94, 95, 96, 
97, 98, 99, 100, 123, 124, 125, 126, 127, 128, 
129, 130, 131, 132, 133, 134, 135, 136, 137, 138, 
139, 140, 141, 142, 143, 144, 145, 146, 147, 148, 
149, 150, 151, 152, 153, 154, 155, 156, 157, 158, 
159, 160, 161, 162, 163, 164, 165, 166, 167, 168, 
169, 170, 171, 172, 173, 174, 175, 176, 177, 178, 
179, 180, 181, 182, 
*ELSET,ELSET=domain
183, 184, 185, 186, 187, 188, 189, 190, 191, 192, 
193, 194, 195, 196, 197, 198, 199, 200, 201, 202, 
203, 204, 205, 206, 207, 208, 209, 210, 211, 212, 
213, 214, 215, 216, 217, 218, 219, 220, 221, 222, 
223, 224, 225, 226, 227, 228, 229, 230, 231, 232, 
233, 234, 235, 236, 237, 238, 239, 240, 241, 242, 
243, 244, 245, 246, 247, 248, 249, 250, 251, 252, 
253, 254, 255, 256, 257, 258, 259, 260, 261, 262, 
263, 264, 265, 266, 267, 268, 269, 270, 271, 272, 
273, 274, 275, 276, 277, 278, 279, 280, 281, 282, 
283, 284, 285, 286, 287, 288, 289, 290, 291, 292, 
293, 294, 295, 296, 297, 298, 299, 300, 301, 302, 
303, 304, 305, 306, 307, 308, 309, 310, 311, 312, 
313, 314, 315, 316, 317, 318, 319, 320, 321, 322, 
323, 324, 325, 326, 327, 328, 329, 330, 331, 332, 
333, 334, 335, 336, 337, 338, 339, 340, 341, 342, 
343, 344, 345, 346, 347, 348, 349, 350, 351, 352, 
353, 354, 355, 356, 357, 358, 359, 360, 361, 362, 
363, 364, 365, 366, 367, 368, 369, 370, 371, 372, 
373, 374, 375, 376, 377, 378, 379, 380, 381, 382, 
383, 384, 385, 386, 387, 388, 389, 390, 391, 392, 
393, 394, 395, 396, 397, 398, 399, 400, 401, 402, 
403, 404, 405, 406, 407, 408, 409, 410, 411, 412, 
413, 414, 415, 416, 417, 418, 419, 420, 421, 422, 
423, 424, 425, 426, 427, 428, 429, 430, 431, 432, 
433, 434, 435, 436, 437, 438, 439, 440, 441, 442, 
443, 444, 445, 446, 447, 448, 449, 450, 451, 452, 
453, 454, 455, 456, 457, 458, 459, 460, 461, 462, 
463, 464, 465, 466, 467, 468, 469, 470, 471, 472, 
473, 474, 475, 476, 477, 478, 479, 480, 481, 482, 
483, 484, 485, 486, 487, 488, 489, 490, 491, 492, 
493, 494, 495, 496, 497, 498, 499, 500, 501, 502, 
503, 504, 505, 506, 507, 508, 509, 510, 511, 512, 
513, 514, 515, 516, 517, 518, 519, 520, 521, 522, 
523, 524, 525, 526, 527, 528, 529, 530, 531, 532, 
533, 534, 535, 536, 537, 538, 539, 540, 541, 542, 
543, 544, 545, 546, 547, 548, 549, 550, 551, 552, 
553, 554, 555, 556, 557, 558, 559, 560, 561, 562, 
563, 564, 565, 566, 567, 568, 569, 570, 571, 572, 
573, 574, 575, 576, 577, 578, 579, 580, 581, 582, 
583, 584, 585, 586, 587, 588, 589, 590, 591, 592, 
593, 594, 595, 596, 597, 598, 599, 600, 601, 602, 
603, 604, 605, 606, 607, 608, 609, 610, 611, 612, 
613, 614, 615, 616, 617, 618, 619, 620, 621, 622, 
623, 624, 625, 626, 627, 628, 629, 630, 631, 632, 
633, 634, 635, 636, 637, 638, 639, 640, 641, 642, 
643, 644, 645, 646, 647, 648, 649, 650, 651, 652, 
653, 654, 655, 656, 657, 658, 659, 660, 661, 662, 
663, 664, 665, 666, 667, 668, 669, 670, 671, 672, 
673, 674, 675, 676, 677, 678, 679, 680, 681, 682, 
683, 684, 685, 686, 687, 688, 689, 690, 691, 692, 
693, 694, 695, 696, 697, 698, 699, 700, 701, 702, 
703, 704, 705, 706, 707, 708, 709, 710, 711, 712, 
713, 714, 715, 716, 717, 718, 719, 720, 721, 722, 
723, 724, 725, 726, 727, 728, 729, 730, 731, 732, 
733, 734, 735, 736, 737, 738, 739, 740, 741, 742, 
743, 744, 745, 746, 747, 748, 749, 750, 751, 752, 
753, 754, 755, 756, 757, 758, 759, 760, 761, 762, 
763, 764, 765, 766, 767, 768, 769, 770, 771, 772, 
773, 774, 775, 776, 777, 778, 779, 780, 781, 782, 
783, 784, 785, 786, 787, 788, 789, 790, 791, 792, 
793, 794, 795, 796, 797, 798, 799, 800, 801, 802, 
803, 804, 805, 806, 807, 808, 809, 810, 811, 812, 
813, 814, 815, 816, 817, 818, 819, 820, 821, 822, 
823, 824, 825, 
*NSET,NSET=contact_source
1, 8, 103, 104, 105, 106, 107, 108, 109, 110, 
111, 112, 113, 114, 115, 116, 117, 118, 119, 120, 
121, 122, 123, 
*NSET,NSET=contact_drain
4, 5, 45, 46, 47, 48, 49, 50, 51, 52, 
53, 54, 55, 56, 57, 58, 59, 60, 61, 62, 
63, 64, 65, 66, 67, 
*NSET,NSET=probe_A
6, 7, 83, 84, 85, 86, 87, 
*NSET,NSET=probe_B
2, 3, 25, 26, 27, 28, 29, 
*NSET,NSET=walls
1, 2, 3, 4, 5, 6, 7, 8, 9, 10, 
11, 12, 13, 14, 15, 16, 17, 18, 19, 20, 
21, 22, 23, 24, 30, 31, 32, 33, 34, 35, 
36, 37, 38, 39, 40, 41, 42, 43, 44, 68, 
69, 70, 71, 72, 73, 74, 75, 76, 77, 78, 
79, 80, 81, 82, 88, 89, 90, 91, 92, 93, 
94, 95, 96, 97, 98, 99, 100, 101, 102, 124, 
125, 126, 127, 128, 129, 130, 131, 132, 133, 134, 
135, 136, 137, 138, 139, 140, 141, 142, 143, 144, 
145, 146, 147, 148, 149, 150, 151, 152, 153, 154, 
155, 156, 157, 158, 159, 160, 161, 162, 163, 164, 
165, 166, 167, 168, 169, 170, 171, 172, 173, 174, 
175, 176, 177, 178, 179, 180, 181, 182, 
*NSET,NSET=domain
1, 2, 3, 4, 5, 6, 7, 8, 9, 10, 
11, 12, 13, 14, 15, 16, 17, 18, 19, 20, 
21, 22, 23, 24, 25, 26, 27, 28, 29, 30, 
31, 32, 33, 34, 35, 36, 37, 38, 39, 40, 
41, 42, 43, 44, 45, 46, 47, 48, 49, 50, 
51, 52, 53, 54, 55, 56, 57, 58, 59, 60, 
61, 62, 63, 64, 65, 66, 67, 68, 69, 70, 
71, 72, 73, 74, 75, 76, 77, 78, 79, 80, 
81, 82, 83, 84, 85, 86, 87, 88, 89, 90, 
91, 92, 93, 94, 95, 96, 97, 98, 99, 100, 
101, 102, 103, 104, 105, 106, 107, 108, 109, 110, 
111, 112, 113, 114, 115, 116, 117, 118, 119, 120, 
121, 122, 123, 124, 125, 126, 127, 128, 129, 130, 
131, 132, 133, 134, 135, 136, 137, 138, 139, 140, 
141, 142, 143, 144, 145, 146, 147, 148, 149, 150, 
151, 152, 153, 154, 155, 156, 157, 158, 159, 160, 
161, 162, 163, 164, 165, 166, 167, 168, 169, 170, 
171, 172, 173, 174, 175, 176, 177, 178, 179, 180, 
181, 182, 183, 184, 185, 186, 187, 188, 189, 190, 
191, 192, 193, 194, 195, 196, 197, 198, 199, 200, 
201, 202, 203, 204, 205, 206, 207, 208, 209, 210, 
211, 212, 213, 214, 215, 216, 217, 218, 219, 220, 
221, 222, 223, 224, 225, 226, 227, 228, 229, 230, 
231, 232, 233, 234, 235, 236, 237, 238, 239, 240, 
241, 242, 243, 244, 245, 246, 247, 248, 249, 250, 
251, 252, 253, 254, 255, 256, 257, 258, 259, 260, 
261, 262, 263, 264, 265, 266, 267, 268, 269, 270, 
271, 272, 273, 274, 275, 276, 277, 278, 279, 280, 
281, 282, 283, 284, 285, 286, 287, 288, 289, 290, 
291, 292, 293, 294, 295, 296, 297, 298, 299, 300, 
301, 302, 303, 304, 305, 306, 307, 308, 309, 310, 
311, 312, 313, 314, 315, 316, 317, 318, 319, 320, 
321, 322, 323, 324, 325, 326, 327, 328, 329, 330, 
331, 332, 333, 334, 335, 336, 337, 338, 339, 340, 
341, 342, 343, 344, 345, 346, 347, 348, 349, 350, 
351, 352, 353, 354, 355, 356, 357, 358, 359, 360, 
361, 362, 363, 364, 365, 366, 367, 368, 369, 370, 
371, 372, 373, 374, 375, 376, 377, 378, 379, 380, 
381, 382, 383, 384, 385, 386, 387, 388, 389, 390, 
391, 392, 393, 394, 395, 396, 397, 398, 399, 400, 
401, 402, 403, 404, 405, 406, 407, 408, 409, 410, 
411, 412, 413, 414, 415, 416, 417, 418, 419, 420, 
421, 422, 423, 424, 425, 426, 427, 428, 429, 430, 
431, 432, 433, 434, 435, 436, 437, 438, 439, 440, 
441, 442, 443, 444, 445, 446, 447, 448, 449, 450, 
451, 452, 453, 454, 455, 456, 457, 458, 459, 460, 
461, 462, 463, 464, 465, 466, 467, 468, 469, 470, 
471, 472, 473, 474, 475, 476, 477, 478, 479, 480, 
481, 482, 483, 484, 485, 486, 487, 488, 489, 490, 
491, 492, 493, 494, 495, 496, 497, 498, 499, 500, 
501, 502, 503, 504, 505, 506, 507, 508, 509, 510, 
511, 512, 513, 514, 515, 516, 517, 518, 519, 520, 
521, 522, 523, 524, 525, 526, 527, 528, 529, 530, 
531, 532, 533, 534, 535, 536, 537, 538, 539, 540, 
541, 542, 543, 544, 545, 546, 547, 548, 549, 550, 
551, 552, 553, 554, 555, 556, 557, 558, 559, 560, 
561, 562, 563, 564, 565, 566, 567, 568, 569, 570, 
571, 572, 573, 574, 575, 576, 577, 578, 579, 580, 
581, 582, 583, 584, 585, 586, 587, 588, 589, 590, 
591, 592, 593, 594, 595, 596, 597, 598, 599, 600, 
601, 602, 603, 604, 605, 606, 607, 608, 609, 610, 
611, 612, 613, 614, 615, 616, 617, 618, 619, 620, 
621, 622, 623, 624, 625, 626, 627, 628, 629, 630, 
631, 632, 633, 634, 635, 636, 637, 638, 639, 640, 
641, 642, 643, 644, 645, 646, 647, 648, 649, 650, 
651, 652, 653, 654, 655, 656, 657, 658, 659, 660, 
661, 662, 663, 664, 665, 666, 667, 668, 669, 670, 
671, 672, 673, 674, 675, 676, 677, 678, 679, 680, 
681, 682, 683, 684, 685, 686, 687, 688, 689, 690, 
691, 692, 693, 694, 695, 696, 697, 698, 699, 700, 
701, 702, 703, 704, 705, 706, 707, 708, 709, 710, 
711, 712, 713, 714, 715, 716, 717, 718, 719, 720, 
721, 722, 723, 724, 725, 726, 727, 728, 729, 730, 
731, 732, 733, 734, 
