*Heading
 /Users/juliagao/geometry-optimization-net/scripts/../runs/run2/shape_169.inp
*NODE
1, 0, -0.3, 0
2, 0.425, -0.3, 0
3, 0.575, -0.3, 0
4, 1, -0.3, 0
5, 1, 0.3, 0
6, 0.575, 0.3, 0
7, 0.425, 0.3, 0
8, 0, 0.3, 0
9, 0.6905877302, 0.0004241213, 0
10, 0.025528405831145, -0.3, 0
11, 0.077285658092322, -0.3, 0
12, 0.1304805228229, -0.3, 0
13, 0.18466406776187, -0.3, 0
14, 0.2392982164433, -0.3, 0
15, 0.29424147572067, -0.3, 0
16, 0.34830632523537, -0.3, 0
17, 0.39992226875785, -0.3, 0
18, 0.051056811662291, -0.3, 0
19, 0.10351450452235, -0.3, 0
20, 0.15744654112345, -0.3, 0
21, 0.21188159440028, -0.3, 0
22, 0.26671483848632, -0.3, 0
23, 0.32176811295503, -0.3, 0
24, 0.37484453751571, -0.3, 0
25, 0.44997518391888, -0.3, 0
26, 0.49984859056575, -0.3, 0
27, 0.54987340664688, -0.3, 0
28, 0.47495036783775, -0.3, 0
29, 0.52474681329376, -0.3, 0
30, 0.6012175392762, -0.3, 0
31, 0.65444634172108, -0.3, 0
32, 0.70790416835819, -0.3, 0
33, 0.76058175462529, -0.3, 0
34, 0.81380236311978, -0.3, 0
35, 0.8676725068126, -0.3, 0
36, 0.9210582875551, -0.3, 0
37, 0.97378175515031, -0.3, 0
38, 0.6274350785524, -0.3, 0
39, 0.68145760488976, -0.3, 0
40, 0.73435073182663, -0.3, 0
41, 0.78681277742396, -0.3, 0
42, 0.84079194881561, -0.3, 0
43, 0.89455306480958, -0.3, 0
44, 0.94756351030061, -0.3, 0
45, 1, -0.27395644127387, 0
46, 1, -0.22141622095255, 0
47, 1, -0.16742740110775, 0
48, 1, -0.11144688455556, 0
49, 1, -0.05443405506915, 0
50, 1, 0.0014953133611582, 0
51, 1, 0.05587776880069, 0
52, 1, 0.11052783478628, 0
53, 1, 0.16635154820245, 0
54, 1, 0.22147120899082, 0
55, 1, 0.27421983207778, 0
56, 1, -0.24791288254774, 0
57, 1, -0.19491955935736, 0
58, 1, -0.13993524285815, 0
59, 1, -0.08295852625296, 0
60, 1, -0.025909583885341, 0
61, 1, 0.028900210607657, 0
62, 1, 0.082855326993722, 0
63, 1, 0.13820034257883, 0
64, 1, 0.19450275382606, 0
65, 1, 0.24843966415557, 0
66, 0.97440056292363, 0.3, 0
67, 0.92273711679119, 0.3, 0
68, 0.87011919506657, 0.3, 0
69, 0.81671200857739, 0.3, 0
70, 0.76288025320807, 0.3, 0
71, 0.70889840886511, 0.3, 0
72, 0.65502679533198, 0.3, 0
73, 0.60157927229656, 0.3, 0
74, 0.94880112584727, 0.3, 0
75, 0.89667310773512, 0.3, 0
76, 0.84356528239802, 0.3, 0
77, 0.78985873475677, 0.3, 0
78, 0.73590177165938, 0.3, 0
79, 0.68189504607083, 0.3, 0
80, 0.62815854459313, 0.3, 0
81, 0.54921159751228, 0.3, 0
82, 0.49844907041744, 0.3, 0
83, 0.44923747290516, 0.3, 0
84, 0.52342319502456, 0.3, 0
85, 0.47347494581031, 0.3, 0
86, 0.40336307557555, 0.3, 0
87, 0.36039393429921, 0.3, 0
88, 0.31644387334845, 0.3, 0
89, 0.26938045624886, 0.3, 0
90, 0.21974759028957, 0.3, 0
91, 0.16945852040779, 0.3, 0
92, 0.11974853669143, 0.3, 0
93, 0.071156579305888, 0.3, 0
94, 0.023586414356763, 0.3, 0
95, 0.38172615115109, 0.3, 0
96, 0.33906171744732, 0.3, 0
97, 0.29382602924957, 0.3, 0
98, 0.24493488324815, 0.3, 0
99, 0.19456029733098, 0.3, 0
100, 0.1443567434846, 0.3, 0
101, 0.095140329898249, 0.3, 0
102, 0.047172828713526, 0.3, 0
103, 0, 0.27437891609118, 0
104, 0, 0.22171127027113, 0
105, 0, 0.16626043847694, 0
106, 0, 0.10978340802525, 0
107, 0, 0.054373821967074, 0
108, 0, -7.7347034118935e-05, 0
109, 0, -0.054531430264643, 0
110, 0, -0.10929008381807, 0
111, 0, -0.16404897881617, 0
112, 0, -0.21868075237812, 0
113, 0, -0.27298627238831, 0
114, 0, 0.24875783218235, 0
115, 0, 0.1946647083599, 0
116, 0, 0.13785616859397, 0
117, 0, 0.081710647456523, 0
118, 0, 0.027036996477625, 0
119, 0, -0.027191690545863, 0
120, 0, -0.081871169983423, 0
121, 0, -0.13670899765272, 0
122, 0, -0.19138895997961, 0
123, 0, -0.24597254477662, 0
124, 0.68451273226945, 0.029607259631286, 0
125, 0.75496282719864, -0.060718014257351, 0
126, 0.79218919673454, -0.10632616347268, 0
127, 0.81472773772549, -0.16037240840185, 0
128, 0.80293480717102, -0.21583351537116, 0
129, 0.75395218141506, -0.24102921702977, 0
130, 0.69904991670568, -0.23833890585763, 0
131, 0.64620634986207, -0.22198093381759, 0
132, 0.59647033405266, -0.20080082181372, 0
133, 0.54586871596888, -0.19912703751099, 0
134, 0.5054052192476, -0.22920008117271, 0
135, 0.4560549472443, -0.24242898635812, 0
136, 0.40981229415394, -0.21679837128447, 0
137, 0.3658871629401, -0.18100458095302, 0
138, 0.30800621219875, -0.16645003798843, 0
139, 0.25318166487719, -0.14600011798078, 0
140, 0.22184943267678, -0.10117585631441, 0
141, 0.23187861896285, -0.046560515051659, 0
142, 0.26505793896028, 0.0026064876143878, 0
143, 0.28690122644281, 0.05934619797721, 0
144, 0.27277808131089, 0.11942967418023, 0
145, 0.26896276198212, 0.17918427720065, 0
146, 0.28964437820299, 0.23013414098829, 0
147, 0.32852536683457, 0.26144581826319, 0
148, 0.37312683166546, 0.27572038680799, 0
149, 0.4203873005579, 0.2782619556511, 0
150, 0.46895387306582, 0.26829067003837, 0
151, 0.51413170281355, 0.24269704386535, 0
152, 0.55224347715399, 0.2036554300757, 0
153, 0.5938449484229, 0.16702142862007, 0
154, 0.6473778363815, 0.15717025351627, 0
155, 0.69452273250733, 0.1330098689686, 0
156, 0.70305687954025, 0.080679662114002, 0
157, 0.7113949722807, -0.020788487891259, 0
158, 0.6941395127557, 0.054883611318277, 0
159, 0.70497940294392, 0.10815750560304, 0
160, 0.67325846828581, 0.14918347923658, 0
161, 0.62070248570116, 0.1610352653144, 0
162, 0.57074888193707, 0.18264144126802, 0
163, 0.53373138186597, 0.22466383360564, 0
164, 0.49206596948327, 0.25764822066175, 0
165, 0.44445192250536, 0.27512965120956, 0
166, 0.39612536247451, 0.27835306272757, 0
167, 0.3506154403119, 0.27029754413654, 0
168, 0.30833415879081, 0.24880286973412, 0
169, 0.27641224923138, 0.20725586006329, 0
170, 0.26816952897474, 0.15021753230662, 0
171, 0.2804966137752, 0.089322394144605, 0
172, 0.28177353325859, 0.028237555439845, 0
173, 0.24676342892757, -0.02182149540404, 0
174, 0.2223269482209, -0.07392318359042, 0
175, 0.23247065277188, -0.12643088362715, 0
176, 0.27861274262625, -0.1584024017933, 0
177, 0.3378548233189, -0.17235195863961, 0
178, 0.39018108716883, -0.19773954866295, 0
179, 0.43151675583052, -0.23365445734192, 0
180, 0.48208503099616, -0.24026620852429, 0
181, 0.52594724092108, -0.21381149325555, 0
182, 0.5710146633808, -0.19361532299124, 0
183, 0.62066411969091, -0.21117226090728, 0
184, 0.67232199336572, -0.23134753639756, 0
185, 0.72645209409028, -0.24202287932004, 0
186, 0.78047720001387, -0.23327972539505, 0
187, 0.81477224056807, -0.18989130877352, 0
188, 0.80615472079472, -0.13232388101535, 0
189, 0.7747553194125, -0.082551853279713, 0
190, 0.73360877536547, -0.04042454926411, 0
191, 0.10494279056221, -0.24611101916867, 0
192, 0.052029381397771, -0.24608775705172, 0
193, 0.21525358888457, -0.24867696017233, 0
194, 0.15948988183022, -0.24635997966936, 0
195, 0.65191582092208, -0.27520528864002, 0
196, 0.47700627661584, -0.27883376920093, 0
197, 0.85037791728453, -0.14474400360953, 0
198, 0.2043710322011, -0.03998014427231, 0
199, 0.79740243051813, 0.070600899652439, 0
200, 0.12223578589561, 0.067235426990782, 0
201, 0.3246997818104, 0.2734587727328, 0
202, 0.056120473794095, -0.035675861339564, 0
203, 0.43469364070625, 0.28829804191158, 0
204, 0.55262742795419, 0.27389040565958, 0
205, 0.12107260689052, 0.037754574972953, 0
206, 0.30099603599064, 0.27347240732768, 0
207, 0.086469680069866, -0.013325263761753, 0
208, 0.50146587570839, 0.29243768026114, 0
209, 0.60033084648725, 0.22136459398315, 0
210, 0.21391059358756, -0.012788862627766, 0
211, 0.60187320404827, 0.28174628390676, 0
212, 0.22430383675238, 0.21065539927321, 0
213, 0.090469308616003, 0.071796778204259, 0
214, 0.53231594045893, 0.25539989721896, 0
215, 0.41147345013335, 0.28919078142216, 0
216, 0.029314288532405, 0.023288101249173, 0
217, 0.13005711084385, 0.24679604190973, 0
218, 0.48005460854526, 0.28815204154252, 0
219, 0.1625491641082, -0.090205230076554, 0
220, 0.57618988019717, 0.28442469014731, 0
221, 0.11874884664055, 0.0090438234017903, 0
222, 0.051980096924117, -0.19243178979186, 0
223, 0.21922984098705, -0.19465003882851, 0
224, 0.16009744652549, -0.19044677528438, 0
225, 0.10452249996928, -0.19227555087232, 0
226, 0.10155961781127, -0.14118404965798, 0
227, 0.051627489212518, -0.13997081875439, 0
228, 0.17188297525188, 0.19179139981608, 0
229, 0.50437456358769, 0.28429738935358, 0
230, 0.10389568222609, -0.096865566781761, 0
231, 0.053062453997174, -0.088585772320826, 0
232, 0.3467061383277, 0.27938442390578, 0
233, 0.15351514761816, -0.1242094774274, 0
234, 0.74422025813096, -0.010917849925091, 0
235, 0.72612284011586, 0.19064036500826, 0
236, 0.94556108216146, 0.19125037875016, 0
237, 0.79336105573584, -0.0078175152780163, 0
238, 0.8907062097738, 0.18912158472841, 0
239, 0.94698321298502, 0.24612810185587, 0
240, 0.89347494797685, 0.24490643521017, 0
241, 0.83945283973211, 0.24430425570539, 0
242, 0.78528169501886, 0.24462339102022, 0
243, 0.7316964560522, 0.24682872834359, 0
244, 0.67913356749881, 0.25161534588873, 0
245, 0.62498228130051, 0.21327869036004, 0
246, 0.62731073128448, 0.25846423409304, 0
247, 0.12193799460919, 0.097465119294622, 0
248, 0.6757374306525, 0.2012193631969, 0
249, 0.73182918860445, 0.036641611641574, 0
250, 0.83322653572248, 0.15883941678425, 0
251, 0.82745062971751, 0.072499109048637, 0
252, 0.73700928487171, 0.090040905753711, 0
253, 0.79945421252565, 0.098901273941112, 0
254, 0.7689775938174, 0.095699644808035, 0
255, 0.82494368446208, 0.016166106944828, 0
256, 0.94435112905155, 0.13542598234713, 0
257, 0.88816629986957, 0.13260576242747, 0
258, 0.88616146307215, 0.075786225662662, 0
259, 0.9434712897124, 0.079416601568825, 0
260, 0.94319542348399, 0.02321027341614, 0
261, 0.88519599220988, 0.01834924150199, 0
262, 0.62569632886962, -0.27276973281896, 0
263, 0.35189158680795, -0.26388624139237, 0
264, 0.8948247731429, -0.27866151769922, 0
265, 0.9440099622568, -0.033950254173736, 0
266, 0.88672821396639, -0.04155238669264, 0
267, 0.81935254003774, -0.048428960558657, 0
268, 0.92202565533183, -0.23018148149804, 0
269, 0.86239813639177, -0.077823172639623, 0
270, 0.52582332771747, -0.27412544096149, 0
271, 0.92130107058281, -0.12508001372206, 0
272, 0.94497753649613, -0.062867960493373, 0
273, 0.97400104965347, -0.22395946356825, 0
274, 0.24115149066225, -0.27551441481775, 0
275, 0.60002872568479, -0.27090296567525, 0
276, 0.97405527561045, -0.19784788681127, 0
277, 0.2170448493208, -0.2222830200569, 0
278, 0.40264362692508, -0.27282967045219, 0
279, 0.83536383139257, 0.18765575648931, 0
280, 0.75262213860422, 0.18818186984931, 0
281, 0.36243935329815, 0.29555626652058, 0
282, 0.45251840136213, 0.29553474642215, 0
283, 0.26316279719655, 0.24088464196927, 0
284, 0.028119617660579, -0.031355092928348, 0
285, 0.02754585373106, 0.19249971950041, 0
286, 0.36663505390841, 0.28714704973253, 0
287, 0.45580662815231, 0.29080179269763, 0
288, 0.6263957132715, 0.2365740331263, 0
289, 0.4143539847267, 0.2855802436557, 0
290, 0.088484297569335, 0.01447137928926, 0
291, 0.10018393660848, -0.11889814712999, 0
292, 0.12795681794666, -0.10400359207077, 0
293, 0.12584989572735, -0.13852222179824, 0
294, 0.29819276916721, -0.25660158916492, 0
295, 0.84365136662471, -0.22514003789043, 0
296, 0.77236927410144, 0.12576329507123, 0
297, 0.80760543690566, 0.18725797286127, 0
298, 0.52846041093042, 0.27944333773988, 0
299, 0.13469890415646, -0.079623934875647, 0
300, 0.084063606658028, -0.040484609750812, 0
301, 0.45213046282283, -0.27879793391601, 0
302, 0.83555469520372, -0.085157388716265, 0
303, 0.32338654124966, -0.28002459415459, 0
304, 0.947173070872, -0.12010010247505, 0
305, 0.026682742739219, -0.08521100552954, 0
306, 0.051962920903316, -0.11430781679069, 0
307, 0.025918522902442, -0.13842900691955, 0
308, 0.026151315599427, -0.11184348319883, 0
309, 0.680574995229, 0.27591757777041, 0
310, 0.73385032335451, 0.27353712997802, 0
311, 0.70531752417035, 0.24893906580155, 0
312, 0.70715430594726, 0.27457777096953, 0
313, 0.78759272995196, 0.27241269547617, 0
314, 0.75836614063577, 0.24541172920479, 0
315, 0.76067119461967, 0.27282571025833, 0
316, 0.025973373415579, -0.19197521662676, 0
317, 0.051752252447818, -0.16598779828037, 0
318, 0.02590759769051, -0.16511711258829, 0
319, 0.5510400292587, 0.28728473128197, 0
320, 0.30343647202487, 0.26518451191888, 0
321, 0.60190787634446, 0.26293486999108, 0
322, 0.52606640858898, 0.2900583510506, 0
323, 0.1873288673276, -0.24715592275949, 0
324, 0.2135735838246, -0.27444996082449, 0
325, 0.15857817810569, -0.27329129450361, 0
326, 0.18602933035003, -0.27370928678828, 0
327, 0.08361518056716, 0.18981532979059, 0
328, 0.099373393100651, 0.27319463905915, 0
329, 0.16867122593847, -0.060947651041717, 0
330, 0.50714598834328, 0.27547682352239, 0
331, 0.14015645764627, -0.052976922008837, 0
332, 0.94323504048826, 0.051386243261666, 0
333, 0.97179221361583, 0.081247989118477, 0
334, 0.97166610134664, 0.025981986471898, 0
335, 0.97168161093125, 0.053645639390952, 0
336, 0.81234197780407, 0.24430426791737, 0
337, 0.84146578332663, 0.27221788382491, 0
338, 0.81453572577622, 0.27223273917972, 0
339, 0.054552353292397, -0.062399032688208, 0
340, 0.45909710679209, 0.28576686620806, 0
341, 0.089884430913753, 0.042857175904192, 0
342, 0.23427053530544, 0.075334462157816, 0
343, 0.62785580796521, 0.27944792255668, 0
344, 0.19153772282065, 0.05408611867545, 0
345, 0.028787217524915, -0.0041383771752774, 0
346, 0.65310677298457, 0.25475751563225, 0
347, 0.65413549827099, 0.27752817333286, 0
348, 0.9739134527937, -0.2496254786579, 0
349, 0.32535926655381, -0.25997542295323, 0
350, 0.50070883419939, -0.28849376133567, 0
351, 0.97297904721218, -0.087225457535564, 0
352, 0.97221996429705, 0.13686580005541, 0
353, 0.94493003753421, 0.16340276042517, 0
354, 0.97282127228579, 0.19264937645346, 0
355, 0.97250219666554, 0.16481422235058, 0
356, 0.025962243034541, -0.24600749847874, 0
357, 0.051711925087763, -0.27303756088461, 0
358, 0.025802176399392, -0.27300790898873, 0
359, 0.97383431111333, -0.27489598626218, 0
360, 0.3499836960986, -0.28196984744845, 0
361, 0.87387162953294, -0.16517455259242, 0
362, 0.86651451701346, 0.24452335625304, 0
363, 0.89497934961609, 0.27251128092691, 0
364, 0.86827594459333, 0.27232037912511, 0
365, 0.73308447428331, -0.28979267918525, 0
366, 0.86832102165301, -0.10833665157855, 0
367, 0.9724632029449, -0.058639990693826, 0
368, 0.24506948109393, -0.22590640136314, 0
369, 0.31855334748079, 0.29294828286466, 0
370, 0.6014792915417, 0.24303858465142, 0
371, 0.48322478220927, 0.28152025321991, 0
372, 0.78623510334176, -0.28790209433598, 0
373, 0.42616831736358, -0.28819317093298, 0
374, 0.48630329084605, 0.27432090349032, 0
375, 0.40597179065148, 0.29638998673533, 0
376, 0.029092177842916, 0.13567458419767, 0
377, 0.024593093455449, 0.27379238551021, 0
378, 0.13199299208773, -0.24611678871661, 0
379, 0.10444290272476, -0.27307123748526, 0
380, 0.13137108036593, -0.27311856029498, 0
381, 0.074239500570526, 0.27316295786489, 0
382, 0.1120235197876, -0.046135582893403, 0
383, 0.23702221826441, 0.24504466604899, 0
384, 0.427339397728, -0.27661161880506, 0
385, 0.94818762244948, -0.2013290620713, 0
386, 0.10807884749568, -0.07232436723127, 0
387, 0.025599096761629, 0.24731826053755, 0
388, 0.25827817098094, 0.2555886054547, 0
389, 0.11562710556145, -0.018928182381285, 0
390, 0.27941078385249, 0.26527195231617, 0
391, 0.89593671315422, -0.2342830409291, 0
392, 0.94801527698676, -0.22681263100582, 0
393, 0.26868226645331, -0.27682463765773, 0
394, 0.52531854420423, -0.28714476046568, 0
395, 0.57501104040078, -0.28532269781754, 0
396, 0.97203677453949, -0.030078128920783, 0
397, 0.89617735347796, -0.13077314386641, 0
398, 0.94386035500734, 0.10742401452117, 0
399, 0.97198072767052, 0.10902117815669, 0
400, 0.97353382224139, 0.24706290235364, 0
401, 0.94780673576994, 0.27314369114574, 0
402, 0.97394323333134, 0.27361834767545, 0
403, 0.14513812268492, -0.025459399287525, 0
404, 0.2253114635552, 0.28128324545768, 0
405, 0.94342285456502, -0.0052276178079605, 0
406, 0.97177122050417, -0.0019258440773198, 0
407, 0.078327436435941, -0.24612709766778, 0
408, 0.077943842278175, -0.27305882080753, 0
409, 0.94788816470763, -0.14794469733233, 0
410, 0.89756432713651, -0.15853611641059, 0
411, 0.67994915898241, -0.28878752160171, 0
412, 0.29614744703736, -0.27832280051017, 0
413, 0.73181120777283, -0.27969938046076, 0
414, 0.89528189424092, -0.2568930528692, 0
415, 0.70510927265711, -0.27912607012747, 0
416, 0.94624422139237, 0.21882584618876, 0
417, 0.97316058391428, 0.22001126445071, 0
418, 0.40124767134221, -0.28634322360778, 0
419, 0.37768169877525, -0.2683305264156, 0
420, 0.92029479148442, 0.24543451847798, 0
421, 0.92146222454942, 0.2727828564622, 0
422, 0.052103174386998, -0.21918186127743, 0
423, 0.026011160090689, -0.21896133299079, 0
424, 0.75957895167444, -0.28931322651581, 0
425, 0.91954468958813, -0.096505646336582, 0
426, 0.2537298602353, 0.2700192339034, 0
427, 0.38871644270471, 0.28877850558571, 0
428, 0.19314807149677, -0.096833613711929, 0
429, 0.24305168443057, -0.25090654114808, 0
430, 0.79502272117049, -0.068162789332132, 0
431, 0.94763160320415, -0.27594030774854, 0
432, 0.8967540927888, -0.21045333248307, 0
433, 0.87081975179345, -0.21673100339108, 0
434, 0.67848582576837, -0.27749963325269, 0
435, 0.70651397257133, -0.2895544696975, 0
436, 0.12005593515012, 0.12825004603284, 0
437, 0.23155535615694, 0.043829532760289, 0
438, 0.059513853838838, 0.047195124392154, 0
439, 0.223877868484, 0.014789248212468, 0
440, 0.34091193854555, 0.29452774689636, 0
441, 0.10797235393219, 0.21821332662405, 0
442, 0.28270679075013, 0.25412560210146, 0
443, 0.15345004917791, 0.03160627049439, 0
444, 0.029545301503866, 0.10721924392424, 0
445, 0.91747922700965, -0.067294518608727, 0
446, 0.94780335663158, -0.25162540553281, 0
447, 0.78552339196966, -0.27599961297845, 0
448, 0.76632366039794, 0.016619041108597, 0
449, 0.80202691897856, 0.1281727447788, 0
450, 0.73539562816788, 0.011596466033047, 0
451, 0.7765175587961, 0.15715342093252, 0
452, 0.20078707685191, 0.27823895379807, 0
453, 0.24932495224784, 0.28467001971171, 0
454, 0.058742490253799, 0.019151335539608, 0
455, 0.057565062170491, -0.0084771950182328, 0
456, 0.83743313368172, 0.21614434212138, 0
457, 0.78277921096005, 0.21635628935029, 0
458, 0.81006353465873, 0.21603080223587, 0
459, 0.078908366400164, -0.092287440809169, 0
460, 0.076909242271403, -0.14108703911689, 0
461, 0.076985561661155, -0.11668869190209, 0
462, 0.97346896157806, -0.11563183246111, 0
463, 0.47596756618089, -0.28935392249444, 0
464, 0.15027130603732, 0.27439426825648, 0
465, 0.11243052153159, 0.18927928292613, 0
466, 0.46238652967405, 0.28038456718748, 0
467, 0.8899304216728, -0.072149972435024, 0
468, 0.55004183218894, -0.28590959907446, 0
469, 0.91635421346834, 0.13399329145737, 0
470, 0.88940658907786, 0.16092841004441, 0
471, 0.91819368265276, 0.19009883950193, 0
472, 0.91724194386363, 0.16211129377352, 0
473, 0.885499102374, 0.047233041857732, 0
474, 0.91495057163848, 0.077563852283956, 0
475, 0.91443607345021, 0.020618724607308, 0
476, 0.91454342310849, 0.049210624419322, 0
477, 0.15334277369959, 0.12497109509727, 0
478, 0.19253444469867, 0.085883601323254, 0
479, 0.89345500327775, -0.1019697122583, 0
480, 0.27612670559988, 0.27645311143582, 0
481, 0.02738410086771, -0.058397458654998, 0
482, 0.38634080404912, 0.29242636173306, 0
483, 0.38401075852949, 0.29616621749939, 0
484, 0.077367537110258, 0.24601424935367, 0
485, 0.21474769353535, 0.23476434090605, 0
486, 0.623005629471, 0.18812141094133, 0
487, 0.65030155452126, 0.206967599368, 0
488, 0.67406699431928, 0.17512601183838, 0
489, 0.64865491666121, 0.18185290699217, 0
490, 0.13572169695893, 0.21907938159374, 0
491, 0.3911382767574, 0.28521991036745, 0
492, 0.40867849539384, 0.29279011280392, 0
493, 0.53057232294067, 0.26798152879401, 0
494, 0.24411813892437, 0.22597977436744, 0
495, 0.92129514244818, -0.27717151871335, 0
496, 0.17493846699202, -0.032761986100039, 0
497, 0.72923875024708, 0.21943504046908, 0
498, 0.75577350675561, 0.21737757958901, 0
499, 0.45105677325975, -0.28928651338991, 0
500, 0.92243683846566, -0.20545500072494, 0
501, 0.84493307943211, -0.11581340257658, 0
502, 0.78772985552793, -0.030496374815089, 0
503, 0.57687873538929, 0.23180880065509, 0
504, 0.1564781856785, 0.24854237235257, 0
505, 0.57732028118654, 0.25087332181614, 0
506, 0.19244275647575, -0.12743284653291, 0
507, 0.57700451794515, 0.26819762975286, 0
508, 0.84134331132719, -0.26496494869653, 0
509, 0.86946652224234, -0.23943208509483, 0
510, 0.70090792769548, 0.19550563942153, 0
511, 0.7211947436773, 0.15849775602463, 0
512, 0.69819819009126, 0.16669403299434, 0
513, 0.77285473746739, -0.047262815765173, 0
514, 0.74833641895411, 0.15693138126381, 0
515, 0.18747362551397, 0.024085617661768, 0
516, 0.15564305256124, 0.061546854846544, 0
517, 0.92237001764655, -0.1528453585143, 0
518, 0.55011407503701, -0.27155866428375, 0
519, 0.91570326442305, -0.037751793310257, 0
520, 0.37608413275213, -0.28415829073549, 0
521, 0.13165823237444, -0.19140171074711, 0
522, 0.16008171618123, -0.21890238973051, 0
523, 0.10500818086201, -0.21913117894244, 0
524, 0.13218173430336, -0.21888431137807, 0
525, 0.14190873785953, 0.18966648565577, 0
526, 0.55449470727097, 0.24367052316341, 0
527, 0.85532287178321, 0.016697196022066, 0
528, 0.82612643289134, 0.044350400707738, 0
529, 0.85699715766402, 0.074124141524375, 0
530, 0.85602015896469, 0.045582296999569, 0
531, 0.0887168023981, 0.13092251308856, 0
532, 0.10361130097264, 0.2460662941826, 0
533, 0.081455640017945, -0.066873358157593, 0
534, 0.43793489640754, 0.28411055388528, 0
535, 0.22276763828075, -0.16441863972392, 0
536, 0.97383115415817, -0.14366910314107, 0
537, 0.88706900624868, 0.10421755022858, 0
538, 0.91558056244397, 0.10580606055464, 0
539, 0.029730205928818, 0.078921054753298, 0
540, 0.42823389897054, 0.29622219078323, 0
541, 0.60065978023374, -0.28557618974558, 0
542, 0.57479010686603, -0.27035758780698, 0
543, 0.84098347460254, -0.28272108955293, 0
544, 0.55384268276369, 0.25950432335818, 0
545, 0.08051564351537, 0.21828572812533, 0
546, 0.058552046486654, 0.13335832838763, 0
547, 0.18998166961782, 0.11995527763048, 0
548, 0.29855962535718, 0.28197494615852, 0
549, 0.18149823711914, -0.0046556891366427, 0
550, 0.88543796887786, -0.01117294490768, 0
551, 0.91474230656174, -0.0083555664024283, 0
552, 0.75853404736602, -0.27882122483029, 0
553, 0.92161874352182, -0.25400212683684, 0
554, 0.87231330979443, -0.13733173394381, 0
555, 0.078099947329199, -0.19259312184844, 0
556, 0.078384949140497, -0.21925456029821, 0
557, 0.89206567065174, 0.21711848331595, 0
558, 0.91921031725404, 0.21787948326691, 0
559, 0.10334737062841, -0.16598660256089, 0
560, 0.077517592199358, -0.16641579585711, 0
561, 0.059455118246284, 0.1043965014992, 0
562, 0.32268930186643, 0.27971952612955, 0
563, 0.055367411849484, 0.19092388385169, 0
564, 0.29615228493454, 0.29078570760693, 0
565, 0.27281092856216, 0.28793895737193, 0
566, 0.20730465163223, 0.25681825272525, 0
567, 0.3447538847963, 0.28422600678943, 0
568, 0.36452184023415, 0.29127229158427, 0
569, 0.43146201292079, 0.29232754416452, 0
570, 0.090091479543353, 0.10121530411428, 0
571, 0.86308028740873, 0.18830296019003, 0
572, 0.86478566544107, 0.21653409515805, 0
573, 0.7950623447031, 0.017106986597777, 0
574, 0.23093920952745, 0.26319956199434, 0
575, 0.36877470600169, 0.28318001162942, 0
576, 0.026596209599509, 0.22014780630511, 0
577, 0.19703653357119, -0.067911945809427, 0
578, 0.051368213384231, 0.2464496453389, 0
579, 0.85174202276834, -0.1728754404861, 0
580, 0.65318340432069, -0.28767370460356, 0
581, 0.50974352022355, 0.26581610604184, 0
582, 0.12478265956688, 0.27355644686753, 0
583, 0.8680527091375, -0.28049263176539, 0
584, 0.85600282211586, -0.045286504243107, 0
585, 0.27070039216424, -0.25359998269542, 0
586, 0.18974917296758, -0.1914670847315, 0
587, 0.18855660225925, -0.21993913782761, 0
588, 0.76651263877269, 0.067626974819603, 0
589, 0.82321589691856, -0.013195879575306, 0
590, 0.79600983106557, 0.043334263498312, 0
591, 0.049301549257018, 0.27337587498677, 0
592, 0.059774196165078, 0.075623128143759, 0
593, 0.02964535885153, 0.050981611625328, 0
594, 0.85502186382153, -0.013231790299304, 0
595, 0.15571183107275, 0.092680217158193, 0
596, 0.82909547278123, 0.10098329126306, 0
597, 0.85975120942694, 0.13124752970656, 0
598, 0.85827000587895, 0.10264729123642, 0
599, 0.50157149506532, -0.27696333425173, 0
600, 0.80489597589185, 0.15791951896665, 0
601, 0.77992712524862, 0.18730054184912, 0
602, 0.15882072622993, -0.16002266685129, 0
603, 0.12986183677349, -0.16402470112611, 0
604, 0.76540482968879, 0.041268148821859, 0
605, 0.67751230936265, 0.22677702534281, 0
606, 0.70326853994661, 0.22271578662724, 0
607, 0.86138992932241, 0.15984513235879, 0
608, 0.65183600395728, 0.23131974327032, 0
609, 0.053407025232502, 0.21897814701635, 0
610, 0.19100935281575, -0.16082601815731, 0
611, 0.86859774067412, -0.26048182958513, 0
612, 0.74127044468847, 0.12114886323962, 0
613, 0.76867280455465, -0.0052514991781389, 0
614, 0.94612858962652, -0.09167174453028, 0
615, 0.83106973433028, 0.12983692948101, 0
616, 0.3206366776944, 0.28620309066501, 0
617, 0.47680388470507, 0.29429491922441, 0
618, 0.34281689365179, 0.28927187375551, 0
619, 0.149724480569, 0.0026828631774235, 0
620, 0.11882684965634, -0.12061384247769, 0
621, 0.6266271350965, -0.2864811380098, 0
622, 0.7334783908862, 0.062509124794269, 0
623, 0.16345466863289, 0.22148818632433, 0
624, 0.84208788794685, -0.24610127095329, 0
625, 0.27282856132153, -0.23012004497554, 0
626, 0.30044555445387, -0.23459980605081, 0
627, 0.3276920626326, -0.23954753837139, 0
628, 0.35416992576791, -0.24541405734589, 0
629, 0.37962630936029, -0.25229221184282, 0
630, 0.40413680517051, -0.25938275596972, 0
631, 0.4284942223392, -0.26534178543857, 0
632, 0.45318750253959, -0.26870709711468, 0
633, 0.47808936155105, -0.26858042221289, 0
634, 0.50245632866955, -0.26542293034194, 0
635, 0.52624731311632, -0.26078285192565, 0
636, 0.55001426909775, -0.25662687661733, 0
637, 0.57436201742001, -0.25473831323789, 0
638, 0.59928665304204, -0.25569832166678, 0
639, 0.62465666437021, -0.25870198053683, 0
640, 0.65061173941608, -0.2625360584216, 0
641, 0.67702386073764, -0.2661472034667, 0
642, 0.70367996392948, -0.26876856311196, 0
643, 0.73051837845392, -0.26981007170998, 0
644, 0.75744196154592, -0.26864250158996, 0
645, 0.78467953542471, -0.26441884212041, 0
646, 0.2472947577116, -0.20025754905049, 0
647, 0.27504608038519, -0.20628119472234, 0
648, 0.30291820194805, -0.2121494479032, 0
649, 0.33046387087864, -0.21838993643022, 0
650, 0.35699664343901, -0.22608947199167, 0
651, 0.38204055239398, -0.23569031325941, 0
652, 0.40575645344448, -0.24585303157516, 0
653, 0.42960224616069, -0.25444725580809, 0
654, 0.45421182183226, -0.25918273112948, 0
655, 0.47925324953917, -0.2587087066054, 0
656, 0.50338588321312, -0.25381469881823, 0
657, 0.52654334551854, -0.24682735666049, 0
658, 0.54961468182428, -0.24059057494949, 0
659, 0.5736889112052, -0.23788260218589, 0
660, 0.59841671177434, -0.23955111378732, 0
661, 0.62349717770805, -0.24404773228939, 0
662, 0.64924374869177, -0.24956883581207, 0
663, 0.67552850678224, -0.25471458251093, 0
664, 0.70220912159249, -0.25851729718201, 0
665, 0.72919785945424, -0.26020060187234, 0
666, 0.75630506439553, -0.2588864504163, 0
667, 0.78368233657006, -0.25327125528072, 0
668, 0.81231462985746, -0.095849538062894, 0
669, 0.82417066920966, -0.12419843870845, 0
670, 0.83095475293817, -0.15273359075602, 0
671, 0.83094841019618, -0.18216864893943, 0
672, 0.97401757136582, -0.1710310267843, 0
673, 0.94819447268122, -0.17503458924701, 0
674, 0.92265621121396, -0.17967297905953, 0
675, 0.89749822204772, -0.18518161172825, 0
676, 0.87261464224735, -0.1919119557456, 0
677, 0.84698876840107, -0.20071450455981, 0
678, 0.24985882328521, -0.17374104255288, 0
679, 0.27716303858699, -0.18220763284678, 0
680, 0.30552905584259, -0.18927409899468, 0
681, 0.33379778293799, -0.19611044035508, 0
682, 0.36068948498424, -0.20514555142545, 0
683, 0.38526291725669, -0.21790707008311, 0
684, 0.40757437907948, -0.23191054676579, 0
685, 0.4306229395542, -0.24393034045515, 0
686, 0.45517894855503, -0.25038018601852, 0
687, 0.48055504883086, -0.24928332474098, 0
688, 0.504377882136, -0.24193148814339, 0
689, 0.52658253565024, -0.23166582346939, 0
690, 0.54859841036942, -0.22239118473859, 0
691, 0.57266189084857, -0.21862324428306, 0
692, 0.59743145194248, -0.22175634157865, 0
693, 0.62218668515094, -0.2284389670536, 0
694, 0.64778515176349, -0.23614374435206, 0
695, 0.67397003852818, -0.24314997627901, 0
696, 0.70067519224211, -0.24838221215267, 0
697, 0.72784406028159, -0.25092769352615, 0
698, 0.75513518105179, -0.24964987946748, 0
699, 0.78252399060143, -0.24250810857193, 0
700, 0.8136036606272, -0.28531302597435, 0
701, 0.8134402516453, -0.27038553657019, 0
702, 0.81341351016574, -0.25474075875123, 0
703, 0.81375991492702, -0.23731504682557, 0
704, 0.81514829046695, -0.21529957873416, 0
705, 0.23203831890626, 0.10972097858061, 0
706, 0.028405811254002, 0.16419091661791, 0
707, 0.057142436548351, 0.16229536145009, 0
708, 0.086468788212143, 0.16059390362329, 0
709, 0.11672458856964, 0.15910718137538, 0
710, 0.14851794427261, 0.1578318778854, 0
711, 0.18327773147857, 0.15644288754337, 0
712, 0.59805167644917, 0.1968132149838, 0
713, 0.57514551150098, 0.20989471158021, 0
714, 0.55423210833654, 0.22560851993752, 0
715, 0.53350938747963, 0.24124529894169, 0
716, 0.51210980513935, 0.25505020823958, 0
717, 0.48926660728208, 0.26643112860435, 0
718, 0.46567289350292, 0.27459097752487, 0
719, 0.44118838853646, 0.27973474272614, 0
720, 0.41732305776934, 0.28194367360424, 0
721, 0.39360741469836, 0.2817466414233, 0
722, 0.37093876777616, 0.2793710852266, 0
723, 0.34866246923561, 0.27474264732153, 0
724, 0.32665200262331, 0.26738230794079, 0
725, 0.30587574782079, 0.25700827741203, 0
726, 0.28606439444075, 0.24263842042819, 0
727, 0.2687987660396, 0.22516127665579, 0
728, 0.25358456615548, 0.20442738374945, 0
729, 0.23985368438073, 0.18091847604815, 0
730, 0.1757289718816, 0.27590409619955, 0
731, 0.1824499194025, 0.25176731001124, 0
732, 0.19034801820762, 0.22639079894204, 0
733, 0.20126337703276, 0.19738198768317, 0
734, 0.22640399187477, 0.15258346072538, 0
735, 0.75550734376821, -0.03066611716178, 0
736, 0.77039281894099, -0.022069049088412, 0
******* E L E M E N T S *************
*ELEMENT, type=T3D2, ELSET=Line1
1, 1, 10
2, 10, 18
3, 18, 11
4, 11, 19
5, 19, 12
6, 12, 20
7, 20, 13
8, 13, 21
9, 21, 14
10, 14, 22
11, 22, 15
12, 15, 23
13, 23, 16
14, 16, 24
15, 24, 17
16, 17, 2
*ELEMENT, type=T3D2, ELSET=Line2
17, 2, 25
18, 25, 28
19, 28, 26
20, 26, 29
21, 29, 27
22, 27, 3
*ELEMENT, type=T3D2, ELSET=Line3
23, 3, 30
24, 30, 38
25, 38, 31
26, 31, 39
27, 39, 32
28, 32, 40
29, 40, 33
30, 33, 41
31, 41, 34
32, 34, 42
33, 42, 35
34, 35, 43
35, 43, 36
36, 36, 44
37, 44, 37
38, 37, 4
*ELEMENT, type=T3D2, ELSET=Line4
39, 4, 45
40, 45, 56
41, 56, 46
42, 46, 57
43, 57, 47
44, 47, 58
45, 58, 48
46, 48, 59
47, 59, 49
48, 49, 60
49, 60, 50
50, 50, 61
51, 61, 51
52, 51, 62
53, 62, 52
54, 52, 63
55, 63, 53
56, 53, 64
57, 64, 54
58, 54, 65
59, 65, 55
60, 55, 5
*ELEMENT, type=T3D2, ELSET=Line5
61, 5, 66
62, 66, 74
63, 74, 67
64, 67, 75
65, 75, 68
66, 68, 76
67, 76, 69
68, 69, 77
69, 77, 70
70, 70, 78
71, 78, 71
72, 71, 79
73, 79, 72
74, 72, 80
75, 80, 73
76, 73, 6
*ELEMENT, type=T3D2, ELSET=Line6
77, 6, 81
78, 81, 84
79, 84, 82
80, 82, 85
81, 85, 83
82, 83, 7
*ELEMENT, type=T3D2, ELSET=Line7
83, 7, 86
84, 86, 95
85, 95, 87
86, 87, 96
87, 96, 88
88, 88, 97
89, 97, 89
90, 89, 98
91, 98, 90
92, 90, 99
93, 99, 91
94, 91, 100
95, 100, 92
96, 92, 101
97, 101, 93
98, 93, 102
99, 102, 94
100, 94, 8
*ELEMENT, type=T3D2, ELSET=Line8
101, 8, 103
102, 103, 114
103, 114, 104
104, 104, 115
105, 115, 105
106, 105, 116
107, 116, 106
108, 106, 117
109, 117, 107
110, 107, 118
111, 118, 108
112, 108, 119
113, 119, 109
114, 109, 120
115, 120, 110
116, 110, 121
117, 121, 111
118, 111, 122
119, 122, 112
120, 112, 123
121, 123, 113
122, 113, 1
*ELEMENT, type=T3D2, ELSET=Line9
123, 9, 124
124, 124, 158
125, 158, 156
126, 156, 159
127, 159, 155
128, 155, 160
129, 160, 154
130, 154, 161
131, 161, 153
132, 153, 162
133, 162, 152
134, 152, 163
135, 163, 151
136, 151, 164
137, 164, 150
138, 150, 165
139, 165, 149
140, 149, 166
141, 166, 148
142, 148, 167
143, 167, 147
144, 147, 168
145, 168, 146
146, 146, 169
147, 169, 145
148, 145, 170
149, 170, 144
150, 144, 171
151, 171, 143
152, 143, 172
153, 172, 142
154, 142, 173
155, 173, 141
156, 141, 174
157, 174, 140
158, 140, 175
159, 175, 139
160, 139, 176
161, 176, 138
162, 138, 177
163, 177, 137
164, 137, 178
165, 178, 136
166, 136, 179
167, 179, 135
168, 135, 180
169, 180, 134
170, 134, 181
171, 181, 133
172, 133, 182
173, 182, 132
174, 132, 183
175, 183, 131
176, 131, 184
177, 184, 130
178, 130, 185
179, 185, 129
180, 129, 186
181, 186, 128
182, 128, 187
183, 187, 127
184, 127, 188
185, 188, 126
186, 126, 189
187, 189, 125
188, 125, 190
189, 190, 157
190, 157, 9
*ELEMENT, type=CPS4, ELSET=Surface1
191, 121, 307, 308, 110
192, 110, 308, 305, 120
193, 308, 306, 231, 305
194, 307, 227, 306, 308
195, 244, 311, 312, 309
196, 309, 312, 71, 79
197, 312, 310, 78, 71
198, 311, 243, 310, 312
199, 78, 310, 315, 70
200, 70, 315, 313, 77
201, 315, 314, 242, 313
202, 310, 243, 314, 315
203, 222, 317, 318, 316
204, 316, 318, 111, 122
205, 318, 307, 121, 111
206, 317, 227, 307, 318
207, 321, 246, 343, 211
208, 734, 711, 547, 705
209, 369, 440, 96, 88
210, 731, 566, 452, 730
211, 194, 325, 326, 323
212, 323, 326, 324, 193
213, 326, 13, 21, 324
214, 325, 20, 13, 326
215, 731, 730, 464, 504
216, 327, 545, 609, 563
217, 725, 168, 147, 724
218, 477, 436, 247, 595
219, 341, 438, 454, 290
220, 202, 284, 481, 339
221, 299, 386, 230, 292
222, 381, 93, 102, 591
223, 260, 334, 335, 332
224, 332, 335, 333, 259
225, 335, 51, 62, 333
226, 334, 61, 51, 335
227, 241, 337, 338, 336
228, 336, 338, 313, 242
229, 338, 69, 77, 313
230, 337, 76, 69, 338
231, 546, 376, 444, 561
232, 485, 383, 574, 566
233, 383, 388, 426, 574
234, 328, 101, 93, 381
235, 707, 706, 376, 546
236, 505, 370, 321, 507
237, 198, 577, 174, 141
238, 531, 546, 561, 570
239, 79, 72, 347, 309
240, 309, 347, 346, 244
241, 347, 343, 246, 346
242, 72, 80, 343, 347
243, 693, 183, 132, 692
244, 691, 182, 133, 690
245, 499, 373, 2, 25
246, 385, 392, 273, 276
247, 432, 391, 268, 500
248, 671, 579, 197, 670
249, 409, 536, 462, 304
250, 63, 53, 355, 352
251, 352, 355, 353, 256
252, 355, 354, 236, 353
253, 53, 64, 354, 355
254, 123, 113, 358, 356
255, 356, 358, 357, 192
256, 358, 10, 18, 357
257, 113, 1, 10, 358
258, 687, 180, 135, 686
259, 703, 702, 624, 295
260, 295, 624, 509, 433
261, 684, 136, 178, 683
262, 240, 363, 364, 362
263, 362, 364, 337, 241
264, 364, 68, 76, 337
265, 363, 75, 68, 364
266, 672, 276, 57, 47
267, 679, 176, 139, 678
268, 270, 599, 350, 394
269, 467, 445, 519, 266
270, 214, 526, 544, 493
271, 482, 492, 375, 483
272, 390, 206, 548, 480
273, 204, 507, 220, 319
274, 361, 410, 397, 554
275, 268, 553, 446, 392
276, 360, 303, 23, 16
277, 697, 185, 130, 696
278, 465, 441, 545, 327
279, 562, 567, 618, 616
280, 617, 208, 82, 85
281, 526, 503, 505, 544
282, 191, 379, 380, 378
283, 378, 380, 325, 194
284, 380, 12, 20, 325
285, 379, 19, 12, 380
286, 219, 299, 292, 233
287, 453, 565, 89, 98
288, 619, 221, 389, 403
289, 727, 169, 146, 726
290, 301, 384, 373, 499
291, 704, 703, 295, 677
292, 273, 348, 56, 46
293, 671, 670, 127, 187
294, 534, 466, 340, 203
295, 715, 163, 152, 714
296, 466, 374, 371, 340
297, 724, 147, 167, 723
298, 595, 247, 200, 516
299, 525, 490, 441, 465
300, 286, 427, 482, 568
301, 483, 375, 86, 95
302, 688, 134, 180, 687
303, 294, 585, 393, 412
304, 517, 409, 304, 271
305, 674, 673, 409, 517
306, 495, 36, 44, 431
307, 673, 672, 536, 409
308, 373, 418, 17, 2
309, 501, 366, 269, 302
310, 259, 333, 399, 398
311, 398, 399, 352, 256
312, 399, 52, 63, 352
313, 333, 62, 52, 399
314, 65, 55, 402, 400
315, 400, 402, 401, 239
316, 402, 66, 74, 401
317, 55, 5, 66, 402
318, 210, 198, 141, 173
319, 577, 428, 140, 174
320, 200, 213, 341, 205
321, 454, 216, 345, 455
322, 60, 50, 406, 396
323, 396, 406, 405, 265
324, 406, 334, 260, 405
325, 50, 61, 334, 406
326, 192, 357, 408, 407
327, 407, 408, 379, 191
328, 408, 11, 19, 379
329, 357, 18, 11, 408
330, 675, 432, 500, 674
331, 692, 132, 182, 691
332, 670, 197, 501, 669
333, 414, 264, 495, 553
334, 274, 324, 21, 14
335, 271, 304, 614, 425
336, 278, 419, 520, 418
337, 676, 433, 432, 675
338, 446, 431, 359, 348
339, 669, 668, 126, 188
340, 64, 54, 417, 354
341, 354, 417, 416, 236
342, 417, 400, 239, 416
343, 54, 65, 400, 417
344, 704, 671, 187, 128
345, 412, 393, 22, 15
346, 197, 554, 366, 501
347, 348, 359, 45, 56
348, 239, 401, 421, 420
349, 420, 421, 363, 240
350, 421, 67, 75, 363
351, 401, 74, 67, 421
352, 192, 422, 423, 356
353, 356, 423, 112, 123
354, 423, 316, 122, 112
355, 422, 222, 316, 423
356, 677, 295, 433, 676
357, 674, 500, 385, 673
358, 593, 107, 118, 216
359, 496, 403, 331, 329
360, 206, 562, 616, 548
361, 287, 218, 617, 282
362, 509, 611, 414, 391
363, 433, 509, 391, 432
364, 349, 294, 412, 303
365, 583, 35, 43, 264
366, 698, 129, 185, 697
367, 264, 43, 36, 495
368, 463, 499, 25, 28
369, 579, 361, 554, 197
370, 582, 92, 101, 328
371, 480, 548, 564, 565
372, 404, 453, 98, 90
373, 208, 322, 84, 82
374, 428, 506, 175, 140
375, 376, 116, 106, 444
376, 281, 483, 95, 87
377, 370, 288, 246, 321
378, 701, 700, 543, 508
379, 585, 429, 274, 393
380, 500, 268, 392, 385
381, 391, 414, 553, 268
382, 345, 108, 119, 284
383, 728, 145, 169, 727
384, 438, 593, 216, 454
385, 290, 454, 455, 207
386, 367, 49, 60, 396
387, 690, 133, 181, 689
388, 269, 467, 266, 584
389, 372, 424, 33, 41
390, 514, 451, 601, 280
391, 448, 613, 237, 573
392, 157, 234, 450, 9
393, 532, 328, 381, 484
394, 298, 204, 319, 322
395, 216, 118, 108, 345
396, 710, 709, 436, 477
397, 242, 457, 458, 336
398, 336, 458, 456, 241
399, 125, 513, 735, 190
400, 249, 604, 588, 622
401, 227, 460, 461, 306
402, 306, 461, 459, 231
403, 461, 291, 230, 459
404, 460, 226, 291, 461
405, 541, 395, 3, 30
406, 425, 614, 272, 445
407, 683, 178, 137, 682
408, 689, 181, 134, 688
409, 566, 574, 404, 452
410, 714, 152, 162, 713
411, 548, 616, 369, 564
412, 211, 343, 80, 73
413, 397, 271, 425, 479
414, 695, 184, 131, 694
415, 424, 365, 40, 33
416, 599, 196, 463, 350
417, 419, 263, 360, 520
418, 395, 468, 27, 3
419, 411, 580, 31, 39
420, 681, 177, 138, 680
421, 256, 353, 472, 469
422, 469, 472, 470, 257
423, 472, 471, 238, 470
424, 353, 236, 471, 472
425, 261, 475, 476, 473
426, 473, 476, 474, 258
427, 476, 332, 259, 474
428, 475, 260, 332, 476
429, 322, 319, 81, 84
430, 722, 148, 166, 721
431, 444, 106, 117, 539
432, 564, 369, 88, 97
433, 554, 397, 479, 366
434, 468, 394, 29, 27
435, 217, 582, 328, 532
436, 478, 595, 516, 344
437, 330, 493, 298, 229
438, 329, 331, 299, 219
439, 215, 203, 569, 492
440, 300, 202, 339, 533
441, 726, 146, 168, 725
442, 282, 617, 85, 83
443, 160, 488, 489, 154
444, 154, 489, 486, 161
445, 489, 487, 245, 486
446, 488, 248, 487, 489
447, 734, 144, 170, 729
448, 730, 452, 99, 91
449, 544, 505, 507, 204
450, 490, 217, 532, 441
451, 578, 591, 377, 387
452, 570, 561, 592, 213
453, 387, 377, 103, 114
454, 455, 345, 284, 202
455, 680, 138, 176, 679
456, 699, 186, 129, 698
457, 672, 47, 58, 536
458, 711, 228, 525, 710
459, 730, 91, 100, 464
460, 732, 485, 566, 731
461, 705, 342, 143, 171
462, 243, 497, 498, 314
463, 314, 498, 457, 242
464, 254, 588, 199, 253
465, 675, 674, 517, 410
466, 508, 543, 583, 611
467, 685, 179, 136, 684
468, 303, 412, 15, 23
469, 302, 269, 584, 267
470, 677, 676, 361, 579
471, 457, 601, 297, 458
472, 252, 254, 296, 612
473, 573, 237, 589, 255
474, 451, 296, 449, 600
475, 443, 205, 221, 619
476, 436, 531, 570, 247
477, 285, 576, 104, 115
478, 567, 286, 568, 618
479, 437, 439, 142, 172
480, 218, 229, 208, 617
481, 705, 547, 478, 342
482, 437, 344, 515, 439
483, 580, 621, 38, 31
484, 410, 517, 271, 397
485, 536, 58, 48, 462
486, 431, 44, 37, 359
487, 160, 155, 512, 488
488, 488, 512, 510, 248
489, 512, 511, 235, 510
490, 155, 159, 511, 512
491, 601, 451, 600, 297
492, 9, 450, 249, 124
493, 458, 297, 279, 456
494, 159, 612, 514, 511
495, 729, 170, 145, 728
496, 377, 94, 8, 103
497, 563, 609, 576, 285
498, 734, 733, 228, 711
499, 393, 274, 14, 22
500, 700, 34, 42, 543
501, 263, 349, 303, 360
502, 394, 350, 26, 29
503, 225, 523, 524, 521
504, 521, 524, 522, 224
505, 524, 378, 194, 522
506, 523, 191, 378, 524
507, 718, 150, 164, 717
508, 441, 532, 484, 545
509, 382, 300, 533, 386
510, 709, 708, 531, 436
511, 258, 529, 530, 473
512, 473, 530, 527, 261
513, 530, 528, 255, 527
514, 529, 251, 528, 530
515, 561, 444, 539, 592
516, 723, 167, 148, 722
517, 221, 290, 207, 389
518, 581, 214, 493, 330
519, 392, 446, 348, 273
520, 366, 479, 467, 269
521, 272, 367, 396, 265
522, 359, 37, 4, 45
523, 256, 469, 538, 398
524, 398, 538, 474, 259
525, 538, 537, 258, 474
526, 469, 257, 537, 538
527, 592, 539, 593, 438
528, 719, 165, 150, 718
529, 339, 481, 305, 231
530, 229, 298, 322, 208
531, 429, 193, 324, 274
532, 553, 495, 431, 446
533, 462, 48, 59, 351
534, 668, 302, 267, 430
535, 616, 618, 440, 369
536, 427, 215, 492, 482
537, 213, 592, 438, 341
538, 716, 151, 163, 715
539, 452, 404, 90, 99
540, 389, 207, 300, 382
541, 609, 578, 387, 576
542, 709, 465, 327, 708
543, 342, 437, 172, 143
544, 220, 211, 73, 6
545, 342, 478, 344, 437
546, 228, 623, 490, 525
547, 503, 209, 370, 505
548, 481, 109, 120, 305
549, 440, 281, 87, 96
550, 708, 327, 563, 707
551, 265, 405, 551, 519
552, 519, 551, 550, 266
553, 551, 475, 261, 550
554, 405, 260, 475, 551
555, 704, 677, 579, 671
556, 668, 430, 189, 126
557, 543, 42, 35, 583
558, 704, 128, 186, 699
559, 191, 523, 556, 407
560, 407, 556, 422, 192
561, 556, 555, 222, 422
562, 523, 225, 555, 556
563, 240, 557, 558, 420
564, 420, 558, 416, 239
565, 558, 471, 236, 416
566, 557, 238, 471, 558
567, 227, 317, 560, 460
568, 460, 560, 559, 226
569, 560, 555, 225, 559
570, 317, 222, 555, 560
571, 707, 563, 285, 706
572, 706, 285, 115, 105
573, 507, 321, 211, 220
574, 386, 533, 459, 230
575, 426, 480, 565, 453
576, 344, 516, 443, 515
577, 706, 105, 116, 376
578, 374, 581, 330, 371
579, 623, 504, 217, 490
580, 710, 525, 465, 709
581, 403, 389, 382, 331
582, 493, 544, 204, 298
583, 238, 557, 572, 571
584, 572, 362, 241, 456
585, 557, 240, 362, 572
586, 158, 622, 252, 156
587, 622, 588, 254, 252
588, 735, 736, 613, 234
589, 209, 245, 288, 370
590, 464, 100, 92, 582
591, 721, 166, 149, 720
592, 533, 339, 231, 459
593, 340, 371, 218, 287
594, 545, 484, 578, 609
595, 539, 117, 107, 593
596, 577, 329, 219, 428
597, 284, 119, 109, 481
598, 319, 220, 6, 81
599, 492, 569, 540, 375
600, 439, 515, 549, 210
601, 350, 463, 28, 26
602, 614, 351, 367, 272
603, 673, 385, 276, 672
604, 624, 508, 611, 509
605, 576, 387, 114, 104
606, 515, 443, 619, 549
607, 568, 482, 483, 281
608, 712, 153, 161, 486
609, 686, 135, 179, 685
610, 196, 301, 499, 463
611, 702, 701, 508, 624
612, 384, 278, 418, 373
613, 193, 277, 587, 323
614, 323, 587, 522, 194
615, 587, 586, 224, 522
616, 277, 223, 586, 587
617, 590, 573, 255, 528
618, 511, 514, 280, 235
619, 449, 253, 596, 615
620, 198, 496, 329, 577
621, 717, 164, 151, 716
622, 210, 549, 496, 198
623, 439, 210, 173, 142
624, 375, 540, 7, 86
625, 565, 564, 97, 89
626, 733, 732, 623, 228
627, 713, 162, 153, 712
628, 255, 589, 594, 527
629, 527, 594, 550, 261
630, 594, 584, 266, 550
631, 589, 267, 584, 594
632, 547, 477, 595, 478
633, 540, 282, 83, 7
634, 720, 149, 165, 719
635, 428, 219, 233, 506
636, 257, 597, 598, 537
637, 537, 598, 529, 258
638, 598, 596, 251, 529
639, 612, 296, 451, 514
640, 611, 583, 264, 414
641, 700, 372, 41, 34
642, 694, 131, 183, 693
643, 696, 130, 184, 695
644, 600, 449, 615, 250
645, 234, 613, 448, 450
646, 615, 597, 607, 250
647, 235, 280, 498, 497
648, 224, 602, 603, 521
649, 521, 603, 559, 225
650, 603, 293, 226, 559
651, 602, 233, 293, 603
652, 604, 448, 573, 590
653, 297, 600, 250, 279
654, 613, 736, 502, 237
655, 190, 735, 234, 157
656, 243, 311, 606, 497
657, 497, 606, 510, 235
658, 606, 605, 248, 510
659, 311, 244, 605, 606
660, 571, 607, 470, 238
661, 607, 597, 257, 470
662, 588, 604, 590, 199
663, 245, 487, 608, 288
664, 288, 608, 346, 246
665, 608, 605, 244, 346
666, 487, 248, 605, 608
667, 504, 464, 582, 217
668, 618, 568, 281, 440
669, 371, 330, 229, 218
670, 484, 381, 591, 578
671, 223, 535, 610, 586
672, 586, 610, 602, 224
673, 610, 506, 233, 602
674, 535, 175, 506, 610
675, 676, 675, 410, 361
676, 351, 59, 49, 367
677, 276, 273, 46, 57
678, 621, 541, 30, 38
679, 237, 502, 267, 589
680, 253, 199, 251, 596
681, 450, 448, 604, 249
682, 513, 502, 736, 735
683, 124, 249, 622, 158
684, 280, 601, 457, 498
685, 670, 669, 188, 127
686, 304, 462, 351, 614
687, 435, 411, 39, 32
688, 596, 598, 597, 615
689, 456, 279, 571, 572
690, 279, 250, 607, 571
691, 516, 200, 205, 443
692, 734, 705, 171, 144
693, 569, 287, 282, 540
694, 388, 390, 480, 426
695, 247, 570, 213, 200
696, 732, 731, 504, 623
697, 207, 455, 202, 300
698, 708, 707, 546, 531
699, 549, 619, 403, 496
700, 205, 341, 290, 221
701, 331, 382, 386, 299
702, 711, 710, 477, 547
703, 226, 293, 620, 291
704, 291, 620, 292, 230
705, 293, 233, 292, 620
706, 520, 360, 16, 24
707, 669, 501, 302, 668
708, 479, 425, 445, 467
709, 199, 590, 528, 251
710, 296, 254, 253, 449
711, 156, 252, 612, 159
712, 203, 340, 287, 569
713, 591, 102, 94, 377
714, 574, 426, 453, 404
715, 682, 137, 177, 681
716, 678, 139, 175, 535
717, 445, 272, 265, 519
718, 365, 435, 32, 40
719, 418, 520, 24, 17
720, 518, 270, 394, 468
721, 542, 518, 468, 395
722, 275, 542, 395, 541
723, 262, 275, 541, 621
724, 195, 262, 621, 580
725, 434, 195, 580, 411
726, 415, 434, 411, 435
727, 413, 415, 435, 365
728, 552, 413, 365, 424
729, 447, 552, 424, 372
730, 701, 447, 372, 700
731, 368, 277, 193, 429
732, 625, 368, 429, 585
733, 626, 625, 585, 294
734, 627, 626, 294, 349
735, 628, 627, 349, 263
736, 629, 628, 263, 419
737, 630, 629, 419, 278
738, 631, 630, 278, 384
739, 632, 631, 384, 301
740, 633, 632, 301, 196
741, 634, 633, 196, 599
742, 635, 634, 599, 270
743, 636, 635, 270, 518
744, 637, 636, 518, 542
745, 638, 637, 542, 275
746, 639, 638, 275, 262
747, 640, 639, 262, 195
748, 641, 640, 195, 434
749, 642, 641, 434, 415
750, 643, 642, 415, 413
751, 644, 643, 413, 552
752, 645, 644, 552, 447
753, 702, 645, 447, 701
754, 646, 223, 277, 368
755, 647, 646, 368, 625
756, 648, 647, 625, 626
757, 649, 648, 626, 627
758, 650, 649, 627, 628
759, 651, 650, 628, 629
760, 652, 651, 629, 630
761, 653, 652, 630, 631
762, 654, 653, 631, 632
763, 655, 654, 632, 633
764, 656, 655, 633, 634
765, 657, 656, 634, 635
766, 658, 657, 635, 636
767, 659, 658, 636, 637
768, 660, 659, 637, 638
769, 661, 660, 638, 639
770, 662, 661, 639, 640
771, 663, 662, 640, 641
772, 664, 663, 641, 642
773, 665, 664, 642, 643
774, 666, 665, 643, 644
775, 667, 666, 644, 645
776, 703, 667, 645, 702
777, 678, 535, 223, 646
778, 679, 678, 646, 647
779, 680, 679, 647, 648
780, 681, 680, 648, 649
781, 682, 681, 649, 650
782, 683, 682, 650, 651
783, 684, 683, 651, 652
784, 685, 684, 652, 653
785, 686, 685, 653, 654
786, 687, 686, 654, 655
787, 688, 687, 655, 656
788, 689, 688, 656, 657
789, 690, 689, 657, 658
790, 691, 690, 658, 659
791, 692, 691, 659, 660
792, 693, 692, 660, 661
793, 694, 693, 661, 662
794, 695, 694, 662, 663
795, 696, 695, 663, 664
796, 697, 696, 664, 665
797, 698, 697, 665, 666
798, 699, 698, 666, 667
799, 704, 699, 667, 703
800, 289, 534, 203, 215
801, 491, 289, 215, 427
802, 575, 491, 427, 286
803, 232, 575, 286, 567
804, 201, 232, 567, 562
805, 320, 201, 562, 206
806, 442, 320, 206, 390
807, 283, 442, 390, 388
808, 494, 283, 388, 383
809, 212, 494, 383, 485
810, 733, 212, 485, 732
811, 712, 486, 245, 209
812, 713, 712, 209, 503
813, 714, 713, 503, 526
814, 715, 714, 526, 214
815, 716, 715, 214, 581
816, 717, 716, 581, 374
817, 718, 717, 374, 466
818, 719, 718, 466, 534
819, 720, 719, 534, 289
820, 721, 720, 289, 491
821, 722, 721, 491, 575
822, 723, 722, 575, 232
823, 724, 723, 232, 201
824, 725, 724, 201, 320
825, 726, 725, 320, 442
826, 727, 726, 442, 283
827, 728, 727, 283, 494
828, 729, 728, 494, 212
829, 734, 729, 212, 733
830, 430, 267, 502, 513
831, 189, 430, 513, 125
*ELSET,ELSET=contact_source
101, 102, 103, 104, 105, 106, 107, 108, 109, 110, 
111, 112, 113, 114, 115, 116, 117, 118, 119, 120, 
121, 122, 
*ELSET,ELSET=contact_drain
39, 40, 41, 42, 43, 44, 45, 46, 47, 48, 
49, 50, 51, 52, 53, 54, 55, 56, 57, 58, 
59, 60, 
*ELSET,ELSET=probe_A
77, 78, 79, 80, 81, 82, 
*ELSET,ELSET=probe_B
17, 18, 19, 20, 21, 22, 
*ELSET,ELSET=walls
1, 2, 3, 4, 5, 6, 7, 8, 9, 10, 
11, 12, 13, 14, 15, 16, 23, 24, 25, 26, 
27, 28, 29, 30, 31, 32, 33, 34, 35, 36, 
37, 38, 61, 62, 63, 64, 65, 66, 67, 68, 
69, 70, 71, 72, 73, 74, 75, 76, 83, 84, 
85, 86, 87, 88, 89, 90, 91, 92, 93, 94, 
95, 96, 97, 98, 99, 100, 123, 124, 125, 126, 
127, 128, 129, 130, 131, 132, 133, 134, 135, 136, 
137, 138, 139, 140, 141, 142, 143, 144, 145, 146, 
147, 148, 149, 150, 151, 152, 153, 154, 155, 156, 
157, 158, 159, 160, 161, 162, 163, 164, 165, 166, 
167, 168, 169, 170, 171, 172, 173, 174, 175, 176, 
177, 178, 179, 180, 181, 182, 183, 184, 185, 186, 
187, 188, 189, 190, 
*ELSET,ELSET=domain
191, 192, 193, 194, 195, 196, 197, 198, 199, 200, 
201, 202, 203, 204, 205, 206, 207, 208, 209, 210, 
211, 212, 213, 214, 215, 216, 217, 218, 219, 220, 
221, 222, 223, 224, 225, 226, 227, 228, 229, 230, 
231, 232, 233, 234, 235, 236, 237, 238, 239, 240, 
241, 242, 243, 244, 245, 246, 247, 248, 249, 250, 
251, 252, 253, 254, 255, 256, 257, 258, 259, 260, 
261, 262, 263, 264, 265, 266, 267, 268, 269, 270, 
271, 272, 273, 274, 275, 276, 277, 278, 279, 280, 
281, 282, 283, 284, 285, 286, 287, 288, 289, 290, 
291, 292, 293, 294, 295, 296, 297, 298, 299, 300, 
301, 302, 303, 304, 305, 306, 307, 308, 309, 310, 
311, 312, 313, 314, 315, 316, 317, 318, 319, 320, 
321, 322, 323, 324, 325, 326, 327, 328, 329, 330, 
331, 332, 333, 334, 335, 336, 337, 338, 339, 340, 
341, 342, 343, 344, 345, 346, 347, 348, 349, 350, 
351, 352, 353, 354, 355, 356, 357, 358, 359, 360, 
361, 362, 363, 364, 365, 366, 367, 368, 369, 370, 
371, 372, 373, 374, 375, 376, 377, 378, 379, 380, 
381, 382, 383, 384, 385, 386, 387, 388, 389, 390, 
391, 392, 393, 394, 395, 396, 397, 398, 399, 400, 
401, 402, 403, 404, 405, 406, 407, 408, 409, 410, 
411, 412, 413, 414, 415, 416, 417, 418, 419, 420, 
421, 422, 423, 424, 425, 426, 427, 428, 429, 430, 
431, 432, 433, 434, 435, 436, 437, 438, 439, 440, 
441, 442, 443, 444, 445, 446, 447, 448, 449, 450, 
451, 452, 453, 454, 455, 456, 457, 458, 459, 460, 
461, 462, 463, 464, 465, 466, 467, 468, 469, 470, 
471, 472, 473, 474, 475, 476, 477, 478, 479, 480, 
481, 482, 483, 484, 485, 486, 487, 488, 489, 490, 
491, 492, 493, 494, 495, 496, 497, 498, 499, 500, 
501, 502, 503, 504, 505, 506, 507, 508, 509, 510, 
511, 512, 513, 514, 515, 516, 517, 518, 519, 520, 
521, 522, 523, 524, 525, 526, 527, 528, 529, 530, 
531, 532, 533, 534, 535, 536, 537, 538, 539, 540, 
541, 542, 543, 544, 545, 546, 547, 548, 549, 550, 
551, 552, 553, 554, 555, 556, 557, 558, 559, 560, 
561, 562, 563, 564, 565, 566, 567, 568, 569, 570, 
571, 572, 573, 574, 575, 576, 577, 578, 579, 580, 
581, 582, 583, 584, 585, 586, 587, 588, 589, 590, 
591, 592, 593, 594, 595, 596, 597, 598, 599, 600, 
601, 602, 603, 604, 605, 606, 607, 608, 609, 610, 
611, 612, 613, 614, 615, 616, 617, 618, 619, 620, 
621, 622, 623, 624, 625, 626, 627, 628, 629, 630, 
631, 632, 633, 634, 635, 636, 637, 638, 639, 640, 
641, 642, 643, 644, 645, 646, 647, 648, 649, 650, 
651, 652, 653, 654, 655, 656, 657, 658, 659, 660, 
661, 662, 663, 664, 665, 666, 667, 668, 669, 670, 
671, 672, 673, 674, 675, 676, 677, 678, 679, 680, 
681, 682, 683, 684, 685, 686, 687, 688, 689, 690, 
691, 692, 693, 694, 695, 696, 697, 698, 699, 700, 
701, 702, 703, 704, 705, 706, 707, 708, 709, 710, 
711, 712, 713, 714, 715, 716, 717, 718, 719, 720, 
721, 722, 723, 724, 725, 726, 727, 728, 729, 730, 
731, 732, 733, 734, 735, 736, 737, 738, 739, 740, 
741, 742, 743, 744, 745, 746, 747, 748, 749, 750, 
751, 752, 753, 754, 755, 756, 757, 758, 759, 760, 
761, 762, 763, 764, 765, 766, 767, 768, 769, 770, 
771, 772, 773, 774, 775, 776, 777, 778, 779, 780, 
781, 782, 783, 784, 785, 786, 787, 788, 789, 790, 
791, 792, 793, 794, 795, 796, 797, 798, 799, 800, 
801, 802, 803, 804, 805, 806, 807, 808, 809, 810, 
811, 812, 813, 814, 815, 816, 817, 818, 819, 820, 
821, 822, 823, 824, 825, 826, 827, 828, 829, 830, 
831, 
*NSET,NSET=contact_source
1, 8, 103, 104, 105, 106, 107, 108, 109, 110, 
111, 112, 113, 114, 115, 116, 117, 118, 119, 120, 
121, 122, 123, 
*NSET,NSET=contact_drain
4, 5, 45, 46, 47, 48, 49, 50, 51, 52, 
53, 54, 55, 56, 57, 58, 59, 60, 61, 62, 
63, 64, 65, 
*NSET,NSET=probe_A
6, 7, 81, 82, 83, 84, 85, 
*NSET,NSET=probe_B
2, 3, 25, 26, 27, 28, 29, 
*NSET,NSET=walls
1, 2, 3, 4, 5, 6, 7, 8, 9, 10, 
11, 12, 13, 14, 15, 16, 17, 18, 19, 20, 
21, 22, 23, 24, 30, 31, 32, 33, 34, 35, 
36, 37, 38, 39, 40, 41, 42, 43, 44, 66, 
67, 68, 69, 70, 71, 72, 73, 74, 75, 76, 
77, 78, 79, 80, 86, 87, 88, 89, 90, 91, 
92, 93, 94, 95, 96, 97, 98, 99, 100, 101, 
102, 124, 125, 126, 127, 128, 129, 130, 131, 132, 
133, 134, 135, 136, 137, 138, 139, 140, 141, 142, 
143, 144, 145, 146, 147, 148, 149, 150, 151, 152, 
153, 154, 155, 156, 157, 158, 159, 160, 161, 162, 
163, 164, 165, 166, 167, 168, 169, 170, 171, 172, 
173, 174, 175, 176, 177, 178, 179, 180, 181, 182, 
183, 184, 185, 186, 187, 188, 189, 190, 
*NSET,NSET=domain
1, 2, 3, 4, 5, 6, 7, 8, 9, 10, 
11, 12, 13, 14, 15, 16, 17, 18, 19, 20, 
21, 22, 23, 24, 25, 26, 27, 28, 29, 30, 
31, 32, 33, 34, 35, 36, 37, 38, 39, 40, 
41, 42, 43, 44, 45, 46, 47, 48, 49, 50, 
51, 52, 53, 54, 55, 56, 57, 58, 59, 60, 
61, 62, 63, 64, 65, 66, 67, 68, 69, 70, 
71, 72, 73, 74, 75, 76, 77, 78, 79, 80, 
81, 82, 83, 84, 85, 86, 87, 88, 89, 90, 
91, 92, 93, 94, 95, 96, 97, 98, 99, 100, 
101, 102, 103, 104, 105, 106, 107, 108, 109, 110, 
111, 112, 113, 114, 115, 116, 117, 118, 119, 120, 
121, 122, 123, 124, 125, 126, 127, 128, 129, 130, 
131, 132, 133, 134, 135, 136, 137, 138, 139, 140, 
141, 142, 143, 144, 145, 146, 147, 148, 149, 150, 
151, 152, 153, 154, 155, 156, 157, 158, 159, 160, 
161, 162, 163, 164, 165, 166, 167, 168, 169, 170, 
171, 172, 173, 174, 175, 176, 177, 178, 179, 180, 
181, 182, 183, 184, 185, 186, 187, 188, 189, 190, 
191, 192, 193, 194, 195, 196, 197, 198, 199, 200, 
201, 202, 203, 204, 205, 206, 207, 208, 209, 210, 
211, 212, 213, 214, 215, 216, 217, 218, 219, 220, 
221, 222, 223, 224, 225, 226, 227, 228, 229, 230, 
231, 232, 233, 234, 235, 236, 237, 238, 239, 240, 
241, 242, 243, 244, 245, 246, 247, 248, 249, 250, 
251, 252, 253, 254, 255, 256, 257, 258, 259, 260, 
261, 262, 263, 264, 265, 266, 267, 268, 269, 270, 
271, 272, 273, 274, 275, 276, 277, 278, 279, 280, 
281, 282, 283, 284, 285, 286, 287, 288, 289, 290, 
291, 292, 293, 294, 295, 296, 297, 298, 299, 300, 
301, 302, 303, 304, 305, 306, 307, 308, 309, 310, 
311, 312, 313, 314, 315, 316, 317, 318, 319, 320, 
321, 322, 323, 324, 325, 326, 327, 328, 329, 330, 
331, 332, 333, 334, 335, 336, 337, 338, 339, 340, 
341, 342, 343, 344, 345, 346, 347, 348, 349, 350, 
351, 352, 353, 354, 355, 356, 357, 358, 359, 360, 
361, 362, 363, 364, 365, 366, 367, 368, 369, 370, 
371, 372, 373, 374, 375, 376, 377, 378, 379, 380, 
381, 382, 383, 384, 385, 386, 387, 388, 389, 390, 
391, 392, 393, 394, 395, 396, 397, 398, 399, 400, 
401, 402, 403, 404, 405, 406, 407, 408, 409, 410, 
411, 412, 413, 414, 415, 416, 417, 418, 419, 420, 
421, 422, 423, 424, 425, 426, 427, 428, 429, 430, 
431, 432, 433, 434, 435, 436, 437, 438, 439, 440, 
441, 442, 443, 444, 445, 446, 447, 448, 449, 450, 
451, 452, 453, 454, 455, 456, 457, 458, 459, 460, 
461, 462, 463, 464, 465, 466, 467, 468, 469, 470, 
471, 472, 473, 474, 475, 476, 477, 478, 479, 480, 
481, 482, 483, 484, 485, 486, 487, 488, 489, 490, 
491, 492, 493, 494, 495, 496, 497, 498, 499, 500, 
501, 502, 503, 504, 505, 506, 507, 508, 509, 510, 
511, 512, 513, 514, 515, 516, 517, 518, 519, 520, 
521, 522, 523, 524, 525, 526, 527, 528, 529, 530, 
531, 532, 533, 534, 535, 536, 537, 538, 539, 540, 
541, 542, 543, 544, 545, 546, 547, 548, 549, 550, 
551, 552, 553, 554, 555, 556, 557, 558, 559, 560, 
561, 562, 563, 564, 565, 566, 567, 568, 569, 570, 
571, 572, 573, 574, 575, 576, 577, 578, 579, 580, 
581, 582, 583, 584, 585, 586, 587, 588, 589, 590, 
591, 592, 593, 594, 595, 596, 597, 598, 599, 600, 
601, 602, 603, 604, 605, 606, 607, 608, 609, 610, 
611, 612, 613, 614, 615, 616, 617, 618, 619, 620, 
621, 622, 623, 624, 625, 626, 627, 628, 629, 630, 
631, 632, 633, 634, 635, 636, 637, 638, 639, 640, 
641, 642, 643, 644, 645, 646, 647, 648, 649, 650, 
651, 652, 653, 654, 655, 656, 657, 658, 659, 660, 
661, 662, 663, 664, 665, 666, 667, 668, 669, 670, 
671, 672, 673, 674, 675, 676, 677, 678, 679, 680, 
681, 682, 683, 684, 685, 686, 687, 688, 689, 690, 
691, 692, 693, 694, 695, 696, 697, 698, 699, 700, 
701, 702, 703, 704, 705, 706, 707, 708, 709, 710, 
711, 712, 713, 714, 715, 716, 717, 718, 719, 720, 
721, 722, 723, 724, 725, 726, 727, 728, 729, 730, 
731, 732, 733, 734, 735, 736, 
