*Heading
 /Users/juliagao/geometry-optimization-net/scripts/../runs/run2/shape_178.inp
*NODE
1, 0, -0.3, 0
2, 0.425, -0.3, 0
3, 0.575, -0.3, 0
4, 1, -0.3, 0
5, 1, 0.3, 0
6, 0.575, 0.3, 0
7, 0.425, 0.3, 0
8, 0, 0.3, 0
9, 0.6516974977, -0.041176924, 0
10, 0.025577217075893, -0.3, 0
11, 0.077186657535931, -0.3, 0
12, 0.1292844065753, -0.3, 0
13, 0.18163606487319, -0.3, 0
14, 0.23498393028563, -0.3, 0
15, 0.289863405471, -0.3, 0
16, 0.34523798867543, -0.3, 0
17, 0.39889741473214, -0.3, 0
18, 0.051154434151787, -0.3, 0
19, 0.10321888092007, -0.3, 0
20, 0.15534993223053, -0.3, 0
21, 0.20792219751585, -0.3, 0
22, 0.26204566305541, -0.3, 0
23, 0.31768114788659, -0.3, 0
24, 0.37279482946428, -0.3, 0
25, 0.44984845682728, -0.3, 0
26, 0.4997219348468, -0.3, 0
27, 0.54987347801952, -0.3, 0
28, 0.47469691365455, -0.3, 0
29, 0.52474695603905, -0.3, 0
30, 0.59861238723901, -0.3, 0
31, 0.64576324638563, -0.3, 0
32, 0.69208694479083, -0.3, 0
33, 0.73754752388991, -0.3, 0
34, 0.78318555436313, -0.3, 0
35, 0.82968076844348, -0.3, 0
36, 0.87755994529683, -0.3, 0
37, 0.92650996920767, -0.3, 0
38, 0.9755566762369, -0.3, 0
39, 0.62222477447802, -0.3, 0
40, 0.66930171829324, -0.3, 0
41, 0.71487217128842, -0.3, 0
42, 0.76022287649141, -0.3, 0
43, 0.80614823223486, -0.3, 0
44, 0.8532133046521, -0.3, 0
45, 0.90190658594156, -0.3, 0
46, 0.95111335247379, -0.3, 0
47, 1, -0.27326149087629, 0
48, 1, -0.21918301479284, 0
49, 1, -0.16428424798707, 0
50, 1, -0.10900103098655, 0
51, 1, -0.05391792395043, 0
52, 1, 0.00052065303232812, 0
53, 1, 0.054866928992593, 0
54, 1, 0.10985751177188, 0
55, 1, 0.16540122963757, 0
56, 1, 0.22031413573845, 0
57, 1, 0.2737037589469, 0
58, 1, -0.24652298175259, 0
59, 1, -0.1918430478331, 0
60, 1, -0.13672544814104, 0
61, 1, -0.081276613832054, 0
62, 1, -0.026559234068806, 0
63, 1, 0.027600540133462, 0
64, 1, 0.082133317851725, 0
65, 1, 0.13758170569204, 0
66, 1, 0.19322075358309, 0
67, 1, 0.24740751789381, 0
68, 0.97493968024418, 0.3, 0
69, 0.92405508368508, 0.3, 0
70, 0.87163899416205, 0.3, 0
71, 0.8180830895146, 0.3, 0
72, 0.76381036750129, 0.3, 0
73, 0.7089901970101, 0.3, 0
74, 0.65428972813105, 0.3, 0
75, 0.60105039982879, 0.3, 0
76, 0.94987936048837, 0.3, 0
77, 0.89823080688179, 0.3, 0
78, 0.84504718144231, 0.3, 0
79, 0.79111899758689, 0.3, 0
80, 0.73650173741568, 0.3, 0
81, 0.68147865660452, 0.3, 0
82, 0.62710079965758, 0.3, 0
83, 0.55004744178203, 0.3, 0
84, 0.50058013074941, 0.3, 0
85, 0.45053268896739, 0.3, 0
86, 0.52509488356405, 0.3, 0
87, 0.47606537793477, 0.3, 0
88, 0.39856446954872, 0.3, 0
89, 0.34576295445225, 0.3, 0
90, 0.29297102842811, 0.3, 0
91, 0.23978064124922, 0.3, 0
92, 0.18592430205752, 0.3, 0
93, 0.13189468581493, 0.3, 0
94, 0.078463078433633, 0.3, 0
95, 0.025984596951567, 0.3, 0
96, 0.37212893909744, 0.3, 0
97, 0.31939696980707, 0.3, 0
98, 0.26654508704915, 0.3, 0
99, 0.2130161954493, 0.3, 0
100, 0.15883240866573, 0.3, 0
101, 0.10495696296413, 0.3, 0
102, 0.051969193903134, 0.3, 0
103, 0, 0.27295641192916, 0
104, 0, 0.21812973312402, 0
105, 0, 0.16246191864373, 0
106, 0, 0.10672969115638, 0
107, 0, 0.05102763528096, 0
108, 0, -0.0041528735123913, 0
109, 0, -0.058842619807834, 0
110, 0, -0.11412622877931, 0
111, 0, -0.16903864949179, 0
112, 0, -0.22202656417253, 0
113, 0, -0.27401093873806, 0
114, 0, 0.24591282385831, 0
115, 0, 0.19034664238972, 0
116, 0, 0.13457719489773, 0
117, 0, 0.078882187415037, 0
118, 0, 0.023173083146883, 0
119, 0, -0.031478830171665, 0
120, 0, -0.086206409444002, 0
121, 0, -0.14204604811462, 0
122, 0, -0.19603125086895, 0
123, 0, -0.24802187747612, 0
124, 0.6638560141848, -0.01639101486748, 0
125, 0.7075248375897, -0.10211567866045, 0
126, 0.74359946943102, -0.14595403921117, 0
127, 0.7651420917219, -0.19785782770491, 0
128, 0.75283446519704, -0.24836513422986, 0
129, 0.70750064100052, -0.26732033375326, 0
130, 0.65819713423674, -0.26061130600262, 0
131, 0.61112713752509, -0.2411316781458, 0
132, 0.56551722050102, -0.21543111416787, 0
133, 0.51369627928795, -0.2083883440826, 0
134, 0.46505975937444, -0.23018908088722, 0
135, 0.41038627153078, -0.23122107147062, 0
136, 0.35547088341322, -0.21788470608946, 0
137, 0.30448832056206, -0.19376245635849, 0
138, 0.27424703727321, -0.14778177302965, 0
139, 0.27923645471338, -0.091752838584324, 0
140, 0.29875036035089, -0.036802759663177, 0
141, 0.29499243794944, 0.021587913556443, 0
142, 0.29130947912518, 0.078544967558278, 0
143, 0.31234275068286, 0.13015227349442, 0
144, 0.35068476260889, 0.17083970446339, 0
145, 0.39419653296572, 0.20573505098944, 0
146, 0.44571442845089, 0.2243987466884, 0
147, 0.4966201631701, 0.20470403793866, 0
148, 0.52854004800901, 0.15903746856582, 0
149, 0.54471034312997, 0.10602209815913, 0
150, 0.57334412692916, 0.061239461822473, 0
151, 0.61689572754882, 0.073593455717685, 0
152, 0.66888029342851, 0.073654069778605, 0
153, 0.69118079917959, 0.029247960500478, 0
154, 0.66693125432963, -0.064543109786905, 0
155, 0.67987258917899, 0.0054266144144123, 0
156, 0.6898898824127, 0.05659571870221, 0
157, 0.64320736039497, 0.077027461590743, 0
158, 0.59137904589234, 0.066536498526525, 0
159, 0.55001896453948, 0.079212145324315, 0
160, 0.53820175844152, 0.13258683909011, 0
161, 0.5148961815451, 0.18371067863577, 0
162, 0.47291291273735, 0.21955373069155, 0
163, 0.41880202685142, 0.21872741127125, 0
164, 0.37194830761693, 0.18915687964362, 0
165, 0.33039953900047, 0.15143785239143, 0
166, 0.29860654079668, 0.10576506709678, 0
167, 0.29072006903104, 0.050424875499916, 0
168, 0.30004274384748, -0.007097421109424, 0
169, 0.28940594964134, -0.064742050519475, 0
170, 0.27296417981082, -0.12002300641757, 0
171, 0.28510645577493, -0.17347950461191, 0
172, 0.32856809346653, -0.20787214763802, 0
173, 0.3831329993615, -0.22544312415767, 0
174, 0.43819133503532, -0.23373227045357, 0
175, 0.49027089929977, -0.22039276925153, 0
176, 0.5409106397696, -0.20490598165732, 0
177, 0.58859710345103, -0.22872846651407, 0
178, 0.6344179844835, -0.25206044449764, 0
179, 0.68287828311075, -0.26612637207087, 0
180, 0.73176086091891, -0.26237396887274, 0
181, 0.76455678016896, -0.22582317739268, 0
182, 0.7571944048766, -0.1712701697551, 0
183, 0.72653492164487, -0.12287403251591, 0
184, 0.68706870218015, -0.082797270400992, 0
185, 0.57777516172072, 0.24540584700019, 0
186, 0.15198173719079, -0.016372241740557, 0
187, 0.17316214407336, 0.037091040805169, 0
188, 0.11471568061273, -0.040140191365564, 0
189, 0.27055236244951, -0.27659923796192, 0
190, 0.27933893606079, -0.004645558819846, 0
191, 0.065138397613688, 0.15895106326723, 0
192, 0.94748814436046, -0.13597451835444, 0
193, 0.088920487758177, -0.2236479842376, 0
194, 0.94907338599586, -0.19092144003286, 0
195, 0.75861425116834, -0.28932097614083, 0
196, 0.85099912171876, -0.24303506031785, 0
197, 0.95017412008065, -0.24553828838655, 0
198, 0.90046980554148, -0.24473723936255, 0
199, 0.2588744641704, -0.030533798296471, 0
200, 0.044587897410862, -0.22256221908424, 0
201, 0.061653000079305, 0.1029228482324, 0
202, 0.19741934468444, 0.17846643689018, 0
203, 0.13330846079752, -0.069197592157385, 0
204, 0.043530974615082, 0.16014572557929, 0
205, 0.18930163636283, 0.0071577247612911, 0
206, 0.27734139524418, 0.1676115719974, 0
207, 0.048336849083996, 0.24416284320458, 0
208, 0.14473246433587, 0.24110712094085, 0
209, 0.096610052659027, 0.24271995297697, 0
210, 0.19254549946865, 0.23904000649042, 0
211, 0.24023914210982, 0.23625481044151, 0
212, 0.28950225323918, 0.23256571070683, 0
213, 0.34942289978225, 0.22948492943692, 0
214, 0.41997792255354, 0.25645837074164, 0
215, 0.47343261164809, 0.25731724303504, 0
216, 0.038728026573302, -0.034122411343, 0
217, 0.039167281157365, 0.020839527260364, 0
218, 0.11720239707093, -0.12127389997154, 0
219, 0.20950524072767, 0.14760427435587, 0
220, 0.14259021331531, -0.17534810953235, 0
221, 0.019831085745325, -0.1150977707066, 0
222, 0.27072243441025, -0.16966226618894, 0
223, 0.080456507467271, -0.14517324361115, 0
224, 0.022525591219965, 0.18924193904138, 0
225, 0.0194206343513, -0.060165454796606, 0
226, 0.3016504371584, -0.2526387286202, 0
227, 0.10200816565413, 0.10006755303948, 0
228, 0.26049367306972, -0.0021480466430005, 0
229, 0.020645912277692, 0.10549306515803, 0
230, 0.063245980586227, 0.13090041458229, 0
231, 0.25805951886521, 0.17103435890809, 0
232, 0.13416226279121, -0.096221511823318, 0
233, 0.18067231974335, -0.17868985475456, 0
234, 0.042908080898996, -0.19644145817159, 0
235, 0.23565926065654, -0.08314882285571, 0
236, 0.24850860787601, 0.084627109066277, 0
237, 0.26814144439479, -0.19002487217186, 0
238, 0.19900156799462, -0.18063884400444, 0
239, 0.18709882499094, -0.10243074965745, 0
240, 0.02328046855945, -0.24822194475916, 0
241, 0.077216588692053, -0.064259828040301, 0
242, 0.11160720772553, 0.18471255119365, 0
243, 0.038855092576832, -0.0066918959284456, 0
244, 0.79516587626057, 0.19663563554821, 0
245, 0.74429766164401, 0.19361068435014, 0
246, 0.7520698585494, 0.14094593968363, 0
247, 0.77274983908546, 0.17014085864683, 0
248, 0.8945770075371, 0.1428970728256, 0
249, 0.94709958849732, 0.14006309826979, 0
250, 0.94795473455284, 0.19393380319848, 0
251, 0.89612870587361, 0.19530791601446, 0
252, 0.84506058461615, 0.19667188699464, 0
253, 0.94865591707438, 0.2472083851558, 0
254, 0.84498475322767, 0.24801563765071, 0
255, 0.89696613931345, 0.24763016602271, 0
256, 0.73988278412726, 0.24666942961232, 0
257, 0.79279586670751, 0.24777559931412, 0
258, 0.68601932362929, 0.24544789708192, 0
259, 0.63185142547463, 0.2448548192841, 0
260, 0.52422399781184, 0.24919266774699, 0
261, 0.58113844942074, 0.18811897729581, 0
262, 0.69074529444736, 0.19034256262077, 0
263, 0.636371525051, 0.18876017026633, 0
264, 0.64108104222125, 0.13173407002508, 0
265, 0.77676330354592, 0.14583553281776, 0
266, 0.69598277922765, 0.1329473379427, 0
267, 0.58887683432975, 0.13075243815658, 0
268, 0.74747359976979, 0.16723775895599, 0
269, 0.74906223580874, -0.017339317558504, 0
270, 0.78395358484665, 0.12275498600856, 0
271, 0.89195470542747, 0.089605679962882, 0
272, 0.94602219339063, 0.085717619900297, 0
273, 0.88982182980348, 0.0349656158366, 0
274, 0.94512772767057, 0.030938738110616, 0
275, 0.89048508464931, -0.079640849761243, 0
276, 0.9457564149248, -0.080357242941629, 0
277, 0.94485271899391, -0.024452044578023, 0
278, 0.8883849234148, -0.021487634902293, 0
279, 0.8322250411854, -0.081030981844742, 0
280, 0.80981330531729, 0.04391304764755, 0
281, 0.77986290594598, 0.030453870697945, 0
282, 0.83174432787439, 0.013820921557533, 0
283, 0.72045649496796, 0.0058968020171905, 0
284, 0.76516297417734, 0.0081863433614849, 0
285, 0.84944925556852, -0.18956219345824, 0
286, 0.89855297244071, -0.19029440722968, 0
287, 0.89503938293981, -0.13595313975657, 0
288, 0.84345433919071, -0.13803050159112, 0
289, 0.80405991261385, -0.18733716061943, 0
290, 0.79607778359086, -0.14586797177185, 0
291, 0.82668896916141, -0.04802543977583, 0
292, 0.83486379510585, 0.040690719492977, 0
293, 0.019387178920685, -0.032787074625919, 0
294, 0.1548590314366, 0.039053025139209, 0
295, 0.096855826772057, -0.092882930077443, 0
296, 0.75472573225254, -0.27012071291791, 0
297, 0.80209999363431, -0.23746063426387, 0
298, 0.70778745577959, -0.062085272734265, 0
299, 0.78281852909234, 0.063663924716342, 0
300, 0.31669258829112, 0.23061639099887, 0
301, 0.32958864054546, -0.22723415994559, 0
302, 0.057972330295282, -0.035498502026963, 0
303, 0.23450151936701, -0.11034604484357, 0
304, 0.21759368053108, -0.22967185875834, 0
305, 0.5319767614922, -0.25818338817502, 0
306, 0.18468331919299, -0.25189431636175, 0
307, 0.17571907770625, 0.065046176009528, 0
308, 0.069815455697135, -0.24883276282481, 0
309, 0.27050618289678, 0.11004248001653, 0
310, 0.20884287236475, 0.032923259887908, 0
311, 0.78109836784851, -0.23110681055018, 0
312, 0.72240866765191, -0.28235290149195, 0
313, 0.82030303755304, 0.17229759775642, 0
314, 0.84357729890108, 0.14650624982316, 0
315, 0.80409150787733, 0.020149970614736, 0
316, 0.68582306152455, -0.04022176357997, 0
317, 0.78315601304839, -0.18418515218574, 0
318, 0.77576784554635, -0.15417092676558, 0
319, 0.80295382140621, -0.1663411976001, 0
320, 0.020236066138058, -0.14250626830771, 0
321, 0.11959165701728, -0.14777052627365, 0
322, 0.13909465576155, -0.25043985912778, 0
323, 0.17105795998896, -0.27572270365152, 0
324, 0.1792485192959, 0.093090817271237, 0
325, 0.68379695531469, 0.27274776522454, 0
326, 0.73812466248413, 0.27331269002589, 0
327, 0.71303932655445, 0.24601335734217, 0
328, 0.7109966626463, 0.27300831768066, 0
329, 0.22317908398778, -0.025281159940536, 0
330, 0.32411190100897, -0.27436050767318, 0
331, 0.062164872551234, -0.17072192497595, 0
332, 0.25027243467914, 0.2033952787681, 0
333, 0.97374734803886, -0.13629359395022, 0
334, 0.94658472983434, -0.10824973828155, 0
335, 0.97293529062425, -0.080859989678157, 0
336, 0.97332183386863, -0.10860277242612, 0
337, 0.97249836247681, -0.025591078681759, 0
338, 0.94487249769175, 0.0033329525978686, 0
339, 0.97259275841132, 0.029251162343886, 0
340, 0.97248860294826, 0.0018698983455964, 0
341, 0.20219710772575, 0.26923911494992, 0
342, 0.16868076113064, 0.24015120783523, 0
343, 0.15140638064306, 0.27040083217884, 0
344, 0.17680315457549, 0.26985942504025, 0
345, 0.36387503650312, 0.26949609905284, 0
346, 0.30568570134629, 0.26650956005728, 0
347, 0.3338252923333, 0.26683165559693, 0
348, 0.060525469576954, -0.14412089401918, 0
349, 0.2845140970469, -0.21145622365099, 0
350, 0.23616364756918, -0.13707357348397, 0
351, 0.20718548478668, -0.20547719764513, 0
352, 0.24245952905503, 0.00031024304719943, 0
353, 0.29721524268138, 0.1336346662811, 0
354, 0.20993036241004, -0.15748439414779, 0
355, 0.90119679998114, -0.27230561801513, 0
356, 0.92529273322477, -0.24517045213695, 0
357, 0.9506293251469, -0.27277780495468, 0
358, 0.92590926136303, -0.27256384985128, 0
359, 0.024183896417089, 0.24494264636749, 0
360, 0.05017126778224, 0.27207962384854, 0
361, 0.025078122844711, 0.27249353728815, 0
362, 0.26443809304838, 0.23451897278456, 0
363, 0.25310695659524, 0.26776770389165, 0
364, 0.27899217947423, 0.26701897753427, 0
365, 0.94834067681749, -0.16351459533044, 0
366, 0.974518955516, -0.19132847581808, 0
367, 0.97415723833693, -0.1638577290899, 0
368, 0.082656835964983, -0.1716331605839, 0
369, 0.10292630518709, -0.17269774494258, 0
370, 0.064256824252057, -0.19702244857499, 0
371, 0.11930615065979, 0.070488074107715, 0
372, 0.19547890009884, -0.27610632896989, 0
373, 0.023323348668681, 0.21712830296039, 0
374, 0.093018172394868, -0.24927827815295, 0
375, 0.12070273536469, 0.2419576740087, 0
376, 0.10065572731639, 0.27129446058344, 0
377, 0.1260220748824, 0.2708744991249, 0
378, 0.086593747601473, 0.15770368701505, 0
379, 0.1839366079329, 0.20940923998352, 0
380, 0.059347491236519, 0.047214362370411, 0
381, 0.9735276537638, 0.13881544357635, 0
382, 0.9475643517696, 0.16706253327916, 0
383, 0.97396693243416, 0.19343983958705, 0
384, 0.97376291387957, 0.16618708477865, 0
385, 0.79186961939483, 0.27383205557534, 0
386, 0.76646753969021, 0.2473000176484, 0
387, 0.76507737828876, 0.27360595416299, 0
388, 0.81893151154934, 0.24800910074306, 0
389, 0.84493611291796, 0.2739696057287, 0
390, 0.81845912855118, 0.27395333385522, 0
391, 0.94552717671875, 0.058389241476584, 0
392, 0.9730080879738, 0.083969959903323, 0
393, 0.97277559517761, 0.056617594236126, 0
394, 0.12888492275806, 0.15489569254742, 0
395, 0.20565035642282, -0.13147473298902, 0
396, 0.26541578949868, -0.088910283046979, 0
397, 0.20340983358406, -0.077850670490161, 0
398, 0.94656692399667, 0.11294739588048, 0
399, 0.97326935779629, 0.11140434982782, 0
400, 0.97508270324204, -0.24594401679128, 0
401, 0.97531862217108, -0.27299921368838, 0
402, 0.18771178945191, -0.20385010711772, 0
403, 0.4552739734012, -0.26455113861759, 0
404, 0.14774727566875, -0.20097815829073, 0
405, 0.080220099367028, 0.073598568422414, 0
406, 0.58112037767394, -0.26516101507056, 0
407, 0.22846569073326, 0.14527835636515, 0
408, 0.94514504346365, -0.052388422115747, 0
409, 0.97264820100703, -0.053194403955553, 0
410, 0.87099179800072, 0.24786158095403, 0
411, 0.89745189659365, 0.27381027404681, 0
412, 0.87125372506567, 0.27391005941919, 0
413, 0.21635991966706, 0.23776374946267, 0
414, 0.22757826900263, 0.26853756199008, 0
415, 0.20740823412349, -0.25265697401071, 0
416, 0.19302085414955, -0.15513356638066, 0
417, 0.18999450632037, 0.14969363267364, 0
418, 0.09706843178844, 0.016526683551746, 0
419, 0.072483783015441, 0.24344616994797, 0
420, 0.075387446019972, 0.2716869171745, 0
421, 0.65893445089576, 0.24504741921671, 0
422, 0.62965309730156, 0.27250848273944, 0
423, 0.65667133570702, 0.27257080381976, 0
424, 0.15508449451687, 0.18192128045677, 0
425, 0.20707130750307, 0.0049822736508185, 0
426, 0.24506337312101, -0.27666605199864, 0
427, 0.098162872537705, -0.11976765039578, 0
428, 0.87571830427232, -0.24410224881311, 0
429, 0.85152850549518, -0.27132359158094, 0
430, 0.87648919174197, -0.27192972071801, 0
431, 0.19115608937116, 0.035038659203295, 0
432, 0.19376650568829, 0.063036642848861, 0
433, 0.073277157261126, -0.27447440523294, 0
434, 0.31378564917351, 0.15802931263205, 0
435, 0.14134853787937, 0.096782931774523, 0
436, 0.94829629638339, 0.22063879531804, 0
437, 0.97435344953165, 0.2471633938024, 0
438, 0.97415379674788, 0.22039212424249, 0
439, 0.82629586618754, -0.24110271667298, 0
440, 0.82559901273362, -0.27031448291339, 0
441, 0.14665027102972, -0.2753508629443, 0
442, 0.20365456692653, -0.10488181659181, 0
443, 0.11566715408885, -0.094476038342554, 0
444, 0.04034156426219, 0.076347821824021, 0
445, 0.15141319703029, -0.071105767339689, 0
446, 0.25088182684363, -0.085994970614109, 0
447, 0.57656198966916, 0.27293969092782, 0
448, 0.5507923554789, 0.24661838809222, 0
449, 0.52487561219006, 0.27493208270996, 0
450, 0.55054826691249, 0.27365645304655, 0
451, 0.60481880885235, 0.2449271956907, 0
452, 0.60300532198594, 0.27260405246048, 0
453, 0.038800447139696, -0.061496339126144, 0
454, 0.07792884256479, 0.018078268843754, 0
455, 0.94912473257918, 0.27363643265799, 0
456, 0.97460464334646, 0.27362779147434, 0
457, 0.058618979211553, 0.019503989118516, 0
458, 0.26093348380175, 0.054484023044299, 0
459, 0.20558432101636, -0.022855612152658, 0
460, 0.29604886322003, 0.16341252864698, 0
461, 0.277027233708, -0.25371247683771, 0
462, 0.099880523119844, 0.072108645758184, 0
463, 0.47452890577778, 0.27829438359699, 0
464, 0.44725541303652, 0.25865549669855, 0
465, 0.42224860709601, 0.27798560565036, 0
466, 0.44872402210213, 0.27887953056041, 0
467, 0.82802532645169, -0.015450800250465, 0
468, 0.78615061336131, -0.12228310924941, 0
469, 0.76360037055169, -0.13291942213818, 0
470, 0.92285308456333, 0.24739029637292, 0
471, 0.92336930341546, 0.27370815363052, 0
472, 0.94967412138288, -0.21824807037063, 0
473, 0.97482359562458, -0.21867839332219, 0
474, 0.79388955812311, 0.22196780678096, 0
475, 0.84507493115209, 0.22221939066418, 0
476, 0.82000803770696, 0.196975606494, 0
477, 0.81948063109967, 0.22229393875048, 0
478, 0.048779753066394, -0.27428106875905, 0
479, 0.16186148336157, -0.17693671729049, 0
480, 0.098249362581713, 0.044240817955962, 0
481, 0.069782632880207, 0.21523094850673, 0
482, 0.30566503820696, -0.21119715067498, 0
483, 0.18395891284546, 0.12129513629139, 0
484, 0.87371722361221, -0.18998751062135, 0
485, 0.89965095137491, -0.21740552528551, 0
486, 0.85057381047764, -0.21578528030812, 0
487, 0.87493050741322, -0.21678987816285, 0
488, 0.20622838484859, 0.2077503674548, 0
489, 0.18914379584365, -0.12904046160651, 0
490, 0.16994148935377, -0.10017429477438, 0
491, 0.11589510894435, 0.21323336515773, 0
492, 0.20268492755507, 0.11925202657416, 0
493, 0.078891056427713, 0.045778267519346, 0
494, 0.41890496833915, 0.23654045167765, 0
495, 0.47283445994271, 0.23765095177469, 0
496, 0.44631391202187, 0.24025372854697, 0
497, 0.041210123113807, 0.10423158077874, 0
498, 0.26468281018962, -0.21042851274005, 0
499, 0.23022134479881, -0.25333619015103, 0
500, 0.74187971135817, 0.22009341974274, 0
501, 0.77007972655825, 0.19537428362048, 0
502, 0.76808667918114, 0.22117529113952, 0
503, 0.39010192252954, 0.24932637923273, 0
504, 0.39445251116219, 0.27528691846564, 0
505, 0.6146623054057, 0.13112885291356, 0
506, 0.64256750540533, 0.1033567414835, 0
507, 0.5917008588506, 0.10064875229846, 0
508, 0.61653854254328, 0.10217707738305, 0
509, 0.92075522087578, 0.1414041677911, 0
510, 0.91901545963772, 0.087550872350687, 0
511, 0.8933322184515, 0.11643258182602, 0
512, 0.91990941495825, 0.11458783548025, 0
513, 0.12501060868183, 0.12660806825058, 0
514, 0.058157443836035, -0.0080520979343472, 0
515, 0.24084531526292, -0.027818369331725, 0
516, 0.24545251658007, -0.20888266593096, 0
517, 0.15137902399566, -0.043849531102143, 0
518, 0.12726654268125, -0.19976445495292, 0
519, 0.42676456504621, -0.26500847238694, 0
520, 0.62836070055351, -0.27527980210802, 0
521, 0.60479091427909, -0.27036015547462, 0
522, 0.23858858054239, -0.23078751025912, 0
523, 0.096008403557276, -0.038499020996476, 0
524, 0.79087401379005, 0.046057680076855, 0
525, 0.79540119823353, -0.0078224038877223, 0
526, 0.91754433437196, 0.032798187139551, 0
527, 0.89082644848535, 0.062421882910946, 0
528, 0.91821938891904, 0.060289484058965, 0
529, 0.12223918375905, -0.2750105087798, 0
530, 0.17001049284528, 0.15158568531535, 0
531, 0.10016413335789, -0.14638342881615, 0
532, 0.078850924826676, -0.11842797996581, 0
533, 0.019563299912339, -0.087555402900981, 0
534, 0.67583525206872, -0.28218774734424, 0
535, 0.65200281861428, -0.2793572837752, 0
536, 0.92199083998748, 0.19457934462787, 0
537, 0.89550221684372, 0.16914429440507, 0
538, 0.92145171383738, 0.16805069295006, 0
539, 0.74049006671417, 0.075970026697975, 0
540, 0.72944423335026, -0.084682185414794, 0
541, 0.78531397605628, -0.044847579129178, 0
542, 0.49884385622873, 0.25356969362313, 0
543, 0.4996994009924, 0.27673499648784, 0
544, 0.6681268789617, 0.13211483718051, 0
545, 0.69745922821226, 0.10080047503272, 0
546, 0.66936473532989, 0.10261654082977, 0
547, 0.74370909519156, -0.28465885699455, 0
548, 0.77103253225354, -0.25468833850567, 0
549, 0.68830160406228, 0.21801811841476, 0
550, 0.71776578589776, 0.19180832489216, 0
551, 0.71524556447686, 0.21897174159961, 0
552, 0.096320131856326, -0.011054559108014, 0
553, 0.24994194428852, -0.14028966565637, 0
554, 0.2322396456267, 0.086800074207814, 0
555, 0.077077300253874, -0.036943825740806, 0
556, 0.15226728729888, -0.098098110135541, 0
557, 0.021473977536883, -0.19607491313844, 0
558, 0.21980917801898, -0.080412325476935, 0
559, 0.29679305006151, -0.2759843116931, 0
560, 0.14962093933011, 0.1533028556956, 0
561, 0.2563867833219, -0.16614087550062, 0
562, 0.077321341443621, -0.0094900267290075, 0
563, 0.044973295406004, 0.18816230732413, 0
564, 0.22081011970071, 0.11705616568222, 0
565, 0.21520194367781, 0.08895918480441, 0
566, 0.25333619526078, -0.25378133846017, 0
567, 0.22612924944053, -0.16008218248506, 0
568, 0.91833468112989, -0.079902817864755, 0
569, 0.92123563354233, -0.13582212200099, 0
570, 0.89273585933229, -0.10814327689358, 0
571, 0.91973842951327, -0.10804117445165, 0
572, 0.91689294460167, -0.023126191807129, 0
573, 0.88888494982124, 0.0070623112945527, 0
574, 0.91704053330269, 0.0050084334813086, 0
575, 0.69937182566607, -0.28332946997272, 0
576, 0.56358275543107, 0.13133361526759, 0
577, 0.56855196295093, 0.10147091615891, 0
578, 0.35365384195369, -0.2707506064908, 0
579, 0.28168258223922, -0.23188989430463, 0
580, 0.097775650697099, -0.27471660480063, 0
581, 0.17641548959143, 0.18030171305272, 0
582, 0.80435115661369, -0.21093299783811, 0
583, 0.78391982372614, -0.2059644711058, 0
584, 0.52241393120338, 0.22114633790069, 0
585, 0.4979785930448, 0.23020054510022, 0
586, 0.059318576880949, -0.1172183829826, 0
587, 0.046585611769663, 0.21617508293144, 0
588, 0.10648508185048, -0.19868909318672, 0
589, 0.13845048883429, 0.068755712606698, 0
590, 0.36067977471773, 0.20734552762801, 0
591, 0.024379584261352, -0.27413242664728, 0
592, 0.55145121223462, 0.18748997160018, 0
593, 0.58495379105753, 0.15958961732481, 0
594, 0.55751658197139, 0.15951881053263, 0
595, 0.39042083893337, 0.22590081149853, 0
596, 0.86873320296482, 0.14459020546057, 0
597, 0.86468385566064, 0.092020392612423, 0
598, 0.75940980896047, 0.11466620404304, 0
599, 0.86692618930204, 0.11862528983799, 0
600, 0.11487512648482, -0.067417312401138, 0
601, 0.88884691123448, -0.050568908694325, 0
602, 0.9173109752044, -0.051512633724986, 0
603, 0.86208412610782, 0.037582707859834, 0
604, 0.81982171730549, 0.14853007043223, 0
605, 0.86334151419172, 0.064829390264743, 0
606, 0.22136366386812, -0.13414636475211, 0
607, 0.16472204061254, 0.12319428930912, 0
608, 0.63403063646007, 0.21694233893439, 0
609, 0.66357199509451, 0.18936634737663, 0
610, 0.66120581288163, 0.21733926055383, 0
611, 0.15418572772941, -0.22623308557297, 0
612, 0.73688293009363, 0.02914112696262, 0
613, 0.79664821657449, 0.1722365268209, 0
614, 0.81695237888693, 0.12552892960399, 0
615, 0.79831439718465, 0.14983681199148, 0
616, 0.066806835773154, -0.22303566494582, 0
617, 0.27618534137586, 0.052401516103349, 0
618, 0.92372094529365, -0.19058768603916, 0
619, 0.9245954421641, -0.21784964118715, 0
620, 0.83827609554116, -0.11073637257465, 0
621, 0.86192315511013, -0.07982353722438, 0
622, 0.86902345905127, -0.13657301607108, 0
623, 0.86555392679831, -0.1088556226823, 0
624, 0.85895320048051, -0.019213887462966, 0
625, 0.80818132575878, 0.068570718154267, 0
626, 0.86037360078536, 0.0098069672874812, 0
627, 0.22013777586341, -0.27645077599123, 0
628, 0.31571928774817, 0.19128810496008, 0
629, 0.16928613098511, -0.045902446711113, 0
630, 0.57906069944599, 0.21708083894185, 0
631, 0.60903399404245, 0.18838574855432, 0
632, 0.60671839485224, 0.21682781051684, 0
633, 0.89703051495513, -0.16323679394821, 0
634, 0.92260075671614, -0.16329223764561, 0
635, 0.84724210317587, -0.16392919608311, 0
636, 0.87180413926383, -0.16341716966908, 0
637, 0.24679524657785, 0.14272169580771, 0
638, 0.039626065740315, -0.11611882500921, 0
639, 0.1966163524577, -0.22848698012075, 0
640, 0.82610101817569, -0.18881253594004, 0
641, 0.82685673085707, -0.21401960245748, 0
642, 0.27779111388511, -0.033464885662372, 0
643, 0.020781310756695, -0.16943186784797, 0
644, 0.89657124616156, 0.22146131789712, 0
645, 0.9224269972537, 0.22101738866323, 0
646, 0.25982915468222, -0.23163948495816, 0
647, 0.040432448097275, -0.14322651061296, 0
648, 0.13866582533568, -0.14933166194902, 0
649, 0.81885746801159, -0.14087147411531, 0
650, 0.82392827331857, -0.16488221384422, 0
651, 0.33455462645987, 0.1822034489784, 0
652, 0.87045129425276, 0.19604525009504, 0
653, 0.87077222941163, 0.22189652569961, 0
654, 0.63884974629791, 0.16035039299096, 0
655, 0.61190835403865, 0.15986702010934, 0
656, 0.21681409922601, -0.18275777489358, 0
657, 0.22625280803928, 0.030710818165501, 0
658, 0.13346762898917, 0.18338570256267, 0
659, 0.046556490082323, -0.24848465038385, 0
660, 0.83650165892655, 0.095066729968938, 0
661, 0.86985048836141, 0.17030998043676, 0
662, 0.69337350374811, 0.16218559104098, 0
663, 0.66598185232015, 0.1610189258473, 0
664, 0.55078977452276, 0.2180404645668, 0
665, 0.72871213308663, -0.040624230607769, 0
666, 0.76048107558187, 0.049597295538734, 0
667, 0.13626268165356, 0.040877300711476, 0
668, 0.171943766877, -0.12680191414107, 0
669, 0.77153987891456, 0.088650788830154, 0
670, 0.77272624384764, -0.095413725374881, 0
671, 0.85915733148299, -0.049495745164071, 0
672, 0.060356982469574, 0.075021586349261, 0
673, 0.12293182287124, -0.17394628596987, 0
674, 0.1754502107985, -0.15299087956539, 0
675, 0.75404581889737, -0.066205323938005, 0
676, 0.79989529490231, 0.13207275224337, 0
677, 0.74826323561547, -0.10886732360377, 0
678, 0.84470224249735, 0.17144732542652, 0
679, 0.80110511362447, -0.084739983585025, 0
680, 0.8410143722753, 0.12144965176461, 0
681, 0.72478581767146, 0.13625752933025, 0
682, 0.73046126147918, 0.10680233823901, 0
683, 0.12183038622611, 0.098480708414387, 0
684, 0.23416003723093, -0.18505655625319, 0
685, 0.22638058913396, -0.20717893926228, 0
686, 0.16193997080232, -0.25113807322624, 0
687, 0.13264487296801, -0.2252541247769, 0
688, 0.067323590746055, 0.18706446209257, 0
689, 0.81133841962994, -0.11476694263445, 0
690, 0.25117175902, -0.18750867765628, 0
691, 0.19750584220328, 0.091090023302671, 0
692, 0.72082338601933, 0.16436178930041, 0
693, 0.17133511038813, 0.0092690953201603, 0
694, 0.80360156485089, 0.099970717135386, 0
695, 0.22832842591954, 0.20577925679981, 0
696, 0.79521491270525, -0.26859307757937, 0
697, 0.83575912239468, 0.067288836271173, 0
698, 0.18691197619075, -0.048127990201019, 0
699, 0.18791160021987, -0.020582695560234, 0
700, 0.11087721946147, -0.22438601515773, 0
701, 0.039661072804889, 0.04854299335256, 0
702, 0.77229306851657, -0.28115335465075, 0
703, 0.70382115668641, -0.01736056394283, 0
704, 0.78653445165956, -0.16819576246213, 0
705, 0.28512222957621, 0.10778253831755, 0
706, 0.039089955631119, -0.088822840476686, 0
707, 0.17550540137624, -0.2273248161032, 0
708, 0.058516503932104, -0.090095562531319, 0
709, 0.23828139106611, 0.17390568484032, 0
710, 0.021807819895818, 0.16130875859382, 0
711, 0.10466055476068, 0.12814566012614, 0
712, 0.21805544046468, 0.17636246482767, 0
713, 0.084055024369748, 0.12957680247677, 0
714, 0.25483850438493, 0.1124049684622, 0
715, 0.48146240797702, -0.26209634308236, 0
716, 0.11510556514375, -0.012698106476158, 0
717, 0.019453280104391, -0.0053914663528627, 0
718, 0.13469196258051, 0.013123864212417, 0
719, 0.29390711914412, 0.19655395795715, 0
720, 0.27202167995713, -0.061490198621204, 0
721, 0.22474394241867, 0.0026775890111503, 0
722, 0.22846384720441, 0.058775905997653, 0
723, 0.28562451705193, -0.19234623443275, 0
724, 0.15731405939127, -0.15107414140127, 0
725, 0.17005803239295, -0.018412004762062, 0
726, 0.16050704677212, 0.094990466698632, 0
727, 0.32778952856712, -0.24963782720743, 0
728, 0.1336697679293, -0.014489983986164, 0
729, 0.077789815195387, -0.091436556002792, 0
730, 0.21136540727625, 0.060928506936182, 0
731, 0.26441427620065, 0.13994212446525, 0
732, 0.26046067806869, 0.026212251747716, 0
733, 0.24159356495308, -0.162953810388, 0
734, 0.20425260233337, -0.050474395587744, 0
735, 0.27819673181734, 0.08042870684544, 0
736, 0.08193608622911, 0.10152687693642, 0
737, 0.09616738492613, -0.065788040052262, 0
738, 0.26387739568888, 0.082475819286077, 0
739, 0.042274088447393, 0.13216295846062, 0
740, 0.11737986258332, 0.042628601836265, 0
741, 0.085469955005295, -0.19778077327478, 0
742, 0.5067035176208, -0.25914182580228, 0
743, 0.18650724766406, -0.075430238155512, 0
744, 0.092893356243269, 0.21427045740649, 0
745, 0.11611771526647, -0.24981288865189, 0
746, 0.021179767801041, 0.13338308510288, 0
747, 0.38932971423817, -0.2618299296513, 0
748, 0.24852354337948, -0.11337812888146, 0
749, 0.23826346544871, -0.055655354651725, 0
750, 0.16144225006819, 0.21083942424752, 0
751, 0.11599308772575, 0.014896927988621, 0
752, 0.30466074282944, -0.23087934106274, 0
753, 0.041523123951226, -0.16999022892813, 0
754, 0.25509126296222, -0.058477010450875, 0
755, 0.13589607915663, -0.12294390867372, 0
756, 0.35676022245241, -0.24251870025615, 0
757, 0.15726639401274, 0.066954656646859, 0
758, 0.13318746119757, -0.04194244992526, 0
759, 0.058081182672316, -0.062846429543449, 0
760, 0.019863191470797, 0.049813936395873, 0
761, 0.2434260218031, 0.028479176909373, 0
762, 0.020207641685309, 0.077632495192504, 0
763, 0.26262937970546, -0.14384103673183, 0
764, 0.022306662466246, -0.22223040032579, 0
765, 0.27211590955811, 0.20042699337786, 0
766, 0.2613992512332, -0.11660787501467, 0
767, 0.23823208902954, 0.11475345811331, 0
768, 0.21949550535296, -0.10751334651896, 0
769, 0.55684673961471, -0.26057563617191, 0
770, 0.2775329164127, 0.023913520883149, 0
771, 0.24500625297863, 0.05662039309328, 0
772, 0.15313504881429, 0.011270392244971, 0
773, 0.15417252954578, -0.12478884108264, 0
774, 0.13875421822846, 0.21210905930875, 0
775, 0.16790785602547, -0.20234980843338, 0
776, 0.28124437808684, 0.13691436574779, 0
777, 0.10785885395128, 0.15635452631656, 0
778, 0.14505144139725, 0.12495054864071, 0
779, 0.22135372304369, -0.052997385445077, 0
780, 0.019612129898604, 0.022081013807715, 0
781, 0.08954526895496, 0.18593407942609, 0
782, 0.16915625350395, -0.073171236379711, 0
******* E L E M E N T S *************
*ELEMENT, type=CPS4, ELSET=Surface1
1, 258, 327, 328, 325
2, 325, 328, 73, 81
3, 328, 326, 80, 73
4, 327, 256, 326, 328
5, 752, 349, 498, 579
6, 672, 201, 497, 444
7, 434, 651, 628, 460
8, 674, 668, 773, 724
9, 61, 335, 336, 50
10, 50, 336, 333, 60
11, 336, 334, 192, 333
12, 335, 276, 334, 336
13, 62, 52, 340, 337
14, 337, 340, 338, 277
15, 340, 339, 274, 338
16, 52, 63, 339, 340
17, 99, 92, 344, 341
18, 341, 344, 342, 210
19, 344, 343, 208, 342
20, 92, 100, 343, 344
21, 96, 89, 347, 345
22, 345, 347, 300, 213
23, 347, 346, 212, 300
24, 89, 97, 346, 347
25, 519, 2, 25, 403
26, 607, 530, 560, 778
27, 515, 352, 721, 329
28, 441, 529, 12, 20
29, 578, 727, 226, 330
30, 403, 715, 175, 134
31, 434, 165, 144, 651
32, 600, 188, 523, 737
33, 45, 37, 358, 355
34, 355, 358, 356, 198
35, 358, 357, 197, 356
36, 37, 46, 357, 358
37, 207, 360, 361, 359
38, 359, 361, 103, 114
39, 361, 95, 8, 103
40, 360, 102, 95, 361
41, 212, 346, 364, 362
42, 362, 364, 363, 211
43, 364, 90, 98, 363
44, 346, 97, 90, 364
45, 194, 366, 367, 365
46, 365, 367, 333, 192
47, 367, 49, 60, 333
48, 366, 59, 49, 367
49, 731, 206, 231, 637
50, 187, 307, 757, 294
51, 532, 729, 708, 586
52, 763, 138, 170, 766
53, 732, 458, 771, 761
54, 726, 607, 778, 435
55, 606, 768, 442, 395
56, 100, 93, 377, 343
57, 343, 377, 375, 208
58, 377, 376, 209, 375
59, 93, 101, 376, 377
60, 517, 186, 728, 758
61, 553, 748, 303, 350
62, 739, 204, 710, 746
63, 498, 690, 684, 516
64, 65, 55, 384, 381
65, 381, 384, 382, 249
66, 384, 383, 250, 382
67, 55, 66, 383, 384
68, 80, 326, 387, 72
69, 72, 387, 385, 79
70, 387, 386, 257, 385
71, 326, 256, 386, 387
72, 254, 389, 390, 388
73, 388, 390, 385, 257
74, 390, 71, 79, 385
75, 389, 78, 71, 390
76, 64, 392, 393, 53
77, 53, 393, 339, 63
78, 393, 391, 274, 339
79, 392, 272, 391, 393
80, 735, 705, 309, 738
81, 348, 586, 638, 647
82, 683, 513, 711, 227
83, 648, 755, 218, 321
84, 65, 381, 399, 54
85, 54, 399, 392, 64
86, 399, 398, 272, 392
87, 381, 249, 398, 399
88, 46, 38, 401, 357
89, 357, 401, 400, 197
90, 401, 47, 58, 400
91, 38, 4, 47, 401
92, 561, 553, 350, 733
93, 301, 482, 349, 752
94, 759, 302, 216, 453
95, 523, 552, 562, 555
96, 480, 462, 405, 493
97, 657, 722, 730, 310
98, 203, 758, 188, 600
99, 629, 725, 186, 517
100, 61, 51, 409, 335
101, 335, 409, 408, 276
102, 409, 337, 277, 408
103, 51, 62, 337, 409
104, 255, 411, 412, 410
105, 410, 412, 389, 254
106, 412, 70, 78, 389
107, 411, 77, 70, 412
108, 211, 363, 414, 413
109, 413, 414, 341, 210
110, 414, 91, 99, 341
111, 363, 98, 91, 414
112, 748, 446, 235, 303
113, 773, 556, 232, 755
114, 454, 493, 380, 457
115, 667, 589, 371, 740
116, 101, 94, 420, 376
117, 376, 420, 419, 209
118, 420, 360, 207, 419
119, 94, 102, 360, 420
120, 81, 74, 423, 325
121, 325, 423, 421, 258
122, 423, 422, 259, 421
123, 74, 82, 422, 423
124, 425, 310, 431, 205
125, 642, 140, 168, 190
126, 190, 168, 141, 770
127, 396, 139, 169, 720
128, 196, 429, 430, 428
129, 428, 430, 355, 198
130, 430, 36, 45, 355
131, 429, 44, 36, 430
132, 687, 518, 588, 700
133, 372, 323, 13, 21
134, 668, 490, 556, 773
135, 770, 141, 167, 617
136, 516, 684, 656, 685
137, 718, 667, 740, 751
138, 329, 721, 425, 459
139, 228, 732, 761, 352
140, 559, 461, 566, 189
141, 658, 774, 491, 242
142, 483, 417, 530, 607
143, 565, 564, 492, 691
144, 66, 56, 438, 383
145, 383, 438, 436, 250
146, 438, 437, 253, 436
147, 56, 67, 437, 438
148, 548, 311, 181, 128
149, 439, 440, 429, 196
150, 440, 35, 44, 429
151, 297, 439, 641, 582
152, 433, 478, 18, 11
153, 757, 726, 435, 589
154, 780, 760, 107, 118
155, 370, 331, 753, 234
156, 706, 453, 225, 533
157, 191, 688, 563, 204
158, 567, 606, 395, 354
159, 617, 735, 738, 458
160, 6, 83, 450, 447
161, 447, 450, 448, 185
162, 450, 449, 260, 448
163, 83, 86, 449, 450
164, 82, 75, 452, 422
165, 422, 452, 451, 259
166, 452, 447, 185, 451
167, 75, 6, 447, 452
168, 711, 777, 378, 713
169, 237, 561, 733, 690
170, 617, 167, 142, 735
171, 729, 241, 759, 708
172, 67, 57, 456, 437
173, 437, 456, 455, 253
174, 456, 68, 76, 455
175, 57, 5, 68, 456
176, 611, 404, 518, 687
177, 646, 516, 685, 522
178, 457, 380, 701, 217
179, 778, 560, 394, 513
180, 230, 191, 204, 739
181, 651, 590, 213, 628
182, 755, 232, 443, 218
183, 87, 85, 466, 463
184, 463, 466, 464, 215
185, 466, 465, 214, 464
186, 85, 7, 465, 466
187, 290, 468, 469, 318
188, 318, 469, 126, 182
189, 281, 524, 299, 666
190, 253, 455, 471, 470
191, 470, 471, 411, 255
192, 471, 69, 77, 411
193, 455, 76, 69, 471
194, 59, 366, 473, 48
195, 48, 473, 400, 58
196, 473, 472, 197, 400
197, 366, 194, 472, 473
198, 244, 476, 477, 474
199, 474, 477, 388, 257
200, 477, 475, 254, 388
201, 476, 252, 475, 477
202, 224, 373, 104, 115
203, 710, 224, 115, 105
204, 656, 354, 416, 238
205, 659, 200, 764, 240
206, 766, 396, 446, 748
207, 637, 231, 709, 407
208, 685, 656, 238, 351
209, 285, 486, 487, 484
210, 484, 487, 485, 286
211, 487, 428, 198, 485
212, 486, 196, 428, 487
213, 406, 521, 131, 177
214, 768, 558, 397, 442
215, 774, 208, 375, 491
216, 416, 489, 668, 674
217, 216, 243, 717, 293
218, 766, 170, 139, 396
219, 560, 424, 658, 394
220, 435, 778, 513, 683
221, 162, 495, 496, 146
222, 146, 496, 494, 163
223, 496, 464, 214, 494
224, 495, 215, 464, 496
225, 716, 751, 418, 552
226, 777, 242, 781, 378
227, 782, 629, 517, 445
228, 368, 223, 348, 331
229, 245, 501, 502, 500
230, 500, 502, 386, 256
231, 502, 474, 257, 386
232, 501, 244, 474, 502
233, 96, 345, 504, 88
234, 88, 504, 465, 7
235, 504, 503, 214, 465
236, 345, 213, 503, 504
237, 267, 507, 508, 505
238, 505, 508, 506, 264
239, 508, 151, 157, 506
240, 507, 158, 151, 508
241, 248, 511, 512, 509
242, 509, 512, 398, 249
243, 512, 510, 272, 398
244, 511, 271, 510, 512
245, 310, 730, 432, 431
246, 222, 763, 553, 561
247, 616, 370, 234, 200
248, 563, 587, 373, 224
249, 781, 744, 481, 688
250, 764, 557, 122, 112
251, 736, 713, 230, 201
252, 426, 627, 14, 22
253, 431, 432, 307, 187
254, 217, 701, 760, 780
255, 521, 520, 178, 131
256, 30, 39, 520, 521
257, 330, 226, 461, 559
258, 351, 238, 233, 402
259, 490, 782, 445, 556
260, 765, 212, 362, 332
261, 670, 677, 469, 468
262, 541, 269, 665, 675
263, 279, 620, 623, 621
264, 703, 283, 153, 155
265, 271, 527, 528, 510
266, 510, 528, 391, 272
267, 528, 526, 274, 391
268, 527, 273, 526, 528
269, 723, 222, 561, 237
270, 693, 187, 294, 772
271, 531, 427, 532, 223
272, 747, 578, 24, 17
273, 354, 395, 489, 416
274, 533, 225, 109, 120
275, 206, 719, 765, 231
276, 433, 308, 659, 478
277, 432, 691, 324, 307
278, 719, 300, 212, 765
279, 243, 217, 780, 717
280, 40, 534, 535, 31
281, 31, 535, 520, 39
282, 535, 130, 178, 520
283, 534, 179, 130, 535
284, 291, 671, 624, 467
285, 282, 626, 603, 292
286, 679, 670, 468, 689
287, 251, 537, 538, 536
288, 536, 538, 382, 250
289, 538, 509, 249, 382
290, 537, 248, 509, 538
291, 541, 679, 279, 291
292, 677, 183, 126, 469
293, 540, 298, 184, 125
294, 215, 542, 543, 463
295, 463, 543, 84, 87
296, 543, 449, 86, 84
297, 542, 260, 449, 543
298, 157, 152, 546, 506
299, 506, 546, 544, 264
300, 546, 545, 266, 544
301, 152, 156, 545, 546
302, 702, 296, 547, 195
303, 696, 702, 34, 43
304, 312, 41, 33, 547
305, 696, 297, 311, 548
306, 262, 550, 551, 549
307, 549, 551, 327, 258
308, 551, 500, 256, 327
309, 550, 245, 500, 551
310, 643, 320, 121, 111
311, 723, 137, 171, 222
312, 301, 136, 172, 482
313, 746, 710, 105, 116
314, 304, 351, 402, 639
315, 235, 749, 779, 558
316, 380, 672, 444, 701
317, 745, 700, 193, 374
318, 223, 532, 586, 348
319, 232, 203, 600, 443
320, 586, 708, 706, 638
321, 742, 26, 29, 305
322, 578, 330, 16, 24
323, 720, 642, 199, 754
324, 756, 301, 752, 727
325, 403, 25, 28, 715
326, 751, 740, 480, 418
327, 445, 517, 758, 203
328, 330, 559, 23, 16
329, 407, 709, 712, 219
330, 199, 228, 352, 515
331, 404, 220, 673, 518
332, 691, 492, 483, 324
333, 275, 570, 571, 568
334, 568, 571, 334, 276
335, 571, 569, 192, 334
336, 570, 287, 569, 571
337, 277, 338, 574, 572
338, 572, 574, 573, 278
339, 574, 526, 273, 573
340, 338, 274, 526, 574
341, 41, 312, 575, 32
342, 32, 575, 534, 40
343, 575, 129, 179, 534
344, 312, 180, 129, 575
345, 159, 150, 577, 149
346, 149, 577, 576, 160
347, 577, 507, 267, 576
348, 150, 158, 507, 577
349, 557, 643, 111, 122
350, 222, 171, 138, 763
351, 767, 637, 407, 564
352, 579, 498, 516, 646
353, 488, 413, 210, 379
354, 701, 444, 762, 760
355, 497, 739, 746, 229
356, 321, 218, 427, 531
357, 548, 128, 180, 296
358, 127, 583, 317, 182
359, 583, 582, 289, 317
360, 296, 180, 312, 547
361, 162, 147, 585, 495
362, 495, 585, 542, 215
363, 585, 584, 260, 542
364, 147, 161, 584, 585
365, 307, 324, 726, 757
366, 747, 135, 173, 756
367, 730, 565, 691, 432
368, 763, 766, 748, 553
369, 305, 29, 27, 769
370, 332, 362, 211, 695
371, 591, 113, 1, 10
372, 733, 350, 606, 567
373, 552, 418, 454, 562
374, 647, 638, 221, 320
375, 236, 714, 767, 554
376, 160, 576, 594, 148
377, 148, 594, 592, 161
378, 594, 593, 261, 592
379, 576, 267, 593, 594
380, 213, 590, 595, 503
381, 503, 595, 494, 214
382, 595, 145, 163, 494
383, 590, 164, 145, 595
384, 675, 540, 677, 670
385, 596, 599, 511, 248
386, 599, 597, 271, 511
387, 303, 235, 558, 768
388, 352, 761, 657, 721
389, 529, 580, 19, 12
390, 638, 706, 533, 221
391, 278, 601, 602, 572
392, 572, 602, 408, 277
393, 602, 568, 276, 408
394, 601, 275, 568, 602
395, 681, 246, 268, 692
396, 597, 605, 527, 271
397, 605, 603, 273, 527
398, 378, 781, 688, 191
399, 418, 480, 493, 454
400, 690, 733, 567, 684
401, 481, 419, 207, 587
402, 263, 609, 610, 608
403, 608, 610, 421, 259
404, 610, 549, 258, 421
405, 609, 262, 549, 610
406, 709, 332, 695, 712
407, 491, 375, 209, 744
408, 721, 657, 310, 425
409, 625, 694, 669, 299
410, 313, 476, 244, 613
411, 315, 280, 524, 281
412, 225, 293, 119, 109
413, 749, 515, 329, 779
414, 331, 348, 647, 753
415, 234, 753, 643, 557
416, 198, 356, 619, 485
417, 485, 619, 618, 286
418, 619, 472, 194, 618
419, 356, 197, 472, 619
420, 288, 622, 623, 620
421, 605, 597, 660, 697
422, 623, 570, 275, 621
423, 622, 287, 570, 623
424, 278, 573, 626, 624
425, 679, 689, 620, 279
426, 669, 598, 682, 539
427, 573, 273, 603, 626
428, 305, 769, 132, 176
429, 555, 562, 514, 302
430, 712, 695, 488, 202
431, 642, 190, 228, 199
432, 261, 631, 632, 630
433, 630, 632, 451, 185
434, 632, 608, 259, 451
435, 631, 263, 608, 632
436, 192, 569, 634, 365
437, 365, 634, 618, 194
438, 634, 633, 286, 618
439, 569, 287, 633, 634
440, 285, 484, 636, 635
441, 635, 636, 622, 288
442, 636, 633, 287, 622
443, 484, 286, 633, 636
444, 231, 765, 332, 709
445, 238, 416, 674, 233
446, 775, 479, 220, 404
447, 482, 172, 137, 723
448, 285, 640, 641, 486
449, 486, 641, 439, 196
450, 696, 548, 296, 702
451, 640, 289, 582, 641
452, 424, 750, 774, 658
453, 627, 372, 21, 14
454, 589, 435, 683, 371
455, 255, 644, 645, 470
456, 470, 645, 436, 253
457, 645, 536, 250, 436
458, 644, 251, 536, 645
459, 556, 445, 203, 232
460, 293, 717, 108, 119
461, 204, 563, 224, 710
462, 747, 519, 174, 135
463, 289, 640, 650, 319
464, 319, 650, 649, 290
465, 650, 635, 288, 649
466, 640, 285, 635, 650
467, 769, 27, 3, 406
468, 233, 674, 724, 479
469, 705, 166, 143, 353
470, 251, 644, 653, 652
471, 652, 653, 475, 252
472, 653, 410, 254, 475
473, 644, 255, 410, 653
474, 267, 505, 655, 593
475, 593, 655, 631, 261
476, 655, 654, 263, 631
477, 505, 264, 654, 655
478, 747, 756, 727, 578
479, 489, 239, 490, 668
480, 379, 210, 342, 750
481, 717, 780, 118, 108
482, 201, 230, 739, 497
483, 628, 213, 300, 719
484, 247, 613, 244, 501
485, 652, 661, 537, 251
486, 661, 596, 248, 537
487, 262, 609, 663, 662
488, 662, 663, 544, 266
489, 663, 654, 264, 544
490, 609, 263, 654, 663
491, 260, 584, 664, 448
492, 448, 664, 630, 185
493, 664, 592, 261, 630
494, 584, 161, 592, 664
495, 316, 703, 155, 124
496, 525, 467, 282, 315
497, 525, 315, 281, 284
498, 666, 299, 669, 539
499, 291, 279, 621, 671
500, 292, 697, 625, 280
501, 540, 125, 183, 677
502, 725, 693, 772, 186
503, 714, 731, 637, 767
504, 189, 566, 499, 426
505, 229, 746, 116, 106
506, 322, 687, 700, 745
507, 519, 403, 134, 174
508, 591, 240, 123, 113
509, 478, 659, 240, 591
510, 665, 269, 283, 703
511, 314, 678, 313, 604
512, 541, 291, 467, 525
513, 624, 671, 601, 278
514, 671, 621, 275, 601
515, 446, 754, 749, 235
516, 700, 588, 741, 193
517, 190, 770, 732, 228
518, 514, 457, 217, 243
519, 268, 247, 501, 245
520, 284, 281, 666, 612
521, 603, 605, 697, 292
522, 599, 596, 314, 680
523, 598, 270, 265, 246
524, 694, 614, 676, 270
525, 298, 665, 703, 316
526, 614, 604, 615, 676
527, 694, 270, 598, 669
528, 678, 252, 476, 313
529, 266, 545, 682, 681
530, 694, 660, 680, 614
531, 661, 652, 252, 678
532, 545, 156, 539, 682
533, 727, 752, 579, 226
534, 193, 741, 370, 616
535, 353, 434, 460, 776
536, 771, 236, 554, 722
537, 226, 579, 646, 461
538, 651, 144, 164, 590
539, 188, 716, 552, 523
540, 493, 405, 672, 380
541, 308, 616, 200, 659
542, 240, 764, 112, 123
543, 558, 779, 734, 397
544, 698, 699, 725, 629
545, 242, 491, 744, 781
546, 499, 304, 639, 415
547, 269, 284, 612, 283
548, 620, 689, 649, 288
549, 689, 468, 290, 649
550, 697, 660, 694, 625
551, 660, 597, 599, 680
552, 270, 676, 615, 265
553, 680, 314, 604, 614
554, 405, 736, 201, 672
555, 227, 711, 713, 736
556, 713, 378, 191, 230
557, 750, 342, 208, 774
558, 612, 666, 539, 156
559, 681, 692, 662, 266
560, 692, 550, 262, 662
561, 692, 268, 245, 550
562, 478, 591, 10, 18
563, 394, 658, 242, 777
564, 396, 720, 754, 446
565, 186, 772, 718, 728
566, 265, 615, 613, 247
567, 604, 313, 613, 615
568, 596, 661, 678, 314
569, 280, 625, 299, 524
570, 154, 316, 124, 9
571, 559, 189, 15, 23
572, 705, 353, 776, 309
573, 189, 426, 22, 15
574, 349, 237, 690, 498
575, 184, 298, 316, 154
576, 283, 612, 156, 153
577, 541, 675, 670, 679
578, 221, 533, 120, 110
579, 728, 718, 751, 716
580, 372, 306, 686, 323
581, 696, 43, 35, 440
582, 702, 195, 42, 34
583, 696, 440, 439, 297
584, 541, 525, 284, 269
585, 444, 497, 229, 762
586, 627, 415, 306, 372
587, 200, 234, 557, 764
588, 479, 724, 648, 220
589, 441, 322, 745, 529
590, 673, 321, 531, 369
591, 406, 3, 30, 521
592, 353, 143, 165, 434
593, 530, 581, 424, 560
594, 587, 207, 359, 373
595, 770, 617, 458, 732
596, 297, 582, 583, 311
597, 311, 583, 127, 181
598, 547, 33, 42, 195
599, 246, 265, 247, 268
600, 675, 665, 298, 540
601, 682, 598, 246, 681
602, 315, 282, 292, 280
603, 467, 624, 626, 282
604, 289, 319, 704, 317
605, 317, 704, 318, 182
606, 319, 290, 318, 704
607, 762, 229, 106, 117
608, 239, 743, 782, 490
609, 220, 648, 321, 673
610, 459, 425, 205, 699
611, 737, 523, 555, 241
612, 522, 685, 351, 304
613, 699, 205, 693, 725
614, 241, 555, 302, 759
615, 294, 757, 589, 667
616, 518, 673, 369, 588
617, 754, 199, 515, 749
618, 761, 771, 722, 657
619, 397, 734, 698, 743
620, 513, 394, 777, 711
621, 735, 142, 166, 705
622, 458, 738, 236, 771
623, 747, 17, 2, 519
624, 639, 402, 775, 707
625, 554, 767, 564, 565
626, 580, 433, 11, 19
627, 724, 773, 755, 648
628, 309, 776, 731, 714
629, 402, 233, 479, 775
630, 779, 329, 459, 734
631, 426, 499, 415, 627
632, 462, 227, 736, 405
633, 443, 600, 737, 295
634, 707, 775, 404, 611
635, 588, 369, 368, 741
636, 684, 567, 354, 656
637, 205, 431, 187, 693
638, 395, 442, 239, 489
639, 562, 454, 457, 514
640, 442, 397, 743, 239
641, 566, 522, 304, 499
642, 306, 707, 611, 686
643, 688, 481, 587, 563
644, 581, 379, 750, 424
645, 374, 193, 616, 308
646, 323, 441, 20, 13
647, 695, 211, 413, 488
648, 758, 728, 716, 188
649, 738, 309, 714, 236
650, 722, 554, 565, 730
651, 302, 514, 243, 216
652, 371, 683, 227, 462
653, 219, 712, 202, 417
654, 350, 303, 768, 606
655, 320, 221, 110, 121
656, 529, 745, 374, 580
657, 202, 488, 379, 581
658, 218, 443, 295, 427
659, 295, 737, 241, 729
660, 492, 219, 417, 483
661, 740, 371, 462, 480
662, 734, 459, 699, 698
663, 564, 407, 219, 492
664, 760, 762, 117, 107
665, 720, 169, 140, 642
666, 741, 368, 331, 370
667, 482, 723, 237, 349
668, 686, 611, 687, 322
669, 369, 531, 223, 368
670, 743, 698, 629, 782
671, 580, 374, 308, 433
672, 715, 742, 133, 175
673, 460, 628, 719, 206
674, 324, 483, 607, 726
675, 417, 202, 581, 530
676, 769, 406, 177, 132
677, 453, 216, 293, 225
678, 415, 639, 707, 306
679, 776, 460, 206, 731
680, 427, 295, 729, 532
681, 742, 305, 176, 133
682, 756, 173, 136, 301
683, 744, 209, 419, 481
684, 461, 646, 522, 566
685, 323, 686, 322, 441
686, 753, 647, 320, 643
687, 772, 294, 667, 718
688, 708, 759, 453, 706
689, 715, 28, 26, 742
690, 373, 359, 114, 104
*ELSET,ELSET=contact_source
101, 102, 103, 104, 105, 106, 107, 108, 109, 110, 
111, 112, 113, 114, 115, 116, 117, 118, 119, 120, 
121, 122, 
*ELSET,ELSET=contact_drain
41, 42, 43, 44, 45, 46, 47, 48, 49, 50, 
51, 52, 53, 54, 55, 56, 57, 58, 59, 60, 
61, 62, 
*ELSET,ELSET=probe_A
79, 80, 81, 82, 83, 84, 
*ELSET,ELSET=probe_B
17, 18, 19, 20, 21, 22, 
*ELSET,ELSET=walls
1, 2, 3, 4, 5, 6, 7, 8, 9, 10, 
11, 12, 13, 14, 15, 16, 23, 24, 25, 26, 
27, 28, 29, 30, 31, 32, 33, 34, 35, 36, 
37, 38, 39, 40, 63, 64, 65, 66, 67, 68, 
69, 70, 71, 72, 73, 74, 75, 76, 77, 78, 
85, 86, 87, 88, 89, 90, 91, 92, 93, 94, 
95, 96, 97, 98, 99, 100, 123, 124, 125, 126, 
127, 128, 129, 130, 131, 132, 133, 134, 135, 136, 
137, 138, 139, 140, 141, 142, 143, 144, 145, 146, 
147, 148, 149, 150, 151, 152, 153, 154, 155, 156, 
157, 158, 159, 160, 161, 162, 163, 164, 165, 166, 
167, 168, 169, 170, 171, 172, 173, 174, 175, 176, 
177, 178, 179, 180, 181, 182, 183, 184, 
*ELSET,ELSET=domain
185, 186, 187, 188, 189, 190, 191, 192, 193, 194, 
195, 196, 197, 198, 199, 200, 201, 202, 203, 204, 
205, 206, 207, 208, 209, 210, 211, 212, 213, 214, 
215, 216, 217, 218, 219, 220, 221, 222, 223, 224, 
225, 226, 227, 228, 229, 230, 231, 232, 233, 234, 
235, 236, 237, 238, 239, 240, 241, 242, 243, 244, 
245, 246, 247, 248, 249, 250, 251, 252, 253, 254, 
255, 256, 257, 258, 259, 260, 261, 262, 263, 264, 
265, 266, 267, 268, 269, 270, 271, 272, 273, 274, 
275, 276, 277, 278, 279, 280, 281, 282, 283, 284, 
285, 286, 287, 288, 289, 290, 291, 292, 293, 294, 
295, 296, 297, 298, 299, 300, 301, 302, 303, 304, 
305, 306, 307, 308, 309, 310, 311, 312, 313, 314, 
315, 316, 317, 318, 319, 320, 321, 322, 323, 324, 
325, 326, 327, 328, 329, 330, 331, 332, 333, 334, 
335, 336, 337, 338, 339, 340, 341, 342, 343, 344, 
345, 346, 347, 348, 349, 350, 351, 352, 353, 354, 
355, 356, 357, 358, 359, 360, 361, 362, 363, 364, 
365, 366, 367, 368, 369, 370, 371, 372, 373, 374, 
375, 376, 377, 378, 379, 380, 381, 382, 383, 384, 
385, 386, 387, 388, 389, 390, 391, 392, 393, 394, 
395, 396, 397, 398, 399, 400, 401, 402, 403, 404, 
405, 406, 407, 408, 409, 410, 411, 412, 413, 414, 
415, 416, 417, 418, 419, 420, 421, 422, 423, 424, 
425, 426, 427, 428, 429, 430, 431, 432, 433, 434, 
435, 436, 437, 438, 439, 440, 441, 442, 443, 444, 
445, 446, 447, 448, 449, 450, 451, 452, 453, 454, 
455, 456, 457, 458, 459, 460, 461, 462, 463, 464, 
465, 466, 467, 468, 469, 470, 471, 472, 473, 474, 
475, 476, 477, 478, 479, 480, 481, 482, 483, 484, 
485, 486, 487, 488, 489, 490, 491, 492, 493, 494, 
495, 496, 497, 498, 499, 500, 501, 502, 503, 504, 
505, 506, 507, 508, 509, 510, 511, 512, 513, 514, 
515, 516, 517, 518, 519, 520, 521, 522, 523, 524, 
525, 526, 527, 528, 529, 530, 531, 532, 533, 534, 
535, 536, 537, 538, 539, 540, 541, 542, 543, 544, 
545, 546, 547, 548, 549, 550, 551, 552, 553, 554, 
555, 556, 557, 558, 559, 560, 561, 562, 563, 564, 
565, 566, 567, 568, 569, 570, 571, 572, 573, 574, 
575, 576, 577, 578, 579, 580, 581, 582, 583, 584, 
585, 586, 587, 588, 589, 590, 591, 592, 593, 594, 
595, 596, 597, 598, 599, 600, 601, 602, 603, 604, 
605, 606, 607, 608, 609, 610, 611, 612, 613, 614, 
615, 616, 617, 618, 619, 620, 621, 622, 623, 624, 
625, 626, 627, 628, 629, 630, 631, 632, 633, 634, 
635, 636, 637, 638, 639, 640, 641, 642, 643, 644, 
645, 646, 647, 648, 649, 650, 651, 652, 653, 654, 
655, 656, 657, 658, 659, 660, 661, 662, 663, 664, 
665, 666, 667, 668, 669, 670, 671, 672, 673, 674, 
675, 676, 677, 678, 679, 680, 681, 682, 683, 684, 
685, 686, 687, 688, 689, 690, 691, 692, 693, 694, 
695, 696, 697, 698, 699, 700, 701, 702, 703, 704, 
705, 706, 707, 708, 709, 710, 711, 712, 713, 714, 
715, 716, 717, 718, 719, 720, 721, 722, 723, 724, 
725, 726, 727, 728, 729, 730, 731, 732, 733, 734, 
735, 736, 737, 738, 739, 740, 741, 742, 743, 744, 
745, 746, 747, 748, 749, 750, 751, 752, 753, 754, 
755, 756, 757, 758, 759, 760, 761, 762, 763, 764, 
765, 766, 767, 768, 769, 770, 771, 772, 773, 774, 
775, 776, 777, 778, 779, 780, 781, 782, 783, 784, 
785, 786, 787, 788, 789, 790, 791, 792, 793, 794, 
795, 796, 797, 798, 799, 800, 801, 802, 803, 804, 
805, 806, 807, 808, 809, 810, 811, 812, 813, 814, 
815, 816, 817, 818, 819, 820, 821, 822, 823, 824, 
825, 826, 827, 828, 829, 830, 831, 832, 833, 834, 
835, 836, 837, 838, 839, 840, 841, 842, 843, 844, 
845, 846, 847, 848, 849, 850, 851, 852, 853, 854, 
855, 856, 857, 858, 859, 860, 861, 862, 863, 864, 
865, 866, 867, 868, 869, 870, 871, 872, 873, 874, 
*NSET,NSET=contact_source
1, 8, 103, 104, 105, 106, 107, 108, 109, 110, 
111, 112, 113, 114, 115, 116, 117, 118, 119, 120, 
121, 122, 123, 
*NSET,NSET=contact_drain
4, 5, 47, 48, 49, 50, 51, 52, 53, 54, 
55, 56, 57, 58, 59, 60, 61, 62, 63, 64, 
65, 66, 67, 
*NSET,NSET=probe_A
6, 7, 83, 84, 85, 86, 87, 
*NSET,NSET=probe_B
2, 3, 25, 26, 27, 28, 29, 
*NSET,NSET=walls
1, 2, 3, 4, 5, 6, 7, 8, 9, 10, 
11, 12, 13, 14, 15, 16, 17, 18, 19, 20, 
21, 22, 23, 24, 30, 31, 32, 33, 34, 35, 
36, 37, 38, 39, 40, 41, 42, 43, 44, 45, 
46, 68, 69, 70, 71, 72, 73, 74, 75, 76, 
77, 78, 79, 80, 81, 82, 88, 89, 90, 91, 
92, 93, 94, 95, 96, 97, 98, 99, 100, 101, 
102, 124, 125, 126, 127, 128, 129, 130, 131, 132, 
133, 134, 135, 136, 137, 138, 139, 140, 141, 142, 
143, 144, 145, 146, 147, 148, 149, 150, 151, 152, 
153, 154, 155, 156, 157, 158, 159, 160, 161, 162, 
163, 164, 165, 166, 167, 168, 169, 170, 171, 172, 
173, 174, 175, 176, 177, 178, 179, 180, 181, 182, 
183, 184, 
*NSET,NSET=domain
1, 2, 3, 4, 5, 6, 7, 8, 9, 10, 
11, 12, 13, 14, 15, 16, 17, 18, 19, 20, 
21, 22, 23, 24, 25, 26, 27, 28, 29, 30, 
31, 32, 33, 34, 35, 36, 37, 38, 39, 40, 
41, 42, 43, 44, 45, 46, 47, 48, 49, 50, 
51, 52, 53, 54, 55, 56, 57, 58, 59, 60, 
61, 62, 63, 64, 65, 66, 67, 68, 69, 70, 
71, 72, 73, 74, 75, 76, 77, 78, 79, 80, 
81, 82, 83, 84, 85, 86, 87, 88, 89, 90, 
91, 92, 93, 94, 95, 96, 97, 98, 99, 100, 
101, 102, 103, 104, 105, 106, 107, 108, 109, 110, 
111, 112, 113, 114, 115, 116, 117, 118, 119, 120, 
121, 122, 123, 124, 125, 126, 127, 128, 129, 130, 
131, 132, 133, 134, 135, 136, 137, 138, 139, 140, 
141, 142, 143, 144, 145, 146, 147, 148, 149, 150, 
151, 152, 153, 154, 155, 156, 157, 158, 159, 160, 
161, 162, 163, 164, 165, 166, 167, 168, 169, 170, 
171, 172, 173, 174, 175, 176, 177, 178, 179, 180, 
181, 182, 183, 184, 185, 186, 187, 188, 189, 190, 
191, 192, 193, 194, 195, 196, 197, 198, 199, 200, 
201, 202, 203, 204, 205, 206, 207, 208, 209, 210, 
211, 212, 213, 214, 215, 216, 217, 218, 219, 220, 
221, 222, 223, 224, 225, 226, 227, 228, 229, 230, 
231, 232, 233, 234, 235, 236, 237, 238, 239, 240, 
241, 242, 243, 244, 245, 246, 247, 248, 249, 250, 
251, 252, 253, 254, 255, 256, 257, 258, 259, 260, 
261, 262, 263, 264, 265, 266, 267, 268, 269, 270, 
271, 272, 273, 274, 275, 276, 277, 278, 279, 280, 
281, 282, 283, 284, 285, 286, 287, 288, 289, 290, 
291, 292, 293, 294, 295, 296, 297, 298, 299, 300, 
301, 302, 303, 304, 305, 306, 307, 308, 309, 310, 
311, 312, 313, 314, 315, 316, 317, 318, 319, 320, 
321, 322, 323, 324, 325, 326, 327, 328, 329, 330, 
331, 332, 333, 334, 335, 336, 337, 338, 339, 340, 
341, 342, 343, 344, 345, 346, 347, 348, 349, 350, 
351, 352, 353, 354, 355, 356, 357, 358, 359, 360, 
361, 362, 363, 364, 365, 366, 367, 368, 369, 370, 
371, 372, 373, 374, 375, 376, 377, 378, 379, 380, 
381, 382, 383, 384, 385, 386, 387, 388, 389, 390, 
391, 392, 393, 394, 395, 396, 397, 398, 399, 400, 
401, 402, 403, 404, 405, 406, 407, 408, 409, 410, 
411, 412, 413, 414, 415, 416, 417, 418, 419, 420, 
421, 422, 423, 424, 425, 426, 427, 428, 429, 430, 
431, 432, 433, 434, 435, 436, 437, 438, 439, 440, 
441, 442, 443, 444, 445, 446, 447, 448, 449, 450, 
451, 452, 453, 454, 455, 456, 457, 458, 459, 460, 
461, 462, 463, 464, 465, 466, 467, 468, 469, 470, 
471, 472, 473, 474, 475, 476, 477, 478, 479, 480, 
481, 482, 483, 484, 485, 486, 487, 488, 489, 490, 
491, 492, 493, 494, 495, 496, 497, 498, 499, 500, 
501, 502, 503, 504, 505, 506, 507, 508, 509, 510, 
511, 512, 513, 514, 515, 516, 517, 518, 519, 520, 
521, 522, 523, 524, 525, 526, 527, 528, 529, 530, 
531, 532, 533, 534, 535, 536, 537, 538, 539, 540, 
541, 542, 543, 544, 545, 546, 547, 548, 549, 550, 
551, 552, 553, 554, 555, 556, 557, 558, 559, 560, 
561, 562, 563, 564, 565, 566, 567, 568, 569, 570, 
571, 572, 573, 574, 575, 576, 577, 578, 579, 580, 
581, 582, 583, 584, 585, 586, 587, 588, 589, 590, 
591, 592, 593, 594, 595, 596, 597, 598, 599, 600, 
601, 602, 603, 604, 605, 606, 607, 608, 609, 610, 
611, 612, 613, 614, 615, 616, 617, 618, 619, 620, 
621, 622, 623, 624, 625, 626, 627, 628, 629, 630, 
631, 632, 633, 634, 635, 636, 637, 638, 639, 640, 
641, 642, 643, 644, 645, 646, 647, 648, 649, 650, 
651, 652, 653, 654, 655, 656, 657, 658, 659, 660, 
661, 662, 663, 664, 665, 666, 667, 668, 669, 670, 
671, 672, 673, 674, 675, 676, 677, 678, 679, 680, 
681, 682, 683, 684, 685, 686, 687, 688, 689, 690, 
691, 692, 693, 694, 695, 696, 697, 698, 699, 700, 
701, 702, 703, 704, 705, 706, 707, 708, 709, 710, 
711, 712, 713, 714, 715, 716, 717, 718, 719, 720, 
721, 722, 723, 724, 725, 726, 727, 728, 729, 730, 
731, 732, 733, 734, 735, 736, 737, 738, 739, 740, 
741, 742, 743, 744, 745, 746, 747, 748, 749, 750, 
751, 752, 753, 754, 755, 756, 757, 758, 759, 760, 
761, 762, 763, 764, 765, 766, 767, 768, 769, 770, 
771, 772, 773, 774, 775, 776, 777, 778, 779, 780, 
781, 782, 
