*Heading
 /Users/juliagao/geometry-optimization-net/scripts/../runs/run2/shape_160.inp
*NODE
1, 0, -0.3, 0
2, 0.425, -0.3, 0
3, 0.575, -0.3, 0
4, 1, -0.3, 0
5, 1, 0.3, 0
6, 0.575, 0.3, 0
7, 0.425, 0.3, 0
8, 0, 0.3, 0
9, 0.6489964134, 0.0298769745, 0
10, 0.026301083086137, -0.3, 0
11, 0.079024473112817, -0.3, 0
12, 0.13184819187545, -0.3, 0
13, 0.18479375552168, -0.3, 0
14, 0.23793443780664, -0.3, 0
15, 0.29098312774115, -0.3, 0
16, 0.34414980959, -0.3, 0
17, 0.39793216598259, -0.3, 0
18, 0.052602166172274, -0.3, 0
19, 0.10544678005336, -0.3, 0
20, 0.15824960369755, -0.3, 0
21, 0.2113379073458, -0.3, 0
22, 0.26453096826748, -0.3, 0
23, 0.31743528721481, -0.3, 0
24, 0.37086433196518, -0.3, 0
25, 0.45064807686813, -0.3, 0
26, 0.50058651520981, -0.3, 0
27, 0.54993843834168, -0.3, 0
28, 0.47629615373626, -0.3, 0
29, 0.52487687668336, -0.3, 0
30, 0.60145926423392, -0.3, 0
31, 0.65477795348682, -0.3, 0
32, 0.70833094833142, -0.3, 0
33, 0.76155377691306, -0.3, 0
34, 0.81477953473826, -0.3, 0
35, 0.86840186869925, -0.3, 0
36, 0.92177955457555, -0.3, 0
37, 0.97411570278003, -0.3, 0
38, 0.62791852846785, -0.3, 0
39, 0.68163737850579, -0.3, 0
40, 0.73502451815704, -0.3, 0
41, 0.78808303566907, -0.3, 0
42, 0.84147603380745, -0.3, 0
43, 0.89532770359106, -0.3, 0
44, 0.94823140556005, -0.3, 0
45, 1, -0.27371315386388, 0
46, 1, -0.21997059503247, 0
47, 1, -0.16409695789113, 0
48, 1, -0.10695038790511, 0
49, 1, -0.049925640078944, 0
50, 1, 0.0056840024594976, 0
51, 1, 0.059975083664753, 0
52, 1, 0.11434594359104, 0
53, 1, 0.16864295834851, 0
54, 1, 0.22177813999572, 0
55, 1, 0.27400481292936, 0
56, 1, -0.24742630772776, 0
57, 1, -0.19251488233719, 0
58, 1, -0.13567903344507, 0
59, 1, -0.078221742365157, 0
60, 1, -0.02162953779273, 0
61, 1, 0.032997542711725, 0
62, 1, 0.08695262461778, 0
63, 1, 0.1417392625643, 0
64, 1, 0.19554665413271, 0
65, 1, 0.24800962585872, 0
66, 0.97385817408353, 0.3, 0
67, 0.92138314170246, 0.3, 0
68, 0.86890646780082, 0.3, 0
69, 0.81565338231119, 0.3, 0
70, 0.76101296542398, 0.3, 0
71, 0.7063958359943, 0.3, 0
72, 0.65266711836147, 0.3, 0
73, 0.60051236566185, 0.3, 0
74, 0.94771634816705, 0.3, 0
75, 0.89504993523786, 0.3, 0
76, 0.84276300036378, 0.3, 0
77, 0.7885437642586, 0.3, 0
78, 0.73348216658935, 0.3, 0
79, 0.67930950539925, 0.3, 0
80, 0.6260247313237, 0.3, 0
81, 0.54989052864437, 0.3, 0
82, 0.50014202168188, 0.3, 0
83, 0.45025149303751, 0.3, 0
84, 0.52478105728874, 0.3, 0
85, 0.47550298607502, 0.3, 0
86, 0.39920109610494, 0.3, 0
87, 0.34655564295099, 0.3, 0
88, 0.29221840288114, 0.3, 0
89, 0.2378508637318, 0.3, 0
90, 0.18506280884834, 0.3, 0
91, 0.13259796713618, 0.3, 0
92, 0.079168381680891, 0.3, 0
93, 0.026146215696326, 0.3, 0
94, 0.37340219220988, 0.3, 0
95, 0.31970909369211, 0.3, 0
96, 0.26472771207017, 0.3, 0
97, 0.21097401539343, 0.3, 0
98, 0.15915160230324, 0.3, 0
99, 0.10604433196913, 0.3, 0
100, 0.052292431392651, 0.3, 0
101, 0, 0.27361538166956, 0
102, 0, 0.22093649401748, 0
103, 0, 0.16793854586121, 0
104, 0, 0.11358621969818, 0
105, 0, 0.058289559671866, 0
106, 0, 0.0033882971744044, 0
107, 0, -0.05131292911084, 0
108, 0, -0.10695957768121, 0
109, 0, -0.16351747280063, 0
110, 0, -0.21929770531073, 0
111, 0, -0.27335935739304, 0
112, 0, 0.24723076333912, 0
113, 0, 0.19464222469584, 0
114, 0, 0.14123486702658, 0
115, 0, 0.085937572369773, 0
116, 0, 0.030641546973959, 0
117, 0, -0.02386495262515, 0
118, 0, -0.07876090559653, 0
119, 0, -0.13515824976588, 0
120, 0, -0.19187669583537, 0
121, 0, -0.24671871478609, 0
122, 0.63904856882878, 0.058627170121334, 0
123, 0.71736157818047, -0.019795266237359, 0
124, 0.75507300838605, -0.061107701330564, 0
125, 0.77508530188221, -0.11165242500061, 0
126, 0.7522649709334, -0.15796221932881, 0
127, 0.70099876048063, -0.1680244491662, 0
128, 0.64843292713748, -0.15667776055878, 0
129, 0.59850925942792, -0.1352832139302, 0
130, 0.5459934069689, -0.12336425915996, 0
131, 0.50705241322574, -0.15650531682705, 0
132, 0.45696872262644, -0.16149512187451, 0
133, 0.41942122331315, -0.12701375099196, 0
134, 0.37138858195988, -0.1086828745663, 0
135, 0.31948905951048, -0.10045411766434, 0
136, 0.27982760384526, -0.065687397099136, 0
137, 0.28941107627396, -0.011521548421686, 0
138, 0.32534204053728, 0.03412549193436, 0
139, 0.33075808847587, 0.090787957279252, 0
140, 0.31170072150475, 0.14636282049288, 0
141, 0.31259043463371, 0.20343534332143, 0
142, 0.34305887265841, 0.24961085989767, 0
143, 0.39209876691944, 0.27072445993729, 0
144, 0.44302984776175, 0.26649530230077, 0
145, 0.48623519336873, 0.24186094784144, 0
146, 0.51896496970756, 0.20367107496241, 0
147, 0.54579671693343, 0.16217221460769, 0
148, 0.59660302232452, 0.15741540990636, 0
149, 0.64762904255397, 0.15285421959509, 0
150, 0.66183197292623, 0.10286257130103, 0
151, 0.67218460344492, 0.013831103952765, 0
152, 0.64997902142091, 0.07802594557192, 0
153, 0.66440084474661, 0.13080613228521, 0
154, 0.6222271859574, 0.15913091405697, 0
155, 0.57128188095494, 0.15364287232144, 0
156, 0.53226160466131, 0.18194296431096, 0
157, 0.50375459806668, 0.2241384921959, 0
158, 0.46590998487881, 0.25631731809223, 0
159, 0.41848336816778, 0.27150545785156, 0
160, 0.36666735296507, 0.26361864344787, 0
161, 0.32448366186654, 0.229351064503, 0
162, 0.30869946270905, 0.17525155358551, 0
163, 0.31974691888089, 0.11851657949376, 0
164, 0.33811246193882, 0.061593979661861, 0
165, 0.30617501580182, 0.011852754374124, 0
166, 0.27864429428173, -0.038394218016491, 0
167, 0.29578969509458, -0.088053246256645, 0
168, 0.34541977481396, -0.10614867279641, 0
169, 0.39720020298698, -0.11299964537165, 0
170, 0.43693334607721, -0.14582817886893, 0
171, 0.48256724574947, -0.16641553080049, 0
172, 0.52665458218329, -0.13946482249953, 0
173, 0.57371439745574, -0.12422724801683, 0
174, 0.62312694205488, -0.14670888039951, 0
175, 0.67459567764539, -0.16416742148027, 0
176, 0.72771984330218, -0.16677407739949, 0
177, 0.77034779588036, -0.13854279029271, 0
178, 0.76855227457656, -0.085576723131732, 0
179, 0.73760998035129, -0.039367266209205, 0
180, 0.6953501838945, -0.0022486766894298, 0
181, 0.42686408663382, -0.2472240010969, 0
182, 0.052440744053944, -0.24550242138779, 0
183, 0.10497311227455, -0.24475590772879, 0
184, 0.15771625579424, -0.24377644377465, 0
185, 0.21102919041925, -0.24220638202446, 0
186, 0.29303276669887, -0.23979036291174, 0
187, 0.47726779006155, -0.24987696832613, 0
188, 0.26558908493977, -0.20983238972293, 0
189, 0.26499948232365, -0.27028505688811, 0
190, 0.59413882709045, 0.22082112558852, 0
191, 0.60144237381979, -0.22423239329024, 0
192, 0.52662732188424, -0.24962974980441, 0
193, 0.62779630341003, -0.2754131188125, 0
194, 0.26713130483921, 0.063673379121569, 0
195, 0.22553362614944, 0.095085684014566, 0
196, 0.20128232217665, 0.12330979498565, 0
197, 0.10227237239717, 0.13305023549383, 0
198, 0.15251023345011, 0.12872137445065, 0
199, 0.051287930550916, 0.13693418047872, 0
200, 0.10264683167881, 0.18792508782743, 0
201, 0.15295202831266, 0.18376567595019, 0
202, 0.051490523431962, 0.19128277018051, 0
203, 0.051987397742999, 0.24555925261241, 0
204, 0.10393672921322, 0.24359890272652, 0
205, 0.15523410119894, 0.24093296594799, 0
206, 0.20169209020338, 0.17776898227324, 0
207, 0.20535258088639, 0.23666579693516, 0
208, 0.27144840564662, 0.10947549447721, 0
209, 0.29071250123277, 0.15480851340829, 0
210, 0.20395295638212, 0.072155412143766, 0
211, 0.1539134805811, 0.075062718545352, 0
212, 0.21893327200716, 0.015715865439699, 0
213, 0.29623788470312, 0.21435024553923, 0
214, 0.15649628458013, 0.021078728878928, 0
215, 0.10275377602533, 0.07871757871215, 0
216, 0.051408854690493, 0.082322570930479, 0
217, 0.051647194122059, 0.027779791362983, 0
218, 0.10351712640833, 0.024626770253576, 0
219, 0.10431116290387, -0.18978693433904, 0
220, 0.15655799091843, -0.18825309783893, 0
221, 0.052155085634146, -0.19064130326407, 0
222, 0.20942039696022, -0.18493943539377, 0
223, 0.3727116873139, -0.27152094672161, 0
224, 0.20524170001506, -0.13108345271393, 0
225, 0.15489579334912, -0.13456980574121, 0
226, 0.10359454226469, -0.13553428189347, 0
227, 0.051869260718775, -0.13554994945491, 0
228, 0.051732926390838, -0.026494021426735, 0
229, 0.10355604430735, -0.029027390924497, 0
230, 0.051731263701521, -0.080793010077825, 0
231, 0.10330517319532, -0.082156073627297, 0
232, 0.15560804998097, -0.032060733326378, 0
233, 0.20774379421638, -0.037172280501466, 0
234, 0.23912863872978, -0.084522087646069, 0
235, 0.20245348273434, -0.083832858537692, 0
236, 0.15421717278613, -0.083172031505437, 0
237, 0.2654224396514, -0.24031859894668, 0
238, 0.43078238823139, -0.19612272632632, 0
239, 0.47954421360409, -0.20313881924859, 0
240, 0.29544646358264, -0.17482154654832, 0
241, 0.35053395561174, -0.21076165663332, 0
242, 0.40332032445274, -0.21754071452682, 0
243, 0.77284933273511, 0.2016499221158, 0
244, 0.71492575969108, 0.20880419356802, 0
245, 0.76586354444234, 0.15068587364062, 0
246, 0.8230618447543, 0.14442445001785, 0
247, 0.88219704164171, 0.14112944503855, 0
248, 0.94134041141679, 0.14062825452436, 0
249, 0.82975653937335, 0.19745658544267, 0
250, 0.8866520745713, 0.19523547323702, 0
251, 0.94343428762837, 0.19469089062703, 0
252, 0.94555741378113, 0.24763904356583, 0
253, 0.83608550087835, 0.24901245988262, 0
254, 0.89094061814439, 0.24792977352361, 0
255, 0.78066580890132, 0.25110648645097, 0
256, 0.72510506516526, 0.25463568135963, 0
257, 0.55528982409334, 0.23248890022625, 0
258, 0.67918553928668, 0.19495496717025, 0
259, 0.56433686584453, 0.25856017832948, 0
260, 0.66702523723895, 0.24006430008395, 0
261, 0.70102465142575, 0.15540620646993, 0
262, 0.75846536278606, 0.10205676469749, 0
263, 0.74030774012381, 0.10914020794621, 0
264, 0.81387616868122, 0.088275373240813, 0
265, 0.87761875257796, 0.084578583448713, 0
266, 0.93953930221865, 0.08528262535234, 0
267, 0.8749387790347, 0.024680772232293, 0
268, 0.93880020351023, 0.029012712067698, 0
269, 0.94177612562299, -0.082918729217743, 0
270, 0.88412142313751, -0.087785576816679, 0
271, 0.93985587212469, -0.027288506263549, 0
272, 0.8790817026048, -0.03384186686265, 0
273, 0.82887685701369, -0.092847767310801, 0
274, 0.75753006415968, 0.035885791667297, 0
275, 0.67610327583125, -0.18494920387299, 0
276, 0.52770225828182, -0.19894006275984, 0
277, 0.57603028164539, -0.19589747622828, 0
278, 0.60082377631888, -0.19771529183238, 0
279, 0.72959376521714, -0.20678638418296, 0
280, 0.75543992048748, -0.2038393806466, 0
281, 0.94351337135016, -0.13810574560095, 0
282, 0.88734082784411, -0.14084581458776, 0
283, 0.83141618934834, -0.14286636071078, 0
284, 0.7336385329744, -0.27609829579456, 0
285, 0.76011818466905, -0.27566849404319, 0
286, 0.75708358333396, -0.22747918201861, 0
287, 0.83523051796876, -0.19620541665048, 0
288, 0.89004543907431, -0.19427023104735, 0
289, 0.89259436949763, -0.24734829114176, 0
290, 0.83861144276594, -0.24842976103146, 0
291, 0.94500441353222, -0.19287964439273, 0
292, 0.94644773410817, -0.24684263507691, 0
293, 0.64323121054698, 0.24362766572247, 0
294, 0.52220229043357, 0.23973755547407, 0
295, 0.64422296953195, 0.18673388400031, 0
296, 0.72684182247558, 0.054413973111492, 0
297, 0.5369880366129, 0.21948773740802, 0
298, 0.70865987283695, 0.18435287670578, 0
299, 0.56816110001795, 0.18857307864336, 0
300, 0.80886282236249, -0.019916266101258, 0
301, 0.77342841764248, 0.066455418043368, 0
302, 0.67973857864049, 0.044280913114921, 0
303, 0.24893267349863, -0.0059051808464963, 0
304, 0.23412378889212, -0.040988836647491, 0
305, 0.21071615316439, -0.012576913859445, 0
306, 0.23035734662118, 0.050431739716672, 0
307, 0.22683597242964, 0.20268598640415, 0
308, 0.63075589841399, 0.20911525102785, 0
309, 0.63368031116425, 0.17235572704294, 0
310, 0.60320707100925, 0.24835271896191, 0
311, 0.62160106395471, 0.19288857289577, 0
312, 0.65346471828234, 0.20311818667263, 0
313, 0.79477266305211, 0.015874451400647, 0
314, 0.81919726680292, -0.046978854496417, 0
315, 0.70349849937282, -0.20774675802819, 0
316, 0.78120636263272, -0.19996715327858, 0
317, 0.75863958917292, -0.25146318469682, 0
318, 0.57638639193694, -0.22323332676086, 0
319, 0.62683723957317, -0.22598328468966, 0
320, 0.78334065742121, -0.22533120138985, 0
321, 0.55159889939166, -0.19635330849367, 0
322, 0.47224412296673, 0.27696216489794, 0
323, 0.58312779025632, 0.20634923029202, 0
324, 0.80264015768232, -0.093583580496139, 0
325, 0.793151716114, -0.059938177526408, 0
326, 0.8269279630089, -0.069930853000501, 0
327, 0.2919891524935, -0.27009839046586, 0
328, 0.39932179045188, -0.2725108487076, 0
329, 0.23770760424968, -0.2116863921337, 0
330, 0.65414550349938, -0.2758685424351, 0
331, 0.65256718253744, -0.22788318504071, 0
332, 0.24763379456123, 0.14116476800325, 0
333, 0.26517586309998, 0.011171271047816, 0
334, 0.22464817963481, 0.14607277420061, 0
335, 0.57519169383984, -0.16536366110415, 0
336, 0.60174090932214, -0.24982352955743, 0
337, 0.97173042461551, -0.13682910310465, 0
338, 0.94268522626819, -0.11054919613358, 0
339, 0.97085145799918, -0.080637408639034, 0
340, 0.97130612233218, -0.10875477907142, 0
341, 0.20820370528217, 0.26790266338305, 0
342, 0.18046129517181, 0.23908219119348, 0
343, 0.15698606635827, 0.27028773195145, 0
344, 0.18265725767315, 0.2692637232092, 0
345, 0.078691331742586, -0.24512617178498, 0
346, 0.10522557305977, -0.27236419419326, 0
347, 0.052546365882885, -0.27277766857561, 0
348, 0.078872552653367, -0.2725677393729, 0
349, 0.26253049619165, -0.1468640288032, 0
350, 0.40104635652361, -0.2450499810559, 0
351, 0.36080872972484, -0.14500169138165, 0
352, 0.13130262519894, -0.2443249085143, 0
353, 0.15804609637462, -0.27185286732576, 0
354, 0.13160717805222, -0.27213458130223, 0
355, 0.96986309739951, 0.086122634706184, 0
356, 0.94037141461132, 0.11310340746454, 0
357, 0.9707152075431, 0.1410149790301, 0
358, 0.97025030356936, 0.11364252146523, 0
359, 0.68062994116283, -0.27620184201519, 0
360, 0.57598000874021, -0.27473724853746, 0
361, 0.57637399304971, -0.2492666943766, 0
362, 0.70226441438152, -0.18697766231537, 0
363, 0.21126326982723, -0.27109503865805, 0
364, 0.34593167761121, -0.27072345309229, 0
365, 0.84010103500563, -0.27424332239349, 0
366, 0.86558599666979, -0.24781460903059, 0
367, 0.89389086022838, -0.27370280089941, 0
368, 0.86699648477433, -0.27393379451055, 0
369, 0.025813162573096, 0.029267546357207, 0
370, 0.051714541198847, 0.00061814531821738, 0
371, 0.025861400917674, -0.025216972443113, 0
372, 0.025847051479639, 0.0020113390933351, 0
373, 0.18427082958125, -0.24307220347944, 0
374, 0.18459746112082, -0.27150392747277, 0
375, 0.35440630878475, -0.17896022083603, 0
376, 0.29731725443846, -0.13370008652477, 0
377, 0.4256037599364, -0.27350905390011, 0
378, 0.23662669995459, -0.18218314539431, 0
379, 0.75378073036664, -0.18070679011669, 0
380, 0.96952494807815, 0.030968016003426, 0
381, 0.93896692720233, 0.057227237372974, 0
382, 0.96960416908891, 0.058585106873581, 0
383, 0.67575091242872, 0.27966395532689, 0
384, 0.72944398371562, 0.27725565969354, 0
385, 0.57215316211605, 0.2421215588837, 0
386, 0.70232293516459, 0.27841837128802, 0
387, 0.86356422091235, 0.24836057568917, 0
388, 0.83931030160327, 0.27451915474004, 0
389, 0.89303706846671, 0.27399746593653, 0
390, 0.8662354880556, 0.27420534819685, 0
391, 0.81175813769332, -0.249239103843, 0
392, 0.81332117412817, -0.27464365038126, 0
393, 0.026215232981961, -0.24597813941018, 0
394, 0.026265973384913, -0.27303335263576, 0
395, 0.47651351125174, -0.27476816577246, 0
396, 0.50200081226605, -0.2499993989333, 0
397, 0.5258883253171, -0.27480982543533, 0
398, 0.50124370782465, -0.27489418664816, 0
399, 0.10488314257541, 0.27173211164528, 0
400, 0.078000331789413, 0.2446315393813, 0
401, 0.05223956289031, 0.27276198188294, 0
402, 0.078570738733776, 0.27227883105067, 0
403, 0.78456993318477, 0.2755400668157, 0
404, 0.75282103753895, 0.25264989714772, 0
405, 0.75696496667538, 0.27629500442931, 0
406, 0.051726643569631, -0.053611946463037, 0
407, 0.025872403954316, -0.079913652737046, 0
408, 0.025864965874887, -0.052514838014147, 0
409, 0.97279529251264, 0.24774221624586, 0
410, 0.94662157212568, 0.27385544696173, 0
411, 0.97332516855598, 0.27390107028361, 0
412, 0.025941917072548, -0.13539532713191, 0
413, 0.052002493120065, -0.16308426724972, 0
414, 0.026078674849716, -0.1911138062394, 0
415, 0.02600561227299, -0.16327890427928, 0
416, 0.94724740299293, -0.27347997006248, 0
417, 0.97325076270425, -0.24690876458533, 0
418, 0.97366013476256, -0.27352816824556, 0
419, 0.97174065816833, 0.19492980407259, 0
420, 0.94449608940639, 0.22127309378575, 0
421, 0.97226714001274, 0.22142720190694, 0
422, 0.3189849651343, -0.27023285970952, 0
423, 0.97250219140179, -0.19249453026174, 0
424, 0.94427773983038, -0.16556368122766, 0
425, 0.97212551802062, -0.16474937234813, 0
426, 0.025707601685619, 0.084117924295053, 0
427, 0.051533891491004, 0.05502464891523, 0
428, 0.025761760307866, 0.056667139086769, 0
429, 0.57963702765587, 0.28081058073501, 0
430, 0.50267835141261, 0.26634779633728, 0
431, 0.55681647643644, 0.27804299449419, 0
432, 0.051775612120209, -0.10811168445943, 0
433, 0.025896330172985, -0.10759669858244, 0
434, 0.91955450658762, -0.24701609011914, 0
435, 0.92062387993108, -0.27354763813187, 0
436, 0.051315672813392, 0.10964093627279, 0
437, 0.025661196314837, 0.13894065277638, 0
438, 0.025669110815962, 0.11156746230558, 0
439, 0.94237449421461, 0.16781668442859, 0
440, 0.97121764976608, 0.16809362353692, 0
441, 0.051344975705622, 0.16413335300178, 0
442, 0.025763553199314, 0.19290935920469, 0
443, 0.025692377470085, 0.16599004080734, 0
444, 0.94080193678574, -0.055190112213428, 0
445, 0.96996097699695, -0.024575737399829, 0
446, 0.97038650534073, -0.052592508583021, 0
447, 0.62546730932126, 0.28165099212816, 0
448, 0.65008410696074, 0.28080897284147, 0
449, 0.67856990762637, -0.2293302689547, 0
450, 0.72842732037234, -0.18573872683907, 0
451, 0.78509062434518, -0.25028068344589, 0
452, 0.93912226464514, 0.00079152371040722, 0
453, 0.96965208436112, 0.0032294231965875, 0
454, 0.12970301626924, 0.24239662839455, 0
455, 0.13102576355412, 0.27108654585053, 0
456, 0.80843301447856, 0.24991706533601, 0
457, 0.81201557366036, 0.27495789074852, 0
458, 0.025987678385615, 0.24642258127052, 0
459, 0.026093165508953, 0.27320272251811, 0
460, 0.60324462137468, 0.26442955393887, 0
461, 0.60220779726584, 0.28183956515032, 0
462, 0.91826911281591, 0.24769706102745, 0
463, 0.91984236386204, 0.27388390782441, 0
464, 0.29709786104101, 0.10140463038898, 0
465, 0.24315200818544, 0.030240932863422, 0
466, 0.29085225289899, 0.18353273850891, 0
467, 0.73092396173781, -0.22919171778596, 0
468, 0.051714638769312, 0.21840783433205, 0
469, 0.025867584771774, 0.21967783056361, 0
470, 0.45223159326998, -0.24894368295131, 0
471, 0.45124936499969, -0.27430387159792, 0
472, 0.052306307763338, -0.21811415584446, 0
473, 0.026150891193811, -0.21863021926502, 0
474, 0.20309601966909, 0.20661495458339, 0
475, 0.17757163581604, 0.1810786196798, 0
476, 0.15387339511358, 0.21207339517049, 0
477, 0.17871878269974, 0.20966686784277, 0
478, 0.94571735190145, -0.21997157836404, 0
479, 0.97287097459466, -0.21983572645192, 0
480, 0.077529573273867, 0.02623243566446, 0
481, 0.10363776073859, -0.0022845679709169, 0
482, 0.077625673885114, -0.02774710299957, 0
483, 0.077628936231328, -0.00080182620067222, 0
484, 0.24923543487311, -0.070421223347352, 0
485, 0.22344788211379, -0.084071404892854, 0
486, 0.20446977951005, -0.06103819390987, 0
487, 0.22769261621748, -0.064082309377196, 0
488, 0.62596850168091, -0.20083442755431, 0
489, 0.90748058451089, 0.026988975783868, 0
490, 0.87571654477731, 0.054997059946331, 0
491, 0.90884791892366, 0.084679757832322, 0
492, 0.90780690856276, 0.055985814488412, 0
493, 0.87989086379969, 0.11324046895334, 0
494, 0.91183551091341, 0.14062020790894, 0
495, 0.9102658753022, 0.11289598153352, 0
496, 0.7609897293028, -0.014345632576699, 0
497, 0.77901962733961, -0.038584173593579, 0
498, 0.70472821021572, -0.22984845673823, 0
499, 0.62743577790345, -0.2507732838848, 0
500, 0.65018244800229, -0.18054925005298, 0
501, 0.07709418264769, 0.080530118096527, 0
502, 0.10316819477809, 0.051648761168299, 0
503, 0.077327257187555, 0.053352469771114, 0
504, 0.13040826609074, -0.1891652072185, 0
505, 0.1572283989743, -0.21586424660623, 0
506, 0.10466738828188, -0.21721274011863, 0
507, 0.13090447421161, -0.21663747008315, 0
508, 0.20112724329039, 0.15003664797662, 0
509, 0.177135964201, 0.12619981311943, 0
510, 0.15249790200073, 0.15600269776515, 0
511, 0.17705178890915, 0.15328540175935, 0
512, 0.89132903241658, -0.22087737160956, 0
513, 0.83699899497112, -0.22245593560059, 0
514, 0.86260795522943, -0.19515872988789, 0
515, 0.8641324940489, -0.22157113078228, 0
516, 0.15522182705953, 0.04822390774793, 0
517, 0.12973416117696, 0.022928454726047, 0
518, 0.12837382663555, 0.076882506418484, 0
519, 0.12910608516702, 0.049919569513898, 0
520, 0.91281866256458, -0.085265729862108, 0
521, 0.91537323889869, -0.13946640370307, 0
522, 0.88586375428113, -0.11425841399115, 0
523, 0.91417860933132, -0.11238954903175, 0
524, 0.21048185973024, -0.21341183313249, 0
525, 0.34792986155643, -0.24113394182797, 0
526, 0.22987339048371, -0.12709824861779, 0
527, 0.59984136487426, -0.16916118742186, 0
528, 0.62476579529587, -0.17484648443831, 0
529, 0.65150976985473, -0.20414994310666, 0
530, 0.84580510628679, 0.085457791603325, 0
531, 0.81907038768526, 0.11698216943718, 0
532, 0.8525236701622, 0.14233998400153, 0
533, 0.84934799263091, 0.11446243283935, 0
534, 0.42160289370658, 0.28520290984103, 0
535, 0.4467256803796, 0.2824886021584, 0
536, 0.72353722412387, 0.097134929328579, 0
537, 0.73650779543754, 0.0068019836490159, 0
538, 0.61089857421547, 0.21451502944891, 0
539, 0.25887764337467, 0.044966122206174, 0
540, 0.24806754768224, 0.091767795044547, 0
541, 0.2535941889924, 0.22902238838243, 0
542, 0.24965647387059, 0.19762362254621, 0
543, 0.2918599952638, 0.051655347408829, 0
544, 0.24801527426971, 0.11549888578387, 0
545, 0.18283999842735, -0.18690359609242, 0
546, 0.18371420264813, -0.21480980157941, 0
547, 0.5516630980635, -0.22335982731034, 0
548, 0.67740648354572, -0.20670622836339, 0
549, 0.076840884717319, 0.13500810352692, 0
550, 0.10242519994459, 0.10583905453933, 0
551, 0.076912323411491, 0.10775053339038, 0
552, 0.10339867082908, -0.055621168619413, 0
553, 0.077554979982509, -0.081525017927687, 0
554, 0.077576817922058, -0.054633829193617, 0
555, 0.12794565360363, 0.18600148811809, 0
556, 0.10318473051177, 0.21565579939022, 0
557, 0.12866591327789, 0.21402127103377, 0
558, 0.38698905087093, -0.15138697770849, 0
559, 0.3747422567127, -0.2428874251238, 0
560, 0.32272604541343, -0.20886827228311, 0
561, 0.29356825978472, 0.1275748181567, 0
562, 0.27100603103129, 0.085502938726397, 0
563, 0.3206362755665, -0.24005067530859, 0
564, 0.41099432680224, -0.16075899237022, 0
565, 0.33207142422055, -0.14001894799215, 0
566, 0.36963425407318, 0.28209514511897, 0
567, 0.39564908413645, 0.28518421542814, 0
568, 0.72032876424833, 0.2319355982238, 0
569, 0.77675085805445, 0.22653309890195, 0
570, 0.7440883782152, 0.20462684720001, 0
571, 0.74851627554668, 0.2288538372275, 0
572, 0.10336712170282, -0.10875754685228, 0
573, 0.077762452922082, -0.13561403830553, 0
574, 0.077612500215508, -0.10850360925405, 0
575, 0.3811299390709, -0.18367674669797, 0
576, 0.27735726480728, -0.10641745696883, 0
577, 0.22517813433081, 0.17364079565532, 0
578, 0.23384146645899, 0.26604273463897, 0
579, 0.4333916611936, -0.17146500976876, 0
580, 0.48092939178857, -0.18297564654382, 0
581, 0.45503336831055, -0.20110003273135, 0
582, 0.4563891020458, -0.17999361574953, 0
583, 0.80133204195414, 0.19929940787417, 0
584, 0.83292269553779, 0.22336493470733, 0
585, 0.80487873648765, 0.2247394375266, 0
586, 0.88445125041823, 0.1684149036778, 0
587, 0.91507176268043, 0.19478051142132, 0
588, 0.91345085838298, 0.16789347165287, 0
589, 0.50384356884834, -0.20192033787494, 0
590, 0.52791122594081, -0.17223980743538, 0
591, 0.50511075130532, -0.17928226385875, 0
592, 0.67942425272912, 0.14087971691905, 0
593, 0.71276293430018, 0.12228781441714, 0
594, 0.68763992219793, 0.11106710277766, 0
595, 0.61047831263412, 0.17663026757022, 0
596, 0.29415552199325, -0.20847630670219, 0
597, 0.2858320884016, 0.26000886759115, 0
598, 0.27613644476116, 0.22291234451319, 0
599, 0.078231204030861, -0.19024247449768, 0
600, 0.078475072828993, -0.21767351376092, 0
601, 0.90957327357929, -0.030213177193955, 0
602, 0.87638654439009, -0.0052432196010798, 0
603, 0.90815634623209, -0.0018740441308152, 0
604, 0.40642258306157, -0.18974047771079, 0
605, 0.26504588211198, -0.17858759701505, 0
606, 0.34290518801049, 0.27445425121592, 0
607, 0.58722846547638, 0.24809847092966, 0
608, 0.69793551032858, 0.25708828672547, 0
609, 0.54373401207687, 0.25092087786783, 0
610, 0.88189510535646, -0.061161584857867, 0
611, 0.91125046367758, -0.057951044758386, 0
612, 0.88881188209072, 0.22170633453646, 0
613, 0.9166776902291, 0.22135575676809, 0
614, 0.83017261114726, -0.1171074325366, 0
615, 0.80267211323625, -0.14245506096425, 0
616, 0.80263541616324, -0.11646170460925, 0
617, 0.25411504629045, -0.11983556002194, 0
618, 0.32590747737525, -0.17579144990637, 0
619, 0.077138007515538, 0.18965260393348, 0
620, 0.077508677475893, 0.21708907136142, 0
621, 0.12890775798752, -0.082706805718515, 0
622, 0.12954473318154, -0.030418807930873, 0
623, 0.15474256490156, -0.057761825982585, 0
624, 0.12915117398741, -0.056636467350328, 0
625, 0.12932508916392, -0.13522973357197, 0
626, 0.15429985338311, -0.10865222039326, 0
627, 0.12897031785822, -0.10883397733585, 0
628, 0.67179175955616, 0.2596539062535, 0
629, 0.10393399931684, -0.16254417214324, 0
630, 0.077981836060641, -0.1628692800027, 0
631, 0.91751521670538, -0.1934987525853, 0
632, 0.91853229380916, -0.22033743182131, 0
633, 0.15573537314104, -0.16110550031608, 0
634, 0.12985081258042, -0.16200526918712, 0
635, 0.85820444780457, 0.19610817466617, 0
636, 0.86089566761185, 0.22236463241353, 0
637, 0.20211991627912, 0.097452949240608, 0
638, 0.1792401674813, 0.07338798578475, 0
639, 0.15298392065698, 0.10180560925152, 0
640, 0.17782718417476, 0.099664213529705, 0
641, 0.10234133639635, 0.16039908021745, 0
642, 0.076912706635341, 0.16230019667249, 0
643, 0.24572822362855, -0.098794397969359, 0
644, 0.26307632084887, -0.085644756846864, 0
645, 0.15637254872774, -0.0058211673826691, 0
646, 0.12983095938889, -0.0039066653357461, 0
647, 0.17893688467305, -0.0835494275807, 0
648, 0.18171763163544, -0.034194021834135, 0
649, 0.17997412342911, -0.05913987200556, 0
650, 0.12752228980761, 0.13097992782247, 0
651, 0.12756308216545, 0.15833371562325, 0
652, 0.7071307221066, -0.27629321793732, 0
653, 0.67963115180034, -0.25257612519437, 0
654, 0.20765348294298, -0.15726091985597, 0
655, 0.23806896775558, -0.27066048871461, 0
656, 0.83330958264608, -0.16960451733351, 0
657, 0.85940819103828, -0.14208843994242, 0
658, 0.88871927690493, -0.16755857000273, 0
659, 0.86101495378804, -0.16860360901638, 0
660, 0.42860658616684, -0.22135807942829, 0
661, 0.37737222592272, -0.21378372921066, 0
662, 0.12780685889482, 0.10386360214897, 0
663, 0.83958491060042, 0.021594410198462, 0
664, 0.84209162467622, 0.054681121531435, 0
665, 0.76310060278793, 0.12547942721415, 0
666, 0.79415824291948, 0.14737326408122, 0
667, 0.79002140317917, 0.12099937488033, 0
668, 0.76912008370018, 0.17633215678592, 0
669, 0.73698257827351, 0.15345545952368, 0
670, 0.73985425926819, 0.17958572895632, 0
671, 0.91647178837534, -0.16652056695421, 0
672, 0.18477361675127, 0.018919128872955, 0
673, 0.18347564267241, -0.0083992475437549, 0
674, 0.82651674611692, 0.17118051690445, 0
675, 0.79778110865251, 0.1735133260174, 0
676, 0.80799748885361, -0.19762517072577, 0
677, 0.81002026779675, -0.2236500445294, 0
678, 0.1802298907072, -0.13332138121917, 0
679, 0.18162498351466, -0.15963532180633, 0
680, 0.85544104267198, 0.16947901156011, 0
681, 0.22685160358147, 0.071882953955388, 0
682, 0.26969347154206, 0.16221424816507, 0
683, 0.24788106261547, 0.1684996999299, 0
684, 0.2703420517534, 0.13505186516101, 0
685, 0.22981989472725, 0.23343152629839, 0
686, 0.20311150152714, -0.10674261691975, 0
687, 0.17913958282997, -0.10805349252613, 0
688, 0.52722743677032, -0.22441780498324, 0
689, 0.55079789390017, -0.27470105368763, 0
690, 0.73837767493281, 0.1280423345168, 0
691, 0.23806565385959, -0.24123182304487, 0
692, 0.65783495849425, 0.16275408245695, 0
693, 0.20798386059312, 0.046393125504862, 0
694, 0.1815871002859, 0.046791330697263, 0
695, 0.84861644984548, -0.038974439880717, 0
696, 0.84328646261906, -0.010366162953422, 0
697, 0.22559135469686, -0.10411843344279, 0
698, 0.85599440090061, -0.09044783943754, 0
699, 0.85784708343805, -0.11599196940985, 0
700, 0.69368384524, 0.07742911744262, 0
701, 0.78397693230616, 0.094348825447162, 0
702, 0.77804729531511, -0.17304038427, 0
703, 0.5507381815538, -0.1662243774198, 0
704, 0.47831120305151, -0.2257736561558, 0
705, 0.45354304303424, -0.22434083328886, 0
706, 0.50285681126825, -0.22556810721615, 0
707, 0.64711759703739, 0.26195753655717, 0
708, 0.55137259151957, -0.24924886122577, 0
709, 0.29783834983368, 0.07584558937484, 0
710, 0.73228320201591, -0.25241485316278, 0
711, 0.27114580706973, 0.19122072615644, 0
712, 0.80553684902454, -0.17071644099922, 0
713, 0.85327774431908, -0.065116248963019, 0
714, 0.62185681723199, 0.24649166555616, 0
715, 0.70985901816159, 0.025749460760008, 0
716, 0.69289154612654, 0.23597271455551, 0
717, 0.74558578728017, 0.079856774119991, 0
718, 0.2331823293434, -0.019886927405282, 0
719, 0.24718014112603, 0.070943760144935, 0
720, 0.6012208845407, 0.19851450503609, 0
721, 0.5885604217067, 0.18032605503616, 0
722, 0.80639219579845, 0.056564373012414, 0
723, 0.65342865896082, -0.25180486079452, 0
724, 0.60173823292958, -0.27499174233106, 0
725, 0.70593833513438, -0.2528183200207, 0
726, 0.53226598095238, 0.27354703197165, 0
727, 0.80655816384027, -0.074809548455507, 0
728, 0.23422011339017, -0.15340115305068, 0
729, 0.78664940368352, -0.27513670644142, 0
730, 0.22486583301783, 0.11987521802905, 0
731, 0.6695031525194, 0.17670226692341, 0
732, 0.62421598876225, 0.26370522476769, 0
733, 0.5837232142029, 0.26318313015517, 0
734, 0.60120846740522, 0.23398355280769, 0
735, 0.61775617029651, 0.23017076259001, 0
736, 0.63792862521335, 0.2259845177534, 0
737, 0.6610355361987, 0.22109267840821, 0
738, 0.68679898830558, 0.21514122018912, 0
739, 0.58104372746879, 0.22920212041474, 0
740, 0.5678970159504, 0.2175504261568, 0
741, 0.55149689431445, 0.20217263302178, 0
742, 0.58983054877635, 0.23709629965649, 0
743, 0.24559136357301, 0.055354946495821, 0
744, 0.28021688891141, 0.030212204982757, 0
745, 0.25956267607536, 0.26349021847219, 0
746, 0.31397068268828, 0.25541382035266, 0
******* E L E M E N T S *************
*ELEMENT, type=CPS4, ELSET=Surface1
1, 723, 653, 449, 331
2, 724, 193, 499, 336
3, 29, 27, 689, 397
4, 59, 339, 340, 48
5, 48, 340, 337, 58
6, 340, 338, 281, 337
7, 339, 269, 338, 340
8, 97, 90, 344, 341
9, 341, 344, 342, 207
10, 344, 343, 205, 342
11, 90, 98, 343, 344
12, 182, 347, 348, 345
13, 345, 348, 346, 183
14, 348, 11, 19, 346
15, 347, 18, 11, 348
16, 364, 16, 24, 223
17, 605, 378, 329, 188
18, 559, 223, 328, 350
19, 183, 346, 354, 352
20, 352, 354, 353, 184
21, 354, 12, 20, 353
22, 346, 19, 12, 354
23, 63, 357, 358, 52
24, 52, 358, 355, 62
25, 358, 356, 266, 355
26, 357, 248, 356, 358
27, 40, 33, 285, 284
28, 31, 39, 359, 330
29, 286, 320, 316, 280
30, 576, 644, 643, 617
31, 728, 654, 222, 378
32, 327, 15, 23, 422
33, 378, 222, 524, 329
34, 42, 35, 368, 365
35, 365, 368, 366, 290
36, 368, 367, 289, 366
37, 35, 43, 367, 368
38, 116, 106, 372, 369
39, 369, 372, 370, 217
40, 372, 371, 228, 370
41, 106, 117, 371, 372
42, 184, 353, 374, 373
43, 373, 374, 363, 185
44, 374, 13, 21, 363
45, 353, 20, 13, 374
46, 242, 350, 181, 660
47, 565, 351, 134, 168
48, 596, 188, 237, 186
49, 617, 643, 697, 526
50, 30, 38, 193, 724
51, 689, 360, 361, 708
52, 498, 467, 279, 315
53, 284, 285, 317, 710
54, 62, 355, 382, 51
55, 51, 382, 380, 61
56, 382, 381, 268, 380
57, 355, 266, 381, 382
58, 190, 734, 742, 739
59, 383, 386, 71, 79
60, 386, 384, 78, 71
61, 429, 733, 460, 461
62, 254, 389, 390, 387
63, 387, 390, 388, 253
64, 390, 68, 76, 388
65, 389, 75, 68, 390
66, 42, 365, 392, 34
67, 653, 725, 498, 449
68, 275, 362, 127, 175
69, 365, 290, 391, 392
70, 121, 111, 394, 393
71, 393, 394, 347, 182
72, 394, 10, 18, 347
73, 111, 1, 10, 394
74, 28, 26, 398, 395
75, 395, 398, 396, 187
76, 398, 397, 192, 396
77, 26, 29, 397, 398
78, 99, 92, 402, 399
79, 399, 402, 400, 204
80, 402, 401, 203, 400
81, 92, 100, 401, 402
82, 256, 404, 405, 384
83, 384, 405, 70, 78
84, 405, 403, 77, 70
85, 404, 255, 403, 405
86, 228, 371, 408, 406
87, 406, 408, 407, 230
88, 408, 107, 118, 407
89, 371, 117, 107, 408
90, 65, 55, 411, 409
91, 409, 411, 410, 252
92, 411, 66, 74, 410
93, 55, 5, 66, 411
94, 119, 109, 415, 412
95, 412, 415, 413, 227
96, 415, 414, 221, 413
97, 109, 120, 414, 415
98, 44, 37, 418, 416
99, 416, 418, 417, 292
100, 418, 45, 56, 417
101, 37, 4, 45, 418
102, 64, 54, 421, 419
103, 419, 421, 420, 251
104, 421, 409, 252, 420
105, 54, 65, 409, 421
106, 575, 661, 242, 604
107, 186, 237, 189, 327
108, 376, 576, 617, 349
109, 237, 691, 655, 189
110, 58, 337, 425, 47
111, 47, 425, 423, 57
112, 425, 424, 291, 423
113, 337, 281, 424, 425
114, 115, 105, 428, 426
115, 426, 428, 427, 216
116, 428, 369, 217, 427
117, 105, 116, 369, 428
118, 6, 81, 431, 429
119, 716, 738, 244, 568
120, 156, 741, 297, 146
121, 148, 595, 721, 155
122, 230, 407, 433, 432
123, 432, 433, 412, 227
124, 433, 108, 119, 412
125, 407, 118, 108, 433
126, 43, 36, 435, 367
127, 367, 435, 434, 289
128, 435, 416, 292, 434
129, 36, 44, 416, 435
130, 199, 437, 438, 436
131, 436, 438, 426, 216
132, 438, 104, 115, 426
133, 437, 114, 104, 438
134, 63, 53, 440, 357
135, 357, 440, 439, 248
136, 440, 419, 251, 439
137, 53, 64, 419, 440
138, 202, 442, 443, 441
139, 441, 443, 437, 199
140, 443, 103, 114, 437
141, 442, 113, 103, 443
142, 59, 49, 446, 339
143, 339, 446, 444, 269
144, 446, 445, 271, 444
145, 49, 60, 445, 446
146, 79, 72, 448, 383
147, 260, 737, 738, 716
148, 297, 257, 609, 294
149, 72, 80, 447, 448
150, 449, 498, 315, 548
151, 379, 702, 177, 126
152, 279, 280, 379, 450
153, 60, 50, 453, 445
154, 445, 453, 452, 271
155, 453, 380, 268, 452
156, 50, 61, 380, 453
157, 205, 343, 455, 454
158, 454, 455, 399, 204
159, 455, 91, 99, 399
160, 343, 98, 91, 455
161, 253, 388, 457, 456
162, 456, 457, 403, 255
163, 457, 69, 77, 403
164, 388, 76, 69, 457
165, 100, 93, 459, 401
166, 401, 459, 458, 203
167, 459, 101, 112, 458
168, 93, 8, 101, 459
169, 80, 73, 461, 447
170, 147, 299, 741, 156
171, 155, 721, 299, 147
172, 73, 6, 429, 461
173, 252, 410, 463, 462
174, 462, 463, 389, 254
175, 463, 67, 75, 389
176, 410, 74, 67, 463
177, 465, 306, 693, 212
178, 543, 194, 539, 744
179, 746, 213, 141, 161
180, 577, 206, 508, 334
181, 362, 450, 176, 127
182, 488, 529, 500, 528
183, 278, 488, 528, 527
184, 280, 316, 702, 379
185, 203, 458, 469, 468
186, 468, 469, 442, 202
187, 469, 102, 113, 442
188, 458, 112, 102, 469
189, 2, 25, 471, 377
190, 377, 471, 470, 181
191, 471, 395, 187, 470
192, 25, 28, 395, 471
193, 120, 110, 473, 414
194, 414, 473, 472, 221
195, 473, 393, 182, 472
196, 110, 121, 393, 473
197, 207, 342, 477, 474
198, 474, 477, 475, 206
199, 477, 476, 201, 475
200, 342, 205, 476, 477
201, 292, 417, 479, 478
202, 478, 479, 423, 291
203, 479, 46, 57, 423
204, 417, 56, 46, 479
205, 228, 482, 483, 370
206, 370, 483, 480, 217
207, 483, 481, 218, 480
208, 482, 229, 481, 483
209, 166, 304, 487, 484
210, 484, 487, 485, 234
211, 487, 486, 235, 485
212, 304, 233, 486, 487
213, 27, 3, 360, 689
214, 285, 729, 451, 317
215, 276, 321, 703, 590
216, 710, 317, 286, 467
217, 266, 491, 492, 381
218, 381, 492, 489, 268
219, 492, 490, 267, 489
220, 491, 265, 490, 492
221, 266, 356, 495, 491
222, 491, 495, 493, 265
223, 495, 494, 247, 493
224, 356, 248, 494, 495
225, 325, 497, 124, 178
226, 497, 496, 179, 124
227, 3, 30, 724, 360
228, 316, 676, 712, 702
229, 193, 330, 723, 499
230, 39, 32, 652, 359
231, 218, 502, 503, 480
232, 480, 503, 427, 217
233, 503, 501, 216, 427
234, 502, 215, 501, 503
235, 219, 506, 507, 504
236, 504, 507, 505, 220
237, 507, 352, 184, 505
238, 506, 183, 352, 507
239, 206, 475, 511, 508
240, 508, 511, 509, 196
241, 511, 510, 198, 509
242, 475, 201, 510, 511
243, 288, 514, 515, 512
244, 512, 515, 366, 289
245, 515, 513, 290, 366
246, 514, 287, 513, 515
247, 211, 518, 519, 516
248, 516, 519, 517, 214
249, 519, 502, 218, 517
250, 518, 215, 502, 519
251, 270, 522, 523, 520
252, 520, 523, 338, 269
253, 523, 521, 281, 338
254, 522, 282, 521, 523
255, 223, 24, 17, 328
256, 576, 167, 136, 644
257, 349, 617, 526, 728
258, 528, 500, 128, 174
259, 331, 449, 548, 529
260, 336, 499, 319, 191
261, 729, 392, 391, 451
262, 265, 493, 533, 530
263, 300, 497, 325, 314
264, 533, 532, 246, 531
265, 493, 247, 532, 533
266, 7, 534, 535, 83
267, 430, 726, 84, 82
268, 741, 740, 257, 297
269, 534, 159, 144, 535
270, 313, 496, 497, 300
271, 496, 537, 123, 179
272, 322, 85, 83, 535
273, 322, 535, 144, 158
274, 726, 431, 81, 84
275, 598, 541, 542, 711
276, 96, 89, 578, 745
277, 561, 684, 208, 464
278, 578, 341, 207, 685
279, 711, 542, 683, 682
280, 709, 562, 194, 543
281, 195, 637, 210, 681
282, 684, 332, 544, 208
283, 220, 505, 546, 545
284, 545, 546, 524, 222
285, 546, 373, 185, 524
286, 505, 184, 373, 546
287, 499, 723, 331, 319
288, 41, 34, 392, 729
289, 361, 336, 191, 318
290, 688, 547, 321, 276
291, 216, 501, 551, 436
292, 436, 551, 549, 199
293, 551, 550, 197, 549
294, 501, 215, 550, 551
295, 230, 553, 554, 406
296, 406, 554, 482, 228
297, 554, 552, 229, 482
298, 553, 231, 552, 554
299, 201, 476, 557, 555
300, 555, 557, 556, 200
301, 557, 454, 204, 556
302, 476, 205, 454, 557
303, 563, 422, 364, 525
304, 349, 728, 378, 605
305, 564, 579, 170, 133
306, 597, 745, 541, 598
307, 208, 544, 540, 562
308, 194, 719, 743, 539
309, 746, 597, 598, 213
310, 691, 185, 363, 655
311, 618, 560, 241, 375
312, 422, 23, 16, 364
313, 159, 534, 567, 143
314, 143, 567, 566, 160
315, 567, 86, 94, 566
316, 534, 7, 86, 567
317, 244, 570, 571, 568
318, 568, 571, 404, 256
319, 571, 569, 255, 404
320, 570, 243, 569, 571
321, 227, 573, 574, 432
322, 432, 574, 553, 230
323, 574, 572, 231, 553
324, 573, 226, 572, 574
325, 375, 241, 661, 575
326, 558, 564, 133, 169
327, 661, 559, 350, 242
328, 655, 363, 21, 14
329, 543, 744, 165, 138
330, 561, 464, 139, 163
331, 542, 307, 577, 683
332, 333, 465, 212, 303
333, 238, 581, 582, 579
334, 579, 582, 132, 170
335, 582, 580, 171, 132
336, 581, 239, 580, 582
337, 249, 584, 585, 583
338, 583, 585, 569, 243
339, 585, 456, 255, 569
340, 584, 253, 456, 585
341, 248, 439, 588, 494
342, 494, 588, 586, 247
343, 588, 587, 250, 586
344, 439, 251, 587, 588
345, 276, 590, 591, 589
346, 589, 591, 580, 239
347, 591, 131, 171, 580
348, 590, 172, 131, 591
349, 153, 150, 594, 592
350, 592, 594, 593, 261
351, 262, 665, 690, 263
352, 448, 707, 628, 383
353, 386, 608, 256, 384
354, 308, 736, 735, 538
355, 146, 297, 294, 157
356, 189, 655, 14, 22
357, 186, 327, 422, 563
358, 681, 210, 693, 306
359, 165, 744, 333, 137
360, 541, 685, 307, 542
361, 307, 474, 206, 577
362, 221, 472, 600, 599
363, 599, 600, 506, 219
364, 600, 345, 183, 506
365, 472, 182, 345, 600
366, 271, 452, 603, 601
367, 601, 603, 602, 272
368, 603, 489, 267, 602
369, 452, 268, 489, 603
370, 241, 525, 559, 661
371, 604, 242, 660, 238
372, 728, 526, 224, 654
373, 717, 301, 701, 262
374, 302, 151, 180, 715
375, 213, 466, 162, 141
376, 87, 606, 566, 94
377, 606, 142, 160, 566
378, 209, 682, 684, 561
379, 628, 260, 716, 608
380, 607, 742, 734, 310
381, 430, 82, 85, 322
382, 294, 609, 726, 430
383, 272, 610, 611, 601
384, 601, 611, 444, 271
385, 611, 520, 269, 444
386, 610, 270, 520, 611
387, 251, 420, 613, 587
388, 587, 613, 612, 250
389, 613, 462, 254, 612
390, 420, 252, 462, 613
391, 177, 615, 616, 125
392, 125, 616, 324, 178
393, 616, 614, 273, 324
394, 615, 283, 614, 616
395, 376, 240, 618, 565
396, 565, 618, 375, 351
397, 564, 604, 238, 579
398, 351, 375, 575, 558
399, 204, 400, 620, 556
400, 556, 620, 619, 200
401, 620, 468, 202, 619
402, 400, 203, 468, 620
403, 236, 623, 624, 621
404, 621, 624, 552, 231
405, 624, 622, 229, 552
406, 623, 232, 622, 624
407, 225, 626, 627, 625
408, 625, 627, 572, 226
409, 627, 621, 231, 572
410, 626, 236, 621, 627
411, 385, 607, 733, 259
412, 312, 737, 736, 308
413, 714, 735, 736, 293
414, 740, 739, 385, 257
415, 219, 629, 630, 599
416, 599, 630, 413, 221
417, 630, 573, 227, 413
418, 629, 226, 573, 630
419, 289, 434, 632, 512
420, 512, 632, 631, 288
421, 632, 478, 291, 631
422, 434, 292, 478, 632
423, 226, 629, 634, 625
424, 625, 634, 633, 225
425, 634, 504, 220, 633
426, 629, 219, 504, 634
427, 253, 584, 636, 387
428, 387, 636, 612, 254
429, 636, 635, 250, 612
430, 584, 249, 635, 636
431, 198, 639, 640, 509
432, 509, 640, 637, 196
433, 640, 638, 210, 637
434, 639, 211, 638, 640
435, 200, 619, 642, 641
436, 641, 642, 549, 197
437, 642, 441, 199, 549
438, 619, 202, 441, 642
439, 351, 558, 169, 134
440, 376, 565, 168, 135
441, 644, 484, 234, 643
442, 136, 166, 484, 644
443, 218, 481, 646, 517
444, 517, 646, 645, 214
445, 646, 622, 232, 645
446, 481, 229, 622, 646
447, 235, 486, 649, 647
448, 647, 649, 623, 236
449, 649, 648, 232, 623
450, 486, 233, 648, 649
451, 197, 650, 651, 641
452, 641, 651, 555, 200
453, 651, 510, 201, 555
454, 650, 198, 510, 651
455, 450, 379, 126, 176
456, 527, 528, 174, 129
457, 702, 712, 615, 177
458, 240, 605, 188, 596
459, 240, 596, 560, 618
460, 525, 364, 223, 559
461, 287, 514, 659, 656
462, 656, 659, 657, 283
463, 659, 658, 282, 657
464, 514, 288, 658, 659
465, 350, 328, 377, 181
466, 526, 697, 686, 224
467, 328, 17, 2, 377
468, 376, 349, 605, 240
469, 198, 650, 662, 639
470, 639, 662, 518, 211
471, 662, 550, 215, 518
472, 650, 197, 550, 662
473, 264, 531, 667, 701
474, 530, 664, 490, 265
475, 664, 663, 267, 490
476, 700, 536, 593, 594
477, 246, 666, 667, 531
478, 666, 245, 665, 667
479, 244, 298, 670, 570
480, 570, 670, 668, 243
481, 670, 669, 245, 668
482, 298, 261, 669, 670
483, 281, 521, 671, 424
484, 424, 671, 631, 291
485, 671, 658, 288, 631
486, 521, 282, 658, 671
487, 212, 672, 673, 305
488, 305, 673, 648, 233
489, 673, 645, 232, 648
490, 672, 214, 645, 673
491, 246, 674, 675, 666
492, 666, 675, 668, 245
493, 675, 583, 243, 668
494, 674, 249, 583, 675
495, 287, 676, 677, 513
496, 513, 677, 391, 290
497, 315, 279, 450, 362
498, 191, 319, 488, 278
499, 222, 654, 679, 545
500, 545, 679, 633, 220
501, 679, 678, 225, 633
502, 654, 224, 678, 679
503, 249, 674, 680, 635
504, 635, 680, 586, 250
505, 680, 532, 247, 586
506, 674, 246, 532, 680
507, 730, 196, 637, 195
508, 332, 334, 730, 544
509, 709, 543, 138, 164
510, 466, 711, 682, 209
511, 209, 561, 163, 140
512, 464, 208, 562, 709
513, 685, 207, 474, 307
514, 562, 540, 719, 194
515, 236, 626, 687, 647
516, 647, 687, 686, 235
517, 687, 678, 224, 686
518, 626, 225, 678, 687
519, 467, 286, 280, 279
520, 548, 315, 362, 275
521, 652, 284, 710, 725
522, 590, 703, 130, 172
523, 701, 667, 665, 262
524, 593, 690, 669, 261
525, 690, 665, 245, 669
526, 314, 325, 727, 326
527, 329, 524, 185, 691
528, 558, 575, 604, 564
529, 596, 186, 563, 560
530, 299, 323, 740, 741
531, 447, 732, 707, 448
532, 720, 538, 190, 323
533, 707, 293, 260, 628
534, 214, 672, 694, 516
535, 516, 694, 638, 211
536, 694, 693, 210, 638
537, 672, 212, 693, 694
538, 663, 696, 602, 267
539, 696, 695, 272, 602
540, 313, 300, 696, 663
541, 234, 485, 697, 643
542, 376, 135, 167, 576
543, 485, 235, 686, 697
544, 270, 698, 699, 522
545, 522, 699, 657, 282
546, 699, 614, 283, 657
547, 698, 273, 614, 699
548, 722, 664, 530, 264
549, 722, 264, 701, 301
550, 700, 594, 150, 152
551, 500, 275, 175, 128
552, 529, 548, 275, 500
553, 277, 278, 527, 335
554, 239, 581, 705, 704
555, 704, 705, 470, 187
556, 705, 660, 181, 470
557, 581, 238, 660, 705
558, 192, 688, 706, 396
559, 396, 706, 704, 187
560, 706, 589, 239, 704
561, 688, 276, 589, 706
562, 609, 259, 431, 726
563, 732, 714, 293, 707
564, 157, 294, 430, 145
565, 293, 736, 737, 260
566, 703, 335, 173, 130
567, 319, 331, 529, 488
568, 451, 391, 677, 320
569, 32, 40, 284, 652
570, 719, 681, 306, 743
571, 137, 333, 303, 166
572, 464, 709, 164, 139
573, 540, 195, 681, 719
574, 33, 41, 729, 285
575, 397, 689, 708, 192
576, 192, 708, 547, 688
577, 296, 274, 301, 717
578, 314, 326, 713, 695
579, 536, 263, 690, 593
580, 89, 97, 341, 578
581, 466, 209, 140, 162
582, 683, 577, 334, 332
583, 213, 598, 711, 466
584, 283, 615, 712, 656
585, 656, 712, 676, 287
586, 335, 527, 129, 173
587, 547, 318, 277, 321
588, 270, 610, 713, 698
589, 698, 713, 326, 273
590, 313, 663, 664, 722
591, 610, 272, 695, 713
592, 259, 733, 429, 431
593, 595, 311, 720, 721
594, 538, 735, 734, 190
595, 700, 152, 122, 302
596, 302, 122, 9, 151
597, 739, 742, 607, 385
598, 257, 385, 259, 609
599, 608, 716, 568, 256
600, 313, 722, 301, 274
601, 300, 314, 695, 696
602, 536, 717, 262, 263
603, 296, 715, 537, 274
604, 715, 180, 123, 537
605, 700, 296, 717, 536
606, 212, 305, 718, 303
607, 303, 718, 304, 166
608, 305, 233, 304, 718
609, 682, 683, 332, 684
610, 334, 508, 196, 730
611, 744, 539, 465, 333
612, 461, 460, 732, 447
613, 310, 734, 735, 714
614, 311, 308, 538, 720
615, 721, 720, 323, 299
616, 733, 607, 310, 460
617, 383, 628, 608, 386
618, 264, 530, 533, 531
619, 700, 302, 715, 296
620, 330, 359, 653, 723
621, 725, 710, 467, 498
622, 320, 677, 676, 316
623, 38, 31, 330, 193
624, 360, 724, 336, 361
625, 318, 191, 278, 277
626, 708, 361, 318, 547
627, 430, 322, 158, 145
628, 460, 310, 714, 732
629, 273, 326, 727, 324
630, 324, 727, 325, 178
631, 313, 274, 537, 496
632, 188, 329, 691, 237
633, 327, 189, 22, 15
634, 560, 563, 525, 241
635, 321, 277, 335, 703
636, 359, 652, 725, 653
637, 317, 451, 320, 286
638, 544, 730, 195, 540
639, 539, 743, 306, 465
640, 745, 578, 685, 541
641, 295, 312, 308, 311
642, 323, 190, 739, 740
643, 309, 295, 311, 595
644, 154, 309, 595, 148
645, 258, 738, 737, 312
646, 731, 258, 312, 295
647, 692, 731, 295, 309
648, 149, 692, 309, 154
649, 298, 244, 738, 258
650, 261, 298, 258, 731
651, 592, 261, 731, 692
652, 153, 592, 692, 149
653, 746, 161, 142, 606
654, 746, 606, 87, 95
655, 597, 88, 96, 745
656, 746, 95, 88, 597
*ELSET,ELSET=contact_source
99, 100, 101, 102, 103, 104, 105, 106, 107, 108, 
109, 110, 111, 112, 113, 114, 115, 116, 117, 118, 
119, 120, 
*ELSET,ELSET=contact_drain
39, 40, 41, 42, 43, 44, 45, 46, 47, 48, 
49, 50, 51, 52, 53, 54, 55, 56, 57, 58, 
59, 60, 
*ELSET,ELSET=probe_A
77, 78, 79, 80, 81, 82, 
*ELSET,ELSET=probe_B
17, 18, 19, 20, 21, 22, 
*ELSET,ELSET=walls
1, 2, 3, 4, 5, 6, 7, 8, 9, 10, 
11, 12, 13, 14, 15, 16, 23, 24, 25, 26, 
27, 28, 29, 30, 31, 32, 33, 34, 35, 36, 
37, 38, 61, 62, 63, 64, 65, 66, 67, 68, 
69, 70, 71, 72, 73, 74, 75, 76, 83, 84, 
85, 86, 87, 88, 89, 90, 91, 92, 93, 94, 
95, 96, 97, 98, 121, 122, 123, 124, 125, 126, 
127, 128, 129, 130, 131, 132, 133, 134, 135, 136, 
137, 138, 139, 140, 141, 142, 143, 144, 145, 146, 
147, 148, 149, 150, 151, 152, 153, 154, 155, 156, 
157, 158, 159, 160, 161, 162, 163, 164, 165, 166, 
167, 168, 169, 170, 171, 172, 173, 174, 175, 176, 
177, 178, 179, 180, 
*ELSET,ELSET=domain
181, 182, 183, 184, 185, 186, 187, 188, 189, 190, 
191, 192, 193, 194, 195, 196, 197, 198, 199, 200, 
201, 202, 203, 204, 205, 206, 207, 208, 209, 210, 
211, 212, 213, 214, 215, 216, 217, 218, 219, 220, 
221, 222, 223, 224, 225, 226, 227, 228, 229, 230, 
231, 232, 233, 234, 235, 236, 237, 238, 239, 240, 
241, 242, 243, 244, 245, 246, 247, 248, 249, 250, 
251, 252, 253, 254, 255, 256, 257, 258, 259, 260, 
261, 262, 263, 264, 265, 266, 267, 268, 269, 270, 
271, 272, 273, 274, 275, 276, 277, 278, 279, 280, 
281, 282, 283, 284, 285, 286, 287, 288, 289, 290, 
291, 292, 293, 294, 295, 296, 297, 298, 299, 300, 
301, 302, 303, 304, 305, 306, 307, 308, 309, 310, 
311, 312, 313, 314, 315, 316, 317, 318, 319, 320, 
321, 322, 323, 324, 325, 326, 327, 328, 329, 330, 
331, 332, 333, 334, 335, 336, 337, 338, 339, 340, 
341, 342, 343, 344, 345, 346, 347, 348, 349, 350, 
351, 352, 353, 354, 355, 356, 357, 358, 359, 360, 
361, 362, 363, 364, 365, 366, 367, 368, 369, 370, 
371, 372, 373, 374, 375, 376, 377, 378, 379, 380, 
381, 382, 383, 384, 385, 386, 387, 388, 389, 390, 
391, 392, 393, 394, 395, 396, 397, 398, 399, 400, 
401, 402, 403, 404, 405, 406, 407, 408, 409, 410, 
411, 412, 413, 414, 415, 416, 417, 418, 419, 420, 
421, 422, 423, 424, 425, 426, 427, 428, 429, 430, 
431, 432, 433, 434, 435, 436, 437, 438, 439, 440, 
441, 442, 443, 444, 445, 446, 447, 448, 449, 450, 
451, 452, 453, 454, 455, 456, 457, 458, 459, 460, 
461, 462, 463, 464, 465, 466, 467, 468, 469, 470, 
471, 472, 473, 474, 475, 476, 477, 478, 479, 480, 
481, 482, 483, 484, 485, 486, 487, 488, 489, 490, 
491, 492, 493, 494, 495, 496, 497, 498, 499, 500, 
501, 502, 503, 504, 505, 506, 507, 508, 509, 510, 
511, 512, 513, 514, 515, 516, 517, 518, 519, 520, 
521, 522, 523, 524, 525, 526, 527, 528, 529, 530, 
531, 532, 533, 534, 535, 536, 537, 538, 539, 540, 
541, 542, 543, 544, 545, 546, 547, 548, 549, 550, 
551, 552, 553, 554, 555, 556, 557, 558, 559, 560, 
561, 562, 563, 564, 565, 566, 567, 568, 569, 570, 
571, 572, 573, 574, 575, 576, 577, 578, 579, 580, 
581, 582, 583, 584, 585, 586, 587, 588, 589, 590, 
591, 592, 593, 594, 595, 596, 597, 598, 599, 600, 
601, 602, 603, 604, 605, 606, 607, 608, 609, 610, 
611, 612, 613, 614, 615, 616, 617, 618, 619, 620, 
621, 622, 623, 624, 625, 626, 627, 628, 629, 630, 
631, 632, 633, 634, 635, 636, 637, 638, 639, 640, 
641, 642, 643, 644, 645, 646, 647, 648, 649, 650, 
651, 652, 653, 654, 655, 656, 657, 658, 659, 660, 
661, 662, 663, 664, 665, 666, 667, 668, 669, 670, 
671, 672, 673, 674, 675, 676, 677, 678, 679, 680, 
681, 682, 683, 684, 685, 686, 687, 688, 689, 690, 
691, 692, 693, 694, 695, 696, 697, 698, 699, 700, 
701, 702, 703, 704, 705, 706, 707, 708, 709, 710, 
711, 712, 713, 714, 715, 716, 717, 718, 719, 720, 
721, 722, 723, 724, 725, 726, 727, 728, 729, 730, 
731, 732, 733, 734, 735, 736, 737, 738, 739, 740, 
741, 742, 743, 744, 745, 746, 747, 748, 749, 750, 
751, 752, 753, 754, 755, 756, 757, 758, 759, 760, 
761, 762, 763, 764, 765, 766, 767, 768, 769, 770, 
771, 772, 773, 774, 775, 776, 777, 778, 779, 780, 
781, 782, 783, 784, 785, 786, 787, 788, 789, 790, 
791, 792, 793, 794, 795, 796, 797, 798, 799, 800, 
801, 802, 803, 804, 805, 806, 807, 808, 809, 810, 
811, 812, 813, 814, 815, 816, 817, 818, 819, 820, 
821, 822, 823, 824, 825, 826, 827, 828, 829, 830, 
831, 832, 833, 834, 835, 836, 
*NSET,NSET=contact_source
1, 8, 101, 102, 103, 104, 105, 106, 107, 108, 
109, 110, 111, 112, 113, 114, 115, 116, 117, 118, 
119, 120, 121, 
*NSET,NSET=contact_drain
4, 5, 45, 46, 47, 48, 49, 50, 51, 52, 
53, 54, 55, 56, 57, 58, 59, 60, 61, 62, 
63, 64, 65, 
*NSET,NSET=probe_A
6, 7, 81, 82, 83, 84, 85, 
*NSET,NSET=probe_B
2, 3, 25, 26, 27, 28, 29, 
*NSET,NSET=walls
1, 2, 3, 4, 5, 6, 7, 8, 9, 10, 
11, 12, 13, 14, 15, 16, 17, 18, 19, 20, 
21, 22, 23, 24, 30, 31, 32, 33, 34, 35, 
36, 37, 38, 39, 40, 41, 42, 43, 44, 66, 
67, 68, 69, 70, 71, 72, 73, 74, 75, 76, 
77, 78, 79, 80, 86, 87, 88, 89, 90, 91, 
92, 93, 94, 95, 96, 97, 98, 99, 100, 122, 
123, 124, 125, 126, 127, 128, 129, 130, 131, 132, 
133, 134, 135, 136, 137, 138, 139, 140, 141, 142, 
143, 144, 145, 146, 147, 148, 149, 150, 151, 152, 
153, 154, 155, 156, 157, 158, 159, 160, 161, 162, 
163, 164, 165, 166, 167, 168, 169, 170, 171, 172, 
173, 174, 175, 176, 177, 178, 179, 180, 
*NSET,NSET=domain
1, 2, 3, 4, 5, 6, 7, 8, 9, 10, 
11, 12, 13, 14, 15, 16, 17, 18, 19, 20, 
21, 22, 23, 24, 25, 26, 27, 28, 29, 30, 
31, 32, 33, 34, 35, 36, 37, 38, 39, 40, 
41, 42, 43, 44, 45, 46, 47, 48, 49, 50, 
51, 52, 53, 54, 55, 56, 57, 58, 59, 60, 
61, 62, 63, 64, 65, 66, 67, 68, 69, 70, 
71, 72, 73, 74, 75, 76, 77, 78, 79, 80, 
81, 82, 83, 84, 85, 86, 87, 88, 89, 90, 
91, 92, 93, 94, 95, 96, 97, 98, 99, 100, 
101, 102, 103, 104, 105, 106, 107, 108, 109, 110, 
111, 112, 113, 114, 115, 116, 117, 118, 119, 120, 
121, 122, 123, 124, 125, 126, 127, 128, 129, 130, 
131, 132, 133, 134, 135, 136, 137, 138, 139, 140, 
141, 142, 143, 144, 145, 146, 147, 148, 149, 150, 
151, 152, 153, 154, 155, 156, 157, 158, 159, 160, 
161, 162, 163, 164, 165, 166, 167, 168, 169, 170, 
171, 172, 173, 174, 175, 176, 177, 178, 179, 180, 
181, 182, 183, 184, 185, 186, 187, 188, 189, 190, 
191, 192, 193, 194, 195, 196, 197, 198, 199, 200, 
201, 202, 203, 204, 205, 206, 207, 208, 209, 210, 
211, 212, 213, 214, 215, 216, 217, 218, 219, 220, 
221, 222, 223, 224, 225, 226, 227, 228, 229, 230, 
231, 232, 233, 234, 235, 236, 237, 238, 239, 240, 
241, 242, 243, 244, 245, 246, 247, 248, 249, 250, 
251, 252, 253, 254, 255, 256, 257, 258, 259, 260, 
261, 262, 263, 264, 265, 266, 267, 268, 269, 270, 
271, 272, 273, 274, 275, 276, 277, 278, 279, 280, 
281, 282, 283, 284, 285, 286, 287, 288, 289, 290, 
291, 292, 293, 294, 295, 296, 297, 298, 299, 300, 
301, 302, 303, 304, 305, 306, 307, 308, 309, 310, 
311, 312, 313, 314, 315, 316, 317, 318, 319, 320, 
321, 322, 323, 324, 325, 326, 327, 328, 329, 330, 
331, 332, 333, 334, 335, 336, 337, 338, 339, 340, 
341, 342, 343, 344, 345, 346, 347, 348, 349, 350, 
351, 352, 353, 354, 355, 356, 357, 358, 359, 360, 
361, 362, 363, 364, 365, 366, 367, 368, 369, 370, 
371, 372, 373, 374, 375, 376, 377, 378, 379, 380, 
381, 382, 383, 384, 385, 386, 387, 388, 389, 390, 
391, 392, 393, 394, 395, 396, 397, 398, 399, 400, 
401, 402, 403, 404, 405, 406, 407, 408, 409, 410, 
411, 412, 413, 414, 415, 416, 417, 418, 419, 420, 
421, 422, 423, 424, 425, 426, 427, 428, 429, 430, 
431, 432, 433, 434, 435, 436, 437, 438, 439, 440, 
441, 442, 443, 444, 445, 446, 447, 448, 449, 450, 
451, 452, 453, 454, 455, 456, 457, 458, 459, 460, 
461, 462, 463, 464, 465, 466, 467, 468, 469, 470, 
471, 472, 473, 474, 475, 476, 477, 478, 479, 480, 
481, 482, 483, 484, 485, 486, 487, 488, 489, 490, 
491, 492, 493, 494, 495, 496, 497, 498, 499, 500, 
501, 502, 503, 504, 505, 506, 507, 508, 509, 510, 
511, 512, 513, 514, 515, 516, 517, 518, 519, 520, 
521, 522, 523, 524, 525, 526, 527, 528, 529, 530, 
531, 532, 533, 534, 535, 536, 537, 538, 539, 540, 
541, 542, 543, 544, 545, 546, 547, 548, 549, 550, 
551, 552, 553, 554, 555, 556, 557, 558, 559, 560, 
561, 562, 563, 564, 565, 566, 567, 568, 569, 570, 
571, 572, 573, 574, 575, 576, 577, 578, 579, 580, 
581, 582, 583, 584, 585, 586, 587, 588, 589, 590, 
591, 592, 593, 594, 595, 596, 597, 598, 599, 600, 
601, 602, 603, 604, 605, 606, 607, 608, 609, 610, 
611, 612, 613, 614, 615, 616, 617, 618, 619, 620, 
621, 622, 623, 624, 625, 626, 627, 628, 629, 630, 
631, 632, 633, 634, 635, 636, 637, 638, 639, 640, 
641, 642, 643, 644, 645, 646, 647, 648, 649, 650, 
651, 652, 653, 654, 655, 656, 657, 658, 659, 660, 
661, 662, 663, 664, 665, 666, 667, 668, 669, 670, 
671, 672, 673, 674, 675, 676, 677, 678, 679, 680, 
681, 682, 683, 684, 685, 686, 687, 688, 689, 690, 
691, 692, 693, 694, 695, 696, 697, 698, 699, 700, 
701, 702, 703, 704, 705, 706, 707, 708, 709, 710, 
711, 712, 713, 714, 715, 716, 717, 718, 719, 720, 
721, 722, 723, 724, 725, 726, 727, 728, 729, 730, 
731, 732, 733, 734, 735, 736, 737, 738, 739, 740, 
741, 742, 743, 744, 745, 746, 
