*Heading
 /Users/juliagao/geometry-optimization-net/scripts/../runs/run2/shape_97.inp
*NODE
1, 0, -0.3, 0
2, 0.425, -0.3, 0
3, 0.575, -0.3, 0
4, 1, -0.3, 0
5, 1, 0.3, 0
6, 0.575, 0.3, 0
7, 0.425, 0.3, 0
8, 0, 0.3, 0
9, 0.6516817991, 0.0161455224, 0
10, 0.025812973946099, -0.3, 0
11, 0.077841613559481, -0.3, 0
12, 0.1310999545557, -0.3, 0
13, 0.18608656503772, -0.3, 0
14, 0.24145781797335, -0.3, 0
15, 0.29531389401868, -0.3, 0
16, 0.34779801165224, -0.3, 0
17, 0.39942668551151, -0.3, 0
18, 0.051625947892198, -0.3, 0
19, 0.10405727922676, -0.3, 0
20, 0.15814262988465, -0.3, 0
21, 0.2140305001908, -0.3, 0
22, 0.26888513575589, -0.3, 0
23, 0.32174265228146, -0.3, 0
24, 0.37385337102302, -0.3, 0
25, 0.45052255353553, -0.3, 0
26, 0.5006467334649, -0.3, 0
27, 0.55012417992937, -0.3, 0
28, 0.47604510707106, -0.3, 0
29, 0.52524835985875, -0.3, 0
30, 0.60094601028128, -0.3, 0
31, 0.65354096697852, -0.3, 0
32, 0.70654307856728, -0.3, 0
33, 0.75953607962254, -0.3, 0
34, 0.81358251212996, -0.3, 0
35, 0.86849484996865, -0.3, 0
36, 0.92243541009045, -0.3, 0
37, 0.97443511449925, -0.3, 0
38, 0.62689202056256, -0.3, 0
39, 0.68018991339449, -0.3, 0
40, 0.73289624374008, -0.3, 0
41, 0.78617591550501, -0.3, 0
42, 0.84098910875491, -0.3, 0
43, 0.89600059118239, -0.3, 0
44, 0.9488702289985, -0.3, 0
45, 1, -0.27380179459203, 0
46, 1, -0.22095478631406, 0
47, 1, -0.16670846957843, 0
48, 1, -0.11057364055373, 0
49, 1, -0.053432196402936, 0
50, 1, 0.003511098723274, 0
51, 1, 0.059736467296413, 0
52, 1, 0.11511391117272, 0
53, 1, 0.1695484698914, 0
54, 1, 0.22259455364894, 0
55, 1, 0.27434866006272, 0
56, 1, -0.24760358918405, 0
57, 1, -0.19430598344406, 0
58, 1, -0.13911095571279, 0
59, 1, -0.08203632539467, 0
60, 1, -0.024828067411202, 0
61, 1, 0.03185026485775, 0
62, 1, 0.087622669735076, 0
63, 1, 0.14260515261036, 0
64, 1, 0.19649178717243, 0
65, 1, 0.24869732012544, 0
66, 0.97496609980629, 0.3, 0
67, 0.92384561740372, 0.3, 0
68, 0.86988967676793, 0.3, 0
69, 0.81439364915497, 0.3, 0
70, 0.7601119797803, 0.3, 0
71, 0.70687519295626, 0.3, 0
72, 0.65363858141844, 0.3, 0
73, 0.60099187825801, 0.3, 0
74, 0.94993219961257, 0.3, 0
75, 0.89775903519486, 0.3, 0
76, 0.842020318341, 0.3, 0
77, 0.78676697996894, 0.3, 0
78, 0.73345697959166, 0.3, 0
79, 0.68029340632085, 0.3, 0
80, 0.62698375651603, 0.3, 0
81, 0.55488746713191, 0.3, 0
82, 0.51575410259711, 0.3, 0
83, 0.47860637475992, 0.3, 0
84, 0.44273973929473, 0.3, 0
85, 0.53477493426383, 0.3, 0
86, 0.49673327093039, 0.3, 0
87, 0.46047947858945, 0.3, 0
88, 0.40175442166124, 0.3, 0
89, 0.3530484576756, 0.3, 0
90, 0.30048924520606, 0.3, 0
91, 0.24563384100915, 0.3, 0
92, 0.1900088820038, 0.3, 0
93, 0.13472997537146, 0.3, 0
94, 0.080427744755238, 0.3, 0
95, 0.02676801957012, 0.3, 0
96, 0.37850884332247, 0.3, 0
97, 0.32758807202873, 0.3, 0
98, 0.27339041838339, 0.3, 0
99, 0.21787726363492, 0.3, 0
100, 0.16214050037269, 0.3, 0
101, 0.10731945037024, 0.3, 0
102, 0.05353603914024, 0.3, 0
103, 0, 0.27339992158994, 0
104, 0, 0.21966463352697, 0
105, 0, 0.1650153062374, 0
106, 0, 0.11014588400749, 0
107, 0, 0.055320826038956, 0
108, 0, 2.2353210450632e-05, 0
109, 0, -0.05598942950156, 0
110, 0, -0.11169632635946, 0
111, 0, -0.16590784562456, 0
112, 0, -0.21946443846045, 0
113, 0, -0.27316667281516, 0
114, 0, 0.24679984317988, 0
115, 0, 0.19252942387407, 0
116, 0, 0.13750118860073, 0
117, 0, 0.082790579414254, 0
118, 0, 0.027851072663658, 0
119, 0, -0.027806366242757, 0
120, 0, -0.084172492760364, 0
121, 0, -0.13922015995855, 0
122, 0, -0.19259553129057, 0
123, 0, -0.24633334563032, 0
124, 0.65390609106156, 0.044126890498912, 0
125, 0.71508942256519, -0.039564902169929, 0
126, 0.75122275785425, -0.080828285068436, 0
127, 0.77358055539574, -0.12983560806677, 0
128, 0.76288380858321, -0.18173549218735, 0
129, 0.71469773716307, -0.20253936195517, 0
130, 0.66230302730392, -0.19610055849292, 0
131, 0.61246742028007, -0.17714566142666, 0
132, 0.56364715167352, -0.15560165165538, 0
133, 0.51296200930813, -0.16933389427862, 0
134, 0.46343549152747, -0.18816769368427, 0
135, 0.41091472816658, -0.17287981619118, 0
136, 0.35812532527263, -0.15173691374954, 0
137, 0.30498526397137, -0.13171585152427, 0
138, 0.27010468129198, -0.088696638632361, 0
139, 0.27678976680141, -0.034223863998414, 0
140, 0.30398203708847, 0.013357568942294, 0
141, 0.31382748685626, 0.066117268503793, 0
142, 0.30195500300907, 0.11992872658203, 0
143, 0.3065769709505, 0.1762753071351, 0
144, 0.33689462842856, 0.22330368994868, 0
145, 0.37903894291918, 0.25385111104811, 0
146, 0.42372149270127, 0.26847130425272, 0
147, 0.46814218248367, 0.26260714188978, 0
148, 0.50583734632042, 0.23464361543167, 0
149, 0.5323713513713, 0.19128951508467, 0
150, 0.54991956363836, 0.1441245639167, 0
151, 0.5980796030096, 0.1318394567649, 0
152, 0.65007910667941, 0.13272042043498, 0
153, 0.67589302743454, 0.090565206160175, 0
154, 0.67205944894681, -0.0035099929870789, 0
155, 0.66674528560021, 0.066155871029634, 0
156, 0.67191704149644, 0.11740483219622, 0
157, 0.62450938626697, 0.13531650432222, 0
158, 0.57182183052834, 0.12747824615697, 0
159, 0.54180649832936, 0.16667400006095, 0
160, 0.52029004043437, 0.21474956266331, 0
161, 0.4878054756202, 0.25141919244565, 0
162, 0.44625997442108, 0.2684354257274, 0
163, 0.4017737431112, 0.2635287732458, 0
164, 0.35799237977519, 0.24093936671458, 0
165, 0.31931883491559, 0.20210702627235, 0
166, 0.30096695898709, 0.14802640177109, 0
167, 0.30740355084517, 0.092411631379891, 0
168, 0.31467800518747, 0.038710983612664, 0
169, 0.28961778183384, -0.0098385098857481, 0
170, 0.26896982925167, -0.060758332522999, 0
171, 0.28298685739251, -0.11365660682312, 0
172, 0.33078267030366, -0.14326278727617, 0
173, 0.38525765672246, -0.16091924869447, 0
174, 0.43689593956662, -0.18419229868701, 0
175, 0.48961290165718, -0.18220650896068, 0
176, 0.53602572517755, -0.15602098111261, 0
177, 0.58823064679569, -0.16562421135323, 0
178, 0.63715069689765, -0.18770073141586, 0
179, 0.68828572149507, -0.20150157147571, 0
180, 0.74067296681656, -0.19703082338126, 0
181, 0.77435054369935, -0.15715650647503, 0
182, 0.76477931663336, -0.10416875375965, 0
183, 0.73458148576659, -0.059610149027221, 0
184, 0.69405948609217, -0.02115542645148, 0
185, 0.92351607451388, -0.22258468831159, 0
186, 0.052497225110472, -0.24578293021457, 0
187, 0.10558607956582, -0.24523114621177, 0
188, 0.15971694483705, -0.244722367398, 0
189, 0.21483097305549, -0.24462932413202, 0
190, 0.26992358473492, -0.2459824275714, 0
191, 0.37671809514433, -0.25422054047753, 0
192, 0.32388803932994, -0.24955661074284, 0
193, 0.54530341254383, 0.23172242597752, 0
194, 0.86996556751757, -0.032922306126841, 0
195, 0.87488781718087, -0.17280061350892, 0
196, 0.18479288544022, 0.2067192138667, 0
197, 0.25666659000851, -0.02014833797401, 0
198, 0.25445849127531, 0.080439110140267, 0
199, 0.078090156149598, 0.15972317013382, 0
200, 0.20229780508939, 0.065056777478524, 0
201, 0.20504047230158, 0.11730626535889, 0
202, 0.24908351178543, 0.031020419836429, 0
203, 0.051108488656304, 0.052443894760726, 0
204, 0.20243634365075, -0.05050051647941, 0
205, 0.27471652433147, 0.023407395646649, 0
206, 0.051489615239303, 0.10674939458427, 0
207, 0.23145421837742, 0.13981464501261, 0
208, 0.10281870597633, -0.055577913252183, 0
209, 0.12749336549317, 0.073923490130574, 0
210, 0.15697880183433, 0.18066678687065, 0
211, 0.026385445592625, 0.21826115574458, 0
212, 0.19915559258967, 0.016616680848226, 0
213, 0.12990588973956, 0.15524884226731, 0
214, 0.1786496095779, 0.094614144457934, 0
215, 0.10479469450719, 0.1855699061539, 0
216, 0.1545014307097, 0.12480108346911, 0
217, 0.077208246919075, -0.0557825889354, 0
218, 0.052704017521313, -0.19157181443439, 0
219, 0.27249288317279, -0.18915450448047, 0
220, 0.24409975044884, -0.18779180698742, 0
221, 0.15872447261527, -0.13359618009985, 0
222, 0.10587665040967, -0.19043606049906, 0
223, 0.16002459463193, -0.18909449259077, 0
224, 0.10515120366525, -0.13587857043271, 0
225, 0.052423767383832, -0.13739411600391, 0
226, 0.10186166664554, 0.049435447794715, 0
227, 0.10179215117268, -0.0031044177106066, 0
228, 0.051826912311443, -0.083065536030556, 0
229, 0.28166644670762, 0.073772885110182, 0
230, 0.053082081146184, 0.244593645985, 0
231, 0.23491094429337, -0.069717893024276, 0
232, 0.24543284890961, -0.1245444839124, 0
233, 0.3804147355244, -0.20865796158203, 0
234, 0.3270342281225, -0.19783434597938, 0
235, 0.78553827986272, 0.19171261175338, 0
236, 0.78487511382126, 0.13834275623654, 0
237, 0.83899851254885, 0.13791138055691, 0
238, 0.89307492337534, 0.13847235005389, 0
239, 0.94670411084724, 0.14002904657403, 0
240, 0.83975744143185, 0.19217617768037, 0
241, 0.89369787388178, 0.19286721046162, 0
242, 0.94708427033353, 0.19417201421627, 0
243, 0.94795503788396, 0.24737607801952, 0
244, 0.89494436982406, 0.24660968403936, 0
245, 0.84077647180437, 0.24613996004708, 0
246, 0.78630449871889, 0.24573882800819, 0
247, 0.73102285416218, 0.19049132444274, 0
248, 0.73183526207346, 0.2451105002123, 0
249, 0.67466370507583, 0.18741969325231, 0
250, 0.67642861086048, 0.24430642506916, 0
251, 0.53104040748375, 0.26966865396368, 0
252, 0.73191654516029, 0.13823999854169, 0
253, 0.78032727851787, 0.025130985725587, 0
254, 0.72912206691566, 0.092322947108417, 0
255, 0.83840866049596, 0.082521072075046, 0
256, 0.78296131067052, 0.084679033925957, 0
257, 0.83906860237078, 0.024570518753646, 0
258, 0.94668664638278, 0.08487172867408, 0
259, 0.89297084583249, 0.08304157874688, 0
260, 0.94711812364425, 0.028761019880891, 0
261, 0.89380453866114, 0.026301105452562, 0
262, 0.60726591697906, -0.24034334461685, 0
263, 0.7886333662718, -0.27866037860869, 0
264, 0.89983593249363, -0.14366752236121, 0
265, 0.57987389070154, -0.25881989100815, 0
266, 0.81240780267086, -0.0068157376820671, 0
267, 0.65704374375676, -0.2636956139054, 0
268, 0.70935945418197, 0.0085007775715178, 0
269, 0.60907533547186, -0.2200807408667, 0
270, 0.4010221535854, -0.27811155256534, 0
271, 0.81798838284612, -0.2541754151619, 0
272, 0.89958192013431, -0.11604799996177, 0
273, 0.85194379612618, -0.14797375755194, 0
274, 0.68611846974953, -0.23124437436651, 0
275, 0.62907743952575, -0.2809785368284, 0
276, 0.94903853861647, -0.22176758991331, 0
277, 0.92380014152754, -0.086298851086802, 0
278, 0.73976458950881, -0.22760001718172, 0
279, 0.89882046601036, -0.1975561409653, 0
280, 0.82663434148624, -0.095017786551412, 0
281, 0.94957280292403, -0.14070473997981, 0
282, 0.55887675059297, -0.21348738859783, 0
283, 0.47764913524387, -0.27952213122857, 0
284, 0.74845139742102, 0.028920474428341, 0
285, 0.74321467800429, -0.011488343173956, 0
286, 0.81697438228074, -0.037456154698412, 0
287, 0.97474781309912, -0.13970853921501, 0
288, 0.85171475711535, -0.12035124540241, 0
289, 0.34004702736859, 0.26628810196098, 0
290, 0.10333691679274, 0.13008342451967, 0
291, 0.78951611549167, -0.04102678226926, 0
292, 0.37846495828763, -0.23146087583389, 0
293, 0.84076555096104, -0.0052683917621046, 0
294, 0.70552657563026, 0.13523215025025, 0
295, 0.73285668395807, 0.11502721513927, 0
296, 0.7039559758403, 0.099249718611255, 0
297, 0.12817448339607, 0.10055741041458, 0
298, 0.079666334965333, 0.24353623492114, 0
299, 0.24053438148743, -0.096098113667991, 0
300, 0.94859368558062, -0.056422030006378, 0
301, 0.45228347699962, -0.27943253720798, 0
302, 0.58396782314569, -0.21588597322683, 0
303, 0.70980380857131, -0.26456489158443, 0
304, 0.8752803151827, -0.11805482656107, 0
305, 0.65861501268232, -0.2459954720976, 0
306, 0.92402902574537, -0.19617055347462, 0
307, 0.53376459609023, -0.213948443847, 0
308, 0.97427421802036, -0.054915358339945, 0
309, 0.58743819550331, 0.15492223313421, 0
310, 0.61354773698086, 0.21495897028559, 0
311, 0.45648332764473, 0.28444242267127, 0
312, 0.4314989073016, 0.28467165172834, 0
313, 0.94908435535117, -0.084744719724841, 0
314, 0.97401589208178, -0.026449608207815, 0
315, 0.86968309307627, -0.2754347700829, 0
316, 0.22884404688497, 0.086053741755807, 0
317, 0.13092476099979, 0.18334402054787, 0
318, 0.077152138743965, 0.10490933357494, 0
319, 0.81577641074835, -0.27732315516265, 0
320, 0.87231598825635, -0.22529482036504, 0
321, 0.94931268827595, -0.19516042097524, 0
322, 0.18134417284362, -0.078095439342667, 0
323, 0.1295151784218, -0.08129302747731, 0
324, 0.2621891385671, 0.1919968054768, 0
325, 0.026535084860718, 0.24563423814828, 0
326, 0.026223181020876, 0.19083445430425, 0
327, 0.1017002718433, 0.023096085740448, 0
328, 0.73657568268207, -0.26308749447382, 0
329, 0.79781180473529, -0.070150175815446, 0
330, 0.48163994363417, -0.23922099359854, 0
331, 0.82935364268048, -0.15060363293051, 0
332, 0.92456347407818, -0.14202492455205, 0
333, 0.47954514619592, -0.25920720622787, 0
334, 0.97437983039947, -0.2738982322952, 0
335, 0.87555190228775, -0.14564863863039, 0
336, 0.80827651991844, -0.15340848790756, 0
337, 0.28038588701626, 0.047990800035757, 0
338, 0.026058441238971, 0.16331950638638, 0
339, 0.051094693401404, -0.0016468009761929, 0
340, 0.21104119632883, 0.20299679168876, 0
341, 0.21624794006781, 0.26652561102334, 0
342, 0.12679831450278, -0.0037996466105355, 0
343, 0.16114811837534, 0.26944467261597, 0
344, 0.1885661756802, 0.26821489736436, 0
345, 0.05276938949625, 0.21687746874704, 0
346, 0.076452489933598, 0.02426349379955, 0
347, 0.025915890644637, -0.083520965925738, 0
348, 0.05104740263249, 0.025399805038853, 0
349, 0.025766760277861, -0.055928452463676, 0
350, 0.2195659491872, -0.0074562646252856, 0
351, 0.10403634313961, 0.1576486861698, 0
352, 0.79100179729297, -0.25683817001855, 0
353, 0.43259260227113, -0.21868870082818, 0
354, 0.89795343066678, -0.22373908653334, 0
355, 0.73262393198798, 0.27255700074443, 0
356, 0.70433474974357, 0.24468563588473, 0
357, 0.67829352179698, 0.27224322480827, 0
358, 0.70554472267691, 0.27237773728225, 0
359, 0.64790694321027, 0.24419214217649, 0
360, 0.62314583578514, 0.27261695974141, 0
361, 0.65080152163157, 0.27226324042853, 0
362, 0.63438218168319, -0.22474685964206, 0
363, 0.94753021805013, 0.00042324579213379, 0
364, 0.948785407227, -0.24805025175764, 0
365, 0.4267236748319, -0.27894833517621, 0
366, 0.026322773974686, -0.19210310636845, 0
367, 0.026195812561595, -0.13817699126499, 0
368, 0.052617198222848, -0.16448949344134, 0
369, 0.026284966852557, -0.16517139601532, 0
370, 0.25500304828727, 0.10669806358327, 0
371, 0.24450319924775, 0.26408145775178, 0
372, 0.10693122422997, 0.2711196629954, 0
373, 0.051771971293102, 0.13408867839564, 0
374, 0.053345804303763, 0.27229756996891, 0
375, 0.080095355955918, 0.27174040884082, 0
376, 0.28030856174176, 0.10005954818302, 0
377, 0.17750412755793, 0.06859544779067, 0
378, 0.20069612059788, 0.040326496482262, 0
379, 0.92121931778667, -0.0010180870562015, 0
380, 0.97357698168937, 0.030207749849486, 0
381, 0.84701848540635, -0.063972960941393, 0
382, 0.97337624851418, 0.1411714624196, 0
383, 0.97336625316359, 0.086132784609948, 0
384, 0.9466477975118, 0.11257317083905, 0
385, 0.97334671797594, 0.11375245361651, 0
386, 0.97467277499676, -0.11163967090543, 0
387, 0.92206893849733, -0.029549048655982, 0
388, 0.40273815139043, -0.25644502229873, 0
389, 0.026211233846662, -0.24605546148896, 0
390, 0.052167470421466, -0.27289342367232, 0
391, 0.026047618311317, -0.27302952035296, 0
392, 0.076525331994015, -0.002391069643638, 0
393, 0.23367155079644, 0.16830974193368, 0
394, 0.32268646537688, -0.27483302198644, 0
395, 0.35043197960327, -0.25184673737533, 0
396, 0.37516975958012, -0.27705831390701, 0
397, 0.34902824132616, -0.27592620966462, 0
398, 0.27920321366989, 0.12727932160721, 0
399, 0.026663165160368, 0.2728383453405, 0
400, 0.94683777896079, 0.056921721473505, 0
401, 0.97344113512818, 0.058256194136254, 0
402, 0.50892650373253, -0.21677537164184, 0
403, 0.55680944930132, -0.23636267287004, 0
404, 0.57759720055856, -0.27947274852964, 0
405, 0.55244728128009, -0.2791221946735, 0
406, 0.78667572000702, 0.27286030778344, 0
407, 0.75910940018409, 0.2454683854398, 0
408, 0.75963372510011, 0.27272366176332, 0
409, 0.60532280518927, -0.26030621788637, 0
410, 0.43050916204658, -0.23800550430828, 0
411, 0.66003103789459, -0.22877623247894, 0
412, 0.89606069649944, -0.031165318169047, 0
413, 0.80841193830729, -0.1255077460586, 0
414, 0.79678372004741, -0.20960304830268, 0
415, 0.15912667574478, -0.27239099027356, 0
416, 0.18719719377308, -0.24457653456623, 0
417, 0.21435389960103, -0.27240224218383, 0
418, 0.18669300199886, -0.2723424147904, 0
419, 0.84992916825739, -0.09238674412616, 0
420, 0.63102098586192, -0.26208982264819, 0
421, 0.26918450856221, -0.27312337488963, 0
422, 0.29705939272952, -0.24753559470405, 0
423, 0.29606312858279, -0.27386999493705, 0
424, 0.19826042273461, -0.0060724138854292, 0
425, 0.13396930077343, 0.27037779472712, 0
426, 0.42855116788679, -0.25819829690609, 0
427, 0.9468475448694, 0.16722145869328, 0
428, 0.97357985642308, 0.1951523354845, 0
429, 0.97345242739478, 0.1682774728191, 0
430, 0.078937877281876, -0.24550807285238, 0
431, 0.10502317523595, -0.27262239057583, 0
432, 0.078493393815738, -0.27275722490192, 0
433, 0.94743764334, 0.22086913042701, 0
434, 0.9740469588508, 0.24793832186872, 0
435, 0.97377021845424, 0.22164473803174, 0
436, 0.94872341069124, 0.27373004639029, 0
437, 0.97444022779612, 0.27400998514758, 0
438, 0.86795296653707, 0.2463498349554, 0
439, 0.8413965859856, 0.27307855367617, 0
440, 0.89601392637074, 0.27333233156983, 0
441, 0.868806843079, 0.27319310553578, 0
442, 0.97377348239245, 0.0019276947347704, 0
443, 0.87095516561797, -0.25059826845012, 0
444, 0.52961562070367, -0.25806190825753, 0
445, 0.13251358936489, -0.24496028408732, 0
446, 0.13194274367613, -0.27249484250929, 0
447, 0.81353860473175, 0.24594907748961, 0
448, 0.8139985628857, 0.27297354605466, 0
449, 0.65534230421305, -0.28174262924514, 0
450, 0.92262531380062, -0.27438742095715, 0
451, 0.50259235725633, -0.27933881984771, 0
452, 0.61890928396965, 0.15920619900137, 0
453, 0.57088040169596, 0.2766516101374, 0
454, 0.59587556449757, 0.27374599743162, 0
455, 0.05214755803663, -0.11023965454566, 0
456, 0.026066571358119, -0.11090821562411, 0
457, 0.53172909238999, -0.23653371337304, 0
458, 0.84367367439403, -0.034939616994489, 0
459, 0.9745275767931, -0.2212408269242, 0
460, 0.97464482944623, -0.19451287125965, 0
461, 0.24245710659278, -0.24503980798645, 0
462, 0.24186272342045, -0.2726402881767, 0
463, 0.86582005770301, 0.082564744895464, 0
464, 0.83866558261327, 0.11044910257994, 0
465, 0.86608481602426, 0.13806085831047, 0
466, 0.89294428077506, 0.11091301429922, 0
467, 0.86587777620322, 0.11050117929149, 0
468, 0.051511854347299, -0.05587562917428, 0
469, 0.025901996101675, 0.13584384387482, 0
470, 0.052668720152802, -0.21867196643876, 0
471, 0.026300702853737, -0.21907378757335, 0
472, 0.86803267737613, -0.0038287154551476, 0
473, 0.79356992024148, -0.23409627336916, 0
474, 0.54317694085212, 0.26229773000662, 0
475, 0.5326471522035, 0.28313315498699, 0
476, 0.55026974338675, 0.28024334351241, 0
477, 0.15351690791407, -0.054378221358509, 0
478, 0.22195031936831, 0.013581806042304, 0
479, 0.13304161444259, 0.24097393744127, 0
480, 0.05126232752299, 0.079546550114475, 0
481, 0.92159648790565, 0.24694364175736, 0
482, 0.9225485751097, 0.27350702050514, 0
483, 0.91990714353757, 0.083831906076983, 0
484, 0.9199456868403, 0.13913149474187, 0
485, 0.91985949698998, 0.11161779520136, 0
486, 0.6327822359532, -0.24334487811761, 0
487, 0.50674345720325, -0.23786977444301, 0
488, 0.15985885653922, 0.2392485169384, 0
489, 0.13199599261236, 0.21193298019188, 0
490, 0.97473089755103, -0.16728058315185, 0
491, 0.89476450142388, -0.002424997802384, 0
492, 0.68332238838803, -0.26465699089958, 0
493, 0.8974845942887, -0.059745630509958, 0
494, 0.51701156926772, 0.26315469801831, 0
495, 0.49398644882055, 0.27911768144605, 0
496, 0.51497551964935, 0.28152137259795, 0
497, 0.82220348838457, -0.066712687113329, 0
498, 0.45842565824073, -0.22070805298005, 0
499, 0.60321783703844, -0.28014820988156, 0
500, 0.38261443340455, -0.18544962144751, 0
501, 0.35387245727884, -0.20309952577991, 0
502, 0.32893297509288, -0.17091170165945, 0
503, 0.35591933298941, -0.17792416449145, 0
504, 0.73125307547175, 0.21770905232937, 0
505, 0.70323816781048, 0.18913039629251, 0
506, 0.67507486220615, 0.21606571087172, 0
507, 0.7034844633701, 0.21691203878423, 0
508, 0.52746092886548, -0.27912244567616, 0
509, 0.84460893365226, -0.25213176433417, 0
510, 0.56207268912429, 0.25364135406541, 0
511, 0.57900676597167, 0.18098170649226, 0
512, 0.61843127505997, 0.24455974164874, 0
513, 0.72455642277185, 0.067433803189796, 0
514, 0.69125547145558, 0.052359896454507, 0
515, 0.69890621840549, 0.077270326625107, 0
516, 0.84279503902728, -0.27625284719136, 0
517, 0.89708842362317, -0.24945835773523, 0
518, 0.89332670267768, 0.16577259553017, 0
519, 0.92046521444125, 0.19342686396856, 0
520, 0.92014641341109, 0.16639121062083, 0
521, 0.1518504453264, 0.045715456828818, 0
522, 0.15348423956355, 0.097844337973068, 0
523, 0.15138697558294, 0.020433183515653, 0
524, 0.22477660075917, 0.036405059441996, 0
525, 0.64569389379789, 0.18708664734054, 0
526, 0.67469908285496, 0.157319891362, 0
527, 0.64753728125594, 0.15938088907259, 0
528, 0.22718336636738, 0.060659817549632, 0
529, 0.077731793389551, -0.082630040556712, 0
530, 0.079162665369895, 0.21543249108572, 0
531, 0.92442195687648, -0.16931612878233, 0
532, 0.27437286236166, 0.26024388272447, 0
533, 0.20655492016655, 0.14480534530112, 0
534, 0.30939135466322, 0.25317923648366, 0
535, 0.47441454649645, 0.28126821213357, 0
536, 0.58785455123461, 0.24629128342696, 0
537, 0.64566196675445, 0.21559388978511, 0
538, 0.23871318788184, -0.010534461328891, 0
539, 0.20371630407556, 0.090731801204362, 0
540, 0.076797080035213, 0.077852358993067, 0
541, 0.076553141729966, 0.050987886509165, 0
542, 0.40660081811746, -0.21420489880511, 0
543, 0.97442289207168, -0.24770249564723, 0
544, 0.89874650743515, -0.088058635831818, 0
545, 0.29540248794427, 0.21495716357354, 0
546, 0.10630913287582, 0.24236307094191, 0
547, 0.17834149931726, -0.052978866026283, 0
548, 0.15841610071956, 0.20962320873098, 0
549, 0.2999725578307, -0.19296299282665, 0
550, 0.27505423762277, -0.15715449585554, 0
551, 0.30207123179552, -0.16370580150019, 0
552, 0.92055751289932, 0.027460773461367, 0
553, 0.73478120506739, -0.28149156483615, 0
554, 0.7113033375005, -0.24748382506569, 0
555, 0.68191598726918, 0.025586229193868, 0
556, 0.17986099541155, 0.12139231434798, 0
557, 0.077591025651123, 0.13219453712885, 0
558, 0.15139560583684, -0.004489289479788, 0
559, 0.71264816219974, -0.23123117572759, 0
560, 0.58197089013432, -0.23776475017383, 0
561, 0.78589439592908, 0.21867113826931, 0
562, 0.75836430225134, 0.19129292984393, 0
563, 0.75865601484771, 0.21828896509998, 0
564, 0.17558852244428, 0.018760066373336, 0
565, 0.025576351644064, 0.053870385799917, 0
566, 0.21531872499875, -0.21649174786858, 0
567, 0.27099131776071, -0.21820920868779, 0
568, 0.2432153054999, -0.21689566647639, 0
569, 0.38970000659029, 0.27963831134848, 0
570, 0.41188324336424, 0.28300330922698, 0
571, 0.57153217670585, 0.21306989880581, 0
572, 0.36566217540828, 0.27418668075381, 0
573, 0.45621164011815, -0.23945060361187, 0
574, 0.9495171465764, -0.16813279893591, 0
575, 0.26622795778142, 0.00059399520806069, 0
576, 0.24405179632749, 0.0087815163502987, 0
577, 0.025546255008836, 0.026565206503659, 0
578, 0.89322716230401, 0.054827880912237, 0
579, 0.92012602038171, 0.055768540173961, 0
580, 0.16002370814399, -0.216954888949, 0
581, 0.18763907724592, -0.18838061747214, 0
582, 0.18754547936905, -0.21660495717425, 0
583, 0.15566093174355, 0.15239868843708, 0
584, 0.2858073925363, 0.18443241406617, 0
585, 0.10445110589158, -0.10885611911328, 0
586, 0.078725159997192, -0.13667045144373, 0
587, 0.078265803529626, -0.10959636210476, 0
588, 0.94804473917531, -0.027998107647483, 0
589, 0.89951952967797, -0.1708575175874, 0
590, 0.13279438877936, -0.18979477879266, 0
591, 0.10586042445209, -0.2178289306917, 0
592, 0.13280035862364, -0.21738636952657, 0
593, 0.23005078517421, 0.11243302974474, 0
594, 0.17534537864132, -0.0052078902819447, 0
595, 0.025568576158512, -0.00085014714944252, 0
596, 0.078624557501154, 0.1874810106975, 0
597, 0.10272310398129, 0.10287632408001, 0
598, 0.18677844906999, 0.2370208036425, 0
599, 0.84022593834932, 0.21917652880845, 0
600, 0.81266455858321, 0.19195707052045, 0
601, 0.81308008599036, 0.21893904717111, 0
602, 0.25573667102706, 0.13394967222925, 0
603, 0.21171987299042, -0.10115520834177, 0
604, 0.75550764158749, 0.087628214443369, 0
605, 0.78143701601574, 0.056108243444797, 0
606, 0.75241875635398, 0.060122693555508, 0
607, 0.079201811125419, -0.19102157380927, 0
608, 0.079168966370697, -0.21825802901473, 0
609, 0.1764250817996, 0.04332116942608, 0
610, 0.21381377171043, 0.23404323380677, 0
611, 0.24502217658027, -0.15714970949736, 0
612, 0.21473308519565, -0.12906575342649, 0
613, 0.2805641603944, 0.15538339537688, 0
614, 0.12697980248138, 0.047709735417382, 0
615, 0.10563840667012, -0.16309696495695, 0
616, 0.079048401303217, -0.16381918315212, 0
617, 0.89421629694207, 0.21979956905238, 0
618, 0.92093003819408, 0.22026362547987, 0
619, 0.97450656826773, -0.083343374798029, 0
620, 0.70819744136055, -0.2821663919207, 0
621, 0.68479011405264, -0.24759184954919, 0
622, 0.52816161571939, 0.24766154179653, 0
623, 0.12671271936085, 0.021842102716684, 0
624, 0.25789426376234, 0.16228525694625, 0
625, 0.92301039989423, -0.24862708518494, 0
626, 0.73825420755044, -0.2450353088413, 0
627, 0.45416908259581, -0.25915255876646, 0
628, 0.8231713739439, -0.20497035171646, 0
629, 0.87405765122826, -0.090073848236279, 0
630, 0.84856825682618, -0.2017615879225, 0
631, 0.40459871930256, -0.23511599943997, 0
632, 0.83935725516073, 0.16510993769717, 0
633, 0.81188444900016, 0.13802508645546, 0
634, 0.78523384879929, 0.1649286305329, 0
635, 0.81228472587489, 0.16500329032988, 0
636, 0.8667838706244, 0.1924617191078, 0
637, 0.86729375371715, 0.21944829252878, 0
638, 0.1596305062553, -0.16123566766434, 0
639, 0.18622115932919, -0.13176883751388, 0
640, 0.2156847681087, -0.18781240878275, 0
641, 0.187294748123, -0.1599870100097, 0
642, 0.1317765713762, -0.13490030536079, 0
643, 0.13246376507725, -0.1622568767481, 0
644, 0.81074057980501, 0.083117328106413, 0
645, 0.78422163570496, 0.11179231640772, 0
646, 0.81137796661621, 0.11084912466682, 0
647, 0.86638806951765, 0.16535201167576, 0
648, 0.84652611102598, -0.22737734184498, 0
649, 0.24102108778131, 0.2299129192561, 0
650, 0.25272667636343, 0.055106025955066, 0
651, 0.82926125115416, -0.12288501773684, 0
652, 0.94942854527874, -0.11287096202389, 0
653, 0.052431625450857, 0.18919766950537, 0
654, 0.15725445970048, -0.10647812518856, 0
655, 0.13075133882016, -0.10787812390808, 0
656, 0.18124193611459, 0.148962988199, 0
657, 0.1022195791061, 0.076007334711757, 0
658, 0.025651888302988, 0.081167434357622, 0
659, 0.12898347257497, 0.1276569220091, 0
660, 0.15258953878272, 0.071495885455918, 0
661, 0.7581684096917, 0.13863456057927, 0
662, 0.73122974311669, 0.16377358354113, 0
663, 0.75824448270024, 0.16466211955779, 0
664, 0.82038613574, -0.23020011334084, 0
665, 0.8667189292399, 0.025309233738305, 0
666, 0.50462783655908, -0.25865107289333, 0
667, 0.83842603850854, 0.053919166411899, 0
668, 0.86603834308668, 0.05416502690508, 0
669, 0.32533758908214, -0.22397122790068, 0
670, 0.35204312391334, -0.2276364683253, 0
671, 0.025763501310854, 0.1084746422588, 0
672, 0.81046533461385, 0.024306870044827, 0
673, 0.810242932854, 0.054376532650171, 0
674, 0.052092125821328, 0.16158168348825, 0
675, 0.29834390097984, -0.22070290583619, 0
676, 0.23697892385475, 0.19817913604896, 0
677, 0.10362806351484, -0.08208596685905, 0
678, 0.68176274754745, -0.2822040133808, 0
679, 0.18413253692523, -0.10438277049155, 0
680, 0.20754419517803, -0.074920191301053, 0
681, 0.18288972674851, 0.17738182840271, 0
682, 0.75768085602345, 0.11328015696929, 0
683, 0.70374328863652, 0.1615659213262, 0
684, 0.21567992349805, -0.15853129655069, 0
685, 0.78155267194506, -0.0086522101594826, 0
686, 0.80451016800011, -0.097937259320527, 0
687, 0.55467629266565, -0.2580279643481, 0
688, 0.71254908101866, 0.11624635449963, 0
689, 0.22513173662998, -0.045970368623885, 0
690, 0.15540355342747, -0.080060458466958, 0
691, 0.94866516010902, -0.27408503912673, 0
692, 0.92435733072791, -0.11432861399646, 0
693, 0.48393856075173, -0.21973604017152, 0
694, 0.6146397778467, 0.18582711481663, 0
695, 0.4437435712086, 0.2895915833545, 0
696, 0.87214093660514, -0.061699984564486, 0
697, 0.20853181589547, 0.1733167517106, 0
698, 0.87369084288373, -0.19937750921675, 0
699, 0.10557165288005, 0.21382307309784, 0
700, 0.1282864021826, -0.055160717639214, 0
701, 0.896368099689, -0.27482577654705, 0
702, 0.92298505742692, -0.058011111461514, 0
703, 0.85056864435995, -0.17521931186999, 0
704, 0.82642131755084, -0.17826493657398, 0
705, 0.80159637073886, -0.18237146660509, 0
706, 0.76164737710509, -0.28015550807431, 0
707, 0.76375913884257, -0.26003412171279, 0
708, 0.76595697468336, -0.2393319583729, 0
709, 0.76850679392401, -0.21699954278734, 0
710, 0.40871935653906, -0.1936410152496, 0
711, 0.43475717158743, -0.20062791245492, 0
712, 0.46082448704143, -0.20342452537303, 0
713, 0.48652666290156, -0.20085773258981, 0
714, 0.51112110487337, -0.19471354668803, 0
715, 0.53553483664582, -0.18884132581852, 0
716, 0.56096823693708, -0.18799574479912, 0
717, 0.58596669059512, -0.19241845210305, 0
718, 0.61078872438915, -0.19921803565779, 0
719, 0.63583184108296, -0.20625199136465, 0
720, 0.6612693312781, -0.21213861845847, 0
721, 0.68728350034668, -0.21582874105896, 0
722, 0.71380579224066, -0.21611319303232, 0
723, 0.7410714414043, -0.21082693210894, 0
724, 0.71825061920172, 0.039623190551907, 0
725, 0.76096444095156, -0.047065195235933, 0
726, 0.77400349929903, -0.074650309620946, 0
727, 0.7838656445614, -0.10103959900558, 0
728, 0.78969609971794, -0.12795313235786, 0
729, 0.7891687178185, -0.15622064197009, 0
730, 0.77230756381242, -0.18929454986356, 0
731, 0.26841923355006, 0.22393589896594, 0
732, 0.24487386768581, -0.037077747027383, 0
733, 0.21910709643822, -0.026614838749599, 0
734, 0.19892571642418, -0.0280609407397, 0
735, 0.17615024112078, -0.028907932635915, 0
736, 0.15208258301728, -0.029303465508865, 0
737, 0.1273248012413, -0.029393792445008, 0
738, 0.10217259699045, -0.029285533771958, 0
739, 0.076784648588049, -0.029049312660604, 0
740, 0.051254791783058, -0.028726523982051, 0
741, 0.025644688303016, -0.028327468348354, 0
742, 0.23400971172387, -0.024633612636893, 0
******* E L E M E N T S *************
*ELEMENT, type=T3D2, ELSET=Line1
1, 1, 10
2, 10, 18
3, 18, 11
4, 11, 19
5, 19, 12
6, 12, 20
7, 20, 13
8, 13, 21
9, 21, 14
10, 14, 22
11, 22, 15
12, 15, 23
13, 23, 16
14, 16, 24
15, 24, 17
16, 17, 2
*ELEMENT, type=T3D2, ELSET=Line2
17, 2, 25
18, 25, 28
19, 28, 26
20, 26, 29
21, 29, 27
22, 27, 3
*ELEMENT, type=T3D2, ELSET=Line3
23, 3, 30
24, 30, 38
25, 38, 31
26, 31, 39
27, 39, 32
28, 32, 40
29, 40, 33
30, 33, 41
31, 41, 34
32, 34, 42
33, 42, 35
34, 35, 43
35, 43, 36
36, 36, 44
37, 44, 37
38, 37, 4
*ELEMENT, type=T3D2, ELSET=Line4
39, 4, 45
40, 45, 56
41, 56, 46
42, 46, 57
43, 57, 47
44, 47, 58
45, 58, 48
46, 48, 59
47, 59, 49
48, 49, 60
49, 60, 50
50, 50, 61
51, 61, 51
52, 51, 62
53, 62, 52
54, 52, 63
55, 63, 53
56, 53, 64
57, 64, 54
58, 54, 65
59, 65, 55
60, 55, 5
*ELEMENT, type=T3D2, ELSET=Line5
61, 5, 66
62, 66, 74
63, 74, 67
64, 67, 75
65, 75, 68
66, 68, 76
67, 76, 69
68, 69, 77
69, 77, 70
70, 70, 78
71, 78, 71
72, 71, 79
73, 79, 72
74, 72, 80
75, 80, 73
76, 73, 6
*ELEMENT, type=T3D2, ELSET=Line6
77, 6, 81
78, 81, 85
79, 85, 82
80, 82, 86
81, 86, 83
82, 83, 87
83, 87, 84
84, 84, 7
*ELEMENT, type=T3D2, ELSET=Line7
85, 7, 88
86, 88, 96
87, 96, 89
88, 89, 97
89, 97, 90
90, 90, 98
91, 98, 91
92, 91, 99
93, 99, 92
94, 92, 100
95, 100, 93
96, 93, 101
97, 101, 94
98, 94, 102
99, 102, 95
100, 95, 8
*ELEMENT, type=T3D2, ELSET=Line8
101, 8, 103
102, 103, 114
103, 114, 104
104, 104, 115
105, 115, 105
106, 105, 116
107, 116, 106
108, 106, 117
109, 117, 107
110, 107, 118
111, 118, 108
112, 108, 119
113, 119, 109
114, 109, 120
115, 120, 110
116, 110, 121
117, 121, 111
118, 111, 122
119, 122, 112
120, 112, 123
121, 123, 113
122, 113, 1
*ELEMENT, type=T3D2, ELSET=Line9
123, 9, 124
124, 124, 155
125, 155, 153
126, 153, 156
127, 156, 152
128, 152, 157
129, 157, 151
130, 151, 158
131, 158, 150
132, 150, 159
133, 159, 149
134, 149, 160
135, 160, 148
136, 148, 161
137, 161, 147
138, 147, 162
139, 162, 146
140, 146, 163
141, 163, 145
142, 145, 164
143, 164, 144
144, 144, 165
145, 165, 143
146, 143, 166
147, 166, 142
148, 142, 167
149, 167, 141
150, 141, 168
151, 168, 140
152, 140, 169
153, 169, 139
154, 139, 170
155, 170, 138
156, 138, 171
157, 171, 137
158, 137, 172
159, 172, 136
160, 136, 173
161, 173, 135
162, 135, 174
163, 174, 134
164, 134, 175
165, 175, 133
166, 133, 176
167, 176, 132
168, 132, 177
169, 177, 131
170, 131, 178
171, 178, 130
172, 130, 179
173, 179, 129
174, 129, 180
175, 180, 128
176, 128, 181
177, 181, 127
178, 127, 182
179, 182, 126
180, 126, 183
181, 183, 125
182, 125, 184
183, 184, 154
184, 154, 9
*ELEMENT, type=CPS4, ELSET=Surface1
185, 718, 717, 302, 269
186, 620, 678, 39, 32
187, 531, 574, 281, 332
188, 490, 47, 58, 287
189, 564, 212, 378, 609
190, 624, 602, 398, 613
191, 327, 623, 614, 226
192, 105, 338, 326, 115
193, 99, 92, 344, 341
194, 338, 674, 653, 326
195, 326, 653, 345, 211
196, 92, 100, 343, 344
197, 337, 205, 140, 168
198, 226, 614, 209, 657
199, 524, 202, 650, 528
200, 541, 226, 657, 540
201, 595, 339, 348, 577
202, 205, 575, 169, 140
203, 598, 610, 341, 344
204, 558, 594, 564, 523
205, 451, 283, 28, 26
206, 278, 559, 554, 626
207, 365, 270, 17, 2
208, 648, 509, 443, 320
209, 79, 357, 358, 71
210, 71, 358, 355, 78
211, 358, 356, 248, 355
212, 357, 250, 356, 358
213, 79, 72, 361, 357
214, 357, 361, 359, 250
215, 510, 453, 476, 474
216, 72, 80, 360, 361
217, 698, 320, 354, 279
218, 508, 451, 26, 29
219, 279, 354, 185, 306
220, 302, 282, 403, 560
221, 218, 368, 369, 366
222, 366, 369, 111, 122
223, 369, 367, 121, 111
224, 368, 225, 367, 369
225, 660, 377, 214, 522
226, 565, 203, 480, 658
227, 371, 91, 99, 341
228, 215, 317, 489, 699
229, 101, 94, 375, 372
230, 740, 739, 392, 339
231, 489, 548, 488, 479
232, 94, 102, 374, 375
233, 657, 209, 297, 597
234, 583, 656, 681, 210
235, 298, 546, 372, 375
236, 468, 217, 739, 740
237, 387, 588, 363, 379
238, 588, 314, 442, 363
239, 707, 328, 553, 706
240, 443, 315, 701, 517
241, 239, 384, 385, 382
242, 382, 385, 52, 63
243, 385, 383, 62, 52
244, 384, 258, 383, 385
245, 619, 59, 49, 308
246, 554, 621, 492, 303
247, 628, 664, 648, 630
248, 666, 333, 283, 451
249, 123, 113, 391, 389
250, 389, 391, 390, 186
251, 391, 10, 18, 390
252, 113, 1, 10, 391
253, 203, 541, 540, 480
254, 116, 469, 338, 105
255, 613, 398, 142, 166
256, 217, 208, 738, 739
257, 23, 16, 397, 394
258, 394, 397, 395, 192
259, 397, 396, 191, 395
260, 16, 24, 396, 397
261, 102, 95, 399, 374
262, 681, 697, 340, 196
263, 340, 676, 649, 610
264, 95, 8, 103, 399
265, 61, 51, 401, 380
266, 380, 401, 400, 260
267, 401, 383, 258, 400
268, 51, 62, 383, 401
269, 630, 648, 320, 698
270, 265, 687, 405, 404
271, 285, 268, 184, 125
272, 703, 630, 698, 195
273, 362, 269, 262, 486
274, 388, 191, 396, 270
275, 710, 500, 233, 542
276, 272, 692, 277, 544
277, 248, 407, 408, 355
278, 355, 408, 70, 78
279, 408, 406, 77, 70
280, 407, 246, 406, 408
281, 267, 420, 275, 449
282, 335, 264, 272, 304
283, 458, 194, 472, 293
284, 714, 713, 693, 402
285, 426, 388, 270, 365
286, 701, 43, 36, 450
287, 381, 696, 194, 458
288, 716, 715, 307, 282
289, 21, 417, 418, 13
290, 13, 418, 415, 20
291, 418, 416, 188, 415
292, 417, 189, 416, 418
293, 705, 414, 628, 704
294, 269, 302, 560, 262
295, 333, 627, 301, 283
296, 285, 725, 291, 685
297, 22, 15, 423, 421
298, 421, 423, 422, 190
299, 423, 394, 192, 422
300, 15, 23, 394, 423
301, 100, 93, 425, 343
302, 656, 533, 697, 681
303, 575, 197, 139, 169
304, 93, 101, 372, 425
305, 493, 702, 387, 412
306, 473, 352, 271, 664
307, 412, 387, 379, 491
308, 691, 44, 37, 334
309, 63, 53, 429, 382
310, 382, 429, 427, 239
311, 429, 428, 242, 427
312, 53, 64, 428, 429
313, 186, 390, 432, 430
314, 430, 432, 431, 187
315, 432, 11, 19, 431
316, 390, 18, 11, 432
317, 64, 54, 435, 428
318, 428, 435, 433, 242
319, 435, 434, 243, 433
320, 54, 65, 434, 435
321, 65, 55, 437, 434
322, 434, 437, 436, 243
323, 437, 66, 74, 436
324, 55, 5, 66, 437
325, 244, 440, 441, 438
326, 438, 441, 439, 245
327, 441, 68, 76, 439
328, 440, 75, 68, 441
329, 281, 287, 386, 652
330, 711, 710, 542, 353
331, 283, 301, 25, 28
332, 187, 431, 446, 445
333, 445, 446, 415, 188
334, 446, 12, 20, 415
335, 431, 19, 12, 446
336, 76, 69, 448, 439
337, 439, 448, 447, 245
338, 448, 406, 246, 447
339, 69, 77, 406, 448
340, 273, 335, 304, 288
341, 306, 185, 276, 321
342, 553, 620, 32, 40
343, 717, 716, 282, 302
344, 80, 73, 454, 360
345, 571, 511, 694, 310
346, 310, 694, 525, 537
347, 73, 6, 453, 454
348, 120, 110, 456, 347
349, 347, 456, 455, 228
350, 456, 367, 225, 455
351, 110, 121, 367, 456
352, 336, 331, 651, 413
353, 304, 272, 544, 629
354, 411, 362, 486, 305
355, 631, 292, 191, 388
356, 707, 706, 263, 352
357, 709, 708, 473, 414
358, 21, 14, 462, 417
359, 417, 462, 461, 189
360, 462, 421, 190, 461
361, 14, 22, 421, 462
362, 259, 466, 467, 463
363, 463, 467, 464, 255
364, 467, 465, 237, 464
365, 466, 238, 465, 467
366, 492, 267, 449, 678
367, 706, 553, 40, 33
368, 300, 308, 314, 588
369, 398, 376, 167, 142
370, 230, 298, 375, 374
371, 114, 325, 399, 103
372, 649, 731, 532, 371
373, 186, 470, 471, 389
374, 389, 471, 112, 123
375, 471, 366, 122, 112
376, 470, 218, 366, 471
377, 286, 458, 293, 266
378, 729, 336, 413, 728
379, 413, 651, 280, 686
380, 313, 619, 308, 300
381, 6, 81, 476, 453
382, 536, 454, 453, 510
383, 476, 475, 251, 474
384, 81, 85, 475, 476
385, 596, 215, 699, 530
386, 119, 741, 595, 108
387, 348, 346, 541, 203
388, 614, 521, 660, 209
389, 243, 436, 482, 481
390, 481, 482, 440, 244
391, 482, 67, 75, 440
392, 436, 74, 67, 482
393, 258, 384, 485, 483
394, 483, 485, 466, 259
395, 485, 484, 238, 466
396, 384, 239, 484, 485
397, 450, 36, 44, 691
398, 459, 543, 56, 46
399, 262, 560, 265, 409
400, 652, 386, 619, 313
401, 734, 733, 350, 424
402, 528, 650, 198, 316
403, 345, 530, 298, 230
404, 557, 290, 351, 199
405, 457, 487, 666, 444
406, 499, 404, 3, 30
407, 332, 281, 652, 692
408, 268, 555, 154, 184
409, 251, 475, 496, 494
410, 494, 496, 495, 161
411, 496, 82, 86, 495
412, 475, 85, 82, 496
413, 621, 305, 267, 492
414, 442, 50, 61, 380
415, 195, 698, 279, 589
416, 703, 195, 335, 273
417, 172, 502, 503, 136
418, 136, 503, 500, 173
419, 503, 501, 233, 500
420, 502, 234, 501, 503
421, 248, 356, 507, 504
422, 504, 507, 505, 247
423, 507, 506, 249, 505
424, 356, 250, 506, 507
425, 490, 460, 57, 47
426, 687, 444, 508, 405
427, 264, 332, 692, 272
428, 487, 330, 333, 666
429, 704, 628, 630, 703
430, 321, 276, 459, 460
431, 353, 542, 631, 410
432, 686, 280, 497, 329
433, 193, 510, 474, 622
434, 193, 622, 148, 160
435, 511, 159, 150, 309
436, 254, 296, 515, 513
437, 253, 672, 673, 605
438, 515, 153, 155, 514
439, 296, 156, 153, 515
440, 308, 49, 60, 314
441, 303, 492, 678, 620
442, 542, 233, 292, 631
443, 263, 41, 34, 319
444, 239, 427, 520, 484
445, 484, 520, 518, 238
446, 520, 519, 241, 518
447, 427, 242, 519, 520
448, 539, 316, 593, 201
449, 545, 584, 143, 165
450, 351, 213, 317, 215
451, 522, 214, 556, 216
452, 511, 309, 452, 694
453, 527, 526, 249, 525
454, 152, 156, 526, 527
455, 610, 649, 371, 341
456, 350, 538, 576, 478
457, 118, 577, 565, 107
458, 199, 351, 215, 596
459, 275, 499, 30, 38
460, 363, 442, 380, 260
461, 444, 666, 451, 508
462, 629, 544, 493, 696
463, 534, 144, 164, 289
464, 534, 90, 98, 532
465, 289, 572, 89, 97
466, 209, 660, 522, 297
467, 161, 495, 535, 147
468, 147, 535, 311, 162
469, 535, 83, 87, 311
470, 495, 86, 83, 535
471, 250, 359, 537, 506
472, 506, 537, 525, 249
473, 571, 149, 159, 511
474, 694, 452, 527, 525
475, 202, 576, 575, 205
476, 623, 523, 521, 614
477, 206, 318, 557, 373
478, 593, 370, 602, 207
479, 315, 35, 43, 701
480, 625, 450, 691, 364
481, 715, 714, 402, 307
482, 574, 490, 287, 281
483, 597, 297, 659, 290
484, 556, 201, 533, 656
485, 201, 593, 207, 533
486, 733, 742, 538, 350
487, 530, 699, 546, 298
488, 200, 528, 316, 539
489, 210, 681, 196, 548
490, 697, 393, 676, 340
491, 172, 137, 551, 502
492, 502, 551, 549, 234
493, 551, 550, 219, 549
494, 137, 171, 550, 551
495, 330, 573, 627, 333
496, 696, 493, 412, 194
497, 705, 704, 331, 336
498, 727, 686, 329, 726
499, 9, 154, 555, 124
500, 124, 555, 514, 155
501, 685, 266, 672, 253
502, 284, 606, 513, 724
503, 229, 337, 168, 141
504, 469, 373, 674, 338
505, 117, 658, 671, 106
506, 324, 624, 613, 584
507, 531, 306, 321, 574
508, 364, 691, 334, 543
509, 266, 293, 257, 672
510, 287, 58, 48, 386
511, 246, 407, 563, 561
512, 561, 563, 562, 235
513, 563, 504, 247, 562
514, 407, 248, 504, 563
515, 424, 350, 478, 212
516, 739, 738, 227, 392
517, 104, 211, 325, 114
518, 533, 207, 393, 697
519, 189, 461, 568, 566
520, 611, 232, 612, 684
521, 478, 576, 202, 524
522, 461, 190, 567, 568
523, 163, 146, 570, 569
524, 569, 570, 88, 96
525, 570, 312, 7, 88
526, 146, 162, 312, 570
527, 571, 536, 510, 193
528, 571, 310, 512, 536
529, 96, 89, 572, 569
530, 569, 572, 145, 163
531, 534, 289, 97, 90
532, 731, 324, 584, 545
533, 271, 319, 516, 509
534, 702, 300, 588, 387
535, 449, 275, 38, 31
536, 106, 671, 469, 116
537, 602, 370, 376, 398
538, 339, 392, 346, 348
539, 260, 400, 579, 552
540, 552, 579, 578, 261
541, 579, 483, 259, 578
542, 400, 258, 483, 579
543, 189, 566, 582, 416
544, 416, 582, 580, 188
545, 582, 581, 223, 580
546, 538, 742, 732, 197
547, 532, 98, 91, 371
548, 532, 731, 545, 534
549, 534, 545, 165, 144
550, 378, 524, 528, 200
551, 228, 455, 587, 529
552, 550, 171, 232, 611
553, 587, 586, 224, 585
554, 455, 225, 586, 587
555, 730, 705, 336, 729
556, 195, 589, 264, 335
557, 403, 457, 444, 687
558, 626, 554, 303, 328
559, 497, 381, 458, 286
560, 708, 626, 328, 707
561, 329, 497, 286, 291
562, 222, 591, 592, 590
563, 590, 592, 580, 223
564, 592, 445, 188, 580
565, 591, 187, 445, 592
566, 198, 650, 337, 229
567, 540, 657, 597, 318
568, 584, 613, 166, 143
569, 115, 326, 211, 104
570, 547, 204, 734, 735
571, 373, 557, 199, 674
572, 297, 522, 216, 659
573, 245, 447, 601, 599
574, 599, 601, 600, 240
575, 601, 561, 235, 600
576, 447, 246, 561, 601
577, 171, 138, 299, 232
578, 480, 540, 318, 206
579, 566, 640, 581, 582
580, 567, 219, 220, 568
581, 513, 606, 604, 254
582, 606, 605, 256, 604
583, 724, 513, 515, 514
584, 218, 470, 608, 607
585, 607, 608, 591, 222
586, 608, 430, 187, 591
587, 470, 186, 430, 608
588, 227, 342, 623, 327
589, 290, 659, 213, 351
590, 736, 735, 594, 558
591, 196, 340, 610, 598
592, 410, 631, 388, 426
593, 386, 48, 59, 619
594, 219, 550, 611, 220
595, 138, 170, 231, 299
596, 299, 231, 680, 603
597, 650, 202, 205, 337
598, 653, 596, 530, 345
599, 325, 230, 374, 399
600, 225, 368, 616, 586
601, 586, 616, 615, 224
602, 616, 607, 222, 615
603, 368, 218, 607, 616
604, 242, 433, 618, 519
605, 519, 618, 617, 241
606, 618, 481, 244, 617
607, 433, 243, 481, 618
608, 517, 701, 450, 625
609, 651, 288, 419, 280
610, 379, 363, 260, 552
611, 331, 273, 288, 651
612, 536, 512, 360, 454
613, 148, 622, 494, 161
614, 622, 474, 251, 494
615, 571, 193, 160, 149
616, 212, 478, 524, 378
617, 529, 587, 585, 677
618, 346, 327, 226, 541
619, 699, 489, 479, 546
620, 460, 459, 46, 57
621, 185, 625, 364, 276
622, 627, 426, 365, 301
623, 293, 472, 665, 257
624, 726, 329, 291, 725
625, 713, 712, 498, 693
626, 491, 379, 552, 261
627, 301, 365, 2, 25
628, 573, 410, 426, 627
629, 352, 263, 319, 271
630, 402, 693, 330, 487
631, 194, 412, 491, 472
632, 235, 634, 635, 600
633, 600, 635, 632, 240
634, 635, 633, 237, 632
635, 634, 236, 633, 635
636, 245, 599, 637, 438
637, 438, 637, 617, 244
638, 637, 636, 241, 617
639, 599, 240, 636, 637
640, 581, 641, 638, 223
641, 641, 639, 221, 638
642, 223, 638, 643, 590
643, 590, 643, 615, 222
644, 643, 642, 224, 615
645, 638, 221, 642, 643
646, 237, 633, 646, 464
647, 464, 646, 644, 255
648, 646, 645, 256, 644
649, 633, 236, 645, 646
650, 238, 518, 647, 465
651, 465, 647, 632, 237
652, 647, 636, 240, 632
653, 518, 241, 636, 647
654, 512, 359, 361, 360
655, 310, 537, 359, 512
656, 452, 157, 152, 527
657, 516, 42, 35, 315
658, 498, 353, 410, 573
659, 414, 473, 664, 628
660, 409, 265, 404, 499
661, 671, 206, 373, 469
662, 609, 378, 200, 377
663, 377, 200, 539, 214
664, 354, 517, 625, 185
665, 486, 262, 409, 420
666, 405, 508, 29, 27
667, 328, 303, 620, 553
668, 738, 737, 342, 227
669, 477, 547, 735, 736
670, 655, 642, 221, 654
671, 585, 224, 642, 655
672, 577, 348, 203, 565
673, 197, 732, 170, 139
674, 546, 479, 425, 372
675, 342, 558, 523, 623
676, 208, 700, 737, 738
677, 594, 424, 212, 564
678, 247, 662, 663, 562
679, 562, 663, 634, 235
680, 663, 661, 236, 634
681, 662, 252, 661, 663
682, 274, 411, 305, 621
683, 276, 364, 543, 459
684, 730, 709, 414, 705
685, 692, 652, 313, 277
686, 255, 667, 668, 463
687, 463, 668, 578, 259
688, 668, 665, 261, 578
689, 667, 257, 665, 668
690, 233, 501, 670, 292
691, 292, 670, 395, 191
692, 670, 669, 192, 395
693, 501, 234, 669, 670
694, 257, 667, 673, 672
695, 685, 291, 286, 266
696, 673, 644, 256, 605
697, 667, 255, 644, 673
698, 548, 196, 598, 488
699, 108, 595, 577, 118
700, 521, 609, 377, 660
701, 741, 740, 339, 595
702, 190, 422, 675, 567
703, 567, 675, 549, 219
704, 675, 669, 234, 549
705, 422, 192, 669, 675
706, 316, 198, 370, 593
707, 376, 229, 141, 167
708, 317, 210, 548, 489
709, 737, 736, 558, 342
710, 728, 413, 686, 727
711, 693, 498, 573, 330
712, 544, 277, 702, 493
713, 288, 304, 629, 419
714, 323, 655, 654, 690
715, 690, 654, 679, 322
716, 659, 216, 583, 213
717, 479, 488, 343, 425
718, 320, 443, 517, 354
719, 589, 531, 332, 264
720, 270, 396, 24, 17
721, 419, 629, 696, 381
722, 640, 684, 641, 581
723, 639, 679, 654, 221
724, 207, 602, 624, 393
725, 393, 624, 324, 676
726, 568, 220, 640, 566
727, 612, 603, 679, 639
728, 220, 611, 684, 640
729, 254, 604, 682, 295
730, 295, 682, 661, 252
731, 682, 645, 236, 661
732, 604, 256, 645, 682
733, 249, 526, 683, 505
734, 505, 683, 662, 247
735, 683, 294, 252, 662
736, 526, 156, 294, 683
737, 232, 299, 603, 612
738, 658, 480, 206, 671
739, 684, 612, 639, 641
740, 523, 564, 609, 521
741, 676, 324, 731, 649
742, 700, 477, 736, 737
743, 285, 284, 724, 268
744, 285, 125, 183, 725
745, 268, 724, 514, 555
746, 560, 403, 687, 265
747, 712, 711, 353, 498
748, 289, 164, 145, 572
749, 488, 598, 344, 343
750, 706, 33, 41, 263
751, 543, 334, 45, 56
752, 559, 274, 621, 554
753, 156, 296, 688, 294
754, 294, 688, 295, 252
755, 296, 254, 295, 688
756, 735, 734, 424, 594
757, 576, 538, 197, 575
758, 211, 345, 230, 325
759, 392, 227, 327, 346
760, 664, 271, 509, 648
761, 285, 685, 253, 284
762, 420, 409, 499, 275
763, 307, 402, 487, 457
764, 472, 491, 261, 665
765, 709, 278, 626, 708
766, 704, 703, 273, 331
767, 404, 405, 27, 3
768, 334, 37, 4, 45
769, 309, 150, 158, 151
770, 309, 151, 157, 452
771, 87, 84, 695, 311
772, 311, 695, 312, 162
773, 84, 7, 312, 695
774, 589, 279, 306, 531
775, 282, 307, 457, 403
776, 280, 419, 381, 497
777, 370, 198, 229, 376
778, 674, 199, 596, 653
779, 216, 556, 656, 583
780, 319, 34, 42, 516
781, 277, 313, 300, 702
782, 213, 583, 210, 317
783, 204, 689, 733, 734
784, 677, 585, 655, 323
785, 689, 732, 742, 733
786, 603, 680, 322, 679
787, 107, 565, 658, 117
788, 318, 597, 290, 557
789, 214, 539, 201, 556
790, 708, 707, 352, 473
791, 314, 60, 50, 442
792, 509, 516, 315, 443
793, 678, 449, 31, 39
794, 574, 321, 460, 490
795, 305, 486, 420, 267
796, 719, 718, 269, 362
797, 720, 719, 362, 411
798, 721, 720, 411, 274
799, 722, 721, 274, 559
800, 723, 722, 559, 278
801, 730, 723, 278, 709
802, 710, 135, 173, 500
803, 711, 174, 135, 710
804, 712, 134, 174, 711
805, 713, 175, 134, 712
806, 714, 133, 175, 713
807, 715, 176, 133, 714
808, 716, 132, 176, 715
809, 717, 177, 132, 716
810, 718, 131, 177, 717
811, 719, 178, 131, 718
812, 720, 130, 178, 719
813, 721, 179, 130, 720
814, 722, 129, 179, 721
815, 723, 180, 129, 722
816, 730, 128, 180, 723
817, 284, 253, 605, 606
818, 726, 725, 183, 126
819, 727, 726, 126, 182
820, 728, 727, 182, 127
821, 729, 728, 127, 181
822, 730, 729, 181, 128
823, 349, 468, 740, 741
824, 109, 349, 741, 119
825, 231, 170, 732, 689
826, 680, 231, 689, 204
827, 322, 680, 204, 547
828, 690, 322, 547, 477
829, 323, 690, 477, 700
830, 677, 323, 700, 208
831, 529, 677, 208, 217
832, 228, 529, 217, 468
833, 347, 228, 468, 349
834, 120, 347, 349, 109
*ELSET,ELSET=contact_source
101, 102, 103, 104, 105, 106, 107, 108, 109, 110, 
111, 112, 113, 114, 115, 116, 117, 118, 119, 120, 
121, 122, 
*ELSET,ELSET=contact_drain
39, 40, 41, 42, 43, 44, 45, 46, 47, 48, 
49, 50, 51, 52, 53, 54, 55, 56, 57, 58, 
59, 60, 
*ELSET,ELSET=probe_A
77, 78, 79, 80, 81, 82, 83, 84, 
*ELSET,ELSET=probe_B
17, 18, 19, 20, 21, 22, 
*ELSET,ELSET=walls
1, 2, 3, 4, 5, 6, 7, 8, 9, 10, 
11, 12, 13, 14, 15, 16, 23, 24, 25, 26, 
27, 28, 29, 30, 31, 32, 33, 34, 35, 36, 
37, 38, 61, 62, 63, 64, 65, 66, 67, 68, 
69, 70, 71, 72, 73, 74, 75, 76, 85, 86, 
87, 88, 89, 90, 91, 92, 93, 94, 95, 96, 
97, 98, 99, 100, 123, 124, 125, 126, 127, 128, 
129, 130, 131, 132, 133, 134, 135, 136, 137, 138, 
139, 140, 141, 142, 143, 144, 145, 146, 147, 148, 
149, 150, 151, 152, 153, 154, 155, 156, 157, 158, 
159, 160, 161, 162, 163, 164, 165, 166, 167, 168, 
169, 170, 171, 172, 173, 174, 175, 176, 177, 178, 
179, 180, 181, 182, 183, 184, 
*ELSET,ELSET=domain
185, 186, 187, 188, 189, 190, 191, 192, 193, 194, 
195, 196, 197, 198, 199, 200, 201, 202, 203, 204, 
205, 206, 207, 208, 209, 210, 211, 212, 213, 214, 
215, 216, 217, 218, 219, 220, 221, 222, 223, 224, 
225, 226, 227, 228, 229, 230, 231, 232, 233, 234, 
235, 236, 237, 238, 239, 240, 241, 242, 243, 244, 
245, 246, 247, 248, 249, 250, 251, 252, 253, 254, 
255, 256, 257, 258, 259, 260, 261, 262, 263, 264, 
265, 266, 267, 268, 269, 270, 271, 272, 273, 274, 
275, 276, 277, 278, 279, 280, 281, 282, 283, 284, 
285, 286, 287, 288, 289, 290, 291, 292, 293, 294, 
295, 296, 297, 298, 299, 300, 301, 302, 303, 304, 
305, 306, 307, 308, 309, 310, 311, 312, 313, 314, 
315, 316, 317, 318, 319, 320, 321, 322, 323, 324, 
325, 326, 327, 328, 329, 330, 331, 332, 333, 334, 
335, 336, 337, 338, 339, 340, 341, 342, 343, 344, 
345, 346, 347, 348, 349, 350, 351, 352, 353, 354, 
355, 356, 357, 358, 359, 360, 361, 362, 363, 364, 
365, 366, 367, 368, 369, 370, 371, 372, 373, 374, 
375, 376, 377, 378, 379, 380, 381, 382, 383, 384, 
385, 386, 387, 388, 389, 390, 391, 392, 393, 394, 
395, 396, 397, 398, 399, 400, 401, 402, 403, 404, 
405, 406, 407, 408, 409, 410, 411, 412, 413, 414, 
415, 416, 417, 418, 419, 420, 421, 422, 423, 424, 
425, 426, 427, 428, 429, 430, 431, 432, 433, 434, 
435, 436, 437, 438, 439, 440, 441, 442, 443, 444, 
445, 446, 447, 448, 449, 450, 451, 452, 453, 454, 
455, 456, 457, 458, 459, 460, 461, 462, 463, 464, 
465, 466, 467, 468, 469, 470, 471, 472, 473, 474, 
475, 476, 477, 478, 479, 480, 481, 482, 483, 484, 
485, 486, 487, 488, 489, 490, 491, 492, 493, 494, 
495, 496, 497, 498, 499, 500, 501, 502, 503, 504, 
505, 506, 507, 508, 509, 510, 511, 512, 513, 514, 
515, 516, 517, 518, 519, 520, 521, 522, 523, 524, 
525, 526, 527, 528, 529, 530, 531, 532, 533, 534, 
535, 536, 537, 538, 539, 540, 541, 542, 543, 544, 
545, 546, 547, 548, 549, 550, 551, 552, 553, 554, 
555, 556, 557, 558, 559, 560, 561, 562, 563, 564, 
565, 566, 567, 568, 569, 570, 571, 572, 573, 574, 
575, 576, 577, 578, 579, 580, 581, 582, 583, 584, 
585, 586, 587, 588, 589, 590, 591, 592, 593, 594, 
595, 596, 597, 598, 599, 600, 601, 602, 603, 604, 
605, 606, 607, 608, 609, 610, 611, 612, 613, 614, 
615, 616, 617, 618, 619, 620, 621, 622, 623, 624, 
625, 626, 627, 628, 629, 630, 631, 632, 633, 634, 
635, 636, 637, 638, 639, 640, 641, 642, 643, 644, 
645, 646, 647, 648, 649, 650, 651, 652, 653, 654, 
655, 656, 657, 658, 659, 660, 661, 662, 663, 664, 
665, 666, 667, 668, 669, 670, 671, 672, 673, 674, 
675, 676, 677, 678, 679, 680, 681, 682, 683, 684, 
685, 686, 687, 688, 689, 690, 691, 692, 693, 694, 
695, 696, 697, 698, 699, 700, 701, 702, 703, 704, 
705, 706, 707, 708, 709, 710, 711, 712, 713, 714, 
715, 716, 717, 718, 719, 720, 721, 722, 723, 724, 
725, 726, 727, 728, 729, 730, 731, 732, 733, 734, 
735, 736, 737, 738, 739, 740, 741, 742, 743, 744, 
745, 746, 747, 748, 749, 750, 751, 752, 753, 754, 
755, 756, 757, 758, 759, 760, 761, 762, 763, 764, 
765, 766, 767, 768, 769, 770, 771, 772, 773, 774, 
775, 776, 777, 778, 779, 780, 781, 782, 783, 784, 
785, 786, 787, 788, 789, 790, 791, 792, 793, 794, 
795, 796, 797, 798, 799, 800, 801, 802, 803, 804, 
805, 806, 807, 808, 809, 810, 811, 812, 813, 814, 
815, 816, 817, 818, 819, 820, 821, 822, 823, 824, 
825, 826, 827, 828, 829, 830, 831, 832, 833, 834, 
*NSET,NSET=contact_source
1, 8, 103, 104, 105, 106, 107, 108, 109, 110, 
111, 112, 113, 114, 115, 116, 117, 118, 119, 120, 
121, 122, 123, 
*NSET,NSET=contact_drain
4, 5, 45, 46, 47, 48, 49, 50, 51, 52, 
53, 54, 55, 56, 57, 58, 59, 60, 61, 62, 
63, 64, 65, 
*NSET,NSET=probe_A
6, 7, 81, 82, 83, 84, 85, 86, 87, 
*NSET,NSET=probe_B
2, 3, 25, 26, 27, 28, 29, 
*NSET,NSET=walls
1, 2, 3, 4, 5, 6, 7, 8, 9, 10, 
11, 12, 13, 14, 15, 16, 17, 18, 19, 20, 
21, 22, 23, 24, 30, 31, 32, 33, 34, 35, 
36, 37, 38, 39, 40, 41, 42, 43, 44, 66, 
67, 68, 69, 70, 71, 72, 73, 74, 75, 76, 
77, 78, 79, 80, 88, 89, 90, 91, 92, 93, 
94, 95, 96, 97, 98, 99, 100, 101, 102, 124, 
125, 126, 127, 128, 129, 130, 131, 132, 133, 134, 
135, 136, 137, 138, 139, 140, 141, 142, 143, 144, 
145, 146, 147, 148, 149, 150, 151, 152, 153, 154, 
155, 156, 157, 158, 159, 160, 161, 162, 163, 164, 
165, 166, 167, 168, 169, 170, 171, 172, 173, 174, 
175, 176, 177, 178, 179, 180, 181, 182, 183, 184, 
*NSET,NSET=domain
1, 2, 3, 4, 5, 6, 7, 8, 9, 10, 
11, 12, 13, 14, 15, 16, 17, 18, 19, 20, 
21, 22, 23, 24, 25, 26, 27, 28, 29, 30, 
31, 32, 33, 34, 35, 36, 37, 38, 39, 40, 
41, 42, 43, 44, 45, 46, 47, 48, 49, 50, 
51, 52, 53, 54, 55, 56, 57, 58, 59, 60, 
61, 62, 63, 64, 65, 66, 67, 68, 69, 70, 
71, 72, 73, 74, 75, 76, 77, 78, 79, 80, 
81, 82, 83, 84, 85, 86, 87, 88, 89, 90, 
91, 92, 93, 94, 95, 96, 97, 98, 99, 100, 
101, 102, 103, 104, 105, 106, 107, 108, 109, 110, 
111, 112, 113, 114, 115, 116, 117, 118, 119, 120, 
121, 122, 123, 124, 125, 126, 127, 128, 129, 130, 
131, 132, 133, 134, 135, 136, 137, 138, 139, 140, 
141, 142, 143, 144, 145, 146, 147, 148, 149, 150, 
151, 152, 153, 154, 155, 156, 157, 158, 159, 160, 
161, 162, 163, 164, 165, 166, 167, 168, 169, 170, 
171, 172, 173, 174, 175, 176, 177, 178, 179, 180, 
181, 182, 183, 184, 185, 186, 187, 188, 189, 190, 
191, 192, 193, 194, 195, 196, 197, 198, 199, 200, 
201, 202, 203, 204, 205, 206, 207, 208, 209, 210, 
211, 212, 213, 214, 215, 216, 217, 218, 219, 220, 
221, 222, 223, 224, 225, 226, 227, 228, 229, 230, 
231, 232, 233, 234, 235, 236, 237, 238, 239, 240, 
241, 242, 243, 244, 245, 246, 247, 248, 249, 250, 
251, 252, 253, 254, 255, 256, 257, 258, 259, 260, 
261, 262, 263, 264, 265, 266, 267, 268, 269, 270, 
271, 272, 273, 274, 275, 276, 277, 278, 279, 280, 
281, 282, 283, 284, 285, 286, 287, 288, 289, 290, 
291, 292, 293, 294, 295, 296, 297, 298, 299, 300, 
301, 302, 303, 304, 305, 306, 307, 308, 309, 310, 
311, 312, 313, 314, 315, 316, 317, 318, 319, 320, 
321, 322, 323, 324, 325, 326, 327, 328, 329, 330, 
331, 332, 333, 334, 335, 336, 337, 338, 339, 340, 
341, 342, 343, 344, 345, 346, 347, 348, 349, 350, 
351, 352, 353, 354, 355, 356, 357, 358, 359, 360, 
361, 362, 363, 364, 365, 366, 367, 368, 369, 370, 
371, 372, 373, 374, 375, 376, 377, 378, 379, 380, 
381, 382, 383, 384, 385, 386, 387, 388, 389, 390, 
391, 392, 393, 394, 395, 396, 397, 398, 399, 400, 
401, 402, 403, 404, 405, 406, 407, 408, 409, 410, 
411, 412, 413, 414, 415, 416, 417, 418, 419, 420, 
421, 422, 423, 424, 425, 426, 427, 428, 429, 430, 
431, 432, 433, 434, 435, 436, 437, 438, 439, 440, 
441, 442, 443, 444, 445, 446, 447, 448, 449, 450, 
451, 452, 453, 454, 455, 456, 457, 458, 459, 460, 
461, 462, 463, 464, 465, 466, 467, 468, 469, 470, 
471, 472, 473, 474, 475, 476, 477, 478, 479, 480, 
481, 482, 483, 484, 485, 486, 487, 488, 489, 490, 
491, 492, 493, 494, 495, 496, 497, 498, 499, 500, 
501, 502, 503, 504, 505, 506, 507, 508, 509, 510, 
511, 512, 513, 514, 515, 516, 517, 518, 519, 520, 
521, 522, 523, 524, 525, 526, 527, 528, 529, 530, 
531, 532, 533, 534, 535, 536, 537, 538, 539, 540, 
541, 542, 543, 544, 545, 546, 547, 548, 549, 550, 
551, 552, 553, 554, 555, 556, 557, 558, 559, 560, 
561, 562, 563, 564, 565, 566, 567, 568, 569, 570, 
571, 572, 573, 574, 575, 576, 577, 578, 579, 580, 
581, 582, 583, 584, 585, 586, 587, 588, 589, 590, 
591, 592, 593, 594, 595, 596, 597, 598, 599, 600, 
601, 602, 603, 604, 605, 606, 607, 608, 609, 610, 
611, 612, 613, 614, 615, 616, 617, 618, 619, 620, 
621, 622, 623, 624, 625, 626, 627, 628, 629, 630, 
631, 632, 633, 634, 635, 636, 637, 638, 639, 640, 
641, 642, 643, 644, 645, 646, 647, 648, 649, 650, 
651, 652, 653, 654, 655, 656, 657, 658, 659, 660, 
661, 662, 663, 664, 665, 666, 667, 668, 669, 670, 
671, 672, 673, 674, 675, 676, 677, 678, 679, 680, 
681, 682, 683, 684, 685, 686, 687, 688, 689, 690, 
691, 692, 693, 694, 695, 696, 697, 698, 699, 700, 
701, 702, 703, 704, 705, 706, 707, 708, 709, 710, 
711, 712, 713, 714, 715, 716, 717, 718, 719, 720, 
721, 722, 723, 724, 725, 726, 727, 728, 729, 730, 
731, 732, 733, 734, 735, 736, 737, 738, 739, 740, 
741, 742, 
