*Heading
 /Users/juliagao/geometry-optimization-net/scripts/../runs/run2/shape_172.inp
*NODE
1, 0, -0.3, 0
2, 0.425, -0.3, 0
3, 0.575, -0.3, 0
4, 1, -0.3, 0
5, 1, 0.3, 0
6, 0.575, 0.3, 0
7, 0.425, 0.3, 0
8, 0, 0.3, 0
9, 0.6790264616, -0.0175481407, 0
10, 0.026247078027487, -0.3, 0
11, 0.079075228318972, -0.3, 0
12, 0.13219125443786, -0.3, 0
13, 0.18503982026929, -0.3, 0
14, 0.23809211930247, -0.3, 0
15, 0.29186306229062, -0.3, 0
16, 0.34579936090677, -0.3, 0
17, 0.39885170179571, -0.3, 0
18, 0.052494156054975, -0.3, 0
19, 0.10565630058297, -0.3, 0
20, 0.15872620829274, -0.3, 0
21, 0.21135343224584, -0.3, 0
22, 0.2648308063591, -0.3, 0
23, 0.31889531822214, -0.3, 0
24, 0.37270340359141, -0.3, 0
25, 0.45049431286246, -0.3, 0
26, 0.5004636418301, -0.3, 0
27, 0.54996932896765, -0.3, 0
28, 0.47598862572491, -0.3, 0
29, 0.52493865793529, -0.3, 0
30, 0.60125849403172, -0.3, 0
31, 0.65382567155657, -0.3, 0
32, 0.70587793585031, -0.3, 0
33, 0.7575813175644, -0.3, 0
34, 0.81026492993457, -0.3, 0
35, 0.86459964257077, -0.3, 0
36, 0.91958735761776, -0.3, 0
37, 0.97348208574261, -0.3, 0
38, 0.62751698806343, -0.3, 0
39, 0.6801343550497, -0.3, 0
40, 0.73162151665091, -0.3, 0
41, 0.78354111847788, -0.3, 0
42, 0.83698874139126, -0.3, 0
43, 0.89221054375029, -0.3, 0
44, 0.94696417148523, -0.3, 0
45, 1, -0.2733951013736, 0
46, 1, -0.21935032866394, 0
47, 1, -0.16402812800198, 0
48, 1, -0.10880866400591, 0
49, 1, -0.054800426278168, 0
50, 1, -0.0014542851343755, 0
51, 1, 0.052701142330015, 0
52, 1, 0.1084590926438, 0
53, 1, 0.1650326823951, 0
54, 1, 0.22047683774155, 0
55, 1, 0.27381248350977, 0
56, 1, -0.24679020274721, 0
57, 1, -0.19191045458068, 0
58, 1, -0.13614580142329, 0
59, 1, -0.081471526588523, 0
60, 1, -0.028129325967813, 0
61, 1, 0.025220755699062, 0
62, 1, 0.080181528960969, 0
63, 1, 0.13673665632663, 0
64, 1, 0.19332870846357, 0
65, 1, 0.24762496701953, 0
66, 0.97467707376739, 0.3, 0
67, 0.92382391631874, 0.3, 0
68, 0.87225924364193, 0.3, 0
69, 0.81996889078277, 0.3, 0
70, 0.76707531979671, 0.3, 0
71, 0.71241599629324, 0.3, 0
72, 0.65637193449517, 0.3, 0
73, 0.60167476830645, 0.3, 0
74, 0.94935414753479, 0.3, 0
75, 0.8982936851027, 0.3, 0
76, 0.84622480218115, 0.3, 0
77, 0.79371297938438, 0.3, 0
78, 0.74043766020903, 0.3, 0
79, 0.68439433237745, 0.3, 0
80, 0.6283495366129, 0.3, 0
81, 0.54979362186927, 0.3, 0
82, 0.49990414901905, 0.3, 0
83, 0.45011052714978, 0.3, 0
84, 0.52458724373854, 0.3, 0
85, 0.47522105429955, 0.3, 0
86, 0.39869280941543, 0.3, 0
87, 0.34515247995808, 0.3, 0
88, 0.29069176309649, 0.3, 0
89, 0.23685666618538, 0.3, 0
90, 0.18372377686135, 0.3, 0
91, 0.13037181341847, 0.3, 0
92, 0.077338564921184, 0.3, 0
93, 0.02556595473253, 0.3, 0
94, 0.37238561883086, 0.3, 0
95, 0.3179193410853, 0.3, 0
96, 0.26346418510769, 0.3, 0
97, 0.21024914726306, 0.3, 0
98, 0.15719840645963, 0.3, 0
99, 0.10354522037731, 0.3, 0
100, 0.051131909465061, 0.3, 0
101, 0, 0.27361453426335, 0
102, 0, 0.22047886112699, 0
103, 0, 0.16638973605954, 0
104, 0, 0.11124961861975, 0
105, 0, 0.055289064662615, 0
106, 0, -0.00089486416341394, 0
107, 0, -0.056499365261898, 0
108, 0, -0.11129109933656, 0
109, 0, -0.16555343745971, 0
110, 0, -0.2195786751678, 0
111, 0, -0.27327669118493, 0
112, 0, 0.2472290685267, 0
113, 0, 0.19372865372728, 0
114, 0, 0.13905081839179, 0
115, 0, 0.083448418847702, 0
116, 0, 0.027129710477528, 0
117, 0, -0.028919438804356, 0
118, 0, -0.08407929171944, 0
119, 0, -0.13850290695368, 0
120, 0, -0.19260396796574, 0
121, 0, -0.24655338236987, 0
122, 0.67517576227167, 0.010552113368475, 0
123, 0.7419452931585, -0.07639236299033, 0
124, 0.77976798268019, -0.12058710570523, 0
125, 0.80373537725464, -0.17214363365555, 0
126, 0.79691637049284, -0.22540934564214, 0
127, 0.75299407552976, -0.25185179741654, 0
128, 0.70214031814585, -0.25044186492904, 0
129, 0.65256202158126, -0.23509409110834, 0
130, 0.60426364893148, -0.2120591775019, 0
131, 0.55418416909294, -0.19655954868764, 0
132, 0.514797877573, -0.22763347637516, 0
133, 0.47201081457983, -0.25098356475022, 0
134, 0.42678599689076, -0.23214083520158, 0
135, 0.39726798936915, -0.18994276799139, 0
136, 0.35028760408283, -0.16578812449678, 0
137, 0.29598893355843, -0.15718631232255, 0
138, 0.25046763771618, -0.12742696177196, 0
139, 0.25031416483472, -0.07270158605341, 0
140, 0.28526983744125, -0.027952970440435, 0
141, 0.32407017376291, 0.011211903297426, 0
142, 0.31360538431347, 0.06639084174801, 0
143, 0.29580256033916, 0.11946058134971, 0
144, 0.29893926942044, 0.17355381293067, 0
145, 0.33356067489061, 0.21354072624663, 0
146, 0.38601874917051, 0.22779830096104, 0
147, 0.44099488399575, 0.22515872303035, 0
148, 0.49242851589394, 0.20929881326375, 0
149, 0.53462080185082, 0.17726622449134, 0
150, 0.56878213646804, 0.13753492727031, 0
151, 0.61895805427066, 0.12170101276941, 0
152, 0.67081358264952, 0.10879615063275, 0
153, 0.69202945114584, 0.060679174095913, 0
154, 0.69888667811633, -0.038048825560015, 0
155, 0.68463619770276, 0.034660520982171, 0
156, 0.68903922960881, 0.088101846846474, 0
157, 0.64564547052176, 0.11832241838668, 0
158, 0.59225752198213, 0.12490909532971, 0
159, 0.55172893610595, 0.15707693141193, 0
160, 0.51504623577331, 0.19514317419584, 0
161, 0.46762524729687, 0.21908859446384, 0
162, 0.41384705337218, 0.22803996709107, 0
163, 0.3585033538961, 0.22338155375328, 0
164, 0.3125616682107, 0.19666960432799, 0
165, 0.29378398028416, 0.14732378154515, 0
166, 0.30305899909973, 0.092552189671145, 0
167, 0.32449786207548, 0.040382437809275, 0
168, 0.30652602424118, -0.0087902329763409, 0
169, 0.26563471140262, -0.048833335704647, 0
170, 0.24322193231008, -0.10044841527566, 0
171, 0.27043509562902, -0.14646702445187, 0
172, 0.32305189212153, -0.1625515590717, 0
173, 0.37708020411248, -0.17242080623092, 0
174, 0.41148910807476, -0.21185959276099, 0
175, 0.4474523628367, -0.2473855787162, 0
176, 0.49507514566295, -0.24269370928095, 0
177, 0.53247326273289, -0.21035159691943, 0
178, 0.57979815396586, -0.20046319506234, 0
179, 0.62843607874368, -0.22422893138377, 0
180, 0.67743490458115, -0.24414459770164, 0
181, 0.72747762067414, -0.25346874254113, 0
182, 0.77727754767313, -0.24343850925297, 0
183, 0.80570135940689, -0.2002783606888, 0
184, 0.79433082245584, -0.14572079850724, 0
185, 0.76201792921647, -0.097626610356334, 0
186, 0.72042524549961, -0.056641640561991, 0
187, 0.56313157045537, -0.25785332459414, 0
188, 0.052941238708502, -0.24714491586135, 0
189, 0.15754645783092, -0.25065639792437, 0
190, 0.10573939312443, -0.2484337946507, 0
191, 0.3094692532564, -0.18620993313808, 0
192, 0.20679376738785, -0.2531182472192, 0
193, 0.23351735348951, -0.27618775088761, 0
194, 0.22993255120824, -0.25348609650303, 0
195, 0.54314719349483, 0.24120759344778, 0
196, 0.84221142870394, -0.24717317211194, 0
197, 0.89525317115383, -0.24643406963352, 0
198, 0.9477449987734, -0.24621941339701, 0
199, 0.23353375553998, 0.21695453130709, 0
200, 0.48682260393115, 0.22267191926228, 0
201, 0.25093037349909, 0.16244776404059, 0
202, 0.18039463467771, 0.14181959840949, 0
203, 0.11654336568615, 0.13741667885641, 0
204, 0.057263856891806, 0.13754306112844, 0
205, 0.056248257600582, 0.19318296267748, 0
206, 0.11377709755065, 0.19470909770796, 0
207, 0.17335370210715, 0.20082504085586, 0
208, 0.054092521970684, 0.24711642902214, 0
209, 0.16508164885283, 0.25161995468582, 0
210, 0.10907091411527, 0.24823854381935, 0
211, 0.69196393379842, 0.12480569097408, 0
212, 0.22112823236658, 0.25877224082801, 0
213, 0.47585548029448, 0.24678645275221, 0
214, 0.69206802383261, 0.15359143076854, 0
215, 0.66886027952961, 0.13487613153402, 0
216, 0.59059865254208, 0.22691844736406, 0
217, 0.25217564057431, 0.085249145136515, 0
218, 0.27324725598531, 0.0292217627274, 0
219, 0.18455940027347, 0.066006912221093, 0
220, 0.11476714349615, 0.077071055371529, 0
221, 0.056502447467973, 0.080819375678036, 0
222, 0.10761337830598, 0.020940317120422, 0
223, 0.05435632185369, 0.024957653102184, 0
224, 0.053404601516009, -0.19363261220427, 0
225, 0.10671494213321, -0.19578645988667, 0
226, 0.15892795377503, -0.20042774349946, 0
227, 0.20701558261373, -0.20806223208654, 0
228, 0.16418533517324, -0.1459211660488, 0
229, 0.21544878988486, -0.16137915511399, 0
230, 0.10841747815913, -0.14053589662577, 0
231, 0.053852009578231, -0.1390544742632, 0
232, 0.10388893958038, -0.029415476905165, 0
233, 0.053095653820187, -0.029318874434583, 0
234, 0.053626184529835, -0.083792789512268, 0
235, 0.10805264557492, -0.082456426204568, 0
236, 0.21540823102338, -0.0039267614694878, 0
237, 0.1575127517851, 0.010770627895574, 0
238, 0.14335982442444, -0.027386632127104, 0
239, 0.17271992054973, -0.073234823474003, 0
240, 0.25189840968567, -0.2522127656195, 0
241, 0.31408152605275, -0.22500554554309, 0
242, 0.79348054517343, 0.19386401685908, 0
243, 0.71610312388714, 0.11829240369211, 0
244, 0.84531108250347, 0.13508164435749, 0
245, 0.89732933334207, 0.1348841172401, 0
246, 0.94882215351962, 0.13564307595062, 0
247, 0.94872792021758, 0.19151675590956, 0
248, 0.89723123389545, 0.19097937877466, 0
249, 0.84542006831271, 0.19159358180825, 0
250, 0.89748080910741, 0.2458747156577, 0
251, 0.94888022026848, 0.24623279151861, 0
252, 0.84564425259329, 0.24627190452889, 0
253, 0.74090947329794, 0.25002832146577, 0
254, 0.7934498070253, 0.24757206461927, 0
255, 0.45510806110647, 0.28989865020491, 0
256, 0.74179148832695, 0.19839998509892, 0
257, 0.6915030074512, 0.18017196538993, 0
258, 0.43525883988526, 0.23462144672942, 0
259, 0.43988682517866, 0.27090205718386, 0
260, 0.69058793949875, 0.20555148300537, 0
261, 0.4504584471936, 0.25092843194751, 0
262, 0.552261291384, 0.18349484047415, 0
263, 0.79309988306385, 0.1374992294897, 0
264, 0.84556755081796, 0.075990269442524, 0
265, 0.73938808728742, 0.08295302115908, 0
266, 0.7314103553352, 0.02159650484623, 0
267, 0.84863904269692, 0.014474270241905, 0
268, 0.79149862124302, 0.076654924484825, 0
269, 0.89806841226854, 0.077822299074601, 0
270, 0.94926506037077, 0.079445597373356, 0
271, 0.90032416200824, 0.021339507362127, 0
272, 0.95016505368911, 0.024197597907338, 0
273, 0.84733373855403, -0.12631298576564, 0
274, 0.89376172285465, -0.081988784213892, 0
275, 0.94968582308313, -0.082601147981904, 0
276, 0.95087318676616, -0.029253912780939, 0
277, 0.86166366293669, -0.040585669879501, 0
278, 0.90380523591864, -0.030708887575377, 0
279, 0.81348183813149, -0.066647581104104, 0
280, 0.78484756582149, -0.00042334063042315, 0
281, 0.89992379292786, -0.13748388810192, 0
282, 0.94960000591653, -0.13711840740479, 0
283, 0.89811959858334, -0.19212612224721, 0
284, 0.84860250233347, -0.19364426742064, 0
285, 0.94888136142166, -0.19182179502738, 0
286, 0.58386466109554, 0.26531729204549, 0
287, 0.61811545698556, 0.17382150825334, 0
288, 0.64390456681076, 0.14209958355978, 0
289, 0.72400151329271, -0.0085688242530611, 0
290, 0.75640992300046, 0.014644183171449, 0
291, 0.75761633903373, -0.031905083506053, 0
292, 0.25940248127561, -0.21714651512794, 0
293, 0.28205956740071, -0.27171448321082, 0
294, 0.54205764623842, -0.27174802274274, 0
295, 0.57246304323067, -0.27889846327611, 0
296, 0.20652452915565, 0.033462252163324, 0
297, 0.18128696352725, 0.0014737013270667, 0
298, 0.16557636891085, 0.035747241527315, 0
299, 0.68624491324896, 0.277090038274, 0
300, 0.61864784390064, 0.14811392942356, 0
301, 0.52953574539039, 0.28642572092513, 0
302, 0.46084046845086, -0.27266629131321, 0
303, 0.42982350488257, 0.29039378616387, 0
304, 0.55447318593891, 0.28476511455299, 0
305, 0.71441477126261, 0.086329415963334, 0
306, 0.28661110870259, 0.0075186515287696, 0
307, 0.29674516112713, 0.038487056919529, 0
308, 0.21013641765908, -0.18534464754513, 0
309, 0.28001314402929, -0.21999223724705, 0
310, 0.22816878825867, -0.21207677067314, 0
311, 0.33261966652828, -0.25560119635172, 0
312, 0.30672665091189, -0.26576928091129, 0
313, 0.87260018943575, -0.06275194881311, 0
314, 0.88243459010913, -0.032569814340493, 0
315, 0.90355508183091, -0.054477504310585, 0
316, 0.56673440249571, 0.23398170648996, 0
317, 0.687920224429, 0.2538302841215, 0
318, 0.24102667966151, 0.19332049519847, 0
319, 0.86756458807156, -0.099181896807121, 0
320, 0.90044375723614, -0.11175212745081, 0
321, 0.87553799584578, -0.13635589500156, 0
322, 0.25726056902371, -0.18170225996493, 0
323, 0.43639418079882, -0.26873181583416, 0
324, 0.36112335973012, -0.23600005995603, 0
325, 0.51466901678058, 0.26194977742278, 0
326, 0.61498832403546, 0.22052688250697, 0
327, 0.63778402156723, 0.2373926312682, 0
328, 0.61690785925755, 0.19795389699142, 0
329, 0.41265379446475, -0.26059612572326, 0
330, 0.24630293066551, -0.21528639546677, 0
331, 0.22787819558462, -0.23219212724699, 0
332, 0.84586947103323, 0.27319419969781, 0
333, 0.81958741339175, 0.24679208382899, 0
334, 0.79349649803585, 0.27386294850999, 0
335, 0.81973004066367, 0.27346426213166, 0
336, 0.16103695622292, 0.27584895058635, 0
337, 0.13698577760199, 0.24955206894838, 0
338, 0.10640159804478, 0.27419781029071, 0
339, 0.13366766592624, 0.27484839105291, 0
340, 0.026699365195048, -0.19304072246895, 0
341, 0.026888518867236, -0.13871030892132, 0
342, 0.053664551178146, -0.1664828992835, 0
343, 0.026813205228715, -0.16594697671823, 0
344, 0.18260140793038, -0.25198853342329, 0
345, 0.20874975304692, -0.27634681789626, 0
346, 0.15792969978073, -0.27535801675122, 0
347, 0.18356343307497, -0.27594859215501, 0
348, 0.97442198782504, -0.19179024705245, 0
349, 0.9493141903888, -0.16444522209012, 0
350, 0.97477484090051, -0.13672304332872, 0
351, 0.97463172596263, -0.16424795879586, 0
352, 0.026470796823695, -0.24677345231555, 0
353, 0.052751638937946, -0.27361341061749, 0
354, 0.026365830124649, -0.2734157711119, 0
355, 0.055472979390252, 0.052666162101745, 0
356, 0.027235712386503, 0.026145458231759, 0
357, 0.028178344866059, 0.082130157824915, 0
358, 0.027730037663912, 0.054055316576853, 0
359, 0.026796131243379, -0.083920053879393, 0
360, 0.053860796941333, -0.11142445139005, 0
361, 0.026886550500865, -0.11133650713386, 0
362, 0.052728429923055, 0.2736216040835, 0
363, 0.026981901550165, 0.24704626269057, 0
364, 0.026308260535612, 0.2735704875109, 0
365, 0.079393217123357, -0.247684031972, 0
366, 0.10562525316291, -0.27427658298838, 0
367, 0.079210123651623, -0.27389374699355, 0
368, 0.053480299387729, -0.002305185126077, 0
369, 0.026647850732565, -0.029063841947398, 0
370, 0.026839770073292, -0.001535547280122, 0
371, 0.13184970738701, -0.24942941575029, 0
372, 0.13189788514942, -0.2747716291429, 0
373, 0.19319444816464, 0.25465037102942, 0
374, 0.21556215655154, 0.27919777744058, 0
375, 0.18833830525741, 0.27728061258385, 0
376, 0.057129921909641, 0.10920724020238, 0
377, 0.028517994231606, 0.13815589405762, 0
378, 0.028457069593608, 0.11018893929697, 0
379, 0.29337904774816, -0.23931704487985, 0
380, 0.26488929924211, -0.22950886729032, 0
381, 0.86889757180837, -0.24676064806259, 0
382, 0.89367445797576, -0.2732507833068, 0
383, 0.83931383281423, -0.27349907629721, 0
384, 0.86664746893113, -0.27338606352666, 0
385, 0.97535064155043, -0.028682536769209, 0
386, 0.97493692291835, -0.082190701432325, 0
387, 0.95055347986724, -0.055687984711698, 0
388, 0.97522122680821, -0.055334322665565, 0
389, 0.71444268349234, 0.25175788437368, 0
390, 0.56976850475224, 0.21456150142473, 0
391, 0.50545498774291, 0.22701053287578, 0
392, 0.57970127128578, 0.28303494256624, 0
393, 0.94721935415474, -0.27315476112694, 0
394, 0.97388948590329, -0.24635390413649, 0
395, 0.97364896726578, -0.27322817219216, 0
396, 0.87161634890136, 0.24597203803818, 0
397, 0.89777830396619, 0.27298843295105, 0
398, 0.87187903541095, 0.27303992057506, 0
399, 0.95064902565086, -0.0027365301929016, 0
400, 0.97507291291277, 0.024906504569504, 0
401, 0.97527143298746, -0.0020003485940559, 0
402, 0.053247933557425, -0.056396782184962, 0
403, 0.026670860409575, -0.056469648731602, 0
404, 0.056940591364593, 0.16557269947062, 0
405, 0.028036997129087, 0.19325226034855, 0
406, 0.028367551951724, 0.16584070034807, 0
407, 0.94899259297931, 0.10751059612546, 0
408, 0.97443193687376, 0.13616841504161, 0
409, 0.97465757900596, 0.079966034677505, 0
410, 0.97451944712824, 0.10801980482943, 0
411, 0.24761931536327, -0.23239304875926, 0
412, 0.25067980193047, -0.19906378036277, 0
413, 0.63206814958624, 0.27976095935507, 0
414, 0.45596908406289, 0.24066014070314, 0
415, 0.94874347138351, 0.16368391359519, 0
416, 0.9743803286105, 0.19220172640664, 0
417, 0.97438887901407, 0.16427580474188, 0
418, 0.9496930903129, -0.10990333702401, 0
419, 0.97485133878863, -0.10940306059265, 0
420, 0.92152333541118, -0.24625584343925, 0
421, 0.92051219310419, -0.27316701329386, 0
422, 0.94966707707307, 0.051632769115347, 0
423, 0.97484779836247, 0.052288950352021, 0
424, 0.74049063271914, 0.27512074624622, 0
425, 0.71671421476004, 0.14778980997514, 0
426, 0.74177855187803, 0.14333529486877, 0
427, 0.46016755350247, 0.27955526111932, 0
428, 0.081445744069467, 0.24747924689396, 0
429, 0.079454747058926, 0.27381324076972, 0
430, 0.61242869930133, 0.24178546836934, 0
431, 0.47053108624004, 0.25804986922929, 0
432, 0.74197066117545, 0.17143104146311, 0
433, 0.053152522054611, -0.22050429071247, 0
434, 0.026580117766902, -0.21997564157509, 0
435, 0.76722660035153, 0.24864064666623, 0
436, 0.76707991207823, 0.27440995994565, 0
437, 0.49530244031866, 0.25366184703622, 0
438, 0.59295320537883, 0.20564186835328, 0
439, 0.6614591480244, 0.25622562106763, 0
440, 0.97446008041856, 0.24674144615656, 0
441, 0.94906310803895, 0.2731808593714, 0
442, 0.97455051767529, 0.2734391609132, 0
443, 0.94877439335269, 0.21901776039498, 0
444, 0.97440459663472, 0.21961865879902, 0
445, 0.55893596189304, 0.26879282843533, 0
446, 0.46167344904725, 0.23009660988953, 0
447, 0.16922633373682, 0.22682409557005, 0
448, 0.14331285675704, 0.19691709417317, 0
449, 0.11156232637787, 0.22183799959154, 0
450, 0.14024627634567, 0.22372343739851, 0
451, 0.94833757967242, -0.21910045145533, 0
452, 0.97416361153434, -0.21915345126806, 0
453, 0.923229041542, 0.24595771919732, 0
454, 0.9234730979165, 0.27303405275464, 0
455, 0.055276011947845, 0.22033763650128, 0
456, 0.027565349748457, 0.22027604547685, 0
457, 0.92685349859246, -0.029876858338452, 0
458, 0.90216349728076, -0.0055186594874716, 0
459, 0.92528117814569, 0.023066488310134, 0
460, 0.92624331059122, -0.0038035467479551, 0
461, 0.080594879042024, -0.083440976471127, 0
462, 0.10882706053245, -0.1116222726852, 0
463, 0.080985385977729, -0.13960068737802, 0
464, 0.081071801322801, -0.11151860213937, 0
465, 0.78204128457753, -0.27299715699757, 0
466, 0.72963661449822, -0.27599792378561, 0
467, 0.75552855920688, -0.27522587039214, 0
468, 0.43479229936417, 0.2806969752848, 0
469, 0.59430497008172, 0.15605536094902, 0
470, 0.51040873391692, 0.21206035388212, 0
471, 0.63517960155686, 0.25894292592506, 0
472, 0.81402963066837, -0.24715280536772, 0
473, 0.81138211185087, -0.27339801977599, 0
474, 0.81944778343129, 0.19247822184024, 0
475, 0.79348028426525, 0.2209566171149, 0
476, 0.84550960254814, 0.21910815716426, 0
477, 0.81951239887777, 0.2198423390633, 0
478, 0.81780697111945, -0.13692299279731, 0
479, 0.78772514625772, -0.082465532874061, 0
480, 0.82882620918862, -0.094186020413193, 0
481, 0.80361565084836, -0.10839903803304, 0
482, 0.085211742746285, 0.079255737517123, 0
483, 0.11117280881593, 0.048090686516875, 0
484, 0.081223689517954, 0.02335045980427, 0
485, 0.083275615526077, 0.050838888192216, 0
486, 0.10490712392566, -0.0046922201273592, 0
487, 0.079039988426023, -0.029509156434956, 0
488, 0.079649820003602, -0.0032980913721269, 0
489, 0.71343411219614, 0.27601469391451, 0
490, 0.48016184723003, 0.2890540051239, 0
491, 0.60930860333168, 0.26198290084528, 0
492, 0.50979360007385, 0.27522294284278, 0
493, 0.27883065381654, 0.089761475492972, 0
494, 0.2471390889434, 0.11932386118671, 0
495, 0.2746222954405, 0.1536650328989, 0
496, 0.27333248807318, 0.12007132339786, 0
497, 0.24284470120932, -0.030032865189452, 0
498, 0.24733008643674, 0.015665323925576, 0
499, 0.26552581737244, -0.0087128586559609, 0
500, 0.73679775518183, 0.052231479077356, 0
501, 0.70763829271233, 0.028228956594098, 0
502, 0.71316726632833, 0.056831878935569, 0
503, 0.71612916238976, 0.20164789684404, 0
504, 0.24332737267359, -0.15045429409762, 0
505, 0.11644198378545, 0.10733342742977, 0
506, 0.086496512873636, 0.13723618894609, 0
507, 0.08630932680117, 0.10826135168949, 0
508, 0.67845898184306, -0.27242029055611, 0
509, 0.704001973219, -0.27489954361009, 0
510, 0.57216710449909, 0.16835082292662, 0
511, 0.66762373496893, 0.16051454499881, 0
512, 0.53886620190112, 0.2571688527899, 0
513, 0.54701698970517, 0.22401136350386, 0
514, 0.49021990105203, 0.26594198673713, 0
515, 0.20981612388793, -0.088665899300757, 0
516, 0.19615275263867, -0.03965107790169, 0
517, 0.22460214886156, -0.057746745612445, 0
518, 0.10608946601335, -0.22233037718041, 0
519, 0.13309393571292, -0.19770231525408, 0
520, 0.15780865136877, -0.22577496996256, 0
521, 0.1322125931606, -0.22382157118749, 0
522, 0.22705094136693, 0.2382607166714, 0
523, 0.63989974372626, 0.21494435043348, 0
524, 0.51944256986741, 0.24794326089862, 0
525, 0.74139569569118, 0.22452215680591, 0
526, 0.50486000325795, 0.2878826417058, 0
527, 0.74100243742585, 0.11381222254102, 0
528, 0.54961706766559, -0.23529492541754, 0
529, 0.50800914552171, -0.26440444699515, 0
530, 0.52863024689722, -0.249702094139, 0
531, 0.71537092796977, 0.22703523049535, 0
532, 0.64276978097723, 0.16700414781235, 0
533, 0.20364381076605, 0.20723562428776, 0
534, 0.19829426986558, 0.23156531455751, 0
535, 0.23693005794226, -0.17177474887067, 0
536, 0.26188480744086, 0.055377038519208, 0
537, 0.28775945594302, 0.06239984739177, 0
538, 0.92376910497617, 0.078712705786471, 0
539, 0.89758103820345, 0.10641895741766, 0
540, 0.92313715889331, 0.13519376560846, 0
541, 0.92336764022784, 0.10695616336265, 0
542, 0.50039311088667, 0.24075358284851, 0
543, 0.71662757910019, 0.17535261169332, 0
544, 0.58926727590781, -0.24558515019553, 0
545, 0.62587907710683, -0.26818277588992, 0
546, 0.5972913043477, -0.27309552587183, 0
547, 0.10560208056328, -0.054792509205759, 0
548, 0.079616229058567, -0.05602148977263, 0
549, 0.22398295036657, -0.13472942638915, 0
550, 0.19106771516589, -0.15250175298313, 0
551, 0.16829162252044, -0.11416677596759, 0
552, 0.19820693606833, -0.12283420793315, 0
553, 0.79924902270687, -0.037614479245471, 0
554, 0.77170938224459, -0.057289304102317, 0
555, 0.87204882135336, 0.076844079751176, 0
556, 0.84533775788101, 0.10589373687196, 0
557, 0.87138910915172, 0.13479597271298, 0
558, 0.87158580794511, 0.10599747923279, 0
559, 0.26433077302998, -0.16372110492959, 0
560, 0.38844393852064, -0.2493773556892, 0
561, 0.65253265649926, -0.26944914449783, 0
562, 0.92363589769358, -0.082672716606278, 0
563, 0.9262985188293, -0.055620928770659, 0
564, 0.18374720394613, -0.20398360775477, 0
565, 0.20603457061731, -0.23043841932225, 0
566, 0.18254258408881, -0.22809251378345, 0
567, 0.89894712508826, 0.049318004062171, 0
568, 0.92440606195762, 0.050663936528532, 0
569, 0.48512349650844, -0.271233271618, 0
570, 0.65907906619343, 0.27833927438, 0
571, 0.57182263760843, 0.19306985198262, 0
572, 0.64153542342267, 0.19146824515408, 0
573, 0.89723630228926, 0.16308294953961, 0
574, 0.92302173532085, 0.19111725827444, 0
575, 0.92303762841476, 0.1632742434327, 0
576, 0.46530499805019, 0.26895138724728, 0
577, 0.82570270733476, -0.19641409076428, 0
578, 0.84877971949317, -0.16380831595947, 0
579, 0.8245377267373, -0.16757318935294, 0
580, 0.48516719062482, 0.27771532328907, 0
581, 0.44510524059273, 0.26099051710182, 0
582, 0.66650141036462, 0.18566606433497, 0
583, 0.6634891990748, 0.23349766435027, 0
584, 0.10756091543911, -0.16858740073431, 0
585, 0.080098277422115, -0.19449573874412, 0
586, 0.080581147914045, -0.16729407570258, 0
587, 0.87502292991848, 0.018644974025859, 0
588, 0.84638865067933, 0.045366452719673, 0
589, 0.87305834707155, 0.047536615428199, 0
590, 0.92458558178469, -0.13741221204729, 0
591, 0.92462628910456, -0.11047548451296, 0
592, 0.079684144132487, -0.22125656692955, 0
593, 0.70114554630561, -0.00050028452792596, 0
594, 0.52404568711357, 0.23300331383256, 0
595, 0.76726416128407, 0.13995076514392, 0
596, 0.76758477752865, 0.19581572829793, 0
597, 0.79339109981762, 0.16610282650168, 0
598, 0.76757338839279, 0.16837033586264, 0
599, 0.846132664248, -0.22105448787984, 0
600, 0.82159010087764, -0.22294649340672, 0
601, 0.48128598580549, 0.23505449566816, 0
602, 0.76743512710379, 0.22250296092708, 0
603, 0.084783387829793, 0.19359453908786, 0
604, 0.083249176668488, 0.22079895443181, 0
605, 0.89906849590781, -0.16459551258859, 0
606, 0.92342612654337, -0.19193515199449, 0
607, 0.92411137207102, -0.1645924422352, 0
608, 0.89683007359218, -0.21944187617402, 0
609, 0.92254145477667, -0.21918871744046, 0
610, 0.22180421292314, 0.077482389211457, 0
611, 0.18237428198151, 0.10720545152734, 0
612, 0.21405411739289, 0.14905844571162, 0
613, 0.21617402049359, 0.11325350332445, 0
614, 0.87307052679153, -0.19252482811622, 0
615, 0.87129780465286, -0.21997719142474, 0
616, 0.89731240725039, 0.21856053547862, 0
617, 0.92308516799432, 0.21866936202975, 0
618, 0.2669141566677, -0.20663750146196, 0
619, 0.87136591888634, 0.19111474123715, 0
620, 0.87145234561337, 0.2186948984676, 0
621, 0.13623530131902, -0.14232186346609, 0
622, 0.13715959320518, -0.07997157057311, 0
623, 0.13770122995251, -0.11201046316047, 0
624, 0.1155296878978, 0.16660451677925, 0
625, 0.085923031682902, 0.16574148738961, 0
626, 0.23155377899659, -0.19224307847675, 0
627, 0.27286149397492, -0.24803761923282, 0
628, 0.76499115178247, 0.079441987171646, 0
629, 0.78962595406796, 0.042839628930464, 0
630, 0.76219458992511, 0.047422002332976, 0
631, 0.81976823257986, 0.0085409690104733, 0
632, 0.85389410250324, -0.014710346155408, 0
633, 0.83848885106761, -0.05206459172806, 0
634, 0.82757985897469, -0.023980017636911, 0
635, 0.87831376931173, -0.0086079303107826, 0
636, 0.16103974756569, -0.17409889940295, 0
637, 0.13449675619314, -0.17070263299373, 0
638, 0.12630443374415, -0.028748519685783, 0
639, 0.15412543151197, -0.042869679422284, 0
640, 0.13085473586578, -0.051437759591944, 0
641, 0.29498928801906, -0.20547360051235, 0
642, 0.84536136714941, 0.16361261639288, 0
643, 0.87133700558475, 0.16316535948629, 0
644, 0.85182342300716, -0.076925199511385, 0
645, 0.68938259856934, 0.23004107689492, 0
646, 0.56306228003316, 0.25193928294272, 0
647, 0.14777616603175, 0.138569571053, 0
648, 0.14635273404958, 0.073504835735827, 0
649, 0.14823584887845, 0.10660677590391, 0
650, 0.87408231206165, -0.16426338503878, 0
651, 0.17723138843121, 0.17279458344209, 0
652, 0.1459507474827, 0.16865961525217, 0
653, 0.59432603147272, 0.18231851806296, 0
654, 0.81917647810103, 0.13591468501035, 0
655, 0.81862201083888, 0.075689179338653, 0
656, 0.79252975245608, 0.10780345395491, 0
657, 0.81891799974168, 0.10638308850516, 0
658, 0.81853570082378, 0.043326285783719, 0
659, 0.23438274148331, 0.045346772460424, 0
660, 0.1865020432474, -0.17908772544591, 0
661, 0.20914336160305, 0.18036999146037, 0
662, 0.76648826113909, 0.11034178849392, 0
663, 0.15000983221774, -0.01132968701114, 0
664, 0.13316861353973, 0.017063473899189, 0
665, 0.12857588222202, -0.0069400917748967, 0
666, 0.13902532629493, 0.043537962291765, 0
667, 0.58751943572159, 0.24669148423382, 0
668, 0.66516129419177, 0.21000966350539, 0
669, 0.81934539355176, 0.16455544020006, 0
670, 0.60569381817429, 0.28133105025491, 0
671, 0.57388418830583, -0.22303912603252, 0
672, 0.17028863098496, -0.022994055276579, 0
673, 0.55022942420217, 0.20508481174688, 0
674, 0.7457866548578, -0.010217591042562, 0
675, 0.27646211782038, -0.19188970901714, 0
676, 0.55459353513338, -0.28474993034538, 0
677, 0.18514393856373, 0.023921938065115, 0
678, 0.5283534992211, 0.21678679498597, 0
679, 0.28639306552988, -0.17474889129721, 0
680, 0.53430480700215, 0.27218337458094, 0
681, 0.30194891906521, 0.019671605735294, 0
682, 0.2578394216325, -0.27489515406122, 0
683, 0.3341311175559, -0.20190118477715, 0
684, 0.88630669417029, -0.050516110614399, 0
685, 0.53210419637944, 0.19866122330668, 0
686, 0.88076278916722, -0.11551392474162, 0
687, 0.42970408208311, 0.24395032116726, 0
688, 0.42430196527163, 0.25322116067532, 0
689, 0.41902481844227, 0.26248688234828, 0
690, 0.41384805857434, 0.27178255544621, 0
691, 0.40875027120076, 0.28112886901201, 0
692, 0.40370924202341, 0.29053476294659, 0
693, 0.40829904199451, 0.23647640076149, 0
694, 0.40292541130182, 0.24498629339705, 0
695, 0.39767666658277, 0.25363444803622, 0
696, 0.39251412823328, 0.26246565849072, 0
697, 0.38740775551581, 0.27150737583631, 0
698, 0.38234963136953, 0.28077522090476, 0
699, 0.37733736104558, 0.29027372592083, 0
700, 0.38089917308399, 0.23549700409147, 0
701, 0.37585518430213, 0.24351415414047, 0
702, 0.37082906244287, 0.25189693509247, 0
703, 0.36578609940513, 0.26067628077332, 0
704, 0.36070792886087, 0.26986999355211, 0
705, 0.35558465113103, 0.27948626869942, 0
706, 0.35040626441895, 0.28952810673912, 0
707, 0.35397522312371, 0.23083683249678, 0
708, 0.34926180092325, 0.23886321278476, 0
709, 0.34437126256482, 0.24749046749498, 0
710, 0.33932260405418, 0.25673543485061, 0
711, 0.33413791994358, 0.2666046829891, 0
712, 0.32883647533955, 0.27709978164695, 0
713, 0.32342998410969, 0.28822525636497, 0
714, 0.32896296549602, 0.22152432160755, 0
715, 0.32401421591501, 0.23030800122124, 0
716, 0.31879894208779, 0.23990907379735, 0
717, 0.31339147602265, 0.25032554807682, 0
718, 0.30785012726192, 0.26154460133971, 0
719, 0.30221313442453, 0.2735542222082, 0
720, 0.29649664763866, 0.2863588530255, 0
721, 0.30647287290974, 0.20636431483681, 0
722, 0.30018969391729, 0.21704615293904, 0
723, 0.29392078757099, 0.2287286885147, 0
724, 0.28771104456199, 0.24131547713126, 0
725, 0.28158587675013, 0.25474796599281, 0
726, 0.27553773984778, 0.2689873835792, 0
727, 0.26952540217725, 0.28404290667967, 0
728, 0.28771508621157, 0.18423032689084, 0
729, 0.27724979393638, 0.19764670583129, 0
730, 0.26885124940652, 0.21354120909332, 0
731, 0.26151649257994, 0.22988142137028, 0
732, 0.25484792784139, 0.24664065254887, 0
733, 0.24860583670298, 0.26382610519674, 0
734, 0.24263726796043, 0.28154879414981, 0
******* E L E M E N T S *************
*ELEMENT, type=CPS4, ELSET=Surface1
1, 94, 699, 692, 86
2, 680, 512, 646, 445
3, 431, 213, 542, 437
4, 86, 692, 303, 7
5, 302, 569, 133, 175
6, 293, 627, 240, 682
7, 627, 380, 411, 240
8, 323, 25, 28, 302
9, 76, 69, 335, 332
10, 332, 335, 333, 252
11, 335, 334, 254, 333
12, 69, 77, 334, 335
13, 98, 91, 339, 336
14, 336, 339, 337, 209
15, 339, 338, 210, 337
16, 91, 99, 338, 339
17, 224, 342, 343, 340
18, 340, 343, 109, 120
19, 343, 341, 119, 109
20, 342, 231, 341, 343
21, 189, 346, 347, 344
22, 344, 347, 345, 192
23, 347, 13, 21, 345
24, 346, 20, 13, 347
25, 57, 47, 351, 348
26, 348, 351, 349, 285
27, 351, 350, 282, 349
28, 47, 58, 350, 351
29, 121, 111, 354, 352
30, 352, 354, 353, 188
31, 354, 10, 18, 353
32, 111, 1, 10, 354
33, 221, 357, 358, 355
34, 355, 358, 356, 223
35, 358, 105, 116, 356
36, 357, 115, 105, 358
37, 231, 360, 361, 341
38, 341, 361, 108, 119
39, 361, 359, 118, 108
40, 360, 234, 359, 361
41, 100, 93, 364, 362
42, 362, 364, 363, 208
43, 364, 101, 112, 363
44, 93, 8, 101, 364
45, 188, 353, 367, 365
46, 365, 367, 366, 190
47, 367, 11, 19, 366
48, 353, 18, 11, 367
49, 116, 106, 370, 356
50, 356, 370, 368, 223
51, 370, 369, 233, 368
52, 106, 117, 369, 370
53, 19, 12, 372, 366
54, 366, 372, 371, 190
55, 372, 346, 189, 371
56, 12, 20, 346, 372
57, 212, 374, 375, 373
58, 373, 375, 336, 209
59, 375, 90, 98, 336
60, 374, 97, 90, 375
61, 204, 377, 378, 376
62, 376, 378, 357, 221
63, 378, 104, 115, 357
64, 377, 114, 104, 378
65, 324, 311, 16, 24
66, 679, 559, 322, 675
67, 412, 626, 310, 330
68, 15, 293, 682, 22
69, 196, 383, 384, 381
70, 381, 384, 382, 197
71, 384, 35, 43, 382
72, 383, 42, 35, 384
73, 276, 387, 388, 385
74, 385, 388, 49, 60
75, 388, 386, 59, 49
76, 387, 275, 386, 388
77, 195, 513, 390, 316
78, 670, 491, 471, 413
79, 80, 413, 570, 72
80, 325, 524, 195, 512
81, 44, 37, 395, 393
82, 393, 395, 394, 198
83, 395, 45, 56, 394
84, 37, 4, 45, 395
85, 250, 397, 398, 396
86, 396, 398, 332, 252
87, 398, 68, 76, 332
88, 397, 75, 68, 398
89, 276, 385, 401, 399
90, 399, 401, 400, 272
91, 401, 50, 61, 400
92, 385, 60, 50, 401
93, 117, 107, 403, 369
94, 369, 403, 402, 233
95, 403, 359, 234, 402
96, 107, 118, 359, 403
97, 205, 405, 406, 404
98, 404, 406, 377, 204
99, 406, 103, 114, 377
100, 405, 113, 103, 406
101, 270, 409, 410, 407
102, 407, 410, 408, 246
103, 410, 52, 63, 408
104, 409, 62, 52, 410
105, 14, 193, 345, 21
106, 137, 171, 559, 679
107, 535, 229, 308, 626
108, 572, 532, 511, 582
109, 510, 150, 158, 469
110, 653, 469, 300, 287
111, 542, 391, 678, 594
112, 63, 53, 417, 408
113, 408, 417, 415, 246
114, 417, 416, 247, 415
115, 53, 64, 416, 417
116, 58, 48, 419, 350
117, 350, 419, 418, 282
118, 419, 386, 275, 418
119, 48, 59, 386, 419
120, 43, 36, 421, 382
121, 382, 421, 420, 197
122, 421, 393, 198, 420
123, 36, 44, 393, 421
124, 272, 400, 423, 422
125, 422, 423, 409, 270
126, 423, 51, 62, 409
127, 400, 61, 51, 423
128, 445, 646, 667, 286
129, 694, 693, 258, 687
130, 489, 389, 253, 424
131, 698, 697, 690, 691
132, 99, 92, 429, 338
133, 338, 429, 428, 210
134, 429, 362, 208, 428
135, 92, 100, 362, 429
136, 514, 437, 524, 325
137, 438, 653, 287, 328
138, 524, 594, 513, 195
139, 255, 427, 580, 490
140, 120, 110, 434, 340
141, 340, 434, 433, 224
142, 434, 352, 188, 433
143, 110, 121, 352, 434
144, 254, 334, 436, 435
145, 216, 438, 328, 326
146, 424, 253, 435, 436
147, 334, 77, 70, 436
148, 697, 696, 689, 690
149, 685, 149, 159, 262
150, 581, 261, 213, 431
151, 511, 215, 211, 214
152, 65, 55, 442, 440
153, 440, 442, 441, 251
154, 442, 66, 74, 441
155, 55, 5, 66, 442
156, 64, 54, 444, 416
157, 416, 444, 443, 247
158, 444, 440, 251, 443
159, 54, 65, 440, 444
160, 645, 260, 503, 531
161, 437, 542, 594, 524
162, 287, 300, 288, 532
163, 523, 572, 582, 668
164, 209, 337, 450, 447
165, 447, 450, 448, 207
166, 450, 449, 206, 448
167, 337, 210, 449, 450
168, 198, 394, 452, 451
169, 451, 452, 348, 285
170, 452, 46, 57, 348
171, 394, 56, 46, 452
172, 251, 441, 454, 453
173, 453, 454, 397, 250
174, 454, 67, 75, 397
175, 441, 74, 67, 454
176, 208, 363, 456, 455
177, 455, 456, 405, 205
178, 456, 102, 113, 405
179, 363, 112, 102, 456
180, 276, 399, 460, 457
181, 457, 460, 458, 278
182, 460, 459, 271, 458
183, 399, 272, 459, 460
184, 231, 463, 464, 360
185, 360, 464, 461, 234
186, 464, 462, 235, 461
187, 463, 230, 462, 464
188, 182, 127, 467, 465
189, 465, 467, 33, 41
190, 467, 466, 40, 33
191, 127, 181, 466, 467
192, 327, 523, 668, 583
193, 73, 670, 413, 80
194, 286, 667, 430, 491
195, 261, 414, 601, 213
196, 196, 472, 473, 383
197, 383, 473, 34, 42
198, 473, 465, 41, 34
199, 472, 182, 465, 473
200, 249, 476, 477, 474
201, 474, 477, 475, 242
202, 477, 333, 254, 475
203, 476, 252, 333, 477
204, 273, 480, 481, 478
205, 478, 481, 124, 184
206, 481, 479, 185, 124
207, 480, 279, 479, 481
208, 223, 484, 485, 355
209, 355, 485, 482, 221
210, 485, 483, 220, 482
211, 484, 222, 483, 485
212, 223, 368, 488, 484
213, 484, 488, 486, 222
214, 488, 487, 232, 486
215, 368, 233, 487, 488
216, 692, 691, 468, 303
217, 470, 160, 149, 685
218, 326, 328, 572, 523
219, 81, 304, 392, 6
220, 166, 143, 496, 493
221, 493, 496, 494, 217
222, 496, 495, 201, 494
223, 143, 165, 495, 496
224, 169, 140, 499, 497
225, 497, 499, 498, 236
226, 499, 306, 218, 498
227, 140, 168, 306, 499
228, 265, 305, 502, 500
229, 500, 502, 501, 266
230, 502, 153, 155, 501
231, 305, 156, 153, 502
232, 690, 689, 581, 259
233, 299, 317, 389, 489
234, 213, 601, 391, 542
235, 7, 303, 255, 83
236, 191, 679, 675, 641
237, 309, 618, 292, 380
238, 324, 683, 241, 311
239, 171, 138, 504, 559
240, 203, 506, 507, 505
241, 505, 507, 482, 220
242, 507, 376, 221, 482
243, 506, 204, 376, 507
244, 39, 32, 509, 508
245, 508, 509, 128, 180
246, 509, 466, 181, 128
247, 32, 40, 466, 509
248, 673, 262, 510, 571
249, 468, 259, 576, 427
250, 668, 582, 257, 260
251, 425, 243, 527, 426
252, 439, 583, 645, 317
253, 253, 525, 602, 435
254, 532, 288, 215, 511
255, 696, 695, 688, 689
256, 236, 516, 517, 497
257, 497, 517, 139, 169
258, 517, 515, 170, 139
259, 516, 239, 515, 517
260, 190, 371, 521, 518
261, 518, 521, 519, 225
262, 521, 520, 226, 519
263, 371, 189, 520, 521
264, 243, 305, 265, 527
265, 390, 571, 653, 438
266, 678, 685, 262, 673
267, 82, 526, 301, 84
268, 526, 492, 680, 301
269, 543, 425, 426, 432
270, 582, 511, 214, 257
271, 303, 468, 427, 255
272, 176, 529, 530, 132
273, 132, 530, 528, 177
274, 530, 294, 187, 528
275, 529, 29, 294, 530
276, 513, 673, 571, 390
277, 256, 432, 598, 596
278, 580, 514, 325, 492
279, 583, 668, 260, 645
280, 199, 522, 534, 533
281, 533, 534, 447, 207
282, 534, 373, 209, 447
283, 522, 212, 373, 534
284, 559, 504, 535, 322
285, 380, 292, 330, 411
286, 323, 302, 175, 134
287, 504, 549, 229, 535
288, 218, 307, 537, 536
289, 536, 537, 493, 217
290, 537, 142, 166, 493
291, 307, 167, 142, 537
292, 246, 540, 541, 407
293, 407, 541, 538, 270
294, 541, 539, 269, 538
295, 540, 245, 539, 541
296, 301, 680, 445, 304
297, 414, 446, 200, 601
298, 594, 678, 673, 513
299, 646, 316, 216, 667
300, 38, 545, 546, 30
301, 30, 546, 295, 3
302, 546, 544, 187, 295
303, 545, 179, 544, 546
304, 233, 402, 548, 487
305, 487, 548, 547, 232
306, 548, 461, 235, 547
307, 402, 234, 461, 548
308, 239, 551, 552, 515
309, 515, 552, 549, 170
310, 552, 550, 229, 549
311, 551, 228, 550, 552
312, 279, 553, 554, 479
313, 479, 554, 123, 185
314, 554, 291, 186, 123
315, 553, 280, 291, 554
316, 245, 557, 558, 539
317, 539, 558, 555, 269
318, 558, 556, 264, 555
319, 557, 244, 556, 558
320, 322, 535, 626, 412
321, 331, 310, 227, 565
322, 324, 24, 17, 560
323, 324, 173, 136, 683
324, 180, 129, 561, 508
325, 508, 561, 31, 39
326, 561, 545, 38, 31
327, 129, 179, 545, 561
328, 275, 387, 563, 562
329, 562, 563, 315, 274
330, 563, 457, 278, 315
331, 387, 276, 457, 563
332, 226, 520, 566, 564
333, 564, 566, 565, 227
334, 566, 344, 192, 565
335, 520, 189, 344, 566
336, 271, 459, 568, 567
337, 567, 568, 538, 269
338, 568, 422, 270, 538
339, 459, 272, 422, 568
340, 324, 560, 135, 173
341, 311, 312, 23, 16
342, 569, 529, 176, 133
343, 26, 29, 529, 569
344, 426, 527, 662, 595
345, 471, 327, 583, 439
346, 492, 325, 512, 680
347, 317, 645, 531, 389
348, 246, 415, 575, 540
349, 540, 575, 573, 245
350, 575, 574, 248, 573
351, 415, 247, 574, 575
352, 214, 211, 243, 425
353, 689, 688, 261, 581
354, 413, 471, 439, 570
355, 525, 256, 596, 602
356, 284, 578, 579, 577
357, 577, 579, 125, 183
358, 579, 478, 184, 125
359, 578, 273, 478, 579
360, 389, 531, 525, 253
361, 531, 503, 256, 525
362, 469, 158, 151, 300
363, 79, 299, 489, 71
364, 503, 543, 432, 256
365, 601, 200, 470, 391
366, 215, 152, 156, 211
367, 691, 690, 259, 468
368, 231, 342, 586, 463
369, 463, 586, 584, 230
370, 586, 585, 225, 584
371, 342, 224, 585, 586
372, 269, 555, 589, 567
373, 567, 589, 587, 271
374, 589, 588, 267, 587
375, 555, 264, 588, 589
376, 282, 418, 591, 590
377, 590, 591, 320, 281
378, 591, 562, 274, 320
379, 418, 275, 562, 591
380, 190, 518, 592, 365
381, 365, 592, 433, 188
382, 592, 585, 224, 433
383, 518, 225, 585, 592
384, 9, 154, 593, 122
385, 122, 593, 501, 155
386, 593, 289, 266, 501
387, 154, 186, 289, 593
388, 6, 392, 670, 73
389, 693, 162, 147, 258
390, 84, 301, 304, 81
391, 211, 156, 305, 243
392, 263, 597, 598, 595
393, 85, 490, 526, 82
394, 78, 424, 436, 70
395, 597, 242, 596, 598
396, 183, 126, 600, 577
397, 577, 600, 599, 284
398, 600, 472, 196, 599
399, 126, 182, 472, 600
400, 576, 431, 437, 514
401, 435, 602, 475, 254
402, 602, 596, 242, 475
403, 687, 258, 446, 414
404, 210, 428, 604, 449
405, 449, 604, 603, 206
406, 604, 455, 205, 603
407, 428, 208, 455, 604
408, 283, 606, 607, 605
409, 605, 607, 590, 281
410, 607, 349, 282, 590
411, 606, 285, 349, 607
412, 197, 420, 609, 608
413, 608, 609, 606, 283
414, 609, 451, 285, 606
415, 420, 198, 451, 609
416, 201, 612, 613, 494
417, 494, 613, 610, 217
418, 613, 611, 219, 610
419, 612, 202, 611, 613
420, 284, 599, 615, 614
421, 614, 615, 608, 283
422, 615, 381, 197, 608
423, 599, 196, 381, 615
424, 250, 616, 617, 453
425, 453, 617, 443, 251
426, 617, 574, 247, 443
427, 616, 248, 574, 617
428, 191, 172, 137, 679
429, 411, 330, 310, 331
430, 675, 322, 412, 618
431, 682, 240, 194, 193
432, 248, 616, 620, 619
433, 619, 620, 476, 249
434, 620, 396, 252, 476
435, 616, 250, 396, 620
436, 239, 622, 623, 551
437, 551, 623, 621, 228
438, 623, 462, 230, 621
439, 622, 235, 462, 623
440, 204, 506, 625, 404
441, 404, 625, 603, 205
442, 625, 624, 206, 603
443, 506, 203, 624, 625
444, 683, 136, 172, 191
445, 138, 170, 549, 504
446, 193, 194, 192, 345
447, 266, 290, 630, 500
448, 500, 630, 628, 265
449, 630, 629, 268, 628
450, 290, 280, 629, 630
451, 280, 553, 634, 631
452, 631, 634, 632, 267
453, 634, 633, 277, 632
454, 553, 279, 633, 634
455, 271, 587, 635, 458
456, 458, 635, 314, 278
457, 635, 632, 277, 314
458, 587, 267, 632, 635
459, 226, 636, 637, 519
460, 519, 637, 584, 225
461, 637, 621, 230, 584
462, 636, 228, 621, 637
463, 235, 622, 640, 547
464, 547, 640, 638, 232
465, 640, 639, 238, 638
466, 622, 239, 639, 640
467, 311, 241, 379, 312
468, 194, 331, 565, 192
469, 240, 411, 331, 194
470, 560, 17, 2, 329
471, 249, 642, 643, 619
472, 619, 643, 573, 248
473, 643, 557, 245, 573
474, 642, 244, 557, 643
475, 273, 319, 644, 480
476, 480, 644, 633, 279
477, 644, 313, 277, 633
478, 319, 274, 313, 644
479, 316, 390, 438, 216
480, 699, 698, 691, 692
481, 258, 147, 161, 446
482, 695, 694, 687, 688
483, 220, 648, 649, 505
484, 505, 649, 647, 203
485, 649, 611, 202, 647
486, 648, 219, 611, 649
487, 281, 321, 650, 605
488, 605, 650, 614, 283
489, 650, 578, 284, 614
490, 321, 273, 578, 650
491, 203, 647, 652, 624
492, 624, 652, 448, 206
493, 652, 651, 207, 448
494, 647, 202, 651, 652
495, 432, 426, 595, 598
496, 257, 214, 425, 543
497, 427, 576, 514, 580
498, 667, 216, 326, 430
499, 263, 656, 657, 654
500, 654, 657, 556, 244
501, 657, 655, 264, 556
502, 656, 268, 655, 657
503, 268, 629, 658, 655
504, 655, 658, 588, 264
505, 658, 631, 267, 588
506, 629, 280, 631, 658
507, 219, 296, 659, 610
508, 610, 659, 536, 217
509, 659, 498, 218, 536
510, 296, 236, 498, 659
511, 227, 308, 660, 564
512, 564, 660, 636, 226
513, 660, 550, 228, 636
514, 308, 229, 550, 660
515, 202, 612, 661, 651
516, 651, 661, 533, 207
517, 661, 318, 199, 533
518, 612, 201, 318, 661
519, 490, 580, 492, 526
520, 512, 195, 316, 646
521, 662, 656, 263, 595
522, 628, 268, 656, 662
523, 237, 664, 665, 663
524, 663, 665, 638, 238
525, 665, 486, 232, 638
526, 664, 222, 486, 665
527, 219, 648, 666, 298
528, 298, 666, 664, 237
529, 666, 483, 222, 664
530, 648, 220, 483, 666
531, 288, 157, 152, 215
532, 71, 489, 424, 78
533, 328, 287, 532, 572
534, 83, 255, 490, 85
535, 242, 597, 669, 474
536, 474, 669, 642, 249
537, 669, 654, 244, 642
538, 597, 263, 654, 669
539, 491, 430, 327, 471
540, 72, 570, 299, 79
541, 391, 470, 685, 678
542, 260, 257, 543, 503
543, 187, 544, 671, 528
544, 528, 671, 131, 177
545, 671, 130, 178, 131
546, 544, 179, 130, 671
547, 238, 639, 672, 663
548, 663, 672, 297, 237
549, 672, 516, 236, 297
550, 639, 239, 516, 672
551, 571, 510, 469, 653
552, 200, 148, 160, 470
553, 527, 265, 628, 662
554, 186, 291, 674, 289
555, 289, 674, 290, 266
556, 291, 280, 290, 674
557, 683, 191, 641, 241
558, 560, 329, 174, 135
559, 641, 675, 618, 309
560, 3, 295, 676, 27
561, 27, 676, 294, 29
562, 295, 187, 294, 676
563, 219, 298, 677, 296
564, 296, 677, 297, 236
565, 298, 237, 297, 677
566, 304, 445, 286, 392
567, 300, 151, 157, 288
568, 262, 159, 150, 510
569, 618, 412, 330, 292
570, 329, 2, 25, 323
571, 241, 641, 309, 379
572, 430, 326, 523, 327
573, 688, 687, 414, 261
574, 570, 439, 317, 299
575, 167, 307, 681, 141
576, 141, 681, 306, 168
577, 307, 218, 306, 681
578, 329, 323, 134, 174
579, 312, 379, 627, 293
580, 626, 308, 227, 310
581, 379, 309, 380, 627
582, 302, 28, 26, 569
583, 274, 315, 684, 313
584, 313, 684, 314, 277
585, 315, 278, 314, 684
586, 259, 581, 431, 576
587, 392, 286, 491, 670
588, 446, 161, 148, 200
589, 273, 321, 686, 319
590, 319, 686, 320, 274
591, 321, 281, 320, 686
592, 312, 293, 15, 23
593, 22, 682, 193, 14
594, 700, 146, 162, 693
595, 701, 700, 693, 694
596, 702, 701, 694, 695
597, 703, 702, 695, 696
598, 704, 703, 696, 697
599, 705, 704, 697, 698
600, 706, 705, 698, 699
601, 87, 706, 699, 94
602, 707, 163, 146, 700
603, 708, 707, 700, 701
604, 709, 708, 701, 702
605, 710, 709, 702, 703
606, 711, 710, 703, 704
607, 712, 711, 704, 705
608, 713, 712, 705, 706
609, 95, 713, 706, 87
610, 714, 145, 163, 707
611, 715, 714, 707, 708
612, 716, 715, 708, 709
613, 717, 716, 709, 710
614, 718, 717, 710, 711
615, 719, 718, 711, 712
616, 720, 719, 712, 713
617, 88, 720, 713, 95
618, 721, 164, 145, 714
619, 722, 721, 714, 715
620, 723, 722, 715, 716
621, 724, 723, 716, 717
622, 725, 724, 717, 718
623, 726, 725, 718, 719
624, 727, 726, 719, 720
625, 96, 727, 720, 88
626, 728, 144, 164, 721
627, 729, 728, 721, 722
628, 730, 729, 722, 723
629, 731, 730, 723, 724
630, 732, 731, 724, 725
631, 733, 732, 725, 726
632, 734, 733, 726, 727
633, 89, 734, 727, 96
634, 495, 165, 144, 728
635, 201, 495, 728, 729
636, 318, 201, 729, 730
637, 199, 318, 730, 731
638, 522, 199, 731, 732
639, 212, 522, 732, 733
640, 374, 212, 733, 734
641, 97, 374, 734, 89
*ELSET,ELSET=contact_source
99, 100, 101, 102, 103, 104, 105, 106, 107, 108, 
109, 110, 111, 112, 113, 114, 115, 116, 117, 118, 
119, 120, 
*ELSET,ELSET=contact_drain
39, 40, 41, 42, 43, 44, 45, 46, 47, 48, 
49, 50, 51, 52, 53, 54, 55, 56, 57, 58, 
59, 60, 
*ELSET,ELSET=probe_A
77, 78, 79, 80, 81, 82, 
*ELSET,ELSET=probe_B
17, 18, 19, 20, 21, 22, 
*ELSET,ELSET=walls
1, 2, 3, 4, 5, 6, 7, 8, 9, 10, 
11, 12, 13, 14, 15, 16, 23, 24, 25, 26, 
27, 28, 29, 30, 31, 32, 33, 34, 35, 36, 
37, 38, 61, 62, 63, 64, 65, 66, 67, 68, 
69, 70, 71, 72, 73, 74, 75, 76, 83, 84, 
85, 86, 87, 88, 89, 90, 91, 92, 93, 94, 
95, 96, 97, 98, 121, 122, 123, 124, 125, 126, 
127, 128, 129, 130, 131, 132, 133, 134, 135, 136, 
137, 138, 139, 140, 141, 142, 143, 144, 145, 146, 
147, 148, 149, 150, 151, 152, 153, 154, 155, 156, 
157, 158, 159, 160, 161, 162, 163, 164, 165, 166, 
167, 168, 169, 170, 171, 172, 173, 174, 175, 176, 
177, 178, 179, 180, 181, 182, 183, 184, 185, 186, 
*ELSET,ELSET=domain
187, 188, 189, 190, 191, 192, 193, 194, 195, 196, 
197, 198, 199, 200, 201, 202, 203, 204, 205, 206, 
207, 208, 209, 210, 211, 212, 213, 214, 215, 216, 
217, 218, 219, 220, 221, 222, 223, 224, 225, 226, 
227, 228, 229, 230, 231, 232, 233, 234, 235, 236, 
237, 238, 239, 240, 241, 242, 243, 244, 245, 246, 
247, 248, 249, 250, 251, 252, 253, 254, 255, 256, 
257, 258, 259, 260, 261, 262, 263, 264, 265, 266, 
267, 268, 269, 270, 271, 272, 273, 274, 275, 276, 
277, 278, 279, 280, 281, 282, 283, 284, 285, 286, 
287, 288, 289, 290, 291, 292, 293, 294, 295, 296, 
297, 298, 299, 300, 301, 302, 303, 304, 305, 306, 
307, 308, 309, 310, 311, 312, 313, 314, 315, 316, 
317, 318, 319, 320, 321, 322, 323, 324, 325, 326, 
327, 328, 329, 330, 331, 332, 333, 334, 335, 336, 
337, 338, 339, 340, 341, 342, 343, 344, 345, 346, 
347, 348, 349, 350, 351, 352, 353, 354, 355, 356, 
357, 358, 359, 360, 361, 362, 363, 364, 365, 366, 
367, 368, 369, 370, 371, 372, 373, 374, 375, 376, 
377, 378, 379, 380, 381, 382, 383, 384, 385, 386, 
387, 388, 389, 390, 391, 392, 393, 394, 395, 396, 
397, 398, 399, 400, 401, 402, 403, 404, 405, 406, 
407, 408, 409, 410, 411, 412, 413, 414, 415, 416, 
417, 418, 419, 420, 421, 422, 423, 424, 425, 426, 
427, 428, 429, 430, 431, 432, 433, 434, 435, 436, 
437, 438, 439, 440, 441, 442, 443, 444, 445, 446, 
447, 448, 449, 450, 451, 452, 453, 454, 455, 456, 
457, 458, 459, 460, 461, 462, 463, 464, 465, 466, 
467, 468, 469, 470, 471, 472, 473, 474, 475, 476, 
477, 478, 479, 480, 481, 482, 483, 484, 485, 486, 
487, 488, 489, 490, 491, 492, 493, 494, 495, 496, 
497, 498, 499, 500, 501, 502, 503, 504, 505, 506, 
507, 508, 509, 510, 511, 512, 513, 514, 515, 516, 
517, 518, 519, 520, 521, 522, 523, 524, 525, 526, 
527, 528, 529, 530, 531, 532, 533, 534, 535, 536, 
537, 538, 539, 540, 541, 542, 543, 544, 545, 546, 
547, 548, 549, 550, 551, 552, 553, 554, 555, 556, 
557, 558, 559, 560, 561, 562, 563, 564, 565, 566, 
567, 568, 569, 570, 571, 572, 573, 574, 575, 576, 
577, 578, 579, 580, 581, 582, 583, 584, 585, 586, 
587, 588, 589, 590, 591, 592, 593, 594, 595, 596, 
597, 598, 599, 600, 601, 602, 603, 604, 605, 606, 
607, 608, 609, 610, 611, 612, 613, 614, 615, 616, 
617, 618, 619, 620, 621, 622, 623, 624, 625, 626, 
627, 628, 629, 630, 631, 632, 633, 634, 635, 636, 
637, 638, 639, 640, 641, 642, 643, 644, 645, 646, 
647, 648, 649, 650, 651, 652, 653, 654, 655, 656, 
657, 658, 659, 660, 661, 662, 663, 664, 665, 666, 
667, 668, 669, 670, 671, 672, 673, 674, 675, 676, 
677, 678, 679, 680, 681, 682, 683, 684, 685, 686, 
687, 688, 689, 690, 691, 692, 693, 694, 695, 696, 
697, 698, 699, 700, 701, 702, 703, 704, 705, 706, 
707, 708, 709, 710, 711, 712, 713, 714, 715, 716, 
717, 718, 719, 720, 721, 722, 723, 724, 725, 726, 
727, 728, 729, 730, 731, 732, 733, 734, 735, 736, 
737, 738, 739, 740, 741, 742, 743, 744, 745, 746, 
747, 748, 749, 750, 751, 752, 753, 754, 755, 756, 
757, 758, 759, 760, 761, 762, 763, 764, 765, 766, 
767, 768, 769, 770, 771, 772, 773, 774, 775, 776, 
777, 778, 779, 780, 781, 782, 783, 784, 785, 786, 
787, 788, 789, 790, 791, 792, 793, 794, 795, 796, 
797, 798, 799, 800, 801, 802, 803, 804, 805, 806, 
807, 808, 809, 810, 811, 812, 813, 814, 815, 816, 
817, 818, 819, 820, 821, 822, 823, 824, 825, 826, 
827, 
*NSET,NSET=contact_source
1, 8, 101, 102, 103, 104, 105, 106, 107, 108, 
109, 110, 111, 112, 113, 114, 115, 116, 117, 118, 
119, 120, 121, 
*NSET,NSET=contact_drain
4, 5, 45, 46, 47, 48, 49, 50, 51, 52, 
53, 54, 55, 56, 57, 58, 59, 60, 61, 62, 
63, 64, 65, 
*NSET,NSET=probe_A
6, 7, 81, 82, 83, 84, 85, 
*NSET,NSET=probe_B
2, 3, 25, 26, 27, 28, 29, 
*NSET,NSET=walls
1, 2, 3, 4, 5, 6, 7, 8, 9, 10, 
11, 12, 13, 14, 15, 16, 17, 18, 19, 20, 
21, 22, 23, 24, 30, 31, 32, 33, 34, 35, 
36, 37, 38, 39, 40, 41, 42, 43, 44, 66, 
67, 68, 69, 70, 71, 72, 73, 74, 75, 76, 
77, 78, 79, 80, 86, 87, 88, 89, 90, 91, 
92, 93, 94, 95, 96, 97, 98, 99, 100, 122, 
123, 124, 125, 126, 127, 128, 129, 130, 131, 132, 
133, 134, 135, 136, 137, 138, 139, 140, 141, 142, 
143, 144, 145, 146, 147, 148, 149, 150, 151, 152, 
153, 154, 155, 156, 157, 158, 159, 160, 161, 162, 
163, 164, 165, 166, 167, 168, 169, 170, 171, 172, 
173, 174, 175, 176, 177, 178, 179, 180, 181, 182, 
183, 184, 185, 186, 
*NSET,NSET=domain
1, 2, 3, 4, 5, 6, 7, 8, 9, 10, 
11, 12, 13, 14, 15, 16, 17, 18, 19, 20, 
21, 22, 23, 24, 25, 26, 27, 28, 29, 30, 
31, 32, 33, 34, 35, 36, 37, 38, 39, 40, 
41, 42, 43, 44, 45, 46, 47, 48, 49, 50, 
51, 52, 53, 54, 55, 56, 57, 58, 59, 60, 
61, 62, 63, 64, 65, 66, 67, 68, 69, 70, 
71, 72, 73, 74, 75, 76, 77, 78, 79, 80, 
81, 82, 83, 84, 85, 86, 87, 88, 89, 90, 
91, 92, 93, 94, 95, 96, 97, 98, 99, 100, 
101, 102, 103, 104, 105, 106, 107, 108, 109, 110, 
111, 112, 113, 114, 115, 116, 117, 118, 119, 120, 
121, 122, 123, 124, 125, 126, 127, 128, 129, 130, 
131, 132, 133, 134, 135, 136, 137, 138, 139, 140, 
141, 142, 143, 144, 145, 146, 147, 148, 149, 150, 
151, 152, 153, 154, 155, 156, 157, 158, 159, 160, 
161, 162, 163, 164, 165, 166, 167, 168, 169, 170, 
171, 172, 173, 174, 175, 176, 177, 178, 179, 180, 
181, 182, 183, 184, 185, 186, 187, 188, 189, 190, 
191, 192, 193, 194, 195, 196, 197, 198, 199, 200, 
201, 202, 203, 204, 205, 206, 207, 208, 209, 210, 
211, 212, 213, 214, 215, 216, 217, 218, 219, 220, 
221, 222, 223, 224, 225, 226, 227, 228, 229, 230, 
231, 232, 233, 234, 235, 236, 237, 238, 239, 240, 
241, 242, 243, 244, 245, 246, 247, 248, 249, 250, 
251, 252, 253, 254, 255, 256, 257, 258, 259, 260, 
261, 262, 263, 264, 265, 266, 267, 268, 269, 270, 
271, 272, 273, 274, 275, 276, 277, 278, 279, 280, 
281, 282, 283, 284, 285, 286, 287, 288, 289, 290, 
291, 292, 293, 294, 295, 296, 297, 298, 299, 300, 
301, 302, 303, 304, 305, 306, 307, 308, 309, 310, 
311, 312, 313, 314, 315, 316, 317, 318, 319, 320, 
321, 322, 323, 324, 325, 326, 327, 328, 329, 330, 
331, 332, 333, 334, 335, 336, 337, 338, 339, 340, 
341, 342, 343, 344, 345, 346, 347, 348, 349, 350, 
351, 352, 353, 354, 355, 356, 357, 358, 359, 360, 
361, 362, 363, 364, 365, 366, 367, 368, 369, 370, 
371, 372, 373, 374, 375, 376, 377, 378, 379, 380, 
381, 382, 383, 384, 385, 386, 387, 388, 389, 390, 
391, 392, 393, 394, 395, 396, 397, 398, 399, 400, 
401, 402, 403, 404, 405, 406, 407, 408, 409, 410, 
411, 412, 413, 414, 415, 416, 417, 418, 419, 420, 
421, 422, 423, 424, 425, 426, 427, 428, 429, 430, 
431, 432, 433, 434, 435, 436, 437, 438, 439, 440, 
441, 442, 443, 444, 445, 446, 447, 448, 449, 450, 
451, 452, 453, 454, 455, 456, 457, 458, 459, 460, 
461, 462, 463, 464, 465, 466, 467, 468, 469, 470, 
471, 472, 473, 474, 475, 476, 477, 478, 479, 480, 
481, 482, 483, 484, 485, 486, 487, 488, 489, 490, 
491, 492, 493, 494, 495, 496, 497, 498, 499, 500, 
501, 502, 503, 504, 505, 506, 507, 508, 509, 510, 
511, 512, 513, 514, 515, 516, 517, 518, 519, 520, 
521, 522, 523, 524, 525, 526, 527, 528, 529, 530, 
531, 532, 533, 534, 535, 536, 537, 538, 539, 540, 
541, 542, 543, 544, 545, 546, 547, 548, 549, 550, 
551, 552, 553, 554, 555, 556, 557, 558, 559, 560, 
561, 562, 563, 564, 565, 566, 567, 568, 569, 570, 
571, 572, 573, 574, 575, 576, 577, 578, 579, 580, 
581, 582, 583, 584, 585, 586, 587, 588, 589, 590, 
591, 592, 593, 594, 595, 596, 597, 598, 599, 600, 
601, 602, 603, 604, 605, 606, 607, 608, 609, 610, 
611, 612, 613, 614, 615, 616, 617, 618, 619, 620, 
621, 622, 623, 624, 625, 626, 627, 628, 629, 630, 
631, 632, 633, 634, 635, 636, 637, 638, 639, 640, 
641, 642, 643, 644, 645, 646, 647, 648, 649, 650, 
651, 652, 653, 654, 655, 656, 657, 658, 659, 660, 
661, 662, 663, 664, 665, 666, 667, 668, 669, 670, 
671, 672, 673, 674, 675, 676, 677, 678, 679, 680, 
681, 682, 683, 684, 685, 686, 687, 688, 689, 690, 
691, 692, 693, 694, 695, 696, 697, 698, 699, 700, 
701, 702, 703, 704, 705, 706, 707, 708, 709, 710, 
711, 712, 713, 714, 715, 716, 717, 718, 719, 720, 
721, 722, 723, 724, 725, 726, 727, 728, 729, 730, 
731, 732, 733, 734, 
