*Heading
 /Users/juliagao/geometry-optimization-net/scripts/../runs/run2/shape_13.inp
*NODE
1, 0, -0.3, 0
2, 0.425, -0.3, 0
3, 0.575, -0.3, 0
4, 1, -0.3, 0
5, 1, 0.3, 0
6, 0.575, 0.3, 0
7, 0.425, 0.3, 0
8, 0, 0.3, 0
9, 0.6424687978, -0.010299272, 0
10, 0.02635234361153, -0.3, 0
11, 0.079066197647369, -0.3, 0
12, 0.13197058563438, -0.3, 0
13, 0.18567603617325, -0.3, 0
14, 0.23989648264155, -0.3, 0
15, 0.29354086422516, -0.3, 0
16, 0.34655184675964, -0.3, 0
17, 0.39898816060132, -0.3, 0
18, 0.052704687223061, -0.3, 0
19, 0.10542770807168, -0.3, 0
20, 0.15851346319708, -0.3, 0
21, 0.21283860914942, -0.3, 0
22, 0.26695435613368, -0.3, 0
23, 0.32012737231664, -0.3, 0
24, 0.37297632120264, -0.3, 0
25, 0.45003199244554, -0.3, 0
26, 0.49987936003322, -0.3, 0
27, 0.54984736758768, -0.3, 0
28, 0.47506398489107, -0.3, 0
29, 0.52469473517536, -0.3, 0
30, 0.60120825864287, -0.3, 0
31, 0.65432363541226, -0.3, 0
32, 0.70834044602365, -0.3, 0
33, 0.76233059029841, -0.3, 0
34, 0.81549126192722, -0.3, 0
35, 0.86811042561119, -0.3, 0
36, 0.92098957504609, -0.3, 0
37, 0.97376489031799, -0.3, 0
38, 0.62741651728574, -0.3, 0
39, 0.68123075353877, -0.3, 0
40, 0.73545013850853, -0.3, 0
41, 0.78921104208828, -0.3, 0
42, 0.84177148176616, -0.3, 0
43, 0.89444936945621, -0.3, 0
44, 0.94752978063597, -0.3, 0
45, 1, -0.27438256505951, 0
46, 1, -0.22267005286717, 0
47, 1, -0.16979275608306, 0
48, 1, -0.11557514102156, 0
49, 1, -0.059899953559518, 0
50, 1, -0.0028817351962914, 0
51, 1, 0.054602970865535, 0
52, 1, 0.1116346819259, 0
53, 1, 0.16774442635179, 0
54, 1, 0.22219017875952, 0
55, 1, 0.27442580908516, 0
56, 1, -0.24876513011901, 0
57, 1, -0.19657497561532, 0
58, 1, -0.14301053655081, 0
59, 1, -0.088139745492323, 0
60, 1, -0.031660161626712, 0
61, 1, 0.02589669123413, 0
62, 1, 0.083309250496941, 0
63, 1, 0.13996011335487, 0
64, 1, 0.19552873934872, 0
65, 1, 0.24885161817032, 0
66, 0.97417686458398, 0.3, 0
67, 0.92158404561421, 0.3, 0
68, 0.86713382068066, 0.3, 0
69, 0.81195817911746, 0.3, 0
70, 0.75747087553018, 0.3, 0
71, 0.70375168180303, 0.3, 0
72, 0.6509685018361, 0.3, 0
73, 0.59995615609622, 0.3, 0
74, 0.94835372916796, 0.3, 0
75, 0.89481436206046, 0.3, 0
76, 0.83945327930087, 0.3, 0
77, 0.78446307893406, 0.3, 0
78, 0.7304786721263, 0.3, 0
79, 0.67702469147976, 0.3, 0
80, 0.62491231219243, 0.3, 0
81, 0.55001636291658, 0.3, 0
82, 0.50012524111824, 0.3, 0
83, 0.45010887820166, 0.3, 0
84, 0.52503272583316, 0.3, 0
85, 0.47521775640332, 0.3, 0
86, 0.39887913885995, 0.3, 0
87, 0.34524624561648, 0.3, 0
88, 0.29031212392441, 0.3, 0
89, 0.23583234455183, 0.3, 0
90, 0.1820384984902, 0.3, 0
91, 0.12867570392181, 0.3, 0
92, 0.076166484230574, 0.3, 0
93, 0.025141951415016, 0.3, 0
94, 0.3727582777199, 0.3, 0
95, 0.31773421351305, 0.3, 0
96, 0.26289003433576, 0.3, 0
97, 0.2087746547679, 0.3, 0
98, 0.1553023422125, 0.3, 0
99, 0.10204906563112, 0.3, 0
100, 0.050283902830032, 0.3, 0
101, 0, 0.27473071549703, 0
102, 0, 0.22290021764039, 0
103, 0, 0.16868682629249, 0
104, 0, 0.11338442447883, 0
105, 0, 0.058212470256831, 0
106, 0, 0.0032626219584502, 0
107, 0, -0.052272654576198, 0
108, 0, -0.10892572838316, 0
109, 0, -0.16560094617203, 0
110, 0, -0.22072559242191, 0
111, 0, -0.27386046802552, 0
112, 0, 0.24946143099406, 0
113, 0, 0.19633900428672, 0
114, 0, 0.14103464829826, 0
115, 0, 0.0857342006594, 0
116, 0, 0.030690739854262, 0
117, 0, -0.024165495937361, 0
118, 0, -0.080379813215035, 0
119, 0, -0.13747164355128, 0
120, 0, -0.19373024879279, 0
121, 0, -0.24772093605103, 0
122, 0.64949047272901, 0.016963251862606, 0
123, 0.66166285759928, -0.089036256868857, 0
124, 0.62363423534552, -0.1227161924396, 0
125, 0.57357310189046, -0.13416466075289, 0
126, 0.5414217625615, -0.17420541552173, 0
127, 0.49724736743377, -0.19850560110879, 0
128, 0.45598165292293, -0.16987908875216, 0
129, 0.42178970319272, -0.13205517610352, 0
130, 0.37176218502416, -0.12419663478436, 0
131, 0.3350077275831, -0.091123140225073, 0
132, 0.34687690211408, -0.043489533450572, 0
133, 0.36144986556073, 0.003530251119135, 0
134, 0.3443283973254, 0.049629541674016, 0
135, 0.36171238209336, 0.095240559344228, 0
136, 0.40978621568902, 0.10702112926743, 0
137, 0.45145281052333, 0.13357976355989, 0
138, 0.48903016193043, 0.16630293200238, 0
139, 0.53548794746651, 0.15216962276185, 0
140, 0.56839343442945, 0.11449083662278, 0
141, 0.61843195217464, 0.10195726972676, 0
142, 0.65903101305787, 0.069950559270763, 0
143, 0.65040762014259, -0.037057809064266, 0
144, 0.65878214185178, 0.043288868004546, 0
145, 0.64292290831082, 0.092127324710678, 0
146, 0.59265979263659, 0.10594316694426, 0
147, 0.55143414036676, 0.1330821855836, 0
148, 0.51446252058886, 0.16610801620223, 0
149, 0.46813664782267, 0.15299616603188, 0
150, 0.43387024474347, 0.11485678996302, 0
151, 0.38510949718162, 0.1037254570037, 0
152, 0.34534194479226, 0.075421029579411, 0
153, 0.35252257078869, 0.025701734789286, 0
154, 0.35870960025349, -0.021721588148126, 0
155, 0.33694772288874, -0.066292261302257, 0
156, 0.3480864644152, -0.11317149439566, 0
157, 0.39724461299794, -0.12782554316251, 0
158, 0.44155057195836, -0.14886065259208, 0
159, 0.4735281734039, -0.18860591693162, 0
160, 0.52234686674194, -0.19196582293559, 0
161, 0.55621222447455, -0.15303059315775, 0
162, 0.59819161510234, -0.12695053975174, 0
163, 0.64740971748979, -0.11184378379721, 0
164, 0.66027372381018, -0.062966420249963, 0
165, 0.39612697004521, 0.21207637165207, 0
166, 0.1262955233097, -0.054977826697863, 0
167, 0.10168090550126, -0.081980388145072, 0
168, 0.49870200130626, -0.24172189204003, 0
169, 0.47469804354579, -0.25426219889819, 0
170, 0.10042929503772, -0.00039090225896991, 0
171, 0.050639864443197, -0.053680714171381, 0
172, 0.20450011824255, -0.10931525635202, 0
173, 0.57120772808035, 0.25363230658243, 0
174, 0.70967583804002, -0.0084352124340959, 0
175, 0.5232463543487, -0.25463571828166, 0
176, 0.26592592106587, -0.24869561190303, 0
177, 0.42599326310172, -0.24704199975858, 0
178, 0.73015589241717, -0.25336794835568, 0
179, 0.78418216178368, -0.25146208798948, 0
180, 0.22503171492369, 0.095460070417801, 0
181, 0.36977716027655, 0.20850320351017, 0
182, 0.2857769451017, 0.17495156600136, 0
183, 0.051054561631649, 0.21991342591861, 0
184, 0.22764083130118, 0.12269357136704, 0
185, 0.37081162852712, 0.17460678974239, 0
186, 0.23335831418476, 0.21058250163818, 0
187, 0.32154004880747, 0.059791807801545, 0
188, 0.17846671542647, 0.15697575439317, 0
189, 0.44720813397941, 0.24768931464587, 0
190, 0.05069623863769, 0.13805360829885, 0
191, 0.446980930283, 0.16631572406556, 0
192, 0.025481835031451, 0.19437519363019, 0
193, 0.17593464152159, 0.10198577321495, 0
194, 0.10179561354966, 0.16248179430024, 0
195, 0.47356999051302, 0.27507609227814, 0
196, 0.20770572010881, 0.24149023080792, 0
197, 0.28970989314456, 0.038282957857335, 0
198, 0.4686147794334, 0.17745226884584, 0
199, 0.15031726303992, 0.077400406662996, 0
200, 0.19898828466792, 0.073030671679055, 0
201, 0.24368806250202, 0.022714145807654, 0
202, 0.19791094340766, 0.0228144076564, 0
203, 0.24534259666049, 0.065522728467072, 0
204, 0.14973658538284, 0.024582814559682, 0
205, 0.10059088421254, 0.08057736446418, 0
206, 0.050389502236767, 0.083262258402629, 0
207, 0.050276674402831, 0.028622391606383, 0
208, 0.1003080805384, 0.026586348066659, 0
209, 0.54323091375102, -0.19129369279408, 0
210, 0.67884039072538, -0.27808549641552, 0
211, 0.025988025713011, -0.19273956328939, 0
212, 0.10228550651949, -0.10941984760671, 0
213, 0.17444877040136, -0.0022836331936075, 0
214, 0.026102390506979, -0.21996022669277, 0
215, 0.49772873921092, -0.20712422667737, 0
216, 0.050451552196023, -0.026112895843936, 0
217, 0.13174075829265, -0.27307261582763, 0
218, 0.61872116280806, -0.22001978695192, 0
219, 0.12951790651452, -0.16438363984422, 0
220, 0.54648060690014, -0.2365774789853, 0
221, 0.17627659834341, -0.055166881299028, 0
222, 0.025234857320825, -0.025255049904496, 0
223, 0.29269905186868, -0.19788028218489, 0
224, 0.31863357279551, -0.070692559367854, 0
225, 0.39940790937965, -0.28082997785218, 0
226, 0.25534861687691, -0.10804456726945, 0
227, 0.57167632405251, -0.24830227261474, 0
228, 0.40474644860862, -0.20253785524267, 0
229, 0.52426533337361, -0.28460259018849, 0
230, 0.02619996798248, -0.2469204789561, 0
231, 0.58258683213776, -0.16283516043228, 0
232, 0.45083346641919, -0.23542621696508, 0
233, 0.07591940312179, -0.054212893964757, 0
234, 0.77794736412556, 0.19680533282592, 0
235, 0.72263170475214, 0.19844583125159, 0
236, 0.77407116881654, 0.14486074730387, 0
237, 0.83023553209956, 0.14295394148959, 0
238, 0.88655104186672, 0.14113267458859, 0
239, 0.94320578245064, 0.13997327450682, 0
240, 0.83349745036298, 0.19554201383043, 0
241, 0.8891189316789, 0.19461837707156, 0
242, 0.94463974899397, 0.19436350211156, 0
243, 0.94615084887056, 0.24761962975981, 0
244, 0.89164440273341, 0.24750566231508, 0
245, 0.83655505029762, 0.24786427434437, 0
246, 0.78151567146419, 0.24848269393727, 0
247, 0.72699976957073, 0.2493553859362, 0
248, 0.66813433154578, 0.20098105117991, 0
249, 0.67339712151623, 0.25061837347069, 0
250, 0.54412707494068, 0.15683589128828, 0
251, 0.62142169085473, 0.25227621974624, 0
252, 0.5216418697109, 0.25325255092859, 0
253, 0.61610179552486, 0.20495731982682, 0
254, 0.51830513046974, 0.20844430169222, 0
255, 0.60160524728264, 0.13299785535515, 0
256, 0.54165594384349, 0.18932952338777, 0
257, 0.71748909077284, 0.14683051414739, 0
258, 0.66022627145434, 0.14997308999055, 0
259, 0.71306534682422, 0.094464065368398, 0
260, 0.71159271669884, 0.042828886751904, 0
261, 0.77040197473437, 0.092915013470176, 0
262, 0.82663674284357, 0.090330371518494, 0
263, 0.76736313535441, 0.041742355355061, 0
264, 0.82229307848882, 0.038516216893157, 0
265, 0.88348855465395, 0.087008853178565, 0
266, 0.94154681660326, 0.084518518113592, 0
267, 0.93952746200881, 0.027799259708965, 0
268, 0.87898269767757, 0.031820985022509, 0
269, 0.94003069556619, -0.088253182297869, 0
270, 0.88000450595346, -0.091875124521337, 0
271, 0.93812041372328, -0.030573144550842, 0
272, 0.86805742379716, -0.030414215796281, 0
273, 0.82401211878443, -0.099372022777364, 0
274, 0.76987951079761, -0.10451816752318, 0
275, 0.76632426262087, -0.055961542556308, 0
276, 0.81737567137644, -0.051953437416907, 0
277, 0.8167967142835, -0.0097635175045689, 0
278, 0.76532170979269, -0.0078413363731512, 0
279, 0.71209733902075, -0.059025733115841, 0
280, 0.71435037328558, -0.10880306291665, 0
281, 0.34699369201721, -0.27778082558966, 0
282, 0.57414184036443, -0.28268251688826, 0
283, 0.20264480873563, -0.081833844534403, 0
284, 0.49899129289615, -0.25547977231257, 0
285, 0.94240033022179, -0.14324914722381, 0
286, 0.88524900549412, -0.14557879235546, 0
287, 0.8294376638314, -0.14954116968396, 0
288, 0.77446091163491, -0.15370277780895, 0
289, 0.71902710669388, -0.15823959660579, 0
290, 0.72472899916036, -0.20636242597975, 0
291, 0.77934346883567, -0.20277614733749, 0
292, 0.88888457926175, -0.19769897567801, 0
293, 0.83395106953923, -0.19993704630092, 0
294, 0.83798438782961, -0.25005213294302, 0
295, 0.89185552656784, -0.24903416220554, 0
296, 0.9443249664819, -0.19644845113753, 0
297, 0.94593439606626, -0.24852174881324, 0
298, 0.26564663383255, 0.025574364967591, 0
299, 0.24193706372425, 0.044062535710535, 0
300, 0.26722985513197, 0.058269041926067, 0
301, 0.15231198109573, -0.082246015432581, 0
302, 0.40004107713922, -0.26161841166312, 0
303, 0.19861005594462, -0.0025218058207399, 0
304, 0.67632074319135, -0.25616916315607, 0
305, 0.40250667096364, -0.22265022790644, 0
306, 0.34858218529237, -0.2326016330588, 0
307, 0.84137390843694, -0.047152791476954, 0
308, 0.81461830024902, -0.03093833419307, 0
309, 0.84104636933278, -0.014008225217594, 0
310, 0.28944839189208, 0.26945496612438, 0
311, 0.025351424786636, 0.27404518119713, 0
312, 0.34253848095083, 0.20630529614983, 0
313, 0.026281392242203, -0.27351713619847, 0
314, 0.17753250607771, -0.082172397680393, 0
315, 0.32134324722016, -0.097283661533204, 0
316, 0.66700063368523, -0.18872354472138, 0
317, 0.21077539725062, -0.21995824164665, 0
318, 0.076295258660516, -0.081712894796672, 0
319, 0.52227455176003, -0.227058142203, 0
320, 0.076313323508384, 0.16398460434529, 0
321, 0.26135162933918, 0.23943249574927, 0
322, 0.17958103765461, 0.18524527094936, 0
323, 0.59975025432903, -0.2813974256389, 0
324, 0.26533479698859, -0.22234769884491, 0
325, 0.24818368845623, -0.026530741339123, 0
326, 0.42156916207442, 0.21653054505665, 0
327, 0.52377043261908, -0.26941595139526, 0
328, 0.19970333728874, -0.028400669143358, 0
329, 0.54292431280088, 0.20961380638426, 0
330, 0.56482651034165, 0.18792278782207, 0
331, 0.18118796251678, 0.24248777361487, 0
332, 0.52333992555081, 0.27652048833555, 0
333, 0.49687118264577, 0.25208691963965, 0
334, 0.49847463866631, 0.27596270493903, 0
335, 0.43444055703054, -0.17281978849282, 0
336, 0.2932675031803, -0.25033275294271, 0
337, 0.025577240588638, -0.10905005204821, 0
338, 0.13025598008515, -0.19174081376864, 0
339, 0.052412897585733, -0.24646351951222, 0
340, 0.52192478694418, -0.20298272399697, 0
341, 0.45348545759522, -0.1881068854952, 0
342, 0.10409421472639, -0.19174458089912, 0
343, 0.02520659279776, 0.084519553052578, 0
344, 0.4222166056926, 0.18689428252732, 0
345, 0.27304497012205, 0.082779161240543, 0
346, 0.05085919358643, 0.16546805562252, 0
347, 0.078889080807505, -0.27314030206045, 0
348, 0.70315729684715, -0.25462262178334, 0
349, 0.73278403542864, -0.27667968011326, 0
350, 0.70577151573759, -0.27731064846263, 0
351, 0.62142156359143, -0.24033360089582, 0
352, 0.36371114542972, -0.14073144959121, 0
353, 0.45018167063483, -0.26732822075589, 0
354, 0.20969520285016, -0.19266460927281, 0
355, 0.89320441250208, -0.27453562281951, 0
356, 0.91888066464255, -0.24870332180621, 0
357, 0.94670126228556, -0.27429776336653, 0
358, 0.91994934847221, -0.27437996623164, 0
359, 0.025175818947355, 0.0022470242826447, 0
360, 0.32569329620092, 0.0048229419999065, 0
361, 0.051151723410863, -0.1091743374939, 0
362, 0.12570684991867, -0.027970302372309, 0
363, 0.47079353786615, 0.2255344943489, 0
364, 0.15195823989372, 0.13146045176694, 0
365, 0.076549287393892, 0.1913787066704, 0
366, 0.39630369157302, 0.24222289744244, 0
367, 0.96930150231741, -0.030973225515608, 0
368, 0.93857287532332, -0.001195957600157, 0
369, 0.96980786124207, 0.026738704800985, 0
370, 0.96942707460672, -0.002081503710012, 0
371, 0.025151960234775, 0.029660599023545, 0
372, 0.050299498317758, 0.055931497911395, 0
373, 0.025163881940238, 0.057077987340579, 0
374, 0.97075498344592, 0.083766287730624, 0
375, 0.94056647487103, 0.056342210368863, 0
376, 0.97027910223031, 0.055359061821729, 0
377, 0.65213275099731, -0.27902925288423, 0
378, 0.47459272713898, -0.22618305041409, 0
379, 0.050879014114187, -0.081377234094541, 0
380, 0.18393666306628, -0.21941502116263, 0
381, 0.078660195649047, -0.24620610209341, 0
382, 0.10497022706941, -0.246089012043, 0
383, 0.12863059022564, 0.24425703293531, 0
384, 0.46964276245833, 0.20127413551909, 0
385, 0.076698372641592, 0.21870051624006, 0
386, 0.78309723291068, 0.2742487449558, 0
387, 0.75417751825602, 0.24888083464624, 0
388, 0.72884481527174, 0.27468616381046, 0
389, 0.75589919912753, 0.27444823664625, 0
390, 0.050989687906196, 0.19279573391676, 0
391, 0.12833512189006, 0.21638957124801, 0
392, 0.86489757671666, -0.24948863176059, 0
393, 0.83990877590675, -0.27502700502735, 0
394, 0.86653942867099, -0.27475384575765, 0
395, 0.15514727922403, 0.27169576406899, 0
396, 0.12605674150348, 0.10609713164414, 0
397, 0.025272883751855, 0.1120163153365, 0
398, 0.70004603864743, 0.24992850502784, 0
399, 0.67540394666588, 0.27531011606699, 0
400, 0.70200739782784, 0.27497126365971, 0
401, 0.86413038687078, 0.24764268293501, 0
402, 0.83802929191261, 0.27394240815777, 0
403, 0.89307017665762, 0.27377982425313, 0
404, 0.86559362591121, 0.27383940367454, 0
405, 0.20416220359687, 0.15444507002391, 0
406, 0.30362025003443, 0.10152217720887, 0
407, 0.28311359401321, 0.14221743892579, 0
408, 0.78662353141908, -0.27572410743955, 0
409, 0.81109560895794, -0.25070953251146, 0
410, 0.81329253487364, -0.27535107205141, 0
411, 0.25001414106015, -0.052798657229654, 0
412, 0.15835315314569, -0.27313440392847, 0
413, 0.25218844196454, -0.079898290101189, 0
414, 0.10525740420209, -0.27307486716992, 0
415, 0.60565187777937, -0.15335942153988, 0
416, 0.23867516165774, -0.24758768467329, 0
417, 0.9424153848761, 0.11237500487368, 0
418, 0.9715957906089, 0.13979425049803, 0
419, 0.97119560786594, 0.11189198466319, 0
420, 0.39730086101985, 0.27136434364508, 0
421, 0.15106646954006, 0.10423335663758, 0
422, 0.15286161888185, 0.15907786411795, 0
423, 0.15559278422855, -0.16447123958585, 0
424, 0.27260977611236, -0.024506437618053, 0
425, 0.29311249946257, -0.22468675275686, 0
426, 0.051986616989583, -0.19218734320515, 0
427, 0.23930290972321, -0.27390415261275, 0
428, 0.12784283433239, -0.10951140528424, 0
429, 0.80899401700846, 0.24814407153634, 0
430, 0.81051902591561, 0.2740800521426, 0
431, 0.757181293358, -0.25233677941994, 0
432, 0.75973846968763, -0.27616070671369, 0
433, 0.37342160534184, -0.27928029584104, 0
434, 0.94341073380358, -0.17002117429589, 0
435, 0.97118699060778, -0.14287776940635, 0
436, 0.97215221560118, -0.19630825464195, 0
437, 0.97169167361937, -0.16973958150186, 0
438, 0.49928505913768, -0.26993879739899, 0
439, 0.62370946851834, -0.26031011912538, 0
440, 0.57301665516941, -0.26545212634876, 0
441, 0.1021761277378, 0.19000312729111, 0
442, 0.4720934758688, 0.25019372407366, 0
443, 0.18168787832733, 0.27123345839436, 0
444, 0.57314354572138, 0.27671483874161, 0
445, 0.54641541724266, 0.25375082518139, 0
446, 0.54822411257075, 0.27675970532965, 0
447, 0.94126387902943, -0.1160305669702, 0
448, 0.97007224770863, -0.087873720287283, 0
449, 0.97063438429395, -0.11557554031776, 0
450, 0.078367049466575, -0.2191273968415, 0
451, 0.59406280844591, -0.22537486786674, 0
452, 0.93885361275319, -0.059756543957874, 0
453, 0.9695699338378, -0.05961372876017, 0
454, 0.31578828887158, 0.23824850406512, 0
455, 0.25623573599009, 0.14733070459508, 0
456, 0.10136557174102, 0.13503970920531, 0
457, 0.94393335653682, 0.16730001744525, 0
458, 0.97234076011615, 0.19468454270715, 0
459, 0.97197226512565, 0.16737530571532, 0
460, 0.12530377098657, -0.0011375798601337, 0
461, 0.23676267245505, -0.19355940076411, 0
462, 0.26263830485978, -0.16676949675235, 0
463, 0.078014906001847, -0.19188350808462, 0
464, 0.27010887583189, 0.001351892739598, 0
465, 0.21223803287293, -0.27351682848046, 0
466, 0.45140467818656, -0.21982780665451, 0
467, 0.64717746820552, 0.25142006004927, 0
468, 0.6234143724093, 0.27609870132933, 0
469, 0.64922935167442, 0.2756945720235, 0
470, 0.36997116576489, 0.24004656402812, 0
471, 0.10258014177209, 0.24507886902228, 0
472, 0.94536314355429, 0.22112263998047, 0
473, 0.97312946863984, 0.24801056709326, 0
474, 0.97271546522664, 0.22149792675434, 0
475, 0.94708857115531, 0.27387301487848, 0
476, 0.97360837036532, 0.27408098354249, 0
477, 0.97297204804765, -0.24852031539489, 0
478, 0.97336366572264, -0.27429910648509, 0
479, 0.59615272552394, 0.25307080287336, 0
480, 0.59816192738143, 0.27646370125734, 0
481, 0.025350903915981, 0.13952797932809, 0
482, 0.32727149842038, 0.089352927846861, 0
483, 0.075528603716855, 0.081950381763784, 0
484, 0.34396848629084, 0.2696310748918, 0
485, 0.10245425706815, 0.21755040111421, 0
486, 0.44851002511102, 0.273916746038, 0
487, 0.28849908605572, 0.23861576558604, 0
488, 0.90553102444176, -0.030377668874436, 0
489, 0.8752015539518, 0.0028336256150102, 0
490, 0.90913479378273, 0.02934329001104, 0
491, 0.90711947465824, 0.00010954607625221, 0
492, 0.47412320714945, -0.20091263154727, 0
493, 0.47465293556824, -0.23987645279797, 0
494, 0.37095330800026, 0.27032357821054, 0
495, 0.15367564613514, 0.18701846441015, 0
496, 0.31672987576831, 0.26935987825095, 0
497, 0.12731038964851, 0.16087354999754, 0
498, 0.37960272898363, -0.19396483050433, 0
499, 0.52273047362587, -0.24045649708798, 0
500, 0.22245548337516, -0.002267929273434, 0
501, 0.54743120561499, -0.25201862751359, 0
502, 0.075341934892106, 0.027596058573518, 0
503, 0.10036475407579, 0.053554946893819, 0
504, 0.07537999471489, 0.054755827582157, 0
505, 0.9451523531175, -0.2225902810502, 0
506, 0.9725746903035, -0.22251562549637, 0
507, 0.83504107976474, 0.221733622311, 0
508, 0.80570585737086, 0.19613992342776, 0
509, 0.77979299396495, 0.22267796946138, 0
510, 0.80738788452077, 0.22217034720431, 0
511, 0.12512946440371, 0.025574568085613, 0
512, 0.12553796995884, 0.079090016657348, 0
513, 0.14983863881356, 0.05092360832382, 0
514, 0.12521046389468, 0.052275552213485, 0
515, 0.13088364395855, -0.21898111885883, 0
516, 0.59813648151127, -0.26283862012112, 0
517, 0.025442405781208, -0.080952806163355, 0
518, 0.62569325908702, -0.28014882714058, 0
519, 0.23442126627833, 0.24044840921632, 0
520, 0.20835629489218, 0.27074458348326, 0
521, 0.27831729128439, 0.1110501709168, 0
522, 0.31488405792869, 0.20609779980127, 0
523, 0.262238813437, 0.26978850184766, 0
524, 0.29687722654067, 0.070866685342409, 0
525, 0.85834189800109, 0.14199702346589, 0
526, 0.88511306730864, 0.11415214913397, 0
527, 0.85490122556388, 0.088684059803625, 0
528, 0.82848313651089, 0.11660858795086, 0
529, 0.85670602239227, 0.11535532787376, 0
530, 0.91898284871946, 0.24748045978594, 0
531, 0.92019116945692, 0.27378342112507, 0
532, 0.40104329909547, 0.14492868466869, 0
533, 0.34258067920515, 0.17088188072732, 0
534, 0.25291729937475, 0.11780599562518, 0
535, 0.28736571689312, 0.20718195975124, 0
536, 0.86134420193978, -0.19872858102783, 0
537, 0.89042417841674, -0.2234382236566, 0
538, 0.83600559082486, -0.22503164471639, 0
539, 0.86317983331785, -0.22415670074115, 0
540, 0.24610493646025, -0.0011498639342102, 0
541, 0.67358926784463, -0.2340933618909, 0
542, 0.15339550298044, -0.10954818393424, 0
543, 0.38961171616859, -0.14972283927967, 0
544, 0.75024167057492, 0.19755647028686, 0
545, 0.7249290861968, 0.22395904503383, 0
546, 0.75228574191054, 0.22326027351639, 0
547, 0.914841912464, 0.14043186852173, 0
548, 0.91242101181865, 0.085593391843609, 0
549, 0.91370069007752, 0.11313272935615, 0
550, 0.26639951586946, -0.2744882951686, 0
551, 0.18299213306543, -0.19214901181059, 0
552, 0.02585855877224, -0.1650424187264, 0
553, 0.88153212007047, 0.05963447548848, 0
554, 0.91091832728853, 0.057722157748063, 0
555, 0.41339856597164, -0.15907865326932, 0
556, 0.54911725004287, -0.28381561459484, 0
557, 0.29338355965469, -0.27531953250335, 0
558, 0.85007295924769, 0.035534392060881, 0
559, 0.82460740350799, 0.064227807805939, 0
560, 0.85275849403834, 0.062021954553545, 0
561, 0.20564032044181, 0.1831835011704, 0
562, 0.44632636728626, 0.22127550145752, 0
563, 0.20104960564086, -0.054848563986499, 0
564, 0.35006882174974, -0.20923030714595, 0
565, 0.18181645279544, -0.16466989752867, 0
566, 0.40102084816298, -0.24227107068458, 0
567, 0.10071699255798, -0.027453555687308, 0
568, 0.32195532549141, 0.031528418433742, 0
569, 0.052217755382114, -0.21943758065898, 0
570, 0.22398801011835, -0.027801852125245, 0
571, 0.23509961996281, -0.16561144445992, 0
572, 0.15055558017557, -0.028349842412726, 0
573, 0.050327830311141, 0.0012972512052931, 0
574, 0.49958150069453, -0.28485656712157, 0
575, 0.42697079805988, -0.22935523304751, 0
576, 0.05080431016373, 0.27347581288371, 0
577, 0.15483461950586, 0.24340438195327, 0
578, 0.42318140435868, 0.27262219965526, 0
579, 0.31376529331809, 0.1721198492683, 0
580, 0.68405563854691, 0.043065259222894, 0
581, 0.71029705981614, 0.017151751937043, 0
582, 0.67935815494283, -0.0091929422712004, 0
583, 0.68110519894507, 0.017018530123723, 0
584, 0.71050048489026, -0.033844720939464, 0
585, 0.68508928453442, -0.060851451456898, 0
586, 0.68157615568276, -0.03522016402262, 0
587, 0.69520062313596, 0.19955156102175, 0
588, 0.67099906227835, 0.22587158335087, 0
589, 0.69779520257665, 0.22481546356127, 0
590, 0.71248103814525, 0.068607840143487, 0
591, 0.68240372960354, 0.094610370473772, 0
592, 0.68457515437046, 0.069073177948238, 0
593, 0.6705338294007, -0.21168244022489, 0
594, 0.64422007335475, -0.21544362833948, 0
595, 0.42503074563825, -0.28232921299827, 0
596, 0.35242785988175, -0.18520755027657, 0
597, 0.54831442639804, -0.26778878766847, 0
598, 0.42844237049333, -0.21143442212401, 0
599, 0.052571876049778, -0.27328035336748, 0
600, 0.051723017902029, -0.16466860056155, 0
601, 0.56251250774406, 0.16823807264867, 0
602, 0.63322425333624, 0.1533491137589, 0
603, 0.65406695224893, 0.12285546913397, 0
604, 0.62681131356781, 0.12772155346131, 0
605, 0.8878668181808, 0.16795387623061, 0
606, 0.91689965186692, 0.19437527005343, 0
607, 0.91589266173004, 0.16751069661998, 0
608, 0.768816105803, 0.067177894278338, 0
609, 0.73958180418638, 0.042454960504525, 0
610, 0.74203857234353, 0.093824847766298, 0
611, 0.74073962215114, 0.068033248434526, 0
612, 0.26018882911991, 0.20882023503867, 0
613, 0.2491659370149, 0.090321475892364, 0
614, 0.56702258189209, 0.20895313519558, 0
615, 0.59126439005664, 0.20715635334853, 0
616, 0.77602972649962, 0.17086589891028, 0
617, 0.74587233089418, 0.14580538675933, 0
618, 0.72012658901661, 0.17275525574931, 0
619, 0.74808110199224, 0.17174243454341, 0
620, 0.72748851588353, -0.22996064005824, 0
621, 0.47476839004139, -0.26919795806196, 0
622, 0.69748681519353, -0.20871257329139, 0
623, 0.70041577924524, -0.23180510971084, 0
624, 0.88293366680974, -0.11903343681272, 0
625, 0.9098954070889, -0.089449941976276, 0
626, 0.9137106510056, -0.14414275545545, 0
627, 0.91194808589601, -0.11713799326069, 0
628, 0.64171907696825, 0.20281700500043, 0
629, 0.61900756212652, 0.22856303944386, 0
630, 0.64471174501454, 0.22714886444304, 0
631, 0.6498040263666, -0.25806126739098, 0
632, 0.7923974675552, -0.054320500483864, 0
633, 0.82080447073738, -0.075005449011442, 0
634, 0.79700638115321, -0.10216819988435, 0
635, 0.76792410932422, -0.080124934618619, 0
636, 0.79455497925655, -0.077935662635191, 0
637, 0.87579329412904, -0.063377107700501, 0
638, 0.90756364347206, -0.060689501777215, 0
639, 0.78177573751694, -0.22715759774777, 0
640, 0.80663005454531, -0.20129203775124, 0
641, 0.80888868780412, -0.22603047868596, 0
642, 0.07760815104851, -0.1644576295253, 0
643, 0.56823110342679, -0.21388067190615, 0
644, 0.075621343657049, -0.026833546367895, 0
645, 0.32538042982692, -0.020942365120367, 0
646, 0.6079027352973, 0.15760294588106, 0
647, 0.58430276013329, 0.1627854276539, 0
648, 0.61251972857945, 0.18138387569049, 0
649, 0.17895100224791, -0.10950611340491, 0
650, 0.3215564490536, -0.045615983883082, 0
651, 0.57010665306034, -0.23117086102881, 0
652, 0.71342344169701, -0.083998389444442, 0
653, 0.68475377213083, -0.11091739976036, 0
654, 0.68638200510848, -0.086198167429216, 0
655, 0.49370024949267, 0.20605483617348, 0
656, 0.51659588092093, 0.18723258653976, 0
657, 0.4917726936972, 0.18487032707202, 0
658, 0.12874248969052, 0.27213207243867, 0
659, 0.051013473940547, 0.24682078323205, 0
660, 0.39727929174382, 0.18008089807812, 0
661, 0.050530253269553, 0.11063812782748, 0
662, 0.20060735462015, 0.099172802464584, 0
663, 0.025466260081598, 0.24792436451411, 0
664, 0.27606394867451, -0.077899104343178, 0
665, 0.22564480312225, -0.054115898193467, 0
666, 0.75205181932059, -0.20442925769557, 0
667, 0.75462926750372, -0.22844806992844, 0
668, 0.68885993381015, 0.14809433630559, 0
669, 0.66464840374412, 0.17578483794239, 0
670, 0.69221999793958, 0.17402590434776, 0
671, 0.17522782608272, -0.028524244736506, 0
672, 0.54547769569898, -0.22147033463692, 0
673, 0.83177182338294, -0.17476770926903, 0
674, 0.77690364443255, -0.17828358752776, 0
675, 0.80193187616215, -0.15162546089325, 0
676, 0.80432079559296, -0.17647735838913, 0
677, 0.34362106948069, 0.12552358607101, 0
678, 0.23193151939752, 0.18076405920857, 0
679, 0.73942889261637, -0.057448760524619, 0
680, 0.74242122344672, -0.10666485706772, 0
681, 0.74082919377799, -0.082048855397582, 0
682, 0.61542201692864, -0.19908101085016, 0
683, 0.59133416875394, -0.20601523122594, 0
684, 0.22758974521249, -0.081141549331247, 0
685, 0.2801115054786, -0.10648708522817, 0
686, 0.42202026636774, 0.24489624398757, 0
687, 0.34304205328637, 0.23866131925195, 0
688, 0.72189208953622, -0.18247335815691, 0
689, 0.74688240272011, -0.1558477312294, 0
690, 0.7494432077835, -0.18023857934698, 0
691, 0.12667708246248, 0.13336194129727, 0
692, 0.1278817359986, 0.18857430101687, 0
693, 0.9165580706502, -0.19692187430299, 0
694, 0.91776139771033, -0.22290319601071, 0
695, 0.79854747697225, 0.091765469917233, 0
696, 0.79488316644008, 0.040515512415542, 0
697, 0.79672664065203, 0.065948064815433, 0
698, 0.71497555977963, 0.12068555138906, 0
699, 0.7721780511314, 0.11885418032726, 0
700, 0.74379138043477, 0.11979885673294, 0
701, 0.075758683684093, 0.10922990474041, 0
702, 0.10094228251679, 0.10773802625373, 0
703, 0.076721596627545, -0.10930069994316, 0
704, 0.10457856420758, -0.21898563128665, 0
705, 0.15732144425485, -0.21911539294253, 0
706, 0.23000688886809, -0.10887712455371, 0
707, 0.37526636541155, -0.23738686131619, 0
708, 0.20242539899384, 0.12634261193404, 0
709, 0.25857844930366, 0.1779906779363, 0
710, 0.10114528346182, -0.05464827213821, 0
711, 0.88717616647135, -0.17177102763874, 0
712, 0.91521888239914, -0.17069748775732, 0
713, 0.85714645746277, -0.14747590200441, 0
714, 0.85936562594561, -0.17316792615808, 0
715, 0.076036481305815, 0.13657413458521, 0
716, 0.31144894480437, 0.13544220985285, 0
717, 0.23522024898036, 0.27024668327308, 0
718, 0.89035676701935, 0.22112884265605, 0
719, 0.91790878037588, 0.22102277378213, 0
720, 0.76534065931558, -0.031966425420839, 0
721, 0.73803955516376, -0.007961683591031, 0
722, 0.73837842785074, -0.032787207450752, 0
723, 0.79162384561715, -0.0082637077742862, 0
724, 0.79107646975727, -0.031355843936565, 0
725, 0.37455175731606, 0.13689228516227, 0
726, 0.69087163928897, -0.16111378044262, 0
727, 0.69430079931404, -0.18520411839721, 0
728, 0.63801009534805, 0.1782958714173, 0
729, 0.47488549426784, -0.28450705040038, 0
730, 0.1313811806935, -0.24608395184161, 0
731, 0.23003120120181, 0.15130122250198, 0
732, 0.076549721340574, 0.27299291843475, 0
733, 0.77210326585472, -0.12907445277589, 0
734, 0.71637518826794, -0.1336381924428, 0
735, 0.7444761488343, -0.13129758107041, 0
736, 0.81965875883562, 0.013627300267997, 0
737, 0.76612065052841, 0.016718427801595, 0
738, 0.79308447286092, 0.015694801549385, 0
739, 0.73853993285403, 0.017111437692382, 0
740, 0.15653737276347, -0.1918655362513, 0
741, 0.22118432834655, 0.022311178663743, 0
742, 0.65701591877157, -0.1398246243388, 0
743, 0.56242770739946, -0.17660507859102, 0
744, 0.49840804528057, -0.22891615826171, 0
745, 0.12702414168773, -0.082168878538429, 0
746, 0.20826511534372, -0.1650083114278, 0
747, 0.37414591417861, -0.25845842688437, 0
748, 0.45005835516552, -0.28361021872574, 0
749, 0.18466786810403, -0.24643896276489, 0
750, 0.274107400443, -0.050824217660388, 0
751, 0.17403949837866, 0.023635761229461, 0
752, 0.15134615202904, -0.055166454800152, 0
753, 0.076716073109463, 0.24590784383561, 0
754, 0.1748417981716, 0.075434096098068, 0
755, 0.44605654396689, 0.19443993207721, 0
756, 0.82686267385114, -0.1243529105285, 0
757, 0.79947882536465, -0.12681037055137, 0
758, 0.86130118561299, 0.19501882499472, 0
759, 0.86271664725719, 0.22137925114556, 0
760, 0.85141231789949, -0.095863544751914, 0
761, 0.8545640725777, -0.12167342694955, 0
762, 0.80216528078202, 0.14391695147386, 0
763, 0.80034892005912, 0.11779047355261, 0
764, 0.37698059812707, -0.21592081744259, 0
765, 0.07542365962503, 0.0004214039438086, 0
766, 0.84724683651657, -0.07049253927546, 0
767, 0.10353301714805, -0.16437385165616, 0
768, 0.42536705957094, -0.26467774423155, 0
769, 0.19793866069663, 0.047786464898093, 0
770, 0.17414701311095, 0.049426639208274, 0
771, 0.64720927027123, -0.23693121831902, 0
772, 0.2115868018474, -0.2468773566594, 0
773, 0.34762282802985, -0.25538638293082, 0
774, 0.68736957191715, -0.13632196328236, 0
775, 0.8318906720317, 0.16927181074672, 0
776, 0.85986116443571, 0.16856001099036, 0
777, 0.59627379549657, -0.24421869105853, 0
778, 0.80395000466332, 0.17004413960591, 0
779, 0.84640453017621, 0.0096692790709224, 0
780, 0.58818916591752, 0.18480726913822, 0
781, 0.54159590226215, 0.1712333351873, 0
782, 0.42509712874277, 0.15446670325111, 0
783, 0.20681361275901, 0.21226580053299, 0
784, 0.26437168238115, -0.19512616856615, 0
785, 0.56916289234698, 0.23096105799235, 0
786, 0.5938752946393, 0.22993294485836, 0
787, 0.17720620125868, 0.12918152337198, 0
788, 0.51996351279366, 0.23047444181978, 0
789, 0.54461303755232, 0.23125230284128, 0
790, 0.45043417651637, -0.25124885169527, 0
791, 0.2225699236127, 0.069917563949431, 0
792, 0.15434318806566, 0.21515510777012, 0
793, 0.18523124783146, -0.27327446055031, 0
794, 0.15793079592736, -0.24619486776411, 0
795, 0.68527967094176, 0.12159318271805, 0
796, 0.49531051766953, 0.22866061780676, 0
797, 0.57864537136945, 0.14040997553073, 0
798, 0.22083493042893, 0.045978975325611, 0
799, 0.025502061935514, 0.2212908230181, 0
800, 0.25892568416597, 0.042404295789376, 0
801, 0.6406505937389, -0.19336650048582, 0
802, 0.23788746405892, -0.22086415481821, 0
803, 0.83323240036815, -0.030693194696975, 0
804, 0.10249054839684, 0.27255801755996, 0
805, 0.63058100043049, -0.14658622156316, 0
806, 0.14999617472226, -0.0017888186446813, 0
807, 0.025425493794955, 0.1670160696919, 0
808, 0.025325949304443, -0.053035185933748, 0
809, 0.18049173997806, 0.21379551686535, 0
810, 0.55926943121575, 0.15018411534606, 0
811, 0.29146903875524, -0.16916998254593, 0
812, 0.29608456220474, 0.0053942508305657, 0
813, 0.29797087743201, -0.022086236831492, 0
814, 0.29788540594496, -0.048284560379696, 0
815, 0.29849375625765, -0.074858880807411, 0
816, 0.30316874477562, -0.10348042232352, 0
817, 0.33693457998193, -0.12442888205897, 0
818, 0.66271202438672, -0.16493906880171, 0
819, 0.63622759522475, -0.1704466623836, 0
820, 0.61122091194502, -0.17708207113324, 0
821, 0.58775842860038, -0.18557370054402, 0
822, 0.56585027945373, -0.19601362022973, 0
823, 0.54442323611093, -0.20654608105513, 0
824, 0.52196252037635, -0.2145684904868, 0
825, 0.49809538415613, -0.21731050350499, 0
826, 0.47444892113176, -0.21324000601168, 0
827, 0.45221607254908, -0.20424635699213, 0
828, 0.43070636635655, -0.19287754096342, 0
829, 0.40814871777172, -0.18157790748517, 0
830, 0.38360617522969, -0.17163349117893, 0
831, 0.35628454893579, -0.16095696733912, 0
832, 0.02571840323565, -0.1371393048673, 0
833, 0.05143807192107, -0.1369711769314, 0
834, 0.077167963003017, -0.13690607083, 0
835, 0.10291666157826, -0.1369072760515, 0
836, 0.12869341176483, -0.13694058619817, 0
837, 0.15452369134259, -0.13700263407692, 0
838, 0.18043467663246, -0.13706982249209, 0
839, 0.20648040953272, -0.13713616103943, 0
840, 0.23277558507192, -0.13721975741348, 0
841, 0.25961255207894, -0.1373939251836, 0
842, 0.28793033115689, -0.13794052272124, 0
843, 0.32028790561892, -0.27642868753443, 0
844, 0.32058188709441, -0.25258669538185, 0
845, 0.32102887756501, -0.22813607967798, 0
846, 0.32160270811485, -0.20253371668648, 0
847, 0.32211010763424, -0.17457943407065, 0
848, 0.32154758628763, -0.14002290701412, 0
******* E L E M E N T S *************
*ELEMENT, type=CPS4, ELSET=Surface1
1, 390, 183, 799, 192
2, 334, 332, 84, 82
3, 333, 252, 332, 334
4, 305, 566, 177, 575
5, 835, 212, 703, 834
6, 433, 24, 17, 225
7, 541, 304, 348, 623
8, 838, 649, 542, 837
9, 831, 830, 543, 352
10, 231, 415, 162, 125
11, 844, 336, 557, 843
12, 484, 494, 94, 87
13, 809, 331, 577, 792
14, 395, 98, 91, 658
15, 322, 809, 792, 495
16, 40, 349, 350, 32
17, 222, 359, 106, 117
18, 428, 745, 167, 212
19, 349, 178, 348, 350
20, 176, 416, 427, 550
21, 415, 805, 124, 162
22, 43, 36, 358, 355
23, 355, 358, 356, 295
24, 358, 357, 297, 356
25, 36, 44, 357, 358
26, 826, 378, 744, 825
27, 569, 214, 230, 339
28, 228, 305, 575, 598
29, 381, 339, 599, 347
30, 186, 519, 196, 783
31, 345, 613, 203, 300
32, 701, 661, 206, 483
33, 731, 405, 708, 184
34, 61, 369, 370, 50
35, 50, 370, 367, 60
36, 370, 368, 271, 367
37, 369, 267, 368, 370
38, 207, 372, 373, 371
39, 371, 373, 105, 116
40, 373, 343, 115, 105
41, 372, 206, 343, 373
42, 266, 375, 376, 374
43, 374, 376, 51, 62
44, 376, 369, 61, 51
45, 375, 267, 369, 376
46, 841, 226, 706, 840
47, 707, 747, 302, 566
48, 493, 169, 284, 168
49, 827, 826, 492, 341
50, 500, 741, 202, 303
51, 324, 802, 416, 176
52, 217, 414, 19, 12
53, 595, 2, 25, 748
54, 534, 184, 180, 613
55, 485, 471, 753, 385
56, 716, 579, 182, 407
57, 77, 70, 389, 386
58, 386, 389, 387, 246
59, 389, 388, 247, 387
60, 70, 78, 388, 389
61, 196, 520, 443, 331
62, 165, 326, 686, 366
63, 792, 577, 383, 391
64, 725, 151, 136, 532
65, 294, 393, 394, 392
66, 392, 394, 355, 295
67, 394, 35, 43, 355
68, 393, 42, 35, 394
69, 659, 576, 311, 663
70, 366, 686, 578, 420
71, 312, 687, 454, 522
72, 78, 71, 400, 388
73, 388, 400, 398, 247
74, 400, 399, 249, 398
75, 71, 79, 399, 400
76, 244, 403, 404, 401
77, 401, 404, 402, 245
78, 404, 68, 76, 402
79, 403, 75, 68, 404
80, 561, 783, 809, 322
81, 677, 725, 185, 533
82, 613, 180, 791, 203
83, 787, 364, 421, 193
84, 294, 409, 410, 393
85, 393, 410, 34, 42
86, 410, 408, 41, 34
87, 409, 179, 408, 410
88, 226, 413, 684, 706
89, 794, 730, 217, 412
90, 543, 555, 129, 157
91, 340, 209, 126, 160
92, 225, 17, 2, 595
93, 596, 564, 764, 498
94, 460, 511, 208, 170
95, 464, 298, 201, 540
96, 62, 52, 419, 374
97, 374, 419, 417, 266
98, 419, 418, 239, 417
99, 52, 63, 418, 419
100, 535, 487, 321, 612
101, 396, 702, 205, 512
102, 524, 345, 300, 197
103, 385, 753, 659, 183
104, 566, 302, 768, 177
105, 765, 502, 207, 573
106, 704, 450, 381, 382
107, 233, 644, 216, 171
108, 328, 303, 213, 671
109, 825, 824, 340, 215
110, 224, 155, 132, 650
111, 744, 168, 499, 319
112, 598, 575, 232, 466
113, 352, 543, 157, 130
114, 314, 221, 752, 301
115, 76, 69, 430, 402
116, 402, 430, 429, 245
117, 430, 386, 246, 429
118, 69, 77, 386, 430
119, 179, 431, 432, 408
120, 408, 432, 33, 41
121, 432, 349, 40, 33
122, 431, 178, 349, 432
123, 818, 726, 774, 742
124, 451, 777, 351, 218
125, 848, 847, 596, 831
126, 296, 436, 437, 434
127, 434, 437, 435, 285
128, 437, 47, 58, 435
129, 436, 57, 47, 437
130, 170, 208, 502, 765
131, 705, 515, 730, 794
132, 814, 650, 645, 813
133, 496, 95, 88, 310
134, 422, 497, 691, 364
135, 731, 678, 561, 405
136, 441, 485, 385, 365
137, 252, 445, 446, 332
138, 332, 446, 81, 84
139, 446, 444, 6, 81
140, 445, 173, 444, 446
141, 285, 435, 449, 447
142, 447, 449, 448, 269
143, 449, 48, 59, 448
144, 435, 58, 48, 449
145, 742, 774, 653, 163
146, 361, 379, 517, 337
147, 220, 501, 227, 651
148, 515, 704, 382, 730
149, 60, 367, 453, 49
150, 49, 453, 448, 59
151, 453, 452, 269, 448
152, 367, 271, 452, 453
153, 521, 534, 613, 345
154, 442, 333, 334, 195
155, 191, 137, 149, 198
156, 755, 384, 363, 562
157, 63, 53, 459, 418
158, 418, 459, 457, 239
159, 459, 458, 242, 457
160, 53, 64, 458, 459
161, 729, 28, 26, 574
162, 842, 685, 226, 841
163, 563, 328, 671, 221
164, 813, 812, 464, 424
165, 599, 313, 10, 18
166, 823, 822, 743, 209
167, 832, 337, 108, 119
168, 411, 325, 570, 665
169, 302, 225, 595, 768
170, 846, 845, 306, 564
171, 839, 172, 649, 838
172, 817, 156, 131, 315
173, 79, 72, 469, 399
174, 399, 469, 467, 249
175, 469, 468, 251, 467
176, 72, 80, 468, 469
177, 658, 91, 99, 804
178, 532, 782, 344, 660
179, 456, 715, 701, 702
180, 64, 54, 474, 458
181, 458, 474, 472, 242
182, 474, 473, 243, 472
183, 54, 65, 473, 474
184, 65, 55, 476, 473
185, 473, 476, 475, 243
186, 476, 66, 74, 475
187, 55, 5, 66, 476
188, 44, 37, 478, 357
189, 357, 478, 477, 297
190, 478, 45, 56, 477
191, 37, 4, 45, 478
192, 80, 73, 480, 468
193, 468, 480, 479, 251
194, 480, 444, 173, 479
195, 73, 6, 444, 480
196, 346, 390, 192, 807
197, 716, 407, 521, 406
198, 799, 663, 112, 102
199, 691, 456, 702, 396
200, 407, 182, 709, 455
201, 405, 561, 322, 188
202, 443, 90, 98, 395
203, 578, 486, 83, 7
204, 420, 578, 7, 86
205, 183, 659, 663, 799
206, 533, 185, 181, 312
207, 677, 533, 579, 716
208, 267, 490, 491, 368
209, 368, 491, 488, 271
210, 491, 489, 272, 488
211, 490, 268, 489, 491
212, 440, 282, 323, 516
213, 319, 499, 220, 672
214, 817, 352, 130, 156
215, 427, 465, 21, 14
216, 471, 804, 732, 753
217, 180, 662, 200, 791
218, 677, 716, 406, 482
219, 384, 655, 796, 363
220, 414, 347, 11, 19
221, 815, 224, 650, 814
222, 315, 131, 155, 224
223, 816, 815, 664, 685
224, 672, 220, 651, 643
225, 764, 707, 566, 305
226, 229, 29, 27, 556
227, 360, 133, 153, 568
228, 208, 503, 504, 502
229, 502, 504, 372, 207
230, 504, 483, 206, 372
231, 503, 205, 483, 504
232, 297, 477, 506, 505
233, 505, 506, 436, 296
234, 506, 46, 57, 436
235, 477, 56, 46, 506
236, 245, 429, 510, 507
237, 507, 510, 508, 240
238, 510, 509, 234, 508
239, 429, 246, 509, 510
240, 204, 513, 514, 511
241, 511, 514, 503, 208
242, 514, 512, 205, 503
243, 513, 199, 512, 514
244, 749, 794, 412, 793
245, 382, 381, 347, 414
246, 631, 377, 210, 304
247, 777, 516, 439, 351
248, 717, 89, 97, 520
249, 782, 150, 137, 191
250, 326, 562, 189, 686
251, 677, 135, 151, 725
252, 470, 366, 420, 494
253, 482, 187, 134, 152
254, 522, 454, 487, 535
255, 237, 528, 529, 525
256, 525, 529, 526, 238
257, 529, 527, 265, 526
258, 528, 262, 527, 529
259, 243, 475, 531, 530
260, 530, 531, 403, 244
261, 531, 67, 75, 403
262, 475, 74, 67, 531
263, 562, 363, 442, 189
264, 497, 194, 456, 691
265, 732, 92, 100, 576
266, 293, 538, 539, 536
267, 536, 539, 537, 292
268, 539, 392, 295, 537
269, 538, 294, 392, 539
270, 831, 596, 498, 830
271, 306, 773, 747, 707
272, 830, 829, 555, 543
273, 685, 664, 413, 226
274, 247, 545, 546, 387
275, 387, 546, 509, 246
276, 546, 544, 234, 509
277, 545, 235, 544, 546
278, 238, 526, 549, 547
279, 547, 549, 417, 239
280, 549, 548, 266, 417
281, 526, 265, 548, 549
282, 304, 210, 350, 348
283, 621, 729, 574, 438
284, 499, 175, 501, 220
285, 323, 30, 38, 518
286, 265, 553, 554, 548
287, 548, 554, 375, 266
288, 554, 490, 267, 375
289, 553, 268, 490, 554
290, 829, 228, 598, 828
291, 175, 327, 597, 501
292, 818, 316, 727, 726
293, 821, 820, 415, 231
294, 262, 559, 560, 527
295, 527, 560, 553, 265
296, 560, 558, 268, 553
297, 559, 264, 558, 560
298, 407, 455, 534, 521
299, 455, 731, 184, 534
300, 709, 612, 186, 678
301, 662, 193, 754, 200
302, 284, 438, 327, 175
303, 650, 132, 154, 645
304, 813, 645, 360, 812
305, 806, 204, 511, 460
306, 327, 229, 556, 597
307, 210, 39, 32, 350
308, 829, 828, 335, 555
309, 281, 16, 24, 433
310, 836, 428, 212, 835
311, 335, 341, 128, 158
312, 848, 831, 352, 817
313, 353, 748, 729, 621
314, 216, 573, 359, 222
315, 412, 217, 12, 20
316, 523, 96, 89, 717
317, 494, 420, 86, 94
318, 311, 93, 8, 101
319, 497, 692, 441, 194
320, 144, 122, 583, 580
321, 580, 583, 581, 260
322, 583, 582, 174, 581
323, 122, 9, 582, 583
324, 164, 585, 586, 143
325, 143, 586, 582, 9
326, 586, 584, 174, 582
327, 585, 279, 584, 586
328, 249, 588, 589, 398
329, 398, 589, 545, 247
330, 589, 587, 235, 545
331, 588, 248, 587, 589
332, 259, 591, 592, 590
333, 590, 592, 580, 260
334, 592, 142, 144, 580
335, 591, 145, 142, 592
336, 805, 742, 163, 124
337, 594, 771, 541, 593
338, 643, 651, 451, 683
339, 379, 171, 808, 517
340, 768, 595, 748, 353
341, 570, 500, 303, 328
342, 575, 177, 790, 232
343, 808, 222, 117, 107
344, 706, 684, 283, 172
345, 574, 26, 29, 229
346, 166, 362, 567, 710
347, 145, 603, 604, 141
348, 256, 781, 601, 330
349, 603, 258, 602, 604
350, 239, 457, 607, 547
351, 547, 607, 605, 238
352, 607, 606, 241, 605
353, 457, 242, 606, 607
354, 261, 610, 611, 608
355, 608, 611, 609, 263
356, 611, 590, 260, 609
357, 610, 259, 590, 611
358, 320, 346, 190, 715
359, 312, 181, 470, 687
360, 181, 165, 366, 470
361, 190, 481, 397, 661
362, 329, 256, 330, 614
363, 647, 797, 255, 646
364, 785, 614, 615, 786
365, 254, 329, 789, 788
366, 235, 618, 619, 544
367, 544, 619, 616, 234
368, 619, 617, 236, 616
369, 618, 257, 617, 619
370, 290, 622, 623, 620
371, 620, 623, 348, 178
372, 516, 323, 518, 439
373, 498, 764, 305, 228
374, 286, 626, 627, 624
375, 624, 627, 625, 270
376, 627, 447, 269, 625
377, 626, 285, 447, 627
378, 249, 467, 630, 588
379, 588, 630, 628, 248
380, 253, 648, 728, 628
381, 467, 251, 629, 630
382, 833, 361, 337, 832
383, 492, 215, 127, 159
384, 380, 705, 794, 749
385, 218, 351, 771, 594
386, 275, 635, 636, 632
387, 632, 636, 633, 276
388, 636, 634, 273, 633
389, 635, 274, 634, 636
390, 271, 488, 638, 452
391, 452, 638, 625, 269
392, 638, 637, 270, 625
393, 488, 272, 637, 638
394, 293, 640, 641, 538
395, 538, 641, 409, 294
396, 641, 639, 179, 409
397, 640, 291, 639, 641
398, 169, 621, 438, 284
399, 466, 232, 493, 378
400, 317, 380, 749, 772
401, 830, 498, 228, 829
402, 656, 256, 329, 254
403, 601, 810, 797, 647
404, 141, 604, 255, 146
405, 540, 201, 741, 500
406, 542, 301, 745, 428
407, 413, 411, 665, 684
408, 790, 353, 621, 169
409, 164, 123, 654, 585
410, 585, 654, 652, 279
411, 654, 653, 280, 652
412, 123, 163, 653, 654
413, 397, 104, 115, 343
414, 655, 657, 656, 254
415, 657, 138, 148, 656
416, 661, 397, 343, 206
417, 753, 732, 576, 659
418, 783, 196, 331, 809
419, 725, 532, 660, 185
420, 487, 310, 523, 321
421, 660, 344, 326, 165
422, 686, 189, 486, 578
423, 692, 391, 485, 441
424, 198, 149, 138, 657
425, 167, 710, 233, 318
426, 822, 643, 683, 821
427, 684, 665, 563, 283
428, 438, 574, 229, 327
429, 291, 666, 667, 639
430, 639, 667, 431, 179
431, 667, 620, 178, 431
432, 666, 290, 620, 667
433, 235, 587, 670, 618
434, 618, 670, 668, 257
435, 670, 669, 258, 668
436, 587, 248, 669, 670
437, 517, 808, 107, 118
438, 557, 550, 22, 15
439, 303, 202, 751, 213
440, 771, 631, 304, 541
441, 287, 675, 676, 673
442, 673, 676, 640, 293
443, 676, 674, 291, 640
444, 675, 288, 674, 676
445, 346, 807, 481, 190
446, 678, 186, 783, 561
447, 320, 365, 390, 346
448, 279, 652, 681, 679
449, 679, 681, 635, 275
450, 681, 680, 274, 635
451, 652, 280, 680, 681
452, 840, 706, 172, 839
453, 339, 230, 313, 599
454, 556, 27, 3, 282
455, 351, 439, 631, 771
456, 820, 819, 805, 415
457, 793, 412, 20, 13
458, 828, 598, 466, 827
459, 745, 166, 710, 167
460, 816, 315, 224, 815
461, 424, 464, 540, 325
462, 715, 190, 661, 701
463, 454, 496, 310, 487
464, 484, 87, 95, 496
465, 291, 674, 690, 666
466, 666, 690, 688, 290
467, 690, 689, 289, 688
468, 674, 288, 689, 690
469, 194, 441, 365, 320
470, 406, 521, 345, 524
471, 296, 693, 694, 505
472, 505, 694, 356, 297
473, 694, 537, 295, 356
474, 693, 292, 537, 694
475, 263, 696, 697, 608
476, 608, 697, 695, 261
477, 697, 559, 262, 695
478, 696, 264, 559, 697
479, 261, 699, 700, 610
480, 610, 700, 698, 259
481, 700, 617, 257, 698
482, 699, 236, 617, 700
483, 687, 484, 496, 454
484, 579, 522, 535, 182
485, 576, 100, 93, 311
486, 773, 281, 433, 747
487, 359, 371, 116, 106
488, 671, 213, 806, 572
489, 847, 846, 564, 596
490, 802, 317, 772, 416
491, 843, 23, 16, 281
492, 439, 518, 377, 631
493, 215, 340, 160, 127
494, 533, 312, 522, 579
495, 189, 442, 195, 486
496, 198, 657, 655, 384
497, 495, 792, 391, 692
498, 743, 231, 125, 161
499, 815, 814, 750, 664
500, 501, 597, 440, 227
501, 171, 216, 222, 808
502, 285, 626, 712, 434
503, 434, 712, 693, 296
504, 712, 711, 292, 693
505, 626, 286, 711, 712
506, 286, 713, 714, 711
507, 711, 714, 536, 292
508, 714, 673, 293, 536
509, 713, 287, 673, 714
510, 363, 796, 333, 442
511, 344, 755, 562, 326
512, 702, 701, 483, 205
513, 321, 523, 717, 519
514, 242, 472, 719, 606
515, 606, 719, 718, 241
516, 719, 530, 244, 718
517, 472, 243, 530, 719
518, 278, 721, 722, 720
519, 720, 722, 679, 275
520, 722, 584, 279, 679
521, 721, 174, 584, 722
522, 277, 723, 724, 308
523, 308, 724, 632, 276
524, 724, 720, 275, 632
525, 723, 278, 720, 724
526, 486, 195, 85, 83
527, 782, 191, 755, 344
528, 532, 136, 150, 782
529, 612, 321, 519, 186
530, 290, 688, 727, 622
531, 837, 542, 428, 836
532, 567, 170, 765, 644
533, 688, 289, 726, 727
534, 615, 780, 648, 253
535, 140, 797, 810, 147
536, 728, 669, 248, 628
537, 602, 258, 669, 728
538, 341, 492, 159, 128
539, 645, 154, 133, 360
540, 301, 752, 166, 745
541, 168, 284, 175, 499
542, 191, 198, 384, 755
543, 804, 99, 92, 732
544, 807, 103, 114, 481
545, 455, 709, 678, 731
546, 274, 680, 735, 733
547, 733, 735, 689, 288
548, 735, 734, 289, 689
549, 680, 280, 734, 735
550, 263, 737, 738, 696
551, 696, 738, 736, 264
552, 738, 723, 277, 736
553, 737, 278, 723, 738
554, 260, 581, 739, 609
555, 609, 739, 737, 263
556, 739, 721, 278, 737
557, 581, 174, 721, 739
558, 378, 493, 168, 744
559, 232, 790, 169, 493
560, 844, 843, 281, 773
561, 812, 360, 568, 197
562, 221, 671, 572, 752
563, 572, 806, 460, 362
564, 644, 765, 573, 216
565, 824, 319, 672, 823
566, 518, 38, 31, 377
567, 325, 540, 500, 570
568, 682, 218, 594, 801
569, 710, 567, 644, 233
570, 230, 121, 111, 313
571, 318, 233, 171, 379
572, 814, 813, 424, 750
573, 347, 599, 18, 11
574, 187, 568, 153, 134
575, 687, 470, 494, 484
576, 182, 535, 612, 709
577, 677, 482, 152, 135
578, 288, 675, 757, 733
579, 733, 757, 634, 274
580, 757, 756, 273, 634
581, 675, 287, 756, 757
582, 241, 718, 759, 758
583, 758, 759, 507, 240
584, 759, 401, 245, 507
585, 718, 244, 401, 759
586, 270, 760, 761, 624
587, 624, 761, 713, 286
588, 761, 756, 287, 713
589, 760, 273, 756, 761
590, 262, 528, 763, 695
591, 695, 763, 699, 261
592, 763, 762, 236, 699
593, 528, 237, 762, 763
594, 519, 717, 520, 196
595, 213, 751, 204, 806
596, 828, 827, 341, 335
597, 450, 569, 339, 381
598, 747, 433, 225, 302
599, 270, 637, 766, 760
600, 760, 766, 633, 273
601, 766, 307, 276, 633
602, 637, 272, 307, 766
603, 597, 556, 282, 440
604, 573, 207, 371, 359
605, 848, 817, 315, 816
606, 824, 823, 209, 340
607, 683, 451, 218, 682
608, 748, 25, 28, 729
609, 204, 751, 770, 513
610, 513, 770, 754, 199
611, 770, 769, 200, 754
612, 751, 202, 769, 770
613, 703, 318, 379, 361
614, 377, 31, 39, 210
615, 212, 167, 318, 703
616, 819, 818, 742, 805
617, 280, 653, 774, 734
618, 734, 774, 726, 289
619, 730, 382, 414, 217
620, 845, 844, 773, 306
621, 240, 775, 776, 758
622, 758, 776, 605, 241
623, 776, 525, 238, 605
624, 775, 237, 525, 776
625, 177, 768, 353, 790
626, 283, 563, 221, 314
627, 214, 110, 121, 230
628, 237, 775, 778, 762
629, 762, 778, 616, 236
630, 778, 508, 234, 616
631, 775, 240, 508, 778
632, 277, 309, 779, 736
633, 736, 779, 558, 264
634, 779, 489, 268, 558
635, 309, 272, 489, 779
636, 148, 781, 256, 656
637, 147, 810, 250, 139
638, 646, 255, 604, 602
639, 708, 787, 193, 662
640, 192, 799, 102, 113
641, 750, 424, 325, 411
642, 227, 440, 516, 777
643, 819, 801, 316, 818
644, 172, 283, 314, 649
645, 173, 785, 786, 479
646, 479, 786, 629, 251
647, 614, 330, 780, 615
648, 520, 97, 90, 443
649, 391, 383, 471, 485
650, 807, 192, 113, 103
651, 789, 329, 614, 785
652, 629, 253, 628, 630
653, 789, 445, 252, 788
654, 785, 173, 445, 789
655, 416, 772, 465, 427
656, 593, 541, 623, 622
657, 823, 672, 643, 822
658, 336, 176, 550, 557
659, 482, 406, 524, 187
660, 331, 443, 395, 577
661, 188, 422, 364, 787
662, 365, 385, 183, 390
663, 663, 311, 101, 112
664, 421, 396, 512, 199
665, 187, 524, 197, 568
666, 822, 821, 231, 743
667, 812, 197, 298, 464
668, 825, 744, 319, 824
669, 801, 594, 593, 316
670, 282, 3, 30, 323
671, 649, 314, 301, 542
672, 821, 683, 682, 820
673, 651, 227, 777, 451
674, 258, 603, 795, 668
675, 668, 795, 698, 257
676, 795, 591, 259, 698
677, 603, 145, 591, 795
678, 254, 788, 796, 655
679, 405, 188, 787, 708
680, 364, 691, 396, 421
681, 788, 252, 333, 796
682, 780, 647, 646, 648
683, 139, 250, 781, 148
684, 330, 601, 647, 780
685, 648, 646, 602, 728
686, 203, 791, 798, 299
687, 299, 798, 741, 201
688, 798, 769, 202, 741
689, 791, 200, 769, 798
690, 481, 114, 104, 397
691, 193, 421, 199, 754
692, 197, 300, 800, 298
693, 298, 800, 299, 201
694, 300, 203, 299, 800
695, 820, 682, 801, 819
696, 337, 517, 118, 108
697, 313, 111, 1, 10
698, 665, 570, 328, 563
699, 564, 306, 707, 764
700, 209, 743, 161, 126
701, 272, 309, 803, 307
702, 307, 803, 308, 276
703, 309, 277, 308, 803
704, 310, 88, 96, 523
705, 422, 495, 692, 497
706, 194, 320, 715, 456
707, 826, 825, 215, 492
708, 550, 427, 14, 22
709, 834, 703, 361, 833
710, 316, 593, 622, 727
711, 827, 466, 378, 826
712, 664, 750, 411, 413
713, 843, 557, 15, 23
714, 465, 793, 13, 21
715, 752, 572, 362, 166
716, 383, 658, 804, 471
717, 184, 708, 662, 180
718, 185, 660, 165, 181
719, 555, 335, 158, 129
720, 362, 460, 170, 567
721, 772, 749, 793, 465
722, 195, 334, 82, 85
723, 577, 395, 658, 383
724, 188, 322, 495, 422
725, 848, 816, 685, 842
726, 146, 255, 797, 140
727, 781, 250, 810, 601
728, 786, 615, 253, 629
729, 425, 324, 176, 336
730, 845, 425, 336, 844
731, 211, 120, 110, 214
732, 426, 211, 214, 569
733, 463, 426, 569, 450
734, 342, 463, 450, 704
735, 338, 342, 704, 515
736, 740, 338, 515, 705
737, 551, 740, 705, 380
738, 354, 551, 380, 317
739, 461, 354, 317, 802
740, 784, 461, 802, 324
741, 223, 784, 324, 425
742, 846, 223, 425, 845
743, 552, 109, 120, 211
744, 600, 552, 211, 426
745, 642, 600, 426, 463
746, 767, 642, 463, 342
747, 219, 767, 342, 338
748, 423, 219, 338, 740
749, 565, 423, 740, 551
750, 746, 565, 551, 354
751, 571, 746, 354, 461
752, 462, 571, 461, 784
753, 811, 462, 784, 223
754, 847, 811, 223, 846
755, 832, 119, 109, 552
756, 833, 832, 552, 600
757, 834, 833, 600, 642
758, 835, 834, 642, 767
759, 836, 835, 767, 219
760, 837, 836, 219, 423
761, 838, 837, 423, 565
762, 839, 838, 565, 746
763, 840, 839, 746, 571
764, 841, 840, 571, 462
765, 842, 841, 462, 811
766, 848, 842, 811, 847
*ELSET,ELSET=contact_source
99, 100, 101, 102, 103, 104, 105, 106, 107, 108, 
109, 110, 111, 112, 113, 114, 115, 116, 117, 118, 
119, 120, 
*ELSET,ELSET=contact_drain
39, 40, 41, 42, 43, 44, 45, 46, 47, 48, 
49, 50, 51, 52, 53, 54, 55, 56, 57, 58, 
59, 60, 
*ELSET,ELSET=probe_A
77, 78, 79, 80, 81, 82, 
*ELSET,ELSET=probe_B
17, 18, 19, 20, 21, 22, 
*ELSET,ELSET=walls
1, 2, 3, 4, 5, 6, 7, 8, 9, 10, 
11, 12, 13, 14, 15, 16, 23, 24, 25, 26, 
27, 28, 29, 30, 31, 32, 33, 34, 35, 36, 
37, 38, 61, 62, 63, 64, 65, 66, 67, 68, 
69, 70, 71, 72, 73, 74, 75, 76, 83, 84, 
85, 86, 87, 88, 89, 90, 91, 92, 93, 94, 
95, 96, 97, 98, 121, 122, 123, 124, 125, 126, 
127, 128, 129, 130, 131, 132, 133, 134, 135, 136, 
137, 138, 139, 140, 141, 142, 143, 144, 145, 146, 
147, 148, 149, 150, 151, 152, 153, 154, 155, 156, 
157, 158, 159, 160, 161, 162, 163, 164, 
*ELSET,ELSET=domain
165, 166, 167, 168, 169, 170, 171, 172, 173, 174, 
175, 176, 177, 178, 179, 180, 181, 182, 183, 184, 
185, 186, 187, 188, 189, 190, 191, 192, 193, 194, 
195, 196, 197, 198, 199, 200, 201, 202, 203, 204, 
205, 206, 207, 208, 209, 210, 211, 212, 213, 214, 
215, 216, 217, 218, 219, 220, 221, 222, 223, 224, 
225, 226, 227, 228, 229, 230, 231, 232, 233, 234, 
235, 236, 237, 238, 239, 240, 241, 242, 243, 244, 
245, 246, 247, 248, 249, 250, 251, 252, 253, 254, 
255, 256, 257, 258, 259, 260, 261, 262, 263, 264, 
265, 266, 267, 268, 269, 270, 271, 272, 273, 274, 
275, 276, 277, 278, 279, 280, 281, 282, 283, 284, 
285, 286, 287, 288, 289, 290, 291, 292, 293, 294, 
295, 296, 297, 298, 299, 300, 301, 302, 303, 304, 
305, 306, 307, 308, 309, 310, 311, 312, 313, 314, 
315, 316, 317, 318, 319, 320, 321, 322, 323, 324, 
325, 326, 327, 328, 329, 330, 331, 332, 333, 334, 
335, 336, 337, 338, 339, 340, 341, 342, 343, 344, 
345, 346, 347, 348, 349, 350, 351, 352, 353, 354, 
355, 356, 357, 358, 359, 360, 361, 362, 363, 364, 
365, 366, 367, 368, 369, 370, 371, 372, 373, 374, 
375, 376, 377, 378, 379, 380, 381, 382, 383, 384, 
385, 386, 387, 388, 389, 390, 391, 392, 393, 394, 
395, 396, 397, 398, 399, 400, 401, 402, 403, 404, 
405, 406, 407, 408, 409, 410, 411, 412, 413, 414, 
415, 416, 417, 418, 419, 420, 421, 422, 423, 424, 
425, 426, 427, 428, 429, 430, 431, 432, 433, 434, 
435, 436, 437, 438, 439, 440, 441, 442, 443, 444, 
445, 446, 447, 448, 449, 450, 451, 452, 453, 454, 
455, 456, 457, 458, 459, 460, 461, 462, 463, 464, 
465, 466, 467, 468, 469, 470, 471, 472, 473, 474, 
475, 476, 477, 478, 479, 480, 481, 482, 483, 484, 
485, 486, 487, 488, 489, 490, 491, 492, 493, 494, 
495, 496, 497, 498, 499, 500, 501, 502, 503, 504, 
505, 506, 507, 508, 509, 510, 511, 512, 513, 514, 
515, 516, 517, 518, 519, 520, 521, 522, 523, 524, 
525, 526, 527, 528, 529, 530, 531, 532, 533, 534, 
535, 536, 537, 538, 539, 540, 541, 542, 543, 544, 
545, 546, 547, 548, 549, 550, 551, 552, 553, 554, 
555, 556, 557, 558, 559, 560, 561, 562, 563, 564, 
565, 566, 567, 568, 569, 570, 571, 572, 573, 574, 
575, 576, 577, 578, 579, 580, 581, 582, 583, 584, 
585, 586, 587, 588, 589, 590, 591, 592, 593, 594, 
595, 596, 597, 598, 599, 600, 601, 602, 603, 604, 
605, 606, 607, 608, 609, 610, 611, 612, 613, 614, 
615, 616, 617, 618, 619, 620, 621, 622, 623, 624, 
625, 626, 627, 628, 629, 630, 631, 632, 633, 634, 
635, 636, 637, 638, 639, 640, 641, 642, 643, 644, 
645, 646, 647, 648, 649, 650, 651, 652, 653, 654, 
655, 656, 657, 658, 659, 660, 661, 662, 663, 664, 
665, 666, 667, 668, 669, 670, 671, 672, 673, 674, 
675, 676, 677, 678, 679, 680, 681, 682, 683, 684, 
685, 686, 687, 688, 689, 690, 691, 692, 693, 694, 
695, 696, 697, 698, 699, 700, 701, 702, 703, 704, 
705, 706, 707, 708, 709, 710, 711, 712, 713, 714, 
715, 716, 717, 718, 719, 720, 721, 722, 723, 724, 
725, 726, 727, 728, 729, 730, 731, 732, 733, 734, 
735, 736, 737, 738, 739, 740, 741, 742, 743, 744, 
745, 746, 747, 748, 749, 750, 751, 752, 753, 754, 
755, 756, 757, 758, 759, 760, 761, 762, 763, 764, 
765, 766, 767, 768, 769, 770, 771, 772, 773, 774, 
775, 776, 777, 778, 779, 780, 781, 782, 783, 784, 
785, 786, 787, 788, 789, 790, 791, 792, 793, 794, 
795, 796, 797, 798, 799, 800, 801, 802, 803, 804, 
805, 806, 807, 808, 809, 810, 811, 812, 813, 814, 
815, 816, 817, 818, 819, 820, 821, 822, 823, 824, 
825, 826, 827, 828, 829, 830, 831, 832, 833, 834, 
835, 836, 837, 838, 839, 840, 841, 842, 843, 844, 
845, 846, 847, 848, 849, 850, 851, 852, 853, 854, 
855, 856, 857, 858, 859, 860, 861, 862, 863, 864, 
865, 866, 867, 868, 869, 870, 871, 872, 873, 874, 
875, 876, 877, 878, 879, 880, 881, 882, 883, 884, 
885, 886, 887, 888, 889, 890, 891, 892, 893, 894, 
895, 896, 897, 898, 899, 900, 901, 902, 903, 904, 
905, 906, 907, 908, 909, 910, 911, 912, 913, 914, 
915, 916, 917, 918, 919, 920, 921, 922, 923, 924, 
925, 926, 927, 928, 929, 930, 
*NSET,NSET=contact_source
1, 8, 101, 102, 103, 104, 105, 106, 107, 108, 
109, 110, 111, 112, 113, 114, 115, 116, 117, 118, 
119, 120, 121, 
*NSET,NSET=contact_drain
4, 5, 45, 46, 47, 48, 49, 50, 51, 52, 
53, 54, 55, 56, 57, 58, 59, 60, 61, 62, 
63, 64, 65, 
*NSET,NSET=probe_A
6, 7, 81, 82, 83, 84, 85, 
*NSET,NSET=probe_B
2, 3, 25, 26, 27, 28, 29, 
*NSET,NSET=walls
1, 2, 3, 4, 5, 6, 7, 8, 9, 10, 
11, 12, 13, 14, 15, 16, 17, 18, 19, 20, 
21, 22, 23, 24, 30, 31, 32, 33, 34, 35, 
36, 37, 38, 39, 40, 41, 42, 43, 44, 66, 
67, 68, 69, 70, 71, 72, 73, 74, 75, 76, 
77, 78, 79, 80, 86, 87, 88, 89, 90, 91, 
92, 93, 94, 95, 96, 97, 98, 99, 100, 122, 
123, 124, 125, 126, 127, 128, 129, 130, 131, 132, 
133, 134, 135, 136, 137, 138, 139, 140, 141, 142, 
143, 144, 145, 146, 147, 148, 149, 150, 151, 152, 
153, 154, 155, 156, 157, 158, 159, 160, 161, 162, 
163, 164, 
*NSET,NSET=domain
1, 2, 3, 4, 5, 6, 7, 8, 9, 10, 
11, 12, 13, 14, 15, 16, 17, 18, 19, 20, 
21, 22, 23, 24, 25, 26, 27, 28, 29, 30, 
31, 32, 33, 34, 35, 36, 37, 38, 39, 40, 
41, 42, 43, 44, 45, 46, 47, 48, 49, 50, 
51, 52, 53, 54, 55, 56, 57, 58, 59, 60, 
61, 62, 63, 64, 65, 66, 67, 68, 69, 70, 
71, 72, 73, 74, 75, 76, 77, 78, 79, 80, 
81, 82, 83, 84, 85, 86, 87, 88, 89, 90, 
91, 92, 93, 94, 95, 96, 97, 98, 99, 100, 
101, 102, 103, 104, 105, 106, 107, 108, 109, 110, 
111, 112, 113, 114, 115, 116, 117, 118, 119, 120, 
121, 122, 123, 124, 125, 126, 127, 128, 129, 130, 
131, 132, 133, 134, 135, 136, 137, 138, 139, 140, 
141, 142, 143, 144, 145, 146, 147, 148, 149, 150, 
151, 152, 153, 154, 155, 156, 157, 158, 159, 160, 
161, 162, 163, 164, 165, 166, 167, 168, 169, 170, 
171, 172, 173, 174, 175, 176, 177, 178, 179, 180, 
181, 182, 183, 184, 185, 186, 187, 188, 189, 190, 
191, 192, 193, 194, 195, 196, 197, 198, 199, 200, 
201, 202, 203, 204, 205, 206, 207, 208, 209, 210, 
211, 212, 213, 214, 215, 216, 217, 218, 219, 220, 
221, 222, 223, 224, 225, 226, 227, 228, 229, 230, 
231, 232, 233, 234, 235, 236, 237, 238, 239, 240, 
241, 242, 243, 244, 245, 246, 247, 248, 249, 250, 
251, 252, 253, 254, 255, 256, 257, 258, 259, 260, 
261, 262, 263, 264, 265, 266, 267, 268, 269, 270, 
271, 272, 273, 274, 275, 276, 277, 278, 279, 280, 
281, 282, 283, 284, 285, 286, 287, 288, 289, 290, 
291, 292, 293, 294, 295, 296, 297, 298, 299, 300, 
301, 302, 303, 304, 305, 306, 307, 308, 309, 310, 
311, 312, 313, 314, 315, 316, 317, 318, 319, 320, 
321, 322, 323, 324, 325, 326, 327, 328, 329, 330, 
331, 332, 333, 334, 335, 336, 337, 338, 339, 340, 
341, 342, 343, 344, 345, 346, 347, 348, 349, 350, 
351, 352, 353, 354, 355, 356, 357, 358, 359, 360, 
361, 362, 363, 364, 365, 366, 367, 368, 369, 370, 
371, 372, 373, 374, 375, 376, 377, 378, 379, 380, 
381, 382, 383, 384, 385, 386, 387, 388, 389, 390, 
391, 392, 393, 394, 395, 396, 397, 398, 399, 400, 
401, 402, 403, 404, 405, 406, 407, 408, 409, 410, 
411, 412, 413, 414, 415, 416, 417, 418, 419, 420, 
421, 422, 423, 424, 425, 426, 427, 428, 429, 430, 
431, 432, 433, 434, 435, 436, 437, 438, 439, 440, 
441, 442, 443, 444, 445, 446, 447, 448, 449, 450, 
451, 452, 453, 454, 455, 456, 457, 458, 459, 460, 
461, 462, 463, 464, 465, 466, 467, 468, 469, 470, 
471, 472, 473, 474, 475, 476, 477, 478, 479, 480, 
481, 482, 483, 484, 485, 486, 487, 488, 489, 490, 
491, 492, 493, 494, 495, 496, 497, 498, 499, 500, 
501, 502, 503, 504, 505, 506, 507, 508, 509, 510, 
511, 512, 513, 514, 515, 516, 517, 518, 519, 520, 
521, 522, 523, 524, 525, 526, 527, 528, 529, 530, 
531, 532, 533, 534, 535, 536, 537, 538, 539, 540, 
541, 542, 543, 544, 545, 546, 547, 548, 549, 550, 
551, 552, 553, 554, 555, 556, 557, 558, 559, 560, 
561, 562, 563, 564, 565, 566, 567, 568, 569, 570, 
571, 572, 573, 574, 575, 576, 577, 578, 579, 580, 
581, 582, 583, 584, 585, 586, 587, 588, 589, 590, 
591, 592, 593, 594, 595, 596, 597, 598, 599, 600, 
601, 602, 603, 604, 605, 606, 607, 608, 609, 610, 
611, 612, 613, 614, 615, 616, 617, 618, 619, 620, 
621, 622, 623, 624, 625, 626, 627, 628, 629, 630, 
631, 632, 633, 634, 635, 636, 637, 638, 639, 640, 
641, 642, 643, 644, 645, 646, 647, 648, 649, 650, 
651, 652, 653, 654, 655, 656, 657, 658, 659, 660, 
661, 662, 663, 664, 665, 666, 667, 668, 669, 670, 
671, 672, 673, 674, 675, 676, 677, 678, 679, 680, 
681, 682, 683, 684, 685, 686, 687, 688, 689, 690, 
691, 692, 693, 694, 695, 696, 697, 698, 699, 700, 
701, 702, 703, 704, 705, 706, 707, 708, 709, 710, 
711, 712, 713, 714, 715, 716, 717, 718, 719, 720, 
721, 722, 723, 724, 725, 726, 727, 728, 729, 730, 
731, 732, 733, 734, 735, 736, 737, 738, 739, 740, 
741, 742, 743, 744, 745, 746, 747, 748, 749, 750, 
751, 752, 753, 754, 755, 756, 757, 758, 759, 760, 
761, 762, 763, 764, 765, 766, 767, 768, 769, 770, 
771, 772, 773, 774, 775, 776, 777, 778, 779, 780, 
781, 782, 783, 784, 785, 786, 787, 788, 789, 790, 
791, 792, 793, 794, 795, 796, 797, 798, 799, 800, 
801, 802, 803, 804, 805, 806, 807, 808, 809, 810, 
811, 812, 813, 814, 815, 816, 817, 818, 819, 820, 
821, 822, 823, 824, 825, 826, 827, 828, 829, 830, 
831, 832, 833, 834, 835, 836, 837, 838, 839, 840, 
841, 842, 843, 844, 845, 846, 847, 848, 
