*Heading
 /Users/juliagao/geometry-optimization-net/scripts/../runs/run2/shape_55.inp
*NODE
1, 0, -0.3, 0
2, 0.425, -0.3, 0
3, 0.575, -0.3, 0
4, 1, -0.3, 0
5, 1, 0.3, 0
6, 0.575, 0.3, 0
7, 0.425, 0.3, 0
8, 0, 0.3, 0
9, 0.6741650067, -0.0251059285, 0
10, 0.026362295929096, -0.3, 0
11, 0.078804093503467, -0.3, 0
12, 0.13077829570358, -0.3, 0
13, 0.18322455018504, -0.3, 0
14, 0.23671539729193, -0.3, 0
15, 0.29069999691098, -0.3, 0
16, 0.3447635811365, -0.3, 0
17, 0.39839092946161, -0.3, 0
18, 0.052724591858192, -0.3, 0
19, 0.10488359514874, -0.3, 0
20, 0.15667299625841, -0.3, 0
21, 0.20977610411167, -0.3, 0
22, 0.26365469047219, -0.3, 0
23, 0.31774530334977, -0.3, 0
24, 0.37178185892323, -0.3, 0
25, 0.45014520384625, -0.3, 0
26, 0.49997297145177, -0.3, 0
27, 0.54982776760552, -0.3, 0
28, 0.4752904076925, -0.3, 0
29, 0.52465553521104, -0.3, 0
30, 0.60159149299443, -0.3, 0
31, 0.65591278195955, -0.3, 0
32, 0.711418719209, -0.3, 0
33, 0.76600185662806, -0.3, 0
34, 0.81976185905306, -0.3, 0
35, 0.87338296022116, -0.3, 0
36, 0.92549984640945, -0.3, 0
37, 0.97547431885718, -0.3, 0
38, 0.62818298598886, -0.3, 0
39, 0.68364257793023, -0.3, 0
40, 0.73919486048778, -0.3, 0
41, 0.79280885276834, -0.3, 0
42, 0.84671486533778, -0.3, 0
43, 0.90005105510455, -0.3, 0
44, 0.95094863771435, -0.3, 0
45, 1, -0.2741573428566, 0
46, 1, -0.22177590635709, 0
47, 1, -0.16773634063258, 0
48, 1, -0.11261720962611, 0
49, 1, -0.05739097739583, 0
50, 1, -0.0020860221500477, 0
51, 1, 0.053276631524131, 0
52, 1, 0.10905296617099, 0
53, 1, 0.16508202155174, 0
54, 1, 0.21997549326809, 0
55, 1, 0.27347532911497, 0
56, 1, -0.2483146857132, 0
57, 1, -0.19523712700098, 0
58, 1, -0.14023555426419, 0
59, 1, -0.084998864988033, 0
60, 1, -0.029783089803627, 0
61, 1, 0.025611045503531, 0
62, 1, 0.08094221754473, 0
63, 1, 0.13716371479724, 0
64, 1, 0.19300032830623, 0
65, 1, 0.24695065822995, 0
66, 0.97454050927596, 0.3, 0
67, 0.92323425748606, 0.3, 0
68, 0.87131788327208, 0.3, 0
69, 0.81924736902798, 0.3, 0
70, 0.76701846966721, 0.3, 0
71, 0.71324192484968, 0.3, 0
72, 0.65736170511657, 0.3, 0
73, 0.60201501596809, 0.3, 0
74, 0.94908101855191, 0.3, 0
75, 0.89738749642022, 0.3, 0
76, 0.84524827012394, 0.3, 0
77, 0.79324646793203, 0.3, 0
78, 0.74079047140239, 0.3, 0
79, 0.68569337829697, 0.3, 0
80, 0.62903003193617, 0.3, 0
81, 0.55006219985605, 0.3, 0
82, 0.50073992060068, 0.3, 0
83, 0.45067772074463, 0.3, 0
84, 0.52512439971211, 0.3, 0
85, 0.47635544148925, 0.3, 0
86, 0.39812955333974, 0.3, 0
87, 0.34482914629507, 0.3, 0
88, 0.29168779592105, 0.3, 0
89, 0.23710445321527, 0.3, 0
90, 0.18143836520446, 0.3, 0
91, 0.12753672738789, 0.3, 0
92, 0.076048764674342, 0.3, 0
93, 0.025334152241368, 0.3, 0
94, 0.37125910667947, 0.3, 0
95, 0.31839918591066, 0.3, 0
96, 0.26497640593144, 0.3, 0
97, 0.20923250049909, 0.3, 0
98, 0.15364422990983, 0.3, 0
99, 0.10142922486595, 0.3, 0
100, 0.050668304482735, 0.3, 0
101, 0, 0.2742057531565, 0
102, 0, 0.22156807215353, 0
103, 0, 0.16712728428412, 0
104, 0, 0.11228899128137, 0
105, 0, 0.058034773404149, 0
106, 0, 0.0038173666908995, 0
107, 0, -0.050989184442352, 0
108, 0, -0.1068581588693, 0
109, 0, -0.16307025990983, 0
110, 0, -0.21851003871209, 0
111, 0, -0.27300213394818, 0
112, 0, 0.248411506313, 0
113, 0, 0.19472463799406, 0
114, 0, 0.13952993057418, 0
115, 0, 0.085048051988561, 0
116, 0, 0.031021494819736, 0
117, 0, -0.023386761437937, 0
118, 0, -0.078591607446767, 0
119, 0, -0.13512471029184, 0
120, 0, -0.19101580952782, 0
121, 0, -0.24600426789637, 0
122, 0.67766260099346, 0.0024002529788883, 0
123, 0.73164343713704, -0.085497398836216, 0
124, 0.76741891559726, -0.12931369614104, 0
125, 0.78950370270928, -0.18161674160923, 0
126, 0.776432170203, -0.23511307510892, 0
127, 0.72504474712949, -0.25480145350985, 0
128, 0.66879959646881, -0.24554811892615, 0
129, 0.61601138767055, -0.22264346644179, 0
130, 0.56690096077492, -0.19710413127529, 0
131, 0.51766099443005, -0.21490249370173, 0
132, 0.47533988526118, -0.24719454400093, 0
133, 0.42274009755421, -0.24707216779751, 0
134, 0.37646099175362, -0.21712085862345, 0
135, 0.32472885587121, -0.19343363027001, 0
136, 0.27354183832804, -0.1685513141324, 0
137, 0.24484216359742, -0.1211793285129, 0
138, 0.25621026522467, -0.066557874660287, 0
139, 0.28451573572536, -0.017706739518776, 0
140, 0.28852802008795, 0.036864692966967, 0
141, 0.27264263300627, 0.088740281174441, 0
142, 0.26779792371833, 0.14240428934971, 0
143, 0.28611459173099, 0.19352003475382, 0
144, 0.32687282564521, 0.22985318334685, 0
145, 0.37718954010536, 0.25038559163434, 0
146, 0.43043975432752, 0.25812864716676, 0
147, 0.48184413705078, 0.24759984575913, 0
148, 0.52360178126492, 0.21625693257588, 0
149, 0.55287680953087, 0.17117385138144, 0
150, 0.57747403447172, 0.12424167018534, 0
151, 0.62884193461636, 0.11111912734287, 0
152, 0.68002317355232, 0.099277084991361, 0
153, 0.69877934631498, 0.051057282446147, 0
154, 0.69124427242893, -0.047123430683602, 0
155, 0.68975849781441, 0.025763808046286, 0
156, 0.6973782473654, 0.078424944842881, 0
157, 0.65531816095686, 0.10852199968801, 0
158, 0.60231931279427, 0.11223350053437, 0
159, 0.56445427628724, 0.14645752977955, 0
160, 0.53954880888526, 0.19502359422891, 0
161, 0.50412128116352, 0.23435245532488, 0
162, 0.45716562353835, 0.25552631427128, 0
163, 0.40370697476171, 0.25604657959494, 0
164, 0.35148697044568, 0.24175503716617, 0
165, 0.30454858067267, 0.21400191608549, 0
166, 0.27356390807842, 0.16895687639129, 0
167, 0.26796935853343, 0.11528179620542, 0
168, 0.28018010663099, 0.062898502641417, 0
169, 0.29259618223285, 0.0096151169279136, 0
170, 0.27017575141376, -0.041800128855032, 0
171, 0.24649457105988, -0.093373609902357, 0
172, 0.2541508004399, -0.14760337007695, 0
173, 0.29798648004468, -0.18288923621176, 0
174, 0.35158957759583, -0.20364717611279, 0
175, 0.39945192714539, -0.23345354280323, 0
176, 0.4494087666134, -0.25282488545729, 0
177, 0.49772229107138, -0.23335660445318, 0
178, 0.53835184418277, -0.19719837716275, 0
179, 0.59085741601272, -0.20893458875769, 0
180, 0.64178623880812, -0.23517045434509, 0
181, 0.69688914296567, -0.25259821588952, 0
182, 0.753001204907, -0.24994825490363, 0
183, 0.78929517283988, -0.21034496542602, 0
184, 0.78105362030014, -0.15439179066669, 0
185, 0.75049577895126, -0.10636260822532, 0
186, 0.71143894449101, -0.065953778723029, 0
187, 0.58349517379787, -0.25889696883615, 0
188, 0.262245106118, -0.27343334640917, 0
189, 0.33168370863099, 0.26717771195174, 0
190, 0.069312758777433, 0.053237238325215, 0
191, 0.12613358679155, 0.27143904847208, 0
192, 0.072657967298363, 0.18998506303067, 0
193, 0.32747762777968, -0.25192832225376, 0
194, 0.57452327158532, 0.1872015546688, 0
195, 0.88438613433315, -0.20180245411712, 0
196, 0.92926399024886, -0.11980841481189, 0
197, 0.95306741463203, -0.1442112051581, 0
198, 0.045497119759961, -0.05408503255228, 0
199, 0.18395135584911, -0.16829207843584, 0
200, 0.068517523297652, -0.0010751041749081, 0
201, 0.25035037725558, 0.14514958683938, 0
202, 0.092947980628883, 0.078766834505004, 0
203, 0.1368940694791, -0.14012865799893, 0
204, 0.21785458406863, -0.064741753294853, 0
205, 0.23098339993816, 0.067136655754229, 0
206, 0.068621546671369, -0.11016163662286, 0
207, 0.02299999081487, 0.029334412410131, 0
208, 0.12080083223028, 0.18692960401777, 0
209, 0.15587838805174, -0.087655035797835, 0
210, 0.13462652801462, -0.086448553201714, 0
211, 0.19797982666119, -0.063508260055835, 0
212, 0.13943719380143, -0.16684705438425, 0
213, 0.23277325445655, 0.26695815772368, 0
214, 0.16193249020309, 0.073351719448739, 0
215, 0.24559214926273, -0.040067104643593, 0
216, 0.095572519513166, 0.16089169150648, 0
217, 0.16116598445137, 0.04636358667169, 0
218, 0.21944977571503, 0.20656079280767, 0
219, 0.094534385146625, 0.13339943253279, 0
220, 0.21435647446196, -0.11797912646253, 0
221, 0.022815979414766, -0.080162860412277, 0
222, 0.25860623604894, 0.011926739256861, 0
223, 0.11601887362815, 0.077041352918776, 0
224, 0.1618739491908, -0.16756618012887, 0
225, 0.13820537125371, 0.048164004398187, 0
226, 0.17959390313887, -0.27340051309634, 0
227, 0.049068756783852, 0.21875977827803, 0
228, 0.20778369653935, 0.069291411484293, 0
229, 0.23545188305581, 0.17535353265434, 0
230, 0.1166771212336, -0.16613941732687, 0
231, 0.098089623247763, 0.2162312580521, 0
232, 0.38253494633005, -0.26737922308977, 0
233, 0.74521554284556, 0.21737794043995, 0
234, 0.89837778482084, 0.18962261790562, 0
235, 0.92402181258269, 0.16226309223811, 0
236, 0.94985730130698, 0.078669387149899, 0
237, 0.87169996021679, 0.2724428822263, 0
238, 0.92379606635359, 0.1901485862881, 0
239, 0.97450583136515, 0.24623902609974, 0
240, 0.821489125342, 0.21694699871641, 0
241, 0.97449957328703, 0.27315637171704, 0
242, 0.9242555062672, 0.13416809120596, 0
243, 0.79851683249637, 0.10351177724463, 0
244, 0.97454571877637, 0.2190961104712, 0
245, 0.69746995803422, 0.19101902811629, 0
246, 0.69181669983628, 0.24383947629911, 0
247, 0.65012108159958, 0.18858529181501, 0
248, 0.63998679795249, 0.23964609934375, 0
249, 0.61406142968116, 0.2349017350458, 0
250, 0.70059209969389, 0.11359299479688, 0
251, 0.61437314671444, 0.13352750223812, 0
252, 0.89900051226866, 0.13341780925778, 0
253, 0.87253475852164, 0.21712720176592, 0
254, 0.82280097073497, 0.16091765412563, 0
255, 0.74580502019471, -0.00066352070669939, 0
256, 0.85032372875326, 0.01492368608525, 0
257, 0.79990631274151, 0.011925534809817, 0
258, 0.94950601973155, 0.13505372479639, 0
259, 0.79689473601869, 0.18924612522249, 0
260, 0.84583999247407, 0.27238329429018, 0
261, 0.90051692176729, 0.018531188532273, 0
262, 0.95033577094352, 0.02216146624627, 0
263, 0.8581325325076, -0.10444939289792, 0
264, 0.90473102542206, -0.095817766437975, 0
265, 0.95218249697838, -0.089883049824674, 0
266, 0.95109128528359, -0.034236164378894, 0
267, 0.90200345373883, -0.039455876754452, 0
268, 0.85175895378302, -0.046234597782947, 0
269, 0.81452717075996, -0.11954036597036, 0
270, 0.7935389147966, -0.056555677132526, 0
271, 0.63296349832932, -0.26912085644906, 0
272, 0.86127558579879, -0.1301644133617, 0
273, 0.92985865588376, -0.14645749819839, 0
274, 0.86306558120104, -0.15473229080493, 0
275, 0.9297610737201, -0.19860599015133, 0
276, 0.90400356728141, -0.25039300517414, 0
277, 0.82386684192597, -0.18253675188019, 0
278, 0.84309699296606, -0.18107295973509, 0
279, 0.77454350626, 0.0098309115959198, 0
280, 0.80104353860688, -0.017949095945415, 0
281, 0.76590288810721, -0.033619262169156, 0
282, 0.69947231347597, 0.16572642223396, 0
283, 0.63365408646747, 0.12940112504943, 0
284, 0.23145663819478, 0.013987356284753, 0
285, 0.15752981138976, -0.034124632487764, 0
286, 0.62907655047966, -0.28475718579144, 0
287, 0.65593900208698, -0.27714170743451, 0
288, 0.50597544876443, -0.28300905864226, 0
289, 0.55879869670198, -0.25737286644128, 0
290, 0.04596644337728, 0.027698447327766, 0
291, 0.19961828802942, -0.14308690481138, 0
292, 0.090675078607929, -0.084039431756818, 0
293, 0.1661944184952, -0.19396616282821, 0
294, 0.22928921934406, 0.12073777681629, 0
295, 0.19560673935684, 0.20931463846487, 0
296, 0.37506966466863, -0.28344285927946, 0
297, 0.40559732291961, -0.27834426463944, 0
298, 0.84850407130021, 0.13247339366623, 0
299, 0.89931357198784, 0.10497202452098, 0
300, 0.82329824130857, 0.13239399244156, 0
301, 0.38297212909677, 0.27762081243334, 0
302, 0.41776500562754, 0.27963420127829, 0
303, 0.5111241699916, -0.26467996418242, 0
304, 0.51534521370545, -0.24360439172469, 0
305, 0.025663179220358, -0.27297554558584, 0
306, 0.15352647826286, -0.27334450715707, 0
307, 0.15854098736955, -0.14105229554559, 0
308, 0.49315916929603, -0.25341915065925, 0
309, 0.57945322128637, -0.27979247832427, 0
310, 0.79590084371584, -0.13175825979441, 0
311, 0.82254089994634, -0.20651408480196, 0
312, 0.87697902069475, -0.27566885195801, 0
313, 0.83319303538662, -0.25287612697761, 0
314, 0.86266819410651, -0.20347231278111, 0
315, 0.90699150577403, -0.14895975411569, 0
316, 0.5879530328966, 0.22700309144455, 0
317, 0.5463528244807, 0.2511379307769, 0
318, 0.6276850517621, 0.18435984261651, 0
319, 0.65560949639249, 0.12685996033259, 0
320, 0.63611413965679, 0.14655756971941, 0
321, 0.88126599422909, -0.099638783645664, 0
322, 0.92672030495285, -0.27487433243213, 0
323, 0.80431187195163, -0.16091069600529, 0
324, 0.89777631767553, 0.24503272600098, 0
325, 0.94895627490744, 0.27289483162868, 0
326, 0.97517228815749, 0.023908473346437, 0
327, 0.97554445581543, -0.031948756362358, 0
328, 0.95066811640577, -0.0060800699652679, 0
329, 0.97533780567115, -0.0040461349094045, 0
330, 0.87295920284221, 0.18925903713636, 0
331, 0.92358435371094, 0.21782284559206, 0
332, 0.79876686785671, 0.073540497122538, 0
333, 0.97475272650694, 0.13605339898897, 0
334, 0.051300754028967, -0.27300386057244, 0
335, 0.32179942306446, -0.27608630533995, 0
336, 0.047407145929334, 0.13661431460307, 0
337, 0.024826478304926, 0.24703224267553, 0
338, 0.16019821883686, 0.019472054410666, 0
339, 0.1795099944195, -0.1420247867356, 0
340, 0.073581892619303, 0.2174992932661, 0
341, 0.20618153558949, -0.27341217844478, 0
342, 0.1005886483935, 0.27199479427311, 0
343, 0.18427713749715, 0.044494755881824, 0
344, 0.076849268846507, -0.27307306218086, 0
345, 0.090809096547699, -0.029747288312, 0
346, 0.63451691931782, 0.26885532161431, 0
347, 0.68868955834624, 0.27160252624726, 0
348, 0.66589440756911, 0.24238864380045, 0
349, 0.66167266262586, 0.27062746106025, 0
350, 0.21870170110314, -0.14431044099921, 0
351, 0.099407890379653, 0.24406420790648, 0
352, 0.95007234551915, 0.050422550885828, 0
353, 0.94907781186919, 0.21837877016763, 0
354, 0.97503979185717, 0.051873753210321, 0
355, 0.09058492343603, -0.056878853724377, 0
356, 0.25234242083961, 0.23190662774371, 0
357, 0.20042841581602, 0.23848259628813, 0
358, 0.14466748815997, 0.18518958471834, 0
359, 0.97467532624473, 0.16399293617591, 0
360, 0.976061013898, -0.087382410764127, 0
361, 0.97648240801499, -0.14216387372873, 0
362, 0.84194237605498, -0.20505775345536, 0
363, 0.97630802955987, -0.11486622978678, 0
364, 0.17835990252994, 0.26992344991382, 0
365, 0.15893546445228, -0.0073497890705312, 0
366, 0.1145601793302, 0.022831124743867, 0
367, 0.95161191639441, -0.062202846431628, 0
368, 0.97579237954463, -0.05973450019908, 0
369, 0.046328857723726, -0.13666453847513, 0
370, 0.071790212067593, 0.16248485345504, 0
371, 0.068223905620014, -0.082811117492665, 0
372, 0.047916310218755, 0.1640271468635, 0
373, 0.15194861539297, 0.270779076422, 0
374, 0.24976426360072, -0.17008381567526, 0
375, 0.096776593607068, 0.1885052664809, 0
376, 0.024257822069992, 0.19297394055283, 0
377, 0.045579418291494, -0.081534686655641, 0
378, 0.091747443231281, 0.024464891135543, 0
379, 0.97493080396845, 0.079862006707942, 0
380, 0.94920559214316, 0.19084483201094, 0
381, 0.87449401651141, 0.075282527893118, 0
382, 0.23363861416663, -0.27338722033959, 0
383, 0.14270358438448, -0.19348266190004, 0
384, 0.046251016700891, 0.054856409079835, 0
385, 0.90726114836684, -0.1747059371136, 0
386, 0.97599374016185, -0.24852687585046, 0
387, 0.97570286307587, -0.27431207235588, 0
388, 0.25819504183157, 0.038570252544271, 0
389, 0.25548695139239, 0.17214359009251, 0
390, 0.025035330411445, -0.24589559993258, 0
391, 0.069798716191536, 0.080427936656728, 0
392, 0.29835631111106, 0.25742475321491, 0
393, 0.83859210906914, -0.22915592477996, 0
394, 0.97646875431459, -0.1960641259263, 0
395, 0.97654250905028, -0.16923919170079, 0
396, 0.17641891941258, -0.088867045806295, 0
397, 0.022950862048012, -0.10799990841264, 0
398, 0.023189109058098, -0.13585848789484, 0
399, 0.04584899579726, -0.10909595815132, 0
400, 0.87210857398176, 0.24483642453125, 0
401, 0.97460490440737, 0.19175161992833, 0
402, 0.94967263521219, 0.10690333424966, 0
403, 0.04964968227857, 0.24596380837756, 0
404, 0.23906322759639, -0.19429471491376, 0
405, 0.82219102794316, 0.18905706917752, 0
406, 0.79504674011604, 0.24471000567243, 0
407, 0.84642364467728, 0.24472501376642, 0
408, 0.92476702292536, 0.077467839573621, 0
409, 0.79409500612768, 0.27235441164391, 0
410, 0.87336459591921, 0.16118047386783, 0
411, 0.95134129370009, -0.27455332156771, 0
412, 0.95198319415778, -0.24900523909873, 0
413, 0.95318508959475, -0.17087367923423, 0
414, 0.82158489811137, -0.13988032094024, 0
415, 0.11790698539695, 0.13166166228473, 0
416, 0.2230866626462, -0.038549554081343, 0
417, 0.92327914145772, 0.27269293271991, 0
418, 0.71771524408328, 0.2444995530991, 0
419, 0.095512864022538, -0.19246483306888, 0
420, 0.048479174912134, 0.19144511361525, 0
421, 0.23711875321542, -0.065816685285262, 0
422, 0.022802533158501, -0.025129489408488, 0
423, 0.72420067532993, 0.13722798866356, 0
424, 0.89964866961559, 0.076319843225277, 0
425, 0.9068246347055, -0.20015256677503, 0
426, 0.8096968433077, -0.25354640642734, 0
427, 0.74197654623574, 0.27228379915961, 0
428, 0.72270117939432, 0.076968714712535, 0
429, 0.60723082944546, 0.26585309269309, 0
430, 0.56217980566053, 0.21401208247076, 0
431, 0.59742788987801, 0.19962206355518, 0
432, 0.13477876127051, -0.059555201779452, 0
433, 0.26853907993517, -0.19234743581378, 0
434, 0.13528136948752, -0.11331856366952, 0
435, 0.16827213159683, 0.18321777322783, 0
436, 0.81775108210924, -0.23057996254775, 0
437, 0.97627256670966, -0.2224191044279, 0
438, 0.87411299370311, 0.10420292818411, 0
439, 0.92546104897896, 0.020365799713521, 0
440, 0.90003679279045, 0.047491342240366, 0
441, 0.92507809893361, 0.048947706353389, 0
442, 0.74796392102625, 0.074786251041698, 0
443, 0.87374589211396, 0.13283682716834, 0
444, 0.79816867598845, 0.13268986345136, 0
445, 0.18977635823759, -0.19437169082631, 0
446, 0.045562314641525, -0.026735942757223, 0
447, 0.1225888526167, 0.21487159278401, 0
448, 0.092319617180657, 0.051590959471351, 0
449, 0.1914498749286, 0.18094479989035, 0
450, 0.093648343194429, -0.16544898062973, 0
451, 0.19636269685521, -0.11669493264562, 0
452, 0.24925477474573, 0.11808309347841, 0
453, 0.16275888857974, 0.10047452328214, 0
454, 0.023309182091601, 0.083581894176589, 0
455, 0.15652809365928, -0.11439770886889, 0
456, 0.070359969635007, 0.10769229332767, 0
457, 0.20680027794587, 0.015898660444348, 0
458, 0.050187562294732, 0.27301293166098, 0
459, 0.21440438362806, -0.09128235779504, 0
460, 0.6374801328059, -0.25240755682153, 0
461, 0.60842955978256, -0.26320142450337, 0
462, 0.61231407086708, -0.24367231771943, 0
463, 0.74722146680458, 0.041945772152213, 0
464, 0.71524644964475, 0.014354745939841, 0
465, 0.72142854441516, 0.046369532587984, 0
466, 0.92839224679648, -0.092640747313558, 0
467, 0.90325376898714, -0.068016471219135, 0
468, 0.92660037346848, -0.03671063322711, 0
469, 0.927442470106, -0.064914847923204, 0
470, 0.071020101407753, 0.13504270569478, 0
471, 0.1147303053139, -0.13923418183815, 0
472, 0.20569722245574, -0.16901581199354, 0
473, 0.35672512242997, -0.25894055452634, 0
474, 0.34983047739245, -0.27931068380206, 0
475, 0.90114197253389, -0.010496296538273, 0
476, 0.92595301790528, -0.0082247035189491, 0
477, 0.27930099393787, 0.22557570127286, 0
478, 0.23061518023426, -0.11943793129883, 0
479, 0.18836011831627, 0.15309739363662, 0
480, 0.12788011481347, -0.27326012511312, 0
481, 0.69035876553733, -0.27322388210943, 0
482, 0.66277452145773, -0.26175159997792, 0
483, 0.77170910575475, 0.18962986786475, 0
484, 0.89806723647828, 0.21740907648665, 0
485, 0.77339479845073, 0.073765859198664, 0
486, 0.92340345112277, 0.2453216080502, 0
487, 0.13640685144085, -0.0057604273480608, 0
488, 0.23129570215293, -0.092414340442155, 0
489, 0.11921656785074, 0.15920066746841, 0
490, 0.11344778313876, -0.11226089311422, 0
491, 0.15635287045306, -0.060885518997679, 0
492, 0.8403853224789, -0.13481371201516, 0
493, 0.8011636571254, -0.27661229059007, 0
494, 0.74602914848074, -0.27560886908128, 0
495, 0.71820007180366, -0.27623152701018, 0
496, 0.18154870693723, -0.0089698550544582, 0
497, 0.21022576753831, 0.15061941344431, 0
498, 0.17142575407492, 0.21152434361145, 0
499, 0.72191353928793, 0.19072324836564, 0
500, 0.71994768901882, 0.2173938093144, 0
501, 0.7240740988473, 0.10864107909619, 0
502, 0.95259395219193, -0.2232414030459, 0
503, 0.88464788491944, -0.15173597158846, 0
504, 0.17492871735076, 0.2403963910126, 0
505, 0.13900937333433, 0.075240316236296, 0
506, 0.06824312920858, -0.028264155207436, 0
507, 0.023960513549513, -0.19120502355016, 0
508, 0.51720588737566, 0.26394548587153, 0
509, 0.57874212435649, 0.26073970670645, 0
510, 0.46669655339725, 0.27608618525942, 0
511, 0.49161983644416, 0.27148782103933, 0
512, 0.20447958464455, -0.010647184283499, 0
513, 0.23677034503696, -0.14581425452849, 0
514, 0.11322746463223, -0.031208793980904, 0
515, 0.95270509504871, -0.11722201627442, 0
516, 0.88333667360418, -0.12615858748024, 0
517, 0.65575648415737, 0.14618697652285, 0
518, 0.67618870228029, 0.16683839377852, 0
519, 0.65381679360897, 0.16651652695095, 0
520, 0.44144664904423, 0.27847155171556, 0
521, 0.33658498624108, -0.22733218787249, 0
522, 0.55451793386078, -0.27937894549656, 0
523, 0.20776928003203, 0.042555610385201, 0
524, 0.16575298916162, 0.15534196963925, 0
525, 0.72761062632468, -0.036535088732809, 0
526, 0.70359859543619, -0.016224584706051, 0
527, 0.76921710353179, -0.084011874717957, 0
528, 0.74888277168276, -0.060420881219192, 0
529, 0.53449297210951, -0.2595998901896, 0
530, 0.48260763749527, -0.28501796463454, 0
531, 0.59850865947089, 0.14593425156443, 0
532, 0.8492989003696, 0.074419415397102, 0
533, 0.94898323580061, 0.24571551467513, 0
534, 0.82073749448902, 0.24468914592493, 0
535, 0.023142481671561, 0.056453628668768, 0
536, 0.11284597285296, -0.085247811339251, 0
537, 0.069351148567664, -0.137502261473, 0
538, 0.13547172871413, -0.032663572377138, 0
539, 0.76810612617032, 0.27234567293231, 0
540, 0.69482984009055, 0.21697328599984, 0
541, 0.82369666850357, 0.10337332146871, 0
542, 0.48837742210123, -0.26981794627308, 0
543, 0.46043853213199, -0.28508077002075, 0
544, 0.74669108645061, 0.19016450965744, 0
545, 0.84755606515771, 0.18906563705997, 0
546, 0.89753287848161, 0.27254437105534, 0
547, 0.80547610374737, -0.09365036631743, 0
548, 0.78430752256344, -0.11021835548282, 0
549, 0.47071410612448, -0.26024291661595, 0
550, 0.22733005683038, -0.16969360077944, 0
551, 0.60477943696965, -0.28174061455841, 0
552, 0.11385365935525, -0.0041954558128216, 0
553, 0.092180703052807, -0.13835953397834, 0
554, 0.88016351674298, -0.25121052932671, 0
555, 0.85193134863264, -0.27608737406089, 0
556, 0.88502309387001, -0.17686378770882, 0
557, 0.35897223584857, 0.27297443834245, 0
558, 0.82311789138499, -0.16018893977767, 0
559, 0.8565628442087, -0.25205559949916, 0
560, 0.92903316660227, -0.22423864496842, 0
561, 0.1023678134477, -0.27316408112928, 0
562, 0.075334745328046, 0.27250260405651, 0
563, 0.047889944325977, -0.19155087306, 0
564, 0.022773044039186, -0.052584631531314, 0
565, 0.17697868223302, -0.11551568825493, 0
566, 0.22821280633472, -0.012433335247038, 0
567, 0.24274564533772, 0.20310034374995, 0
568, 0.20766503686861, 0.096162103588014, 0
569, 0.64533280871965, 0.2128842255287, 0
570, 0.67347756961793, 0.19054778987282, 0
571, 0.66992927026102, 0.2156714355094, 0
572, 0.62113288447585, 0.20785389581083, 0
573, 0.58591722028926, 0.16439209169806, 0
574, 0.90608812839186, -0.12274527888289, 0
575, 0.091227561343814, -0.0026369659793035, 0
576, 0.068885116090036, 0.02608060945602, 0
577, 0.1774533499117, -0.062207224159507, 0
578, 0.22961068312676, 0.093811808479992, 0
579, 0.068120245078065, -0.055507667951577, 0
580, 0.11916107329997, -0.19297252779143, 0
581, 0.76933156524318, 0.24474786026684, 0
582, 0.79762953970963, 0.16119990607492, 0
583, 0.77341567119329, 0.10422402779483, 0
584, 0.79600899016065, 0.21703541131533, 0
585, 0.2012001183094, -0.037065813962753, 0
586, 0.14705179071181, 0.21333513625526, 0
587, 0.18640270977061, 0.12560691618522, 0
588, 0.14958834674115, 0.24186006272427, 0
589, 0.86029211323733, -0.22786035249194, 0
590, 0.90569721390397, -0.22537098094914, 0
591, 0.23102224358747, 0.1479395855134, 0
592, 0.025089013852545, 0.2735713195028, 0
593, 0.022883412948625, 0.0021391132178683, 0
594, 0.22615989474151, 0.23583194202959, 0
595, 0.25120376300689, 0.091339847095397, 0
596, 0.047017426448953, -0.16415750853316, 0
597, 0.20519844555699, 0.26873950134022, 0
598, 0.77260686675359, 0.16182772196543, 0
599, 0.74357107322719, 0.24472470561515, 0
600, 0.92449988689078, 0.1058886948071, 0
601, 0.26225697003225, 0.26394016510413, 0
602, 0.07040923451081, -0.16478431798886, 0
603, 0.11527624433095, 0.049902031248263, 0
604, 0.87547444113871, 0.016693912766311, 0
605, 0.87716273876024, -0.042578839605731, 0
606, 0.85098967397751, -0.015296576668883, 0
607, 0.87617172563141, -0.012885938449603, 0
608, 0.8267611917498, -0.27644756414932, 0
609, 0.86355374837772, -0.17906064384461, 0
610, 0.8356485641312, -0.11081188563949, 0
611, 0.82491466355518, -0.050682134436894, 0
612, 0.85454183852723, -0.076508663735674, 0
613, 0.82983669038022, -0.083164719437623, 0
614, 0.87898720968415, -0.071742355290362, 0
615, 0.84700288978262, 0.21697397623037, 0
616, 0.81998107657482, 0.27235830027161, 0
617, 0.046962943358258, 0.10928508334343, 0
618, 0.14107569474068, 0.12980063266774, 0
619, 0.16395061789128, 0.12778660130938, 0
620, 0.84890321686321, 0.10364298058205, 0
621, 0.79913441177648, 0.042872038668231, 0
622, 0.77349202840434, 0.042168477413544, 0
623, 0.25481268986041, 0.06495204489721, 0
624, 0.14264808367227, 0.15736640550403, 0
625, 0.97483689825207, 0.10797088157203, 0
626, 0.74851411532678, 0.10579337562895, 0
627, 0.77318557190599, 0.13348334588905, 0
628, 0.84250966313364, -0.1577269634178, 0
629, 0.92796105564592, -0.249644600939, 0
630, 0.67781101164892, 0.14415833781722, 0
631, 0.67864126543516, 0.12200780849841, 0
632, 0.84975589597245, 0.044823831267447, 0
633, 0.82406016750779, 0.073807392955092, 0
634, 0.87493278422394, 0.046094785232217, 0
635, 0.84805943480329, 0.16092791117344, 0
636, 0.94935049690458, 0.16305012503072, 0
637, 0.71543078559184, 0.2720826158398, 0
638, 0.023980065885816, 0.16556211546808, 0
639, 0.88272298074289, -0.22659327152337, 0
640, 0.74782331698927, 0.16283853002656, 0
641, 0.82510285436695, 0.013338368601645, 0
642, 0.82568758144244, -0.017349792075726, 0
643, 0.89869060417057, 0.16163492989917, 0
644, 0.74846821015879, 0.13493655576072, 0
645, 0.18324843522655, 0.01771999606897, 0
646, 0.26517369018065, 0.19878900459526, 0
647, 0.045730149002813, 0.00051094665117604, 0
648, 0.12443230665184, 0.24304364401221, 0
649, 0.11686429447887, 0.10428311414085, 0
650, 0.82450107513632, 0.043740099870156, 0
651, 0.78012332486744, -0.014504829929287, 0
652, 0.70060764827315, 0.14045708066569, 0
653, 0.11282851102535, -0.05822314745808, 0
654, 0.64761969882187, -0.28850328459821, 0
655, 0.56268808490659, -0.23195992394142, 0
656, 0.25385217453363, -0.014521532456899, 0
657, 0.18536396540198, 0.098384747818344, 0
658, 0.39306213716867, -0.28819484580733, 0
659, 0.72339911013629, 0.16420475606789, 0
660, 0.3998058073855, 0.28555117893972, 0
661, 0.52994108305491, -0.28066620191231, 0
662, 0.21378859113281, -0.19458462422025, 0
663, 0.58733166625061, -0.23605753571075, 0
664, 0.95302088312921, -0.19722412713921, 0
665, 0.93004317927144, -0.17269584607169, 0
666, 0.60636900085799, 0.17686911823719, 0
667, 0.63309238781208, 0.16412033328641, 0
668, 0.90198994068827, -0.27525233755675, 0
669, 0.77057778311599, 0.21720550803364, 0
670, 0.61477238320529, 0.15875421670063, 0
671, 0.62175240212127, 0.14638283458719, 0
672, 0.074498076763813, 0.24500993384834, 0
673, 0.02350257155007, 0.11081566237367, 0
674, 0.53797906749552, -0.23461341628437, 0
675, 0.46711867072922, -0.27245363434324, 0
676, 0.80599923919534, -0.18295223858775, 0
677, 0.80487434876339, -0.20803049637812, 0
678, 0.79759396573178, -0.23245424784813, 0
679, 0.78469477688555, -0.25352130341367, 0
680, 0.77442002315184, -0.27630547927033, 0
681, 0.80674938270399, -0.14444506219244, 0
682, 0.050048050282751, -0.24596097548654, 0
683, 0.075018218684647, -0.24611229884408, 0
684, 0.099965259333239, -0.24630642266989, 0
685, 0.12493624259312, -0.24651256736782, 0
686, 0.15004966112201, -0.24670162162939, 0
687, 0.17553092308425, -0.24683797045118, 0
688, 0.2017137537405, -0.24687154361293, 0
689, 0.22925625656274, -0.2467409118612, 0
690, 0.25937829824494, -0.24644951917209, 0
691, 0.024544642611568, 0.22009629678563, 0
692, 0.13990806105907, 0.10243846165176, 0
693, 0.046580969943658, 0.08203361165978, 0
694, 0.091187021619873, -0.1112125141509, 0
695, 0.13735243764201, 0.021171584519139, 0
696, 0.023725996954271, 0.13812163816718, 0
697, 0.23209198122906, 0.040560222539978, 0
698, 0.21395737142269, 0.17832258207435, 0
699, 0.1848276066329, 0.071369393783281, 0
700, 0.093669728654669, 0.10603057893513, 0
701, 0.071750471368175, -0.19198259930676, 0
702, 0.023529082855937, -0.16358356674282, 0
703, 0.2082567129532, 0.12325305157504, 0
704, 0.17941491164377, -0.035590921749381, 0
705, 0.19601899771327, -0.090083858131764, 0
706, 0.024466347539279, -0.21861218561651, 0
707, 0.048909723523867, -0.21881071882235, 0
708, 0.073307773099451, -0.21908770391038, 0
709, 0.097657560362091, -0.2194123846134, 0
710, 0.12198377266184, -0.21975538841585, 0
711, 0.14636212520277, -0.22008533983955, 0
712, 0.17095867578193, -0.2203593701066, 0
713, 0.19610755775535, -0.22049965091539, 0
714, 0.22257327288572, -0.22033982939296, 0
715, 0.2524515743508, -0.21944149796862, 0
716, 0.29207781787569, -0.2739777744139, 0
717, 0.2936144348995, -0.24672826088422, 0
718, 0.2951384997193, -0.2158474671478, 0
719, 0.36572608886648, -0.2383148330416, 0
720, 0.39176997659905, -0.25063184439435, 0
721, 0.45181060263087, -0.27082812039644, 0
722, 0.44049878538637, -0.28093444608208, 0
723, 0.4501932747403, -0.26191694263244, 0
724, 0.42189973344549, -0.26434014360681, 0
******* E L E M E N T S *************
*ELEMENT, type=CPS4, ELSET=Surface1
1, 262, 328, 329, 326
2, 326, 329, 50, 61
3, 329, 327, 60, 50
4, 328, 266, 327, 329
5, 644, 423, 501, 626
6, 640, 659, 423, 644
7, 63, 333, 625, 52
8, 620, 541, 633, 532
9, 203, 471, 230, 212
10, 496, 365, 285, 704
11, 204, 211, 705, 459
12, 213, 597, 357, 594
13, 392, 189, 95, 88
14, 452, 294, 578, 595
15, 696, 114, 104, 673
16, 372, 638, 696, 336
17, 672, 403, 227, 340
18, 189, 557, 87, 95
19, 212, 230, 580, 383
20, 586, 447, 208, 358
21, 248, 348, 349, 346
22, 346, 349, 72, 80
23, 349, 347, 79, 72
24, 348, 246, 347, 349
25, 191, 342, 351, 648
26, 345, 506, 579, 355
27, 568, 657, 699, 228
28, 392, 601, 356, 477
29, 242, 252, 299, 600
30, 51, 354, 326, 61
31, 354, 352, 262, 326
32, 330, 545, 635, 410
33, 434, 490, 471, 203
34, 366, 378, 575, 552
35, 697, 523, 457, 284
36, 376, 113, 103, 638
37, 331, 484, 234, 238
38, 282, 652, 423, 659
39, 67, 75, 546, 417
40, 408, 424, 440, 441
41, 628, 558, 277, 278
42, 360, 363, 48, 59
43, 363, 361, 58, 48
44, 502, 560, 629, 412
45, 389, 229, 591, 201
46, 373, 191, 648, 588
47, 377, 221, 397, 399
48, 208, 375, 216, 489
49, 265, 360, 368, 367
50, 367, 368, 327, 266
51, 368, 49, 60, 327
52, 360, 59, 49, 368
53, 646, 567, 229, 389
54, 370, 372, 336, 470
55, 538, 514, 653, 432
56, 673, 104, 115, 454
57, 458, 100, 93, 592
58, 638, 103, 114, 696
59, 231, 340, 192, 375
60, 292, 371, 206, 694
61, 585, 704, 577, 211
62, 524, 624, 618, 619
63, 388, 222, 169, 140
64, 619, 618, 692, 453
65, 66, 74, 325, 241
66, 233, 500, 499, 544
67, 643, 410, 443, 252
68, 633, 332, 621, 650
69, 489, 216, 219, 415
70, 448, 190, 576, 378
71, 433, 718, 135, 173
72, 597, 97, 90, 364
73, 493, 680, 33, 41
74, 492, 414, 558, 628
75, 387, 45, 56, 386
76, 37, 4, 45, 387
77, 217, 225, 695, 338
78, 564, 107, 118, 221
79, 206, 399, 369, 537
80, 205, 228, 523, 697
81, 358, 208, 489, 624
82, 702, 109, 120, 507
83, 210, 536, 490, 434
84, 211, 577, 396, 705
85, 315, 503, 556, 385
86, 558, 323, 676, 277
87, 395, 47, 58, 361
88, 394, 57, 47, 395
89, 221, 118, 108, 397
90, 592, 101, 112, 337
91, 704, 285, 491, 577
92, 422, 117, 107, 564
93, 497, 479, 587, 703
94, 229, 698, 497, 591
95, 433, 404, 715, 718
96, 371, 377, 399, 206
97, 427, 637, 418, 599
98, 443, 298, 620, 438
99, 62, 379, 354, 51
100, 512, 496, 704, 585
101, 458, 592, 337, 403
102, 451, 565, 339, 291
103, 705, 396, 565, 451
104, 485, 442, 463, 622
105, 381, 532, 632, 634
106, 235, 643, 252, 242
107, 240, 584, 259, 405
108, 74, 67, 417, 325
109, 486, 324, 484, 331
110, 532, 633, 650, 632
111, 590, 639, 554, 276
112, 413, 665, 275, 664
113, 503, 274, 609, 556
114, 311, 677, 678, 436
115, 471, 553, 450, 230
116, 491, 432, 210, 209
117, 457, 645, 496, 512
118, 552, 575, 345, 514
119, 243, 583, 485, 332
120, 584, 669, 483, 259
121, 379, 236, 352, 354
122, 410, 635, 298, 443
123, 623, 205, 697, 388
124, 215, 416, 204, 421
125, 384, 535, 207, 290
126, 295, 498, 435, 449
127, 498, 586, 358, 435
128, 218, 295, 449, 698
129, 338, 695, 487, 365
130, 357, 504, 498, 295
131, 64, 401, 359, 53
132, 400, 407, 615, 253
133, 444, 627, 583, 243
134, 599, 418, 500, 233
135, 362, 311, 436, 393
136, 516, 272, 274, 503
137, 395, 413, 664, 394
138, 437, 502, 412, 386
139, 236, 408, 441, 352
140, 333, 258, 402, 625
141, 500, 540, 245, 499
142, 407, 534, 240, 615
143, 430, 194, 431, 316
144, 508, 511, 147, 161
145, 317, 508, 161, 148
146, 194, 573, 666, 431
147, 478, 513, 172, 137
148, 391, 693, 384, 190
149, 562, 92, 100, 458
150, 202, 391, 190, 448
151, 435, 358, 624, 524
152, 230, 450, 419, 580
153, 597, 364, 504, 357
154, 285, 538, 432, 491
155, 555, 608, 34, 42
156, 387, 411, 44, 37
157, 437, 46, 57, 394
158, 386, 56, 46, 437
159, 406, 581, 669, 584
160, 320, 671, 251, 283
161, 441, 439, 262, 352
162, 440, 261, 439, 441
163, 545, 405, 254, 635
164, 534, 406, 584, 240
165, 401, 380, 636, 359
166, 252, 443, 438, 299
167, 647, 593, 422, 446
168, 189, 164, 145, 557
169, 455, 434, 203, 307
170, 201, 591, 294, 452
171, 447, 231, 375, 208
172, 291, 339, 199, 472
173, 577, 491, 209, 396
174, 190, 384, 290, 576
175, 472, 199, 445, 662
176, 575, 200, 506, 345
177, 421, 204, 459, 488
178, 700, 456, 391, 202
179, 445, 293, 712, 713
180, 653, 355, 292, 536
181, 383, 580, 710, 711
182, 543, 530, 542, 675
183, 129, 462, 460, 180
184, 462, 461, 271, 460
185, 309, 522, 27, 3
186, 5, 66, 241, 55
187, 463, 465, 464, 255
188, 465, 153, 155, 464
189, 247, 519, 518, 570
190, 265, 367, 469, 466
191, 466, 469, 467, 264
192, 469, 468, 267, 467
193, 367, 266, 468, 469
194, 446, 422, 564, 198
195, 420, 376, 638, 372
196, 588, 648, 447, 586
197, 693, 454, 535, 384
198, 232, 473, 474, 296
199, 296, 474, 16, 24
200, 474, 335, 23, 16
201, 473, 193, 335, 474
202, 266, 328, 476, 468
203, 468, 476, 475, 267
204, 476, 439, 261, 475
205, 328, 262, 439, 476
206, 603, 448, 378, 366
207, 701, 563, 707, 708
208, 601, 96, 89, 213
209, 449, 435, 524, 479
210, 39, 481, 482, 287
211, 287, 482, 460, 271
212, 482, 128, 180, 460
213, 481, 181, 128, 482
214, 442, 428, 465, 463
215, 424, 381, 634, 440
216, 77, 70, 539, 409
217, 428, 156, 153, 465
218, 536, 292, 694, 490
219, 284, 457, 512, 566
220, 389, 201, 142, 166
221, 567, 218, 698, 229
222, 355, 579, 371, 292
223, 432, 653, 536, 210
224, 209, 210, 434, 455
225, 505, 223, 603, 225
226, 197, 273, 665, 413
227, 278, 277, 311, 362
228, 589, 393, 313, 559
229, 412, 629, 322, 411
230, 181, 481, 495, 127
231, 127, 495, 494, 182
232, 495, 32, 40, 494
233, 481, 39, 32, 495
234, 618, 415, 649, 692
235, 227, 691, 376, 420
236, 222, 284, 566, 656
237, 592, 93, 8, 101
238, 635, 254, 300, 298
239, 533, 486, 331, 353
240, 298, 300, 541, 620
241, 241, 325, 533, 239
242, 184, 323, 681, 310
243, 393, 436, 426, 313
244, 195, 314, 589, 639
245, 466, 196, 515, 265
246, 477, 356, 567, 646
247, 576, 290, 647, 200
248, 535, 105, 116, 207
249, 698, 449, 479, 497
250, 199, 224, 293, 445
251, 222, 656, 139, 169
252, 398, 119, 109, 702
253, 513, 374, 136, 172
254, 318, 667, 519, 247
255, 666, 670, 667, 318
256, 194, 149, 159, 573
257, 572, 318, 247, 569
258, 147, 511, 510, 162
259, 511, 82, 85, 510
260, 429, 346, 80, 73
261, 656, 566, 416, 215
262, 388, 697, 284, 222
263, 656, 215, 170, 139
264, 487, 552, 514, 538
265, 277, 676, 677, 311
266, 665, 385, 425, 275
267, 385, 556, 195, 425
268, 322, 668, 43, 36
269, 670, 671, 320, 667
270, 319, 283, 151, 157
271, 250, 631, 152, 156
272, 667, 320, 517, 519
273, 7, 302, 520, 83
274, 83, 520, 510, 85
275, 520, 146, 162, 510
276, 302, 163, 146, 520
277, 663, 187, 461, 462
278, 178, 674, 655, 130
279, 187, 289, 522, 309
280, 461, 187, 309, 551
281, 201, 452, 167, 142
282, 207, 116, 106, 593
283, 456, 617, 693, 391
284, 228, 699, 343, 523
285, 9, 154, 526, 122
286, 122, 526, 464, 155
287, 526, 525, 255, 464
288, 154, 186, 525, 526
289, 270, 281, 528, 527
290, 527, 528, 123, 185
291, 528, 525, 186, 123
292, 281, 255, 525, 528
293, 2, 25, 543, 722
294, 724, 722, 721, 723
295, 25, 28, 530, 543
296, 26, 29, 661, 288
297, 630, 517, 319, 631
298, 508, 84, 82, 511
299, 573, 159, 150, 531
300, 570, 518, 282, 245
301, 409, 539, 581, 406
302, 519, 517, 630, 518
303, 544, 499, 659, 640
304, 259, 483, 598, 582
305, 224, 212, 383, 293
306, 214, 505, 225, 217
307, 566, 512, 585, 416
308, 365, 487, 538, 285
309, 325, 417, 486, 533
310, 600, 299, 424, 408
311, 598, 640, 644, 627
312, 52, 625, 379, 62
313, 722, 543, 675, 721
314, 177, 308, 304, 131
315, 28, 26, 288, 530
316, 176, 723, 549, 132
317, 359, 636, 258, 333
318, 299, 438, 381, 424
319, 70, 78, 427, 539
320, 65, 239, 244, 54
321, 185, 124, 548, 527
322, 527, 548, 547, 270
323, 548, 310, 269, 547
324, 124, 184, 310, 548
325, 308, 542, 303, 304
326, 674, 529, 289, 655
327, 131, 304, 674, 178
328, 29, 27, 522, 661
329, 691, 102, 113, 376
330, 342, 562, 672, 351
331, 396, 209, 455, 565
332, 416, 585, 211, 204
333, 271, 461, 551, 286
334, 286, 551, 30, 38
335, 130, 655, 663, 179
336, 719, 521, 193, 473
337, 695, 366, 552, 487
338, 523, 343, 645, 457
339, 374, 433, 173, 136
340, 216, 370, 470, 219
341, 554, 559, 555, 312
342, 274, 628, 278, 609
343, 608, 493, 41, 34
344, 276, 554, 312, 668
345, 94, 87, 557, 301
346, 301, 557, 145, 163
347, 591, 497, 703, 294
348, 562, 458, 403, 672
349, 363, 515, 197, 361
350, 556, 609, 314, 195
351, 411, 322, 36, 44
352, 515, 196, 273, 197
353, 399, 397, 398, 369
354, 392, 144, 164, 189
355, 337, 112, 102, 691
356, 223, 202, 448, 603
357, 587, 619, 453, 657
358, 200, 647, 446, 506
359, 452, 595, 141, 167
360, 595, 623, 168, 141
361, 198, 564, 221, 377
362, 596, 702, 507, 563
363, 623, 388, 140, 168
364, 336, 696, 673, 617
365, 247, 570, 571, 569
366, 569, 571, 348, 248
367, 571, 540, 246, 348
368, 570, 245, 540, 571
369, 509, 429, 73, 6
370, 317, 430, 316, 509
371, 317, 509, 6, 81
372, 414, 681, 323, 558
373, 265, 515, 363, 360
374, 664, 275, 560, 502
375, 264, 574, 196, 466
376, 219, 470, 456, 700
377, 191, 91, 99, 342
378, 478, 220, 350, 513
379, 392, 477, 165, 144
380, 453, 692, 505, 214
381, 488, 478, 137, 171
382, 506, 446, 198, 579
383, 373, 98, 91, 191
384, 54, 244, 401, 64
385, 353, 331, 238, 380
386, 627, 644, 626, 583
387, 76, 69, 616, 260
388, 53, 359, 333, 63
389, 625, 402, 236, 379
390, 626, 501, 428, 442
391, 578, 568, 228, 205
392, 215, 421, 138, 170
393, 595, 578, 205, 623
394, 657, 453, 214, 699
395, 601, 213, 594, 356
396, 477, 646, 143, 165
397, 692, 649, 223, 505
398, 703, 587, 657, 568
399, 310, 681, 414, 269
400, 361, 197, 413, 395
401, 574, 516, 503, 315
402, 275, 425, 590, 560
403, 594, 357, 295, 218
404, 694, 206, 537, 553
405, 537, 369, 596, 602
406, 220, 451, 291, 350
407, 415, 219, 700, 649
408, 419, 701, 708, 709
409, 339, 307, 224, 199
410, 646, 389, 166, 143
411, 249, 572, 569, 248
412, 573, 531, 670, 666
413, 316, 431, 572, 249
414, 317, 148, 160, 430
415, 490, 694, 553, 471
416, 699, 214, 217, 343
417, 192, 420, 372, 370
418, 404, 662, 714, 715
419, 69, 77, 409, 616
420, 300, 444, 243, 541
421, 616, 409, 406, 534
422, 583, 626, 442, 485
423, 602, 596, 563, 701
424, 563, 507, 706, 707
425, 454, 115, 105, 535
426, 397, 108, 119, 398
427, 256, 606, 607, 604
428, 604, 607, 475, 261
429, 607, 605, 267, 475
430, 606, 268, 605, 607
431, 273, 315, 385, 665
432, 386, 412, 411, 387
433, 629, 276, 668, 322
434, 425, 195, 639, 590
435, 263, 612, 613, 610
436, 610, 613, 547, 269
437, 613, 611, 270, 547
438, 612, 268, 611, 613
439, 264, 467, 614, 321
440, 321, 614, 612, 263
441, 614, 605, 268, 612
442, 467, 267, 605, 614
443, 332, 485, 622, 621
444, 418, 246, 540, 500
445, 237, 260, 407, 400
446, 669, 233, 544, 483
447, 307, 203, 212, 224
448, 459, 705, 451, 220
449, 343, 217, 338, 645
450, 255, 279, 622, 463
451, 405, 259, 582, 254
452, 324, 400, 253, 484
453, 279, 257, 621, 622
454, 593, 106, 117, 422
455, 403, 337, 691, 227
456, 479, 524, 619, 587
457, 450, 602, 701, 419
458, 541, 243, 332, 633
459, 55, 241, 239, 65
460, 253, 615, 545, 330
461, 321, 516, 574, 264
462, 610, 492, 272, 263
463, 560, 590, 276, 629
464, 436, 678, 679, 426
465, 518, 630, 652, 282
466, 652, 630, 631, 250
467, 501, 250, 156, 428
468, 429, 249, 248, 346
469, 636, 235, 242, 258
470, 440, 634, 604, 261
471, 634, 632, 256, 604
472, 244, 353, 380, 401
473, 417, 546, 324, 486
474, 75, 68, 237, 546
475, 238, 234, 643, 235
476, 68, 76, 260, 237
477, 290, 207, 593, 647
478, 342, 99, 92, 562
479, 340, 227, 420, 192
480, 356, 594, 218, 567
481, 269, 414, 492, 610
482, 263, 272, 516, 321
483, 394, 664, 502, 437
484, 272, 492, 628, 274
485, 539, 427, 599, 581
486, 581, 599, 233, 669
487, 380, 238, 235, 636
488, 239, 533, 353, 244
489, 268, 606, 642, 611
490, 611, 642, 280, 270
491, 642, 641, 257, 280
492, 606, 256, 641, 642
493, 78, 71, 637, 427
494, 234, 330, 410, 643
495, 258, 242, 600, 402
496, 615, 240, 405, 545
497, 582, 598, 627, 444
498, 438, 620, 532, 381
499, 260, 616, 534, 407
500, 378, 576, 200, 575
501, 504, 588, 586, 498
502, 580, 419, 709, 710
503, 350, 291, 472, 550
504, 470, 336, 617, 456
505, 392, 88, 96, 601
506, 624, 489, 415, 618
507, 553, 537, 602, 450
508, 421, 488, 171, 138
509, 507, 120, 110, 706
510, 565, 455, 307, 339
511, 351, 672, 340, 231
512, 294, 703, 568, 578
513, 364, 373, 588, 504
514, 649, 700, 202, 223
515, 550, 472, 662, 404
516, 256, 632, 650, 641
517, 641, 650, 621, 257
518, 483, 544, 640, 598
519, 71, 79, 347, 637
520, 255, 281, 651, 279
521, 279, 651, 280, 257
522, 281, 270, 280, 651
523, 423, 652, 250, 501
524, 245, 282, 659, 499
525, 517, 320, 283, 319
526, 374, 550, 404, 433
527, 648, 351, 231, 447
528, 645, 338, 365, 496
529, 39, 287, 654, 31
530, 31, 654, 286, 38
531, 287, 271, 286, 654
532, 724, 297, 2, 722
533, 551, 309, 3, 30
534, 720, 719, 473, 232
535, 662, 445, 713, 714
536, 514, 345, 355, 653
537, 488, 459, 220, 478
538, 369, 398, 702, 596
539, 617, 673, 454, 693
540, 293, 383, 711, 712
541, 2, 297, 658, 17
542, 17, 658, 296, 24
543, 297, 232, 296, 658
544, 254, 582, 444, 300
545, 402, 600, 408, 236
546, 637, 347, 246, 418
547, 163, 302, 660, 301
548, 301, 660, 86, 94
549, 302, 7, 86, 660
550, 549, 675, 542, 308
551, 521, 718, 717, 193
552, 304, 303, 529, 674
553, 513, 350, 550, 374
554, 364, 90, 98, 373
555, 375, 192, 370, 216
556, 179, 663, 462, 129
557, 655, 289, 187, 663
558, 132, 549, 308, 177
559, 639, 589, 559, 554
560, 559, 313, 608, 555
561, 426, 679, 680, 493
562, 668, 312, 35, 43
563, 609, 278, 362, 314
564, 314, 362, 393, 589
565, 317, 81, 84, 508
566, 430, 160, 149, 194
567, 509, 316, 249, 429
568, 531, 251, 671, 670
569, 283, 251, 158, 151
570, 631, 319, 157, 152
571, 196, 574, 315, 273
572, 313, 426, 493, 608
573, 312, 555, 42, 35
574, 484, 253, 330, 234
575, 546, 237, 400, 324
576, 150, 158, 251, 531
577, 431, 666, 318, 572
578, 579, 198, 377, 371
579, 225, 603, 366, 695
580, 530, 288, 303, 542
581, 661, 522, 289, 529
582, 125, 676, 323, 184
583, 183, 677, 676, 125
584, 126, 678, 677, 183
585, 182, 679, 678, 126
586, 494, 680, 679, 182
587, 40, 33, 680, 494
588, 213, 89, 97, 597
589, 288, 661, 529, 303
590, 716, 15, 23, 335
591, 717, 716, 335, 193
592, 723, 721, 675, 549
593, 305, 111, 1, 10
594, 334, 305, 10, 18
595, 344, 334, 18, 11
596, 561, 344, 11, 19
597, 480, 561, 19, 12
598, 306, 480, 12, 20
599, 226, 306, 20, 13
600, 341, 226, 13, 21
601, 382, 341, 21, 14
602, 188, 382, 14, 22
603, 716, 188, 22, 15
604, 390, 121, 111, 305
605, 682, 390, 305, 334
606, 683, 682, 334, 344
607, 684, 683, 344, 561
608, 685, 684, 561, 480
609, 686, 685, 480, 306
610, 687, 686, 306, 226
611, 688, 687, 226, 341
612, 689, 688, 341, 382
613, 690, 689, 382, 188
614, 717, 690, 188, 716
615, 706, 110, 121, 390
616, 707, 706, 390, 682
617, 708, 707, 682, 683
618, 709, 708, 683, 684
619, 710, 709, 684, 685
620, 711, 710, 685, 686
621, 712, 711, 686, 687
622, 713, 712, 687, 688
623, 714, 713, 688, 689
624, 715, 714, 689, 690
625, 718, 715, 690, 717
626, 724, 720, 232, 297
627, 521, 174, 135, 718
628, 719, 134, 174, 521
629, 720, 175, 134, 719
630, 724, 133, 175, 720
631, 724, 723, 176, 133
*ELSET,ELSET=contact_source
99, 100, 101, 102, 103, 104, 105, 106, 107, 108, 
109, 110, 111, 112, 113, 114, 115, 116, 117, 118, 
119, 120, 
*ELSET,ELSET=contact_drain
39, 40, 41, 42, 43, 44, 45, 46, 47, 48, 
49, 50, 51, 52, 53, 54, 55, 56, 57, 58, 
59, 60, 
*ELSET,ELSET=probe_A
77, 78, 79, 80, 81, 82, 
*ELSET,ELSET=probe_B
17, 18, 19, 20, 21, 22, 
*ELSET,ELSET=walls
1, 2, 3, 4, 5, 6, 7, 8, 9, 10, 
11, 12, 13, 14, 15, 16, 23, 24, 25, 26, 
27, 28, 29, 30, 31, 32, 33, 34, 35, 36, 
37, 38, 61, 62, 63, 64, 65, 66, 67, 68, 
69, 70, 71, 72, 73, 74, 75, 76, 83, 84, 
85, 86, 87, 88, 89, 90, 91, 92, 93, 94, 
95, 96, 97, 98, 121, 122, 123, 124, 125, 126, 
127, 128, 129, 130, 131, 132, 133, 134, 135, 136, 
137, 138, 139, 140, 141, 142, 143, 144, 145, 146, 
147, 148, 149, 150, 151, 152, 153, 154, 155, 156, 
157, 158, 159, 160, 161, 162, 163, 164, 165, 166, 
167, 168, 169, 170, 171, 172, 173, 174, 175, 176, 
177, 178, 179, 180, 181, 182, 183, 184, 185, 186, 
*ELSET,ELSET=domain
187, 188, 189, 190, 191, 192, 193, 194, 195, 196, 
197, 198, 199, 200, 201, 202, 203, 204, 205, 206, 
207, 208, 209, 210, 211, 212, 213, 214, 215, 216, 
217, 218, 219, 220, 221, 222, 223, 224, 225, 226, 
227, 228, 229, 230, 231, 232, 233, 234, 235, 236, 
237, 238, 239, 240, 241, 242, 243, 244, 245, 246, 
247, 248, 249, 250, 251, 252, 253, 254, 255, 256, 
257, 258, 259, 260, 261, 262, 263, 264, 265, 266, 
267, 268, 269, 270, 271, 272, 273, 274, 275, 276, 
277, 278, 279, 280, 281, 282, 283, 284, 285, 286, 
287, 288, 289, 290, 291, 292, 293, 294, 295, 296, 
297, 298, 299, 300, 301, 302, 303, 304, 305, 306, 
307, 308, 309, 310, 311, 312, 313, 314, 315, 316, 
317, 318, 319, 320, 321, 322, 323, 324, 325, 326, 
327, 328, 329, 330, 331, 332, 333, 334, 335, 336, 
337, 338, 339, 340, 341, 342, 343, 344, 345, 346, 
347, 348, 349, 350, 351, 352, 353, 354, 355, 356, 
357, 358, 359, 360, 361, 362, 363, 364, 365, 366, 
367, 368, 369, 370, 371, 372, 373, 374, 375, 376, 
377, 378, 379, 380, 381, 382, 383, 384, 385, 386, 
387, 388, 389, 390, 391, 392, 393, 394, 395, 396, 
397, 398, 399, 400, 401, 402, 403, 404, 405, 406, 
407, 408, 409, 410, 411, 412, 413, 414, 415, 416, 
417, 418, 419, 420, 421, 422, 423, 424, 425, 426, 
427, 428, 429, 430, 431, 432, 433, 434, 435, 436, 
437, 438, 439, 440, 441, 442, 443, 444, 445, 446, 
447, 448, 449, 450, 451, 452, 453, 454, 455, 456, 
457, 458, 459, 460, 461, 462, 463, 464, 465, 466, 
467, 468, 469, 470, 471, 472, 473, 474, 475, 476, 
477, 478, 479, 480, 481, 482, 483, 484, 485, 486, 
487, 488, 489, 490, 491, 492, 493, 494, 495, 496, 
497, 498, 499, 500, 501, 502, 503, 504, 505, 506, 
507, 508, 509, 510, 511, 512, 513, 514, 515, 516, 
517, 518, 519, 520, 521, 522, 523, 524, 525, 526, 
527, 528, 529, 530, 531, 532, 533, 534, 535, 536, 
537, 538, 539, 540, 541, 542, 543, 544, 545, 546, 
547, 548, 549, 550, 551, 552, 553, 554, 555, 556, 
557, 558, 559, 560, 561, 562, 563, 564, 565, 566, 
567, 568, 569, 570, 571, 572, 573, 574, 575, 576, 
577, 578, 579, 580, 581, 582, 583, 584, 585, 586, 
587, 588, 589, 590, 591, 592, 593, 594, 595, 596, 
597, 598, 599, 600, 601, 602, 603, 604, 605, 606, 
607, 608, 609, 610, 611, 612, 613, 614, 615, 616, 
617, 618, 619, 620, 621, 622, 623, 624, 625, 626, 
627, 628, 629, 630, 631, 632, 633, 634, 635, 636, 
637, 638, 639, 640, 641, 642, 643, 644, 645, 646, 
647, 648, 649, 650, 651, 652, 653, 654, 655, 656, 
657, 658, 659, 660, 661, 662, 663, 664, 665, 666, 
667, 668, 669, 670, 671, 672, 673, 674, 675, 676, 
677, 678, 679, 680, 681, 682, 683, 684, 685, 686, 
687, 688, 689, 690, 691, 692, 693, 694, 695, 696, 
697, 698, 699, 700, 701, 702, 703, 704, 705, 706, 
707, 708, 709, 710, 711, 712, 713, 714, 715, 716, 
717, 718, 719, 720, 721, 722, 723, 724, 725, 726, 
727, 728, 729, 730, 731, 732, 733, 734, 735, 736, 
737, 738, 739, 740, 741, 742, 743, 744, 745, 746, 
747, 748, 749, 750, 751, 752, 753, 754, 755, 756, 
757, 758, 759, 760, 761, 762, 763, 764, 765, 766, 
767, 768, 769, 770, 771, 772, 773, 774, 775, 776, 
777, 778, 779, 780, 781, 782, 783, 784, 785, 786, 
787, 788, 789, 790, 791, 792, 793, 794, 795, 796, 
797, 798, 799, 800, 801, 802, 803, 804, 805, 806, 
807, 808, 809, 810, 811, 812, 813, 814, 815, 816, 
817, 
*NSET,NSET=contact_source
1, 8, 101, 102, 103, 104, 105, 106, 107, 108, 
109, 110, 111, 112, 113, 114, 115, 116, 117, 118, 
119, 120, 121, 
*NSET,NSET=contact_drain
4, 5, 45, 46, 47, 48, 49, 50, 51, 52, 
53, 54, 55, 56, 57, 58, 59, 60, 61, 62, 
63, 64, 65, 
*NSET,NSET=probe_A
6, 7, 81, 82, 83, 84, 85, 
*NSET,NSET=probe_B
2, 3, 25, 26, 27, 28, 29, 
*NSET,NSET=walls
1, 2, 3, 4, 5, 6, 7, 8, 9, 10, 
11, 12, 13, 14, 15, 16, 17, 18, 19, 20, 
21, 22, 23, 24, 30, 31, 32, 33, 34, 35, 
36, 37, 38, 39, 40, 41, 42, 43, 44, 66, 
67, 68, 69, 70, 71, 72, 73, 74, 75, 76, 
77, 78, 79, 80, 86, 87, 88, 89, 90, 91, 
92, 93, 94, 95, 96, 97, 98, 99, 100, 122, 
123, 124, 125, 126, 127, 128, 129, 130, 131, 132, 
133, 134, 135, 136, 137, 138, 139, 140, 141, 142, 
143, 144, 145, 146, 147, 148, 149, 150, 151, 152, 
153, 154, 155, 156, 157, 158, 159, 160, 161, 162, 
163, 164, 165, 166, 167, 168, 169, 170, 171, 172, 
173, 174, 175, 176, 177, 178, 179, 180, 181, 182, 
183, 184, 185, 186, 
*NSET,NSET=domain
1, 2, 3, 4, 5, 6, 7, 8, 9, 10, 
11, 12, 13, 14, 15, 16, 17, 18, 19, 20, 
21, 22, 23, 24, 25, 26, 27, 28, 29, 30, 
31, 32, 33, 34, 35, 36, 37, 38, 39, 40, 
41, 42, 43, 44, 45, 46, 47, 48, 49, 50, 
51, 52, 53, 54, 55, 56, 57, 58, 59, 60, 
61, 62, 63, 64, 65, 66, 67, 68, 69, 70, 
71, 72, 73, 74, 75, 76, 77, 78, 79, 80, 
81, 82, 83, 84, 85, 86, 87, 88, 89, 90, 
91, 92, 93, 94, 95, 96, 97, 98, 99, 100, 
101, 102, 103, 104, 105, 106, 107, 108, 109, 110, 
111, 112, 113, 114, 115, 116, 117, 118, 119, 120, 
121, 122, 123, 124, 125, 126, 127, 128, 129, 130, 
131, 132, 133, 134, 135, 136, 137, 138, 139, 140, 
141, 142, 143, 144, 145, 146, 147, 148, 149, 150, 
151, 152, 153, 154, 155, 156, 157, 158, 159, 160, 
161, 162, 163, 164, 165, 166, 167, 168, 169, 170, 
171, 172, 173, 174, 175, 176, 177, 178, 179, 180, 
181, 182, 183, 184, 185, 186, 187, 188, 189, 190, 
191, 192, 193, 194, 195, 196, 197, 198, 199, 200, 
201, 202, 203, 204, 205, 206, 207, 208, 209, 210, 
211, 212, 213, 214, 215, 216, 217, 218, 219, 220, 
221, 222, 223, 224, 225, 226, 227, 228, 229, 230, 
231, 232, 233, 234, 235, 236, 237, 238, 239, 240, 
241, 242, 243, 244, 245, 246, 247, 248, 249, 250, 
251, 252, 253, 254, 255, 256, 257, 258, 259, 260, 
261, 262, 263, 264, 265, 266, 267, 268, 269, 270, 
271, 272, 273, 274, 275, 276, 277, 278, 279, 280, 
281, 282, 283, 284, 285, 286, 287, 288, 289, 290, 
291, 292, 293, 294, 295, 296, 297, 298, 299, 300, 
301, 302, 303, 304, 305, 306, 307, 308, 309, 310, 
311, 312, 313, 314, 315, 316, 317, 318, 319, 320, 
321, 322, 323, 324, 325, 326, 327, 328, 329, 330, 
331, 332, 333, 334, 335, 336, 337, 338, 339, 340, 
341, 342, 343, 344, 345, 346, 347, 348, 349, 350, 
351, 352, 353, 354, 355, 356, 357, 358, 359, 360, 
361, 362, 363, 364, 365, 366, 367, 368, 369, 370, 
371, 372, 373, 374, 375, 376, 377, 378, 379, 380, 
381, 382, 383, 384, 385, 386, 387, 388, 389, 390, 
391, 392, 393, 394, 395, 396, 397, 398, 399, 400, 
401, 402, 403, 404, 405, 406, 407, 408, 409, 410, 
411, 412, 413, 414, 415, 416, 417, 418, 419, 420, 
421, 422, 423, 424, 425, 426, 427, 428, 429, 430, 
431, 432, 433, 434, 435, 436, 437, 438, 439, 440, 
441, 442, 443, 444, 445, 446, 447, 448, 449, 450, 
451, 452, 453, 454, 455, 456, 457, 458, 459, 460, 
461, 462, 463, 464, 465, 466, 467, 468, 469, 470, 
471, 472, 473, 474, 475, 476, 477, 478, 479, 480, 
481, 482, 483, 484, 485, 486, 487, 488, 489, 490, 
491, 492, 493, 494, 495, 496, 497, 498, 499, 500, 
501, 502, 503, 504, 505, 506, 507, 508, 509, 510, 
511, 512, 513, 514, 515, 516, 517, 518, 519, 520, 
521, 522, 523, 524, 525, 526, 527, 528, 529, 530, 
531, 532, 533, 534, 535, 536, 537, 538, 539, 540, 
541, 542, 543, 544, 545, 546, 547, 548, 549, 550, 
551, 552, 553, 554, 555, 556, 557, 558, 559, 560, 
561, 562, 563, 564, 565, 566, 567, 568, 569, 570, 
571, 572, 573, 574, 575, 576, 577, 578, 579, 580, 
581, 582, 583, 584, 585, 586, 587, 588, 589, 590, 
591, 592, 593, 594, 595, 596, 597, 598, 599, 600, 
601, 602, 603, 604, 605, 606, 607, 608, 609, 610, 
611, 612, 613, 614, 615, 616, 617, 618, 619, 620, 
621, 622, 623, 624, 625, 626, 627, 628, 629, 630, 
631, 632, 633, 634, 635, 636, 637, 638, 639, 640, 
641, 642, 643, 644, 645, 646, 647, 648, 649, 650, 
651, 652, 653, 654, 655, 656, 657, 658, 659, 660, 
661, 662, 663, 664, 665, 666, 667, 668, 669, 670, 
671, 672, 673, 674, 675, 676, 677, 678, 679, 680, 
681, 682, 683, 684, 685, 686, 687, 688, 689, 690, 
691, 692, 693, 694, 695, 696, 697, 698, 699, 700, 
701, 702, 703, 704, 705, 706, 707, 708, 709, 710, 
711, 712, 713, 714, 715, 716, 717, 718, 719, 720, 
721, 722, 723, 724, 
