*Heading
 /Users/juliagao/geometry-optimization-net/scripts/../runs/run2/shape_79.inp
*NODE
1, 0, -0.3, 0
2, 0.425, -0.3, 0
3, 0.575, -0.3, 0
4, 1, -0.3, 0
5, 1, 0.3, 0
6, 0.575, 0.3, 0
7, 0.425, 0.3, 0
8, 0, 0.3, 0
9, 0.6414066557, 0.0326349762, 0
10, 0.025537704426878, -0.3, 0
11, 0.077472350076022, -0.3, 0
12, 0.13114722718249, -0.3, 0
13, 0.18596860199184, -0.3, 0
14, 0.24054757782667, -0.3, 0
15, 0.294121694302, -0.3, 0
16, 0.34721409044359, -0.3, 0
17, 0.39938395350978, -0.3, 0
18, 0.051075408853757, -0.3, 0
19, 0.10386929129829, -0.3, 0
20, 0.1584251630667, -0.3, 0
21, 0.21351204091697, -0.3, 0
22, 0.26758311473638, -0.3, 0
23, 0.32066027386763, -0.3, 0
24, 0.37376790701955, -0.3, 0
25, 0.44993373781038, -0.3, 0
26, 0.49955821929855, -0.3, 0
27, 0.54962448148816, -0.3, 0
28, 0.47486747562077, -0.3, 0
29, 0.52424896297633, -0.3, 0
30, 0.60106829955453, -0.3, 0
31, 0.65385090603398, -0.3, 0
32, 0.70708669022356, -0.3, 0
33, 0.76012256370397, -0.3, 0
34, 0.81358554528269, -0.3, 0
35, 0.86737709590469, -0.3, 0
36, 0.92087785459162, -0.3, 0
37, 0.97376782400974, -0.3, 0
38, 0.62713659910905, -0.3, 0
39, 0.68056521295891, -0.3, 0
40, 0.7336081674882, -0.3, 0
41, 0.78663695991974, -0.3, 0
42, 0.84053413064563, -0.3, 0
43, 0.89422006116376, -0.3, 0
44, 0.94753564801948, -0.3, 0
45, 1, -0.27549272621652, 0
46, 1, -0.22644697249763, 0
47, 1, -0.17721357789826, 0
48, 1, -0.12761156045393, 0
49, 1, -0.077583158612544, 0
50, 1, -0.027577295078435, 0
51, 1, 0.022357441740107, 0
52, 1, 0.072719003329603, 0
53, 1, 0.1236516140548, 0
54, 1, 0.17479471346275, 0
55, 1, 0.22533768110353, 0
56, 1, 0.27517938540874, 0
57, 1, -0.25098545243304, 0
58, 1, -0.20190849256221, 0
59, 1, -0.15251866323431, 0
60, 1, -0.10270445767354, 0
61, 1, -0.052461859551544, 0
62, 1, -0.0026927306053258, 0
63, 1, 0.04740761408554, 0
64, 1, 0.098030392573666, 0
65, 1, 0.14927283553593, 0
66, 1, 0.20031659138958, 0
67, 1, 0.25035877081747, 0
68, 0.97413014736062, 0.3, 0
69, 0.92183251881367, 0.3, 0
70, 0.86880312774568, 0.3, 0
71, 0.81587875616994, 0.3, 0
72, 0.76335872276504, 0.3, 0
73, 0.71028042418972, 0.3, 0
74, 0.65588155276899, 0.3, 0
75, 0.601681851467, 0.3, 0
76, 0.94826029472124, 0.3, 0
77, 0.8954047429061, 0.3, 0
78, 0.84220151258527, 0.3, 0
79, 0.78955599975461, 0.3, 0
80, 0.73716144577547, 0.3, 0
81, 0.68339940260397, 0.3, 0
82, 0.62836370293401, 0.3, 0
83, 0.54925701536997, 0.3, 0
84, 0.49874964124448, 0.3, 0
85, 0.44949262587451, 0.3, 0
86, 0.52351403073994, 0.3, 0
87, 0.47398525174902, 0.3, 0
88, 0.40001964990831, 0.3, 0
89, 0.34960315949666, 0.3, 0
90, 0.2977897234929, 0.3, 0
91, 0.24473341828112, 0.3, 0
92, 0.19003239567711, 0.3, 0
93, 0.13392407245452, 0.3, 0
94, 0.079120708686298, 0.3, 0
95, 0.026201827532325, 0.3, 0
96, 0.37503929981663, 0.3, 0
97, 0.32416701917669, 0.3, 0
98, 0.27141242780911, 0.3, 0
99, 0.21805440875312, 0.3, 0
100, 0.16201038260109, 0.3, 0
101, 0.10583776230795, 0.3, 0
102, 0.05240365506465, 0.3, 0
103, 0, 0.27328697301525, 0
104, 0, 0.2190403212665, 0
105, 0, 0.16384588697372, 0
106, 0, 0.10922514208338, 0
107, 0, 0.055602040012154, 0
108, 0, 0.0013568333998014, 0
109, 0, -0.054192808475083, 0
110, 0, -0.1099619246205, 0
111, 0, -0.16547138238427, 0
112, 0, -0.22028625661834, 0
113, 0, -0.27369659363091, 0
114, 0, 0.24657394603049, 0
115, 0, 0.19150669650251, 0
116, 0, 0.13618507744493, 0
117, 0, 0.082265206721835, 0
118, 0, 0.028938873302473, 0
119, 0, -0.02622520650287, 0
120, 0, -0.082160410447295, 0
121, 0, -0.1377634387937, 0
122, 0, -0.19317932597484, 0
123, 0, -0.24739318726183, 0
124, 0.6429008459594, 0.060599613601023, 0
125, 0.706886479772, -0.021487874642605, 0
126, 0.74389646371321, -0.064174187353895, 0
127, 0.76358148957807, -0.1155963649931, 0
128, 0.74121187555589, -0.16305175105421, 0
129, 0.68951601554155, -0.17274273810938, 0
130, 0.63588974766942, -0.15953972028056, 0
131, 0.58368004234946, -0.13542599641589, 0
132, 0.52842058583193, -0.13134624367266, 0
133, 0.48284095781326, -0.16039159383261, 0
134, 0.42957708492125, -0.15423066713043, 0
135, 0.38063534630191, -0.12907394592883, 0
136, 0.32719269215613, -0.11252327425232, 0
137, 0.28364232408148, -0.078626224011895, 0
138, 0.27968210625399, -0.02394441463685, 0
139, 0.30409988546265, 0.026131935191012, 0
140, 0.31539753340966, 0.080092103232704, 0
141, 0.30466377254574, 0.13560506148184, 0
142, 0.31225119928656, 0.19250683887705, 0
143, 0.34538204571124, 0.23740878270679, 0
144, 0.38881498510351, 0.26619117817017, 0
145, 0.43700929395516, 0.27843772818272, 0
146, 0.48441323711903, 0.26432512650146, 0
147, 0.51946360159537, 0.22658169701439, 0
148, 0.54146206970797, 0.17609451748309, 0
149, 0.57847537184476, 0.13957947170397, 0
150, 0.63059378928227, 0.14431596063086, 0
151, 0.66397263177708, 0.10653676541991, 0
152, 0.66271470411858, 0.014102415351492, 0
153, 0.65556642640422, 0.082032486960402, 0
154, 0.65614566918172, 0.13303388563262, 0
155, 0.60350148864129, 0.14377627474673, 0
156, 0.55131134425637, 0.14947139566208, 0
157, 0.53164631742706, 0.20272863430146, 0
158, 0.50338763796231, 0.24805540761506, 0
159, 0.46174562731139, 0.27500050109993, 0
160, 0.4123445215185, 0.27494099667955, 0
161, 0.36696637738105, 0.25388815890625, 0
162, 0.32681128206443, 0.21755012696267, 0
163, 0.30488496670679, 0.16447357377582, 0
164, 0.30948493236646, 0.10722235620245, 0
165, 0.31517198997692, 0.051933455869819, 0
166, 0.29044695580376, 0.0017718829119834, 0
167, 0.27595672285029, -0.051763399211424, 0
168, 0.30235081005965, -0.099219785203659, 0
169, 0.35390345473429, -0.12107331864072, 0
170, 0.4060467097771, -0.14078716120454, 0
171, 0.45549105995851, -0.1630288815088, 0
172, 0.50682185603473, -0.14764659024335, 0
173, 0.55663414287558, -0.12477279478502, 0
174, 0.60967739926957, -0.14822032540285, 0
175, 0.66310891220384, -0.16822596661262, 0
176, 0.71636888160661, -0.17194021361403, 0
177, 0.75913597873119, -0.1430608861293, 0
178, 0.75702817179813, -0.088970428510073, 0
179, 0.72687910772001, -0.041921552099774, 0
180, 0.68512607597614, -0.0029678427717534, 0
181, 0.52362215680434, -0.1709632624952, 0
182, 0.048420520873444, -0.24696447767856, 0
183, 0.097323527518104, -0.24610972798737, 0
184, 0.1473904121327, -0.2436872573134, 0
185, 0.19990769204498, -0.24020788767238, 0
186, 0.25638933517805, -0.23780588774653, 0
187, 0.60282216252154, -0.27634350133558, 0
188, 0.37766293944551, -0.24422896322936, 0
189, 0.31751506279645, -0.23875532943831, 0
190, 0.57946530442428, 0.24883595889156, 0
191, 0.52854061697228, -0.27522249745257, 0
192, 0.56490887967661, -0.20008403750524, 0
193, 0.62813397815063, -0.2535520983766, 0
194, 0.67792633368157, -0.25408641488569, 0
195, 0.73117849003952, -0.25178144550859, 0
196, 0.20687636259631, 0.14956590880298, 0
197, 0.2548707575153, 0.070394086028134, 0
198, 0.15879344420618, 0.23019839859783, 0
199, 0.10595593824249, 0.26841929096554, 0
200, 0.22623071742475, 0.049578555704435, 0
201, 0.051165419315727, 0.12679519027856, 0
202, 0.18322393199362, 0.19064793173791, 0
203, 0.05198653933285, 0.18408239876974, 0
204, 0.052540899436218, 0.24203211755377, 0
205, 0.28373711651369, 0.089815480842906, 0
206, 0.12626227945414, 0.07961908895036, 0
207, 0.28192889860099, 0.14916569127729, 0
208, 0.10304829892702, 0.14526546906234, 0
209, 0.28520865916098, 0.18364056243877, 0
210, 0.21161908473225, 0.21946697514757, 0
211, 0.22887298300285, 0.07894934496293, 0
212, 0.24220872120932, -0.014886749044706, 0
213, 0.24172564574629, 0.25391979754528, 0
214, 0.12493750970922, 0.050267863584732, 0
215, 0.050180320386576, 0.070537663733671, 0
216, 0.0472093495684, -0.040283137363313, 0
217, 0.14499529305344, -0.046880995053672, 0
218, 0.090352395418574, -0.19451903615665, 0
219, 0.045445364420141, -0.19461325025551, 0
220, 0.23673066513699, -0.17343448391643, 0
221, 0.18205467808183, -0.18094567737321, 0
222, 0.10424120770889, -0.14827395375859, 0
223, 0.065104265765891, -0.12274221489909, 0
224, 0.13490767691446, -0.1902092424837, 0
225, 0.11635355493267, -0.13241165492151, 0
226, 0.10726710871113, -0.11197452166931, 0
227, 0.12811801913735, -0.16614857290083, 0
228, 0.046050826711427, -0.067173388259192, 0
229, 0.043926903396961, -0.11868163998549, 0
230, 0.064948859184325, -0.14618463822149, 0
231, 0.24111648834093, -0.04468944524254, 0
232, 0.11770948664214, -0.065218630682686, 0
233, 0.17012596290799, -0.15166692677941, 0
234, 0.21959882353543, -0.039843439896402, 0
235, 0.48835789467517, -0.22573509834507, 0
236, 0.53267885272986, -0.25035398291589, 0
237, 0.3873921129148, -0.19019079513886, 0
238, 0.31049201843335, -0.16730033395399, 0
239, 0.88384284633182, -0.010694749516689, 0
240, 0.91574518418593, -0.13844787007281, 0
241, 0.76938026645776, 0.08619513438804, 0
242, 0.84265109742736, 0.24680446989557, 0
243, 0.7644067896244, 0.27325069234254, 0
244, 0.88130123904461, -0.053514489209595, 0
245, 0.81639081633931, 0.27334563631389, 0
246, 0.79882317185478, 0.0020586074184054, 0
247, 0.83851017456487, 0.11217337005618, 0
248, 0.81007301795896, 0.043788071767258, 0
249, 0.94743947040532, 0.24856204617029, 0
250, 0.85433808249244, 0.0087735876726806, 0
251, 0.74290630166366, 0.19246305082835, 0
252, 0.73986844808309, 0.24642693014079, 0
253, 0.68823324924227, 0.24661956101352, 0
254, 0.63529203421029, 0.24747885133165, 0
255, 0.59051393988894, 0.19691089576641, 0
256, 0.69394436438232, 0.19232555522298, 0
257, 0.64396001011832, 0.19386705938433, 0
258, 0.72325352664996, 0.10945947274773, 0
259, 0.7231042251036, 0.081204858434321, 0
260, 0.74660830723694, 0.083590493918029, 0
261, 0.96475697697653, -0.053699867408545, 0
262, 0.81164373425187, 0.064393600249542, 0
263, 0.75343124734153, 0.02531960700773, 0
264, 0.77990231387878, 0.0011774808933855, 0
265, 0.97317212149046, 0.17207648557623, 0
266, 0.79256712083584, 0.043406365297042, 0
267, 0.79150227925187, 0.087779425613234, 0
268, 0.89707170200285, -0.02032504956782, 0
269, 0.80403206159143, -0.048108767081749, 0
270, 0.76850581691022, -0.067510350015324, 0
271, 0.84776537465173, -0.084659110971033, 0
272, 0.83177933673291, 0.062124711426063, 0
273, 0.89484360517825, 0.24738135920328, 0
274, 0.9477693428285, 0.27432833729914, 0
275, 0.84323221137019, -0.14634819307158, 0
276, 0.86475243953471, -0.094301004275025, 0
277, 0.89001597136042, -0.080537849746469, 0
278, 0.94796166945746, -0.05339577320693, 0
279, 0.79135599826693, -0.034806533580036, 0
280, 0.83726288553021, -0.02560197724687, 0
281, 0.7570419229945, -0.017776203877116, 0
282, 0.50003469740889, -0.17672042206336, 0
283, 0.53700083039027, -0.22507248653507, 0
284, 0.62687152442708, -0.20785306763879, 0
285, 0.67295112832952, -0.21029823244629, 0
286, 0.98081207853733, -0.10050019861477, 0
287, 0.93395222429238, -0.035433326495649, 0
288, 0.79491473494267, -0.17724496602377, 0
289, 0.85158596920999, -0.035470294871525, 0
290, 0.78858956460192, -0.24537104597265, 0
291, 0.72575153778927, -0.20713982916762, 0
292, 0.90627821214704, -0.19080074129633, 0
293, 0.85676070928925, -0.18340495189538, 0
294, 0.84591291862595, -0.24333088764629, 0
295, 0.89912522437828, -0.24542172933767, 0
296, 0.95336346537692, -0.19679727562057, 0
297, 0.94998836210613, -0.24827079166477, 0
298, 0.28143595387969, -0.10386121488859, 0
299, 0.24582544925509, -0.075578348460027, 0
300, 0.10291540681861, -0.12999146578707, 0
301, 0.80559151245984, -0.0815168458422, 0
302, 0.89299418502722, 0.16653620214497, 0
303, 0.76547901503513, 0.24647229454856, 0
304, 0.69950952295965, 0.079641776258313, 0
305, 0.7480909942954, 0.0556962978954, 0
306, 0.72312937137142, 0.017876729109335, 0
307, 0.087307328605723, -0.17043933576575, 0
308, 0.3050113794286, -0.1260881835466, 0
309, 0.26870876347983, -0.17078180933651, 0
310, 0.59214812180987, -0.1789273637709, 0
311, 0.4688054927845, -0.20259491428182, 0
312, 0.95540029719704, -0.17134796058028, 0
313, 0.86877273334252, 0.27355201228462, 0
314, 0.82915090751557, -0.1795336830985, 0
315, 0.7460600098778, 0.11088151100087, 0
316, 0.74534472567679, 0.13804384469148, 0
317, 0.72264438667102, 0.051284533645921, 0
318, 0.94597466018863, -0.07358136585947, 0
319, 0.88273723443156, -0.10241481064443, 0
320, 0.70119113649322, 0.10827882338993, 0
321, 0.77053833109907, 0.012534779159193, 0
322, 0.77009016870137, -0.0088880248527867, 0
323, 0.74953606508787, 0.00034375242992518, 0
324, 0.55328818492492, -0.27546776996879, 0
325, 0.62426499200119, -0.18442161908436, 0
326, 0.43224434739725, -0.24869346263637, 0
327, 0.8364149114098, -0.10822546978438, 0
328, 0.93660380947245, -0.14272774972341, 0
329, 0.84594795315756, -0.0086774890295764, 0
330, 0.18533133291815, 0.22552314362342, 0
331, 0.12986343476847, 0.17022789598931, 0
332, 0.10112658786484, 0.086345274592675, 0
333, 0.50382624261588, -0.27511344257024, 0
334, 0.60768900077813, -0.18837997052175, 0
335, 0.51806283992976, -0.19942487556254, 0
336, 0.091014960243265, -0.081476752987725, 0
337, 0.048952683278821, 0.014874259128785, 0
338, 0.094000294437626, -0.055645684717772, 0
339, 0.68568546471486, 0.27336656763219, 0
340, 0.66198952848614, 0.24695603406837, 0
341, 0.63175738109343, 0.27380871454315, 0
342, 0.65886121630072, 0.2735464609066, 0
343, 0.94631216803459, 0.16955603254658, 0
344, 0.81706404562883, 0.21991303553415, 0
345, 0.84262051466587, 0.22008587432691, 0
346, 0.79109621536642, 0.24655167308961, 0
347, 0.20692264468897, -0.27003553086074, 0
348, 0.15299674562648, -0.27164429091373, 0
349, 0.173238066385, -0.24196323523802, 0
350, 0.17974076177187, -0.27082341203147, 0
351, 0.27861607227502, -0.13512486599075, 0
352, 0.022570828336345, -0.087775369592263, 0
353, 0.14660812273547, -0.01657580296305, 0
354, 0.023697215001683, -0.033276274180939, 0
355, 0.087621680828906, -0.10499304504713, 0
356, 0.13459335355113, -0.103153673641, 0
357, 0.26243664144393, -0.26910018160093, 0
358, 0.28646800699883, -0.23766671533924, 0
359, 0.31918967868793, -0.26974174239351, 0
360, 0.29071383927804, -0.26917235767097, 0
361, 0.86703587614481, 0.16620713644296, 0
362, 0.89144772141152, 0.13829531530787, 0
363, 0.84168730913098, 0.16618170386776, 0
364, 0.97933756896537, 0.014959255819578, 0
365, 0.78757929275419, -0.27304054063729, 0
366, 0.81777696165737, -0.24350252758623, 0
367, 0.84291869365608, -0.2719160993452, 0
368, 0.815419477022, -0.27214688094583, 0
369, 0.97294155502727, 0.14560540268173, 0
370, 0.93206451456749, -0.051979811842805, 0
371, 0.97665967337759, -0.19940577109907, 0
372, 0.94960456729791, 0.054290115037454, 0
373, 0.65261695507677, -0.25402205063894, 0
374, 0.67937588654962, -0.27689911201796, 0
375, 0.62785567349384, -0.27670884266226, 0
376, 0.65338887937958, -0.2769211944112, 0
377, 0.90931614477489, -0.028499152654461, 0
378, 0.78008735287065, -0.050190544301703, 0
379, 0.97373278931165, 0.24939331374683, 0
380, 0.86867069433275, 0.2470337949358, 0
381, 0.97978295708215, -0.12481443182955, 0
382, 0.94865935578134, -0.034765281415867, 0
383, 0.94713043628309, 0.22260816749781, 0
384, 0.89649977879527, -0.27272971022404, 0
385, 0.87293906910802, -0.24415089999748, 0
386, 0.8699282477588, -0.27218297399634, 0
387, 0.13758372477649, -0.13726666456062, 0
388, 0.022753887299892, -0.19392867853302, 0
389, 0.20566258326347, -0.10491596579308, 0
390, 0.80850594646379, 0.026806314259573, 0
391, 0.81048028249595, -0.0065565112424302, 0
392, 0.92053157046518, -0.11422923672669, 0
393, 0.024185261844965, -0.24711151712199, 0
394, 0.049884234896043, -0.27343770542128, 0
395, 0.024897763044304, -0.27356052550059, 0
396, 0.9735662860626, 0.22389360280584, 0
397, 0.88844109610713, -0.15943147335311, 0
398, 0.73840272849829, 0.27324072361615, 0
399, 0.9600833570871, 0.007624738208769, 0
400, 0.73258265675431, -0.27570746904673, 0
401, 0.70409841716601, -0.25344929382554, 0
402, 0.70576148956263, -0.27652943429499, 0
403, 0.92473840856349, -0.24684298889721, 0
404, 0.94865228242787, -0.2741148411091, 0
405, 0.92270369311923, -0.27340555409733, 0
406, 0.41582763215352, -0.19682750461721, 0
407, 0.58332176637547, -0.22769219055902, 0
408, 0.48343091825096, -0.25021583391595, 0
409, 0.475261552324, -0.18099423837847, 0
410, 0.87280806937288, 0.050000501860246, 0
411, 0.76822424835701, 0.16573106517917, 0
412, 0.049609251956229, 0.042671255899792, 0
413, 0.17128295671467, -0.059054972182859, 0
414, 0.025135481087956, 0.076588566148592, 0
415, 0.024857179733782, 0.049254152581183, 0
416, 0.34833515949581, -0.24137130127324, 0
417, 0.37528610952095, -0.27201244805278, 0
418, 0.34751334305551, -0.27080012123949, 0
419, 0.92498414716791, -0.091609182896681, 0
420, 0.91935010765946, 0.0064634515575129, 0
421, 0.026001580105129, 0.18789057060576, 0
422, 0.05159860752146, 0.15531793553941, 0
423, 0.025611965685752, 0.13172910491156, 0
424, 0.025819756222368, 0.1597275256247, 0
425, 0.94572967839026, 0.14205702614415, 0
426, 0.79483207564032, 0.027336426700812, 0
427, 0.79172104030851, 0.21975964767654, 0
428, 0.95758034754177, -0.1463071564857, 0
429, 0.81617161075197, 0.13942032580167, 0
430, 0.75930487795859, -0.24895401705712, 0
431, 0.7598654153298, -0.27445485541635, 0
432, 0.026244237251419, 0.24426183888472, 0
433, 0.052609520431249, 0.27102681298575, 0
434, 0.02626557106995, 0.27216957136228, 0
435, 0.90772579068027, 0.022342366075987, 0
436, 0.91088027887263, -0.1640904527963, 0
437, 0.9786982907435, -0.14948183105247, 0
438, 0.1221467535325, -0.24511462789927, 0
439, 0.10071822544202, -0.27290243141601, 0
440, 0.12668420514973, -0.27236378740603, 0
441, 0.050693929555518, 0.098559153597655, 0
442, 0.025385100348006, 0.10407659046547, 0
443, 0.22756463831367, -0.23873703518164, 0
444, 0.2344634713247, -0.26942285975116, 0
445, 0.41003164622051, -0.22115253313281, 0
446, 0.44276453313455, -0.20119655799124, 0
447, 0.40550521953808, -0.24677895548658, 0
448, 0.40207850287672, -0.27317441869133, 0
449, 0.42264827930897, -0.17440414529267, 0
450, 0.54779035989055, -0.16850967055865, 0
451, 0.2215891591838, -0.14088780259139, 0
452, 0.2493921602218, -0.13851462396537, 0
453, 0.26243399535483, 0.19996360882288, 0
454, 0.27676005996451, 0.034251691675678, 0
455, 0.14975401691721, 0.042832326179821, 0
456, 0.77442557933557, 0.038290283632518, 0
457, 0.81711035265684, 0.19307969163405, 0
458, 0.71414547444885, 0.24646445930401, 0
459, 0.71214486502064, 0.27327564666878, 0
460, 0.28248297708936, 0.061572293782289, 0
461, 0.15720577410143, 0.19669824008924, 0
462, 0.56051740897569, -0.22593080358459, 0
463, 0.57127771951683, -0.17173404888322, 0
464, 0.25713326242122, 0.12991739188511, 0
465, 0.10548180078737, 0.23702554584516, 0
466, 0.072782824375109, -0.24669070714937, 0
467, 0.075183450222574, -0.27324407400912, 0
468, 0.078949695390405, 0.23967158655834, 0
469, 0.079177367802435, 0.26980218370355, 0
470, 0.45380108567747, -0.27469816204151, 0
471, 0.54184653406945, -0.19857305253974, 0
472, 0.052313218925805, 0.21301426256197, 0
473, 0.026148701017955, 0.21608996621466, 0
474, 0.60796088135246, 0.24813925420338, 0
475, 0.57668410379833, 0.27445849816037, 0
476, 0.60449611803408, 0.27412287781247, 0
477, 0.046887235013071, -0.22063660004403, 0
478, 0.023443143493546, -0.22049450204724, 0
479, 0.97502334679585, -0.2496525100065, 0
480, 0.97436034681121, -0.27481531610418, 0
481, 0.085265738799178, -0.1479006663182, 0
482, 0.17382107014982, -0.10193182706666, 0
483, 0.17145563655074, -0.025613977562428, 0
484, 0.95155075572154, -0.22247570942663, 0
485, 0.97578539218067, -0.2245075810083, 0
486, 0.97338385592426, 0.19818114223985, 0
487, 0.81788814001184, 0.0073961821129353, 0
488, 0.81749659933455, -0.061120653549911, 0
489, 0.7803731419375, -0.086894864117704, 0
490, 0.79273120697547, -0.066048344537907, 0
491, 0.81680249922934, 0.24665991534239, 0
492, 0.85745010862515, -0.063829571335512, 0
493, 0.82345970161596, -0.015827588874422, 0
494, 0.95526002039018, 0.029612922331702, 0
495, 0.86954679615394, -0.00067129927473289, 0
496, 0.84250583567413, 0.27342567846467, 0
497, 0.74195890466238, -0.02909745447072, 0
498, 0.76787865006826, -0.034157076814703, 0
499, 0.75536971983766, -0.048291326607363, 0
500, 0.35532788348073, -0.18167068283926, 0
501, 0.33490439251752, -0.14367292664685, 0
502, 0.39594912308228, -0.16510022801349, 0
503, 0.36717582113466, -0.15497372099801, 0
504, 0.78209680700563, 0.021950228736534, 0
505, 0.83872553271008, 0.016770679649992, 0
506, 0.90723337356988, -0.086765658787945, 0
507, 0.86792842246842, 0.19346225820637, 0
508, 0.79240149296439, 0.16604642390072, 0
509, 0.78910854419387, 0.01049240415302, 0
510, 0.98213241787613, -0.030575249672719, 0
511, 0.89668360528833, -0.060874586185533, 0
512, 0.83158315379484, -4.1561179406926e-05, 0
513, 0.23210209972087, 0.14036208352844, 0
514, 0.19896418791495, 0.027653827743585, 0
515, 0.1235405802839, 0.021105551172983, 0
516, 0.19800586493846, -0.067436928490147, 0
517, 0.12203407306027, -0.007963825900244, 0
518, 0.066064693237906, -0.1701227137136, 0
519, 0.25123885550654, 0.04190522759875, 0
520, 0.10006963366247, 0.057387231522759, 0
521, 0.25856424492147, 0.16253235643747, 0
522, 0.86046812919279, -0.018005542615883, 0
523, 0.79036626093087, 0.27329036988707, 0
524, 0.86628532718519, -0.044952638631167, 0
525, 0.93317784221352, -0.16799254565724, 0
526, 0.90139572769029, -0.10897696556263, 0
527, 0.32184960614994, 0.25821766771273, 0
528, 0.021989003397212, -0.14090173611995, 0
529, 0.075156151245555, 0.064145433828901, 0
530, 0.074286757046083, 0.035824709584839, 0
531, 0.16040549336806, 0.26474253425954, 0
532, 0.19692313499548, -0.0023486254578622, 0
533, 0.20893753585216, 0.1832111806957, 0
534, 0.19179751752052, -0.21048627019866, 0
535, 0.20820084861228, -0.1764935797667, 0
536, 0.24828154930402, -0.20585590491058, 0
537, 0.21906249891825, -0.20779385274294, 0
538, 0.463122229341, -0.2256491694085, 0
539, 0.42825267941831, -0.27409789700262, 0
540, 0.58064183614651, -0.25179022664413, 0
541, 0.43707895892937, -0.22419676481018, 0
542, 0.07329397893889, 0.0076700345635628, 0
543, 0.12152929809461, -0.14596394770496, 0
544, 0.95978637333496, -0.12185599573175, 0
545, 0.89506338207835, -0.13322098459993, 0
546, 0.94513532407023, 0.11337013248328, 0
547, 0.97391104642107, 0.27473046183441, 0
548, 0.54817582132433, 0.24939717840084, 0
549, 0.51700871232497, 0.27551960762119, 0
550, 0.54794502791165, 0.27482044078313, 0
551, 0.8134151387618, 0.087779297779276, 0
552, 0.79193124925974, 0.11314355132786, 0
553, 0.77069054536102, 0.06115139102425, 0
554, 0.76746638103913, 0.19270057427237, 0
555, 0.25650291128031, 0.099600962803122, 0
556, 0.17447125427464, 0.03520713318688, 0
557, 0.28240120715459, 0.11861847827071, 0
558, 0.80568557681076, 0.013289829153791, 0
559, 0.74140161298989, 0.21951977658779, 0
560, 0.79230875676573, 0.13936783294565, 0
561, 0.1047645548823, 0.20598196261386, 0
562, 0.11258497024503, -0.19305521724115, 0
563, 0.14138875916007, -0.21637273418616, 0
564, 0.093809617518445, -0.21987012049942, 0
565, 0.11742170189104, -0.21852740721215, 0
566, 0.72981374615311, -0.0082626087305074, 0
567, 0.72120967911177, -0.18811598352134, 0
568, 0.7768414366023, -0.15746740130499, 0
569, 0.75545334101806, -0.19921842912763, 0
570, 0.74889711602737, -0.17884552560793, 0
571, 0.67691567178574, 0.080078467478937, 0
572, 0.66935077605552, 0.051527383764348, 0
573, 0.90233257145647, -0.2180515124, 0
574, 0.85021347489077, -0.2138055818291, 0
575, 0.8820481638984, -0.18726810001115, 0
576, 0.87685992631687, -0.21577835369745, 0
577, 0.15427674439854, 0.13298718453832, 0
578, 0.23414635147693, 0.17395730722623, 0
579, 0.076667970818485, 0.12143153169684, 0
580, 0.13213719180653, 0.2339356586802, 0
581, 0.075941611020616, 0.092658886322556, 0
582, 0.15783604232317, -0.18592901825745, 0
583, 0.16603649417789, -0.21354409628399, 0
584, 0.59705640976707, 0.17003472431162, 0
585, 0.5621688703676, 0.19899472626623, 0
586, 0.57004456183852, 0.17135300839609, 0
587, 0.69855356274783, -0.21011289560438, 0
588, 0.66893087641269, -0.18945352400016, 0
589, 0.69440874502063, -0.19067117986472, 0
590, 0.46771159041833, 0.28644586457049, 0
591, 0.41860671303561, 0.28795532484547, 0
592, 0.44325132106017, 0.28880865315498, 0
593, 0.20342499514567, 0.087212036204259, 0
594, 0.20131489181177, 0.05731908547298, 0
595, 0.22028848545487, -0.0090932336768132, 0
596, 0.49171018935982, 0.2812029267264, 0
597, 0.02415993578043, -0.0057210836474083, 0
598, 0.048170285010809, -0.01284744550793, 0
599, 0.61773889605021, 0.19556387083155, 0
600, 0.6492902737104, 0.16576373976425, 0
601, 0.62369803840436, 0.16922069769832, 0
602, 0.69693576927404, 0.16449403519424, 0
603, 0.67769470169039, 0.13511136822375, 0
604, 0.66924058382491, 0.19275975559523, 0
605, 0.67338823072354, 0.16455997894832, 0
606, 0.37020006313924, 0.27877931972905, 0
607, 0.39415014156635, 0.28440480673348, 0
608, 0.64895087332059, -0.20913446531092, 0
609, 0.64511192493358, -0.186594051005, 0
610, 0.077966545540122, 0.17995456367517, 0
611, 0.078517741359003, 0.20969008419668, 0
612, 0.58444893487979, 0.22316158971733, 0
613, 0.55457763382513, 0.22471714240077, 0
614, 0.89511687429293, 0.27373824606202, 0
615, 0.69963255753488, 0.13623879264722, 0
616, 0.67587469193203, -0.23182285180966, 0
617, 0.72902254845245, -0.22868496623478, 0
618, 0.70177382126822, -0.23115914990539, 0
619, 0.26004678362711, -0.048521345649522, 0
620, 0.17813136517857, 0.095074272458129, 0
621, 0.10393340346979, 0.17538038680054, 0
622, 0.12750826992619, 0.10929198844178, 0
623, 0.87484453968053, -0.027379903140973, 0
624, 0.88897792866574, -0.03604706492605, 0
625, 0.86842319016795, 0.22036768358707, 0
626, 0.34603609528845, 0.27060963903223, 0
627, 0.13101846491691, 0.20171833241719, 0
628, 0.077344585061013, 0.15052700069764, 0
629, 0.067996949527564, -0.19491513565595, 0
630, 0.070330261694891, -0.22050680188843, 0
631, 0.68092551091175, 0.10743621945085, 0
632, 0.11299781110818, -0.09061920383257, 0
633, 0.023148438600677, -0.060703689295668, 0
634, 0.18139609477983, 0.1575070292622, 0
635, 0.23064594141347, 0.10901913379565, 0
636, 0.15133712086518, 0.072479822715441, 0
637, 0.79024565077856, -0.21549057982289, 0
638, 0.8216004647399, -0.21299539782925, 0
639, 0.024540332648658, 0.021886035169924, 0
640, 0.044836639402234, -0.093289427024487, 0
641, 0.1960964636639, -0.033570450503166, 0
642, 0.97764193778948, -0.17436386350074, 0
643, 0.9400170442555, -0.11842015498877, 0
644, 0.92995757237693, -0.1939549997042, 0
645, 0.92713255760327, -0.22032105363745, 0
646, 0.62788967829241, -0.23061822069749, 0
647, 0.65124857504023, -0.23143593740125, 0
648, 0.87467951845702, -0.12670471783749, 0
649, 0.84047895962146, 0.13908754330795, 0
650, 0.098918319547536, 0.028645533001152, 0
651, 0.31524165149368, -0.20582051942335, 0
652, 0.38147120117648, -0.21679458064994, 0
653, 0.35038426626689, -0.21152899385553, 0
654, 0.55682093855111, -0.25086549795484, 0
655, 0.45814713367982, -0.2498099346942, 0
656, 0.51293063989027, -0.22521421758039, 0
657, 0.79037564088223, -0.10600975474984, 0
658, 0.94677180216471, 0.19633371892151, 0
659, 0.94321570825239, -0.095304068596124, 0
660, 0.83200539404971, -0.073486128696506, 0
661, 0.10211687134194, 0.11561050600046, 0
662, 0.18763326462308, 0.26214192285115, 0
663, 0.2688287636308, 0.0075428717250732, 0
664, 0.20518011373982, 0.1177866067526, 0
665, 0.96185617862909, -0.098158656890821, 0
666, 0.804012659412, -0.12244067248851, 0
667, 0.82165303881644, -0.1364160856639, 0
668, 0.10794963105327, -0.16937557543112, 0
669, 0.096065607584225, -0.028131682787831, 0
670, 0.08512039004681, -0.12658232606856, 0
671, 0.82327327611602, 0.022943893060889, 0
672, 0.8278856100714, -0.0428276241642, 0
673, 0.76900210737321, 0.11228292959897, 0
674, 0.85218770815805, 0.057501181976702, 0
675, 0.86549489263603, 0.13852942799163, 0
676, 0.25825976059269, -0.10602139828187, 0
677, 0.49386021336026, -0.20146894167303, 0
678, 0.478970030133, -0.27499711567461, 0
679, 0.14816013114155, 0.013244242379375, 0
680, 0.1797615821106, 0.12578116109337, 0
681, 0.12455146692002, -0.12102398642408, 0
682, 0.066627141332537, -0.098926892926136, 0
683, 0.26908771979659, 0.2470041603235, 0
684, 0.24637525463993, 0.013732323906316, 0
685, 0.84234381660548, 0.19320500283249, 0
686, 0.79150983318685, 0.064101124251182, 0
687, 0.92801917761797, -0.0080544403314012, 0
688, 0.98168427461911, -0.076621895062945, 0
689, 0.81500194223585, 0.11311406717227, 0
690, 0.13313465828457, 0.26677269765427, 0
691, 0.022225395103797, -0.16735504220755, 0
692, 0.12870182638752, 0.13945410082848, 0
693, 0.71843545102314, 0.19228306112577, 0
694, 0.69100511848735, 0.2196438353736, 0
695, 0.71626960956008, 0.21948554102966, 0
696, 0.60428802210728, -0.25282126255342, 0
697, 0.87338448221021, -0.072830597125669, 0
698, 0.96486754907876, -0.033008284857743, 0
699, 0.28014898442626, -0.20483071882072, 0
700, 0.6393360549232, 0.22090552723903, 0
701, 0.66543816759949, 0.22009136104893, 0
702, 0.81685481044475, 0.16617479770887, 0
703, 0.7442686676709, 0.16526287149002, 0
704, 0.85491145961283, -0.11848107178867, 0
705, 0.89447703294985, 0.2208372104348, 0
706, 0.76872128899711, 0.13887040769259, 0
707, 0.2660215003811, -0.077521797061979, 0
708, 0.043735231377482, -0.1437506408947, 0
709, 0.75806052314726, -0.22369369222314, 0
710, 0.79000557603668, -0.0095664278922851, 0
711, 0.8015525435777, -0.02044275437729, 0
712, 0.77978196062211, -0.021596853412798, 0
713, 0.72050408504169, 0.16482385127204, 0
714, 0.89391563636371, 0.19394352677097, 0
715, 0.90298184128959, -0.043439389383997, 0
716, 0.60658197792091, -0.20732905761627, 0
717, 0.5082320655933, -0.2502458429246, 0
718, 0.29758965989988, 0.23633565389134, 0
719, 0.15284518850551, 0.10245133299901, 0
720, 0.21475113643046, 0.25868524691856, 0
721, 0.23746096980104, 0.2113272556912, 0
722, 0.15570282575618, 0.16432886522525, 0
723, 0.0721020208648, -0.020231126341574, 0
724, 0.92892094658074, -0.070802066856177, 0
725, 0.8658295898204, -0.15370289929115, 0
726, 0.17271202767642, 0.0052409552897656, 0
727, 0.17636034476595, 0.065008964943098, 0
728, 0.26213614152279, -0.019800778921009, 0
729, 0.61244878934966, 0.22199053608017, 0
730, 0.44906001364568, -0.18048895994869, 0
731, 0.14842874271653, -0.15992237302706, 0
732, 0.15480154380783, -0.12329874910961, 0
733, 0.02211986542065, -0.11444527446409, 0
734, 0.98220894318591, -0.053302014325325, 0
735, 0.12024337599079, -0.036879070625725, 0
736, 0.97278451578136, 0.11865689876467, 0
737, 0.76652467692594, 0.21962296125767, 0
738, 0.070604522939438, -0.047590122558906, 0
739, 0.60550818253488, -0.22961101066524, 0
740, 0.81995000967033, -0.095761092226115, 0
741, 0.97453452046301, 0.064406434240964, 0
742, 0.72224150591412, 0.13715023346822, 0
743, 0.76342334151718, 0.002118565126712, 0
744, 0.57798419522069, -0.27587629496115, 0
745, 0.88871184719946, 0.10871001740096, 0
746, 0.22302046373107, 0.020445308135065, 0
747, 0.58659105068687, -0.20352827513722, 0
748, 0.068686979002856, -0.073939989059063, 0
749, 0.6952063253198, 0.047718262697136, 0
750, 0.842279016867, -0.053727008790885, 0
751, 0.23304780979334, -0.10611657148129, 0
752, 0.09762902422497, 0.00010337346348602, 0
753, 0.044310902839037, -0.16897713656427, 0
754, 0.22308961942332, -0.072435329832334, 0
755, 0.14275890528216, -0.07811522200787, 0
756, 0.19435995437994, -0.14394204187852, 0
757, 0.79218227176987, 0.19290465791834, 0
758, 0.81428461494378, -0.031629531648126, 0
759, 0.96361597286793, -0.075414064560537, 0
760, 0.86288080209889, 0.1105303071865, 0
761, 0.97692991251054, 0.038949826402683, 0
762, 0.79649045191967, 0.017060460082201, 0
763, 0.91250003140235, -0.066638497708119, 0
764, 0.91714248248603, -0.048866960896116, 0
765, 0.92102044452144, -0.034166301111542, 0
766, 0.91664949940556, -0.016595158054794, 0
767, 0.90665055529691, -0.0062720583565227, 0
768, 0.89431177349356, 0.0055801666074726, 0
769, 0.9335630096521, -0.021252509047291, 0
770, 0.86307198607093, 0.027791288204371, 0
771, 0.84545432464745, 0.035613458591868, 0
772, 0.82766313969161, 0.04103585465283, 0
773, 0.89245022810376, 0.038548708759814, 0
774, 0.8355872243761, 0.086143729124226, 0
775, 0.85858788588905, 0.082812766857781, 0
776, 0.8833789935825, 0.077632787135675, 0
777, 0.9214577718886, 0.27399427940352, 0
778, 0.92112054535259, 0.24788102073798, 0
779, 0.9207415980711, 0.22156637096442, 0
780, 0.92023862839399, 0.19487962784304, 0
781, 0.91950057795735, 0.16758916486495, 0
782, 0.91836825256181, 0.13922569638354, 0
783, 0.9165265662676, 0.10845488622501, 0
784, 0.94272895893579, -5.3847552523606e-05, 0
785, 0.93567220705106, 0.018733595191428, 0
786, 0.92609563749784, 0.040507967167489, 0
787, 0.96342069439696, -0.012888413187204, 0
788, 0.98118824991098, -0.0080366500364167, 0
789, 0.9729838726029, 0.091228383312662, 0
790, 0.94503203688286, 0.082719584218015, 0
791, 0.92375341671072, -0.02400014794919, 0
792, 0.87971101831699, 0.017532711571093, 0
793, 0.94725662725959, -0.017381209689642, 0
794, 0.91274677849574, 0.069659985552178, 0
******* E L E M E N T S *************
*ELEMENT, type=T3D2, ELSET=Line1
1, 1, 10
2, 10, 18
3, 18, 11
4, 11, 19
5, 19, 12
6, 12, 20
7, 20, 13
8, 13, 21
9, 21, 14
10, 14, 22
11, 22, 15
12, 15, 23
13, 23, 16
14, 16, 24
15, 24, 17
16, 17, 2
*ELEMENT, type=T3D2, ELSET=Line2
17, 2, 25
18, 25, 28
19, 28, 26
20, 26, 29
21, 29, 27
22, 27, 3
*ELEMENT, type=T3D2, ELSET=Line3
23, 3, 30
24, 30, 38
25, 38, 31
26, 31, 39
27, 39, 32
28, 32, 40
29, 40, 33
30, 33, 41
31, 41, 34
32, 34, 42
33, 42, 35
34, 35, 43
35, 43, 36
36, 36, 44
37, 44, 37
38, 37, 4
*ELEMENT, type=T3D2, ELSET=Line4
39, 4, 45
40, 45, 57
41, 57, 46
42, 46, 58
43, 58, 47
44, 47, 59
45, 59, 48
46, 48, 60
47, 60, 49
48, 49, 61
49, 61, 50
50, 50, 62
51, 62, 51
52, 51, 63
53, 63, 52
54, 52, 64
55, 64, 53
56, 53, 65
57, 65, 54
58, 54, 66
59, 66, 55
60, 55, 67
61, 67, 56
62, 56, 5
*ELEMENT, type=T3D2, ELSET=Line5
63, 5, 68
64, 68, 76
65, 76, 69
66, 69, 77
67, 77, 70
68, 70, 78
69, 78, 71
70, 71, 79
71, 79, 72
72, 72, 80
73, 80, 73
74, 73, 81
75, 81, 74
76, 74, 82
77, 82, 75
78, 75, 6
*ELEMENT, type=T3D2, ELSET=Line6
79, 6, 83
80, 83, 86
81, 86, 84
82, 84, 87
83, 87, 85
84, 85, 7
*ELEMENT, type=T3D2, ELSET=Line7
85, 7, 88
86, 88, 96
87, 96, 89
88, 89, 97
89, 97, 90
90, 90, 98
91, 98, 91
92, 91, 99
93, 99, 92
94, 92, 100
95, 100, 93
96, 93, 101
97, 101, 94
98, 94, 102
99, 102, 95
100, 95, 8
*ELEMENT, type=T3D2, ELSET=Line8
101, 8, 103
102, 103, 114
103, 114, 104
104, 104, 115
105, 115, 105
106, 105, 116
107, 116, 106
108, 106, 117
109, 117, 107
110, 107, 118
111, 118, 108
112, 108, 119
113, 119, 109
114, 109, 120
115, 120, 110
116, 110, 121
117, 121, 111
118, 111, 122
119, 122, 112
120, 112, 123
121, 123, 113
122, 113, 1
*ELEMENT, type=T3D2, ELSET=Line9
123, 9, 124
124, 124, 153
125, 153, 151
126, 151, 154
127, 154, 150
128, 150, 155
129, 155, 149
130, 149, 156
131, 156, 148
132, 148, 157
133, 157, 147
134, 147, 158
135, 158, 146
136, 146, 159
137, 159, 145
138, 145, 160
139, 160, 144
140, 144, 161
141, 161, 143
142, 143, 162
143, 162, 142
144, 142, 163
145, 163, 141
146, 141, 164
147, 164, 140
148, 140, 165
149, 165, 139
150, 139, 166
151, 166, 138
152, 138, 167
153, 167, 137
154, 137, 168
155, 168, 136
156, 136, 169
157, 169, 135
158, 135, 170
159, 170, 134
160, 134, 171
161, 171, 133
162, 133, 172
163, 172, 132
164, 132, 173
165, 173, 131
166, 131, 174
167, 174, 130
168, 130, 175
169, 175, 129
170, 129, 176
171, 176, 128
172, 128, 177
173, 177, 127
174, 127, 178
175, 178, 126
176, 126, 179
177, 179, 125
178, 125, 180
179, 180, 152
180, 152, 9
*ELEMENT, type=CPS4, ELSET=Surface1
181, 82, 341, 342, 74
182, 74, 342, 339, 81
183, 342, 340, 253, 339
184, 341, 254, 340, 342
185, 457, 757, 508, 702
186, 316, 706, 411, 703
187, 674, 272, 772, 771
188, 328, 240, 436, 525
189, 185, 349, 350, 347
190, 347, 350, 13, 21
191, 350, 348, 20, 13
192, 349, 184, 348, 350
193, 753, 708, 528, 691
194, 413, 516, 641, 483
195, 720, 99, 92, 662
196, 676, 298, 707, 299
197, 756, 535, 220, 451
198, 691, 528, 121, 111
199, 639, 118, 108, 597
200, 751, 452, 351, 676
201, 22, 15, 360, 357
202, 357, 360, 358, 186
203, 360, 359, 189, 358
204, 15, 23, 359, 360
205, 362, 302, 361, 675
206, 499, 126, 178, 270
207, 750, 660, 271, 492
208, 777, 69, 77, 614
209, 42, 367, 368, 34
210, 34, 368, 365, 41
211, 368, 366, 290, 365
212, 367, 294, 366, 368
213, 301, 657, 666, 740
214, 318, 724, 419, 659
215, 704, 275, 725, 648
216, 794, 773, 435, 786
217, 193, 375, 376, 373
218, 373, 376, 374, 194
219, 376, 31, 39, 374
220, 375, 38, 31, 376
221, 666, 568, 288, 667
222, 420, 767, 766, 687
223, 62, 788, 510, 50
224, 711, 279, 269, 758
225, 685, 345, 344, 457
226, 745, 362, 675, 760
227, 280, 672, 750, 289
228, 773, 410, 770, 792
229, 295, 385, 386, 384
230, 384, 386, 35, 43
231, 386, 367, 42, 35
232, 385, 294, 367, 386
233, 389, 451, 452, 751
234, 751, 676, 299, 754
235, 230, 223, 229, 708
236, 683, 213, 721, 453
237, 780, 779, 705, 714
238, 784, 687, 769, 793
239, 774, 247, 689, 551
240, 770, 250, 495, 792
241, 123, 113, 395, 393
242, 393, 395, 394, 182
243, 395, 10, 18, 394
244, 113, 1, 10, 395
245, 263, 456, 553, 305
246, 495, 522, 623, 239
247, 660, 740, 327, 271
248, 380, 313, 496, 242
249, 195, 401, 402, 400
250, 400, 402, 32, 40
251, 402, 374, 39, 32
252, 401, 194, 374, 402
253, 43, 36, 405, 384
254, 384, 405, 403, 295
255, 405, 404, 297, 403
256, 36, 44, 404, 405
257, 236, 654, 462, 283
258, 446, 311, 409, 730
259, 502, 449, 134, 170
260, 447, 326, 541, 445
261, 774, 551, 262, 272
262, 315, 673, 706, 316
263, 493, 758, 672, 280
264, 671, 487, 512, 505
265, 215, 414, 415, 412
266, 482, 413, 217, 755
267, 542, 337, 598, 723
268, 414, 117, 107, 415
269, 23, 16, 418, 359
270, 359, 418, 416, 189
271, 418, 417, 188, 416
272, 16, 24, 417, 418
273, 773, 792, 768, 435
274, 345, 242, 491, 344
275, 759, 318, 659, 665
276, 329, 280, 289, 522
277, 115, 105, 424, 421
278, 421, 424, 422, 203
279, 424, 423, 201, 422
280, 105, 116, 423, 424
281, 245, 523, 346, 491
282, 672, 488, 660, 750
283, 505, 512, 329, 250
284, 667, 288, 314, 275
285, 272, 262, 248, 772
286, 554, 757, 427, 737
287, 71, 79, 523, 245
288, 251, 554, 737, 559
289, 195, 400, 431, 430
290, 430, 431, 365, 290
291, 431, 33, 41, 365
292, 400, 40, 33, 431
293, 204, 433, 434, 432
294, 432, 434, 103, 114
295, 434, 95, 8, 103
296, 433, 102, 95, 434
297, 287, 765, 764, 370
298, 558, 246, 391, 487
299, 303, 346, 523, 243
300, 768, 239, 268, 767
301, 183, 439, 440, 438
302, 438, 440, 348, 184
303, 440, 12, 20, 348
304, 439, 19, 12, 440
305, 116, 106, 442, 423
306, 423, 442, 441, 201
307, 442, 414, 215, 441
308, 106, 117, 414, 442
309, 21, 14, 444, 347
310, 347, 444, 443, 185
311, 444, 357, 186, 443
312, 14, 22, 357, 444
313, 406, 446, 730, 449
314, 25, 28, 678, 470
315, 538, 235, 677, 311
316, 26, 29, 191, 333
317, 324, 744, 540, 654
318, 462, 407, 747, 192
319, 655, 408, 235, 538
320, 470, 678, 408, 655
321, 690, 93, 101, 199
322, 197, 211, 200, 519
323, 352, 120, 110, 733
324, 354, 119, 109, 633
325, 198, 580, 627, 461
326, 205, 555, 197, 460
327, 212, 595, 234, 231
328, 690, 199, 465, 580
329, 781, 780, 714, 302
330, 624, 244, 511, 715
331, 794, 776, 410, 773
332, 260, 241, 673, 315
333, 252, 398, 459, 458
334, 458, 459, 339, 253
335, 459, 73, 81, 339
336, 398, 80, 73, 459
337, 214, 520, 650, 515
338, 746, 514, 532, 595
339, 718, 683, 453, 209
340, 454, 663, 166, 139
341, 463, 310, 174, 131
342, 744, 187, 696, 540
343, 471, 192, 463, 450
344, 449, 730, 171, 134
345, 211, 593, 594, 200
346, 557, 205, 140, 164
347, 634, 722, 577, 680
348, 679, 515, 517, 353
349, 182, 394, 467, 466
350, 466, 467, 439, 183
351, 467, 11, 19, 439
352, 394, 18, 11, 467
353, 635, 664, 593, 211
354, 580, 465, 561, 627
355, 469, 433, 204, 468
356, 94, 102, 433, 469
357, 283, 462, 192, 471
358, 191, 324, 654, 236
359, 310, 334, 325, 174
360, 204, 432, 473, 472
361, 472, 473, 421, 203
362, 473, 104, 115, 421
363, 432, 114, 104, 473
364, 82, 75, 476, 341
365, 341, 476, 474, 254
366, 476, 475, 190, 474
367, 75, 6, 475, 476
368, 122, 112, 478, 388
369, 388, 478, 477, 219
370, 478, 393, 182, 477
371, 112, 123, 393, 478
372, 44, 37, 480, 404
373, 404, 480, 479, 297
374, 480, 45, 57, 479
375, 37, 4, 45, 480
376, 298, 308, 136, 168
377, 731, 227, 224, 582
378, 387, 681, 225, 543
379, 336, 748, 682, 355
380, 297, 479, 485, 484
381, 484, 485, 371, 296
382, 485, 46, 58, 371
383, 479, 57, 46, 485
384, 687, 766, 791, 769
385, 47, 642, 371, 58
386, 428, 328, 525, 312
387, 511, 277, 506, 763
388, 706, 560, 508, 411
389, 274, 547, 68, 76
390, 344, 427, 757, 457
391, 697, 276, 319, 277
392, 715, 511, 763, 764
393, 487, 391, 493, 512
394, 377, 715, 764, 765
395, 327, 667, 275, 704
396, 710, 712, 279, 711
397, 775, 760, 247, 774
398, 499, 497, 179, 126
399, 498, 281, 497, 499
400, 237, 502, 503, 500
401, 500, 503, 501, 238
402, 503, 135, 169, 501
403, 502, 170, 135, 503
404, 378, 270, 489, 490
405, 512, 493, 280, 329
406, 268, 624, 715, 377
407, 775, 774, 272, 674
408, 689, 552, 267, 551
409, 558, 762, 509, 246
410, 657, 177, 568, 666
411, 240, 545, 397, 436
412, 264, 509, 504, 321
413, 361, 507, 685, 363
414, 241, 267, 552, 673
415, 289, 750, 492, 524
416, 205, 460, 165, 140
417, 521, 578, 513, 464
418, 680, 577, 719, 620
419, 452, 309, 238, 351
420, 593, 620, 727, 594
421, 543, 225, 300, 222
422, 692, 208, 661, 622
423, 202, 461, 722, 634
424, 714, 705, 625, 507
425, 724, 763, 506, 419
426, 648, 725, 397, 545
427, 305, 553, 241, 260
428, 688, 759, 665, 286
429, 59, 437, 642, 47
430, 49, 688, 286, 60
431, 437, 428, 312, 642
432, 636, 206, 214, 455
433, 228, 633, 352, 640
434, 562, 668, 307, 218
435, 529, 215, 412, 530
436, 664, 680, 620, 593
437, 557, 464, 555, 205
438, 718, 90, 98, 683
439, 578, 533, 196, 513
440, 185, 443, 537, 534
441, 534, 537, 535, 221
442, 537, 536, 220, 535
443, 443, 186, 536, 537
444, 188, 447, 445, 652
445, 284, 716, 739, 646
446, 450, 463, 131, 173
447, 27, 3, 744, 324
448, 3, 30, 187, 744
449, 235, 656, 335, 677
450, 192, 747, 310, 463
451, 17, 2, 539, 448
452, 540, 696, 739, 407
453, 375, 187, 30, 38
454, 333, 191, 236, 717
455, 181, 450, 173, 132
456, 337, 639, 597, 598
457, 633, 109, 120, 352
458, 461, 627, 331, 722
459, 227, 543, 222, 668
460, 355, 682, 223, 670
461, 413, 483, 353, 217
462, 482, 755, 356, 732
463, 216, 354, 633, 228
464, 725, 293, 575, 397
465, 507, 625, 345, 685
466, 244, 697, 277, 511
467, 411, 508, 757, 554
468, 86, 549, 550, 83
469, 83, 550, 475, 6
470, 550, 548, 190, 475
471, 549, 158, 548, 550
472, 246, 710, 711, 391
473, 760, 675, 649, 247
474, 276, 704, 648, 319
475, 786, 435, 420, 785
476, 662, 531, 198, 330
477, 681, 226, 300, 225
478, 482, 756, 451, 389
479, 209, 207, 141, 163
480, 269, 490, 301, 488
481, 623, 524, 244, 624
482, 270, 178, 127, 489
483, 553, 686, 267, 241
484, 663, 684, 212, 728
485, 213, 720, 210, 721
486, 561, 611, 610, 621
487, 464, 513, 635, 555
488, 218, 564, 565, 562
489, 562, 565, 563, 224
490, 565, 438, 184, 563
491, 564, 183, 438, 565
492, 281, 323, 566, 497
493, 497, 566, 125, 179
494, 566, 306, 180, 125
495, 323, 263, 306, 566
496, 291, 569, 570, 567
497, 567, 570, 128, 176
498, 570, 568, 177, 128
499, 569, 288, 568, 570
500, 9, 152, 572, 124
501, 124, 572, 571, 153
502, 615, 742, 713, 602
503, 749, 317, 259, 304
504, 292, 575, 576, 573
505, 573, 576, 385, 295
506, 576, 574, 294, 385
507, 575, 293, 574, 576
508, 460, 454, 139, 165
509, 208, 628, 579, 661
510, 621, 610, 628, 208
511, 201, 441, 581, 579
512, 207, 521, 464, 557
513, 718, 527, 97, 90
514, 441, 215, 529, 581
515, 185, 534, 583, 349
516, 349, 583, 563, 184
517, 583, 582, 224, 563
518, 534, 221, 582, 583
519, 255, 585, 586, 584
520, 584, 586, 149, 155
521, 586, 148, 156, 149
522, 585, 157, 148, 586
523, 176, 129, 589, 567
524, 567, 589, 587, 291
525, 589, 588, 285, 587
526, 129, 175, 588, 589
527, 7, 591, 592, 85
528, 85, 592, 590, 87
529, 592, 145, 159, 590
530, 591, 160, 145, 592
531, 661, 579, 581, 332
532, 595, 532, 641, 234
533, 207, 557, 164, 141
534, 531, 690, 580, 198
535, 87, 590, 596, 84
536, 84, 596, 549, 86
537, 596, 146, 158, 549
538, 590, 159, 146, 596
539, 669, 723, 738, 338
540, 668, 222, 481, 307
541, 707, 137, 167, 619
542, 217, 735, 232, 755
543, 155, 150, 601, 584
544, 584, 601, 599, 255
545, 601, 600, 257, 599
546, 150, 154, 600, 601
547, 256, 604, 605, 602
548, 390, 558, 487, 671
549, 605, 600, 154, 603
550, 604, 257, 600, 605
551, 160, 591, 607, 144
552, 144, 607, 606, 161
553, 607, 88, 96, 606
554, 591, 7, 88, 607
555, 284, 608, 609, 325
556, 325, 609, 130, 174
557, 609, 588, 175, 130
558, 608, 285, 588, 609
559, 662, 92, 100, 531
560, 728, 212, 231, 619
561, 611, 472, 203, 610
562, 468, 204, 472, 611
563, 190, 548, 613, 612
564, 612, 613, 585, 255
565, 613, 147, 157, 585
566, 548, 158, 147, 613
567, 703, 411, 554, 251
568, 248, 266, 426, 390
569, 525, 436, 292, 644
570, 258, 315, 316, 742
571, 195, 617, 618, 401
572, 401, 618, 616, 194
573, 618, 587, 285, 616
574, 617, 291, 587, 618
575, 455, 214, 515, 679
576, 754, 299, 231, 234
577, 683, 98, 91, 213
578, 783, 782, 362, 745
579, 496, 78, 71, 245
580, 625, 380, 242, 345
581, 769, 791, 765, 287
582, 718, 209, 163, 142
583, 89, 626, 606, 96
584, 626, 143, 161, 606
585, 620, 719, 636, 727
586, 201, 579, 628, 422
587, 422, 628, 610, 203
588, 200, 594, 514, 746
589, 520, 529, 530, 650
590, 219, 477, 630, 629
591, 629, 630, 564, 218
592, 630, 466, 183, 564
593, 477, 182, 466, 630
594, 153, 571, 631, 151
595, 151, 631, 603, 154
596, 572, 749, 304, 571
597, 317, 305, 260, 259
598, 518, 230, 708, 753
599, 556, 455, 679, 726
600, 735, 669, 338, 232
601, 224, 227, 668, 562
602, 684, 746, 595, 212
603, 514, 556, 726, 532
604, 721, 210, 533, 578
605, 454, 519, 684, 663
606, 288, 637, 638, 314
607, 314, 638, 574, 293
608, 638, 366, 294, 574
609, 637, 290, 366, 638
610, 530, 412, 337, 542
611, 356, 632, 226, 681
612, 640, 352, 733, 229
613, 388, 691, 111, 122
614, 248, 390, 671, 772
615, 509, 762, 426, 504
616, 614, 77, 70, 313
617, 698, 382, 278, 261
618, 296, 644, 645, 484
619, 484, 645, 403, 297
620, 645, 573, 295, 403
621, 644, 292, 573, 645
622, 285, 608, 647, 616
623, 616, 647, 373, 194
624, 647, 646, 193, 373
625, 608, 284, 646, 647
626, 379, 67, 56, 547
627, 510, 698, 261, 734
628, 771, 505, 250, 770
629, 275, 314, 293, 725
630, 622, 661, 332, 206
631, 453, 721, 578, 521
632, 533, 202, 634, 196
633, 189, 416, 653, 651
634, 651, 653, 500, 238
635, 653, 652, 237, 500
636, 416, 188, 652, 653
637, 2, 25, 470, 539
638, 24, 17, 448, 417
639, 407, 739, 716, 747
640, 677, 335, 181, 282
641, 782, 781, 302, 362
642, 279, 378, 490, 269
643, 490, 489, 657, 301
644, 498, 499, 270, 378
645, 332, 581, 529, 520
646, 199, 101, 94, 469
647, 331, 621, 208, 692
648, 515, 650, 752, 517
649, 398, 243, 72, 80
650, 705, 273, 380, 625
651, 642, 312, 296, 371
652, 271, 327, 704, 276
653, 522, 289, 524, 623
654, 239, 623, 624, 268
655, 302, 714, 507, 361
656, 392, 526, 545, 240
657, 233, 731, 582, 221
658, 482, 732, 233, 756
659, 732, 387, 731, 233
660, 232, 338, 336, 632
661, 779, 778, 273, 705
662, 243, 523, 79, 72
663, 321, 504, 456, 263
664, 312, 525, 644, 296
665, 61, 734, 688, 49
666, 313, 70, 78, 496
667, 794, 783, 745, 776
668, 363, 685, 457, 702
669, 219, 753, 691, 388
670, 723, 598, 216, 738
671, 516, 754, 234, 641
672, 311, 677, 282, 409
673, 408, 717, 656, 235
674, 193, 696, 187, 375
675, 541, 538, 311, 446
676, 460, 197, 519, 454
677, 199, 469, 468, 465
678, 532, 726, 483, 641
679, 627, 561, 621, 331
680, 299, 707, 619, 231
681, 482, 389, 516, 413
682, 752, 542, 723, 669
683, 213, 91, 99, 720
684, 527, 162, 143, 626
685, 594, 727, 556, 514
686, 702, 508, 560, 429
687, 48, 381, 437, 59
688, 488, 301, 740, 660
689, 456, 266, 686, 553
690, 792, 495, 239, 768
691, 429, 560, 552, 689
692, 551, 267, 686, 262
693, 737, 427, 346, 303
694, 528, 733, 110, 121
695, 531, 100, 93, 690
696, 210, 330, 202, 533
697, 597, 108, 119, 354
698, 253, 694, 695, 458
699, 458, 695, 559, 252
700, 695, 693, 251, 559
701, 694, 256, 693, 695
702, 409, 282, 172, 133
703, 325, 334, 716, 284
704, 335, 471, 450, 181
705, 448, 539, 326, 447
706, 278, 370, 724, 318
707, 261, 278, 318, 759
708, 381, 544, 428, 437
709, 489, 127, 177, 657
710, 189, 651, 699, 358
711, 358, 699, 536, 186
712, 699, 309, 220, 536
713, 651, 238, 309, 699
714, 257, 604, 701, 700
715, 700, 701, 340, 254
716, 701, 694, 253, 340
717, 604, 256, 694, 701
718, 60, 286, 381, 48
719, 524, 492, 697, 244
720, 742, 316, 703, 713
721, 675, 361, 363, 649
722, 247, 649, 429, 689
723, 419, 506, 526, 392
724, 740, 666, 667, 327
725, 252, 303, 243, 398
726, 308, 501, 169, 136
727, 415, 107, 118, 639
728, 351, 238, 501, 308
729, 290, 637, 709, 430
730, 430, 709, 617, 195
731, 709, 569, 291, 617
732, 637, 288, 569, 709
733, 410, 674, 771, 770
734, 498, 712, 322, 281
735, 712, 710, 264, 322
736, 649, 363, 702, 429
737, 603, 615, 602, 605
738, 246, 509, 264, 710
739, 713, 693, 256, 602
740, 703, 251, 693, 713
741, 492, 271, 276, 697
742, 382, 287, 370, 278
743, 788, 787, 698, 510
744, 793, 769, 287, 382
745, 665, 659, 643, 544
746, 273, 614, 313, 380
747, 544, 643, 328, 428
748, 758, 269, 488, 672
749, 282, 181, 132, 172
750, 237, 406, 449, 502
751, 654, 540, 407, 462
752, 417, 448, 447, 188
753, 727, 636, 455, 556
754, 719, 622, 206, 636
755, 206, 332, 520, 214
756, 577, 692, 622, 719
757, 330, 198, 461, 202
758, 728, 619, 167, 138
759, 519, 200, 746, 684
760, 650, 530, 542, 752
761, 598, 597, 354, 216
762, 682, 640, 229, 223
763, 748, 228, 640, 682
764, 712, 498, 378, 279
765, 504, 426, 266, 456
766, 547, 56, 5, 68
767, 286, 665, 544, 381
768, 436, 397, 575, 292
769, 370, 764, 763, 724
770, 242, 496, 245, 491
771, 734, 261, 759, 688
772, 513, 196, 664, 635
773, 663, 728, 138, 166
774, 718, 142, 162, 527
775, 738, 216, 228, 748
776, 720, 662, 330, 210
777, 209, 453, 521, 207
778, 726, 679, 353, 483
779, 555, 635, 211, 197
780, 196, 634, 680, 664
781, 465, 468, 611, 561
782, 255, 599, 729, 612
783, 612, 729, 474, 190
784, 729, 700, 254, 474
785, 599, 257, 700, 729
786, 28, 26, 333, 678
787, 29, 27, 324, 191
788, 656, 283, 471, 335
789, 646, 739, 696, 193
790, 307, 481, 230, 518
791, 676, 351, 308, 298
792, 389, 751, 754, 516
793, 517, 752, 669, 735
794, 756, 233, 221, 535
795, 451, 220, 309, 452
796, 218, 307, 518, 629
797, 776, 775, 674, 410
798, 777, 274, 76, 69
799, 785, 420, 687, 784
800, 50, 510, 734, 61
801, 629, 518, 753, 219
802, 559, 737, 303, 252
803, 262, 686, 266, 248
804, 390, 426, 762, 558
805, 277, 319, 526, 506
806, 571, 304, 320, 631
807, 631, 320, 615, 603
808, 632, 336, 355, 226
809, 353, 517, 735, 217
810, 481, 670, 223, 230
811, 539, 470, 655, 326
812, 678, 333, 717, 408
813, 319, 648, 545, 526
814, 250, 329, 522, 495
815, 766, 377, 765, 791
816, 304, 259, 258, 320
817, 259, 260, 315, 258
818, 491, 346, 427, 344
819, 320, 258, 742, 615
820, 306, 263, 305, 317
821, 435, 768, 767, 420
822, 263, 323, 743, 321
823, 321, 743, 322, 264
824, 323, 281, 322, 743
825, 326, 655, 538, 541
826, 445, 541, 446, 406
827, 747, 716, 334, 310
828, 776, 745, 760, 775
829, 643, 392, 240, 328
830, 767, 268, 377, 766
831, 722, 331, 692, 577
832, 527, 626, 89, 97
833, 730, 409, 133, 171
834, 652, 445, 406, 237
835, 717, 236, 283, 656
836, 338, 738, 748, 336
837, 755, 232, 632, 356
838, 222, 300, 670, 481
839, 180, 306, 317, 749
840, 152, 180, 749, 572
841, 412, 415, 639, 337
842, 387, 543, 227, 731
843, 226, 355, 670, 300
844, 708, 229, 733, 528
845, 298, 168, 137, 707
846, 732, 356, 681, 387
847, 673, 552, 560, 706
848, 772, 671, 505, 771
849, 787, 793, 382, 698
850, 778, 777, 614, 273
851, 659, 419, 392, 643
852, 391, 711, 758, 493
853, 249, 379, 547, 274
854, 778, 249, 274, 777
855, 396, 55, 67, 379
856, 383, 396, 379, 249
857, 779, 383, 249, 778
858, 486, 66, 55, 396
859, 658, 486, 396, 383
860, 780, 658, 383, 779
861, 265, 54, 66, 486
862, 343, 265, 486, 658
863, 781, 343, 658, 780
864, 369, 65, 54, 265
865, 425, 369, 265, 343
866, 782, 425, 343, 781
867, 736, 53, 65, 369
868, 546, 736, 369, 425
869, 783, 546, 425, 782
870, 789, 64, 53, 736
871, 790, 789, 736, 546
872, 794, 790, 546, 783
873, 364, 788, 62, 51
874, 761, 364, 51, 63
875, 741, 761, 63, 52
876, 789, 741, 52, 64
877, 399, 787, 788, 364
878, 494, 399, 364, 761
879, 372, 494, 761, 741
880, 790, 372, 741, 789
881, 784, 793, 787, 399
882, 785, 784, 399, 494
883, 786, 785, 494, 372
884, 794, 786, 372, 790
*ELSET,ELSET=contact_source
101, 102, 103, 104, 105, 106, 107, 108, 109, 110, 
111, 112, 113, 114, 115, 116, 117, 118, 119, 120, 
121, 122, 
*ELSET,ELSET=contact_drain
39, 40, 41, 42, 43, 44, 45, 46, 47, 48, 
49, 50, 51, 52, 53, 54, 55, 56, 57, 58, 
59, 60, 61, 62, 
*ELSET,ELSET=probe_A
79, 80, 81, 82, 83, 84, 
*ELSET,ELSET=probe_B
17, 18, 19, 20, 21, 22, 
*ELSET,ELSET=walls
1, 2, 3, 4, 5, 6, 7, 8, 9, 10, 
11, 12, 13, 14, 15, 16, 23, 24, 25, 26, 
27, 28, 29, 30, 31, 32, 33, 34, 35, 36, 
37, 38, 63, 64, 65, 66, 67, 68, 69, 70, 
71, 72, 73, 74, 75, 76, 77, 78, 85, 86, 
87, 88, 89, 90, 91, 92, 93, 94, 95, 96, 
97, 98, 99, 100, 123, 124, 125, 126, 127, 128, 
129, 130, 131, 132, 133, 134, 135, 136, 137, 138, 
139, 140, 141, 142, 143, 144, 145, 146, 147, 148, 
149, 150, 151, 152, 153, 154, 155, 156, 157, 158, 
159, 160, 161, 162, 163, 164, 165, 166, 167, 168, 
169, 170, 171, 172, 173, 174, 175, 176, 177, 178, 
179, 180, 
*ELSET,ELSET=domain
181, 182, 183, 184, 185, 186, 187, 188, 189, 190, 
191, 192, 193, 194, 195, 196, 197, 198, 199, 200, 
201, 202, 203, 204, 205, 206, 207, 208, 209, 210, 
211, 212, 213, 214, 215, 216, 217, 218, 219, 220, 
221, 222, 223, 224, 225, 226, 227, 228, 229, 230, 
231, 232, 233, 234, 235, 236, 237, 238, 239, 240, 
241, 242, 243, 244, 245, 246, 247, 248, 249, 250, 
251, 252, 253, 254, 255, 256, 257, 258, 259, 260, 
261, 262, 263, 264, 265, 266, 267, 268, 269, 270, 
271, 272, 273, 274, 275, 276, 277, 278, 279, 280, 
281, 282, 283, 284, 285, 286, 287, 288, 289, 290, 
291, 292, 293, 294, 295, 296, 297, 298, 299, 300, 
301, 302, 303, 304, 305, 306, 307, 308, 309, 310, 
311, 312, 313, 314, 315, 316, 317, 318, 319, 320, 
321, 322, 323, 324, 325, 326, 327, 328, 329, 330, 
331, 332, 333, 334, 335, 336, 337, 338, 339, 340, 
341, 342, 343, 344, 345, 346, 347, 348, 349, 350, 
351, 352, 353, 354, 355, 356, 357, 358, 359, 360, 
361, 362, 363, 364, 365, 366, 367, 368, 369, 370, 
371, 372, 373, 374, 375, 376, 377, 378, 379, 380, 
381, 382, 383, 384, 385, 386, 387, 388, 389, 390, 
391, 392, 393, 394, 395, 396, 397, 398, 399, 400, 
401, 402, 403, 404, 405, 406, 407, 408, 409, 410, 
411, 412, 413, 414, 415, 416, 417, 418, 419, 420, 
421, 422, 423, 424, 425, 426, 427, 428, 429, 430, 
431, 432, 433, 434, 435, 436, 437, 438, 439, 440, 
441, 442, 443, 444, 445, 446, 447, 448, 449, 450, 
451, 452, 453, 454, 455, 456, 457, 458, 459, 460, 
461, 462, 463, 464, 465, 466, 467, 468, 469, 470, 
471, 472, 473, 474, 475, 476, 477, 478, 479, 480, 
481, 482, 483, 484, 485, 486, 487, 488, 489, 490, 
491, 492, 493, 494, 495, 496, 497, 498, 499, 500, 
501, 502, 503, 504, 505, 506, 507, 508, 509, 510, 
511, 512, 513, 514, 515, 516, 517, 518, 519, 520, 
521, 522, 523, 524, 525, 526, 527, 528, 529, 530, 
531, 532, 533, 534, 535, 536, 537, 538, 539, 540, 
541, 542, 543, 544, 545, 546, 547, 548, 549, 550, 
551, 552, 553, 554, 555, 556, 557, 558, 559, 560, 
561, 562, 563, 564, 565, 566, 567, 568, 569, 570, 
571, 572, 573, 574, 575, 576, 577, 578, 579, 580, 
581, 582, 583, 584, 585, 586, 587, 588, 589, 590, 
591, 592, 593, 594, 595, 596, 597, 598, 599, 600, 
601, 602, 603, 604, 605, 606, 607, 608, 609, 610, 
611, 612, 613, 614, 615, 616, 617, 618, 619, 620, 
621, 622, 623, 624, 625, 626, 627, 628, 629, 630, 
631, 632, 633, 634, 635, 636, 637, 638, 639, 640, 
641, 642, 643, 644, 645, 646, 647, 648, 649, 650, 
651, 652, 653, 654, 655, 656, 657, 658, 659, 660, 
661, 662, 663, 664, 665, 666, 667, 668, 669, 670, 
671, 672, 673, 674, 675, 676, 677, 678, 679, 680, 
681, 682, 683, 684, 685, 686, 687, 688, 689, 690, 
691, 692, 693, 694, 695, 696, 697, 698, 699, 700, 
701, 702, 703, 704, 705, 706, 707, 708, 709, 710, 
711, 712, 713, 714, 715, 716, 717, 718, 719, 720, 
721, 722, 723, 724, 725, 726, 727, 728, 729, 730, 
731, 732, 733, 734, 735, 736, 737, 738, 739, 740, 
741, 742, 743, 744, 745, 746, 747, 748, 749, 750, 
751, 752, 753, 754, 755, 756, 757, 758, 759, 760, 
761, 762, 763, 764, 765, 766, 767, 768, 769, 770, 
771, 772, 773, 774, 775, 776, 777, 778, 779, 780, 
781, 782, 783, 784, 785, 786, 787, 788, 789, 790, 
791, 792, 793, 794, 795, 796, 797, 798, 799, 800, 
801, 802, 803, 804, 805, 806, 807, 808, 809, 810, 
811, 812, 813, 814, 815, 816, 817, 818, 819, 820, 
821, 822, 823, 824, 825, 826, 827, 828, 829, 830, 
831, 832, 833, 834, 835, 836, 837, 838, 839, 840, 
841, 842, 843, 844, 845, 846, 847, 848, 849, 850, 
851, 852, 853, 854, 855, 856, 857, 858, 859, 860, 
861, 862, 863, 864, 865, 866, 867, 868, 869, 870, 
871, 872, 873, 874, 875, 876, 877, 878, 879, 880, 
881, 882, 883, 884, 
*NSET,NSET=contact_source
1, 8, 103, 104, 105, 106, 107, 108, 109, 110, 
111, 112, 113, 114, 115, 116, 117, 118, 119, 120, 
121, 122, 123, 
*NSET,NSET=contact_drain
4, 5, 45, 46, 47, 48, 49, 50, 51, 52, 
53, 54, 55, 56, 57, 58, 59, 60, 61, 62, 
63, 64, 65, 66, 67, 
*NSET,NSET=probe_A
6, 7, 83, 84, 85, 86, 87, 
*NSET,NSET=probe_B
2, 3, 25, 26, 27, 28, 29, 
*NSET,NSET=walls
1, 2, 3, 4, 5, 6, 7, 8, 9, 10, 
11, 12, 13, 14, 15, 16, 17, 18, 19, 20, 
21, 22, 23, 24, 30, 31, 32, 33, 34, 35, 
36, 37, 38, 39, 40, 41, 42, 43, 44, 68, 
69, 70, 71, 72, 73, 74, 75, 76, 77, 78, 
79, 80, 81, 82, 88, 89, 90, 91, 92, 93, 
94, 95, 96, 97, 98, 99, 100, 101, 102, 124, 
125, 126, 127, 128, 129, 130, 131, 132, 133, 134, 
135, 136, 137, 138, 139, 140, 141, 142, 143, 144, 
145, 146, 147, 148, 149, 150, 151, 152, 153, 154, 
155, 156, 157, 158, 159, 160, 161, 162, 163, 164, 
165, 166, 167, 168, 169, 170, 171, 172, 173, 174, 
175, 176, 177, 178, 179, 180, 
*NSET,NSET=domain
1, 2, 3, 4, 5, 6, 7, 8, 9, 10, 
11, 12, 13, 14, 15, 16, 17, 18, 19, 20, 
21, 22, 23, 24, 25, 26, 27, 28, 29, 30, 
31, 32, 33, 34, 35, 36, 37, 38, 39, 40, 
41, 42, 43, 44, 45, 46, 47, 48, 49, 50, 
51, 52, 53, 54, 55, 56, 57, 58, 59, 60, 
61, 62, 63, 64, 65, 66, 67, 68, 69, 70, 
71, 72, 73, 74, 75, 76, 77, 78, 79, 80, 
81, 82, 83, 84, 85, 86, 87, 88, 89, 90, 
91, 92, 93, 94, 95, 96, 97, 98, 99, 100, 
101, 102, 103, 104, 105, 106, 107, 108, 109, 110, 
111, 112, 113, 114, 115, 116, 117, 118, 119, 120, 
121, 122, 123, 124, 125, 126, 127, 128, 129, 130, 
131, 132, 133, 134, 135, 136, 137, 138, 139, 140, 
141, 142, 143, 144, 145, 146, 147, 148, 149, 150, 
151, 152, 153, 154, 155, 156, 157, 158, 159, 160, 
161, 162, 163, 164, 165, 166, 167, 168, 169, 170, 
171, 172, 173, 174, 175, 176, 177, 178, 179, 180, 
181, 182, 183, 184, 185, 186, 187, 188, 189, 190, 
191, 192, 193, 194, 195, 196, 197, 198, 199, 200, 
201, 202, 203, 204, 205, 206, 207, 208, 209, 210, 
211, 212, 213, 214, 215, 216, 217, 218, 219, 220, 
221, 222, 223, 224, 225, 226, 227, 228, 229, 230, 
231, 232, 233, 234, 235, 236, 237, 238, 239, 240, 
241, 242, 243, 244, 245, 246, 247, 248, 249, 250, 
251, 252, 253, 254, 255, 256, 257, 258, 259, 260, 
261, 262, 263, 264, 265, 266, 267, 268, 269, 270, 
271, 272, 273, 274, 275, 276, 277, 278, 279, 280, 
281, 282, 283, 284, 285, 286, 287, 288, 289, 290, 
291, 292, 293, 294, 295, 296, 297, 298, 299, 300, 
301, 302, 303, 304, 305, 306, 307, 308, 309, 310, 
311, 312, 313, 314, 315, 316, 317, 318, 319, 320, 
321, 322, 323, 324, 325, 326, 327, 328, 329, 330, 
331, 332, 333, 334, 335, 336, 337, 338, 339, 340, 
341, 342, 343, 344, 345, 346, 347, 348, 349, 350, 
351, 352, 353, 354, 355, 356, 357, 358, 359, 360, 
361, 362, 363, 364, 365, 366, 367, 368, 369, 370, 
371, 372, 373, 374, 375, 376, 377, 378, 379, 380, 
381, 382, 383, 384, 385, 386, 387, 388, 389, 390, 
391, 392, 393, 394, 395, 396, 397, 398, 399, 400, 
401, 402, 403, 404, 405, 406, 407, 408, 409, 410, 
411, 412, 413, 414, 415, 416, 417, 418, 419, 420, 
421, 422, 423, 424, 425, 426, 427, 428, 429, 430, 
431, 432, 433, 434, 435, 436, 437, 438, 439, 440, 
441, 442, 443, 444, 445, 446, 447, 448, 449, 450, 
451, 452, 453, 454, 455, 456, 457, 458, 459, 460, 
461, 462, 463, 464, 465, 466, 467, 468, 469, 470, 
471, 472, 473, 474, 475, 476, 477, 478, 479, 480, 
481, 482, 483, 484, 485, 486, 487, 488, 489, 490, 
491, 492, 493, 494, 495, 496, 497, 498, 499, 500, 
501, 502, 503, 504, 505, 506, 507, 508, 509, 510, 
511, 512, 513, 514, 515, 516, 517, 518, 519, 520, 
521, 522, 523, 524, 525, 526, 527, 528, 529, 530, 
531, 532, 533, 534, 535, 536, 537, 538, 539, 540, 
541, 542, 543, 544, 545, 546, 547, 548, 549, 550, 
551, 552, 553, 554, 555, 556, 557, 558, 559, 560, 
561, 562, 563, 564, 565, 566, 567, 568, 569, 570, 
571, 572, 573, 574, 575, 576, 577, 578, 579, 580, 
581, 582, 583, 584, 585, 586, 587, 588, 589, 590, 
591, 592, 593, 594, 595, 596, 597, 598, 599, 600, 
601, 602, 603, 604, 605, 606, 607, 608, 609, 610, 
611, 612, 613, 614, 615, 616, 617, 618, 619, 620, 
621, 622, 623, 624, 625, 626, 627, 628, 629, 630, 
631, 632, 633, 634, 635, 636, 637, 638, 639, 640, 
641, 642, 643, 644, 645, 646, 647, 648, 649, 650, 
651, 652, 653, 654, 655, 656, 657, 658, 659, 660, 
661, 662, 663, 664, 665, 666, 667, 668, 669, 670, 
671, 672, 673, 674, 675, 676, 677, 678, 679, 680, 
681, 682, 683, 684, 685, 686, 687, 688, 689, 690, 
691, 692, 693, 694, 695, 696, 697, 698, 699, 700, 
701, 702, 703, 704, 705, 706, 707, 708, 709, 710, 
711, 712, 713, 714, 715, 716, 717, 718, 719, 720, 
721, 722, 723, 724, 725, 726, 727, 728, 729, 730, 
731, 732, 733, 734, 735, 736, 737, 738, 739, 740, 
741, 742, 743, 744, 745, 746, 747, 748, 749, 750, 
751, 752, 753, 754, 755, 756, 757, 758, 759, 760, 
761, 762, 763, 764, 765, 766, 767, 768, 769, 770, 
771, 772, 773, 774, 775, 776, 777, 778, 779, 780, 
781, 782, 783, 784, 785, 786, 787, 788, 789, 790, 
791, 792, 793, 794, 
