*Heading
 /Users/juliagao/geometry-optimization-net/scripts/../runs/run2/shape_181.inp
*NODE
1, 0, -0.3, 0
2, 0.425, -0.3, 0
3, 0.575, -0.3, 0
4, 1, -0.3, 0
5, 1, 0.3, 0
6, 0.575, 0.3, 0
7, 0.425, 0.3, 0
8, 0, 0.3, 0
9, 0.6905877302, 0.0004241213, 0
10, 0.025528405831145, -0.3, 0
11, 0.077285658092322, -0.3, 0
12, 0.1304805228229, -0.3, 0
13, 0.18466406776187, -0.3, 0
14, 0.2392982164433, -0.3, 0
15, 0.29424147572067, -0.3, 0
16, 0.34830632523537, -0.3, 0
17, 0.39992226875785, -0.3, 0
18, 0.051056811662291, -0.3, 0
19, 0.10351450452235, -0.3, 0
20, 0.15744654112345, -0.3, 0
21, 0.21188159440028, -0.3, 0
22, 0.26671483848632, -0.3, 0
23, 0.32176811295503, -0.3, 0
24, 0.37484453751571, -0.3, 0
25, 0.44997518391888, -0.3, 0
26, 0.49984859056575, -0.3, 0
27, 0.54987340664688, -0.3, 0
28, 0.47495036783775, -0.3, 0
29, 0.52474681329376, -0.3, 0
30, 0.6012175392762, -0.3, 0
31, 0.65444634172108, -0.3, 0
32, 0.70790416835819, -0.3, 0
33, 0.76058175462529, -0.3, 0
34, 0.81380236311978, -0.3, 0
35, 0.8676725068126, -0.3, 0
36, 0.9210582875551, -0.3, 0
37, 0.97378175515031, -0.3, 0
38, 0.6274350785524, -0.3, 0
39, 0.68145760488976, -0.3, 0
40, 0.73435073182663, -0.3, 0
41, 0.78681277742396, -0.3, 0
42, 0.84079194881561, -0.3, 0
43, 0.89455306480958, -0.3, 0
44, 0.94756351030061, -0.3, 0
45, 1, -0.27395644127387, 0
46, 1, -0.22141622095255, 0
47, 1, -0.16742740110775, 0
48, 1, -0.11144688455556, 0
49, 1, -0.05443405506915, 0
50, 1, 0.0014953133611582, 0
51, 1, 0.05587776880069, 0
52, 1, 0.11052783478628, 0
53, 1, 0.16635154820245, 0
54, 1, 0.22147120899082, 0
55, 1, 0.27421983207778, 0
56, 1, -0.24791288254774, 0
57, 1, -0.19491955935736, 0
58, 1, -0.13993524285815, 0
59, 1, -0.08295852625296, 0
60, 1, -0.025909583885341, 0
61, 1, 0.028900210607657, 0
62, 1, 0.082855326993722, 0
63, 1, 0.13820034257883, 0
64, 1, 0.19450275382606, 0
65, 1, 0.24843966415557, 0
66, 0.97440056292363, 0.3, 0
67, 0.92273711679119, 0.3, 0
68, 0.87011919506657, 0.3, 0
69, 0.81671200857739, 0.3, 0
70, 0.76288025320807, 0.3, 0
71, 0.70889840886511, 0.3, 0
72, 0.65502679533198, 0.3, 0
73, 0.60157927229656, 0.3, 0
74, 0.94880112584727, 0.3, 0
75, 0.89667310773512, 0.3, 0
76, 0.84356528239802, 0.3, 0
77, 0.78985873475677, 0.3, 0
78, 0.73590177165938, 0.3, 0
79, 0.68189504607083, 0.3, 0
80, 0.62815854459313, 0.3, 0
81, 0.54921159751228, 0.3, 0
82, 0.49844907041744, 0.3, 0
83, 0.44923747290516, 0.3, 0
84, 0.52342319502456, 0.3, 0
85, 0.47347494581031, 0.3, 0
86, 0.40336307557555, 0.3, 0
87, 0.36039393429921, 0.3, 0
88, 0.31644387334845, 0.3, 0
89, 0.26938045624886, 0.3, 0
90, 0.21974759028957, 0.3, 0
91, 0.16945852040779, 0.3, 0
92, 0.11974853669143, 0.3, 0
93, 0.071156579305888, 0.3, 0
94, 0.023586414356763, 0.3, 0
95, 0.38172615115109, 0.3, 0
96, 0.33906171744732, 0.3, 0
97, 0.29382602924957, 0.3, 0
98, 0.24493488324815, 0.3, 0
99, 0.19456029733098, 0.3, 0
100, 0.1443567434846, 0.3, 0
101, 0.095140329898249, 0.3, 0
102, 0.047172828713526, 0.3, 0
103, 0, 0.27437891609118, 0
104, 0, 0.22171127027113, 0
105, 0, 0.16626043847694, 0
106, 0, 0.10978340802525, 0
107, 0, 0.054373821967074, 0
108, 0, -7.7347034118935e-05, 0
109, 0, -0.054531430264643, 0
110, 0, -0.10929008381807, 0
111, 0, -0.16404897881617, 0
112, 0, -0.21868075237812, 0
113, 0, -0.27298627238831, 0
114, 0, 0.24875783218235, 0
115, 0, 0.1946647083599, 0
116, 0, 0.13785616859397, 0
117, 0, 0.081710647456523, 0
118, 0, 0.027036996477625, 0
119, 0, -0.027191690545863, 0
120, 0, -0.081871169983423, 0
121, 0, -0.13670899765272, 0
122, 0, -0.19138895997961, 0
123, 0, -0.24597254477662, 0
124, 0.68451273226945, 0.029607259631286, 0
125, 0.75496282719864, -0.060718014257351, 0
126, 0.79218919673454, -0.10632616347268, 0
127, 0.81472773772549, -0.16037240840185, 0
128, 0.80293480717102, -0.21583351537116, 0
129, 0.75395218141506, -0.24102921702977, 0
130, 0.69904991670568, -0.23833890585763, 0
131, 0.64620634986207, -0.22198093381759, 0
132, 0.59647033405266, -0.20080082181372, 0
133, 0.54586871596888, -0.19912703751099, 0
134, 0.5054052192476, -0.22920008117271, 0
135, 0.4560549472443, -0.24242898635812, 0
136, 0.40981229415394, -0.21679837128447, 0
137, 0.3658871629401, -0.18100458095302, 0
138, 0.30800621219875, -0.16645003798843, 0
139, 0.25318166487719, -0.14600011798078, 0
140, 0.22184943267678, -0.10117585631441, 0
141, 0.23187861896285, -0.046560515051659, 0
142, 0.26505793896028, 0.0026064876143878, 0
143, 0.28690122644281, 0.05934619797721, 0
144, 0.27277808131089, 0.11942967418023, 0
145, 0.26896276198212, 0.17918427720065, 0
146, 0.28964437820299, 0.23013414098829, 0
147, 0.32852536683457, 0.26144581826319, 0
148, 0.37312683166546, 0.27572038680799, 0
149, 0.4203873005579, 0.2782619556511, 0
150, 0.46895387306582, 0.26829067003837, 0
151, 0.51413170281355, 0.24269704386535, 0
152, 0.55224347715399, 0.2036554300757, 0
153, 0.5938449484229, 0.16702142862007, 0
154, 0.6473778363815, 0.15717025351627, 0
155, 0.69452273250733, 0.1330098689686, 0
156, 0.70305687954025, 0.080679662114002, 0
157, 0.7113949722807, -0.020788487891259, 0
158, 0.6941395127557, 0.054883611318277, 0
159, 0.70497940294392, 0.10815750560304, 0
160, 0.67325846828581, 0.14918347923658, 0
161, 0.62070248570116, 0.1610352653144, 0
162, 0.57074888193707, 0.18264144126802, 0
163, 0.53373138186597, 0.22466383360564, 0
164, 0.49206596948327, 0.25764822066175, 0
165, 0.44445192250536, 0.27512965120956, 0
166, 0.39612536247451, 0.27835306272757, 0
167, 0.3506154403119, 0.27029754413654, 0
168, 0.30833415879081, 0.24880286973412, 0
169, 0.27641224923138, 0.20725586006329, 0
170, 0.26816952897474, 0.15021753230662, 0
171, 0.2804966137752, 0.089322394144605, 0
172, 0.28177353325859, 0.028237555439845, 0
173, 0.24676342892757, -0.02182149540404, 0
174, 0.2223269482209, -0.07392318359042, 0
175, 0.23247065277188, -0.12643088362715, 0
176, 0.27861274262625, -0.1584024017933, 0
177, 0.3378548233189, -0.17235195863961, 0
178, 0.39018108716883, -0.19773954866295, 0
179, 0.43151675583052, -0.23365445734192, 0
180, 0.48208503099616, -0.24026620852429, 0
181, 0.52594724092108, -0.21381149325555, 0
182, 0.5710146633808, -0.19361532299124, 0
183, 0.62066411969091, -0.21117226090728, 0
184, 0.67232199336572, -0.23134753639756, 0
185, 0.72645209409028, -0.24202287932004, 0
186, 0.78047720001387, -0.23327972539505, 0
187, 0.81477224056807, -0.18989130877352, 0
188, 0.80615472079472, -0.13232388101535, 0
189, 0.7747553194125, -0.082551853279713, 0
190, 0.73360877536547, -0.04042454926411, 0
191, 0.10494073938319, -0.24611513410074, 0
192, 0.052027453726312, -0.24608940756063, 0
193, 0.2152522933413, -0.24867906251524, 0
194, 0.15948822483486, -0.2463642487391, 0
195, 0.65191632322534, -0.27520560558768, 0
196, 0.47700629173049, -0.27883380644005, 0
197, 0.85037355347782, -0.14474456071528, 0
198, 0.20437244873777, -0.039986341364563, 0
199, 0.7974178360575, 0.070611865376346, 0
200, 0.12223926888302, 0.06722271461047, 0
201, 0.3246999427038, 0.27345880204306, 0
202, 0.056118299622645, -0.035686056969202, 0
203, 0.43469402478007, 0.28829801781133, 0
204, 0.55262744204113, 0.27389049394406, 0
205, 0.12107132688426, 0.037740762085327, 0
206, 0.30099620290961, 0.27347239038145, 0
207, 0.086476110757993, -0.013340673015242, 0
208, 0.50146563456775, 0.2924377159721, 0
209, 0.60032970648001, 0.22136597928098, 0
210, 0.21391064924207, -0.012794385890087, 0
211, 0.60187348348132, 0.28174638902065, 0
212, 0.2243059322239, 0.2106556120127, 0
213, 0.090467502974607, 0.071785710472468, 0
214, 0.53231600563592, 0.25539993715992, 0
215, 0.41147343677878, 0.28919087504457, 0
216, 0.029314116399231, 0.023283116298781, 0
217, 0.13005575101956, 0.2467925209558, 0
218, 0.48005498047997, 0.28815194619321, 0
219, 0.16255401924838, -0.090219105099661, 0
220, 0.57618984967164, 0.28442482679235, 0
221, 0.11875077886872, 0.0090291682049827, 0
222, 0.051978459014844, -0.19243794609441, 0
223, 0.21922801594583, -0.19465301552346, 0
224, 0.16009452082177, -0.19045414223701, 0
225, 0.10451930888631, -0.19228414460296, 0
226, 0.10155549701965, -0.14119584124734, 0
227, 0.051624573903117, -0.13997837530613, 0
228, 0.17188850420736, 0.19178885958066, 0
229, 0.50437443793393, 0.28429743000733, 0
230, 0.10389431504169, -0.096881609627252, 0
231, 0.053059397385543, -0.088595035846211, 0
232, 0.34670610617727, 0.27938440494642, 0
233, 0.15351285262871, -0.12421980536456, 0
234, 0.74422151521593, -0.010913483102386, 0
235, 0.72612045671124, 0.19064718743386, 0
236, 0.94557076303273, 0.19125451335078, 0
237, 0.79336061463192, -0.0078091134601231, 0
238, 0.89071581199552, 0.1891299925588, 0
239, 0.94698625528973, 0.24613064502235, 0
240, 0.8934807044239, 0.2449106547823, 0
241, 0.83945965022873, 0.24430905095624, 0
242, 0.78528481174345, 0.24462815965913, 0
243, 0.73169581765758, 0.24683256898273, 0
244, 0.67913313689211, 0.25161720750746, 0
245, 0.62498166706866, 0.21327998051234, 0
246, 0.6273102203256, 0.2584650868018, 0
247, 0.12194569131723, 0.097454565616579, 0
248, 0.67573621963838, 0.20122227241249, 0
249, 0.73182385014569, 0.036646101549563, 0
250, 0.83323764986922, 0.15885125299846, 0
251, 0.82744290900517, 0.072514344724303, 0
252, 0.73700672899733, 0.090046146109368, 0
253, 0.79945362733042, 0.098914793799068, 0
254, 0.7689802953145, 0.095709074487949, 0
255, 0.82493889505507, 0.016178693839556, 0
256, 0.9443628818706, 0.1354318511083, 0
257, 0.88817845923641, 0.13261706965948, 0
258, 0.88615898785654, 0.075800578827264, 0
259, 0.94347946285839, 0.079424006872957, 0
260, 0.94319402065897, 0.023218073995395, 0
261, 0.88519298008157, 0.018361603976113, 0
262, 0.62569750943426, -0.27277018795579, 0
263, 0.35189141848902, -0.26388694763995, 0
264, 0.89482466906256, -0.27866133002623, 0
265, 0.94400921298558, -0.033944149106531, 0
266, 0.88672602079283, -0.041543812914745, 0
267, 0.81935374803209, -0.048422879370542, 0
268, 0.92202503648634, -0.23018094018312, 0
269, 0.86239346560689, -0.077818162457411, 0
270, 0.52582353085841, -0.27412533810135, 0
271, 0.92129627262957, -0.12507782199111, 0
272, 0.94497433052971, -0.062863304618547, 0
273, 0.97400054561559, -0.22395934183864, 0
274, 0.24115107599567, -0.27551544550334, 0
275, 0.6000304441598, -0.27090306575507, 0
276, 0.97405406586228, -0.19784792069684, 0
277, 0.21704329766197, -0.22228582578859, 0
278, 0.4026436511557, -0.27282993642228, 0
279, 0.8353730035744, 0.18766553229466, 0
280, 0.75261825115666, 0.18819143081154, 0
281, 0.36243947228498, 0.29555629003658, 0
282, 0.45251872946006, 0.29553471575163, 0
283, 0.26316309905232, 0.24088454747551, 0
284, 0.028116988051797, -0.031359990757752, 0
285, 0.027546446605582, 0.19249803070527, 0
286, 0.36663513043824, 0.287147080618, 0
287, 0.45580711450052, 0.29080171780446, 0
288, 0.62639497546894, 0.23657524802941, 0
289, 0.41435404288268, 0.28558029667598, 0
290, 0.08848274136188, 0.014458887705237, 0
291, 0.10018364571111, -0.11891405167207, 0
292, 0.12795792993322, -0.10402002676794, 0
293, 0.12585070232904, -0.13853839787706, 0
294, 0.2981921906867, -0.25660249195272, 0
295, 0.84364951009162, -0.22514095841866, 0
296, 0.77236687227532, 0.12577436214374, 0
297, 0.80759966065783, 0.1872708311426, 0
298, 0.52846042390018, 0.2794433797394, 0
299, 0.13470207972638, -0.079641590283691, 0
300, 0.08406469629506, -0.040499496682452, 0
301, 0.45213020975646, -0.27879798027492, 0
302, 0.83554889165626, -0.085154643000617, 0
303, 0.32338634940002, -0.28002522652057, 0
304, 0.9471706639661, -0.12009761293835, 0
305, 0.026680772917844, -0.085215773401356, 0
306, 0.051962318284654, -0.1143181617553, 0
307, 0.025919146946555, -0.13843506528586, 0
308, 0.02615181815088, -0.11184968706791, 0
309, 0.68057351762298, 0.27591895649846, 0
310, 0.73385012178973, 0.27353904487489, 0
311, 0.70531397991455, 0.24894289775594, 0
312, 0.70715294520056, 0.27457953391549, 0
313, 0.78759116286484, 0.27241612949546, 0
314, 0.75836180323502, 0.24541785850626, 0
315, 0.76066893209646, 0.27282878502183, 0
316, 0.025973454365793, -0.19197964733601, 0
317, 0.051750853433843, -0.16599541165278, 0
318, 0.025906763685338, -0.16512126892976, 0
319, 0.5510400009854, 0.2872847973223, 0
320, 0.30343666417182, 0.26518453932712, 0
321, 0.60190719444593, 0.26293552812302, 0
322, 0.52606642539039, 0.29005837346989, 0
323, 0.18732824879952, -0.24716058846262, 0
324, 0.21357311225813, -0.27445150033115, 0
325, 0.15857725825706, -0.27329330526432, 0
326, 0.1860290235896, -0.27371183734665, 0
327, 0.083618630964819, 0.18981144507053, 0
328, 0.099373752741278, 0.27319346523038, 0
329, 0.16867530228222, -0.060961129541061, 0
330, 0.50714579010423, 0.27547692426875, 0
331, 0.14016049143688, -0.052994170154885, 0
332, 0.94323313247355, 0.051394482454624, 0
333, 0.97179169369712, 0.08125235316417, 0
334, 0.97166081797156, 0.025986196398819, 0
335, 0.97168087382645, 0.053650016077725, 0
336, 0.81234619431913, 0.24430926217806, 0
337, 0.84146556165424, 0.27222128036929, 0
338, 0.81453635810691, 0.27223584261029, 0
339, 0.054548454016493, -0.062408462243794, 0
340, 0.45909761818335, 0.28576674938162, 0
341, 0.089883011477994, 0.0428453029996, 0
342, 0.23427457609049, 0.075328921222346, 0
343, 0.62785507084899, 0.27944849300801, 0
344, 0.1915506696262, 0.054075024536663, 0
345, 0.028784755056532, -0.0041433227162088, 0
346, 0.65310612771627, 0.25475880400855, 0
347, 0.65413483511733, 0.27752892726725, 0
348, 0.97391334974181, -0.2496252758099, 0
349, 0.32535903210223, -0.25997649136045, 0
350, 0.50070908086114, -0.28849376635334, 0
351, 0.97297869513827, -0.087223203978707, 0
352, 0.97222014498128, 0.13686979973712, 0
353, 0.94493442806115, 0.16340903537422, 0
354, 0.97282280091843, 0.19265218451954, 0
355, 0.97250499062469, 0.16481731249506, 0
356, 0.025961869553989, -0.24600927456751, 0
357, 0.051711351832832, -0.27303898999205, 0
358, 0.025801831538541, -0.27300856371483, 0
359, 0.97383416552136, -0.27489597853963, 0
360, 0.34998374773074, -0.28197046042916, 0
361, 0.87386593202985, -0.16517617492828, 0
362, 0.86651525813955, 0.24452948534004, 0
363, 0.89498074545595, 0.27251371176899, 0
364, 0.86827642217799, 0.27232335128154, 0
365, 0.73308434268626, -0.28979274035508, 0
366, 0.86831552077712, -0.10833413574343, 0
367, 0.97246267664516, -0.058637242323133, 0
368, 0.24506851979076, -0.225908496015, 0
369, 0.31855345605582, 0.29294827000432, 0
370, 0.6014784637026, 0.24303953703837, 0
371, 0.48322499199858, 0.28152016664795, 0
372, 0.78623519683308, -0.28790214336532, 0
373, 0.42616835389393, -0.28819326352669, 0
374, 0.48630337025659, 0.27432086367601, 0
375, 0.40597187786039, 0.29639008549794, 0
376, 0.029093068122117, 0.13567182505885, 0
377, 0.024593059924542, 0.27379199293338, 0
378, 0.13199183039745, -0.24612236466352, 0
379, 0.10444233671103, -0.27307409223118, 0
380, 0.13137054227328, -0.27312142521605, 0
381, 0.074239714066993, 0.27316189619817, 0
382, 0.11202388248083, -0.046152179339778, 0
383, 0.2370239117876, 0.24504513779625, 0
384, 0.42733941186258, -0.2766117524169, 0
385, 0.94818526570408, -0.20132936155511, 0
386, 0.10807988114702, -0.072341693547357, 0
387, 0.02559925505747, 0.24731750957495, 0
388, 0.25827887064364, 0.25558872386377, 0
389, 0.11563511240822, -0.018945925519322, 0
390, 0.27941073481944, 0.26527173794013, 0
391, 0.89593606862351, -0.23428259931508, 0
392, 0.94801422569973, -0.22681256403806, 0
393, 0.26868177360903, -0.27682524857926, 0
394, 0.52531866184442, -0.28714469987546, 0
395, 0.57501187971462, -0.28532240045429, 0
396, 0.9720369434081, -0.030074848942798, 0
397, 0.89617216491427, -0.13077133098728, 0
398, 0.94386263697907, 0.10743188340321, 0
399, 0.97198124670244, 0.10902549450333, 0
400, 0.97353484959064, 0.24706426770571, 0
401, 0.94780740164396, 0.27314513683267, 0
402, 0.97394416900324, 0.27361890913718, 0
403, 0.14514672299023, -0.025476894003244, 0
404, 0.22531204350266, 0.2812831103606, 0
405, 0.94342103914838, -0.0052207731865279, 0
406, 0.97177064076546, -0.001922280432731, 0
407, 0.078325747616915, -0.24613069271928, 0
408, 0.077943132618831, -0.27306078897707, 0
409, 0.94788602934123, -0.14794316835708, 0
410, 0.89755854492542, -0.15853652094145, 0
411, 0.67994927137649, -0.28878760340785, 0
412, 0.29614713560321, -0.27832352130924, 0
413, 0.73181109603321, -0.2796994605057, 0
414, 0.89528154684989, -0.25689275083391, 0
415, 0.70510955955989, -0.27912609642176, 0
416, 0.94624744348308, 0.21882981905307, 0
417, 0.97316516784009, 0.22001272441181, 0
418, 0.40124784241212, -0.28634344237817, 0
419, 0.37768159810211, -0.26833094315157, 0
420, 0.92029930936747, 0.24543794246967, 0
421, 0.92146480058902, 0.27278443106898, 0
422, 0.052101546608953, -0.21918602795872, 0
423, 0.026010318535526, -0.21896352898921, 0
424, 0.75957912590367, -0.28931319339881, 0
425, 0.91953941965317, -0.096501857752737, 0
426, 0.25373040116267, 0.27001919540528, 0
427, 0.38871658739245, 0.2887785592066, 0
428, 0.19314856880461, -0.096839017783913, 0
429, 0.24305098803952, -0.2509084405987, 0
430, 0.79502299385907, -0.068160466821409, 0
431, 0.94763169101024, -0.27594001221373, 0
432, 0.89675160037688, -0.21045379600361, 0
433, 0.87081651589715, -0.21673253523058, 0
434, 0.67848597443074, -0.27749977034292, 0
435, 0.70651417987477, -0.28955448337945, 0
436, 0.1200625478443, 0.12824145422256, 0
437, 0.23156097703246, 0.043823435206829, 0
438, 0.059508134857658, 0.047186501314894, 0
439, 0.22387938969705, 0.014783463525295, 0
440, 0.3409119267618, 0.29452772894119, 0
441, 0.10797522772119, 0.21821018349875, 0
442, 0.282706821326, 0.25412544981462, 0
443, 0.15345665724224, 0.031592548005832, 0
444, 0.029543474456342, 0.10721541843933, 0
445, 0.91747744057705, -0.067288254884927, 0
446, 0.94780316340952, -0.25162505289852, 0
447, 0.78552347279655, -0.27599973193683, 0
448, 0.76632029118519, 0.016626812119616, 0
449, 0.80203168613978, 0.12818562939375, 0
450, 0.73539836934115, 0.011601128679517, 0
451, 0.77651157910913, 0.15716621621963, 0
452, 0.20078824211855, 0.27823878851694, 0
453, 0.24932506276624, 0.28466986023328, 0
454, 0.058737332825703, 0.019142548820462, 0
455, 0.05756567825027, -0.0084876739884559, 0
456, 0.83744049687382, 0.21615172622686, 0
457, 0.7827820639995, 0.21636320699621, 0
458, 0.81005787072652, 0.21604116295362, 0
459, 0.078906027030553, -0.092300530403989, 0
460, 0.076906365100774, -0.14109772002869, 0
461, 0.076988189306442, -0.1167050251855, 0
462, 0.97346745585602, -0.11563045627189, 0
463, 0.47596757446577, -0.28935394999224, 0
464, 0.15027262574388, 0.27439356950521, 0
465, 0.11243334163769, 0.18927427858045, 0
466, 0.46238682953073, 0.28038446875382, 0
467, 0.88992359366086, -0.072144325863441, 0
468, 0.55004218028637, -0.2859094159382, 0
469, 0.91635502847892, 0.13400410669417, 0
470, 0.88940216560386, 0.16094151711948, 0
471, 0.91820286379576, 0.19010535080275, 0
472, 0.91723938893163, 0.162121738905, 0
473, 0.88549594712488, 0.047246339004142, 0
474, 0.91495672023348, 0.077574540433668, 0
475, 0.91442351415111, 0.020629808724425, 0
476, 0.91453986333299, 0.04922190548745, 0
477, 0.15335441194553, 0.12496309377134, 0
478, 0.19254576930224, 0.085873945562645, 0
479, 0.89345111712458, -0.10196545781979, 0
480, 0.27612661909425, 0.27645290891786, 0
481, 0.027380275025357, -0.058401800874552, 0
482, 0.38634092068751, 0.2924264034485, 0
483, 0.38401084333168, 0.29616624167112, 0
484, 0.077368288017039, 0.24601212313891, 0
485, 0.21475042625205, 0.23476474658705, 0
486, 0.62300471801584, 0.18812264802014, 0
487, 0.65030092850205, 0.20696930774383, 0
488, 0.67406601036119, 0.17512815357787, 0
489, 0.64865384924703, 0.18185441631161, 0
490, 0.13572096914101, 0.21907451468299, 0
491, 0.39113835157583, 0.28521996402514, 0
492, 0.40867841652572, 0.29279023183845, 0
493, 0.53057236386167, 0.26798157550164, 0
494, 0.24411968043328, 0.2259806097554, 0
495, 0.9212949285311, -0.27717139388894, 0
496, 0.174947462556, -0.032776219017858, 0
497, 0.72923389906385, 0.21944174019003, 0
498, 0.75577002501392, 0.21738519613994, 0
499, 0.45105656678312, -0.28928654749758, 0
500, 0.92243568775616, -0.20545427259295, 0
501, 0.84492690683096, -0.11581282513859, 0
502, 0.78772440955326, -0.030488650410983, 0
503, 0.5768780105528, 0.23180972371028, 0
504, 0.15647904370322, 0.24854021617468, 0
505, 0.57731992553023, 0.25087380306394, 0
506, 0.19244348344553, -0.12743938257715, 0
507, 0.57700455673327, 0.26819781375068, 0
508, 0.84134294404623, -0.26496499006235, 0
509, 0.86946514844473, -0.23943246659397, 0
510, 0.70090675216506, 0.19550982170935, 0
511, 0.72119544659996, 0.15850278803535, 0
512, 0.69820022341271, 0.16669561809054, 0
513, 0.77285555246634, -0.047259856490362, 0
514, 0.74834062004725, 0.15693887771831, 0
515, 0.18748054812226, 0.024074045482247, 0
516, 0.15565265997011, 0.061534371744846, 0
517, 0.92236440387899, -0.15284516777853, 0
518, 0.55011460417361, -0.27155840266428, 0
519, 0.91570077456617, -0.037744157985187, 0
520, 0.37608412990932, -0.28415859605893, 0
521, 0.13165512325941, -0.19140992543012, 0
522, 0.16007918209208, -0.21890775227443, 0
523, 0.10500580277452, -0.21913769307572, 0
524, 0.13218036458686, -0.21889244356911, 0
525, 0.14191354382878, 0.18966218478347, 0
526, 0.55449475571787, 0.24367063731833, 0
527, 0.85531752736546, 0.016709879251463, 0
528, 0.82611531478187, 0.04436466122314, 0
529, 0.85699222742326, 0.074139136057521, 0
530, 0.85600112129335, 0.045597806764241, 0
531, 0.088716874471797, 0.13091407590375, 0
532, 0.10361171200198, 0.24606366538258, 0
533, 0.081451645963008, -0.066886384730727, 0
534, 0.43793527187122, 0.2841104962821, 0
535, 0.22276662326326, -0.16442220511224, 0
536, 0.97383006256734, -0.1436681205831, 0
537, 0.88706052324769, 0.10423249413965, 0
538, 0.91557527400785, 0.10581826668799, 0
539, 0.029726695983862, 0.078916687922218, 0
540, 0.4282339671023, 0.29622222492249, 0
541, 0.60066113701868, -0.28557631784292, 0
542, 0.57479122038746, -0.27035721565241, 0
543, 0.84098352907343, -0.28272096349512, 0
544, 0.55384270840423, 0.25950444030908, 0
545, 0.080517700637759, 0.21828267014678, 0
546, 0.058553061572171, 0.13335265432826, 0
547, 0.18999738898149, 0.11994838519397, 0
548, 0.29855968456475, 0.28197487990021, 0
549, 0.18150571804909, -0.0046680078875226, 0
550, 0.88542378742369, -0.011162175911731, 0
551, 0.91473745102232, -0.0083465016546879, 0
552, 0.75853428458086, -0.27882118481765, 0
553, 0.92161839924476, -0.25400178635099, 0
554, 0.87230643579121, -0.13733204474259, 0
555, 0.078095312182705, -0.19259841466591, 0
556, 0.078382171426301, -0.21925979273486, 0
557, 0.89207304238443, 0.21712509861705, 0
558, 0.91922524928454, 0.21788283119121, 0
559, 0.10334658633591, -0.16600015788334, 0
560, 0.077514740738326, -0.1664253747504, 0
561, 0.059455106130735, 0.10438965062645, 0
562, 0.32268936454086, 0.27971950661385, 0
563, 0.055370135634063, 0.19092103363944, 0
564, 0.29615226371932, 0.290785642041, 0
565, 0.27281090524169, 0.28793883700304, 0
566, 0.20730705539096, 0.25681837905189, 0
567, 0.34475385047067, 0.28422598448519, 0
568, 0.3645219517322, 0.29127232419201, 0
569, 0.43146225291787, 0.29232756380531, 0
570, 0.090090930294291, 0.10120545672514, 0
571, 0.86310483565691, 0.18830911337249, 0
572, 0.86480397167299, 0.21653877249998, 0
573, 0.79507435699833, 0.017115507181734, 0
574, 0.23094048950839, 0.26319964462104, 0
575, 0.36877479560233, 0.28318004613381, 0
576, 0.026596487117591, 0.22014658909574, 0
577, 0.19703909765435, -0.06791868076051, 0
578, 0.051368691216227, 0.24644817288549, 0
579, 0.85173867433811, -0.172876756097, 0
580, 0.65318372760527, -0.2876739014513, 0
581, 0.50974336839147, 0.26581622996193, 0
582, 0.12478346380984, 0.27355536436921, 0
583, 0.86805260463917, -0.28049251357079, 0
584, 0.85600851174516, -0.045278188081713, 0
585, 0.27069992153867, -0.25360141531392, 0
586, 0.18974694835398, -0.19147229146413, 0
587, 0.18855449766906, -0.21994348304637, 0
588, 0.76651342938006, 0.067636048423138, 0
589, 0.8232151687863, -0.01318614223902, 0
590, 0.79601249718048, 0.04334524207172, 0
591, 0.049301336117488, 0.27337499017275, 0
592, 0.05977337879958, 0.075615318573387, 0
593, 0.029642429025612, 0.050977179739157, 0
594, 0.85502275068633, -0.013221210496103, 0
595, 0.15572430220068, 0.092669755891689, 0
596, 0.82910497786879, 0.1009966188315, 0
597, 0.859763566882, 0.13125988601733, 0
598, 0.85826253140202, 0.10266343631213, 0
599, 0.5015717670386, -0.27696332222498, 0
600, 0.80490420690303, 0.15793054318288, 0
601, 0.77992382799035, 0.18731132490326, 0
602, 0.15881806205216, -0.16003166151667, 0
603, 0.12985918953624, -0.16403590010145, 0
604, 0.76540170116336, 0.041276363226732, 0
605, 0.67751088828174, 0.22677981196978, 0
606, 0.70326552190927, 0.22272050428315, 0
607, 0.86140109693653, 0.15985622430606, 0
608, 0.65183749708211, 0.23132040961574, 0
609, 0.053407569110473, 0.2189756676036, 0
610, 0.19100759838464, -0.16083248608303, 0
611, 0.86859744386516, -0.2604816326938, 0
612, 0.74127979032069, 0.12115493055081, 0
613, 0.76866940940694, -0.0052442669685426, 0
614, 0.94612408363429, -0.09166865853998, 0
615, 0.83108427013456, 0.12984926658522, 0
616, 0.32063660692516, 0.28620303533767, 0
617, 0.47680417410947, 0.29429486760772, 0
618, 0.34281688151915, 0.28927185191564, 0
619, 0.1497277777157, 0.0026685333148874, 0
620, 0.11882346135911, -0.12062661611884, 0
621, 0.62662789543038, -0.28648145038357, 0
622, 0.73347633937206, 0.062513852066611, 0
623, 0.16345844957853, 0.22148630207706, 0
624, 0.84208745145737, -0.24610120467821, 0
625, 0.27282783964487, -0.23012143746795, 0
626, 0.30044488800271, -0.23460074375298, 0
627, 0.3276917787159, -0.23954871227313, 0
628, 0.35416971904132, -0.24541484447589, 0
629, 0.3796261702077, -0.25229266346593, 0
630, 0.40413677156665, -0.25938301821098, 0
631, 0.42849427073927, -0.26534193716895, 0
632, 0.45318745542099, -0.2687071616204, 0
633, 0.4780895612324, -0.2685804585592, 0
634, 0.50245635380957, -0.26542291502153, 0
635, 0.52624746036305, -0.2607827145999, 0
636, 0.55001486870584, -0.25662659833574, 0
637, 0.57436310951831, -0.25473806573437, 0
638, 0.5992882039248, -0.25569848673003, 0
639, 0.62465799461814, -0.2587025215551, 0
640, 0.65061223110755, -0.26253652212424, 0
641, 0.67702401297021, -0.26614739087713, 0
642, 0.7036801640294, -0.26876862376116, 0
643, 0.7305184222925, -0.26981011597229, 0
644, 0.75744209962013, -0.26864252311492, 0
645, 0.78467960070078, -0.26441895635569, 0
646, 0.24729390101658, -0.20025982508938, 0
647, 0.27504542667967, -0.20628254958911, 0
648, 0.30291766069431, -0.21215042524752, 0
649, 0.33046343745811, -0.21839072602049, 0
650, 0.35699640349105, -0.22609016321028, 0
651, 0.38204039605402, -0.23569072427188, 0
652, 0.40575636176531, -0.24585322529071, 0
653, 0.4296022610573, -0.2544473808347, 0
654, 0.45421190351211, -0.25918279987267, 0
655, 0.47925332252075, -0.25870873679031, 0
656, 0.50338593462819, -0.25381467412343, 0
657, 0.52654364277967, -0.24682717592249, 0
658, 0.5496152564837, -0.24059026497153, 0
659, 0.57368992786432, -0.23788243722259, 0
660, 0.5984180581823, -0.23955126738471, 0
661, 0.62349859177953, -0.24404832036083, 0
662, 0.64924426045733, -0.2495694466283, 0
663, 0.67552848324435, -0.25471479998967, 0
664, 0.70220945718792, -0.25851735788266, 0
665, 0.72919806004332, -0.26020060035333, 0
666, 0.75630513015134, -0.25888649509713, 0
667, 0.78368241806894, -0.25327128259293, 0
668, 0.81231376010695, -0.095848061212754, 0
669, 0.82416916654472, -0.12419766809149, 0
670, 0.8309537135264, -0.15273327524948, 0
671, 0.83094752185806, -0.18216886949999, 0
672, 0.97401716646526, -0.17103019514009, 0
673, 0.94819286592731, -0.175033698358, 0
674, 0.92265451025283, -0.17967181589962, 0
675, 0.8974952885192, -0.18518155959679, 0
676, 0.87261066834769, -0.19191337870765, 0
677, 0.8469867264544, -0.20071526683371, 0
678, 0.24985809390969, -0.17374228456904, 0
679, 0.27716260206432, -0.18220839811657, 0
680, 0.30552861330827, -0.18927459383123, 0
681, 0.33379741969048, -0.19611086931869, 0
682, 0.36068924394715, -0.20514594919811, 0
683, 0.38526279215449, -0.21790738839794, 0
684, 0.40757421440073, -0.23191057949215, 0
685, 0.43062293035173, -0.2439304130841, 0
686, 0.45517903729404, -0.25038023319931, 0
687, 0.48055510225605, -0.24928333824045, 0
688, 0.50437790053572, -0.2419314564872, 0
689, 0.52658263471223, -0.2316656429916, 0
690, 0.54859876790743, -0.22239086001504, 0
691, 0.57266256039361, -0.2186230619847, 0
692, 0.59743244757967, -0.22175644600141, 0
693, 0.62218772219348, -0.2284394799697, 0
694, 0.64778552575211, -0.23614426917684, 0
695, 0.67397001022337, -0.24315015051748, 0
696, 0.70067543676172, -0.24838227214963, 0
697, 0.72784420900309, -0.25092769138399, 0
698, 0.75513516841286, -0.24964994454031, 0
699, 0.7825240277966, -0.24250813912066, 0
700, 0.81360365279229, -0.28531313143147, 0
701, 0.81344031687406, -0.27038550900947, 0
702, 0.81341357057227, -0.25474061932778, 0
703, 0.81375995397114, -0.23731481379763, 0
704, 0.81514764772833, -0.21529976375404, 0
705, 0.23204225538626, 0.10971572767527, 0
706, 0.028405355317594, 0.16418842426926, 0
707, 0.057145455072006, 0.16229154083571, 0
708, 0.086469650016622, 0.16058760256232, 0
709, 0.11673047401262, 0.15910105773322, 0
710, 0.14852503104735, 0.15782614469352, 0
711, 0.1832887670717, 0.15643954958287, 0
712, 0.59805138282038, 0.19681395329926, 0
713, 0.57514523965523, 0.20989532766832, 0
714, 0.55423217628049, 0.22560860504809, 0
715, 0.53350941247167, 0.24124535329108, 0
716, 0.51210966277946, 0.25505035861301, 0
717, 0.48926667362737, 0.26643109243154, 0
718, 0.46567296536392, 0.27459093733461, 0
719, 0.44118866420134, 0.27973468057182, 0
720, 0.41732307705087, 0.28194369910639, 0
721, 0.39360751012523, 0.28174668561883, 0
722, 0.37093884272219, 0.27937111214101, 0
723, 0.34866247125904, 0.27474264191737, 0
724, 0.32665212048307, 0.26738234253365, 0
725, 0.30587589642942, 0.25700832988091, 0
726, 0.28606453366942, 0.24263844114199, 0
727, 0.26879907976029, 0.22516137942624, 0
728, 0.25358520597663, 0.20442753482775, 0
729, 0.23985546964747, 0.18091850282507, 0
730, 0.17573007686453, 0.27590352986287, 0
731, 0.18245145194272, 0.25176613689879, 0
732, 0.19035088620982, 0.22638984298854, 0
733, 0.20126876112693, 0.19738277855536, 0
734, 0.22640786930989, 0.15258145492715, 0
735, 0.75550627430532, -0.030662246324064, 0
736, 0.77039705163242, -0.022063804844112, 0
******* E L E M E N T S *************
*ELEMENT, type=CPS4, ELSET=Surface1
1, 121, 307, 308, 110
2, 110, 308, 305, 120
3, 308, 306, 231, 305
4, 307, 227, 306, 308
5, 244, 311, 312, 309
6, 309, 312, 71, 79
7, 312, 310, 78, 71
8, 311, 243, 310, 312
9, 78, 310, 315, 70
10, 70, 315, 313, 77
11, 315, 314, 242, 313
12, 310, 243, 314, 315
13, 222, 317, 318, 316
14, 316, 318, 111, 122
15, 318, 307, 121, 111
16, 317, 227, 307, 318
17, 321, 246, 343, 211
18, 734, 711, 547, 705
19, 369, 440, 96, 88
20, 731, 566, 452, 730
21, 194, 325, 326, 323
22, 323, 326, 324, 193
23, 326, 13, 21, 324
24, 325, 20, 13, 326
25, 731, 730, 464, 504
26, 327, 545, 609, 563
27, 725, 168, 147, 724
28, 477, 436, 247, 595
29, 341, 438, 454, 290
30, 202, 284, 481, 339
31, 299, 386, 230, 292
32, 381, 93, 102, 591
33, 260, 334, 335, 332
34, 332, 335, 333, 259
35, 335, 51, 62, 333
36, 334, 61, 51, 335
37, 241, 337, 338, 336
38, 336, 338, 313, 242
39, 338, 69, 77, 313
40, 337, 76, 69, 338
41, 546, 376, 444, 561
42, 485, 383, 574, 566
43, 383, 388, 426, 574
44, 328, 101, 93, 381
45, 707, 706, 376, 546
46, 505, 370, 321, 507
47, 198, 577, 174, 141
48, 531, 546, 561, 570
49, 79, 72, 347, 309
50, 309, 347, 346, 244
51, 347, 343, 246, 346
52, 72, 80, 343, 347
53, 693, 183, 132, 692
54, 691, 182, 133, 690
55, 499, 373, 2, 25
56, 385, 392, 273, 276
57, 432, 391, 268, 500
58, 671, 579, 197, 670
59, 409, 536, 462, 304
60, 63, 53, 355, 352
61, 352, 355, 353, 256
62, 355, 354, 236, 353
63, 53, 64, 354, 355
64, 123, 113, 358, 356
65, 356, 358, 357, 192
66, 358, 10, 18, 357
67, 113, 1, 10, 358
68, 687, 180, 135, 686
69, 703, 702, 624, 295
70, 295, 624, 509, 433
71, 684, 136, 178, 683
72, 240, 363, 364, 362
73, 362, 364, 337, 241
74, 364, 68, 76, 337
75, 363, 75, 68, 364
76, 672, 276, 57, 47
77, 679, 176, 139, 678
78, 270, 599, 350, 394
79, 467, 445, 519, 266
80, 214, 526, 544, 493
81, 482, 492, 375, 483
82, 390, 206, 548, 480
83, 204, 507, 220, 319
84, 361, 410, 397, 554
85, 268, 553, 446, 392
86, 360, 303, 23, 16
87, 697, 185, 130, 696
88, 465, 441, 545, 327
89, 562, 567, 618, 616
90, 617, 208, 82, 85
91, 526, 503, 505, 544
92, 191, 379, 380, 378
93, 378, 380, 325, 194
94, 380, 12, 20, 325
95, 379, 19, 12, 380
96, 219, 299, 292, 233
97, 453, 565, 89, 98
98, 619, 221, 389, 403
99, 727, 169, 146, 726
100, 301, 384, 373, 499
101, 704, 703, 295, 677
102, 273, 348, 56, 46
103, 671, 670, 127, 187
104, 534, 466, 340, 203
105, 715, 163, 152, 714
106, 466, 374, 371, 340
107, 724, 147, 167, 723
108, 595, 247, 200, 516
109, 525, 490, 441, 465
110, 286, 427, 482, 568
111, 483, 375, 86, 95
112, 688, 134, 180, 687
113, 294, 585, 393, 412
114, 517, 409, 304, 271
115, 674, 673, 409, 517
116, 495, 36, 44, 431
117, 673, 672, 536, 409
118, 373, 418, 17, 2
119, 501, 366, 269, 302
120, 259, 333, 399, 398
121, 398, 399, 352, 256
122, 399, 52, 63, 352
123, 333, 62, 52, 399
124, 65, 55, 402, 400
125, 400, 402, 401, 239
126, 402, 66, 74, 401
127, 55, 5, 66, 402
128, 210, 198, 141, 173
129, 577, 428, 140, 174
130, 200, 213, 341, 205
131, 454, 216, 345, 455
132, 60, 50, 406, 396
133, 396, 406, 405, 265
134, 406, 334, 260, 405
135, 50, 61, 334, 406
136, 192, 357, 408, 407
137, 407, 408, 379, 191
138, 408, 11, 19, 379
139, 357, 18, 11, 408
140, 675, 432, 500, 674
141, 692, 132, 182, 691
142, 670, 197, 501, 669
143, 414, 264, 495, 553
144, 274, 324, 21, 14
145, 271, 304, 614, 425
146, 278, 419, 520, 418
147, 676, 433, 432, 675
148, 446, 431, 359, 348
149, 669, 668, 126, 188
150, 64, 54, 417, 354
151, 354, 417, 416, 236
152, 417, 400, 239, 416
153, 54, 65, 400, 417
154, 704, 671, 187, 128
155, 412, 393, 22, 15
156, 197, 554, 366, 501
157, 348, 359, 45, 56
158, 239, 401, 421, 420
159, 420, 421, 363, 240
160, 421, 67, 75, 363
161, 401, 74, 67, 421
162, 192, 422, 423, 356
163, 356, 423, 112, 123
164, 423, 316, 122, 112
165, 422, 222, 316, 423
166, 677, 295, 433, 676
167, 674, 500, 385, 673
168, 593, 107, 118, 216
169, 496, 403, 331, 329
170, 206, 562, 616, 548
171, 287, 218, 617, 282
172, 509, 611, 414, 391
173, 433, 509, 391, 432
174, 349, 294, 412, 303
175, 583, 35, 43, 264
176, 698, 129, 185, 697
177, 264, 43, 36, 495
178, 463, 499, 25, 28
179, 579, 361, 554, 197
180, 582, 92, 101, 328
181, 480, 548, 564, 565
182, 404, 453, 98, 90
183, 208, 322, 84, 82
184, 428, 506, 175, 140
185, 376, 116, 106, 444
186, 281, 483, 95, 87
187, 370, 288, 246, 321
188, 701, 700, 543, 508
189, 585, 429, 274, 393
190, 500, 268, 392, 385
191, 391, 414, 553, 268
192, 345, 108, 119, 284
193, 728, 145, 169, 727
194, 438, 593, 216, 454
195, 290, 454, 455, 207
196, 367, 49, 60, 396
197, 690, 133, 181, 689
198, 269, 467, 266, 584
199, 372, 424, 33, 41
200, 514, 451, 601, 280
201, 448, 613, 237, 573
202, 157, 234, 450, 9
203, 532, 328, 381, 484
204, 298, 204, 319, 322
205, 216, 118, 108, 345
206, 710, 709, 436, 477
207, 242, 457, 458, 336
208, 336, 458, 456, 241
209, 125, 513, 735, 190
210, 249, 604, 588, 622
211, 227, 460, 461, 306
212, 306, 461, 459, 231
213, 461, 291, 230, 459
214, 460, 226, 291, 461
215, 541, 395, 3, 30
216, 425, 614, 272, 445
217, 683, 178, 137, 682
218, 689, 181, 134, 688
219, 566, 574, 404, 452
220, 714, 152, 162, 713
221, 548, 616, 369, 564
222, 211, 343, 80, 73
223, 397, 271, 425, 479
224, 695, 184, 131, 694
225, 424, 365, 40, 33
226, 599, 196, 463, 350
227, 419, 263, 360, 520
228, 395, 468, 27, 3
229, 411, 580, 31, 39
230, 681, 177, 138, 680
231, 256, 353, 472, 469
232, 469, 472, 470, 257
233, 472, 471, 238, 470
234, 353, 236, 471, 472
235, 261, 475, 476, 473
236, 473, 476, 474, 258
237, 476, 332, 259, 474
238, 475, 260, 332, 476
239, 322, 319, 81, 84
240, 722, 148, 166, 721
241, 444, 106, 117, 539
242, 564, 369, 88, 97
243, 554, 397, 479, 366
244, 468, 394, 29, 27
245, 217, 582, 328, 532
246, 478, 595, 516, 344
247, 330, 493, 298, 229
248, 329, 331, 299, 219
249, 215, 203, 569, 492
250, 300, 202, 339, 533
251, 726, 146, 168, 725
252, 282, 617, 85, 83
253, 160, 488, 489, 154
254, 154, 489, 486, 161
255, 489, 487, 245, 486
256, 488, 248, 487, 489
257, 734, 144, 170, 729
258, 730, 452, 99, 91
259, 544, 505, 507, 204
260, 490, 217, 532, 441
261, 578, 591, 377, 387
262, 570, 561, 592, 213
263, 387, 377, 103, 114
264, 455, 345, 284, 202
265, 680, 138, 176, 679
266, 699, 186, 129, 698
267, 672, 47, 58, 536
268, 711, 228, 525, 710
269, 730, 91, 100, 464
270, 732, 485, 566, 731
271, 705, 342, 143, 171
272, 243, 497, 498, 314
273, 314, 498, 457, 242
274, 254, 588, 199, 253
275, 675, 674, 517, 410
276, 508, 543, 583, 611
277, 685, 179, 136, 684
278, 303, 412, 15, 23
279, 302, 269, 584, 267
280, 677, 676, 361, 579
281, 457, 601, 297, 458
282, 252, 254, 296, 612
283, 573, 237, 589, 255
284, 451, 296, 449, 600
285, 443, 205, 221, 619
286, 436, 531, 570, 247
287, 285, 576, 104, 115
288, 567, 286, 568, 618
289, 437, 439, 142, 172
290, 218, 229, 208, 617
291, 705, 547, 478, 342
292, 437, 344, 515, 439
293, 580, 621, 38, 31
294, 410, 517, 271, 397
295, 536, 58, 48, 462
296, 431, 44, 37, 359
297, 160, 155, 512, 488
298, 488, 512, 510, 248
299, 512, 511, 235, 510
300, 155, 159, 511, 512
301, 601, 451, 600, 297
302, 9, 450, 249, 124
303, 458, 297, 279, 456
304, 159, 612, 514, 511
305, 729, 170, 145, 728
306, 377, 94, 8, 103
307, 563, 609, 576, 285
308, 734, 733, 228, 711
309, 393, 274, 14, 22
310, 700, 34, 42, 543
311, 263, 349, 303, 360
312, 394, 350, 26, 29
313, 225, 523, 524, 521
314, 521, 524, 522, 224
315, 524, 378, 194, 522
316, 523, 191, 378, 524
317, 718, 150, 164, 717
318, 441, 532, 484, 545
319, 382, 300, 533, 386
320, 709, 708, 531, 436
321, 258, 529, 530, 473
322, 473, 530, 527, 261
323, 530, 528, 255, 527
324, 529, 251, 528, 530
325, 561, 444, 539, 592
326, 723, 167, 148, 722
327, 221, 290, 207, 389
328, 581, 214, 493, 330
329, 392, 446, 348, 273
330, 366, 479, 467, 269
331, 272, 367, 396, 265
332, 359, 37, 4, 45
333, 256, 469, 538, 398
334, 398, 538, 474, 259
335, 538, 537, 258, 474
336, 469, 257, 537, 538
337, 592, 539, 593, 438
338, 719, 165, 150, 718
339, 339, 481, 305, 231
340, 229, 298, 322, 208
341, 429, 193, 324, 274
342, 553, 495, 431, 446
343, 462, 48, 59, 351
344, 668, 302, 267, 430
345, 616, 618, 440, 369
346, 427, 215, 492, 482
347, 213, 592, 438, 341
348, 716, 151, 163, 715
349, 452, 404, 90, 99
350, 389, 207, 300, 382
351, 609, 578, 387, 576
352, 709, 465, 327, 708
353, 342, 437, 172, 143
354, 220, 211, 73, 6
355, 342, 478, 344, 437
356, 228, 623, 490, 525
357, 503, 209, 370, 505
358, 481, 109, 120, 305
359, 440, 281, 87, 96
360, 708, 327, 563, 707
361, 265, 405, 551, 519
362, 519, 551, 550, 266
363, 551, 475, 261, 550
364, 405, 260, 475, 551
365, 704, 677, 579, 671
366, 668, 430, 189, 126
367, 543, 42, 35, 583
368, 704, 128, 186, 699
369, 191, 523, 556, 407
370, 407, 556, 422, 192
371, 556, 555, 222, 422
372, 523, 225, 555, 556
373, 240, 557, 558, 420
374, 420, 558, 416, 239
375, 558, 471, 236, 416
376, 557, 238, 471, 558
377, 227, 317, 560, 460
378, 460, 560, 559, 226
379, 560, 555, 225, 559
380, 317, 222, 555, 560
381, 707, 563, 285, 706
382, 706, 285, 115, 105
383, 507, 321, 211, 220
384, 386, 533, 459, 230
385, 426, 480, 565, 453
386, 344, 516, 443, 515
387, 706, 105, 116, 376
388, 374, 581, 330, 371
389, 623, 504, 217, 490
390, 710, 525, 465, 709
391, 403, 389, 382, 331
392, 493, 544, 204, 298
393, 238, 557, 572, 571
394, 572, 362, 241, 456
395, 557, 240, 362, 572
396, 158, 622, 252, 156
397, 622, 588, 254, 252
398, 735, 736, 613, 234
399, 209, 245, 288, 370
400, 464, 100, 92, 582
401, 721, 166, 149, 720
402, 533, 339, 231, 459
403, 340, 371, 218, 287
404, 545, 484, 578, 609
405, 539, 117, 107, 593
406, 577, 329, 219, 428
407, 284, 119, 109, 481
408, 319, 220, 6, 81
409, 492, 569, 540, 375
410, 439, 515, 549, 210
411, 350, 463, 28, 26
412, 614, 351, 367, 272
413, 673, 385, 276, 672
414, 624, 508, 611, 509
415, 576, 387, 114, 104
416, 515, 443, 619, 549
417, 568, 482, 483, 281
418, 712, 153, 161, 486
419, 686, 135, 179, 685
420, 196, 301, 499, 463
421, 702, 701, 508, 624
422, 384, 278, 418, 373
423, 193, 277, 587, 323
424, 323, 587, 522, 194
425, 587, 586, 224, 522
426, 277, 223, 586, 587
427, 590, 573, 255, 528
428, 511, 514, 280, 235
429, 449, 253, 596, 615
430, 198, 496, 329, 577
431, 717, 164, 151, 716
432, 210, 549, 496, 198
433, 439, 210, 173, 142
434, 375, 540, 7, 86
435, 565, 564, 97, 89
436, 733, 732, 623, 228
437, 713, 162, 153, 712
438, 255, 589, 594, 527
439, 527, 594, 550, 261
440, 594, 584, 266, 550
441, 589, 267, 584, 594
442, 547, 477, 595, 478
443, 540, 282, 83, 7
444, 720, 149, 165, 719
445, 428, 219, 233, 506
446, 257, 597, 598, 537
447, 537, 598, 529, 258
448, 598, 596, 251, 529
449, 612, 296, 451, 514
450, 611, 583, 264, 414
451, 700, 372, 41, 34
452, 694, 131, 183, 693
453, 696, 130, 184, 695
454, 600, 449, 615, 250
455, 234, 613, 448, 450
456, 615, 597, 607, 250
457, 235, 280, 498, 497
458, 224, 602, 603, 521
459, 521, 603, 559, 225
460, 603, 293, 226, 559
461, 602, 233, 293, 603
462, 604, 448, 573, 590
463, 297, 600, 250, 279
464, 613, 736, 502, 237
465, 190, 735, 234, 157
466, 243, 311, 606, 497
467, 497, 606, 510, 235
468, 606, 605, 248, 510
469, 311, 244, 605, 606
470, 571, 607, 470, 238
471, 607, 597, 257, 470
472, 588, 604, 590, 199
473, 245, 487, 608, 288
474, 288, 608, 346, 246
475, 608, 605, 244, 346
476, 487, 248, 605, 608
477, 504, 464, 582, 217
478, 618, 568, 281, 440
479, 371, 330, 229, 218
480, 484, 381, 591, 578
481, 223, 535, 610, 586
482, 586, 610, 602, 224
483, 610, 506, 233, 602
484, 535, 175, 506, 610
485, 676, 675, 410, 361
486, 351, 59, 49, 367
487, 276, 273, 46, 57
488, 621, 541, 30, 38
489, 237, 502, 267, 589
490, 253, 199, 251, 596
491, 450, 448, 604, 249
492, 513, 502, 736, 735
493, 124, 249, 622, 158
494, 280, 601, 457, 498
495, 670, 669, 188, 127
496, 304, 462, 351, 614
497, 435, 411, 39, 32
498, 596, 598, 597, 615
499, 456, 279, 571, 572
500, 279, 250, 607, 571
501, 516, 200, 205, 443
502, 734, 705, 171, 144
503, 569, 287, 282, 540
504, 388, 390, 480, 426
505, 247, 570, 213, 200
506, 732, 731, 504, 623
507, 207, 455, 202, 300
508, 708, 707, 546, 531
509, 549, 619, 403, 496
510, 205, 341, 290, 221
511, 331, 382, 386, 299
512, 711, 710, 477, 547
513, 226, 293, 620, 291
514, 291, 620, 292, 230
515, 293, 233, 292, 620
516, 520, 360, 16, 24
517, 669, 501, 302, 668
518, 479, 425, 445, 467
519, 199, 590, 528, 251
520, 296, 254, 253, 449
521, 156, 252, 612, 159
522, 203, 340, 287, 569
523, 591, 102, 94, 377
524, 574, 426, 453, 404
525, 682, 137, 177, 681
526, 678, 139, 175, 535
527, 445, 272, 265, 519
528, 365, 435, 32, 40
529, 418, 520, 24, 17
530, 518, 270, 394, 468
531, 542, 518, 468, 395
532, 275, 542, 395, 541
533, 262, 275, 541, 621
534, 195, 262, 621, 580
535, 434, 195, 580, 411
536, 415, 434, 411, 435
537, 413, 415, 435, 365
538, 552, 413, 365, 424
539, 447, 552, 424, 372
540, 701, 447, 372, 700
541, 368, 277, 193, 429
542, 625, 368, 429, 585
543, 626, 625, 585, 294
544, 627, 626, 294, 349
545, 628, 627, 349, 263
546, 629, 628, 263, 419
547, 630, 629, 419, 278
548, 631, 630, 278, 384
549, 632, 631, 384, 301
550, 633, 632, 301, 196
551, 634, 633, 196, 599
552, 635, 634, 599, 270
553, 636, 635, 270, 518
554, 637, 636, 518, 542
555, 638, 637, 542, 275
556, 639, 638, 275, 262
557, 640, 639, 262, 195
558, 641, 640, 195, 434
559, 642, 641, 434, 415
560, 643, 642, 415, 413
561, 644, 643, 413, 552
562, 645, 644, 552, 447
563, 702, 645, 447, 701
564, 646, 223, 277, 368
565, 647, 646, 368, 625
566, 648, 647, 625, 626
567, 649, 648, 626, 627
568, 650, 649, 627, 628
569, 651, 650, 628, 629
570, 652, 651, 629, 630
571, 653, 652, 630, 631
572, 654, 653, 631, 632
573, 655, 654, 632, 633
574, 656, 655, 633, 634
575, 657, 656, 634, 635
576, 658, 657, 635, 636
577, 659, 658, 636, 637
578, 660, 659, 637, 638
579, 661, 660, 638, 639
580, 662, 661, 639, 640
581, 663, 662, 640, 641
582, 664, 663, 641, 642
583, 665, 664, 642, 643
584, 666, 665, 643, 644
585, 667, 666, 644, 645
586, 703, 667, 645, 702
587, 678, 535, 223, 646
588, 679, 678, 646, 647
589, 680, 679, 647, 648
590, 681, 680, 648, 649
591, 682, 681, 649, 650
592, 683, 682, 650, 651
593, 684, 683, 651, 652
594, 685, 684, 652, 653
595, 686, 685, 653, 654
596, 687, 686, 654, 655
597, 688, 687, 655, 656
598, 689, 688, 656, 657
599, 690, 689, 657, 658
600, 691, 690, 658, 659
601, 692, 691, 659, 660
602, 693, 692, 660, 661
603, 694, 693, 661, 662
604, 695, 694, 662, 663
605, 696, 695, 663, 664
606, 697, 696, 664, 665
607, 698, 697, 665, 666
608, 699, 698, 666, 667
609, 704, 699, 667, 703
610, 289, 534, 203, 215
611, 491, 289, 215, 427
612, 575, 491, 427, 286
613, 232, 575, 286, 567
614, 201, 232, 567, 562
615, 320, 201, 562, 206
616, 442, 320, 206, 390
617, 283, 442, 390, 388
618, 494, 283, 388, 383
619, 212, 494, 383, 485
620, 733, 212, 485, 732
621, 712, 486, 245, 209
622, 713, 712, 209, 503
623, 714, 713, 503, 526
624, 715, 714, 526, 214
625, 716, 715, 214, 581
626, 717, 716, 581, 374
627, 718, 717, 374, 466
628, 719, 718, 466, 534
629, 720, 719, 534, 289
630, 721, 720, 289, 491
631, 722, 721, 491, 575
632, 723, 722, 575, 232
633, 724, 723, 232, 201
634, 725, 724, 201, 320
635, 726, 725, 320, 442
636, 727, 726, 442, 283
637, 728, 727, 283, 494
638, 729, 728, 494, 212
639, 734, 729, 212, 733
640, 430, 267, 502, 513
641, 189, 430, 513, 125
*ELSET,ELSET=contact_source
101, 102, 103, 104, 105, 106, 107, 108, 109, 110, 
111, 112, 113, 114, 115, 116, 117, 118, 119, 120, 
121, 122, 
*ELSET,ELSET=contact_drain
39, 40, 41, 42, 43, 44, 45, 46, 47, 48, 
49, 50, 51, 52, 53, 54, 55, 56, 57, 58, 
59, 60, 
*ELSET,ELSET=probe_A
77, 78, 79, 80, 81, 82, 
*ELSET,ELSET=probe_B
17, 18, 19, 20, 21, 22, 
*ELSET,ELSET=walls
1, 2, 3, 4, 5, 6, 7, 8, 9, 10, 
11, 12, 13, 14, 15, 16, 23, 24, 25, 26, 
27, 28, 29, 30, 31, 32, 33, 34, 35, 36, 
37, 38, 61, 62, 63, 64, 65, 66, 67, 68, 
69, 70, 71, 72, 73, 74, 75, 76, 83, 84, 
85, 86, 87, 88, 89, 90, 91, 92, 93, 94, 
95, 96, 97, 98, 99, 100, 123, 124, 125, 126, 
127, 128, 129, 130, 131, 132, 133, 134, 135, 136, 
137, 138, 139, 140, 141, 142, 143, 144, 145, 146, 
147, 148, 149, 150, 151, 152, 153, 154, 155, 156, 
157, 158, 159, 160, 161, 162, 163, 164, 165, 166, 
167, 168, 169, 170, 171, 172, 173, 174, 175, 176, 
177, 178, 179, 180, 181, 182, 183, 184, 185, 186, 
187, 188, 189, 190, 
*ELSET,ELSET=domain
191, 192, 193, 194, 195, 196, 197, 198, 199, 200, 
201, 202, 203, 204, 205, 206, 207, 208, 209, 210, 
211, 212, 213, 214, 215, 216, 217, 218, 219, 220, 
221, 222, 223, 224, 225, 226, 227, 228, 229, 230, 
231, 232, 233, 234, 235, 236, 237, 238, 239, 240, 
241, 242, 243, 244, 245, 246, 247, 248, 249, 250, 
251, 252, 253, 254, 255, 256, 257, 258, 259, 260, 
261, 262, 263, 264, 265, 266, 267, 268, 269, 270, 
271, 272, 273, 274, 275, 276, 277, 278, 279, 280, 
281, 282, 283, 284, 285, 286, 287, 288, 289, 290, 
291, 292, 293, 294, 295, 296, 297, 298, 299, 300, 
301, 302, 303, 304, 305, 306, 307, 308, 309, 310, 
311, 312, 313, 314, 315, 316, 317, 318, 319, 320, 
321, 322, 323, 324, 325, 326, 327, 328, 329, 330, 
331, 332, 333, 334, 335, 336, 337, 338, 339, 340, 
341, 342, 343, 344, 345, 346, 347, 348, 349, 350, 
351, 352, 353, 354, 355, 356, 357, 358, 359, 360, 
361, 362, 363, 364, 365, 366, 367, 368, 369, 370, 
371, 372, 373, 374, 375, 376, 377, 378, 379, 380, 
381, 382, 383, 384, 385, 386, 387, 388, 389, 390, 
391, 392, 393, 394, 395, 396, 397, 398, 399, 400, 
401, 402, 403, 404, 405, 406, 407, 408, 409, 410, 
411, 412, 413, 414, 415, 416, 417, 418, 419, 420, 
421, 422, 423, 424, 425, 426, 427, 428, 429, 430, 
431, 432, 433, 434, 435, 436, 437, 438, 439, 440, 
441, 442, 443, 444, 445, 446, 447, 448, 449, 450, 
451, 452, 453, 454, 455, 456, 457, 458, 459, 460, 
461, 462, 463, 464, 465, 466, 467, 468, 469, 470, 
471, 472, 473, 474, 475, 476, 477, 478, 479, 480, 
481, 482, 483, 484, 485, 486, 487, 488, 489, 490, 
491, 492, 493, 494, 495, 496, 497, 498, 499, 500, 
501, 502, 503, 504, 505, 506, 507, 508, 509, 510, 
511, 512, 513, 514, 515, 516, 517, 518, 519, 520, 
521, 522, 523, 524, 525, 526, 527, 528, 529, 530, 
531, 532, 533, 534, 535, 536, 537, 538, 539, 540, 
541, 542, 543, 544, 545, 546, 547, 548, 549, 550, 
551, 552, 553, 554, 555, 556, 557, 558, 559, 560, 
561, 562, 563, 564, 565, 566, 567, 568, 569, 570, 
571, 572, 573, 574, 575, 576, 577, 578, 579, 580, 
581, 582, 583, 584, 585, 586, 587, 588, 589, 590, 
591, 592, 593, 594, 595, 596, 597, 598, 599, 600, 
601, 602, 603, 604, 605, 606, 607, 608, 609, 610, 
611, 612, 613, 614, 615, 616, 617, 618, 619, 620, 
621, 622, 623, 624, 625, 626, 627, 628, 629, 630, 
631, 632, 633, 634, 635, 636, 637, 638, 639, 640, 
641, 642, 643, 644, 645, 646, 647, 648, 649, 650, 
651, 652, 653, 654, 655, 656, 657, 658, 659, 660, 
661, 662, 663, 664, 665, 666, 667, 668, 669, 670, 
671, 672, 673, 674, 675, 676, 677, 678, 679, 680, 
681, 682, 683, 684, 685, 686, 687, 688, 689, 690, 
691, 692, 693, 694, 695, 696, 697, 698, 699, 700, 
701, 702, 703, 704, 705, 706, 707, 708, 709, 710, 
711, 712, 713, 714, 715, 716, 717, 718, 719, 720, 
721, 722, 723, 724, 725, 726, 727, 728, 729, 730, 
731, 732, 733, 734, 735, 736, 737, 738, 739, 740, 
741, 742, 743, 744, 745, 746, 747, 748, 749, 750, 
751, 752, 753, 754, 755, 756, 757, 758, 759, 760, 
761, 762, 763, 764, 765, 766, 767, 768, 769, 770, 
771, 772, 773, 774, 775, 776, 777, 778, 779, 780, 
781, 782, 783, 784, 785, 786, 787, 788, 789, 790, 
791, 792, 793, 794, 795, 796, 797, 798, 799, 800, 
801, 802, 803, 804, 805, 806, 807, 808, 809, 810, 
811, 812, 813, 814, 815, 816, 817, 818, 819, 820, 
821, 822, 823, 824, 825, 826, 827, 828, 829, 830, 
831, 
*NSET,NSET=contact_source
1, 8, 103, 104, 105, 106, 107, 108, 109, 110, 
111, 112, 113, 114, 115, 116, 117, 118, 119, 120, 
121, 122, 123, 
*NSET,NSET=contact_drain
4, 5, 45, 46, 47, 48, 49, 50, 51, 52, 
53, 54, 55, 56, 57, 58, 59, 60, 61, 62, 
63, 64, 65, 
*NSET,NSET=probe_A
6, 7, 81, 82, 83, 84, 85, 
*NSET,NSET=probe_B
2, 3, 25, 26, 27, 28, 29, 
*NSET,NSET=walls
1, 2, 3, 4, 5, 6, 7, 8, 9, 10, 
11, 12, 13, 14, 15, 16, 17, 18, 19, 20, 
21, 22, 23, 24, 30, 31, 32, 33, 34, 35, 
36, 37, 38, 39, 40, 41, 42, 43, 44, 66, 
67, 68, 69, 70, 71, 72, 73, 74, 75, 76, 
77, 78, 79, 80, 86, 87, 88, 89, 90, 91, 
92, 93, 94, 95, 96, 97, 98, 99, 100, 101, 
102, 124, 125, 126, 127, 128, 129, 130, 131, 132, 
133, 134, 135, 136, 137, 138, 139, 140, 141, 142, 
143, 144, 145, 146, 147, 148, 149, 150, 151, 152, 
153, 154, 155, 156, 157, 158, 159, 160, 161, 162, 
163, 164, 165, 166, 167, 168, 169, 170, 171, 172, 
173, 174, 175, 176, 177, 178, 179, 180, 181, 182, 
183, 184, 185, 186, 187, 188, 189, 190, 
*NSET,NSET=domain
1, 2, 3, 4, 5, 6, 7, 8, 9, 10, 
11, 12, 13, 14, 15, 16, 17, 18, 19, 20, 
21, 22, 23, 24, 25, 26, 27, 28, 29, 30, 
31, 32, 33, 34, 35, 36, 37, 38, 39, 40, 
41, 42, 43, 44, 45, 46, 47, 48, 49, 50, 
51, 52, 53, 54, 55, 56, 57, 58, 59, 60, 
61, 62, 63, 64, 65, 66, 67, 68, 69, 70, 
71, 72, 73, 74, 75, 76, 77, 78, 79, 80, 
81, 82, 83, 84, 85, 86, 87, 88, 89, 90, 
91, 92, 93, 94, 95, 96, 97, 98, 99, 100, 
101, 102, 103, 104, 105, 106, 107, 108, 109, 110, 
111, 112, 113, 114, 115, 116, 117, 118, 119, 120, 
121, 122, 123, 124, 125, 126, 127, 128, 129, 130, 
131, 132, 133, 134, 135, 136, 137, 138, 139, 140, 
141, 142, 143, 144, 145, 146, 147, 148, 149, 150, 
151, 152, 153, 154, 155, 156, 157, 158, 159, 160, 
161, 162, 163, 164, 165, 166, 167, 168, 169, 170, 
171, 172, 173, 174, 175, 176, 177, 178, 179, 180, 
181, 182, 183, 184, 185, 186, 187, 188, 189, 190, 
191, 192, 193, 194, 195, 196, 197, 198, 199, 200, 
201, 202, 203, 204, 205, 206, 207, 208, 209, 210, 
211, 212, 213, 214, 215, 216, 217, 218, 219, 220, 
221, 222, 223, 224, 225, 226, 227, 228, 229, 230, 
231, 232, 233, 234, 235, 236, 237, 238, 239, 240, 
241, 242, 243, 244, 245, 246, 247, 248, 249, 250, 
251, 252, 253, 254, 255, 256, 257, 258, 259, 260, 
261, 262, 263, 264, 265, 266, 267, 268, 269, 270, 
271, 272, 273, 274, 275, 276, 277, 278, 279, 280, 
281, 282, 283, 284, 285, 286, 287, 288, 289, 290, 
291, 292, 293, 294, 295, 296, 297, 298, 299, 300, 
301, 302, 303, 304, 305, 306, 307, 308, 309, 310, 
311, 312, 313, 314, 315, 316, 317, 318, 319, 320, 
321, 322, 323, 324, 325, 326, 327, 328, 329, 330, 
331, 332, 333, 334, 335, 336, 337, 338, 339, 340, 
341, 342, 343, 344, 345, 346, 347, 348, 349, 350, 
351, 352, 353, 354, 355, 356, 357, 358, 359, 360, 
361, 362, 363, 364, 365, 366, 367, 368, 369, 370, 
371, 372, 373, 374, 375, 376, 377, 378, 379, 380, 
381, 382, 383, 384, 385, 386, 387, 388, 389, 390, 
391, 392, 393, 394, 395, 396, 397, 398, 399, 400, 
401, 402, 403, 404, 405, 406, 407, 408, 409, 410, 
411, 412, 413, 414, 415, 416, 417, 418, 419, 420, 
421, 422, 423, 424, 425, 426, 427, 428, 429, 430, 
431, 432, 433, 434, 435, 436, 437, 438, 439, 440, 
441, 442, 443, 444, 445, 446, 447, 448, 449, 450, 
451, 452, 453, 454, 455, 456, 457, 458, 459, 460, 
461, 462, 463, 464, 465, 466, 467, 468, 469, 470, 
471, 472, 473, 474, 475, 476, 477, 478, 479, 480, 
481, 482, 483, 484, 485, 486, 487, 488, 489, 490, 
491, 492, 493, 494, 495, 496, 497, 498, 499, 500, 
501, 502, 503, 504, 505, 506, 507, 508, 509, 510, 
511, 512, 513, 514, 515, 516, 517, 518, 519, 520, 
521, 522, 523, 524, 525, 526, 527, 528, 529, 530, 
531, 532, 533, 534, 535, 536, 537, 538, 539, 540, 
541, 542, 543, 544, 545, 546, 547, 548, 549, 550, 
551, 552, 553, 554, 555, 556, 557, 558, 559, 560, 
561, 562, 563, 564, 565, 566, 567, 568, 569, 570, 
571, 572, 573, 574, 575, 576, 577, 578, 579, 580, 
581, 582, 583, 584, 585, 586, 587, 588, 589, 590, 
591, 592, 593, 594, 595, 596, 597, 598, 599, 600, 
601, 602, 603, 604, 605, 606, 607, 608, 609, 610, 
611, 612, 613, 614, 615, 616, 617, 618, 619, 620, 
621, 622, 623, 624, 625, 626, 627, 628, 629, 630, 
631, 632, 633, 634, 635, 636, 637, 638, 639, 640, 
641, 642, 643, 644, 645, 646, 647, 648, 649, 650, 
651, 652, 653, 654, 655, 656, 657, 658, 659, 660, 
661, 662, 663, 664, 665, 666, 667, 668, 669, 670, 
671, 672, 673, 674, 675, 676, 677, 678, 679, 680, 
681, 682, 683, 684, 685, 686, 687, 688, 689, 690, 
691, 692, 693, 694, 695, 696, 697, 698, 699, 700, 
701, 702, 703, 704, 705, 706, 707, 708, 709, 710, 
711, 712, 713, 714, 715, 716, 717, 718, 719, 720, 
721, 722, 723, 724, 725, 726, 727, 728, 729, 730, 
731, 732, 733, 734, 735, 736, 
