*Heading
 /Users/juliagao/geometry-optimization-net/scripts/../runs/run2/shape_101.inp
*NODE
1, 0, -0.3, 0
2, 0.425, -0.3, 0
3, 0.575, -0.3, 0
4, 1, -0.3, 0
5, 1, 0.3, 0
6, 0.575, 0.3, 0
7, 0.425, 0.3, 0
8, 0, 0.3, 0
9, 0.6921035776, -0.0054323767, 0
10, 0.025989948949803, -0.3, 0
11, 0.077943771331638, -0.3, 0
12, 0.13028460986147, -0.3, 0
13, 0.18336056237051, -0.3, 0
14, 0.2369899449389, -0.3, 0
15, 0.2911600838692, -0.3, 0
16, 0.34522814355997, -0.3, 0
17, 0.3985282297388, -0.3, 0
18, 0.051979897899606, -0.3, 0
19, 0.10390764476367, -0.3, 0
20, 0.15666157495926, -0.3, 0
21, 0.21005954978175, -0.3, 0
22, 0.26392034009605, -0.3, 0
23, 0.31839982764236, -0.3, 0
24, 0.37205645947759, -0.3, 0
25, 0.4504212944793, -0.3, 0
26, 0.50044325127529, -0.3, 0
27, 0.55002195679599, -0.3, 0
28, 0.4758425889586, -0.3, 0
29, 0.52504391359198, -0.3, 0
30, 0.60101157448925, -0.3, 0
31, 0.65349624590947, -0.3, 0
32, 0.70621752044438, -0.3, 0
33, 0.75905648607004, -0.3, 0
34, 0.8126062616276, -0.3, 0
35, 0.86671160029682, -0.3, 0
36, 0.92084902798058, -0.3, 0
37, 0.97392005226548, -0.3, 0
38, 0.62702314897849, -0.3, 0
39, 0.67996934284045, -0.3, 0
40, 0.73246569804832, -0.3, 0
41, 0.78564727409175, -0.3, 0
42, 0.83956524916344, -0.3, 0
43, 0.8938579514302, -0.3, 0
44, 0.94784010453096, -0.3, 0
45, 1, -0.27341855261309, 0
46, 1, -0.22022633132409, 0
47, 1, -0.16698346865675, 0
48, 1, -0.11360763220391, 0
49, 1, -0.059735268677366, 0
50, 1, -0.0048094200904399, 0
51, 1, 0.050955054490138, 0
52, 1, 0.10722112109573, 0
53, 1, 0.1639484805965, 0
54, 1, 0.21988550757455, 0
55, 1, 0.27369699991241, 0
56, 1, -0.24683710522618, 0
57, 1, -0.19361555742201, 0
58, 1, -0.1403513798915, 0
59, 1, -0.086863884516323, 0
60, 1, -0.032606652838408, 0
61, 1, 0.022987812657528, 0
62, 1, 0.078922296322749, 0
63, 1, 0.13551994586871, 0
64, 1, 0.19237701532428, 0
65, 1, 0.24739399982481, 0
66, 0.97475501628428, 0.3, 0
67, 0.92370168226083, 0.3, 0
68, 0.87075763168973, 0.3, 0
69, 0.81562087284052, 0.3, 0
70, 0.76039606338959, 0.3, 0
71, 0.70642420639543, 0.3, 0
72, 0.65291140972047, 0.3, 0
73, 0.60057335958728, 0.3, 0
74, 0.94951003256856, 0.3, 0
75, 0.8978933319531, 0.3, 0
76, 0.84362193142635, 0.3, 0
77, 0.78761981425469, 0.3, 0
78, 0.73317231252449, 0.3, 0
79, 0.67967610026637, 0.3, 0
80, 0.62614671917457, 0.3, 0
81, 0.55597598373767, 0.3, 0
82, 0.51849887637438, 0.3, 0
83, 0.48170202817038, 0.3, 0
84, 0.44417913553368, 0.3, 0
85, 0.53695196747535, 0.3, 0
86, 0.50004578527341, 0.3, 0
87, 0.46335827106735, 0.3, 0
88, 0.39874754633699, 0.3, 0
89, 0.34498761121903, 0.3, 0
90, 0.29079799315455, 0.3, 0
91, 0.2378201009675, 0.3, 0
92, 0.18463148940241, 0.3, 0
93, 0.13092412960255, 0.3, 0
94, 0.077747944928515, 0.3, 0
95, 0.025693132033384, 0.3, 0
96, 0.37249509267399, 0.3, 0
97, 0.31748012976407, 0.3, 0
98, 0.26411585654503, 0.3, 0
99, 0.21152434538997, 0.3, 0
100, 0.15773863341485, 0.3, 0
101, 0.10410962579026, 0.3, 0
102, 0.051386264066768, 0.3, 0
103, 0, 0.2733909317781, 0
104, 0, 0.21986002496188, 0
105, 0, 0.16562440262163, 0
106, 0, 0.11096472623952, 0
107, 0, 0.055891730059855, 0
108, 0, 0.00028878037254465, 0
109, 0, -0.054709601572323, 0
110, 0, -0.10930165191341, 0
111, 0, -0.16460314098119, 0
112, 0, -0.2197174079877, 0
113, 0, -0.27349985023323, 0
114, 0, 0.24678186355621, 0
115, 0, 0.19293818636755, 0
116, 0, 0.13831061887571, 0
117, 0, 0.083618833603341, 0
118, 0, 0.028164626516369, 0
119, 0, -0.02758706577128, 0
120, 0, -0.081832137373367, 0
121, 0, -0.13677116645345, 0
122, 0, -0.19243511550893, 0
123, 0, -0.24699970046646, 0
124, 0.6960892019725, 0.023414739146516, 0
125, 0.74744444918729, -0.07192045868124, 0
126, 0.77983518304731, -0.11873192829396, 0
127, 0.79441724324665, -0.17161178646423, 0
128, 0.77176958324488, -0.21939809323614, 0
129, 0.72055839870921, -0.23460418786553, 0
130, 0.66690168156747, -0.22717001215638, 0
131, 0.61675208682476, -0.21052179470088, 0
132, 0.56685368538907, -0.20206152820388, 0
133, 0.52739817568673, -0.23356789413304, 0
134, 0.48653829853189, -0.26345666426437, 0
135, 0.43640556011617, -0.26110795596984, 0
136, 0.40068796218618, -0.22354862416769, 0
137, 0.37249081621126, -0.17940952756925, 0
138, 0.32592046771135, -0.15476202229599, 0
139, 0.27643741176486, -0.13301304189387, 0
140, 0.24791633898078, -0.086724755636788, 0
141, 0.26029042503428, -0.033332540019697, 0
142, 0.28342674178818, 0.015459060348832, 0
143, 0.27586215928943, 0.069308687437895, 0
144, 0.25778816672523, 0.12318053512994, 0
145, 0.25434194331426, 0.18039572681327, 0
146, 0.27914281936947, 0.2299729243405, 0
147, 0.32743861798347, 0.2555667399185, 0
148, 0.38265059899295, 0.2590591114613, 0
149, 0.43514788106955, 0.24932451949553, 0
150, 0.48252944293009, 0.23012021000846, 0
151, 0.52448716328567, 0.19980758443205, 0
152, 0.56290692832782, 0.16409546799247, 0
153, 0.6144810204391, 0.15465356532788, 0
154, 0.6677122691303, 0.15448910177447, 0
155, 0.71525199244344, 0.12959882516042, 0
156, 0.72035339211602, 0.074463161025641, 0
157, 0.7081819748527, -0.029630462299141, 0
158, 0.70904161762124, 0.048074712831889, 0
159, 0.72437524215507, 0.10313866482844, 0
160, 0.69359421960675, 0.14705106584555, 0
161, 0.64095839037432, 0.15597084905663, 0
162, 0.58792320624357, 0.15466287498402, 0
163, 0.54334941204252, 0.18141379257419, 0
164, 0.50409091586016, 0.21652576083388, 0
165, 0.45946942770015, 0.24096726209005, 0
166, 0.41014014513324, 0.25530959192544, 0
167, 0.35489461752904, 0.259475802746, 0
168, 0.30134610300616, 0.24599047327802, 0
169, 0.26304799083341, 0.2077787010947, 0
170, 0.25320983407394, 0.15177959729304, 0
171, 0.26614112538142, 0.09549096761931, 0
172, 0.28400123289036, 0.042540640986237, 0
173, 0.27306352611881, -0.0090984053840527, 0
174, 0.25045151200085, -0.058990746814018, 0
175, 0.25711485509556, -0.1132755470258, 0
176, 0.3006025446459, -0.14591596796724, 0
177, 0.35112314318894, -0.16396924875569, 0
178, 0.38739578581004, -0.20077214858398, 0
179, 0.41638104847077, -0.24482964784744, 0
180, 0.461505316436, -0.26819639969508, 0
181, 0.50830569787785, -0.25067361077139, 0
182, 0.54546480165105, -0.21543908797778, 0
183, 0.59216186098612, -0.2027161316647, 0
184, 0.6410263203531, -0.21920622039672, 0
185, 0.69341562810914, -0.23272893907156, 0
186, 0.74759479085916, -0.23092569009015, 0
187, 0.78882049462205, -0.19841526095823, 0
188, 0.79038099941944, -0.14477985029636, 0
189, 0.76524825536152, -0.09476471650115, 0
190, 0.72795237287958, -0.05051954881411, 0
191, 0.56480013664891, -0.25690913206804, 0
192, 0.052758913413215, -0.24635636235516, 0
193, 0.15971871999417, -0.24873787151825, 0
194, 0.10587160946476, -0.24682420001935, 0
195, 0.5123860974369, -0.26218955348259, 0
196, 0.21401294221301, -0.25306201069785, 0
197, 0.26709026954377, -0.14792717020881, 0
198, 0.54510797750512, 0.25067539904068, 0
199, 0.80591989839923, -0.24489300617603, 0
200, 0.85460445889093, -0.24609324337944, 0
201, 0.097698289742136, 0.11638408127481, 0
202, 0.096867349343685, 0.16961352734997, 0
203, 0.19134670556348, 0.22562431622984, 0
204, 0.050828295805202, 0.27367844075575, 0
205, 0.17853525319472, 0.27501843668453, 0
206, 0.23126462035513, -0.093606081536728, 0
207, 0.073104116772317, 0.14173163476218, 0
208, 0.025663319428695, 0.0018311076842381, 0
209, 0.4985981686441, 0.26969866165488, 0
210, 0.077740782486923, -0.022946414977425, 0
211, 0.098482709776115, 0.22213461957303, 0
212, 0.22705970373789, 0.11216836492619, 0
213, 0.13281272353271, -0.10609226515758, 0
214, 0.077031094548432, 0.0049787574753236, 0
215, 0.050791777658863, 0.031119513238714, 0
216, 0.024571072256725, 0.19348762612674, 0
217, 0.024631987416433, 0.11214797342279, 0
218, 0.026434095714514, -0.10874274523357, 0
219, 0.16210513851826, -0.19512452889482, 0
220, 0.10699521339964, -0.19228174429163, 0
221, 0.053221176502115, -0.19176572328313, 0
222, 0.21905292072824, -0.20391301674257, 0
223, 0.22528223870128, -0.14092672912818, 0
224, 0.10675692960078, -0.13562207472069, 0
225, 0.16180803386369, -0.13607787178122, 0
226, 0.05314174557137, -0.13611160697443, 0
227, 0.075265568939713, 0.060335696862094, 0
228, 0.076420606626175, 0.27388643919609, 0
229, 0.10374685819531, -0.02131874372652, 0
230, 0.10166379736547, 0.034546397012965, 0
231, 0.24327716777849, -0.12492959594352, 0
232, 0.024473057436144, 0.16648285689037, 0
233, 0.051329001629289, 0.0033707840507845, 0
234, 0.15048753209555, 0.066517060849818, 0
235, 0.23874856784694, -0.27808914086893, 0
236, 0.292266063668, -0.1620338557516, 0
237, 0.80864221986476, 0.21024456093948, 0
238, 0.94928833205261, 0.18238667571641, 0
239, 0.94854730344161, 0.24110217362767, 0
240, 0.72722463589522, 0.16117180819474, 0
241, 0.862849340709, 0.059077015778759, 0
242, 0.5880244055902, 0.23776622229799, 0
243, 0.67783175714454, 0.18421594098464, 0
244, 0.86947201952337, 0.1937809331381, 0
245, 0.74579739970072, 0.13847266137701, 0
246, 0.78961421945779, 0.0016747651898191, 0
247, 0.90653410691606, 0.062849516597417, 0
248, 0.88421888945858, 0.060046910749304, 0
249, 0.95119501313155, 0.12547583806796, 0
250, 0.70336538871667, 0.17563299096575, 0
251, 0.83957795353667, 0.22111707362538, 0
252, 0.82049627840887, 0.13608926124308, 0
253, 0.95275124882943, 0.070559009647825, 0
254, 0.9063795092546, 0.0088629254123982, 0
255, 0.9534098617214, 0.015738139333387, 0
256, 0.93683461582302, -0.1193875826626, 0
257, 0.9131049470922, -0.16700944132642, 0
258, 0.95733188807109, -0.11746365174403, 0
259, 0.79922085337948, -0.11218506606736, 0
260, 0.8385735677317, -0.21964151530666, 0
261, 0.86610425522722, -0.19191296288728, 0
262, 0.85635572714757, 0.0037002738598941, 0
263, 0.91148074864616, -0.074853768743605, 0
264, 0.97728190829848, -0.035802410554743, 0
265, 0.95557091702926, -0.066189818283159, 0
266, 0.88937990936591, -0.081311049425588, 0
267, 0.90882544333607, -0.047659793172087, 0
268, 0.90293544843626, -0.24645214602472, 0
269, 0.9545839466844, -0.039297009736895, 0
270, 0.95148955447249, -0.24675258417728, 0
271, 0.95326299299339, -0.22023153865466, 0
272, 0.8274390742404, 0.0024246964484108, 0
273, 0.93241499012065, -0.19369278273563, 0
274, 0.22218049981136, -0.17630475466865, 0
275, 0.43798047198241, -0.27044373748042, 0
276, 0.39002908471628, -0.23215150012904, 0
277, 0.16463244966191, 0.17368386721643, 0
278, 0.12480359820523, 0.24872269249686, 0
279, 0.68850626166231, 0.21967464105072, 0
280, 0.62642862144243, 0.19295279191418, 0
281, 0.83460086129484, 0.036702896905488, 0
282, 0.88069782256164, 0.10762571924854, 0
283, 0.82043686366835, -0.10543185916208, 0
284, 0.91786185982858, -0.12122574700807, 0
285, 0.88280342996942, -0.023632513721135, 0
286, 0.55647930967361, -0.23665418335545, 0
287, 0.24075912181383, -0.25616918887703, 0
288, 0.30921806685561, 0.27508583422822, 0
289, 0.28129573263028, 0.27503680778273, 0
290, 0.18592472552897, -0.10360718499692, 0
291, 0.05180150871358, -0.024452890200628, 0
292, 0.82494010476809, 0.073091192911102, 0
293, 0.89574879635998, 0.23355358998586, 0
294, 0.15514648907943, 0.010821241056358, 0
295, 0.16903749574215, 0.2246712600081, 0
296, 0.51636260627104, 0.23720653542682, 0
297, 0.53563872127583, 0.22603392565412, 0
298, 0.176079746605, 0.069381574854094, 0
299, 0.12765659202876, 0.27440900317479, 0
300, 0.21012150148767, -0.012401838654539, 0
301, 0.2579119565009, -0.16658539064107, 0
302, 0.30132393841488, -0.20783547375212, 0
303, 0.26905949487564, -0.23924590024538, 0
304, 0.26512073910654, -0.27970161777584, 0
305, 0.26667088798655, -0.25945703916164, 0
306, 0.75384789556797, 0.028092179028468, 0
307, 0.80993411804403, -0.16870871168555, 0
308, 0.77973623501567, -0.24185131123939, 0
309, 0.27775060762626, -0.19917905924436, 0
310, 0.47206856786796, -0.29137857348971, 0
311, 0.31419307920574, -0.26512707185418, 0
312, 0.36231453811756, -0.24629105905168, 0
313, 0.1471985818007, 0.093624808022368, 0
314, 0.24439122152997, 0.25135968084583, 0
315, 0.27001683563513, 0.25063367615674, 0
316, 0.1203844328233, 0.14462301241894, 0
317, 0.82448630402091, -0.19401786146124, 0
318, 0.80064474051486, -0.042077321597377, 0
319, 0.95615046833317, -0.16788148815547, 0
320, 0.92997290105805, -0.22006221866362, 0
321, 0.84099078495712, 0.26106030775613, 0
322, 0.90352349580743, 0.11418733974607, 0
323, 0.78233740141784, 0.25337877167654, 0
324, 0.81206467693959, 0.25732011239044, 0
325, 0.65197223498997, 0.18928859226974, 0
326, 0.53262802404448, 0.27822727855448, 0
327, 0.5263524399124, 0.2574583697806, 0
328, 0.857301998403, -0.028263093198356, 0
329, 0.90236281933428, -0.12268314904172, 0
330, 0.83626983329928, -0.066878240583919, 0
331, 0.79548768506388, -0.27151858752768, 0
332, 0.83046824256864, -0.24581486221096, 0
333, 0.84741928804798, -0.27288359563612, 0
334, 0.82167704494427, -0.27247645317091, 0
335, 0.026543596268519, -0.13647349373896, 0
336, 0.053254538342824, -0.16403457080654, 0
337, 0.026577752044386, -0.1919610114318, 0
338, 0.026594799228517, -0.16427032303058, 0
339, 0.13071900370352, -0.047939308494261, 0
340, 0.16486229870271, 0.14806431750264, 0
341, 0.12729096145834, 0.036554640953517, 0
342, 0.87873197632923, -0.2462618793519, 0
343, 0.89861534698834, -0.27319380662391, 0
344, 0.87303742667358, -0.27307137878658, 0
345, 0.18688786555182, -0.25054749793716, 0
346, 0.21199022294297, -0.2765958075361, 0
347, 0.15825435364831, -0.27447989026107, 0
348, 0.18511909390129, -0.27537803675817, 0
349, 0.95311989506416, 0.043239543405617, 0
350, 0.97629634794727, 0.074736617870064, 0
351, 0.97670074537917, 0.019358693156552, 0
352, 0.97652110659492, 0.047055655297113, 0
353, 0.97550877991992, 0.13057411057001, 0
354, 0.95017682869673, 0.15362311400535, 0
355, 0.97464648462196, 0.18742344941686, 0
356, 0.97503893423159, 0.15888295524269, 0
357, 0.95211376113072, 0.097875016105983, 0
358, 0.97595569088999, 0.10255829569474, 0
359, 0.052388295041126, -0.27324448099202, 0
360, 0.07924485146044, -0.24645425201514, 0
361, 0.10498782346897, -0.27349602382089, 0
362, 0.078637639851098, -0.27329916639296, 0
363, 0.54522697322619, -0.282548083642, 0
364, 0.53413143209147, -0.25001220508711, 0
365, 0.079445364342654, -0.10748453057843, 0
366, 0.096985683884371, 0.14310330278445, 0
367, 0.16686241195276, 0.12238162021929, 0
368, 0.20895323577736, 0.044106131134613, 0
369, 0.14389721572834, 0.19808172815975, 0
370, 0.18278838138747, -0.014999218142098, 0
371, 0.22893748010825, 0.27549242525633, 0
372, 0.84329195019469, -0.098513233194571, 0
373, 0.89179495880903, -0.16515090439324, 0
374, 0.84904138666193, -0.13122314688295, 0
375, 0.1002915274772, 0.062122112063825, 0
376, 0.15683698824808, -0.045944675646832, 0
377, 0.13269737567385, -0.24754459363659, 0
378, 0.1315506086887, -0.2738721464864, 0
379, 0.026357964724519, -0.24651044563072, 0
380, 0.026183054338555, -0.27331587066179, 0
381, 0.88382687418475, 0.083865907380439, 0
382, 0.57787348507643, 0.20471939027128, 0
383, 0.61981316162457, 0.26625867273195, 0
384, 0.14309472397995, 0.1462882687109, 0
385, 0.18015092004341, 0.041377753087099, 0
386, 0.18540569223375, 0.14985272437151, 0
387, 0.12021236000982, 0.17088362193437, 0
388, 0.12879706177888, 0.0086585778119941, 0
389, 0.29292633096245, -0.24406512181818, 0
390, 0.44631948837146, -0.29084921859647, 0
391, 0.77256160009599, -0.05639510781358, 0
392, 0.95385395376001, -0.011863108051983, 0
393, 0.92720100138747, -0.24663093188241, 0
394, 0.94960990723579, -0.27335616349625, 0
395, 0.92414823477537, -0.27328920203344, 0
396, 0.10202713711315, 0.27413173501131, 0
397, 0.075164049402348, 0.24770918567158, 0
398, 0.05021128813941, 0.058732606813664, 0
399, 0.2109504570757, 0.015529696248383, 0
400, 0.24179603223574, 0.10471560215443, 0
401, 0.024496809191394, 0.13936649795821, 0
402, 0.23428471546102, 0.22778786163814, 0
403, 0.10453390761107, -0.049581283975652, 0
404, 0.10282165811855, 0.0067223390472338, 0
405, 0.18787252450736, 0.1248647813529, 0
406, 0.1595466044969, -0.10515625701864, 0
407, 0.56570503361282, 0.24395235772898, 0
408, 0.57235374673962, 0.27195591446711, 0
409, 0.76738744973285, 0.086039342593498, 0
410, 0.75332675612074, 0.25375714193025, 0
411, 0.97574931411262, -0.24681072177549, 0
412, 0.97483345145712, -0.27339502632382, 0
413, 0.076197262295072, 0.03275202014489, 0
414, 0.14457958906312, 0.12013485710706, 0
415, 0.048899092339603, 0.14049404886635, 0
416, 0.097379046666842, 0.19595022646693, 0
417, 0.94871310365489, 0.21160590776349, 0
418, 0.9743531409406, 0.24422398064858, 0
419, 0.97440743717572, 0.21585355796797, 0
420, 0.85928779139046, 0.10004944859369, 0
421, 0.89627219656779, 0.26675636357007, 0
422, 0.86899555480018, 0.26420645658997, 0
423, 0.94880986498886, 0.27059351964439, 0
424, 0.9744810379075, 0.27218522536773, 0
425, 0.97693316213918, -0.0082973649296131, 0
426, 0.8880299883479, -0.19238426542187, 0
427, 0.053047719155886, -0.21920465348813, 0
428, 0.026495261254271, -0.21935171791076, 0
429, 0.90080096896683, 0.14128766715177, 0
430, 0.59538927012257, 0.26891846000032, 0
431, 0.6452890662635, 0.2638991022631, 0
432, 0.20828113419978, -0.040317582650929, 0
433, 0.20377259214721, 0.27530320702967, 0
434, 0.93003226874412, 0.012198653576231, 0
435, 0.91470280472188, -0.099957976913313, 0
436, 0.97852300704812, -0.11553862654574, 0
437, 0.93349730675751, -0.070051275319026, 0
438, 0.922408728279, 0.23766185295088, 0
439, 0.92276873042272, 0.26882821155079, 0
440, 0.14922617752217, 0.24930484253926, 0
441, 0.026102780627279, -0.053506419393016, 0
442, 0.21302440838346, 0.22664593188579, 0
443, 0.7873812926803, -0.084572155252959, 0
444, 0.93063670402769, -0.015564423366875, 0
445, 0.88375769902036, -0.21943842930358, 0
446, 0.84824981505979, -0.16365991946821, 0
447, 0.3394686492044, -0.22427573391545, 0
448, 0.33928124332139, -0.18299642204283, 0
449, 0.4966682437217, -0.28967804729853, 0
450, 0.92713947711862, 0.12007031116386, 0
451, 0.92384069867797, 0.17682152941065, 0
452, 0.92541145051794, 0.14787691399818, 0
453, 0.92945186225761, 0.066516703093425, 0
454, 0.84025979738398, 0.090478399394162, 0
455, 0.92860153818316, 0.093136928907219, 0
456, 0.46477949448769, -0.27530183977526, 0
457, 0.32210122928797, -0.21599294652358, 0
458, 0.90707048785293, -0.019458232610091, 0
459, 0.87016640366665, -0.16269812663654, 0
460, 0.91581506060401, -0.14243045042443, 0
461, 0.12319607382454, 0.091352632651681, 0
462, 0.10608258074718, -0.10681978453391, 0
463, 0.79485609258699, 0.11480790506929, 0
464, 0.92978870161477, 0.039623683241034, 0
465, 0.68631272025576, -0.2659003583188, 0
466, 0.62982964548114, -0.26625294609955, 0
467, 0.65886580977107, -0.26485330119182, 0
468, 0.91014732679583, -0.19315784645673, 0
469, 0.82798352624862, -0.16591482366812, 0
470, 0.95483835276977, -0.19388467633719, 0
471, 0.073571107736817, 0.11482064778959, 0
472, 0.048852238607745, 0.16741795156672, 0
473, 0.23919943461626, 0.17881314466745, 0
474, 0.12532799839325, 0.064152474639348, 0
475, 0.052904188792976, -0.10812792722258, 0
476, 0.074338585483111, 0.087696369837378, 0
477, 0.84646456945669, 0.15111366014337, 0
478, 0.84906669011611, 0.07742215324505, 0
479, 0.72529854985626, 0.25625656898366, 0
480, 0.84289108496803, 0.061877393355416, 0
481, 0.51025250716889, 0.26396330788682, 0
482, 0.49883688382046, 0.28296661557763, 0
483, 0.51501079856192, 0.28110353401396, 0
484, 0.82682410835229, -0.13585966402048, 0
485, 0.89595465081131, -0.13928861339281, 0
486, 0.57069887635602, -0.27803119390886, 0
487, 0.33931022092714, -0.28308268567564, 0
488, 0.52078734195485, -0.28654968481222, 0
489, 0.74043608042904, -0.26701708532495, 0
490, 0.76843552204786, -0.26955888510415, 0
491, 0.29090049943363, -0.28125451443823, 0
492, 0.41654966540067, 0.2770889759983, 0
493, 0.46125096999674, 0.27555212665742, 0
494, 0.43942083609564, 0.27535588928027, 0
495, 0.073371121858104, 0.19501990266005, 0
496, 0.049646353915869, 0.086175872615248, 0
497, 0.078358219701569, -0.050998492345713, 0
498, 0.71333981245183, -0.26683485115026, 0
499, 0.024852112114941, 0.084813419287546, 0
500, 0.24306690997862, 0.017123877691436, 0
501, 0.36364827778406, 0.27944811422808, 0
502, 0.39056316440767, 0.27884868610448, 0
503, 0.13432100628186, -0.19326527096749, 0
504, 0.16104725008159, -0.22242448801343, 0
505, 0.10656143880105, -0.21980187546491, 0
506, 0.13365854863695, -0.22075967557553, 0
507, 0.35904002463906, -0.19645583324285, 0
508, 0.24335414428376, -0.23407427013859, 0
509, 0.87518149314235, -0.12622631362727, 0
510, 0.97738704523455, -0.19381489501218, 0
511, 0.049507768598771, 0.22081175913327, 0
512, 0.079853664321226, -0.13580143676446, 0
513, 0.050132902054921, 0.24730025601964, 0
514, 0.049182273836124, 0.11341962080006, 0
515, 0.12143113863377, 0.11814409418007, 0
516, 0.22982626051266, -0.064258261484189, 0
517, 0.098876613988081, 0.08940431962916, 0
518, 0.19043413598845, -0.19842133258532, 0
519, 0.2163255508864, -0.22903110824388, 0
520, 0.18868956327233, -0.22509511964407, 0
521, 0.82992448581045, -0.033776848708356, 0
522, 0.81126462964184, -0.075023236350979, 0
523, 0.95707521301792, -0.14242444294155, 0
524, 0.16255469144581, -0.16639135820203, 0
525, 0.19110062311009, -0.13727882132935, 0
526, 0.19170150806385, -0.1695438334871, 0
527, 0.17328228653692, 0.24991755478872, 0
528, 0.15329468783819, 0.038824590895872, 0
529, 0.59366435414936, -0.24599804460673, 0
530, 0.59846926111333, -0.27290141742355, 0
531, 0.75411346023307, -0.027014737384524, 0
532, 0.93538536217999, -0.095589633552892, 0
533, 0.48629221963162, 0.26153957632129, 0
534, 0.49917397270303, 0.24834107796123, 0
535, 0.31656113634053, -0.1724590012672, 0
536, 0.87243830764623, 0.16200143892608, 0
537, 0.85276948771492, 0.12345631374198, 0
538, 0.33622845253966, 0.27829533028628, 0
539, 0.72844397361837, -0.0012674053434434, 0
540, 0.079998480916548, -0.19184308156078, 0
541, 0.079714205717857, -0.21932970338596, 0
542, 0.052215899417063, -0.052284197811703, 0
543, 0.17068676245536, 0.096367452616724, 0
544, 0.073027529996746, 0.16845816483871, 0
545, 0.38777110673183, -0.28260384393314, 0
546, 0.55607137726723, 0.21480359269163, 0
547, 0.66226471552259, 0.22448359215443, 0
548, 0.86417205622063, 0.079958594816079, 0
549, 0.80861094981078, 0.091172772576119, 0
550, 0.14607009140686, 0.22376776229827, 0
551, 0.10708197229663, -0.16419498500871, 0
552, 0.080051497684277, -0.16397385508977, 0
553, 0.48202197742285, 0.28027888401746, 0
554, 0.86123188996182, -0.059683732176503, 0
555, 0.80587518200457, -0.19601428426276, 0
556, 0.93614014316936, -0.14294739942103, 0
557, 0.8946618784865, -0.10697087335382, 0
558, 0.5821811490791, -0.22428118588569, 0
559, 0.15317065343416, 0.27470958099758, 0
560, 0.18225700235167, 0.013180827979742, 0
561, 0.025897700861605, -0.02593923508698, 0
562, 0.19315866085652, 0.099863229350994, 0
563, 0.18274198063019, -0.043441310913454, 0
564, 0.025121184794174, 0.05726656324107, 0
565, 0.20464864847807, 0.17644519186645, 0
566, 0.18733110932189, 0.2004494495551, 0
567, 0.92277380283252, 0.20684693911052, 0
568, 0.86827902343405, 0.22830205910771, 0
569, 0.8764932638311, 0.13338029222948, 0
570, 0.6980682161077, 0.25905434179858, 0
571, 0.89642857755392, 0.20112913291843, 0
572, 0.33502406838137, -0.26653698595335, 0
573, 0.25157684903916, -0.18904421325312, 0
574, 0.13397973558045, -0.13566242984868, 0
575, 0.2030724577628, 0.073144276313191, 0
576, 0.2355641690411, 0.079210720512119, 0
577, 0.14287192734563, 0.17225310107178, 0
578, 0.21080264642887, -0.10043758907764, 0
579, 0.15615988476188, -0.017392750002434, 0
580, 0.12986280357814, -0.019489843608715, 0
581, 0.13449610663272, -0.16488032254279, 0
582, 0.71533970492238, 0.21309578726689, 0
583, 0.78562380624608, 0.063998459619138, 0
584, 0.025400444660335, 0.029600636902134, 0
585, 0.24507027948684, 0.20499201152235, 0
586, 0.12251320986, 0.22291816004063, 0
587, 0.88207708199482, 0.005934330955504, 0
588, 0.74307206826019, 0.20376497712906, 0
589, 0.8592735811196, 0.033744589996692, 0
590, 0.33281872073985, -0.25100882911406, 0
591, 0.77261424551885, 0.19022933261239, 0
592, 0.75718322259651, 0.11060434290889, 0
593, 0.88307028666109, 0.034204434546123, 0
594, 0.89823767753252, 0.17024471437534, 0
595, 0.81276025158451, 0.16867208990788, 0
596, 0.79497233706448, -0.22051195287244, 0
597, 0.88538600235616, -0.053054003148139, 0
598, 0.61177833952213, 0.23264990027417, 0
599, 0.55174399680113, 0.27508810774374, 0
600, 0.60154275305077, 0.19742180218665, 0
601, 0.80894635877818, 0.046035439575345, 0
602, 0.12094210632212, 0.19697593667921, 0
603, 0.67142703514078, 0.26158266520258, 0
604, 0.84165040387348, 0.18367097008692, 0
605, 0.86096871130996, -0.21934124440748, 0
606, 0.95662044179566, -0.092275621548471, 0
607, 0.049061400589753, 0.19419471268915, 0
608, 0.19698641699309, 0.25053362181301, 0
609, 0.024780666517137, 0.22029031608508, 0
610, 0.25452661908242, 0.27545090039242, 0
611, 0.93181444368049, -0.04317878092428, 0
612, 0.97773770182944, -0.062842948284645, 0
613, 0.78373473739751, 0.14487051826517, 0
614, 0.81668100410682, -0.22015891522936, 0
615, 0.18528228058644, 0.17510966250252, 0
616, 0.22414392698879, 0.12944573982918, 0
617, 0.97821293764615, -0.089449251195055, 0
618, 0.29131351947473, -0.26256900119144, 0
619, 0.16607639351062, 0.19924582808914, 0
620, 0.83004550927051, 0.11032759917686, 0
621, 0.97801856993901, -0.16752665524461, 0
622, 0.31437614518875, -0.24819809956696, 0
623, 0.074108654438149, 0.22142923128743, 0
624, 0.90648101201503, 0.03645494469992, 0
625, 0.10008103258822, 0.248186941023, 0
626, 0.6366277507338, 0.22848057242538, 0
627, 0.48963681799004, -0.27136754834869, 0
628, 0.315692325465, -0.28250148421059, 0
629, 0.90566904353295, 0.088401564746453, 0
630, 0.80735836122426, -0.14040252028639, 0
631, 0.86691616770991, -0.090771465954476, 0
632, 0.90678815200124, -0.21975906655718, 0
633, 0.93450369926018, -0.16781468258027, 0
634, 0.97843720540665, -0.14146687332646, 0
635, 0.84469103875567, -0.19256782274453, 0
636, 0.97661599253326, -0.22026631797069, 0
637, 0.025072676981522, 0.24697718357533, 0
638, 0.025396195025577, 0.2735135754358, 0
639, 0.23917447068926, -0.010010423044227, 0
640, 0.20762942677192, -0.069150283545435, 0
641, 0.1833797646079, -0.072707045439525, 0
642, 0.15781388597219, -0.075104939405274, 0
643, 0.13165382145679, -0.076790526420665, 0
644, 0.10530029472509, -0.078089241672131, 0
645, 0.078925510043947, -0.079184394881286, 0
646, 0.052585080294612, -0.080166347998865, 0
647, 0.02628255149391, -0.081063165992706, 0
648, 0.24225485986827, 0.046117453510774, 0
649, 0.24039768239754, 0.1275667785432, 0
650, 0.21335075146362, 0.10465731105485, 0
651, 0.22676070023002, 0.203125583315, 0
652, 0.23363484221863, -0.036716322553871, 0
653, 0.20756286647691, 0.20170661302617, 0
654, 0.23819171224154, 0.15245970979015, 0
655, 0.20710688350504, 0.12741504457446, 0
656, 0.22050506126493, 0.25108477155251, 0
657, 0.2220108330704, 0.15247450624656, 0
658, 0.25573434971479, 0.22907090782836, 0
659, 0.22263195192616, 0.17764043479396, 0
660, 0.20448305718279, 0.15144353067494, 0
661, 0.28434476282106, -0.17987170250965, 0
662, 0.30821981841968, -0.19005567970638, 0
663, 0.32968637146788, -0.19991178087796, 0
664, 0.34819181279556, -0.21098501210143, 0
665, 0.24685252797403, -0.21168683899365, 0
666, 0.27267060583653, -0.21910428266776, 0
667, 0.29618099836647, -0.22582251972684, 0
668, 0.31683750224307, -0.23188800012368, 0
669, 0.3336435959373, -0.23706072006283, 0
670, 0.35279748253083, -0.23323571273188, 0
671, 0.3481912277908, -0.25113964323815, 0
672, 0.37514825384276, -0.21307428914126, 0
673, 0.37752133199914, -0.24000623209803, 0
674, 0.41060508207294, -0.25426373800267, 0
675, 0.53999775000815, -0.26605305607746, 0
676, 0.51655464426532, -0.27403259053238, 0
677, 0.49303834807201, -0.28012441056459, 0
678, 0.46834437898535, -0.28309474863963, 0
679, 0.44152332334981, -0.28064963292043, 0
680, 0.37534017873232, -0.26392878684633, 0
681, 0.36266295809523, -0.28281091500877, 0
682, 0.41655180195593, -0.28493753207983, 0
683, 0.34487236905346, -0.24050194968567, 0
684, 0.36352990450147, -0.22387551539963, 0
685, 0.35448749949964, -0.26604590282493, 0
686, 0.4045946400108, -0.26461212603911, 0
******* E L E M E N T S *************
*ELEMENT, type=T3D2, ELSET=Line1
1, 1, 10
2, 10, 18
3, 18, 11
4, 11, 19
5, 19, 12
6, 12, 20
7, 20, 13
8, 13, 21
9, 21, 14
10, 14, 22
11, 22, 15
12, 15, 23
13, 23, 16
14, 16, 24
15, 24, 17
16, 17, 2
*ELEMENT, type=T3D2, ELSET=Line2
17, 2, 25
18, 25, 28
19, 28, 26
20, 26, 29
21, 29, 27
22, 27, 3
*ELEMENT, type=T3D2, ELSET=Line3
23, 3, 30
24, 30, 38
25, 38, 31
26, 31, 39
27, 39, 32
28, 32, 40
29, 40, 33
30, 33, 41
31, 41, 34
32, 34, 42
33, 42, 35
34, 35, 43
35, 43, 36
36, 36, 44
37, 44, 37
38, 37, 4
*ELEMENT, type=T3D2, ELSET=Line4
39, 4, 45
40, 45, 56
41, 56, 46
42, 46, 57
43, 57, 47
44, 47, 58
45, 58, 48
46, 48, 59
47, 59, 49
48, 49, 60
49, 60, 50
50, 50, 61
51, 61, 51
52, 51, 62
53, 62, 52
54, 52, 63
55, 63, 53
56, 53, 64
57, 64, 54
58, 54, 65
59, 65, 55
60, 55, 5
*ELEMENT, type=T3D2, ELSET=Line5
61, 5, 66
62, 66, 74
63, 74, 67
64, 67, 75
65, 75, 68
66, 68, 76
67, 76, 69
68, 69, 77
69, 77, 70
70, 70, 78
71, 78, 71
72, 71, 79
73, 79, 72
74, 72, 80
75, 80, 73
76, 73, 6
*ELEMENT, type=T3D2, ELSET=Line6
77, 6, 81
78, 81, 85
79, 85, 82
80, 82, 86
81, 86, 83
82, 83, 87
83, 87, 84
84, 84, 7
*ELEMENT, type=T3D2, ELSET=Line7
85, 7, 88
86, 88, 96
87, 96, 89
88, 89, 97
89, 97, 90
90, 90, 98
91, 98, 91
92, 91, 99
93, 99, 92
94, 92, 100
95, 100, 93
96, 93, 101
97, 101, 94
98, 94, 102
99, 102, 95
100, 95, 8
*ELEMENT, type=T3D2, ELSET=Line8
101, 8, 103
102, 103, 114
103, 114, 104
104, 104, 115
105, 115, 105
106, 105, 116
107, 116, 106
108, 106, 117
109, 117, 107
110, 107, 118
111, 118, 108
112, 108, 119
113, 119, 109
114, 109, 120
115, 120, 110
116, 110, 121
117, 121, 111
118, 111, 122
119, 122, 112
120, 112, 123
121, 123, 113
122, 113, 1
*ELEMENT, type=T3D2, ELSET=Line9
123, 9, 124
124, 124, 158
125, 158, 156
126, 156, 159
127, 159, 155
128, 155, 160
129, 160, 154
130, 154, 161
131, 161, 153
132, 153, 162
133, 162, 152
134, 152, 163
135, 163, 151
136, 151, 164
137, 164, 150
138, 150, 165
139, 165, 149
140, 149, 166
141, 166, 148
142, 148, 167
143, 167, 147
144, 147, 168
145, 168, 146
146, 146, 169
147, 169, 145
148, 145, 170
149, 170, 144
150, 144, 171
151, 171, 143
152, 143, 172
153, 172, 142
154, 142, 173
155, 173, 141
156, 141, 174
157, 174, 140
158, 140, 175
159, 175, 139
160, 139, 176
161, 176, 138
162, 138, 177
163, 177, 137
164, 137, 178
165, 178, 136
166, 136, 179
167, 179, 135
168, 135, 180
169, 180, 134
170, 134, 181
171, 181, 133
172, 133, 182
173, 182, 132
174, 132, 183
175, 183, 131
176, 131, 184
177, 184, 130
178, 130, 185
179, 185, 129
180, 129, 186
181, 186, 128
182, 128, 187
183, 187, 127
184, 127, 188
185, 188, 126
186, 126, 189
187, 189, 125
188, 125, 190
189, 190, 157
190, 157, 9
*ELEMENT, type=CPS4, ELSET=Surface1
191, 364, 286, 182, 133
192, 622, 668, 667, 389
193, 302, 309, 666, 667
194, 673, 684, 670, 312
195, 168, 288, 289, 315
196, 576, 400, 212, 650
197, 597, 266, 263, 267
198, 606, 258, 436, 617
199, 271, 636, 510, 470
200, 328, 285, 587, 262
201, 77, 323, 324, 69
202, 69, 324, 321, 76
203, 591, 245, 592, 613
204, 588, 582, 250, 240
205, 327, 326, 483, 481
206, 547, 626, 280, 325
207, 587, 254, 624, 593
208, 318, 246, 531, 391
209, 509, 631, 372, 374
210, 636, 46, 57, 510
211, 611, 437, 265, 269
212, 42, 333, 334, 34
213, 34, 334, 331, 41
214, 334, 332, 199, 331
215, 333, 200, 332, 334
216, 121, 111, 338, 335
217, 335, 338, 336, 226
218, 338, 337, 221, 336
219, 111, 122, 337, 338
220, 543, 298, 575, 562
221, 339, 643, 642, 376
222, 560, 370, 300, 399
223, 291, 542, 497, 210
224, 43, 343, 344, 35
225, 35, 344, 333, 42
226, 344, 342, 200, 333
227, 343, 268, 342, 344
228, 193, 347, 348, 345
229, 345, 348, 346, 196
230, 348, 13, 21, 346
231, 347, 20, 13, 348
232, 255, 351, 352, 349
233, 349, 352, 350, 253
234, 352, 51, 62, 350
235, 351, 61, 51, 352
236, 63, 53, 356, 353
237, 353, 356, 354, 249
238, 356, 355, 238, 354
239, 53, 64, 355, 356
240, 63, 353, 358, 52
241, 52, 358, 350, 62
242, 358, 357, 253, 350
243, 353, 249, 357, 358
244, 19, 361, 362, 11
245, 11, 362, 359, 18
246, 362, 360, 192, 359
247, 361, 194, 360, 362
248, 457, 302, 667, 668
249, 663, 662, 302, 457
250, 672, 507, 664, 684
251, 508, 665, 222, 519
252, 233, 291, 210, 214
253, 92, 205, 433, 99
254, 213, 643, 644, 462
255, 586, 602, 369, 550
256, 316, 515, 414, 384
257, 365, 645, 646, 475
258, 497, 645, 644, 403
259, 631, 266, 597, 554
260, 612, 617, 59, 49
261, 391, 531, 190, 125
262, 587, 285, 458, 254
263, 335, 218, 110, 121
264, 441, 647, 646, 542
265, 315, 289, 610, 314
266, 472, 415, 207, 544
267, 194, 361, 378, 377
268, 377, 378, 347, 193
269, 378, 12, 20, 347
270, 361, 19, 12, 378
271, 1, 10, 380, 113
272, 113, 380, 379, 123
273, 380, 359, 192, 379
274, 10, 18, 359, 380
275, 479, 78, 71, 570
276, 407, 408, 599, 198
277, 431, 72, 80, 383
278, 454, 478, 548, 420
279, 473, 585, 651, 659
280, 94, 228, 396, 101
281, 561, 441, 542, 291
282, 169, 146, 658, 585
283, 416, 202, 387, 602
284, 660, 657, 659, 565
285, 223, 578, 290, 525
286, 511, 607, 495, 623
287, 448, 535, 662, 663
288, 590, 669, 668, 622
289, 177, 138, 535, 448
290, 257, 633, 556, 460
291, 596, 128, 186, 308
292, 484, 630, 307, 469
293, 392, 269, 264, 425
294, 43, 36, 395, 343
295, 343, 395, 393, 268
296, 395, 394, 270, 393
297, 36, 44, 394, 395
298, 215, 233, 214, 413
299, 197, 231, 223, 301
300, 340, 367, 405, 386
301, 371, 610, 98, 91
302, 396, 625, 278, 299
303, 576, 143, 171, 400
304, 341, 388, 294, 528
305, 608, 656, 371, 433
306, 528, 294, 560, 385
307, 578, 640, 641, 290
308, 615, 565, 653, 566
309, 576, 648, 172, 143
310, 654, 473, 659, 657
311, 384, 414, 367, 340
312, 325, 280, 153, 161
313, 279, 547, 325, 243
314, 77, 70, 410, 323
315, 324, 237, 251, 321
316, 242, 407, 546, 382
317, 44, 37, 412, 394
318, 394, 412, 411, 270
319, 412, 45, 56, 411
320, 37, 4, 45, 412
321, 579, 376, 563, 370
322, 525, 290, 406, 225
323, 516, 640, 578, 206
324, 527, 295, 203, 608
325, 64, 54, 419, 355
326, 355, 419, 417, 238
327, 419, 418, 239, 417
328, 54, 65, 418, 419
329, 463, 549, 620, 252
330, 477, 537, 569, 536
331, 422, 68, 76, 321
332, 421, 75, 68, 422
333, 65, 55, 424, 418
334, 418, 424, 423, 239
335, 424, 66, 74, 423
336, 55, 5, 66, 424
337, 509, 374, 446, 459
338, 458, 267, 611, 444
339, 631, 554, 330, 372
340, 320, 271, 470, 273
341, 122, 112, 428, 337
342, 337, 428, 427, 221
343, 428, 379, 192, 427
344, 112, 123, 379, 428
345, 546, 297, 151, 163
346, 598, 383, 430, 242
347, 536, 569, 429, 594
348, 626, 431, 383, 598
349, 313, 234, 298, 543
350, 577, 384, 340, 277
351, 398, 215, 413, 227
352, 294, 579, 370, 560
353, 268, 393, 320, 632
354, 265, 606, 617, 612
355, 621, 47, 58, 634
356, 630, 188, 127, 307
357, 239, 423, 439, 438
358, 549, 292, 454, 620
359, 439, 67, 75, 421
360, 423, 74, 67, 439
361, 145, 169, 585, 473
362, 649, 654, 657, 616
363, 229, 403, 339, 580
364, 623, 495, 416, 211
365, 509, 557, 266, 631
366, 434, 444, 392, 255
367, 510, 57, 47, 621
368, 444, 611, 269, 392
369, 195, 364, 133, 181
370, 23, 628, 491, 15
371, 138, 176, 236, 535
372, 628, 311, 618, 491
373, 249, 354, 452, 450
374, 583, 306, 246, 601
375, 354, 238, 451, 452
376, 249, 450, 455, 357
377, 357, 455, 453, 253
378, 251, 604, 244, 568
379, 582, 479, 570, 279
380, 684, 664, 447, 670
381, 671, 683, 669, 590
382, 662, 661, 309, 302
383, 236, 197, 301, 661
384, 459, 261, 426, 373
385, 556, 523, 258, 256
386, 485, 460, 284, 329
387, 273, 470, 319, 633
388, 413, 214, 404, 230
389, 476, 227, 375, 517
390, 591, 323, 410, 588
391, 464, 349, 253, 453
392, 434, 255, 349, 464
393, 184, 466, 467, 130
394, 130, 467, 465, 185
395, 467, 31, 39, 465
396, 466, 38, 31, 467
397, 426, 468, 257, 373
398, 605, 200, 342, 445
399, 614, 596, 308, 199
400, 270, 411, 636, 271
401, 227, 413, 230, 375
402, 207, 471, 201, 366
403, 475, 646, 647, 218
404, 367, 543, 562, 405
405, 562, 650, 655, 405
406, 290, 641, 642, 406
407, 214, 210, 229, 404
408, 658, 315, 314, 402
409, 568, 244, 571, 293
410, 569, 282, 322, 429
411, 248, 247, 629, 381
412, 293, 571, 567, 438
413, 570, 71, 79, 603
414, 383, 80, 73, 430
415, 250, 243, 154, 160
416, 600, 382, 152, 162
417, 481, 483, 482, 209
418, 483, 82, 86, 482
419, 307, 127, 187, 555
420, 630, 259, 126, 188
421, 460, 556, 256, 284
422, 554, 597, 285, 328
423, 312, 670, 683, 671
424, 16, 487, 628, 23
425, 309, 573, 665, 666
426, 661, 301, 573, 309
427, 199, 308, 490, 331
428, 331, 490, 33, 41
429, 490, 489, 40, 33
430, 308, 186, 489, 490
431, 507, 448, 663, 664
432, 287, 508, 519, 196
433, 686, 674, 276, 673
434, 139, 175, 231, 197
435, 165, 493, 494, 149
436, 149, 494, 492, 166
437, 494, 84, 7, 492
438, 493, 87, 84, 494
439, 559, 440, 527, 205
440, 100, 559, 205, 92
441, 496, 398, 227, 476
442, 386, 660, 565, 615
443, 40, 489, 498, 32
444, 32, 498, 465, 39
445, 498, 129, 185, 465
446, 489, 186, 129, 498
447, 400, 649, 616, 212
448, 461, 474, 234, 313
449, 512, 365, 475, 226
450, 403, 644, 643, 339
451, 166, 492, 502, 148
452, 148, 502, 501, 167
453, 502, 88, 96, 501
454, 492, 7, 88, 502
455, 220, 505, 506, 503
456, 503, 506, 504, 219
457, 506, 377, 193, 504
458, 505, 194, 377, 506
459, 685, 671, 590, 572
460, 22, 304, 235, 14
461, 681, 685, 572, 487
462, 670, 447, 669, 683
463, 635, 317, 614, 260
464, 266, 557, 435, 263
465, 523, 634, 436, 258
466, 555, 187, 128, 596
467, 405, 655, 660, 386
468, 385, 560, 399, 368
469, 206, 578, 223, 231
470, 204, 513, 397, 228
471, 516, 206, 140, 174
472, 93, 299, 559, 100
473, 210, 497, 403, 229
474, 648, 500, 142, 172
475, 219, 504, 520, 518
476, 518, 520, 519, 222
477, 520, 345, 196, 519
478, 504, 193, 345, 520
479, 393, 270, 271, 320
480, 521, 272, 246, 318
481, 261, 605, 445, 426
482, 459, 446, 635, 261
483, 219, 518, 526, 524
484, 524, 526, 525, 225
485, 526, 274, 223, 525
486, 518, 222, 274, 526
487, 289, 90, 98, 610
488, 201, 517, 461, 515
489, 224, 462, 365, 512
490, 295, 619, 566, 203
491, 38, 466, 530, 30
492, 30, 530, 486, 3
493, 530, 529, 191, 486
494, 466, 184, 529, 530
495, 443, 391, 125, 189
496, 254, 458, 444, 434
497, 632, 320, 273, 468
498, 532, 256, 258, 606
499, 626, 598, 600, 280
500, 150, 534, 533, 165
501, 534, 481, 209, 533
502, 24, 681, 487, 16
503, 178, 137, 507, 672
504, 303, 666, 665, 508
505, 573, 274, 222, 665
506, 588, 410, 479, 582
507, 198, 599, 326, 327
508, 167, 501, 538, 147
509, 147, 538, 288, 168
510, 538, 89, 97, 288
511, 501, 96, 89, 538
512, 9, 157, 539, 124
513, 124, 539, 306, 158
514, 539, 531, 246, 306
515, 157, 190, 531, 539
516, 221, 427, 541, 540
517, 540, 541, 505, 220
518, 541, 360, 194, 505
519, 427, 192, 360, 541
520, 370, 563, 432, 300
521, 205, 527, 608, 433
522, 585, 658, 402, 651
523, 515, 461, 313, 414
524, 639, 652, 141, 173
525, 440, 550, 295, 527
526, 415, 514, 471, 207
527, 653, 651, 402, 442
528, 137, 177, 448, 507
529, 389, 667, 666, 303
530, 618, 389, 303, 305
531, 14, 235, 346, 21
532, 430, 73, 6, 408
533, 382, 546, 163, 152
534, 601, 246, 272, 281
535, 240, 250, 160, 155
536, 237, 595, 604, 251
537, 321, 251, 568, 422
538, 298, 385, 368, 575
539, 565, 659, 651, 653
540, 369, 577, 277, 619
541, 220, 551, 552, 540
542, 540, 552, 336, 221
543, 552, 512, 226, 336
544, 551, 224, 512, 552
545, 87, 493, 553, 83
546, 83, 553, 482, 86
547, 553, 533, 209, 482
548, 493, 165, 533, 553
549, 437, 532, 606, 265
550, 261, 635, 260, 605
551, 267, 263, 437, 611
552, 283, 522, 443, 259
553, 509, 485, 329, 557
554, 374, 484, 469, 446
555, 328, 262, 272, 521
556, 617, 436, 48, 59
557, 191, 529, 558, 286
558, 286, 558, 132, 182
559, 558, 131, 183, 132
560, 529, 184, 131, 558
561, 206, 231, 175, 140
562, 563, 641, 640, 432
563, 375, 230, 341, 474
564, 650, 212, 616, 655
565, 376, 642, 641, 563
566, 514, 496, 476, 471
567, 234, 528, 385, 298
568, 225, 406, 213, 574
569, 238, 417, 567, 451
570, 245, 159, 156, 592
571, 592, 156, 158, 409
572, 417, 239, 438, 567
573, 624, 464, 453, 247
574, 463, 409, 583, 549
575, 245, 240, 155, 159
576, 591, 237, 324, 323
577, 599, 81, 85, 326
578, 311, 622, 389, 618
579, 500, 399, 300, 639
580, 686, 673, 312, 680
581, 462, 644, 645, 365
582, 513, 511, 623, 397
583, 602, 387, 577, 369
584, 607, 472, 544, 495
585, 397, 623, 211, 625
586, 101, 396, 299, 93
587, 387, 316, 384, 577
588, 171, 144, 649, 400
589, 655, 616, 657, 660
590, 576, 650, 562, 575
591, 225, 574, 581, 524
592, 524, 581, 503, 219
593, 581, 551, 220, 503
594, 574, 224, 551, 581
595, 613, 592, 409, 463
596, 281, 589, 241, 480
597, 593, 624, 247, 248
598, 613, 463, 252, 595
599, 277, 340, 386, 615
600, 474, 341, 528, 234
601, 146, 168, 315, 658
602, 299, 278, 440, 559
603, 574, 213, 462, 224
604, 648, 368, 399, 500
605, 282, 381, 629, 322
606, 480, 241, 548, 478
607, 247, 453, 455, 629
608, 421, 293, 438, 439
609, 572, 590, 622, 311
610, 447, 457, 668, 669
611, 487, 572, 311, 628
612, 276, 136, 178, 672
613, 537, 420, 282, 569
614, 292, 480, 478, 454
615, 595, 252, 477, 604
616, 292, 601, 281, 480
617, 594, 429, 452, 451
618, 425, 264, 60, 50
619, 330, 521, 318, 522
620, 285, 597, 267, 458
621, 634, 58, 48, 436
622, 591, 613, 595, 237
623, 242, 430, 408, 407
624, 598, 242, 382, 600
625, 279, 570, 603, 547
626, 591, 588, 240, 245
627, 254, 434, 464, 624
628, 297, 296, 164, 151
629, 656, 314, 610, 371
630, 278, 586, 550, 440
631, 326, 85, 82, 483
632, 479, 410, 70, 78
633, 296, 534, 150, 164
634, 280, 600, 162, 153
635, 272, 262, 589, 281
636, 409, 158, 306, 583
637, 620, 454, 420, 537
638, 422, 568, 293, 421
639, 263, 435, 532, 437
640, 468, 273, 633, 257
641, 319, 621, 634, 523
642, 373, 257, 460, 485
643, 471, 476, 517, 201
644, 388, 580, 579, 294
645, 625, 211, 586, 278
646, 580, 339, 376, 579
647, 619, 277, 615, 566
648, 517, 375, 474, 461
649, 652, 432, 640, 516
650, 404, 229, 580, 388
651, 351, 425, 50, 61
652, 255, 392, 425, 351
653, 372, 330, 522, 283
654, 264, 612, 49, 60
655, 322, 629, 455, 450
656, 469, 307, 555, 317
657, 605, 260, 332, 200
658, 374, 372, 283, 484
659, 435, 284, 256, 532
660, 589, 593, 248, 241
661, 582, 279, 243, 250
662, 604, 477, 536, 244
663, 244, 536, 594, 571
664, 652, 516, 174, 141
665, 406, 642, 643, 213
666, 433, 371, 91, 99
667, 198, 327, 296, 297
668, 571, 594, 451, 567
669, 407, 198, 297, 546
670, 495, 544, 202, 416
671, 305, 303, 508, 287
672, 102, 204, 228, 94
673, 542, 646, 645, 497
674, 566, 653, 442, 203
675, 544, 207, 366, 202
676, 226, 475, 218, 335
677, 218, 647, 120, 110
678, 633, 319, 523, 556
679, 509, 459, 373, 485
680, 269, 265, 612, 264
681, 664, 663, 457, 447
682, 674, 179, 136, 276
683, 301, 223, 274, 573
684, 442, 402, 314, 656
685, 576, 575, 368, 648
686, 228, 397, 625, 396
687, 327, 481, 534, 296
688, 408, 6, 81, 599
689, 547, 603, 431, 626
690, 262, 587, 593, 589
691, 241, 248, 381, 548
692, 522, 318, 391, 443
693, 446, 469, 317, 635
694, 554, 328, 521, 330
695, 680, 312, 671, 685
696, 15, 491, 304, 22
697, 535, 236, 661, 662
698, 639, 300, 432, 652
699, 500, 639, 173, 142
700, 203, 442, 656, 608
701, 202, 366, 316, 387
702, 211, 416, 602, 586
703, 549, 583, 601, 292
704, 252, 620, 537, 477
705, 414, 313, 543, 367
706, 170, 145, 473, 654
707, 550, 369, 619, 295
708, 603, 79, 72, 431
709, 243, 325, 161, 154
710, 288, 97, 90, 289
711, 366, 201, 515, 316
712, 230, 404, 388, 341
713, 235, 287, 196, 346
714, 176, 139, 197, 236
715, 673, 276, 672, 684
716, 304, 305, 287, 235
717, 491, 618, 305, 304
718, 144, 170, 654, 649
719, 420, 548, 381, 282
720, 429, 322, 450, 452
721, 260, 614, 199, 332
722, 411, 56, 46, 636
723, 484, 283, 259, 630
724, 259, 443, 189, 126
725, 557, 329, 284, 435
726, 317, 555, 596, 614
727, 445, 632, 468, 426
728, 470, 510, 621, 319
729, 342, 268, 632, 445
730, 208, 561, 291, 233
731, 584, 208, 233, 215
732, 564, 584, 215, 398
733, 499, 564, 398, 496
734, 217, 499, 496, 514
735, 401, 217, 514, 415
736, 232, 401, 415, 472
737, 216, 232, 472, 607
738, 609, 216, 607, 511
739, 637, 609, 511, 513
740, 638, 637, 513, 204
741, 95, 638, 204, 102
742, 109, 120, 647, 441
743, 119, 109, 441, 561
744, 108, 119, 561, 208
745, 118, 108, 208, 584
746, 107, 118, 584, 564
747, 117, 107, 564, 499
748, 106, 117, 499, 217
749, 116, 106, 217, 401
750, 105, 116, 401, 232
751, 115, 105, 232, 216
752, 104, 115, 216, 609
753, 114, 104, 609, 637
754, 103, 114, 637, 638
755, 8, 103, 638, 95
756, 627, 195, 181, 134
757, 456, 627, 134, 180
758, 275, 456, 180, 135
759, 674, 275, 135, 179
760, 675, 191, 286, 364
761, 676, 675, 364, 195
762, 677, 676, 195, 627
763, 678, 677, 627, 456
764, 679, 678, 456, 275
765, 686, 679, 275, 674
766, 363, 27, 3, 486
767, 675, 363, 486, 191
768, 488, 29, 27, 363
769, 676, 488, 363, 675
770, 449, 26, 29, 488
771, 677, 449, 488, 676
772, 310, 28, 26, 449
773, 678, 310, 449, 677
774, 390, 25, 28, 310
775, 679, 390, 310, 678
776, 682, 2, 25, 390
777, 686, 682, 390, 679
778, 545, 681, 24, 17
779, 682, 545, 17, 2
780, 680, 685, 681, 545
781, 686, 680, 545, 682
*ELSET,ELSET=contact_source
101, 102, 103, 104, 105, 106, 107, 108, 109, 110, 
111, 112, 113, 114, 115, 116, 117, 118, 119, 120, 
121, 122, 
*ELSET,ELSET=contact_drain
39, 40, 41, 42, 43, 44, 45, 46, 47, 48, 
49, 50, 51, 52, 53, 54, 55, 56, 57, 58, 
59, 60, 
*ELSET,ELSET=probe_A
77, 78, 79, 80, 81, 82, 83, 84, 
*ELSET,ELSET=probe_B
17, 18, 19, 20, 21, 22, 
*ELSET,ELSET=walls
1, 2, 3, 4, 5, 6, 7, 8, 9, 10, 
11, 12, 13, 14, 15, 16, 23, 24, 25, 26, 
27, 28, 29, 30, 31, 32, 33, 34, 35, 36, 
37, 38, 61, 62, 63, 64, 65, 66, 67, 68, 
69, 70, 71, 72, 73, 74, 75, 76, 85, 86, 
87, 88, 89, 90, 91, 92, 93, 94, 95, 96, 
97, 98, 99, 100, 123, 124, 125, 126, 127, 128, 
129, 130, 131, 132, 133, 134, 135, 136, 137, 138, 
139, 140, 141, 142, 143, 144, 145, 146, 147, 148, 
149, 150, 151, 152, 153, 154, 155, 156, 157, 158, 
159, 160, 161, 162, 163, 164, 165, 166, 167, 168, 
169, 170, 171, 172, 173, 174, 175, 176, 177, 178, 
179, 180, 181, 182, 183, 184, 185, 186, 187, 188, 
189, 190, 
*ELSET,ELSET=domain
191, 192, 193, 194, 195, 196, 197, 198, 199, 200, 
201, 202, 203, 204, 205, 206, 207, 208, 209, 210, 
211, 212, 213, 214, 215, 216, 217, 218, 219, 220, 
221, 222, 223, 224, 225, 226, 227, 228, 229, 230, 
231, 232, 233, 234, 235, 236, 237, 238, 239, 240, 
241, 242, 243, 244, 245, 246, 247, 248, 249, 250, 
251, 252, 253, 254, 255, 256, 257, 258, 259, 260, 
261, 262, 263, 264, 265, 266, 267, 268, 269, 270, 
271, 272, 273, 274, 275, 276, 277, 278, 279, 280, 
281, 282, 283, 284, 285, 286, 287, 288, 289, 290, 
291, 292, 293, 294, 295, 296, 297, 298, 299, 300, 
301, 302, 303, 304, 305, 306, 307, 308, 309, 310, 
311, 312, 313, 314, 315, 316, 317, 318, 319, 320, 
321, 322, 323, 324, 325, 326, 327, 328, 329, 330, 
331, 332, 333, 334, 335, 336, 337, 338, 339, 340, 
341, 342, 343, 344, 345, 346, 347, 348, 349, 350, 
351, 352, 353, 354, 355, 356, 357, 358, 359, 360, 
361, 362, 363, 364, 365, 366, 367, 368, 369, 370, 
371, 372, 373, 374, 375, 376, 377, 378, 379, 380, 
381, 382, 383, 384, 385, 386, 387, 388, 389, 390, 
391, 392, 393, 394, 395, 396, 397, 398, 399, 400, 
401, 402, 403, 404, 405, 406, 407, 408, 409, 410, 
411, 412, 413, 414, 415, 416, 417, 418, 419, 420, 
421, 422, 423, 424, 425, 426, 427, 428, 429, 430, 
431, 432, 433, 434, 435, 436, 437, 438, 439, 440, 
441, 442, 443, 444, 445, 446, 447, 448, 449, 450, 
451, 452, 453, 454, 455, 456, 457, 458, 459, 460, 
461, 462, 463, 464, 465, 466, 467, 468, 469, 470, 
471, 472, 473, 474, 475, 476, 477, 478, 479, 480, 
481, 482, 483, 484, 485, 486, 487, 488, 489, 490, 
491, 492, 493, 494, 495, 496, 497, 498, 499, 500, 
501, 502, 503, 504, 505, 506, 507, 508, 509, 510, 
511, 512, 513, 514, 515, 516, 517, 518, 519, 520, 
521, 522, 523, 524, 525, 526, 527, 528, 529, 530, 
531, 532, 533, 534, 535, 536, 537, 538, 539, 540, 
541, 542, 543, 544, 545, 546, 547, 548, 549, 550, 
551, 552, 553, 554, 555, 556, 557, 558, 559, 560, 
561, 562, 563, 564, 565, 566, 567, 568, 569, 570, 
571, 572, 573, 574, 575, 576, 577, 578, 579, 580, 
581, 582, 583, 584, 585, 586, 587, 588, 589, 590, 
591, 592, 593, 594, 595, 596, 597, 598, 599, 600, 
601, 602, 603, 604, 605, 606, 607, 608, 609, 610, 
611, 612, 613, 614, 615, 616, 617, 618, 619, 620, 
621, 622, 623, 624, 625, 626, 627, 628, 629, 630, 
631, 632, 633, 634, 635, 636, 637, 638, 639, 640, 
641, 642, 643, 644, 645, 646, 647, 648, 649, 650, 
651, 652, 653, 654, 655, 656, 657, 658, 659, 660, 
661, 662, 663, 664, 665, 666, 667, 668, 669, 670, 
671, 672, 673, 674, 675, 676, 677, 678, 679, 680, 
681, 682, 683, 684, 685, 686, 687, 688, 689, 690, 
691, 692, 693, 694, 695, 696, 697, 698, 699, 700, 
701, 702, 703, 704, 705, 706, 707, 708, 709, 710, 
711, 712, 713, 714, 715, 716, 717, 718, 719, 720, 
721, 722, 723, 724, 725, 726, 727, 728, 729, 730, 
731, 732, 733, 734, 735, 736, 737, 738, 739, 740, 
741, 742, 743, 744, 745, 746, 747, 748, 749, 750, 
751, 752, 753, 754, 755, 756, 757, 758, 759, 760, 
761, 762, 763, 764, 765, 766, 767, 768, 769, 770, 
771, 772, 773, 774, 775, 776, 777, 778, 779, 780, 
781, 
*NSET,NSET=contact_source
1, 8, 103, 104, 105, 106, 107, 108, 109, 110, 
111, 112, 113, 114, 115, 116, 117, 118, 119, 120, 
121, 122, 123, 
*NSET,NSET=contact_drain
4, 5, 45, 46, 47, 48, 49, 50, 51, 52, 
53, 54, 55, 56, 57, 58, 59, 60, 61, 62, 
63, 64, 65, 
*NSET,NSET=probe_A
6, 7, 81, 82, 83, 84, 85, 86, 87, 
*NSET,NSET=probe_B
2, 3, 25, 26, 27, 28, 29, 
*NSET,NSET=walls
1, 2, 3, 4, 5, 6, 7, 8, 9, 10, 
11, 12, 13, 14, 15, 16, 17, 18, 19, 20, 
21, 22, 23, 24, 30, 31, 32, 33, 34, 35, 
36, 37, 38, 39, 40, 41, 42, 43, 44, 66, 
67, 68, 69, 70, 71, 72, 73, 74, 75, 76, 
77, 78, 79, 80, 88, 89, 90, 91, 92, 93, 
94, 95, 96, 97, 98, 99, 100, 101, 102, 124, 
125, 126, 127, 128, 129, 130, 131, 132, 133, 134, 
135, 136, 137, 138, 139, 140, 141, 142, 143, 144, 
145, 146, 147, 148, 149, 150, 151, 152, 153, 154, 
155, 156, 157, 158, 159, 160, 161, 162, 163, 164, 
165, 166, 167, 168, 169, 170, 171, 172, 173, 174, 
175, 176, 177, 178, 179, 180, 181, 182, 183, 184, 
185, 186, 187, 188, 189, 190, 
*NSET,NSET=domain
1, 2, 3, 4, 5, 6, 7, 8, 9, 10, 
11, 12, 13, 14, 15, 16, 17, 18, 19, 20, 
21, 22, 23, 24, 25, 26, 27, 28, 29, 30, 
31, 32, 33, 34, 35, 36, 37, 38, 39, 40, 
41, 42, 43, 44, 45, 46, 47, 48, 49, 50, 
51, 52, 53, 54, 55, 56, 57, 58, 59, 60, 
61, 62, 63, 64, 65, 66, 67, 68, 69, 70, 
71, 72, 73, 74, 75, 76, 77, 78, 79, 80, 
81, 82, 83, 84, 85, 86, 87, 88, 89, 90, 
91, 92, 93, 94, 95, 96, 97, 98, 99, 100, 
101, 102, 103, 104, 105, 106, 107, 108, 109, 110, 
111, 112, 113, 114, 115, 116, 117, 118, 119, 120, 
121, 122, 123, 124, 125, 126, 127, 128, 129, 130, 
131, 132, 133, 134, 135, 136, 137, 138, 139, 140, 
141, 142, 143, 144, 145, 146, 147, 148, 149, 150, 
151, 152, 153, 154, 155, 156, 157, 158, 159, 160, 
161, 162, 163, 164, 165, 166, 167, 168, 169, 170, 
171, 172, 173, 174, 175, 176, 177, 178, 179, 180, 
181, 182, 183, 184, 185, 186, 187, 188, 189, 190, 
191, 192, 193, 194, 195, 196, 197, 198, 199, 200, 
201, 202, 203, 204, 205, 206, 207, 208, 209, 210, 
211, 212, 213, 214, 215, 216, 217, 218, 219, 220, 
221, 222, 223, 224, 225, 226, 227, 228, 229, 230, 
231, 232, 233, 234, 235, 236, 237, 238, 239, 240, 
241, 242, 243, 244, 245, 246, 247, 248, 249, 250, 
251, 252, 253, 254, 255, 256, 257, 258, 259, 260, 
261, 262, 263, 264, 265, 266, 267, 268, 269, 270, 
271, 272, 273, 274, 275, 276, 277, 278, 279, 280, 
281, 282, 283, 284, 285, 286, 287, 288, 289, 290, 
291, 292, 293, 294, 295, 296, 297, 298, 299, 300, 
301, 302, 303, 304, 305, 306, 307, 308, 309, 310, 
311, 312, 313, 314, 315, 316, 317, 318, 319, 320, 
321, 322, 323, 324, 325, 326, 327, 328, 329, 330, 
331, 332, 333, 334, 335, 336, 337, 338, 339, 340, 
341, 342, 343, 344, 345, 346, 347, 348, 349, 350, 
351, 352, 353, 354, 355, 356, 357, 358, 359, 360, 
361, 362, 363, 364, 365, 366, 367, 368, 369, 370, 
371, 372, 373, 374, 375, 376, 377, 378, 379, 380, 
381, 382, 383, 384, 385, 386, 387, 388, 389, 390, 
391, 392, 393, 394, 395, 396, 397, 398, 399, 400, 
401, 402, 403, 404, 405, 406, 407, 408, 409, 410, 
411, 412, 413, 414, 415, 416, 417, 418, 419, 420, 
421, 422, 423, 424, 425, 426, 427, 428, 429, 430, 
431, 432, 433, 434, 435, 436, 437, 438, 439, 440, 
441, 442, 443, 444, 445, 446, 447, 448, 449, 450, 
451, 452, 453, 454, 455, 456, 457, 458, 459, 460, 
461, 462, 463, 464, 465, 466, 467, 468, 469, 470, 
471, 472, 473, 474, 475, 476, 477, 478, 479, 480, 
481, 482, 483, 484, 485, 486, 487, 488, 489, 490, 
491, 492, 493, 494, 495, 496, 497, 498, 499, 500, 
501, 502, 503, 504, 505, 506, 507, 508, 509, 510, 
511, 512, 513, 514, 515, 516, 517, 518, 519, 520, 
521, 522, 523, 524, 525, 526, 527, 528, 529, 530, 
531, 532, 533, 534, 535, 536, 537, 538, 539, 540, 
541, 542, 543, 544, 545, 546, 547, 548, 549, 550, 
551, 552, 553, 554, 555, 556, 557, 558, 559, 560, 
561, 562, 563, 564, 565, 566, 567, 568, 569, 570, 
571, 572, 573, 574, 575, 576, 577, 578, 579, 580, 
581, 582, 583, 584, 585, 586, 587, 588, 589, 590, 
591, 592, 593, 594, 595, 596, 597, 598, 599, 600, 
601, 602, 603, 604, 605, 606, 607, 608, 609, 610, 
611, 612, 613, 614, 615, 616, 617, 618, 619, 620, 
621, 622, 623, 624, 625, 626, 627, 628, 629, 630, 
631, 632, 633, 634, 635, 636, 637, 638, 639, 640, 
641, 642, 643, 644, 645, 646, 647, 648, 649, 650, 
651, 652, 653, 654, 655, 656, 657, 658, 659, 660, 
661, 662, 663, 664, 665, 666, 667, 668, 669, 670, 
671, 672, 673, 674, 675, 676, 677, 678, 679, 680, 
681, 682, 683, 684, 685, 686, 
