*Heading
 /Users/juliagao/geometry-optimization-net/scripts/../runs/run2/shape_16.inp
*NODE
1, 0, -0.3, 0
2, 0.425, -0.3, 0
3, 0.575, -0.3, 0
4, 1, -0.3, 0
5, 1, 0.3, 0
6, 0.575, 0.3, 0
7, 0.425, 0.3, 0
8, 0, 0.3, 0
9, 0.6222614658, 0.027107404, 0
10, 0.025847200340377, -0.3, 0
11, 0.077778699134019, -0.3, 0
12, 0.13016217328212, -0.3, 0
13, 0.18324658973158, -0.3, 0
14, 0.23733445213999, -0.3, 0
15, 0.29212885746568, -0.3, 0
16, 0.3465818640541, -0.3, 0
17, 0.39927154348532, -0.3, 0
18, 0.051694400680755, -0.3, 0
19, 0.10386299758728, -0.3, 0
20, 0.15646134897696, -0.3, 0
21, 0.2100318304862, -0.3, 0
22, 0.26463707379379, -0.3, 0
23, 0.31962064113758, -0.3, 0
24, 0.37354308697063, -0.3, 0
25, 0.44450509947132, -0.3, 0
26, 0.48279368436108, -0.3, 0
27, 0.51979405783963, -0.3, 0
28, 0.55650547294986, -0.3, 0
29, 0.46401019894264, -0.3, 0
30, 0.50157716977953, -0.3, 0
31, 0.53801094589972, -0.3, 0
32, 0.59984988776762, -0.3, 0
33, 0.65128317235281, -0.3, 0
34, 0.70521745348567, -0.3, 0
35, 0.75935676199773, -0.3, 0
36, 0.8132957942306, -0.3, 0
37, 0.8679864810062, -0.3, 0
38, 0.92208261962603, -0.3, 0
39, 0.97431933975319, -0.3, 0
40, 0.62469977553524, -0.3, 0
41, 0.67786656917038, -0.3, 0
42, 0.73256833780097, -0.3, 0
43, 0.78614518619449, -0.3, 0
44, 0.84044640226671, -0.3, 0
45, 0.89552655974569, -0.3, 0
46, 0.94863867950638, -0.3, 0
47, 1, -0.27388823045982, 0
48, 1, -0.22071163698276, 0
49, 1, -0.16573013502465, 0
50, 1, -0.10952612278078, 0
51, 1, -0.053255161762105, 0
52, 1, 0.0020652564673831, 0
53, 1, 0.056571594651299, 0
54, 1, 0.11119783295036, 0
55, 1, 0.16648899490053, 0
56, 1, 0.22133840415225, 0
57, 1, 0.2741766715012, 0
58, 1, -0.24777646091964, 0
59, 1, -0.19364681304588, 0
60, 1, -0.13781345700342, 0
61, 1, -0.081238788558137, 0
62, 1, -0.025271534966073, 0
63, 1, 0.029402047900839, 0
64, 1, 0.083741141401758, 0
65, 1, 0.13865452449897, 0
66, 1, 0.1943234653021, 0
67, 1, 0.24835334300239, 0
68, 0.97455963125717, 0.3, 0
69, 0.92315301672932, 0.3, 0
70, 0.87021252091436, 0.3, 0
71, 0.81551202693776, 0.3, 0
72, 0.76012910041476, 0.3, 0
73, 0.7054217108761, 0.3, 0
74, 0.65203000700881, 0.3, 0
75, 0.60034450505192, 0.3, 0
76, 0.94911926251433, 0.3, 0
77, 0.8971867709443, 0.3, 0
78, 0.84323827088441, 0.3, 0
79, 0.7877857829911, 0.3, 0
80, 0.73247241783841, 0.3, 0
81, 0.67837100391379, 0.3, 0
82, 0.62568901010383, 0.3, 0
83, 0.5498384621251, 0.3, 0
84, 0.49975896993006, 0.3, 0
85, 0.44992050780496, 0.3, 0
86, 0.5246769242502, 0.3, 0
87, 0.47484101560991, 0.3, 0
88, 0.39976000096225, 0.3, 0
89, 0.34786474393054, 0.3, 0
90, 0.29430203019333, 0.3, 0
91, 0.24051818757787, 0.3, 0
92, 0.18653683128724, 0.3, 0
93, 0.13214170095692, 0.3, 0
94, 0.078183166164132, 0.3, 0
95, 0.025757396141618, 0.3, 0
96, 0.37452000192449, 0.3, 0
97, 0.32120948593658, 0.3, 0
98, 0.26739457445007, 0.3, 0
99, 0.21364180070566, 0.3, 0
100, 0.15943186186882, 0.3, 0
101, 0.10485154004503, 0.3, 0
102, 0.051514792283237, 0.3, 0
103, 0, 0.27395964222859, 0
104, 0, 0.22092119422369, 0
105, 0, 0.16599612593417, 0
106, 0, 0.11027015708762, 0
107, 0, 0.054928455349504, 0
108, 0, -0.00041435746177471, 0
109, 0, -0.056329087116846, 0
110, 0, -0.11225159541791, 0
111, 0, -0.16734098598535, 0
112, 0, -0.22121937033784, 0
113, 0, -0.27390812231629, 0
114, 0, 0.24791928445718, 0
115, 0, 0.19392310399021, 0
116, 0, 0.13806914787814, 0
117, 0, 0.082471166297101, 0
118, 0, 0.027385744401907, 0
119, 0, -0.028214459325457, 0
120, 0, -0.084443714908235, 0
121, 0, -0.14005947592759, 0
122, 0, -0.1946224960431, 0
123, 0, -0.24781624463258, 0
124, 0.63603922550093, 0.050608065367549, 0
125, 0.6266583486583, -0.050569933621398, 0
126, 0.58229079720905, -0.074716678534245, 0
127, 0.55019628681296, -0.1162456281855, 0
128, 0.51168187246567, -0.1497801434001, 0
129, 0.46394537121179, -0.1333516326516, 0
130, 0.4148168493098, -0.12032016793203, 0
131, 0.36292065697898, -0.12939547465218, 0
132, 0.31186928442124, -0.12021230668916, 0
133, 0.29628328619556, -0.072287657937548, 0
134, 0.32342684355572, -0.027119255341448, 0
135, 0.36414539423963, 0.0077179695622863, 0
136, 0.38494223062145, 0.050666290301054, 0
137, 0.35789391066902, 0.089103884335079, 0
138, 0.37304651842342, 0.13362678543972, 0
139, 0.42175662191607, 0.1286628362746, 0
140, 0.47369300820332, 0.12110418247002, 0
141, 0.50131481089291, 0.15674287921915, 0
142, 0.55066907283846, 0.17223358620287, 0
143, 0.60464852362962, 0.16786535480803, 0
144, 0.65327681065932, 0.14726750900838, 0
145, 0.66230278428379, 0.096899761741446, 0
146, 0.62631056022863, 0.00046275931034918, 0
147, 0.65139209258673, 0.072946553230929, 0
148, 0.66474841275966, 0.12340194922577, 0
149, 0.6314078771248, 0.16138083720056, 0
150, 0.57735504074374, 0.1705421571853, 0
151, 0.52386393591451, 0.16935773426724, 0
152, 0.48470561060073, 0.13730307387107, 0
153, 0.44537278286114, 0.11912312656507, 0
154, 0.39696767865035, 0.13487370394023, 0
155, 0.35422066078772, 0.11524880262466, 0
156, 0.37132984309435, 0.067209906990124, 0
157, 0.38566718793939, 0.023627443644157, 0
158, 0.34291915698924, -0.0086038558905794, 0
159, 0.30700631605537, -0.04845703574043, 0
160, 0.29578678648265, -0.098876747891489, 0
161, 0.33623681343757, -0.12884559211115, 0
162, 0.38922743038712, -0.12544734068531, 0
163, 0.44129675126657, -0.12058166786846, 0
164, 0.48609374577194, -0.14681398579453, 0
165, 0.53406723954264, -0.13739879435105, 0
166, 0.56302191552988, -0.093144006572393, 0
167, 0.60603239481165, -0.065568955397072, 0
168, 0.63316482894708, -0.025149261725907, 0
169, 0.47438670288378, -0.26865761743811, 0
170, 0.76659757107522, -0.27586275850057, 0
171, 0.62139759796705, 0.25268755015584, 0
172, 0.052234653928799, -0.24791604848143, 0
173, 0.1050208352903, -0.24824025417397, 0
174, 0.15824109664093, -0.24833952356544, 0
175, 0.21150725413133, -0.24778002139469, 0
176, 0.26361844461295, -0.24557262215661, 0
177, 0.38186248240723, -0.23947409708585, 0
178, 0.4144939166647, -0.17717446501135, 0
179, 0.31223419393943, -0.24108381100375, 0
180, 0.64459445706826, 0.024985173583851, 0
181, 0.62545315946473, 0.27555983661726, 0
182, 0.4958680859533, -0.24124735696553, 0
183, 0.54378036695606, -0.24083167829587, 0
184, 0.5622707197546, -0.16847663003323, 0
185, 0.72735037298026, -0.13455427793834, 0
186, 0.63799801571977, -0.14088403459973, 0
187, 0.25327865662266, 0.22692381248592, 0
188, 0.1458806163937, 0.19702052859122, 0
189, 0.21093883731589, 0.14657639437574, 0
190, 0.21460818915701, 0.11923112135446, 0
191, 0.19567765232755, 0.19953900433035, 0
192, 0.14162218919045, 0.14148826368505, 0
193, 0.094724437070495, 0.13955008336148, 0
194, 0.047502240818571, 0.13848874307284, 0
195, 0.097040007130655, 0.19524572339114, 0
196, 0.048495066529942, 0.19408484434859, 0
197, 0.050249610563153, 0.24802645831733, 0
198, 0.10079682057874, 0.24888803896197, 0
199, 0.1520392363802, 0.24975101133581, 0
200, 0.2582821599999, 0.25124813052434, 0
201, 0.20443059702155, 0.25061137772118, 0
202, 0.31205057201999, 0.24986144395085, 0
203, 0.26579288821158, 0.17855321434386, 0
204, 0.35794231527717, 0.24227400216467, 0
205, 0.42795914114938, 0.2450038778624, 0
206, 0.22639299044187, 0.22629024992075, 0
207, 0.26844593630716, -0.044092428827553, 0
208, 0.221470945883, 0.068675212206212, 0
209, 0.14499843869123, -0.1402957420237, 0
210, 0.22940073444102, -0.13134873268352, 0
211, 0.21225826574957, -0.034790699432476, 0
212, 0.28541415319762, -0.15449320804821, 0
213, 0.19522679359112, 0.064511181826977, 0
214, 0.30932921919906, 0.04623749620109, 0
215, 0.095999407651633, -0.1131261472155, 0
216, 0.33202920078623, 0.092012698323597, 0
217, 0.12165372081684, -0.14112065780931, 0
218, 0.3110295078039, 0.023597863473763, 0
219, 0.25825024743433, -0.082905517290121, 0
220, 0.071641702762922, -0.056771936070243, 0
221, 0.10262602012959, -0.19610707725918, 0
222, 0.051107515494815, -0.19556640522342, 0
223, 0.20552267388159, -0.19472970702331, 0
224, 0.25677028681189, -0.19055821747937, 0
225, 0.09779391238357, -0.14155962332237, 0
226, 0.096237104411777, 0.00051296287504541, 0
227, 0.15416075107224, -0.19603987630318, 0
228, 0.1684195005189, -0.018391384283838, 0
229, 0.29979038302737, 0.11638976020094, 0
230, 0.096045084587381, 0.055775460558134, 0
231, 0.17004285138297, 0.0087004266962527, 0
232, 0.18939426697496, -0.13712995261844, 0
233, 0.28803314253842, -0.0084383527013485, 0
234, 0.22335077287013, -0.095549100564105, 0
235, 0.20462229763214, -0.10084683987033, 0
236, 0.35632919647509, 0.030634047577395, 0
237, 0.24479606724247, 0.098016779103219, 0
238, 0.34366370615947, 0.046286299856756, 0
239, 0.095309272506195, -0.055662452158455, 0
240, 0.11840549361196, -0.082837818688984, 0
241, 0.30820791054763, -0.18006976154852, 0
242, 0.42866058151473, -0.20785616167013, 0
243, 0.43107610577494, -0.26765070828669, 0
244, 0.77680897743013, 0.20011543649485, 0
245, 0.45139880095213, 0.24535384338141, 0
246, 0.78214148322495, 0.15434825140322, 0
247, 0.83994997442897, 0.15507843725638, 0
248, 0.89541105614689, 0.15259645940056, 0
249, 0.94900373533227, 0.14756760062459, 0
250, 0.83519609803955, 0.20244531800093, 0
251, 0.89237228299603, 0.20139640056951, 0
252, 0.94774865034354, 0.1983346677506, 0
253, 0.89281554811336, 0.24996051484605, 0
254, 0.94736954399391, 0.24859406244229, 0
255, 0.83697623256195, 0.25052977647831, 0
256, 0.78123702970291, 0.24939166611968, 0
257, 0.56883871216322, 0.27658848370206, 0
258, 0.54040740944752, 0.27610480565479, 0
259, 0.6648289528164, 0.1986725442632, 0
260, 0.60518513323478, 0.21096676534134, 0
261, 0.4911242744158, 0.22492525556706, 0
262, 0.53062359053672, 0.19236071912468, 0
263, 0.39333398145379, 0.16161028017099, 0
264, 0.76517085344544, -0.17793130001974, 0
265, 0.8910934257896, -0.048472031549999, 0
266, 0.9520978341897, 0.066891145203018, 0
267, 0.56307040738896, -0.26908209133876, 0
268, 0.62285815704661, -0.17977833545123, 0
269, 0.71883475922281, -0.15896371418465, 0
270, 0.94993384561631, 0.12143115439782, 0
271, 0.72021964554814, -0.088329755296808, 0
272, 0.84569850991011, 0.13021286365182, 0
273, 0.88864832689509, 0.014090624470881, 0
274, 0.68567027075472, -0.27619669391749, 0
275, 0.76528095658346, 0.12916235647824, 0
276, 0.80594753906043, -0.090525310046259, 0
277, 0.73457848239362, -0.026640458217218, 0
278, 0.9540392742474, 0.0094282879069085, 0
279, 0.61395738623721, -0.24823298367693, 0
280, 0.71960487231816, -0.25246679396751, 0
281, 0.8273980441939, -0.086280725946661, 0
282, 0.95182844338825, -0.22178408570244, 0
283, 0.83597309421921, 0.075553978220756, 0
284, 0.74459940882951, -0.080102432590521, 0
285, 0.69362233455634, -0.095639302456088, 0
286, 0.91004801883288, 0.013307087900285, 0
287, 0.5283201105866, -0.18977135990478, 0
288, 0.72925511167187, -0.058944873461484, 0
289, 0.8485336127885, -0.083083317580524, 0
290, 0.94954584518314, -0.27458632411819, 0
291, 0.95315396752826, 0.038471781188995, 0
292, 0.71269428878982, -0.27631328409939, 0
293, 0.82513592778847, -0.25064521555224, 0
294, 0.77310626390564, -0.25149060891186, 0
295, 0.97539395586531, -0.24808860071967, 0
296, 0.75360117020736, -0.015547336063822, 0
297, 0.87038714926399, -0.049553720791298, 0
298, 0.7055943256552, -0.068528195257525, 0
299, 0.8387258618443, -0.17114594727479, 0
300, 0.86205665371823, -0.16957999467105, 0
301, 0.80837225470295, 0.007147335477733, 0
302, 0.60796139823162, -0.27390793667211, 0
303, 0.87590373747668, -0.24997269529485, 0
304, 0.66468469299139, -0.10046783189444, 0
305, 0.88746968354519, -0.13955049748025, 0
306, 0.84991358299551, -0.051600634631958, 0
307, 0.71334821216908, 0.16915974675312, 0
308, 0.50064832122161, 0.18178020056675, 0
309, 0.51956491923928, -0.24882119199059, 0
310, 0.50256872297291, -0.2136730677677, 0
311, 0.54227150598962, -0.21262747808159, 0
312, 0.14191957752007, -0.11059215010302, 0
313, 0.27188533498517, 0.10480683872661, 0
314, 0.28247737294761, -0.18640294068981, 0
315, 0.73873376733357, 0.12615651335176, 0
316, 0.78387565122497, -0.09580359789398, 0
317, 0.89066093755973, -0.079491528486702, 0
318, 0.35905434340582, -0.24082652767328, 0
319, 0.40559995279058, -0.20670844414242, 0
320, 0.33428510334218, -0.21094110725409, 0
321, 0.4136512093963, 0.2728450087996, 0
322, 0.46208971412358, 0.27310694855965, 0
323, 0.45036137631431, -0.15675081885459, 0
324, 0.33580773073433, -0.18297825073241, 0
325, 0.2564293924665, 0.15174767791748, 0
326, 0.28053581888211, 0.22671718029992, 0
327, 0.22127224058187, 0.2010376922578, 0
328, 0.88158590666161, 0.074247828317274, 0
329, 0.65894007824658, -0.27586037147919, 0
330, 0.85855928006093, 0.075271449446207, 0
331, 0.72345545584248, 0.21942367832583, 0
332, 0.86984805593988, -0.017759998267641, 0
333, 0.97520917078492, 0.11710700907492, 0
334, 0.64447308341268, -0.22670401880051, 0
335, 0.73081574907393, 0.2736720305845, 0
336, 0.343431257871, 0.17463618783646, 0
337, 0.36716635695674, 0.18555373317795, 0
338, 0.2800015500801, 0.03555488733012, 0
339, 0.33579435067182, 0.066299606579078, 0
340, 0.30718466999932, 0.070383678731612, 0
341, 0.73974981921662, -0.27611841558581, 0
342, 0.72574299321067, 0.039922740125084, 0
343, 0.97710159182936, -0.1377873093553, 0
344, 0.6598658255963, -0.16201326479871, 0
345, 0.91108125901637, -0.10904882944845, 0
346, 0.69258447976374, -0.25244285711401, 0
347, 0.80483672578376, -0.22575751405175, 0
348, 0.82749234624866, 0.010832978120329, 0
349, 0.69892260575824, -0.22885171316388, 0
350, 0.71365163839806, 0.12079595141425, 0
351, 0.69205104143043, -0.04796142630286, 0
352, 0.91190471999361, -0.078861321913405, 0
353, 0.86770146932562, 0.014044672068464, 0
354, 0.072002198871991, 0.054932934609981, 0
355, 0.16537786705577, -0.047004866237302, 0
356, 0.18802582575021, 0.14453594215798, 0
357, 0.23664574557929, -0.026425352609859, 0
358, 0.23925129359015, 0.12245543845292, 0
359, 0.16764619566671, -0.13899830130533, 0
360, 0.096305610108351, 0.028166424803048, 0
361, 0.12510872835853, -0.1691696633605, 0
362, 0.02397125030511, 0.082328115581676, 0
363, 0.26388451808883, -0.12165999448234, 0
364, 0.024095949038809, 0.026729655618803, 0
365, 0.02408376984106, 0.054508545428957, 0
366, 0.85064929506008, -0.25031019766728, 0
367, 0.92399952126382, -0.27489068631665, 0
368, 0.79220046664083, 0.13054230586078, 0
369, 0.97668820380729, 0.0062583596963478, 0
370, 0.024001236889986, -0.029004623236764, 0
371, 0.16971277703967, 0.061329803694681, 0
372, 0.024018584126902, -0.085165714001293, 0
373, 0.023932041945969, -0.057052162298199, 0
374, 0.26295452143877, 0.27556939161667, 0
375, 0.31677094430415, 0.27507219867164, 0
376, 0.28543642812977, 0.250977266261, 0
377, 0.29004775559551, 0.27545119534788, 0
378, 0.97492872582638, 0.14380261959791, 0
379, 0.94829944851445, 0.17312052197282, 0
380, 0.97441230690678, 0.19632530084158, 0
381, 0.97471816367163, 0.17018606335467, 0
382, 0.23118860793804, 0.25101880955688, 0
383, 0.20887281200082, 0.27541303970971, 0
384, 0.2358370256467, 0.27551236217601, 0
385, 0.31536175717438, -0.27160323418157, 0
386, 0.26486992753089, -0.27323704993372, 0
387, 0.28851920737867, -0.24355666091897, 0
388, 0.29057122008757, -0.27253618469497, 0
389, 0.10287233513091, 0.27480412748845, 0
390, 0.15551074841039, 0.27517649725546, 0
391, 0.12630803875919, 0.24935082313847, 0
392, 0.12909815027068, 0.27505136279608, 0
393, 0.90972526595165, -0.13860954223167, 0
394, 0.91148754937221, -0.017370285862535, 0
395, 0.61790169897838, -0.22365407565677, 0
396, 0.75588933201124, 0.063202301233798, 0
397, 0.95286275836104, -0.19439755592453, 0
398, 0.86957180665751, -0.080858066742276, 0
399, 0.75892809451457, -0.20308618670439, 0
400, 0.93338260975288, -0.07885603904641, 0
401, 0.57315324372059, 0.21379713894488, 0
402, 0.45799596156681, 0.15480503084567, 0
403, 0.67714315260573, 0.2478865200798, 0
404, 0.078565970781895, -0.24809699857518, 0
405, 0.10495489061859, -0.27404787377245, 0
406, 0.052258265895216, -0.27389050163115, 0
407, 0.078538604353713, -0.27397841068973, 0
408, 0.17806054336407, 0.25017037127906, 0
409, 0.18209739073229, 0.27529654902922, 0
410, 0.13158918539345, -0.24832503929417, 0
411, 0.15819576644607, -0.27413968867409, 0
412, 0.1315103897572, -0.27409353957855, 0
413, 0.047825188908877, 0.16644888211081, 0
414, 0.023785917450958, 0.13823462903192, 0
415, 0.024238772892296, 0.19379981617318, 0
416, 0.023893632277931, 0.16615675820055, 0
417, 0.047605526274649, 0.11041599233427, 0
418, 0.02385087316371, 0.11024521722625, 0
419, 0.83943772997368, 0.27512613475681, 0
420, 0.80897110192663, 0.25023381288638, 0
421, 0.78423647827939, 0.27477207699732, 0
422, 0.81175406959084, 0.27509049374654, 0
423, 0.21181468517698, -0.27400645040438, 0
424, 0.23783192079486, -0.24696448231307, 0
425, 0.23852186497377, -0.27374041538214, 0
426, 0.64891118627375, -0.0012268967964489, 0
427, 0.93184767886573, 0.011754851612056, 0
428, 0.82219296852737, 0.043531343220867, 0
429, 0.92771984053297, -0.22230990918945, 0
430, 0.072168634517824, 0.027152256684323, 0
431, 0.024064993978825, -0.0010903353035261, 0
432, 0.74030687019918, 0.05340242195599, 0
433, 0.67607038108996, 0.068060087968037, 0
434, 0.88508926282574, -0.16837216194981, 0
435, 0.41589473942534, 0.18740597116952, 0
436, 0.75408732643605, 0.24808713525431, 0
437, 0.75718447408018, 0.27429149849355, 0
438, 0.68285373570114, -0.18339448628735, 0
439, 0.95446214543572, -0.13783055538123, 0
440, 0.93202582420668, -0.13806485343099, 0
441, 0.81904837345495, 0.13079330027357, 0
442, 0.87212578264028, 0.12897267556867, 0
443, 0.024576096694462, -0.14093398653097, 0
444, 0.12049534451513, 0.0023771656997621, 0
445, 0.024222144885151, -0.11318335309096, 0
446, 0.48141061778234, 0.19732953913911, 0
447, 0.70240767418122, 0.24531268156522, 0
448, 0.73886314119751, -0.18041896656443, 0
449, 0.87928448166775, -0.2235719958363, 0
450, 0.78422816945401, 0.036017711084227, 0
451, 0.19578203115941, 0.013458200401612, 0
452, 0.025457330398124, -0.19511621565049, 0
453, 0.025013110931757, -0.16825686382114, 0
454, 0.18491611210862, -0.24819247556351, 0
455, 0.18499370412942, -0.27412337724837, 0
456, 0.56087185219785, 0.25499551479285, 0
457, 0.61454136575522, 0.23121703103091, 0
458, 0.59735214711005, 0.27614682349788, 0
459, 0.92589901848148, -0.24898215390658, 0
460, 0.71073962191544, 0.070004293487445, 0
461, 0.59145488763506, 0.25425603845869, 0
462, 0.48693042908115, 0.27386448093717, 0
463, 0.70518684659343, 0.27313468875149, 0
464, 0.33610548448005, 0.24564259280271, 0
465, 0.36566859348934, 0.27224648563724, 0
466, 0.34199823067068, 0.27355600287892, 0
467, 0.71143498687281, -0.18241550908606, 0
468, 0.93083835894801, -0.16681746844872, 0
469, 0.6393440608755, -0.25054482214892, 0
470, 0.026033116161832, -0.2477531119013, 0
471, 0.026104784871959, -0.27382060605877, 0
472, 0.49601562473965, -0.26908635851535, 0
473, 0.54176561836235, -0.26897695425854, 0
474, 0.51898235670847, -0.2727974223133, 0
475, 0.38933746229841, -0.17888603885486, 0
476, 0.38239483870181, -0.20849993079627, 0
477, 0.47529107248346, -0.16797178381848, 0
478, 0.55913694743653, -0.19019777789331, 0
479, 0.89832529254803, 0.1271355592761, 0
480, 0.86499333959868, 0.25041275606992, 0
481, 0.8943457868251, 0.27472187556097, 0
482, 0.86702480891737, 0.27500225465598, 0
483, 0.051107632963672, 0.27426207271944, 0
484, 0.02511157252929, 0.24775700033596, 0
485, 0.025532280983758, 0.27403487694853, 0
486, 0.075459628862478, 0.24843948371226, 0
487, 0.076881219213803, 0.27454561800335, 0
488, 0.88233920440821, -0.19637220077884, 0
489, 0.73621789078105, -0.1084827459155, 0
490, 0.67952908796791, 0.27396567980861, 0
491, 0.65293321550946, 0.27488364651089, 0
492, 0.94742282124924, 0.22342789704764, 0
493, 0.97395210508805, 0.24803385345106, 0
494, 0.9741588914288, 0.22223980494865, 0
495, 0.94778925310939, 0.27404918480158, 0
496, 0.97394341135519, 0.27383671983178, 0
497, 0.92033661706745, 0.20005445709884, 0
498, 0.92245353430178, 0.15042355533387, 0
499, 0.89337902590846, 0.17719792160122, 0
500, 0.92112716941143, 0.17543467083572, 0
501, 0.85859511156228, -0.19731239569531, 0
502, 0.79096029753529, -0.032383936075555, 0
503, 0.65383909716716, -0.027944564311126, 0
504, 0.37532235661065, -0.1542985684989, 0
505, 0.50601806820884, -0.17200000973997, 0
506, 0.36298841320243, -0.18211488264839, 0
507, 0.34817737938995, -0.15657478206351, 0
508, 0.45244174436429, -0.21153034425395, 0
509, 0.35860348806034, -0.21051219570262, 0
510, 0.43861447278117, -0.18130285495862, 0
511, 0.97639459352762, -0.19397275687789, 0
512, 0.84258356629688, -0.14287926964278, 0
513, 0.69944938209817, -0.1387876509962, 0
514, 0.95510084696473, -0.049716775799713, 0
515, 0.56647368101376, -0.24099358316034, 0
516, 0.38078913958065, 0.24409027221745, 0
517, 0.3894871027904, 0.27268542427617, 0
518, 0.88938972192868, -0.10990419775128, 0
519, 0.75039073063403, 0.019176126249141, 0
520, 0.90797628015115, -0.16745895114825, 0
521, 0.83003627562813, -0.22492434363478, 0
522, 0.79601826797945, -0.1484378737721, 0
523, 0.61879574416742, -0.20071464586153, 0
524, 0.85481750828577, -0.22420982015052, 0
525, 0.69518617233813, 0.10918056699073, 0
526, 0.75101142598512, -0.049044528876132, 0
527, 0.051826230571324, -0.22187436081194, 0
528, 0.025810486315736, -0.22156665716728, 0
529, 0.92030621484914, 0.24929801407162, 0
530, 0.92126924942906, 0.27436186118034, 0
531, 0.65323908079523, -0.18270200696605, 0
532, 0.80997847552283, -0.199825355922, 0
533, 0.69790147485394, 0.053249461889043, 0
534, 0.83452276794677, -0.19845431898947, 0
535, 0.79047158590234, -0.17539497893486, 0
536, 0.79930705082078, -0.2510329297874, 0
537, 0.049334690584239, 0.22129595224619, 0
538, 0.024659505383206, 0.22100961118684, 0
539, 0.07231982779851, -0.11358899698694, 0
540, 0.18476575723783, -0.10508696533875, 0
541, 0.047939693551393, -0.085436010050149, 0
542, 0.048044746315672, 0.054514854304363, 0
543, 0.24780120157243, -0.051486782451063, 0
544, 0.17044452328655, 0.035096493679847, 0
545, 0.1202666236625, 0.0570780381056, 0
546, 0.32311292269979, 0.14438107438803, 0
547, 0.42751235601556, -0.14863430686735, 0
548, 0.40409551869232, -0.23764309249185, 0
549, 0.3214900887134, -0.15488789924292, 0
550, 0.45270493477685, -0.26804742740263, 0
551, 0.14883089326717, 0.22371539891126, 0
552, 0.24758530958466, 0.20239331761485, 0
553, 0.17060186838253, 0.1981755642705, 0
554, 0.17424226915819, 0.22451166789527, 0
555, 0.68100140520453, -0.11953416271508, 0
556, 0.56316375258923, -0.14634659761959, 0
557, 0.74588839537541, -0.15560123298678, 0
558, 0.93289486811013, -0.018359631335553, 0
559, 0.84963387397154, -0.019386384754175, 0
560, 0.67159854988639, -0.22835415820017, 0
561, 0.97485876262642, -0.27428758776207, 0
562, 0.76692813249057, 0.028965859176042, 0
563, 0.84266360995432, 0.04493220131035, 0
564, 0.80133862173487, -0.12023011405133, 0
565, 0.77863390947463, 0.22435167001611, 0
566, 0.7474053193727, 0.19720377557266, 0
567, 0.75067068910455, 0.22214833388061, 0
568, 0.098817400178147, 0.22235132787383, 0
569, 0.1213920858383, 0.19606112533983, 0
570, 0.12372279012506, 0.22301385255783, 0
571, 0.97591810918917, -0.22130836154242, 0
572, 0.68735372402252, 0.089109076876177, 0
573, 0.95376371178317, -0.16639555098494, 0
574, 0.66569291658893, -0.25188958452588, 0
575, 0.8651397667501, -0.14094879483674, 0
576, 0.97702518485561, -0.022393202045165, 0
577, 0.43784995166488, 0.27290842689216, 0
578, 0.69733588091146, 0.21729982486162, 0
579, 0.79320096141967, -0.27574422205166, 0
580, 0.69017541318539, -0.16138602166632, 0
581, 0.65012117779221, -0.1214138669703, 0
582, 0.81492650282075, -0.17309526626365, 0
583, 0.63288737470412, -0.27511255344803, 0
584, 0.72608138054462, -0.22855754629364, 0
585, 0.66958178428054, -0.14130553309564, 0
586, 0.071150295376406, 0.138918499441, 0
587, 0.094997219752622, 0.11141753238629, 0
588, 0.071308653667348, 0.1107986311431, 0
589, 0.71413245781988, -0.037926812548052, 0
590, 0.67984598864159, -0.076306334820579, 0
591, 0.92427778702455, 0.1246703698093, 0
592, 0.31047777103731, 0.16159847309133, 0
593, 0.1903606064612, 0.11681245615547, 0
594, 0.27476161877995, 0.2028423963739, 0
595, 0.24738079996129, -0.1272088409278, 0
596, 0.27586662540124, -0.076809124671202, 0
597, 0.81032296151985, -0.026482480490519, 0
598, 0.3686399946471, 0.15912190910946, 0
599, 0.11881242921651, -0.053778664012795, 0
600, 0.24851704425896, 0.074248947070334, 0
601, 0.25068746742823, 0.026805187084054, 0
602, 0.14529512259604, 0.032041418716888, 0
603, 0.14329182677318, 0.16959232454, 0
604, 0.3249187438244, 0.18718144922647, 0
605, 0.16490588863823, 0.14285213856188, 0
606, 0.16721535389784, 0.17096425588383, 0
607, 0.047835951363937, -0.057214020503356, 0
608, 0.047978170857171, -0.029114088474648, 0
609, 0.56662574004214, -0.21423852729888, 0
610, 0.93290911485713, -0.10871105017456, 0
611, 0.64669134593025, -0.055466205780129, 0
612, 0.95516646735513, -0.079359301761621, 0
613, 0.83553340975978, 0.22628968068722, 0
614, 0.8061169867213, 0.20181755347087, 0
615, 0.80701416659558, 0.22573595886058, 0
616, 0.87216483302289, -0.27551575635609, 0
617, 0.82390839428904, -0.11648796281887, 0
618, 0.10420973467346, -0.22233867606034, 0
619, 0.12840592828244, -0.19616912993781, 0
620, 0.15687039628993, -0.22238298988527, 0
621, 0.13051996357002, -0.22243180625397, 0
622, 0.30745139874027, 0.22483225188886, 0
623, 0.1912637762556, 0.17264984584826, 0
624, 0.4203653831623, 0.2163734738998, 0
625, 0.5197502073932, 0.23072580213811, 0
626, 0.24749519876856, 0.0023125878872837, 0
627, 0.14247495825877, 0.11344773221762, 0
628, 0.16634294793557, 0.11492910224181, 0
629, 0.45839676318172, 0.18870967383336, 0
630, 0.35077775444826, 0.20994875628427, 0
631, 0.21554827149338, 0.17464032450871, 0
632, 0.27617266201803, 0.082083312117708, 0
633, 0.048355702668029, -0.11360325937382, 0
634, 0.095226463686081, -0.084344824262327, 0
635, 0.050130778972149, -0.1688027415347, 0
636, 0.26209806434773, -0.017176312518901, 0
637, 0.071667323209761, 0.082797044222123, 0
638, 0.16381707822663, -0.10828838095043, 0
639, 0.7671947044658, -0.072099188920155, 0
640, 0.77179732058831, -0.0059272195531217, 0
641, 0.77136951665098, -0.039975345107765, 0
642, 0.7930903093735, 0.073030412192714, 0
643, 0.73371516250308, 0.0070682772643901, 0
644, 0.89046992604862, -0.017137918635448, 0
645, 0.78856185498176, -0.065024287896541, 0
646, 0.32889415259415, 0.011726239775195, 0
647, 0.11954214272333, 0.084533924993934, 0
648, 0.048126890579149, 0.026676600732025, 0
649, 0.49507748001622, -0.19232826179116, 0
650, 0.33567814915713, -0.24126465494048, 0
651, 0.82981687679142, -0.022217097764897, 0
652, 0.86792003581865, 0.1541592782695, 0
653, 0.77912783156876, -0.22670450608974, 0
654, 0.22702075107912, -0.059451430515959, 0
655, 0.32719646350412, 0.11759954431649, 0
656, 0.27784706185681, 0.012214498997883, 0
657, 0.1447776881435, 0.058898779817793, 0
658, 0.22085332175515, -0.1654139961715, 0
659, 0.19313692713954, 0.090277008932778, 0
660, 0.14968977231587, -0.16883617865722, 0
661, 0.20946767290737, -0.22136809857843, 0
662, 0.23113984212447, -0.19316241788535, 0
663, 0.26118271343458, -0.21777727610566, 0
664, 0.23551938296447, -0.22003050200782, 0
665, 0.97591756809533, 0.062518505802526, 0
666, 0.62808289013712, -0.15992721680279, 0
667, 0.64787761069974, -0.20406337198557, 0
668, 0.18864639698923, -0.041673153775622, 0
669, 0.11925369521983, -0.11215901531809, 0
670, 0.22304121136712, 0.044166623836141, 0
671, 0.69648958529318, -0.017762294794142, 0
672, 0.82958053331152, -0.05477301986145, 0
673, 0.20006161152316, 0.22539974171984, 0
674, 0.3024975966909, 0.20066682393257, 0
675, 0.17986855429003, -0.19561203962469, 0
676, 0.18321127158914, -0.22207978484032, 0
677, 0.5353047556152, -0.16576549113728, 0
678, 0.44931569067096, -0.23876461630859, 0
679, 0.40221507632859, -0.14972206569702, 0
680, 0.58321699817957, 0.23364505737381, 0
681, 0.26508051193417, -0.15958923966719, 0
682, 0.14373725536979, 0.085955662239505, 0
683, 0.24338119368302, -0.16302111622875, 0
684, 0.19629108896203, 0.039077177230563, 0
685, 0.81404418580991, 0.074915816962191, 0
686, 0.07684842383271, -0.19589908210189, 0
687, 0.077970877970119, -0.22214338561854, 0
688, 0.70972158123097, -0.11472429122129, 0
689, 0.78482024593793, -0.20139942656126, 0
690, 0.20615952135431, -0.066721672099245, 0
691, 0.14114196954103, -0.080520282761842, 0
692, 0.14503474657716, 0.005058535911919, 0
693, 0.09554628640826, 0.083494011500803, 0
694, 0.071704992135605, -0.085180451834951, 0
695, 0.86772832730296, -0.11136896522876, 0
696, 0.77795566112552, -0.12468914308076, 0
697, 0.95069669532664, -0.24851854508159, 0
698, 0.77354841182666, 0.069369068187196, 0
699, 0.70477437460627, -0.20556521944708, 0
700, 0.75285932917303, -0.22772354438868, 0
701, 0.84596325970716, -0.27559568323573, 0
702, 0.30708321776008, -0.013076596038378, 0
703, 0.21860228371692, 0.093520093463407, 0
704, 0.16822956900133, 0.087830061478728, 0
705, 0.047832999380414, 0.082416176093413, 0
706, 0.73224498972546, -0.20460938217814, 0
707, 0.58724086397612, -0.10900711327618, 0
708, 0.22257427657388, 0.019466650836191, 0
709, 0.11821923834422, 0.14040137442276, 0
710, 0.11870672776701, 0.11229310405135, 0
711, 0.97730625400526, -0.10911866731014, 0
712, 0.62636828932291, -0.077507841603164, 0
713, 0.3101589431955, -0.20992436631557, 0
714, 0.28618575671755, -0.21436513231537, 0
715, 0.07275604284058, 0.19458427125081, 0
716, 0.074040331956389, 0.22177052925767, 0
717, 0.89219588664726, 0.22557358749735, 0
718, 0.92005105169048, 0.2245978117442, 0
719, 0.14215079422481, -0.050962418130127, 0
720, 0.24110362019062, -0.089425012635828, 0
721, 0.072132448673723, -0.00064561172418211, 0
722, 0.048095015727864, -0.0011709130843218, 0
723, 0.073575345894531, -0.14166626442323, 0
724, 0.30365544446001, 0.093814998718612, 0
725, 0.071929162287175, -0.028584336104293, 0
726, 0.75198851455117, 0.15207680708649, 0
727, 0.77677566743861, 0.17696743890289, 0
728, 0.74563786120656, 0.17393329448084, 0
729, 0.095584148115589, 0.1676118152745, 0
730, 0.11942979526385, 0.16849323984422, 0
731, 0.071722545085544, 0.16693430777821, 0
732, 0.86396892506063, 0.20224315147149, 0
733, 0.86398180902965, 0.22618836438893, 0
734, 0.84728737658518, 0.013032169267821, 0
735, 0.77153143843902, -0.15193695879957, 0
736, 0.27902142987002, -0.11175244832408, 0
737, 0.21003607845629, -0.13460294867912, 0
738, 0.21960947879339, -0.0061249570384808, 0
739, 0.09587314896845, -0.027369164361327, 0
740, 0.049131320559557, -0.14146306041063, 0
741, 0.83633278471057, 0.17888096160918, 0
742, 0.86511987053053, 0.17838233650938, 0
743, 0.33064746806969, 0.21667285819246, 0
744, 0.29271017035411, 0.17827115185021, 0
745, 0.89821243267708, -0.27521675809357, 0
746, 0.88562140106613, 0.044710214362093, 0
747, 0.90490755473178, 0.072548984688241, 0
748, 0.7898854404906, 0.0016397428248335, 0
749, 0.76078584378173, -0.10193120379131, 0
750, 0.86386429319472, 0.04525433297018, 0
751, 0.11985901490482, -0.025370577957179, 0
752, 0.81140648590935, 0.15522504692992, 0
753, 0.80693488277168, 0.1785074270639, 0
754, 0.90097607693692, -0.24948502880596, 0
755, 0.95495936117403, -0.10878140512096, 0
756, 0.60418726562778, -0.09328015144665, 0
757, 0.97632745444528, 0.034584482378236, 0
758, 0.91208547668495, -0.048212639713797, 0
759, 0.67659094309024, -0.20555124241252, 0
760, 0.14398277527116, -0.022441573835738, 0
761, 0.12063806481079, 0.029769048622602, 0
762, 0.92937969504219, -0.1949107683701, 0
763, 0.63623194961531, 0.20630904090576, 0
764, 0.37329243556589, 0.21466917469936, 0
765, 0.44280845556171, 0.21624477297033, 0
766, 0.51297594189486, 0.27503755951261, 0
767, 0.47741294228548, -0.21407717198742, 0
768, 0.47270526603094, -0.24030683007063, 0
769, 0.66081495933484, 0.047369091661968, 0
770, 0.95471459276847, -0.02004744117914, 0
771, 0.97681152863273, -0.16610168064998, 0
772, 0.90780389629697, 0.043405200871984, 0
773, 0.90355690486684, -0.22291427210291, 0
774, 0.93340436333735, -0.048660966023319, 0
775, 0.38734073746489, -0.27059076633612, 0
776, 0.57534879086128, -0.1276454158902, 0
777, 0.90589731634353, -0.19556454703127, 0
778, 0.43748173013425, 0.18523799222569, 0
779, 0.46580663060474, 0.21927988312373, 0
780, 0.59329464597731, 0.19133418033882, 0
781, 0.92842892818222, 0.070142910559612, 0
782, 0.97725649190387, -0.051275730969162, 0
783, 0.80922192187089, -0.059220539431388, 0
784, 0.84596048815628, -0.11353996198164, 0
785, 0.28762554101907, -0.042746178681437, 0
786, 0.29874448250487, -0.13912499479293, 0
787, 0.075243102031424, -0.16912747370839, 0
788, 0.1633521036588, -0.077201664405069, 0
789, 0.93032603968722, 0.041351745452669, 0
790, 0.4644766624794, -0.18870896570607, 0
791, 0.25078034047786, 0.050631600481046, 0
792, 0.80265494990236, 0.040713812586174, 0
793, 0.23365932902466, 0.14898482529759, 0
794, 0.75341416183594, -0.12961844609189, 0
795, 0.19346988892857, -0.013010182798323, 0
796, 0.19766335939737, -0.16707405725537, 0
797, 0.4170626212245, 0.15801690167263, 0
798, 0.50192631279004, 0.25041791988117, 0
799, 0.53049490525969, 0.25341558159315, 0
800, 0.52133341622864, -0.22441982261237, 0
801, 0.10026350166289, -0.16925370840048, 0
802, 0.71020223998996, 0.025184670235009, 0
803, 0.40959054144935, -0.26890701803534, 0
804, 0.50877369189305, 0.20700329691061, 0
805, 0.4264073843847, -0.23719360245699, 0
806, 0.2646689226887, 0.12717609653887, 0
807, 0.97733556894907, -0.080229862533834, 0
808, 0.64451379467454, 0.22766052077807, 0
809, 0.81964760437467, -0.27566010787528, 0
810, 0.18500231075205, -0.072661227106111, 0
811, 0.81961702014176, -0.14538197969036, 0
812, 0.69280076241103, 0.010556319515948, 0
813, 0.34711051797215, 0.14320637848194, 0
814, 0.74650612998021, -0.25204696434555, 0
815, 0.68322255575381, 0.03675404495299, 0
816, 0.71591724576738, -0.005717803918022, 0
817, 0.17390868748399, -0.16817246106839, 0
818, 0.2402718735994, 0.17678439159116, 0
819, 0.2791888629673, 0.058976676058214, 0
820, 0.36390642442775, -0.27129939672795, 0
821, 0.33976560812338, -0.2716076204462, 0
822, 0.54052730914513, 0.21360395120959, 0
823, 0.39702988571003, 0.216409679304, 0
824, 0.65013288845266, 0.25063655460719, 0
825, 0.69024571088732, 0.14050157196302, 0
826, 0.47678055894826, 0.16714705059063, 0
827, 0.7277891519819, 0.24651222485951, 0
828, 0.43888412749322, 0.15174013989262, 0
829, 0.680494172191, 0.16332949536534, 0
830, 0.56219236740106, 0.1938838239182, 0
831, 0.39220540534116, 0.18858971760321, 0
832, 0.5512476216533, 0.23424432262651, 0
833, 0.47569991416051, 0.24728655959, 0
834, 0.72096859256808, 0.14784010380016, 0
835, 0.65440474379511, 0.17748324054779, 0
836, 0.68999556199391, 0.18966309881188, 0
837, 0.62453271716592, 0.18674427134841, 0
838, 0.40437232966006, 0.24482689224261, 0
839, 0.71820386757814, 0.19326954655064, 0
840, 0.67218384894779, 0.22253436362855, 0
841, 0.72265879831731, 0.08530529423656, 0
842, 0.73834644985842, 0.095006319071409, 0
843, 0.75820319896444, 0.10012662409526, 0
844, 0.78035226474109, 0.10291034555249, 0
845, 0.80376935982365, 0.10413933895839, 0
846, 0.82786392591219, 0.10429717479244, 0
847, 0.85231665139267, 0.10366166949498, 0
848, 0.87694992883856, 0.10237842607542, 0
849, 0.90165667390628, 0.10048781253988, 0
850, 0.92636221519209, 0.097936152323006, 0
851, 0.9510080402777, 0.094556122088588, 0
852, 0.97555389371179, 0.090019595898154, 0
853, 0.67254843297136, -0.0035753371119872, 0
854, 0.67502437502115, -0.027950065518241, 0
855, 0.66857582734523, -0.05509322479009, 0
856, 0.65246778798966, -0.080338233132771, 0
857, 0.63396573255333, -0.10071550804983, 0
858, 0.61793088727166, -0.11853759731355, 0
859, 0.60573219076601, -0.13638852376221, 0
860, 0.59539144544832, -0.15449502940519, 0
861, 0.59218470080544, -0.17452824374766, 0
862, 0.58929461033603, -0.19549042133401, 0
863, 0.59200217107754, -0.21907591830921, 0
864, 0.58975971720684, -0.24460455348941, 0
865, 0.5847277697413, -0.27154038218022, 0
866, 0.66683087301192, 0.019675056397127, 0
867, 0.29167832012265, 0.13568063351089, 0
868, 0.28042802582296, 0.15508971249799, 0
******* E L E M E N T S *************
*ELEMENT, type=CPS4, ELSET=Surface1
1, 118, 364, 365, 107
2, 107, 365, 362, 117
3, 795, 228, 355, 668
4, 724, 229, 313, 632
5, 265, 644, 332, 297
6, 503, 426, 146, 168
7, 518, 317, 398, 695
8, 641, 640, 296, 526
9, 120, 372, 373, 109
10, 109, 373, 370, 119
11, 238, 156, 137, 339
12, 229, 867, 806, 313
13, 200, 376, 377, 374
14, 374, 377, 90, 98
15, 377, 375, 97, 90
16, 376, 202, 375, 377
17, 65, 55, 381, 378
18, 378, 381, 379, 249
19, 381, 380, 252, 379
20, 55, 66, 380, 381
21, 99, 383, 384, 91
22, 91, 384, 374, 98
23, 384, 382, 200, 374
24, 383, 201, 382, 384
25, 179, 387, 388, 385
26, 385, 388, 15, 23
27, 388, 386, 22, 15
28, 387, 176, 386, 388
29, 198, 391, 392, 389
30, 389, 392, 93, 101
31, 392, 390, 100, 93
32, 391, 199, 390, 392
33, 3, 865, 267, 28
34, 794, 749, 489, 185
35, 642, 844, 843, 698
36, 273, 746, 750, 353
37, 524, 501, 534, 521
38, 440, 610, 345, 393
39, 865, 864, 515, 267
40, 859, 858, 707, 776
41, 832, 456, 799, 625
42, 836, 578, 840, 259
43, 172, 406, 407, 404
44, 404, 407, 405, 173
45, 407, 11, 19, 405
46, 406, 18, 11, 407
47, 100, 390, 409, 92
48, 92, 409, 383, 99
49, 409, 408, 201, 383
50, 390, 199, 408, 409
51, 173, 405, 412, 410
52, 410, 412, 411, 174
53, 412, 12, 20, 411
54, 405, 19, 12, 412
55, 196, 415, 416, 413
56, 413, 416, 414, 194
57, 416, 105, 116, 414
58, 415, 115, 105, 416
59, 360, 230, 354, 430
60, 362, 418, 106, 117
61, 418, 414, 116, 106
62, 417, 194, 414, 418
63, 79, 421, 422, 71
64, 71, 422, 419, 78
65, 422, 420, 255, 419
66, 421, 256, 420, 422
67, 22, 386, 425, 14
68, 14, 425, 423, 21
69, 425, 424, 175, 423
70, 386, 176, 424, 425
71, 378, 333, 54, 65
72, 747, 849, 848, 328
73, 863, 862, 478, 609
74, 556, 776, 127, 165
75, 119, 370, 431, 108
76, 108, 431, 364, 118
77, 210, 737, 658, 683
78, 751, 739, 239, 599
79, 305, 518, 695, 575
80, 707, 756, 126, 166
81, 302, 279, 864, 865
82, 643, 342, 802, 816
83, 259, 840, 808, 763
84, 804, 625, 261, 446
85, 437, 421, 79, 72
86, 436, 256, 421, 437
87, 590, 351, 855, 856
88, 429, 762, 777, 773
89, 33, 329, 583, 40
90, 688, 271, 285, 555
91, 44, 701, 809, 36
92, 286, 772, 746, 273
93, 756, 712, 167, 126
94, 304, 590, 856, 857
95, 340, 724, 632, 819
96, 443, 445, 110, 121
97, 445, 372, 120, 110
98, 211, 668, 810, 690
99, 335, 437, 72, 80
100, 308, 826, 152, 141
101, 827, 436, 437, 335
102, 763, 808, 457, 260
103, 644, 273, 353, 332
104, 368, 845, 846, 441
105, 514, 770, 558, 774
106, 121, 111, 453, 443
107, 216, 155, 813, 655
108, 339, 137, 155, 216
109, 111, 122, 452, 453
110, 174, 411, 455, 454
111, 454, 455, 423, 175
112, 455, 13, 21, 423
113, 411, 20, 13, 455
114, 798, 766, 462, 833
115, 834, 315, 275, 726
116, 289, 306, 672, 281
117, 612, 514, 774, 400
118, 272, 847, 848, 442
119, 532, 582, 535, 689
120, 435, 624, 823, 831
121, 181, 82, 75, 458
122, 765, 245, 205, 624
123, 307, 834, 726, 728
124, 829, 307, 839, 836
125, 624, 205, 838, 823
126, 446, 261, 779, 629
127, 204, 465, 466, 464
128, 464, 466, 375, 202
129, 466, 89, 97, 375
130, 465, 96, 89, 466
131, 773, 777, 488, 449
132, 512, 784, 617, 811
133, 583, 469, 279, 302
134, 651, 348, 301, 597
135, 123, 113, 471, 470
136, 470, 471, 406, 172
137, 471, 10, 18, 406
138, 113, 1, 10, 471
139, 30, 27, 474, 472
140, 472, 474, 309, 182
141, 474, 473, 183, 309
142, 27, 31, 473, 474
143, 549, 507, 131, 161
144, 476, 319, 178, 475
145, 507, 504, 162, 131
146, 790, 649, 505, 477
147, 609, 478, 287, 311
148, 266, 851, 850, 781
149, 574, 560, 334, 469
150, 498, 591, 270, 249
151, 253, 481, 482, 480
152, 480, 482, 419, 255
153, 482, 70, 78, 419
154, 481, 77, 70, 482
155, 102, 95, 485, 483
156, 483, 485, 484, 197
157, 485, 103, 114, 484
158, 95, 8, 103, 485
159, 101, 94, 487, 389
160, 389, 487, 486, 198
161, 487, 483, 197, 486
162, 94, 102, 483, 487
163, 442, 848, 849, 479
164, 812, 815, 866, 853
165, 746, 328, 330, 750
166, 777, 520, 434, 488
167, 205, 577, 321, 838
168, 837, 763, 260, 780
169, 461, 458, 257, 456
170, 66, 56, 494, 380
171, 380, 494, 492, 252
172, 494, 493, 254, 492
173, 56, 67, 493, 494
174, 67, 57, 496, 493
175, 493, 496, 495, 254
176, 496, 68, 76, 495
177, 57, 5, 68, 496
178, 251, 499, 500, 497
179, 497, 500, 379, 252
180, 500, 498, 249, 379
181, 499, 248, 498, 500
182, 184, 556, 165, 677
183, 32, 302, 865, 3
184, 754, 773, 449, 303
185, 536, 347, 653, 294
186, 679, 547, 163, 130
187, 241, 324, 507, 549
188, 324, 506, 504, 507
189, 178, 510, 323, 547
190, 547, 323, 129, 163
191, 475, 178, 547, 679
192, 385, 821, 650, 179
193, 508, 767, 649, 790
194, 840, 403, 824, 808
195, 828, 797, 139, 153
196, 826, 446, 629, 402
197, 506, 475, 679, 504
198, 509, 476, 475, 506
199, 29, 26, 169, 550
200, 169, 472, 182, 768
201, 180, 866, 815, 769
202, 46, 290, 367, 38
203, 616, 303, 366, 701
204, 783, 597, 502, 645
205, 264, 735, 557, 448
206, 342, 460, 533, 802
207, 399, 264, 448, 706
208, 281, 672, 783, 276
209, 96, 465, 517, 88
210, 462, 84, 87, 322
211, 465, 204, 516, 517
212, 292, 280, 346, 274
213, 572, 460, 841, 525
214, 781, 850, 849, 747
215, 531, 344, 666, 268
216, 334, 667, 523, 395
217, 802, 533, 815, 812
218, 535, 522, 735, 264
219, 434, 305, 575, 300
220, 122, 112, 528, 452
221, 452, 528, 527, 222
222, 528, 470, 172, 527
223, 112, 123, 470, 528
224, 254, 495, 530, 529
225, 529, 530, 481, 253
226, 530, 69, 77, 481
227, 495, 76, 69, 530
228, 345, 352, 317, 518
229, 698, 843, 842, 396
230, 770, 278, 427, 558
231, 667, 531, 268, 523
232, 394, 286, 273, 644
233, 666, 186, 859, 860
234, 467, 269, 580, 438
235, 757, 665, 266, 291
236, 197, 484, 538, 537
237, 537, 538, 415, 196
238, 538, 104, 115, 415
239, 484, 114, 104, 538
240, 213, 659, 704, 371
241, 761, 545, 230, 360
242, 235, 540, 232, 737
243, 632, 313, 237, 600
244, 723, 740, 635, 787
245, 546, 336, 604, 592
246, 659, 593, 628, 704
247, 670, 208, 213, 684
248, 504, 679, 130, 162
249, 243, 550, 678, 805
250, 821, 820, 318, 650
251, 548, 805, 242, 319
252, 188, 553, 554, 551
253, 551, 554, 408, 199
254, 605, 356, 623, 606
255, 189, 793, 818, 631
256, 792, 642, 698, 450
257, 780, 260, 401, 830
258, 274, 346, 574, 329
259, 689, 535, 264, 399
260, 283, 846, 845, 685
261, 43, 579, 170, 35
262, 525, 841, 842, 350
263, 515, 609, 311, 183
264, 758, 394, 644, 265
265, 772, 747, 328, 746
266, 396, 842, 841, 432
267, 268, 666, 860, 861
268, 797, 263, 154, 139
269, 436, 567, 565, 256
270, 567, 566, 244, 565
271, 577, 85, 7, 321
272, 195, 569, 570, 568
273, 568, 570, 391, 198
274, 570, 551, 199, 391
275, 569, 188, 551, 570
276, 640, 562, 519, 296
277, 784, 289, 281, 617
278, 672, 651, 597, 783
279, 502, 748, 640, 641
280, 45, 745, 616, 37
281, 564, 276, 316, 696
282, 170, 294, 814, 341
283, 145, 572, 525, 148
284, 835, 259, 763, 837
285, 458, 75, 6, 257
286, 837, 780, 150, 143
287, 427, 789, 772, 286
288, 301, 792, 450, 748
289, 366, 524, 521, 293
290, 294, 653, 700, 814
291, 706, 448, 467, 699
292, 557, 794, 185, 269
293, 789, 781, 747, 772
294, 340, 216, 655, 724
295, 361, 801, 221, 619
296, 588, 586, 194, 417
297, 587, 193, 586, 588
298, 267, 515, 183, 473
299, 348, 428, 792, 301
300, 562, 396, 432, 519
301, 41, 274, 329, 33
302, 229, 546, 592, 867
303, 327, 552, 187, 206
304, 606, 623, 191, 553
305, 793, 325, 203, 818
306, 722, 648, 364, 431
307, 363, 595, 681, 212
308, 238, 236, 136, 156
309, 601, 791, 670, 708
310, 249, 270, 333, 378
311, 450, 698, 396, 562
312, 293, 521, 347, 536
313, 611, 503, 168, 125
314, 780, 830, 142, 150
315, 599, 239, 634, 240
316, 336, 337, 764, 630
317, 544, 371, 657, 602
318, 634, 694, 539, 215
319, 681, 683, 224, 314
320, 656, 338, 601, 626
321, 192, 605, 606, 603
322, 603, 606, 553, 188
323, 743, 622, 674, 604
324, 631, 818, 552, 327
325, 760, 692, 444, 751
326, 724, 655, 546, 229
327, 214, 340, 819, 338
328, 543, 654, 234, 720
329, 271, 288, 298, 285
330, 448, 557, 269, 467
331, 42, 341, 292, 34
332, 247, 272, 442, 652
333, 256, 565, 615, 420
334, 420, 615, 613, 255
335, 615, 614, 250, 613
336, 565, 244, 614, 615
337, 862, 861, 184, 478
338, 347, 532, 689, 653
339, 776, 707, 166, 127
340, 328, 848, 847, 330
341, 174, 620, 621, 410
342, 410, 621, 618, 173
343, 621, 619, 221, 618
344, 620, 227, 619, 621
345, 354, 637, 705, 542
346, 203, 744, 674, 594
347, 206, 187, 200, 382
348, 236, 135, 157, 136
349, 778, 765, 624, 435
350, 402, 828, 153, 140
351, 263, 831, 337, 598
352, 554, 673, 201, 408
353, 655, 813, 336, 546
354, 628, 605, 192, 627
355, 673, 206, 382, 201
356, 336, 813, 598, 337
357, 838, 321, 517, 516
358, 234, 235, 737, 210
359, 218, 233, 702, 646
360, 813, 155, 138, 598
361, 209, 217, 361, 660
362, 788, 691, 312, 638
363, 371, 704, 682, 657
364, 705, 417, 418, 362
365, 683, 658, 662, 224
366, 684, 213, 371, 544
367, 755, 612, 400, 610
368, 351, 671, 854, 855
369, 433, 533, 460, 572
370, 534, 299, 582, 532
371, 752, 441, 272, 247
372, 580, 513, 585, 344
373, 573, 439, 440, 468
374, 34, 292, 274, 41
375, 653, 689, 399, 700
376, 296, 519, 643, 277
377, 774, 558, 394, 758
378, 522, 564, 696, 735
379, 702, 785, 159, 134
380, 212, 241, 549, 786
381, 638, 312, 209, 359
382, 233, 207, 785, 702
383, 17, 2, 803, 775
384, 177, 548, 319, 476
385, 323, 477, 164, 129
386, 649, 287, 677, 505
387, 299, 512, 811, 582
388, 750, 330, 283, 563
389, 282, 397, 762, 429
390, 37, 616, 701, 44
391, 604, 674, 744, 592
392, 668, 355, 788, 810
393, 648, 542, 365, 364
394, 457, 171, 461, 680
395, 228, 760, 719, 355
396, 721, 430, 648, 722
397, 738, 708, 451, 795
398, 226, 360, 430, 721
399, 796, 817, 675, 223
400, 608, 722, 431, 370
401, 708, 670, 684, 451
402, 230, 693, 637, 354
403, 176, 663, 664, 424
404, 424, 664, 661, 175
405, 664, 662, 223, 661
406, 663, 224, 662, 664
407, 317, 265, 297, 398
408, 712, 611, 125, 167
409, 400, 774, 758, 352
410, 147, 433, 572, 145
411, 736, 786, 132, 160
412, 338, 819, 791, 601
413, 355, 719, 691, 788
414, 597, 301, 748, 502
415, 861, 860, 556, 184
416, 579, 536, 294, 170
417, 449, 488, 501, 524
418, 358, 793, 189, 190
419, 215, 539, 723, 225
420, 647, 710, 587, 693
421, 818, 203, 594, 552
422, 175, 661, 676, 454
423, 454, 676, 620, 174
424, 676, 675, 227, 620
425, 661, 223, 675, 676
426, 650, 318, 509, 320
427, 477, 505, 128, 164
428, 510, 790, 477, 323
429, 24, 17, 775, 820
430, 808, 824, 171, 457
431, 829, 825, 834, 307
432, 829, 836, 259, 835
433, 719, 599, 240, 691
434, 313, 806, 358, 237
435, 212, 681, 314, 241
436, 596, 736, 160, 133
437, 589, 816, 671, 351
438, 814, 700, 584, 280
439, 864, 863, 609, 515
440, 610, 400, 352, 345
441, 222, 527, 687, 686
442, 686, 687, 618, 221
443, 687, 404, 173, 618
444, 527, 172, 404, 687
445, 701, 366, 293, 809
446, 478, 184, 677, 287
447, 469, 334, 395, 279
448, 186, 581, 858, 859
449, 233, 636, 543, 207
450, 691, 240, 669, 312
451, 218, 238, 339, 214
452, 635, 453, 452, 222
453, 540, 638, 359, 232
454, 787, 635, 222, 686
455, 600, 237, 703, 208
456, 817, 660, 227, 675
457, 519, 432, 342, 643
458, 248, 479, 591, 498
459, 578, 447, 403, 840
460, 468, 440, 393, 520
461, 270, 851, 852, 333
462, 811, 617, 564, 522
463, 332, 353, 734, 559
464, 734, 563, 428, 348
465, 207, 219, 596, 785
466, 693, 587, 588, 637
467, 690, 810, 540, 235
468, 795, 451, 231, 228
469, 762, 468, 520, 777
470, 397, 573, 468, 762
471, 278, 291, 789, 427
472, 696, 316, 749, 794
473, 646, 158, 135, 236
474, 786, 549, 161, 132
475, 239, 220, 694, 634
476, 192, 709, 710, 627
477, 801, 787, 686, 221
478, 217, 225, 801, 361
479, 709, 193, 587, 710
480, 290, 697, 459, 367
481, 479, 849, 850, 591
482, 426, 180, 9, 146
483, 297, 332, 559, 306
484, 179, 713, 714, 387
485, 387, 714, 663, 176
486, 714, 314, 224, 663
487, 713, 241, 314, 714
488, 198, 486, 716, 568
489, 568, 716, 715, 195
490, 716, 537, 196, 715
491, 486, 197, 537, 716
492, 253, 717, 718, 529
493, 529, 718, 492, 254
494, 718, 497, 252, 492
495, 717, 251, 497, 718
496, 218, 646, 236, 238
497, 607, 373, 372, 541
498, 225, 723, 787, 801
499, 760, 751, 599, 719
500, 312, 669, 217, 209
501, 232, 359, 817, 796
502, 660, 361, 619, 227
503, 237, 358, 190, 703
504, 637, 588, 417, 705
505, 207, 543, 720, 219
506, 542, 705, 362, 365
507, 692, 602, 761, 444
508, 246, 727, 728, 726
509, 331, 567, 436, 827
510, 829, 835, 149, 144
511, 727, 244, 566, 728
512, 193, 709, 730, 729
513, 729, 730, 569, 195
514, 730, 603, 188, 569
515, 709, 192, 603, 730
516, 194, 586, 731, 413
517, 413, 731, 715, 196
518, 731, 729, 195, 715
519, 586, 193, 729, 731
520, 251, 717, 733, 732
521, 732, 733, 613, 250
522, 733, 480, 255, 613
523, 717, 253, 480, 733
524, 560, 759, 667, 334
525, 298, 589, 351, 590
526, 854, 853, 426, 503
527, 559, 734, 348, 651
528, 451, 684, 544, 231
529, 636, 357, 654, 543
530, 669, 215, 225, 217
531, 720, 234, 210, 595
532, 214, 339, 216, 340
533, 751, 444, 226, 739
534, 654, 690, 235, 234
535, 682, 627, 710, 647
536, 250, 741, 742, 732
537, 732, 742, 499, 251
538, 742, 652, 248, 499
539, 741, 247, 652, 742
540, 867, 868, 325, 806
541, 553, 191, 673, 554
542, 401, 680, 832, 822
543, 307, 728, 566, 839
544, 521, 534, 532, 347
545, 353, 750, 563, 734
546, 352, 758, 265, 317
547, 816, 802, 812, 671
548, 857, 856, 712, 756
549, 28, 267, 473, 31
550, 726, 275, 368, 246
551, 582, 811, 522, 535
552, 228, 231, 692, 760
553, 218, 656, 636, 233
554, 791, 600, 208, 670
555, 626, 738, 211, 357
556, 244, 727, 753, 614
557, 614, 753, 741, 250
558, 753, 752, 247, 741
559, 727, 246, 752, 753
560, 853, 866, 180, 426
561, 275, 844, 845, 368
562, 459, 429, 773, 754
563, 856, 855, 611, 712
564, 671, 812, 853, 854
565, 855, 854, 503, 611
566, 344, 585, 186, 666
567, 735, 696, 794, 557
568, 739, 226, 721, 725
569, 819, 632, 600, 791
570, 219, 363, 736, 596
571, 208, 703, 659, 213
572, 279, 395, 863, 864
573, 303, 449, 524, 366
574, 329, 574, 469, 583
575, 501, 300, 299, 534
576, 630, 743, 604, 336
577, 764, 516, 204, 630
578, 578, 331, 827, 447
579, 831, 823, 764, 337
580, 825, 350, 315, 834
581, 823, 838, 516, 764
582, 25, 29, 550, 243
583, 805, 678, 508, 242
584, 320, 509, 506, 324
585, 26, 30, 472, 169
586, 575, 695, 784, 512
587, 428, 685, 642, 792
588, 276, 783, 645, 316
589, 652, 442, 479, 248
590, 40, 583, 302, 32
591, 185, 489, 688, 513
592, 316, 645, 639, 749
593, 809, 293, 536, 579
594, 563, 283, 685, 428
595, 35, 170, 341, 42
596, 395, 523, 862, 863
597, 350, 842, 843, 315
598, 447, 827, 335, 463
599, 749, 639, 284, 489
600, 124, 769, 433, 147
601, 526, 296, 277, 288
602, 678, 768, 767, 508
603, 318, 177, 476, 509
604, 242, 508, 790, 510
605, 820, 775, 177, 318
606, 438, 580, 344, 531
607, 315, 843, 844, 275
608, 488, 434, 300, 501
609, 665, 852, 851, 266
610, 839, 566, 567, 331
611, 766, 86, 84, 462
612, 835, 837, 143, 149
613, 257, 6, 83, 258
614, 824, 491, 181, 171
615, 398, 297, 306, 289
616, 585, 555, 581, 186
617, 441, 846, 847, 272
618, 697, 282, 429, 459
619, 591, 850, 851, 270
620, 280, 584, 349, 346
621, 277, 643, 816, 589
622, 645, 502, 641, 639
623, 581, 304, 857, 858
624, 700, 399, 706, 584
625, 584, 706, 699, 349
626, 860, 859, 776, 556
627, 608, 370, 373, 607
628, 545, 647, 693, 230
629, 541, 372, 445, 633
630, 633, 445, 443, 740
631, 657, 682, 647, 545
632, 444, 761, 360, 226
633, 220, 607, 541, 694
634, 626, 601, 708, 738
635, 520, 393, 305, 434
636, 695, 398, 289, 784
637, 38, 367, 745, 45
638, 639, 641, 526, 284
639, 775, 803, 548, 177
640, 179, 650, 320, 713
641, 767, 310, 287, 649
642, 713, 320, 324, 241
643, 539, 633, 740, 723
644, 231, 544, 602, 692
645, 737, 232, 796, 658
646, 218, 214, 338, 656
647, 285, 298, 590, 304
648, 284, 526, 288, 271
649, 523, 268, 861, 862
650, 306, 559, 651, 672
651, 356, 189, 631, 623
652, 190, 189, 356, 593
653, 191, 327, 206, 673
654, 593, 356, 605, 628
655, 341, 814, 280, 292
656, 489, 284, 271, 688
657, 9, 180, 769, 124
658, 513, 688, 555, 585
659, 694, 541, 633, 539
660, 740, 443, 453, 635
661, 359, 209, 660, 817
662, 738, 795, 668, 211
663, 363, 212, 786, 736
664, 595, 210, 683, 681
665, 739, 725, 220, 239
666, 240, 634, 215, 669
667, 836, 839, 331, 578
668, 260, 457, 680, 401
669, 187, 326, 376, 200
670, 490, 81, 74, 491
671, 825, 148, 525, 350
672, 261, 798, 833, 779
673, 797, 435, 831, 263
674, 491, 74, 82, 181
675, 833, 462, 322, 245
676, 402, 629, 778, 828
677, 680, 461, 456, 832
678, 830, 262, 151, 142
679, 826, 402, 140, 152
680, 183, 311, 800, 309
681, 309, 800, 310, 182
682, 311, 287, 310, 800
683, 219, 720, 595, 363
684, 602, 657, 545, 761
685, 646, 702, 134, 158
686, 346, 349, 560, 574
687, 699, 467, 438, 759
688, 558, 427, 286, 394
689, 768, 182, 310, 767
690, 319, 242, 510, 178
691, 803, 243, 805, 548
692, 829, 144, 148, 825
693, 550, 169, 768, 678
694, 2, 25, 243, 803
695, 505, 677, 165, 128
696, 594, 674, 622, 326
697, 325, 868, 744, 203
698, 552, 594, 326, 187
699, 367, 459, 754, 745
700, 333, 852, 64, 54
701, 36, 809, 579, 43
702, 308, 804, 446, 826
703, 629, 779, 765, 778
704, 263, 598, 138, 154
705, 349, 699, 759, 560
706, 759, 438, 531, 667
707, 330, 847, 846, 283
708, 463, 335, 80, 73
709, 806, 325, 793, 358
710, 262, 308, 141, 151
711, 658, 796, 223, 662
712, 357, 211, 690, 654
713, 703, 190, 593, 659
714, 288, 277, 589, 298
715, 748, 450, 562, 640
716, 769, 815, 533, 433
717, 269, 185, 513, 580
718, 685, 845, 844, 642
719, 745, 754, 303, 616
720, 326, 622, 202, 376
721, 300, 575, 512, 299
722, 858, 857, 756, 707
723, 246, 368, 441, 752
724, 432, 841, 460, 342
725, 617, 281, 276, 564
726, 555, 285, 304, 581
727, 393, 345, 518, 305
728, 439, 755, 610, 440
729, 291, 266, 781, 789
730, 725, 721, 722, 608
731, 725, 608, 607, 220
732, 704, 628, 627, 682
733, 592, 744, 868, 867
734, 430, 354, 542, 648
735, 623, 631, 327, 191
736, 785, 596, 133, 159
737, 656, 626, 357, 636
738, 810, 788, 638, 540
739, 16, 24, 820, 821
740, 23, 16, 821, 385
741, 258, 83, 86, 766
742, 463, 73, 81, 490
743, 828, 778, 435, 797
744, 245, 322, 577, 205
745, 822, 832, 625, 804
746, 262, 822, 804, 308
747, 403, 490, 491, 824
748, 779, 833, 245, 765
749, 625, 799, 798, 261
750, 322, 87, 85, 577
751, 799, 258, 766, 798
752, 321, 7, 88, 517
753, 456, 257, 258, 799
754, 830, 401, 822, 262
755, 171, 181, 458, 461
756, 447, 463, 490, 403
757, 369, 757, 291, 278
758, 576, 369, 278, 770
759, 782, 576, 770, 514
760, 807, 782, 514, 612
761, 711, 807, 612, 755
762, 343, 711, 755, 439
763, 771, 343, 439, 573
764, 511, 771, 573, 397
765, 571, 511, 397, 282
766, 295, 571, 282, 697
767, 561, 295, 697, 290
768, 39, 561, 290, 46
769, 53, 64, 852, 665
770, 63, 53, 665, 757
771, 52, 63, 757, 369
772, 62, 52, 369, 576
773, 51, 62, 576, 782
774, 61, 51, 782, 807
775, 50, 61, 807, 711
776, 60, 50, 711, 343
777, 49, 60, 343, 771
778, 59, 49, 771, 511
779, 48, 59, 511, 571
780, 58, 48, 571, 295
781, 47, 58, 295, 561
782, 4, 47, 561, 39
783, 464, 202, 622, 743
784, 204, 464, 743, 630
*ELSET,ELSET=contact_source
101, 102, 103, 104, 105, 106, 107, 108, 109, 110, 
111, 112, 113, 114, 115, 116, 117, 118, 119, 120, 
121, 122, 
*ELSET,ELSET=contact_drain
41, 42, 43, 44, 45, 46, 47, 48, 49, 50, 
51, 52, 53, 54, 55, 56, 57, 58, 59, 60, 
61, 62, 
*ELSET,ELSET=probe_A
79, 80, 81, 82, 83, 84, 
*ELSET,ELSET=probe_B
17, 18, 19, 20, 21, 22, 23, 24, 
*ELSET,ELSET=walls
1, 2, 3, 4, 5, 6, 7, 8, 9, 10, 
11, 12, 13, 14, 15, 16, 25, 26, 27, 28, 
29, 30, 31, 32, 33, 34, 35, 36, 37, 38, 
39, 40, 63, 64, 65, 66, 67, 68, 69, 70, 
71, 72, 73, 74, 75, 76, 77, 78, 85, 86, 
87, 88, 89, 90, 91, 92, 93, 94, 95, 96, 
97, 98, 99, 100, 123, 124, 125, 126, 127, 128, 
129, 130, 131, 132, 133, 134, 135, 136, 137, 138, 
139, 140, 141, 142, 143, 144, 145, 146, 147, 148, 
149, 150, 151, 152, 153, 154, 155, 156, 157, 158, 
159, 160, 161, 162, 163, 164, 165, 166, 167, 168, 
*ELSET,ELSET=domain
169, 170, 171, 172, 173, 174, 175, 176, 177, 178, 
179, 180, 181, 182, 183, 184, 185, 186, 187, 188, 
189, 190, 191, 192, 193, 194, 195, 196, 197, 198, 
199, 200, 201, 202, 203, 204, 205, 206, 207, 208, 
209, 210, 211, 212, 213, 214, 215, 216, 217, 218, 
219, 220, 221, 222, 223, 224, 225, 226, 227, 228, 
229, 230, 231, 232, 233, 234, 235, 236, 237, 238, 
239, 240, 241, 242, 243, 244, 245, 246, 247, 248, 
249, 250, 251, 252, 253, 254, 255, 256, 257, 258, 
259, 260, 261, 262, 263, 264, 265, 266, 267, 268, 
269, 270, 271, 272, 273, 274, 275, 276, 277, 278, 
279, 280, 281, 282, 283, 284, 285, 286, 287, 288, 
289, 290, 291, 292, 293, 294, 295, 296, 297, 298, 
299, 300, 301, 302, 303, 304, 305, 306, 307, 308, 
309, 310, 311, 312, 313, 314, 315, 316, 317, 318, 
319, 320, 321, 322, 323, 324, 325, 326, 327, 328, 
329, 330, 331, 332, 333, 334, 335, 336, 337, 338, 
339, 340, 341, 342, 343, 344, 345, 346, 347, 348, 
349, 350, 351, 352, 353, 354, 355, 356, 357, 358, 
359, 360, 361, 362, 363, 364, 365, 366, 367, 368, 
369, 370, 371, 372, 373, 374, 375, 376, 377, 378, 
379, 380, 381, 382, 383, 384, 385, 386, 387, 388, 
389, 390, 391, 392, 393, 394, 395, 396, 397, 398, 
399, 400, 401, 402, 403, 404, 405, 406, 407, 408, 
409, 410, 411, 412, 413, 414, 415, 416, 417, 418, 
419, 420, 421, 422, 423, 424, 425, 426, 427, 428, 
429, 430, 431, 432, 433, 434, 435, 436, 437, 438, 
439, 440, 441, 442, 443, 444, 445, 446, 447, 448, 
449, 450, 451, 452, 453, 454, 455, 456, 457, 458, 
459, 460, 461, 462, 463, 464, 465, 466, 467, 468, 
469, 470, 471, 472, 473, 474, 475, 476, 477, 478, 
479, 480, 481, 482, 483, 484, 485, 486, 487, 488, 
489, 490, 491, 492, 493, 494, 495, 496, 497, 498, 
499, 500, 501, 502, 503, 504, 505, 506, 507, 508, 
509, 510, 511, 512, 513, 514, 515, 516, 517, 518, 
519, 520, 521, 522, 523, 524, 525, 526, 527, 528, 
529, 530, 531, 532, 533, 534, 535, 536, 537, 538, 
539, 540, 541, 542, 543, 544, 545, 546, 547, 548, 
549, 550, 551, 552, 553, 554, 555, 556, 557, 558, 
559, 560, 561, 562, 563, 564, 565, 566, 567, 568, 
569, 570, 571, 572, 573, 574, 575, 576, 577, 578, 
579, 580, 581, 582, 583, 584, 585, 586, 587, 588, 
589, 590, 591, 592, 593, 594, 595, 596, 597, 598, 
599, 600, 601, 602, 603, 604, 605, 606, 607, 608, 
609, 610, 611, 612, 613, 614, 615, 616, 617, 618, 
619, 620, 621, 622, 623, 624, 625, 626, 627, 628, 
629, 630, 631, 632, 633, 634, 635, 636, 637, 638, 
639, 640, 641, 642, 643, 644, 645, 646, 647, 648, 
649, 650, 651, 652, 653, 654, 655, 656, 657, 658, 
659, 660, 661, 662, 663, 664, 665, 666, 667, 668, 
669, 670, 671, 672, 673, 674, 675, 676, 677, 678, 
679, 680, 681, 682, 683, 684, 685, 686, 687, 688, 
689, 690, 691, 692, 693, 694, 695, 696, 697, 698, 
699, 700, 701, 702, 703, 704, 705, 706, 707, 708, 
709, 710, 711, 712, 713, 714, 715, 716, 717, 718, 
719, 720, 721, 722, 723, 724, 725, 726, 727, 728, 
729, 730, 731, 732, 733, 734, 735, 736, 737, 738, 
739, 740, 741, 742, 743, 744, 745, 746, 747, 748, 
749, 750, 751, 752, 753, 754, 755, 756, 757, 758, 
759, 760, 761, 762, 763, 764, 765, 766, 767, 768, 
769, 770, 771, 772, 773, 774, 775, 776, 777, 778, 
779, 780, 781, 782, 783, 784, 785, 786, 787, 788, 
789, 790, 791, 792, 793, 794, 795, 796, 797, 798, 
799, 800, 801, 802, 803, 804, 805, 806, 807, 808, 
809, 810, 811, 812, 813, 814, 815, 816, 817, 818, 
819, 820, 821, 822, 823, 824, 825, 826, 827, 828, 
829, 830, 831, 832, 833, 834, 835, 836, 837, 838, 
839, 840, 841, 842, 843, 844, 845, 846, 847, 848, 
849, 850, 851, 852, 853, 854, 855, 856, 857, 858, 
859, 860, 861, 862, 863, 864, 865, 866, 867, 868, 
869, 870, 871, 872, 873, 874, 875, 876, 877, 878, 
879, 880, 881, 882, 883, 884, 885, 886, 887, 888, 
889, 890, 891, 892, 893, 894, 895, 896, 897, 898, 
899, 900, 901, 902, 903, 904, 905, 906, 907, 908, 
909, 910, 911, 912, 913, 914, 915, 916, 917, 918, 
919, 920, 921, 922, 923, 924, 925, 926, 927, 928, 
929, 930, 931, 932, 933, 934, 935, 936, 937, 938, 
939, 940, 941, 942, 943, 944, 945, 946, 947, 948, 
949, 950, 951, 952, 
*NSET,NSET=contact_source
1, 8, 103, 104, 105, 106, 107, 108, 109, 110, 
111, 112, 113, 114, 115, 116, 117, 118, 119, 120, 
121, 122, 123, 
*NSET,NSET=contact_drain
4, 5, 47, 48, 49, 50, 51, 52, 53, 54, 
55, 56, 57, 58, 59, 60, 61, 62, 63, 64, 
65, 66, 67, 
*NSET,NSET=probe_A
6, 7, 83, 84, 85, 86, 87, 
*NSET,NSET=probe_B
2, 3, 25, 26, 27, 28, 29, 30, 31, 
*NSET,NSET=walls
1, 2, 3, 4, 5, 6, 7, 8, 9, 10, 
11, 12, 13, 14, 15, 16, 17, 18, 19, 20, 
21, 22, 23, 24, 32, 33, 34, 35, 36, 37, 
38, 39, 40, 41, 42, 43, 44, 45, 46, 68, 
69, 70, 71, 72, 73, 74, 75, 76, 77, 78, 
79, 80, 81, 82, 88, 89, 90, 91, 92, 93, 
94, 95, 96, 97, 98, 99, 100, 101, 102, 124, 
125, 126, 127, 128, 129, 130, 131, 132, 133, 134, 
135, 136, 137, 138, 139, 140, 141, 142, 143, 144, 
145, 146, 147, 148, 149, 150, 151, 152, 153, 154, 
155, 156, 157, 158, 159, 160, 161, 162, 163, 164, 
165, 166, 167, 168, 
*NSET,NSET=domain
1, 2, 3, 4, 5, 6, 7, 8, 9, 10, 
11, 12, 13, 14, 15, 16, 17, 18, 19, 20, 
21, 22, 23, 24, 25, 26, 27, 28, 29, 30, 
31, 32, 33, 34, 35, 36, 37, 38, 39, 40, 
41, 42, 43, 44, 45, 46, 47, 48, 49, 50, 
51, 52, 53, 54, 55, 56, 57, 58, 59, 60, 
61, 62, 63, 64, 65, 66, 67, 68, 69, 70, 
71, 72, 73, 74, 75, 76, 77, 78, 79, 80, 
81, 82, 83, 84, 85, 86, 87, 88, 89, 90, 
91, 92, 93, 94, 95, 96, 97, 98, 99, 100, 
101, 102, 103, 104, 105, 106, 107, 108, 109, 110, 
111, 112, 113, 114, 115, 116, 117, 118, 119, 120, 
121, 122, 123, 124, 125, 126, 127, 128, 129, 130, 
131, 132, 133, 134, 135, 136, 137, 138, 139, 140, 
141, 142, 143, 144, 145, 146, 147, 148, 149, 150, 
151, 152, 153, 154, 155, 156, 157, 158, 159, 160, 
161, 162, 163, 164, 165, 166, 167, 168, 169, 170, 
171, 172, 173, 174, 175, 176, 177, 178, 179, 180, 
181, 182, 183, 184, 185, 186, 187, 188, 189, 190, 
191, 192, 193, 194, 195, 196, 197, 198, 199, 200, 
201, 202, 203, 204, 205, 206, 207, 208, 209, 210, 
211, 212, 213, 214, 215, 216, 217, 218, 219, 220, 
221, 222, 223, 224, 225, 226, 227, 228, 229, 230, 
231, 232, 233, 234, 235, 236, 237, 238, 239, 240, 
241, 242, 243, 244, 245, 246, 247, 248, 249, 250, 
251, 252, 253, 254, 255, 256, 257, 258, 259, 260, 
261, 262, 263, 264, 265, 266, 267, 268, 269, 270, 
271, 272, 273, 274, 275, 276, 277, 278, 279, 280, 
281, 282, 283, 284, 285, 286, 287, 288, 289, 290, 
291, 292, 293, 294, 295, 296, 297, 298, 299, 300, 
301, 302, 303, 304, 305, 306, 307, 308, 309, 310, 
311, 312, 313, 314, 315, 316, 317, 318, 319, 320, 
321, 322, 323, 324, 325, 326, 327, 328, 329, 330, 
331, 332, 333, 334, 335, 336, 337, 338, 339, 340, 
341, 342, 343, 344, 345, 346, 347, 348, 349, 350, 
351, 352, 353, 354, 355, 356, 357, 358, 359, 360, 
361, 362, 363, 364, 365, 366, 367, 368, 369, 370, 
371, 372, 373, 374, 375, 376, 377, 378, 379, 380, 
381, 382, 383, 384, 385, 386, 387, 388, 389, 390, 
391, 392, 393, 394, 395, 396, 397, 398, 399, 400, 
401, 402, 403, 404, 405, 406, 407, 408, 409, 410, 
411, 412, 413, 414, 415, 416, 417, 418, 419, 420, 
421, 422, 423, 424, 425, 426, 427, 428, 429, 430, 
431, 432, 433, 434, 435, 436, 437, 438, 439, 440, 
441, 442, 443, 444, 445, 446, 447, 448, 449, 450, 
451, 452, 453, 454, 455, 456, 457, 458, 459, 460, 
461, 462, 463, 464, 465, 466, 467, 468, 469, 470, 
471, 472, 473, 474, 475, 476, 477, 478, 479, 480, 
481, 482, 483, 484, 485, 486, 487, 488, 489, 490, 
491, 492, 493, 494, 495, 496, 497, 498, 499, 500, 
501, 502, 503, 504, 505, 506, 507, 508, 509, 510, 
511, 512, 513, 514, 515, 516, 517, 518, 519, 520, 
521, 522, 523, 524, 525, 526, 527, 528, 529, 530, 
531, 532, 533, 534, 535, 536, 537, 538, 539, 540, 
541, 542, 543, 544, 545, 546, 547, 548, 549, 550, 
551, 552, 553, 554, 555, 556, 557, 558, 559, 560, 
561, 562, 563, 564, 565, 566, 567, 568, 569, 570, 
571, 572, 573, 574, 575, 576, 577, 578, 579, 580, 
581, 582, 583, 584, 585, 586, 587, 588, 589, 590, 
591, 592, 593, 594, 595, 596, 597, 598, 599, 600, 
601, 602, 603, 604, 605, 606, 607, 608, 609, 610, 
611, 612, 613, 614, 615, 616, 617, 618, 619, 620, 
621, 622, 623, 624, 625, 626, 627, 628, 629, 630, 
631, 632, 633, 634, 635, 636, 637, 638, 639, 640, 
641, 642, 643, 644, 645, 646, 647, 648, 649, 650, 
651, 652, 653, 654, 655, 656, 657, 658, 659, 660, 
661, 662, 663, 664, 665, 666, 667, 668, 669, 670, 
671, 672, 673, 674, 675, 676, 677, 678, 679, 680, 
681, 682, 683, 684, 685, 686, 687, 688, 689, 690, 
691, 692, 693, 694, 695, 696, 697, 698, 699, 700, 
701, 702, 703, 704, 705, 706, 707, 708, 709, 710, 
711, 712, 713, 714, 715, 716, 717, 718, 719, 720, 
721, 722, 723, 724, 725, 726, 727, 728, 729, 730, 
731, 732, 733, 734, 735, 736, 737, 738, 739, 740, 
741, 742, 743, 744, 745, 746, 747, 748, 749, 750, 
751, 752, 753, 754, 755, 756, 757, 758, 759, 760, 
761, 762, 763, 764, 765, 766, 767, 768, 769, 770, 
771, 772, 773, 774, 775, 776, 777, 778, 779, 780, 
781, 782, 783, 784, 785, 786, 787, 788, 789, 790, 
791, 792, 793, 794, 795, 796, 797, 798, 799, 800, 
801, 802, 803, 804, 805, 806, 807, 808, 809, 810, 
811, 812, 813, 814, 815, 816, 817, 818, 819, 820, 
821, 822, 823, 824, 825, 826, 827, 828, 829, 830, 
831, 832, 833, 834, 835, 836, 837, 838, 839, 840, 
841, 842, 843, 844, 845, 846, 847, 848, 849, 850, 
851, 852, 853, 854, 855, 856, 857, 858, 859, 860, 
861, 862, 863, 864, 865, 866, 867, 868, 
