*Heading
 /Users/juliagao/geometry-optimization-net/scripts/../runs/run2/shape_194.inp
*NODE
1, 0, -0.3, 0
2, 0.425, -0.3, 0
3, 0.575, -0.3, 0
4, 1, -0.3, 0
5, 1, 0.3, 0
6, 0.575, 0.3, 0
7, 0.425, 0.3, 0
8, 0, 0.3, 0
9, 0.6915453961, 0.0040390947, 0
10, 0.026004751667711, -0.3, 0
11, 0.078893777918909, -0.3, 0
12, 0.13266217103929, -0.3, 0
13, 0.18596996391141, -0.3, 0
14, 0.2391099164898, -0.3, 0
15, 0.29265439469215, -0.3, 0
16, 0.34611762808534, -0.3, 0
17, 0.39887633075967, -0.3, 0
18, 0.052009503335422, -0.3, 0
19, 0.1057780525024, -0.3, 0
20, 0.15954628957619, -0.3, 0
21, 0.21239363824663, -0.3, 0
22, 0.26582619473297, -0.3, 0
23, 0.31948259465133, -0.3, 0
24, 0.37275266151934, -0.3, 0
25, 0.45048659744922, -0.3, 0
26, 0.50063270498942, -0.3, 0
27, 0.55014610754019, -0.3, 0
28, 0.47597319489845, -0.3, 0
29, 0.52529221508038, -0.3, 0
30, 0.60186563732732, -0.3, 0
31, 0.65675407151137, -0.3, 0
32, 0.71189643744061, -0.3, 0
33, 0.76507353994635, -0.3, 0
34, 0.81716558622598, -0.3, 0
35, 0.86952447310204, -0.3, 0
36, 0.92207325841891, -0.3, 0
37, 0.97414883485306, -0.3, 0
38, 0.62873127465464, -0.3, 0
39, 0.6847768683681, -0.3, 0
40, 0.73901600651312, -0.3, 0
41, 0.79113107337959, -0.3, 0
42, 0.84320009907237, -0.3, 0
43, 0.89584884713171, -0.3, 0
44, 0.94829766970611, -0.3, 0
45, 1, -0.27396474712082, 0
46, 1, -0.22149037718964, 0
47, 1, -0.16768953788618, 0
48, 1, -0.11198318697482, 0
49, 1, -0.055284083679115, 0
50, 1, 0.00081786919025145, 0
51, 1, 0.05614176559095, 0
52, 1, 0.11101581019826, 0
53, 1, 0.16564756011035, 0
54, 1, 0.21999049196062, 0
55, 1, 0.27349965016949, 0
56, 1, -0.24792949424163, 0
57, 1, -0.19505126013764, 0
58, 1, -0.14032781563472, 0
59, 1, -0.083638558314916, 0
60, 1, -0.026929609043314, 0
61, 1, 0.028565347423816, 0
62, 1, 0.083718183758083, 0
63, 1, 0.13831343663843, 0
64, 1, 0.19298168358227, 0
65, 1, 0.24699930033898, 0
66, 0.97350013378645, 0.3, 0
67, 0.92007990297612, 0.3, 0
68, 0.86597298586018, 0.3, 0
69, 0.81150071485074, 0.3, 0
70, 0.75752519369748, 0.3, 0
71, 0.70448118884426, 0.3, 0
72, 0.65201259425909, 0.3, 0
73, 0.60044910093208, 0.3, 0
74, 0.9470002675729, 0.3, 0
75, 0.89315953837933, 0.3, 0
76, 0.83878643334103, 0.3, 0
77, 0.78421499636045, 0.3, 0
78, 0.7308353910345, 0.3, 0
79, 0.67812698665402, 0.3, 0
80, 0.62589820186416, 0.3, 0
81, 0.55528009892825, 0.3, 0
82, 0.51684016313182, 0.3, 0
83, 0.47992832930255, 0.3, 0
84, 0.44336826509898, 0.3, 0
85, 0.53556019785651, 0.3, 0
86, 0.49812012840713, 0.3, 0
87, 0.46173653019797, 0.3, 0
88, 0.40038748395643, 0.3, 0
89, 0.34908820371133, 0.3, 0
90, 0.29519742764569, 0.3, 0
91, 0.24056625017744, 0.3, 0
92, 0.18569901053926, 0.3, 0
93, 0.13147282273715, 0.3, 0
94, 0.078529756999346, 0.3, 0
95, 0.026186402514802, 0.3, 0
96, 0.37577496791287, 0.3, 0
97, 0.32240143950979, 0.3, 0
98, 0.26799341578158, 0.3, 0
99, 0.21313908457331, 0.3, 0
100, 0.15825893650521, 0.3, 0
101, 0.10468670896909, 0.3, 0
102, 0.052372805029603, 0.3, 0
103, 0, 0.2737702003559, 0
104, 0, 0.22134256081634, 0
105, 0, 0.16819200258906, 0
106, 0, 0.11372455874445, 0
107, 0, 0.058912429199543, 0
108, 0, 0.0040468617524781, 0
109, 0, -0.051704338070914, 0
110, 0, -0.10829186325938, 0
111, 0, -0.16411059235324, 0
112, 0, -0.21859315932454, 0
113, 0, -0.27283074299099, 0
114, 0, 0.2475404007118, 0
115, 0, 0.19514472092088, 0
116, 0, 0.14123928425723, 0
117, 0, 0.086209833231676, 0
118, 0, 0.03161502516741, 0
119, 0, -0.023521301662454, 0
120, 0, -0.079887374479374, 0
121, 0, -0.13669635203938, 0
122, 0, -0.19152483266709, 0
123, 0, -0.24566148598198, 0
124, 0.6804573356962, 0.03188725873764, 0
125, 0.75776761310676, -0.055818213629189, 0
126, 0.79482433006301, -0.10131467284859, 0
127, 0.81615165089375, -0.15474120634159, 0
128, 0.8026984435028, -0.208014297758, 0
129, 0.75460251335665, -0.23136131538187, 0
130, 0.69965737041774, -0.22832535475454, 0
131, 0.64527871487065, -0.21098306766393, 0
132, 0.59367428479785, -0.18820061195946, 0
133, 0.54197495755405, -0.19055956535276, 0
134, 0.50285187221935, -0.22340865190457, 0
135, 0.4524220286813, -0.2342240552567, 0
136, 0.40866067220365, -0.20286735922011, 0
137, 0.36718675700736, -0.16561027669436, 0
138, 0.31223550654119, -0.15155821446271, 0
139, 0.26040475261426, -0.12824307371031, 0
140, 0.23937613451285, -0.076100522738855, 0
141, 0.26336537307787, -0.022584227561067, 0
142, 0.30143085878205, 0.023520700861393, 0
143, 0.30125499040238, 0.082778008949285, 0
144, 0.28364294645846, 0.14030821425344, 0
145, 0.28525518454478, 0.19931911102166, 0
146, 0.31636191445116, 0.24616752890519, 0
147, 0.36508273722405, 0.26849296629032, 0
148, 0.4157058935369, 0.27164902566968, 0
149, 0.46219872642367, 0.26166015212069, 0
150, 0.50411458706366, 0.23961463473881, 0
151, 0.54123107195716, 0.20604203595547, 0
152, 0.5807635669191, 0.17058982658062, 0
153, 0.63496936918044, 0.15945681218438, 0
154, 0.68499003489482, 0.13693364126887, 0
155, 0.69593624196174, 0.084285095135752, 0
156, 0.71348074424252, -0.016218572510934, 0
157, 0.68794776807423, 0.058109792755456, 0
158, 0.69694786607769, 0.1119049955943, 0
159, 0.66229526983461, 0.15231076679322, 0
160, 0.6070892592508, 0.16309087367869, 0
161, 0.55900181839132, 0.18717833001283, 0
162, 0.52288564931719, 0.22436812063174, 0
163, 0.48351532756405, 0.25230163520662, 0
164, 0.43982181047261, 0.26807373646195, 0
165, 0.3913280239075, 0.27200346490304, 0
166, 0.3398658347402, 0.26031955227541, 0
167, 0.29766978957421, 0.22600903117239, 0
168, 0.281039992801, 0.17026854696673, 0
169, 0.29113263390769, 0.11124076727905, 0
170, 0.3093613435452, 0.053580307624512, 0
171, 0.28268452039989, 0.00059876336196863, 0
172, 0.24753170990437, -0.048374277054026, 0
173, 0.24322395397721, -0.10511068786936, 0
174, 0.28483672279439, -0.1428626942999, 0
175, 0.34028721795281, -0.1575377766434, 0
176, 0.39031603964512, -0.18206794164678, 0
177, 0.42860356119197, -0.22227107780316, 0
178, 0.4792755058292, -0.23412429470767, 0
179, 0.5229703367472, -0.2074003120456, 0
180, 0.5667472527421, -0.18124268147113, 0
181, 0.6188791135025, -0.19939895962814, 0
182, 0.67232898601487, -0.22098436316974, 0
183, 0.72771041455027, -0.23220638226029, 0
184, 0.7806248991718, -0.22412780878027, 0
185, 0.81518169517703, -0.1835662993544, 0
186, 0.80835377731947, -0.12718442725855, 0
187, 0.77768039491583, -0.077725533552785, 0
188, 0.73616525694147, -0.03559175723515, 0
189, 0.55566942720768, -0.22691197248763, 0
190, 0.048437116960547, -0.24413596354634, 0
191, 0.095074942356321, -0.24441768142344, 0
192, 0.14311198454517, -0.24687171298054, 0
193, 0.19273631413291, -0.24696278196664, 0
194, 0.23863146231929, -0.24556924288374, 0
195, 0.28296678360415, -0.24772879074777, 0
196, 0.53372125787916, -0.23765101056516, 0
197, 0.82282862550725, 0.054961517989386, 0
198, 0.71658974911262, 0.24459536255992, 0
199, 0.50583514527518, -0.23718186834368, 0
200, 0.22973344667911, 0.1554967332762, 0
201, 0.17180486044365, 0.043396884088794, 0
202, 0.055529319227517, 0.062494363438764, 0
203, 0.1464795598817, 0.11304921506672, 0
204, 0.26083684992947, 0.016466528125335, 0
205, 0.16538324420012, 0.019893280027941, 0
206, 0.14011006787339, 0.18773799923469, 0
207, 0.21065726054545, 0.062426216149577, 0
208, 0.054145070939155, 0.24487138243425, 0
209, 0.10672665562929, 0.24400655699259, 0
210, 0.15767825827252, 0.24341098870747, 0
211, 0.20647251931116, 0.24497023801561, 0
212, 0.27743236271755, 0.23770125793408, 0
213, 0.1725553585345, 0.16055515140046, 0
214, 0.19646347625642, 0.020144432640353, 0
215, 0.083619588219421, 0.18992931038197, 0
216, 0.1779317074572, 0.11124596405704, 0
217, 0.055623235028274, 0.19096686179252, 0
218, 0.14514399205682, 0.13722764416534, 0
219, 0.081069444317741, 0.011599284083858, 0
220, 0.19352478071023, -0.1940908763244, 0
221, 0.13947243722021, -0.19248889688124, 0
222, 0.24641788498454, -0.18871709908819, 0
223, 0.2043293518101, -0.14877228951047, 0
224, 0.14465792490722, -0.14129741372632, 0
225, 0.092552461249103, -0.18377048873633, 0
226, 0.047625465651739, -0.18411117289261, 0
227, 0.053408935141414, -0.017544690030842, 0
228, 0.15943853023312, -0.0054657947930567, 0
229, 0.10656779622066, -0.013865266942155, 0
230, 0.050140803285403, -0.1242635622363, 0
231, 0.055873087653445, -0.069927322849537, 0
232, 0.0984085789644, -0.12209614821462, 0
233, 0.11822021916463, -0.067788528406741, 0
234, 0.21053532865985, -0.016806270638163, 0
235, 0.17721549629765, -0.057445535298071, 0
236, 0.17593995547709, -0.10528762010184, 0
237, 0.53131747541463, -0.26909691793874, 0
238, 0.76022739441534, -0.27549275014159, 0
239, 0.29452215657337, -0.19516818560086, 0
240, 0.87611164005344, 0.2459808763907, 0
241, 0.80972382442244, 0.18718740373402, 0
242, 0.87891624217998, 0.12984588624134, 0
243, 0.97313998161807, 0.00016043831250335, 0
244, 0.84707433032955, 0.047770559907901, 0
245, 0.92705942004693, 0.18914875763006, 0
246, 0.94837743899422, 0.27364434209107, 0
247, 0.85539658698713, 0.21710354109107, 0
248, 0.97520330172422, 0.19135447775497, 0
249, 0.80465733443052, 0.24552593368594, 0
250, 0.90038682600585, 0.24606456386973, 0
251, 0.74462088293515, 0.21239017276137, 0
252, 0.5376428990138, 0.26942245466393, 0
253, 0.72455015317441, 0.27344382476626, 0
254, 0.70101135949021, 0.27373708967558, 0
255, 0.73802048407627, 0.2440548374349, 0
256, 0.74337518161326, 0.17960372949869, 0
257, 0.67495343867653, 0.17128015674997, 0
258, 0.74969895474963, 0.12221747700202, 0
259, 0.80374361812993, 0.13302018054918, 0
260, 0.7958650002928, 0.062632231638876, 0
261, 0.85629381300108, 0.15908766117152, 0
262, 0.77046265058602, 0.027667195919575, 0
263, 0.84533124647598, -0.012310738732267, 0
264, 0.87752025417604, 0.10099871863992, 0
265, 0.97382794646611, 0.025947038130422, 0
266, 0.97461884232226, 0.24668192973168, 0
267, 0.89920685535991, 0.072689983279942, 0
268, 0.90144624499816, 0.10133540228648, 0
269, 0.89572524698595, -0.075310057680091, 0
270, 0.84704003011319, -0.093986444444553, 0
271, 0.94868131524701, -0.074981320224096, 0
272, 0.94524214555054, -0.024815555386861, 0
273, 0.8844042414554, -0.027860717033593, 0
274, 0.82453693071238, -0.048440811287274, 0
275, 0.61797917151646, -0.21577577049626, 0
276, 0.62465082529353, -0.2679463969702, 0
277, 0.94661177339713, -0.12608067299309, 0
278, 0.88381691726224, -0.12935858748904, 0
279, 0.38351976531873, -0.20732448276751, 0
280, 0.71986938348059, -0.27616528176598, 0
281, 0.55419985398979, -0.28283436008019, 0
282, 0.34188548760688, -0.20667211063951, 0
283, 0.94930365656786, 0.0768517136683, 0
284, 0.8800472627523, 0.18803957610187, 0
285, 0.895551344183, 0.044565443953945, 0
286, 0.72462111064088, 0.21282004532289, 0
287, 0.7232377121092, 0.11687290210279, 0
288, 0.20679237525885, 0.21322031719527, 0
289, 0.23283302642609, 0.2510905655512, 0
290, 0.24471203480413, 0.20918257649146, 0
291, 0.8493860228545, -0.15111363013756, 0
292, 0.59910652726948, -0.24608916954821, 0
293, 0.52873329271567, -0.28420817542024, 0
294, 0.26493042577632, 0.27160474660926, 0
295, 0.2888039266872, 0.26581251344882, 0
296, 0.17164702868687, -0.15427156663761, 0
297, 0.15159121053746, -0.11670867318556, 0
298, 0.1990818779708, -0.12698574230079, 0
299, 0.056277877508842, 0.11371225089361, 0
300, 0.26317185664326, 0.1182836270578, 0
301, 0.11570089565354, 0.11361803623792, 0
302, 0.19784288639148, 0.18465870997594, 0
303, 0.084741868719812, 0.16405393708014, 0
304, 0.62768538149801, 0.27561733387477, 0
305, 0.64883076132908, 0.17835910972664, 0
306, 0.6769883657089, 0.2744363972411, 0
307, 0.56819015242921, 0.20300225360935, 0
308, 0.73849767193669, 0.042571167326768, 0
309, 0.76650916046745, 0.051859251506576, 0
310, 0.82596647811529, 0.08038438839284, 0
311, 0.35261571185421, -0.25630186223647, 0
312, 0.28363676753401, -0.22015420816406, 0
313, 0.65184464021646, -0.27104542710828, 0
314, 0.67364562182126, -0.23530931857658, 0
315, 0.64917671863554, -0.2564372320029, 0
316, 0.50014054300099, -0.27434009051997, 0
317, 0.5711511917078, -0.20078700394682, 0
318, 0.68063638841936, -0.26167917029989, 0
319, 0.18817022196184, -0.0023295886991462, 0
320, 0.1993739987657, -0.04447504615231, 0
321, 0.15713165982777, -0.033438620268191, 0
322, 0.86800364452847, -0.075597473813696, 0
323, 0.89957971108143, -0.1027467948264, 0
324, 0.8589821875437, -0.11948791895893, 0
325, 0.79529915768097, 0.011426538804792, 0
326, 0.88099761153726, -0.0064614389501171, 0
327, 0.79859187484078, 0.085074991590056, 0
328, 0.59398400282171, 0.18845209988126, 0
329, 0.76520927831357, 0.21325104142973, 0
330, 0.67110409162284, 0.24861755820697, 0
331, 0.85342992739533, 0.10310100593983, 0
332, 0.95101185295691, 0.16153553789657, 0
333, 0.87885712991829, 0.21724367341172, 0
334, 0.94650774912785, 0.023678483145349, 0
335, 0.027096674393318, 0.03420297110115, 0
336, 0.027591536887334, 0.087367434642986, 0
337, 0.10829510384699, 0.013733576644615, 0
338, 0.027426064081616, 0.060930201481814, 0
339, 0.027731809973586, 0.13989734017113, 0
340, 0.11374331081289, 0.1631994273854, 0
341, 0.027642531323713, 0.11365902932723, 0
342, 0.14923141190789, -0.27396004207685, 0
343, 0.16823606713225, -0.24814734765165, 0
344, 0.19965386900046, -0.27411102834284, 0
345, 0.17472459561399, -0.27441679249325, 0
346, 0.2474597992239, -0.27410420169815, 0
347, 0.26082359130264, -0.24649341020732, 0
348, 0.29436324273677, -0.27526184978673, 0
349, 0.27093904300876, -0.27463992978923, 0
350, 0.64635427968041, -0.24135256117206, 0
351, 0.31785263086137, -0.27603216173741, 0
352, 0.75205538014756, -0.25551964054238, 0
353, 0.70394706069954, 0.18685166056725, 0
354, 0.70387320748063, 0.21662080259458, 0
355, 0.55691950167509, 0.24210866992366, 0
356, 0.75860436190928, 0.15103178505576, 0
357, 0.85106427485736, 0.075465355279261, 0
358, 0.92406458673022, 0.074486329914378, 0
359, 0.95017372708697, 0.10471454240624, 0
360, 0.053585300910308, 0.27233399752478, 0
361, 0.027325603702991, 0.24576979487954, 0
362, 0.027069981513017, 0.27270680736888, 0
363, 0.20985996018235, 0.27324005985678, 0
364, 0.18230003795473, 0.24354608309518, 0
365, 0.15783186669083, 0.27227078160184, 0
366, 0.18367422622295, 0.27257137006369, 0
367, 0.9034616600461, 0.18846775369817, 0
368, 0.82816859357319, 0.24583318598136, 0
369, 0.79644976875088, 0.27369777157237, 0
370, 0.82131669649174, 0.27380312915277, 0
371, 0.92274821320956, 0.27366192662707, 0
372, 0.89008419061897, 0.017648229785532, 0
373, 0.90247905757143, 0.21752072229121, 0
374, 0.92711930462946, 0.16019537918758, 0
375, 0.84647814788783, 0.273777277514, 0
376, 0.97411787047371, 0.273643347754, 0
377, 0.10594806394066, 0.27214146168349, 0
378, 0.080601437328204, 0.24434582891985, 0
379, 0.079840136700797, 0.27215041908878, 0
380, 0.36407969578326, -0.21857419558052, 0
381, 0.4992756644214, -0.28630450900474, 0
382, 0.97358137980911, -0.025291068699688, 0
383, 0.9742762208358, 0.052551548111828, 0
384, 0.87498571727003, 0.072071264780274, 0
385, 0.23812969610308, 0.27576328934232, 0
386, 0.75877667868176, -0.26532175813276, 0
387, 0.36679951204944, -0.27854835505324, 0
388, 0.32798650795426, -0.25209566080664, 0
389, 0.72350486770246, 0.1794306494163, 0
390, 0.6815676923871, 0.19440700443811, 0
391, 0.027190508355482, -0.073941772798495, 0
392, 0.052589548606258, -0.096117230212233, 0
393, 0.025202669498239, -0.12895463956056, 0
394, 0.02594621007716, -0.10090842413217, 0
395, 0.21614535439099, -0.24599133104225, 0
396, 0.22385053736163, -0.27400268078344, 0
397, 0.14069629391876, 0.042339553151237, 0
398, 0.026516111003221, -0.020177426991547, 0
399, 0.026769546869602, 0.00713025127112, 0
400, 0.099205145589639, -0.27314410151139, 0
401, 0.11874057918368, -0.24553142921009, 0
402, 0.12405176085306, -0.27354404182192, 0
403, 0.97487731464029, -0.077881254898306, 0
404, 0.94691452234264, -0.049383222420448, 0
405, 0.97423551510996, -0.051256497388035, 0
406, 0.053666853722786, -0.044452527262125, 0
407, 0.026449450383802, -0.04745226031337, 0
408, 0.85202597768763, 0.24594124359287, 0
409, 0.90269775600209, 0.13021546944318, 0
410, 0.94434179144139, -0.00093613736984267, 0
411, 0.92565866897326, 0.10268683273723, 0
412, 0.78178915623997, 0.24479758421263, 0
413, 0.77206875075429, 0.27347633738973, 0
414, 0.05460687089755, 0.21765460946746, 0
415, 0.027744471727754, 0.1924438290101, 0
416, 0.027478088205308, 0.21898980664168, 0
417, 0.95012885895042, -0.10142542756003, 0
418, 0.97419524554636, -0.13107469513775, 0
419, 0.97553989781837, -0.10509066639252, 0
420, 0.071797176731973, -0.24403935046614, 0
421, 0.04993592283327, -0.27282599104947, 0
422, 0.074578741344586, -0.27297092480584, 0
423, 0.13245646021156, 0.24368751190855, 0
424, 0.13195307471503, 0.27217591388952, 0
425, 0.71822100918723, -0.28725641590408, 0
426, 0.68457410902662, -0.28646865945077, 0
427, 0.04842802571274, -0.15383890225393, 0
428, 0.024372451073516, -0.1868897508881, 0
429, 0.024660052172315, -0.15774092290731, 0
430, 0.14655277192954, 0.089513815774153, 0
431, 0.027762168453683, 0.16613167051921, 0
432, 0.02463462706078, -0.24473470290169, 0
433, 0.025136926867092, -0.27282464273297, 0
434, 0.65411099164474, -0.28542982646352, 0
435, 0.43606547549484, -0.24332162438272, 0
436, 0.60070806832055, -0.2652490781895, 0
437, 0.71752271654208, -0.26546325578014, 0
438, 0.50273507078898, -0.26247763692992, 0
439, 0.46695769040714, -0.25794271697634, 0
440, 0.4608589717176, -0.27718374554507, 0
441, 0.85666677980753, 0.18794838083739, 0
442, 0.9480509714401, 0.049730710843464, 0
443, 0.53092958730981, -0.22161505488958, 0
444, 0.62238987385181, -0.2509404182819, 0
445, 0.5509304811403, -0.20737519851614, 0
446, 0.047670226320106, -0.2143952571525, 0
447, 0.024391865108138, -0.21599147943816, 0
448, 0.32886210715606, -0.22770861330121, 0
449, 0.38126070041017, -0.26262480145205, 0
450, 0.31383976871397, -0.17441420715126, 0
451, 0.27011977912173, -0.19181596338179, 0
452, 0.26175291708443, -0.16369707682114, 0
453, 0.28691925079605, -0.16930884201591, 0
454, 0.76445298324048, 0.18172406871118, 0
455, 0.91373468241321, -0.0029716668512403, 0
456, 0.95047921236061, 0.21847757223546, 0
457, 0.9509396803884, 0.19010013930493, 0
458, 0.97526205152374, 0.16332888088009, 0
459, 0.87179600691144, 0.27372994856143, 0
460, 0.83321420729547, 0.18778646092076, 0
461, 0.80904579214444, 0.21632533458993, 0
462, 0.83209244801308, 0.2168679021745, 0
463, 0.8271846884907, -0.11004012325174, 0
464, 0.7994944480314, -0.06353877890394, 0
465, 0.83593538682487, -0.069905531514121, 0
466, 0.8141846249493, -0.0854838720285, 0
467, 0.57176643059147, 0.25398473102758, 0
468, 0.69729323890839, 0.15928712549368, 0
469, 0.48581999063807, 0.27290266754297, 0
470, 0.2294659440979, -0.032252509313558, 0
471, 0.17551126743709, 0.13546367437687, 0
472, 0.13617965040357, 0.017241016641798, 0
473, 0.23454503233822, 0.030126684248553, 0
474, 0.17681887128968, 0.065821319600467, 0
475, 0.053851333464067, 0.0095552488750388, 0
476, 0.054673599724747, 0.036299409958016, 0
477, 0.67701940190215, -0.24886471802555, 0
478, 0.46253769747013, -0.26760564367866, 0
479, 0.35279032839728, -0.23551795105409, 0
480, 0.59651130032048, -0.22610637262194, 0
481, 0.34175118031142, -0.2770565607083, 0
482, 0.39436426870115, -0.28082295595605, 0
483, 0.59378099691477, -0.20618290001053, 0
484, 0.25703251558006, 0.14753099408059, 0
485, 0.11114899023382, 0.039984099245688, 0
486, 0.20968931642506, 0.10745855899001, 0
487, 0.95070914840848, 0.13301239184383, 0
488, 0.87053617225625, 0.043000167628448, 0
489, 0.87995640504771, 0.15882183699437, 0
490, 0.38952682984986, -0.23446175910126, 0
491, 0.61985193226443, -0.23336450776357, 0
492, 0.40543850270032, -0.22641063054614, 0
493, 0.862474199551, 0.013996927904144, 0
494, 0.92633262344707, 0.21792494820892, 0
495, 0.90347842582169, 0.15928117214051, 0
496, 0.24469587768815, -0.0063920018706523, 0
497, 0.11505505304402, 0.13814883342953, 0
498, 0.76338857915823, -0.026612022602425, 0
499, 0.92164493388797, 0.047087426049289, 0
500, 0.78362664812323, -0.044114069306745, 0
501, 0.34121417982493, -0.18014812144296, 0
502, 0.30623363039944, -0.22285627973655, 0
503, 0.68168129513305, 0.22078817486452, 0
504, 0.64726937422847, 0.25025552735321, 0
505, 0.086060916715724, -0.067776402869447, 0
506, 0.10609586363409, -0.092543761401693, 0
507, 0.074695955709302, -0.12182593282574, 0
508, 0.079509255538329, -0.093273477421178, 0
509, 0.70618995354852, -0.24233517346354, 0
510, 0.64437174966758, -0.22594147809937, 0
511, 0.09292669790426, -0.21445229546852, 0
512, 0.11530857766497, -0.18750741757057, 0
513, 0.1400937123589, -0.21947864481648, 0
514, 0.11597456044731, -0.21665910479852, 0
515, 0.7467809142351, 0.095558283808488, 0
516, 0.71480350355716, 0.061490061175552, 0
517, 0.72116186672493, 0.089464063861628, 0
518, 0.69433774714624, 0.24651808724208, 0
519, 0.75963165009082, 0.24420315751515, 0
520, 0.65245967885624, 0.27512769170443, 0
521, 0.55722348168224, -0.24647817932582, 0
522, 0.50515582103005, -0.25015092661955, 0
523, 0.91544043349091, -0.025602413969302, 0
524, 0.97499656662334, 0.21919582359007, 0
525, 0.60364389989916, 0.27520848533856, 0
526, 0.78662647076773, 0.18458699496597, 0
527, 0.62105459441204, 0.18219452315893, 0
528, 0.78666926624735, 0.21478102912092, 0
529, 0.57805140691016, -0.24361993796735, 0
530, 0.74147301746632, -0.24506204311002, 0
531, 0.31905054876707, -0.19916107599479, 0
532, 0.60140989568844, -0.28330324669873, 0
533, 0.71252844672764, -0.25440831862722, 0
534, 0.71812125678432, 0.011556723552953, 0
535, 0.70976158212838, 0.035214771258393, 0
536, 0.42423788284764, -0.25137879088434, 0
537, 0.46449421276222, -0.28751940134911, 0
538, 0.57867746709791, -0.26377795961866, 0
539, 0.47274845897113, -0.24732591962087, 0
540, 0.50697382392368, 0.26640081590035, 0
541, 0.57767075430975, 0.21712756632106, 0
542, 0.056080513457317, 0.088221743303466, 0
543, 0.14454650911543, 0.066193833983827, 0
544, 0.24597250555602, 0.074154867910333, 0
545, 0.16578380960537, -0.19764781283938, 0
546, 0.19101486967693, -0.2198951279767, 0
547, 0.16556894456436, -0.22221468976993, 0
548, 0.10786790213105, -0.042254130360407, 0
549, 0.080266727519655, -0.01564274092682, 0
550, 0.081072350651281, -0.042839097207306, 0
551, 0.74814893096742, 0.27337271871408, 0
552, 0.59868209028384, 0.25195745493925, 0
553, 0.10797497797367, 0.21595788859072, 0
554, 0.27875985456654, 0.062183229495733, 0
555, 0.08145837336862, 0.21675300274553, 0
556, 0.40583039177641, 0.28609136628921, 0
557, 0.20646958957487, -0.079263051164749, 0
558, 0.21820729394216, -0.060938489629685, 0
559, 0.57975698173432, 0.27489541425549, 0
560, 0.62338007235274, 0.25098753382449, 0
561, 0.15944031889694, 0.213946337073, 0
562, 0.23468769797314, 0.12701444405741, 0
563, 0.13403124063196, 0.21504231781215, 0
564, 0.16879866432099, 0.18621232421769, 0
565, 0.085344495703924, 0.088913044701588, 0
566, 0.36406914947857, -0.19117057269851, 0
567, 0.41752851275196, -0.27138498378469, 0
568, 0.26490567837176, 0.2048267830497, 0
569, 0.23934788913373, -0.14669674558398, 0
570, 0.20878491852763, -0.10394258146753, 0
571, 0.2281063136206, -0.12736818274915, 0
572, 0.83754139729238, -0.13550499541836, 0
573, 0.62657186708959, -0.28429647818032, 0
574, 0.92205642797192, -0.07435562558891, 0
575, 0.88992098941777, -0.050631360476185, 0
576, 0.91866465175153, -0.049229619102322, 0
577, 0.65864485101652, 0.22393821019227, 0
578, 0.6355369476805, 0.22579479734637, 0
579, 0.94960100209404, 0.24640761154299, 0
580, 0.83970364774857, 0.019930720213101, 0
581, 0.084293812112965, 0.063831729706664, 0
582, 0.13270598356671, -0.0095251358718009, 0
583, 0.22267628212232, 0.0078331392507203, 0
584, 0.27452648324425, 0.038033903570728, 0
585, 0.97494030773805, 0.10739851835869, 0
586, 0.79179924551332, -0.015608846878804, 0
587, 0.89722438769332, 0.27368514117334, 0
588, 0.82042092097471, -0.0017715830322444, 0
589, 0.094161639228243, -0.15280807184173, 0
590, 0.1209396238914, -0.13020559403659, 0
591, 0.14093079092857, -0.16636718392113, 0
592, 0.11676005986551, -0.15852737527351, 0
593, 0.9168695933972, -0.12507194997336, 0
594, 0.92445949389231, -0.10081339379449, 0
595, 0.24104137022717, 0.099645274545697, 0
596, 0.070232340137782, -0.18301788001383, 0
597, 0.070369995143052, -0.21386468079431, 0
598, 0.8127224753242, -0.029834482717724, 0
599, 0.22669231203313, 0.18401557464668, 0
600, 0.085417259371727, 0.13872959478407, 0
601, 0.20181847902842, 0.1585073442255, 0
602, 0.23855990825181, -0.21650029607673, 0
603, 0.22044074897758, -0.19083647732279, 0
604, 0.21532889954879, -0.21775401040435, 0
605, 0.85216871964039, -0.032266132847912, 0
606, 0.92658536783752, 0.13131972326397, 0
607, 0.97466181439234, 0.07976280072982, 0
608, 0.85485066316426, 0.1308784346776, 0
609, 0.92487280599216, 0.24620510222371, 0
610, 0.81740563654229, 0.02879493048039, 0
611, 0.74061346978617, -0.0082764539309637, 0
612, 0.071572987850065, -0.15208622220014, 0
613, 0.2610340814676, -0.21811030912061, 0
614, 0.82992408405483, 0.13226605240185, 0
615, 0.80758095130574, 0.1591887318645, 0
616, 0.83220324064261, 0.15941156631549, 0
617, 0.05627704637801, 0.13921315306698, 0
618, 0.14304952329064, 0.16211669039202, 0
619, 0.2546042935404, 0.17616910660471, 0
620, 0.21238577462212, 0.084075092908339, 0
621, 0.11542306727059, 0.089392184991548, 0
622, 0.11382399691764, 0.065041386758078, 0
623, 0.18388339993727, 0.21302823956728, 0
624, 0.085649838508531, 0.11376197835362, 0
625, 0.17891118311301, 0.088132786808494, 0
626, 0.27177943745746, 0.089575521592665, 0
627, 0.41750520584587, -0.26043498255871, 0
628, 0.53338798101985, -0.25366573707577, 0
629, 0.77650781427758, 0.12797784297741, 0
630, 0.80142476671889, 0.10849852199678, 0
631, 0.77347765792521, 0.1023006756878, 0
632, 0.86007424137214, -0.053399645826787, 0
633, 0.20564071979653, 0.13247162162332, 0
634, 0.11175690626696, 0.18893518582286, 0
635, 0.14673311155076, -0.08635757519152, 0
636, 0.12889256137809, -0.10335818259465, 0
637, 0.082669070426207, 0.038135639315588, 0
638, 0.30516941671218, -0.24939957684877, 0
639, 0.61224838425263, 0.22803283047923, 0
640, 0.73547448419098, 0.14721944883546, 0
641, 0.71410827322425, 0.14545610431961, 0
642, 0.78273284033408, 0.15541314319548, 0
643, 0.1482974998091, -0.061761074751443, 0
644, 0.13289640420806, -0.037724637752949, 0
645, 0.20460466325194, 0.04151114195232, 0
646, 0.91843735480289, 0.02101242602789, 0
647, 0.82826982443842, 0.10604058039712, 0
648, 0.19890018520219, -0.17034277790245, 0
649, 0.16803884897834, -0.17505718104671, 0
650, 0.74180145588094, 0.068481206013219, 0
651, 0.22992586744482, -0.16662461094866, 0
652, 0.1776060117197, -0.082250650019105, 0
653, 0.97514090122083, 0.13529554704391, 0
654, 0.43557203603692, 0.28371192977395, 0
655, 0.22787101195868, 0.22391688843553, 0
656, 0.38081283934954, -0.24675176064692, 0
657, 0.25563575471622, 0.24244009453392, 0
658, 0.17398456224096, -0.13273652547863, 0
659, 0.24366831122368, 0.051428551415467, 0
660, 0.056062854151048, 0.16491158726917, 0
661, 0.46213125550078, 0.27889317205056, 0
662, 0.65696415347556, 0.19959495871201, 0
663, 0.76942938539063, 0.076776984977349, 0
664, 0.55647209617598, -0.26512190862578, 0
665, 0.42710811509557, -0.28450001884349, 0
666, 0.68337141256248, -0.27402523449595, 0
667, 0.18138354778178, -0.026792199959268, 0
668, 0.87563412200915, -0.099415649058318, 0
669, 0.76829643150146, 0.00041253348176419, 0
670, 0.54540558095547, 0.22956242162572, 0
671, 0.74513123048283, 0.018911531639996, 0
672, 0.79455044949306, 0.039650375924892, 0
673, 0.57775716968134, -0.28260749760754, 0
674, 0.57548493531222, -0.22231509127864, 0
675, 0.75434425016376, -0.28674776786172, 0
676, 0.77656040654437, -0.24076094591247, 0
677, 0.79180044022666, -0.24888920727155, 0
678, 0.80025178085433, -0.25825727155444, 0
679, 0.80061103864844, -0.26993824680249, 0
680, 0.7903740359914, -0.28391732861549, 0
681, 0.80741933044822, -0.22777691537261, 0
682, 0.82577239017531, -0.2336410839059, 0
683, 0.83539935227235, -0.2449882353043, 0
684, 0.83537610313766, -0.26119913286235, 0
685, 0.82255720154437, -0.280209262879, 0
686, 0.82984770841623, -0.20648354903706, 0
687, 0.84960145674984, -0.2135223306917, 0
688, 0.86135903752317, -0.23010548498627, 0
689, 0.86263146403379, -0.25285350853345, 0
690, 0.84960171585297, -0.27730643922815, 0
691, 0.84381248130696, -0.18272602476513, 0
692, 0.86652963492365, -0.19459465800231, 0
693, 0.88132160162194, -0.21754643309469, 0
694, 0.88460005598459, -0.24647223815556, 0
695, 0.87305818395523, -0.27536623538865, 0
696, 0.86603629021294, -0.16251282639552, 0
697, 0.88489962310025, -0.18120094794407, 0
698, 0.89939670182374, -0.20912190994515, 0
699, 0.90381392251642, -0.24221068898069, 0
700, 0.89455786153462, -0.2740828232021, 0
701, 0.89255915931714, -0.14931917121834, 0
702, 0.90574444882509, -0.17378507646322, 0
703, 0.91754813318376, -0.20483891798915, 0
704, 0.92191125840009, -0.23989112488102, 0
705, 0.91513931361976, -0.27321747757194, 0
706, 0.92133130641623, -0.14789547997797, 0
707, 0.92908397736934, -0.1741570850206, 0
708, 0.9367445326335, -0.20530834243898, 0
709, 0.93994028494457, -0.23977184355015, 0
710, 0.93542438932406, -0.27287145486927, 0
711, 0.94871436231684, -0.1506873142875, 0
712, 0.95260072827542, -0.17776617150662, 0
713, 0.95674185773497, -0.20828286295104, 0
714, 0.95860320363161, -0.24115954377508, 0
715, 0.95601392738077, -0.27296563752827, 0
716, 0.97486667939032, -0.15700296713311, 0
717, 0.97612022254225, -0.18426055760287, 0
718, 0.97760752696688, -0.21339220833932, 0
719, 0.97835126426029, -0.24380795439854, 0
720, 0.97735343842232, -0.27348855726874, 0
721, 0.63118085086611, 0.20258731836713, 0
722, 0.31376619746247, 0.27492092274754, 0
723, 0.34246887308405, 0.28175546712911, 0
724, 0.37400709017921, 0.2855003562645, 0
725, 0.60493906550537, 0.20688161784426, 0
726, 0.58733054950918, 0.23272463853448, 0
727, 0.55494964682343, 0.27546501795335, 0
728, 0.52548723173161, 0.2606752562493, 0
******* E L E M E N T S *************
*ELEMENT, type=CPS4, ELSET=Surface1
1, 373, 494, 609, 250
2, 653, 63, 53, 458
3, 499, 442, 283, 358
4, 599, 290, 655, 288
5, 335, 338, 107, 118
6, 338, 336, 117, 107
7, 600, 617, 299, 624
8, 116, 106, 341, 339
9, 617, 339, 341, 299
10, 620, 625, 474, 207
11, 106, 117, 336, 341
12, 20, 13, 345, 342
13, 342, 345, 343, 192
14, 345, 344, 193, 343
15, 13, 21, 344, 345
16, 22, 15, 349, 346
17, 346, 349, 347, 194
18, 349, 348, 195, 347
19, 15, 23, 348, 349
20, 680, 679, 238, 675
21, 434, 313, 276, 573
22, 686, 128, 184, 681
23, 350, 510, 275, 491
24, 727, 467, 552, 559
25, 198, 255, 253, 254
26, 353, 389, 286, 354
27, 355, 541, 726, 467
28, 411, 359, 487, 606
29, 265, 61, 51, 383
30, 267, 358, 411, 268
31, 489, 284, 441, 261
32, 102, 95, 362, 360
33, 360, 362, 361, 208
34, 362, 103, 114, 361
35, 95, 8, 103, 362
36, 99, 92, 366, 363
37, 363, 366, 364, 211
38, 366, 365, 210, 364
39, 92, 100, 365, 366
40, 284, 367, 373, 333
41, 409, 606, 374, 495
42, 370, 369, 249, 368
43, 69, 77, 369, 370
44, 358, 283, 359, 411
45, 646, 334, 442, 499
46, 333, 240, 408, 247
47, 607, 62, 52, 585
48, 332, 458, 248, 457
49, 371, 246, 74, 67
50, 608, 261, 616, 614
51, 263, 326, 372, 493
52, 101, 94, 379, 377
53, 377, 379, 378, 209
54, 379, 360, 208, 378
55, 94, 102, 360, 379
56, 529, 674, 189, 521
57, 436, 292, 529, 538
58, 316, 438, 478, 440
59, 199, 134, 178, 539
60, 263, 493, 580, 588
61, 585, 52, 63, 653
62, 263, 605, 273, 326
63, 487, 653, 458, 332
64, 728, 670, 355, 252
65, 289, 385, 363, 211
66, 385, 91, 99, 363
67, 237, 628, 438, 316
68, 638, 502, 312, 195
69, 666, 318, 315, 313
70, 314, 182, 131, 510
71, 6, 525, 304, 73
72, 640, 356, 454, 256
73, 73, 304, 520, 80
74, 120, 110, 394, 391
75, 391, 394, 392, 231
76, 394, 393, 230, 392
77, 110, 121, 393, 394
78, 193, 344, 396, 395
79, 395, 396, 346, 194
80, 396, 14, 22, 346
81, 344, 21, 14, 396
82, 496, 470, 172, 141
83, 217, 414, 416, 415
84, 399, 108, 119, 398
85, 335, 118, 108, 399
86, 19, 12, 402, 400
87, 400, 402, 401, 191
88, 402, 342, 192, 401
89, 12, 20, 342, 402
90, 59, 49, 405, 403
91, 403, 405, 404, 271
92, 405, 382, 272, 404
93, 49, 60, 382, 405
94, 227, 398, 407, 406
95, 406, 407, 391, 231
96, 407, 109, 120, 391
97, 398, 119, 109, 407
98, 579, 266, 376, 246
99, 334, 265, 383, 442
100, 588, 580, 610, 325
101, 242, 489, 261, 608
102, 367, 245, 494, 373
103, 359, 585, 653, 487
104, 455, 523, 272, 410
105, 410, 243, 265, 334
106, 77, 70, 413, 369
107, 369, 413, 412, 249
108, 255, 251, 329, 519
109, 306, 518, 198, 254
110, 208, 361, 416, 414
111, 624, 299, 542, 565
112, 416, 104, 115, 415
113, 361, 114, 104, 416
114, 277, 418, 419, 417
115, 417, 419, 403, 271
116, 419, 48, 59, 403
117, 418, 58, 48, 419
118, 190, 421, 422, 420
119, 420, 422, 400, 191
120, 422, 11, 19, 400
121, 421, 18, 11, 422
122, 100, 93, 424, 365
123, 365, 424, 423, 210
124, 424, 377, 209, 423
125, 93, 101, 377, 424
126, 573, 276, 436, 532
127, 481, 388, 638, 351
128, 388, 448, 502, 638
129, 443, 179, 134, 199
130, 121, 111, 429, 393
131, 393, 429, 427, 230
132, 429, 428, 226, 427
133, 111, 122, 428, 429
134, 599, 302, 601, 200
135, 430, 621, 622, 543
136, 431, 105, 116, 339
137, 415, 115, 105, 431
138, 123, 113, 433, 432
139, 432, 433, 421, 190
140, 433, 10, 18, 421
141, 113, 1, 10, 433
142, 292, 480, 674, 529
143, 426, 666, 313, 434
144, 665, 567, 449, 482
145, 687, 686, 681, 682
146, 315, 350, 491, 444
147, 674, 317, 445, 189
148, 479, 380, 282, 448
149, 664, 521, 628, 237
150, 375, 76, 69, 370
151, 243, 50, 61, 265
152, 493, 488, 244, 580
153, 243, 382, 60, 50
154, 39, 426, 434, 31
155, 439, 539, 435, 536
156, 281, 664, 237, 293
157, 318, 477, 350, 315
158, 122, 112, 447, 428
159, 428, 447, 446, 226
160, 447, 432, 190, 446
161, 112, 123, 432, 447
162, 510, 131, 181, 275
163, 566, 176, 137, 501
164, 673, 538, 664, 281
165, 477, 314, 510, 350
166, 174, 452, 453, 138
167, 138, 453, 450, 175
168, 453, 451, 239, 450
169, 452, 222, 451, 453
170, 253, 551, 78, 71
171, 286, 389, 256, 251
172, 520, 330, 518, 306
173, 467, 726, 639, 552
174, 246, 376, 66, 74
175, 488, 384, 357, 244
176, 458, 53, 64, 248
177, 249, 461, 462, 368
178, 264, 242, 608, 331
179, 598, 586, 498, 500
180, 461, 241, 460, 462
181, 270, 465, 466, 463
182, 463, 466, 126, 186
183, 466, 464, 187, 126
184, 465, 274, 464, 466
185, 198, 286, 251, 255
186, 504, 577, 503, 330
187, 560, 578, 577, 504
188, 159, 154, 468, 257
189, 645, 201, 205, 214
190, 542, 336, 338, 202
191, 544, 620, 207, 659
192, 599, 619, 568, 290
193, 583, 234, 470, 496
194, 200, 601, 633, 562
195, 218, 497, 301, 203
196, 303, 660, 617, 600
197, 492, 177, 136, 279
198, 681, 184, 129, 676
199, 440, 478, 627, 567
200, 536, 435, 492, 490
201, 380, 279, 566, 282
202, 480, 483, 317, 674
203, 386, 352, 533, 437
204, 435, 135, 177, 492
205, 584, 204, 171, 142
206, 601, 213, 471, 633
207, 340, 303, 600, 497
208, 248, 64, 54, 524
209, 456, 524, 266, 579
210, 384, 264, 331, 357
211, 494, 456, 579, 609
212, 29, 293, 381, 26
213, 26, 381, 537, 28
214, 677, 676, 530, 352
215, 482, 449, 311, 387
216, 284, 333, 247, 441
217, 250, 609, 371, 587
218, 598, 500, 464, 274
219, 384, 267, 268, 264
220, 474, 543, 397, 201
221, 217, 415, 431, 660
222, 204, 496, 141, 171
223, 634, 215, 303, 340
224, 283, 607, 585, 359
225, 464, 500, 125, 187
226, 500, 498, 188, 125
227, 580, 244, 197, 610
228, 679, 678, 386, 238
229, 501, 137, 175, 450
230, 3, 673, 281, 27
231, 522, 199, 539, 439
232, 304, 504, 330, 520
233, 728, 540, 150, 162
234, 154, 158, 641, 468
235, 670, 307, 541, 355
236, 230, 507, 508, 392
237, 392, 508, 505, 231
238, 508, 506, 233, 505
239, 507, 232, 506, 508
240, 628, 196, 522, 438
241, 437, 533, 477, 318
242, 25, 665, 482, 2
243, 676, 129, 183, 530
244, 191, 401, 514, 511
245, 511, 514, 512, 225
246, 514, 513, 221, 512
247, 401, 192, 513, 514
248, 158, 155, 517, 287
249, 287, 517, 515, 258
250, 308, 309, 663, 650
251, 155, 157, 516, 517
252, 81, 559, 525, 6
253, 258, 629, 642, 356
254, 519, 329, 528, 412
255, 518, 354, 286, 198
256, 448, 282, 531, 502
257, 530, 183, 130, 509
258, 33, 680, 675, 40
259, 30, 532, 673, 3
260, 609, 579, 246, 371
261, 333, 373, 250, 240
262, 326, 273, 523, 455
263, 587, 371, 67, 75
264, 294, 385, 289, 657
265, 212, 657, 290, 568
266, 295, 90, 98, 294
267, 527, 305, 662, 721
268, 249, 412, 528, 461
269, 461, 528, 526, 241
270, 287, 258, 356, 640
271, 153, 159, 257, 305
272, 683, 682, 677, 678
273, 313, 315, 444, 276
274, 275, 181, 132, 483
275, 293, 237, 316, 381
276, 31, 434, 573, 38
277, 531, 501, 450, 239
278, 509, 130, 182, 314
279, 490, 492, 279, 380
280, 445, 133, 179, 443
281, 17, 387, 481, 24
282, 449, 656, 479, 311
283, 425, 280, 666, 426
284, 663, 327, 630, 631
285, 534, 535, 124, 9
286, 535, 516, 157, 124
287, 535, 308, 650, 516
288, 685, 684, 679, 680
289, 24, 481, 351, 16
290, 238, 386, 437, 280
291, 521, 189, 196, 628
292, 196, 443, 199, 522
293, 678, 677, 352, 386
294, 438, 522, 439, 478
295, 28, 537, 665, 25
296, 295, 212, 167, 146
297, 212, 568, 145, 167
298, 728, 162, 151, 670
299, 328, 527, 721, 725
300, 565, 542, 202, 581
301, 659, 207, 645, 473
302, 397, 485, 337, 472
303, 206, 634, 340, 618
304, 221, 513, 547, 545
305, 545, 547, 546, 220
306, 547, 343, 193, 546
307, 513, 192, 343, 547
308, 229, 549, 550, 548
309, 548, 550, 505, 233
310, 550, 406, 231, 505
311, 549, 227, 406, 550
312, 160, 153, 305, 527
313, 390, 353, 354, 503
314, 541, 725, 639, 726
315, 641, 640, 256, 389
316, 209, 378, 555, 553
317, 476, 335, 399, 475
318, 543, 622, 485, 397
319, 378, 208, 414, 555
320, 305, 257, 390, 662
321, 252, 355, 467, 727
322, 85, 727, 559, 81
323, 525, 560, 504, 304
324, 235, 557, 558, 320
325, 320, 558, 470, 234
326, 558, 140, 172, 470
327, 557, 173, 140, 558
328, 722, 295, 146, 166
329, 723, 722, 166, 147
330, 654, 556, 148, 164
331, 661, 654, 164, 149
332, 728, 86, 83, 540
333, 552, 639, 578, 560
334, 662, 390, 503, 577
335, 210, 423, 563, 561
336, 302, 623, 561, 564
337, 581, 202, 476, 637
338, 423, 209, 553, 563
339, 337, 219, 549, 229
340, 622, 581, 637, 485
341, 302, 564, 213, 601
342, 485, 637, 219, 337
343, 656, 490, 380, 479
344, 40, 675, 425, 32
345, 684, 683, 678, 679
346, 381, 316, 440, 537
347, 502, 531, 239, 312
348, 32, 425, 426, 39
349, 2, 482, 387, 17
350, 317, 180, 133, 445
351, 294, 98, 91, 385
352, 206, 563, 553, 634
353, 486, 216, 625, 620
354, 173, 570, 571, 139
355, 139, 571, 569, 174
356, 571, 298, 223, 569
357, 570, 236, 298, 571
358, 186, 127, 572, 463
359, 463, 572, 324, 270
360, 572, 291, 278, 324
361, 127, 185, 291, 572
362, 387, 311, 388, 481
363, 532, 436, 538, 673
364, 189, 445, 443, 196
365, 279, 136, 176, 566
366, 272, 523, 576, 404
367, 404, 576, 574, 271
368, 576, 575, 269, 574
369, 523, 273, 575, 576
370, 556, 724, 165, 148
371, 540, 83, 87, 469
372, 725, 721, 578, 639
373, 654, 7, 88, 556
374, 493, 372, 285, 488
375, 489, 495, 367, 284
376, 455, 410, 334, 646
377, 240, 459, 375, 408
378, 299, 341, 336, 542
379, 200, 562, 300, 484
380, 633, 471, 216, 486
381, 215, 217, 660, 303
382, 326, 455, 646, 372
383, 240, 250, 587, 459
384, 457, 248, 524, 456
385, 376, 55, 5, 66
386, 221, 591, 592, 512
387, 512, 592, 589, 225
388, 592, 590, 232, 589
389, 591, 224, 590, 592
390, 269, 323, 594, 574
391, 574, 594, 417, 271
392, 594, 593, 277, 417
393, 323, 278, 593, 594
394, 564, 561, 563, 206
395, 599, 200, 484, 619
396, 554, 584, 142, 170
397, 484, 300, 169, 144
398, 191, 511, 597, 420
399, 420, 597, 446, 190
400, 597, 596, 226, 446
401, 511, 225, 596, 597
402, 488, 285, 267, 384
403, 357, 331, 647, 310
404, 441, 247, 462, 460
405, 459, 68, 76, 375
406, 214, 205, 228, 319
407, 625, 430, 543, 474
408, 473, 645, 214, 583
409, 562, 633, 486, 595
410, 222, 603, 604, 602
411, 602, 604, 395, 194
412, 604, 546, 193, 395
413, 603, 220, 546, 604
414, 244, 357, 310, 197
415, 245, 457, 456, 494
416, 268, 411, 606, 409
417, 263, 588, 586, 598
418, 285, 499, 358, 267
419, 263, 598, 274, 605
420, 410, 272, 382, 243
421, 374, 332, 457, 245
422, 188, 498, 611, 156
423, 156, 611, 534, 9
424, 611, 669, 671, 534
425, 325, 610, 672, 262
426, 230, 427, 612, 507
427, 507, 612, 589, 232
428, 612, 596, 225, 589
429, 427, 226, 596, 612
430, 239, 451, 613, 312
431, 312, 613, 347, 195
432, 613, 602, 194, 347
433, 451, 222, 602, 613
434, 459, 587, 75, 68
435, 614, 616, 615, 259
436, 616, 460, 241, 615
437, 261, 441, 460, 616
438, 660, 431, 339, 617
439, 659, 473, 204, 584
440, 216, 203, 430, 625
441, 300, 626, 143, 169
442, 564, 206, 618, 213
443, 201, 397, 472, 205
444, 207, 474, 201, 645
445, 618, 340, 497, 218
446, 561, 623, 364, 210
447, 623, 288, 211, 364
448, 213, 618, 218, 471
449, 471, 218, 203, 216
450, 203, 301, 621, 430
451, 619, 484, 144, 168
452, 599, 288, 623, 302
453, 16, 351, 348, 23
454, 533, 509, 314, 477
455, 27, 281, 293, 29
456, 538, 529, 521, 664
457, 327, 260, 197, 310
458, 516, 650, 515, 517
459, 631, 629, 258, 515
460, 630, 259, 629, 631
461, 273, 605, 632, 575
462, 575, 632, 322, 269
463, 632, 465, 270, 322
464, 605, 274, 465, 632
465, 472, 337, 229, 582
466, 205, 472, 582, 228
467, 544, 659, 584, 554
468, 475, 399, 398, 227
469, 236, 635, 636, 297
470, 297, 636, 590, 224
471, 636, 506, 232, 590
472, 635, 233, 506, 636
473, 497, 600, 624, 301
474, 562, 595, 626, 300
475, 626, 554, 170, 143
476, 595, 544, 554, 626
477, 282, 566, 501, 531
478, 444, 491, 480, 292
479, 675, 238, 280, 425
480, 682, 681, 676, 677
481, 551, 413, 70, 78
482, 519, 412, 413, 551
483, 540, 469, 163, 150
484, 469, 87, 84, 661
485, 356, 642, 526, 454
486, 329, 454, 526, 528
487, 241, 526, 642, 615
488, 615, 642, 629, 259
489, 72, 306, 254, 79
490, 161, 152, 328, 307
491, 233, 643, 644, 548
492, 548, 644, 582, 229
493, 644, 321, 228, 582
494, 643, 235, 321, 644
495, 473, 583, 496, 204
496, 583, 214, 319, 234
497, 202, 338, 335, 476
498, 634, 553, 555, 215
499, 442, 383, 607, 283
500, 586, 669, 611, 498
501, 331, 608, 614, 647
502, 495, 374, 245, 367
503, 259, 630, 647, 614
504, 242, 409, 495, 489
505, 260, 672, 610, 197
506, 309, 260, 327, 663
507, 220, 648, 649, 545
508, 545, 649, 591, 221
509, 649, 296, 224, 591
510, 648, 223, 296, 649
511, 372, 646, 499, 285
512, 669, 325, 262, 671
513, 408, 375, 370, 368
514, 266, 65, 55, 376
515, 222, 452, 651, 603
516, 603, 651, 648, 220
517, 651, 569, 223, 648
518, 452, 174, 569, 651
519, 235, 643, 652, 557
520, 557, 652, 570, 173
521, 652, 635, 236, 570
522, 643, 233, 635, 652
523, 588, 325, 669, 586
524, 247, 408, 368, 462
525, 383, 51, 62, 607
526, 158, 287, 640, 641
527, 254, 253, 71, 79
528, 80, 520, 306, 72
529, 637, 476, 475, 219
530, 288, 655, 289, 211
531, 556, 88, 96, 724
532, 483, 132, 180, 317
533, 539, 178, 135, 435
534, 567, 627, 656, 449
535, 295, 294, 657, 212
536, 670, 151, 161, 307
537, 657, 289, 655, 290
538, 223, 298, 658, 296
539, 296, 658, 297, 224
540, 298, 236, 297, 658
541, 301, 624, 565, 621
542, 621, 565, 581, 622
543, 595, 486, 620, 544
544, 215, 555, 414, 217
545, 219, 475, 227, 549
546, 619, 168, 145, 568
547, 661, 84, 7, 654
548, 469, 661, 149, 163
549, 468, 641, 389, 353
550, 307, 328, 725, 541
551, 721, 662, 577, 578
552, 559, 552, 560, 525
553, 671, 262, 309, 308
554, 650, 663, 631, 515
555, 606, 487, 332, 374
556, 352, 530, 509, 533
557, 276, 444, 292, 436
558, 627, 536, 490, 656
559, 38, 573, 532, 30
560, 478, 439, 536, 627
561, 537, 440, 567, 665
562, 351, 638, 195, 348
563, 311, 479, 448, 388
564, 280, 437, 318, 666
565, 228, 321, 667, 319
566, 319, 667, 320, 234
567, 321, 235, 320, 667
568, 270, 324, 668, 322
569, 322, 668, 323, 269
570, 324, 278, 323, 668
571, 262, 672, 260, 309
572, 534, 671, 308, 535
573, 630, 327, 310, 647
574, 255, 519, 551, 253
575, 251, 256, 454, 329
576, 152, 160, 527, 328
577, 524, 54, 65, 266
578, 264, 268, 409, 242
579, 41, 685, 680, 33
580, 491, 275, 483, 480
581, 688, 687, 682, 683
582, 689, 688, 683, 684
583, 690, 689, 684, 685
584, 34, 690, 685, 41
585, 691, 185, 128, 686
586, 692, 691, 686, 687
587, 693, 692, 687, 688
588, 694, 693, 688, 689
589, 695, 694, 689, 690
590, 42, 695, 690, 34
591, 696, 291, 185, 691
592, 697, 696, 691, 692
593, 698, 697, 692, 693
594, 699, 698, 693, 694
595, 700, 699, 694, 695
596, 35, 700, 695, 42
597, 701, 278, 291, 696
598, 702, 701, 696, 697
599, 703, 702, 697, 698
600, 704, 703, 698, 699
601, 705, 704, 699, 700
602, 43, 705, 700, 35
603, 706, 593, 278, 701
604, 707, 706, 701, 702
605, 708, 707, 702, 703
606, 709, 708, 703, 704
607, 710, 709, 704, 705
608, 36, 710, 705, 43
609, 711, 277, 593, 706
610, 712, 711, 706, 707
611, 713, 712, 707, 708
612, 714, 713, 708, 709
613, 715, 714, 709, 710
614, 44, 715, 710, 36
615, 716, 418, 277, 711
616, 717, 716, 711, 712
617, 718, 717, 712, 713
618, 719, 718, 713, 714
619, 720, 719, 714, 715
620, 37, 720, 715, 44
621, 47, 58, 418, 716
622, 57, 47, 716, 717
623, 46, 57, 717, 718
624, 56, 46, 718, 719
625, 45, 56, 719, 720
626, 4, 45, 720, 37
627, 724, 723, 147, 165
628, 330, 503, 354, 518
629, 722, 97, 90, 295
630, 723, 89, 97, 722
631, 724, 96, 89, 723
632, 257, 468, 353, 390
633, 252, 727, 85, 82
634, 728, 252, 82, 86
*ELSET,ELSET=contact_source
101, 102, 103, 104, 105, 106, 107, 108, 109, 110, 
111, 112, 113, 114, 115, 116, 117, 118, 119, 120, 
121, 122, 
*ELSET,ELSET=contact_drain
39, 40, 41, 42, 43, 44, 45, 46, 47, 48, 
49, 50, 51, 52, 53, 54, 55, 56, 57, 58, 
59, 60, 
*ELSET,ELSET=probe_A
77, 78, 79, 80, 81, 82, 83, 84, 
*ELSET,ELSET=probe_B
17, 18, 19, 20, 21, 22, 
*ELSET,ELSET=walls
1, 2, 3, 4, 5, 6, 7, 8, 9, 10, 
11, 12, 13, 14, 15, 16, 23, 24, 25, 26, 
27, 28, 29, 30, 31, 32, 33, 34, 35, 36, 
37, 38, 61, 62, 63, 64, 65, 66, 67, 68, 
69, 70, 71, 72, 73, 74, 75, 76, 85, 86, 
87, 88, 89, 90, 91, 92, 93, 94, 95, 96, 
97, 98, 99, 100, 123, 124, 125, 126, 127, 128, 
129, 130, 131, 132, 133, 134, 135, 136, 137, 138, 
139, 140, 141, 142, 143, 144, 145, 146, 147, 148, 
149, 150, 151, 152, 153, 154, 155, 156, 157, 158, 
159, 160, 161, 162, 163, 164, 165, 166, 167, 168, 
169, 170, 171, 172, 173, 174, 175, 176, 177, 178, 
179, 180, 181, 182, 183, 184, 185, 186, 187, 188, 
*ELSET,ELSET=domain
189, 190, 191, 192, 193, 194, 195, 196, 197, 198, 
199, 200, 201, 202, 203, 204, 205, 206, 207, 208, 
209, 210, 211, 212, 213, 214, 215, 216, 217, 218, 
219, 220, 221, 222, 223, 224, 225, 226, 227, 228, 
229, 230, 231, 232, 233, 234, 235, 236, 237, 238, 
239, 240, 241, 242, 243, 244, 245, 246, 247, 248, 
249, 250, 251, 252, 253, 254, 255, 256, 257, 258, 
259, 260, 261, 262, 263, 264, 265, 266, 267, 268, 
269, 270, 271, 272, 273, 274, 275, 276, 277, 278, 
279, 280, 281, 282, 283, 284, 285, 286, 287, 288, 
289, 290, 291, 292, 293, 294, 295, 296, 297, 298, 
299, 300, 301, 302, 303, 304, 305, 306, 307, 308, 
309, 310, 311, 312, 313, 314, 315, 316, 317, 318, 
319, 320, 321, 322, 323, 324, 325, 326, 327, 328, 
329, 330, 331, 332, 333, 334, 335, 336, 337, 338, 
339, 340, 341, 342, 343, 344, 345, 346, 347, 348, 
349, 350, 351, 352, 353, 354, 355, 356, 357, 358, 
359, 360, 361, 362, 363, 364, 365, 366, 367, 368, 
369, 370, 371, 372, 373, 374, 375, 376, 377, 378, 
379, 380, 381, 382, 383, 384, 385, 386, 387, 388, 
389, 390, 391, 392, 393, 394, 395, 396, 397, 398, 
399, 400, 401, 402, 403, 404, 405, 406, 407, 408, 
409, 410, 411, 412, 413, 414, 415, 416, 417, 418, 
419, 420, 421, 422, 423, 424, 425, 426, 427, 428, 
429, 430, 431, 432, 433, 434, 435, 436, 437, 438, 
439, 440, 441, 442, 443, 444, 445, 446, 447, 448, 
449, 450, 451, 452, 453, 454, 455, 456, 457, 458, 
459, 460, 461, 462, 463, 464, 465, 466, 467, 468, 
469, 470, 471, 472, 473, 474, 475, 476, 477, 478, 
479, 480, 481, 482, 483, 484, 485, 486, 487, 488, 
489, 490, 491, 492, 493, 494, 495, 496, 497, 498, 
499, 500, 501, 502, 503, 504, 505, 506, 507, 508, 
509, 510, 511, 512, 513, 514, 515, 516, 517, 518, 
519, 520, 521, 522, 523, 524, 525, 526, 527, 528, 
529, 530, 531, 532, 533, 534, 535, 536, 537, 538, 
539, 540, 541, 542, 543, 544, 545, 546, 547, 548, 
549, 550, 551, 552, 553, 554, 555, 556, 557, 558, 
559, 560, 561, 562, 563, 564, 565, 566, 567, 568, 
569, 570, 571, 572, 573, 574, 575, 576, 577, 578, 
579, 580, 581, 582, 583, 584, 585, 586, 587, 588, 
589, 590, 591, 592, 593, 594, 595, 596, 597, 598, 
599, 600, 601, 602, 603, 604, 605, 606, 607, 608, 
609, 610, 611, 612, 613, 614, 615, 616, 617, 618, 
619, 620, 621, 622, 623, 624, 625, 626, 627, 628, 
629, 630, 631, 632, 633, 634, 635, 636, 637, 638, 
639, 640, 641, 642, 643, 644, 645, 646, 647, 648, 
649, 650, 651, 652, 653, 654, 655, 656, 657, 658, 
659, 660, 661, 662, 663, 664, 665, 666, 667, 668, 
669, 670, 671, 672, 673, 674, 675, 676, 677, 678, 
679, 680, 681, 682, 683, 684, 685, 686, 687, 688, 
689, 690, 691, 692, 693, 694, 695, 696, 697, 698, 
699, 700, 701, 702, 703, 704, 705, 706, 707, 708, 
709, 710, 711, 712, 713, 714, 715, 716, 717, 718, 
719, 720, 721, 722, 723, 724, 725, 726, 727, 728, 
729, 730, 731, 732, 733, 734, 735, 736, 737, 738, 
739, 740, 741, 742, 743, 744, 745, 746, 747, 748, 
749, 750, 751, 752, 753, 754, 755, 756, 757, 758, 
759, 760, 761, 762, 763, 764, 765, 766, 767, 768, 
769, 770, 771, 772, 773, 774, 775, 776, 777, 778, 
779, 780, 781, 782, 783, 784, 785, 786, 787, 788, 
789, 790, 791, 792, 793, 794, 795, 796, 797, 798, 
799, 800, 801, 802, 803, 804, 805, 806, 807, 808, 
809, 810, 811, 812, 813, 814, 815, 816, 817, 818, 
819, 820, 821, 822, 
*NSET,NSET=contact_source
1, 8, 103, 104, 105, 106, 107, 108, 109, 110, 
111, 112, 113, 114, 115, 116, 117, 118, 119, 120, 
121, 122, 123, 
*NSET,NSET=contact_drain
4, 5, 45, 46, 47, 48, 49, 50, 51, 52, 
53, 54, 55, 56, 57, 58, 59, 60, 61, 62, 
63, 64, 65, 
*NSET,NSET=probe_A
6, 7, 81, 82, 83, 84, 85, 86, 87, 
*NSET,NSET=probe_B
2, 3, 25, 26, 27, 28, 29, 
*NSET,NSET=walls
1, 2, 3, 4, 5, 6, 7, 8, 9, 10, 
11, 12, 13, 14, 15, 16, 17, 18, 19, 20, 
21, 22, 23, 24, 30, 31, 32, 33, 34, 35, 
36, 37, 38, 39, 40, 41, 42, 43, 44, 66, 
67, 68, 69, 70, 71, 72, 73, 74, 75, 76, 
77, 78, 79, 80, 88, 89, 90, 91, 92, 93, 
94, 95, 96, 97, 98, 99, 100, 101, 102, 124, 
125, 126, 127, 128, 129, 130, 131, 132, 133, 134, 
135, 136, 137, 138, 139, 140, 141, 142, 143, 144, 
145, 146, 147, 148, 149, 150, 151, 152, 153, 154, 
155, 156, 157, 158, 159, 160, 161, 162, 163, 164, 
165, 166, 167, 168, 169, 170, 171, 172, 173, 174, 
175, 176, 177, 178, 179, 180, 181, 182, 183, 184, 
185, 186, 187, 188, 
*NSET,NSET=domain
1, 2, 3, 4, 5, 6, 7, 8, 9, 10, 
11, 12, 13, 14, 15, 16, 17, 18, 19, 20, 
21, 22, 23, 24, 25, 26, 27, 28, 29, 30, 
31, 32, 33, 34, 35, 36, 37, 38, 39, 40, 
41, 42, 43, 44, 45, 46, 47, 48, 49, 50, 
51, 52, 53, 54, 55, 56, 57, 58, 59, 60, 
61, 62, 63, 64, 65, 66, 67, 68, 69, 70, 
71, 72, 73, 74, 75, 76, 77, 78, 79, 80, 
81, 82, 83, 84, 85, 86, 87, 88, 89, 90, 
91, 92, 93, 94, 95, 96, 97, 98, 99, 100, 
101, 102, 103, 104, 105, 106, 107, 108, 109, 110, 
111, 112, 113, 114, 115, 116, 117, 118, 119, 120, 
121, 122, 123, 124, 125, 126, 127, 128, 129, 130, 
131, 132, 133, 134, 135, 136, 137, 138, 139, 140, 
141, 142, 143, 144, 145, 146, 147, 148, 149, 150, 
151, 152, 153, 154, 155, 156, 157, 158, 159, 160, 
161, 162, 163, 164, 165, 166, 167, 168, 169, 170, 
171, 172, 173, 174, 175, 176, 177, 178, 179, 180, 
181, 182, 183, 184, 185, 186, 187, 188, 189, 190, 
191, 192, 193, 194, 195, 196, 197, 198, 199, 200, 
201, 202, 203, 204, 205, 206, 207, 208, 209, 210, 
211, 212, 213, 214, 215, 216, 217, 218, 219, 220, 
221, 222, 223, 224, 225, 226, 227, 228, 229, 230, 
231, 232, 233, 234, 235, 236, 237, 238, 239, 240, 
241, 242, 243, 244, 245, 246, 247, 248, 249, 250, 
251, 252, 253, 254, 255, 256, 257, 258, 259, 260, 
261, 262, 263, 264, 265, 266, 267, 268, 269, 270, 
271, 272, 273, 274, 275, 276, 277, 278, 279, 280, 
281, 282, 283, 284, 285, 286, 287, 288, 289, 290, 
291, 292, 293, 294, 295, 296, 297, 298, 299, 300, 
301, 302, 303, 304, 305, 306, 307, 308, 309, 310, 
311, 312, 313, 314, 315, 316, 317, 318, 319, 320, 
321, 322, 323, 324, 325, 326, 327, 328, 329, 330, 
331, 332, 333, 334, 335, 336, 337, 338, 339, 340, 
341, 342, 343, 344, 345, 346, 347, 348, 349, 350, 
351, 352, 353, 354, 355, 356, 357, 358, 359, 360, 
361, 362, 363, 364, 365, 366, 367, 368, 369, 370, 
371, 372, 373, 374, 375, 376, 377, 378, 379, 380, 
381, 382, 383, 384, 385, 386, 387, 388, 389, 390, 
391, 392, 393, 394, 395, 396, 397, 398, 399, 400, 
401, 402, 403, 404, 405, 406, 407, 408, 409, 410, 
411, 412, 413, 414, 415, 416, 417, 418, 419, 420, 
421, 422, 423, 424, 425, 426, 427, 428, 429, 430, 
431, 432, 433, 434, 435, 436, 437, 438, 439, 440, 
441, 442, 443, 444, 445, 446, 447, 448, 449, 450, 
451, 452, 453, 454, 455, 456, 457, 458, 459, 460, 
461, 462, 463, 464, 465, 466, 467, 468, 469, 470, 
471, 472, 473, 474, 475, 476, 477, 478, 479, 480, 
481, 482, 483, 484, 485, 486, 487, 488, 489, 490, 
491, 492, 493, 494, 495, 496, 497, 498, 499, 500, 
501, 502, 503, 504, 505, 506, 507, 508, 509, 510, 
511, 512, 513, 514, 515, 516, 517, 518, 519, 520, 
521, 522, 523, 524, 525, 526, 527, 528, 529, 530, 
531, 532, 533, 534, 535, 536, 537, 538, 539, 540, 
541, 542, 543, 544, 545, 546, 547, 548, 549, 550, 
551, 552, 553, 554, 555, 556, 557, 558, 559, 560, 
561, 562, 563, 564, 565, 566, 567, 568, 569, 570, 
571, 572, 573, 574, 575, 576, 577, 578, 579, 580, 
581, 582, 583, 584, 585, 586, 587, 588, 589, 590, 
591, 592, 593, 594, 595, 596, 597, 598, 599, 600, 
601, 602, 603, 604, 605, 606, 607, 608, 609, 610, 
611, 612, 613, 614, 615, 616, 617, 618, 619, 620, 
621, 622, 623, 624, 625, 626, 627, 628, 629, 630, 
631, 632, 633, 634, 635, 636, 637, 638, 639, 640, 
641, 642, 643, 644, 645, 646, 647, 648, 649, 650, 
651, 652, 653, 654, 655, 656, 657, 658, 659, 660, 
661, 662, 663, 664, 665, 666, 667, 668, 669, 670, 
671, 672, 673, 674, 675, 676, 677, 678, 679, 680, 
681, 682, 683, 684, 685, 686, 687, 688, 689, 690, 
691, 692, 693, 694, 695, 696, 697, 698, 699, 700, 
701, 702, 703, 704, 705, 706, 707, 708, 709, 710, 
711, 712, 713, 714, 715, 716, 717, 718, 719, 720, 
721, 722, 723, 724, 725, 726, 727, 728, 
