*Heading
 /Users/juliagao/geometry-optimization-net/scripts/../runs/run2/shape_113.inp
*NODE
1, 0, -0.3, 0
2, 0.425, -0.3, 0
3, 0.575, -0.3, 0
4, 1, -0.3, 0
5, 1, 0.3, 0
6, 0.575, 0.3, 0
7, 0.425, 0.3, 0
8, 0, 0.3, 0
9, 0.6871323699, -0.0054323767, 0
10, 0.02618801469893, -0.3, 0
11, 0.078724812037894, -0.3, 0
12, 0.13157511706838, -0.3, 0
13, 0.18506761755334, -0.3, 0
14, 0.23951683247124, -0.3, 0
15, 0.29439623854093, -0.3, 0
16, 0.34845593997118, -0.3, 0
17, 0.40004723607757, -0.3, 0
18, 0.05237602939786, -0.3, 0
19, 0.10507359467793, -0.3, 0
20, 0.15807663945884, -0.3, 0
21, 0.21205859564784, -0.3, 0
22, 0.26697506929464, -0.3, 0
23, 0.32181740778722, -0.3, 0
24, 0.37509447215515, -0.3, 0
25, 0.44347854860279, -0.3, 0
26, 0.48029285906023, -0.3, 0
27, 0.51744621203538, -0.3, 0
28, 0.55563190157795, -0.3, 0
29, 0.46195709720559, -0.3, 0
30, 0.49862862091486, -0.3, 0
31, 0.53626380315589, -0.3, 0
32, 0.60138493403912, -0.3, 0
33, 0.65451767047534, -0.3, 0
34, 0.70714312389061, -0.3, 0
35, 0.75870039312968, -0.3, 0
36, 0.81124810906102, -0.3, 0
37, 0.865420054907, -0.3, 0
38, 0.91973547246281, -0.3, 0
39, 0.97337352094153, -0.3, 0
40, 0.62776986807823, -0.3, 0
41, 0.68126547287245, -0.3, 0
42, 0.73302077490876, -0.3, 0
43, 0.78438001135059, -0.3, 0
44, 0.83811620677145, -0.3, 0
45, 0.89272390304256, -0.3, 0
46, 0.94674704188305, -0.3, 0
47, 1, -0.2739000490822, 0
48, 1, -0.22113719234379, 0
49, 1, -0.16662081119269, 0
50, 1, -0.1101379182961, 0
51, 1, -0.053233341563535, 0
52, 1, 0.0023791973493008, 0
53, 1, 0.057009057317038, 0
54, 1, 0.1123979343616, 0
55, 1, 0.16824668542746, 0
56, 1, 0.22234894036802, 0
57, 1, 0.27434942053296, 0
58, 1, -0.2478000981644, 0
59, 1, -0.19447428652319, 0
60, 1, -0.1387673358622, 0
61, 1, -0.08150850073, 0
62, 1, -0.02495818239707, 0
63, 1, 0.029716577095672, 0
64, 1, 0.084301537538404, 0
65, 1, 0.14049433118479, 0
66, 1, 0.19599903967013, 0
67, 1, 0.24869884106592, 0
68, 0.97456686484292, 0.3, 0
69, 0.92364564719661, 0.3, 0
70, 0.87189223795251, 0.3, 0
71, 0.81853692563819, 0.3, 0
72, 0.76411071447828, 0.3, 0
73, 0.70930528251123, 0.3, 0
74, 0.65461892134992, 0.3, 0
75, 0.6012008832776, 0.3, 0
76, 0.94913372968583, 0.3, 0
77, 0.89815756470738, 0.3, 0
78, 0.84562691119764, 0.3, 0
79, 0.79144694007874, 0.3, 0
80, 0.73677448887782, 0.3, 0
81, 0.68183607614463, 0.3, 0
82, 0.6274017665552, 0.3, 0
83, 0.5505153022987, 0.3, 0
84, 0.50049203497024, 0.3, 0
85, 0.44997673267154, 0.3, 0
86, 0.5260306045974, 0.3, 0
87, 0.47495346534308, 0.3, 0
88, 0.40084583689276, 0.3, 0
89, 0.35211467711498, 0.3, 0
90, 0.30161048968233, 0.3, 0
91, 0.2483789037971, 0.3, 0
92, 0.19314924105876, 0.3, 0
93, 0.13734149188601, 0.3, 0
94, 0.081843293494865, 0.3, 0
95, 0.027113788330622, 0.3, 0
96, 0.37669167378552, 0.3, 0
97, 0.32753768044444, 0.3, 0
98, 0.27568329892021, 0.3, 0
99, 0.22107450867399, 0.3, 0
100, 0.16522397344354, 0.3, 0
101, 0.10945901032849, 0.3, 0
102, 0.054227576661244, 0.3, 0
103, 0, 0.27344039820888, 0
104, 0, 0.21880832822153, 0
105, 0, 0.16180442999669, 0
106, 0, 0.10424618202559, 0
107, 0, 0.047612122740131, 0
108, 0, -0.0078018959710958, 0
109, 0, -0.062165726352592, 0
110, 0, -0.11574117539708, 0
111, 0, -0.16876455042017, 0
112, 0, -0.22147120825249, 0
113, 0, -0.27388644354648, 0
114, 0, 0.24688079641776, 0
115, 0, 0.1907358600253, 0
116, 0, 0.13287299996809, 0
117, 0, 0.075619364083091, 0
118, 0, 0.01960488139717, 0
119, 0, -0.035208673339361, 0
120, 0, -0.089122779365823, 0
121, 0, -0.14235957142834, 0
122, 0, -0.195169529412, 0
123, 0, -0.24777288709297, 0
124, 0.68226214896382, 0.022814815672714, 0
125, 0.74903910745649, -0.064103603900683, 0
126, 0.78586807769711, -0.10698398422998, 0
127, 0.81056866225325, -0.15677710718937, 0
128, 0.80884127601302, -0.21105019815422, 0
129, 0.76784127736135, -0.24428862993523, 0
130, 0.71535247767886, -0.24698769254582, 0
131, 0.66400006887135, -0.23383405145691, 0
132, 0.61559786674268, -0.21284434915429, 0
133, 0.56814714480392, -0.19416758777611, 0
134, 0.52218677209531, -0.21615088010414, 0
135, 0.47893463948924, -0.24295592744415, 0
136, 0.42899051534565, -0.2344618217468, 0
137, 0.39010232606885, -0.19662568781698, 0
138, 0.33942344238591, -0.17106275636949, 0
139, 0.28308759313289, -0.15794483283963, 0
140, 0.23708585201755, -0.1253839770542, 0
141, 0.23036578447153, -0.070912126089866, 0
142, 0.2569555574243, -0.021931929836445, 0
143, 0.28975853832131, 0.023729239773987, 0
144, 0.28677436909548, 0.08041508746014, 0
145, 0.2734366457728, 0.13671106701854, 0
146, 0.27900517733359, 0.19271170439982, 0
147, 0.31067239576537, 0.23511302554467, 0
148, 0.35622172517897, 0.25641835830219, 0
149, 0.40495177678682, 0.26325419561607, 0
150, 0.45587414988512, 0.25904299591463, 0
151, 0.50561385618778, 0.23932968225273, 0
152, 0.54685360483546, 0.20345804782086, 0
153, 0.5854955305744, 0.16353860335928, 0
154, 0.6396611986292, 0.1487042899098, 0
155, 0.6898113495958, 0.12608463478214, 0
156, 0.70083839035665, 0.073233505043134, 0
157, 0.70682180186007, -0.02595025603402, 0
158, 0.69182716698148, 0.047146034966803, 0
159, 0.70215469355675, 0.10110359586524, 0
160, 0.66693693493477, 0.14125678114717, 0
161, 0.61188694102872, 0.15339026340599, 0
162, 0.56489143129313, 0.18253585971847, 0
163, 0.52735858035241, 0.22307983946171, 0
164, 0.48132621855189, 0.25148126965663, 0
165, 0.42960043547137, 0.26273415217086, 0
166, 0.38038193913942, 0.26121969185372, 0
167, 0.33296968063022, 0.2482199076631, 0
168, 0.29225472560496, 0.21687912343784, 0
169, 0.27301197148089, 0.16586591010793, 0
170, 0.27882467825324, 0.10811618351806, 0
171, 0.29356488969354, 0.05236602717292, 0
172, 0.27447296034391, 0.00018584116812072, 0
173, 0.24125152619524, -0.045424619468183, 0
174, 0.22762672562068, -0.098694419652061, 0
175, 0.25706452934848, -0.14516670893744, 0
176, 0.31096182191693, -0.16549257355234, 0
177, 0.36723174842973, -0.17974482864588, 0
178, 0.40921215596909, -0.21725503671729, 0
179, 0.45350603808983, -0.2445687943254, 0
180, 0.50171884291759, -0.23212693399619, 0
181, 0.5424426008166, -0.19993016188289, 0
182, 0.59195932008737, -0.20178764892245, 0
183, 0.63926894758982, -0.22383321892452, 0
184, 0.68945949013371, -0.24183216515149, 0
185, 0.74174855027754, -0.24834184058644, 0
186, 0.79166363759009, -0.23250653864309, 0
187, 0.8145155422813, -0.18432550940686, 0
188, 0.80033191500007, -0.13101069286652, 0
189, 0.76861940500103, -0.084895866458027, 0
190, 0.7281243617741, -0.044667498510401, 0
191, 0.46701152455352, -0.28987043317224, 0
192, 0.052341150166438, -0.24585020598798, 0
193, 0.10624787412038, -0.24329940166804, 0
194, 0.16412043929142, -0.24129669237892, 0
195, 0.83998187067616, -0.17382253696586, 0
196, 0.9776301494671, -0.14208030446202, 0
197, 0.44756684353009, -0.25136374217137, 0
198, 0.9119942426189, -0.18046006241775, 0
199, 0.63910010483175, 0.18457047739089, 0
200, 0.97453269417864, -0.27470394938341, 0
201, 0.031514940001746, 0.12679156184059, 0
202, 0.11056745313232, -0.032318394700515, 0
203, 0.092859452284685, 0.05529483370902, 0
204, 0.24098314712093, 0.067975110793944, 0
205, 0.14574425847521, -0.015576748593996, 0
206, 0.056797634618165, 0.27039889778261, 0
207, 0.28333035030121, 0.26775992801636, 0
208, 0.23019031870147, 0.23409101600958, 0
209, 0.20935245556901, 0.26591568566383, 0
210, 0.15220029334359, 0.010536533679931, 0
211, 0.20885956105581, -0.035826815807372, 0
212, 0.11601538870323, -0.0067613614136654, 0
213, 0.11563635330163, 0.26704411937699, 0
214, 0.21973273745462, -0.010607412261323, 0
215, 0.3801202756301, -0.28474349505696, 0
216, 0.42432477886933, -0.24314252893805, 0
217, 0.10306702790092, -0.18673276192853, 0
218, 0.093039813586639, -0.13853439349192, 0
219, 0.050778885034484, -0.19249000384603, 0
220, 0.048187409276087, -0.14201063953713, 0
221, 0.12918497982673, 0.16576284525553, 0
222, 0.083103888483635, -0.025055866699871, 0
223, 0.093265924927469, -0.10062262872206, 0
224, 0.04877951313269, -0.094113933683593, 0
225, 0.22991049150946, 0.014578368808896, 0
226, 0.15787438136949, 0.22731242611626, 0
227, 0.19632244660891, -0.13400029789126, 0
228, 0.30089600361384, -0.27813019911656, 0
229, 0.75673257718519, 0.28315326099344, 0
230, 0.75596693608626, 0.23011743306906, 0
231, 0.86296364565185, 0.050662659530119, 0
232, 0.97134972636799, 0.16825643658264, 0
233, 0.85273541000684, 0.11581094867121, 0
234, 0.85639439244951, 0.22846068161397, 0
235, 0.81128508026812, 0.27908787902983, 0
236, 0.78364536562719, 0.28105138348613, 0
237, 0.725725889228, 0.27112304071422, 0
238, 0.72053462839687, 0.12328565456917, 0
239, 0.86682506810436, 0.27620936326362, 0
240, 0.68862550380191, 0.26445459743731, 0
241, 0.91371854511691, 0.19729768927033, 0
242, 0.74354109055376, 0.21597418032301, 0
243, 0.79967904329437, 0.086742582513303, 0
244, 0.60125181061265, 0.21179964272947, 0
245, 0.66219686252174, 0.15635401189972, 0
246, 0.78755074624015, 0.12164701044465, 0
247, 0.65877875936888, 0.25847595915037, 0
248, 0.61942008306412, 0.19717829424316, 0
249, 0.97219555020513, 0.22227397845663, 0
250, 0.73229147481272, 0.033251850866661, 0
251, 0.78082494995719, 0.0068939614030301, 0
252, 0.84067345199463, 0.014824903560987, 0
253, 0.91260144736391, 0.17003052938067, 0
254, 0.68732472141497, 0.27534271564143, 0
255, 0.89018546672867, 0.25061851717448, 0
256, 0.75069937971724, 0.092356534518813, 0
257, 0.8946412858248, 0.020535481635661, 0
258, 0.94740889903931, 0.025347191693086, 0
259, 0.87184813160659, -0.18968284783275, 0
260, 0.9540206966084, -0.089598838760805, 0
261, 0.82238089329927, -0.092771210783623, 0
262, 0.90276480331453, -0.040355244332965, 0
263, 0.95093043039045, -0.032387258371258, 0
264, 0.81074363529845, -0.065045489193692, 0
265, 0.85580433375038, -0.050515690367401, 0
266, 0.635974180245, -0.24990371006512, 0
267, 0.60923557062759, -0.25893290444378, 0
268, 0.95111968730421, -0.2508527317568, 0
269, 0.97558658162632, -0.24918574123215, 0
270, 0.9096401857193, -0.20639255468126, 0
271, 0.24792015493559, -0.16755132351506, 0
272, 0.87114269721332, -0.27964967213939, 0
273, 0.16974071814703, -0.16908255962737, 0
274, 0.72725598808155, 0.0029577580357936, 0
275, 0.75470275146933, 0.025199025101151, 0
276, 0.75886537214056, -0.02212331330865, 0
277, 0.086886040155421, 0.00094935299718282, 0
278, 0.061679185620903, 0.062747940409619, 0
279, 0.063352503509654, 0.12017000287363, 0
280, 0.30287999045868, -0.18662970628766, 0
281, 0.6626154023138, -0.24470533020328, 0
282, 0.73455336125223, -0.29089667950249, 0
283, 0.090150962837907, -0.1193869108716, 0
284, 0.11222191668016, -0.10637163157467, 0
285, 0.11251379955596, -0.13290764265807, 0
286, 0.56007377656127, -0.27324297787262, 0
287, 0.83295663127701, -0.057072042039705, 0
288, 0.93157998926756, -0.093816262108074, 0
289, 0.48584908300553, -0.28957124029841, 0
290, 0.97167868126321, 0.11223628013845, 0
291, 0.94416691743508, 0.22266764649606, 0
292, 0.061188842310687, 0.21010738179399, 0
293, 0.030068497579694, 0.041483184605354, 0
294, 0.13014546097072, -0.065179354746474, 0
295, 0.090191360078122, 0.027747523619372, 0
296, 0.20262006643339, 0.14166398195193, 0
297, 0.14352356211225, -0.099489193513887, 0
298, 0.12883032771411, -0.11926832906359, 0
299, 0.35704027698368, -0.20263460082216, 0
300, 0.63768342453356, -0.23707275516543, 0
301, 0.91185739315511, -0.12633483915918, 0
302, 0.030304014448464, 0.21454297411642, 0
303, 0.12220507509646, 0.23298409629632, 0
304, 0.20302679793975, 0.21707640450749, 0
305, 0.912693980182, -0.15373687980843, 0
306, 0.91605094913758, 0.082918921548174, 0
307, 0.97291791622955, 0.2485006840124, 0
308, 0.91568623844263, 0.22368026243049, 0
309, 0.89253527209554, -0.15828682263504, 0
310, 0.63414601964808, -0.26250237213218, 0
311, 0.76066462697458, -0.29033848609091, 0
312, 0.80370106291665, -0.099828498175611, 0
313, 0.9060982412377, -0.23134081052821, 0
314, 0.40284392123938, -0.23019008928126, 0
315, 0.61493749399002, 0.17557426947949, 0
316, 0.56765954876787, 0.24486003028356, 0
317, 0.80352513940564, 0.25884742948244, 0
318, 0.68995702943209, 0.24339588161894, 0
319, 0.093117936278403, 0.20509731433436, 0
320, 0.24425234476738, 0.18510072559619, 0
321, 0.12681798699217, 0.19881963274017, 0
322, 0.16729280592142, -0.050972484322368, 0
323, 0.23601972521289, 0.27170932217835, 0
324, 0.030818899915915, 0.069469754502228, 0
325, 0.93335374770953, -0.17650814214264, 0
326, 0.90971192325085, -0.098320620171673, 0
327, 0.76796677832659, -0.25166137933961, 0
328, 0.12929371050127, 0.10401860763827, 0
329, 0.2400010873245, 0.12469872578698, 0
330, 0.19218840233991, 0.026632971022239, 0
331, 0.20071681543396, 0.081698411961082, 0
332, 0.024269713190828, -0.14230120248729, 0
333, 0.049405057259779, -0.16677221803575, 0
334, 0.02535177567959, -0.1939696684912, 0
335, 0.024760512369067, -0.16793817051627, 0
336, 0.89147632434976, -0.13105271349125, 0
337, 0.6069358623702, -0.27284403154751, 0
338, 0.68542294447073, -0.27007009614033, 0
339, 0.88767992958294, -0.21059887264154, 0
340, 0.078964438536614, -0.24467528704439, 0
341, 0.10589990253914, -0.27172459811535, 0
342, 0.05248511770731, -0.27290302663568, 0
343, 0.079020648051323, -0.27233372251526, 0
344, 0.024650641849211, -0.091559684998407, 0
345, 0.047822777074992, -0.11799620852573, 0
346, 0.024172924585515, -0.11692357068916, 0
347, 0.88337531854144, 0.19962627920528, 0
348, 0.68081549773985, 0.25168041065646, 0
349, 0.53737920444127, 0.28037380166614, 0
350, 0.5794094280986, -0.28622293964753, 0
351, 0.81660544981425, -0.28432129992705, 0
352, 0.7376428040547, -0.27299376539242, 0
353, 0.79833116339723, -0.23438030959614, 0
354, 0.134563028701, -0.24193051825395, 0
355, 0.16114891189076, -0.27104103955714, 0
356, 0.13326980051075, -0.27120038541937, 0
357, 0.38107725330001, -0.21539320491462, 0
358, 0.38542698556019, -0.27024246425485, 0
359, 0.58946180097459, 0.28258529329597, 0
360, 0.94576273277505, 0.054343447096952, 0
361, 0.7198134331765, 0.25793260455248, 0
362, 0.93311780430724, -0.12194031529372, 0
363, 0.74051733322287, -0.25610171879465, 0
364, 0.92329890422538, -0.27670091504052, 0
365, 0.09476901841139, 0.08359850904178, 0
366, 0.050703154105074, -0.069738625755618, 0
367, 0.025581477393068, -0.065867831759428, 0
368, 0.031310278600927, 0.097945065283354, 0
369, 0.13838414038331, -0.040922423608212, 0
370, 0.69942389663349, 0.16643089244278, 0
371, 0.70441120759282, 0.12447118202898, 0
372, 0.70727026556921, 0.28681802457482, 0
373, 0.61762292196105, 0.25101797918251, 0
374, 0.73135215903378, 0.095220046060935, 0
375, 0.67894773771208, 0.1800969800497, 0
376, 0.80666778351228, 0.050451203361278, 0
377, 0.16340159843631, 0.1899168600789, 0
378, 0.18656564343302, -0.088432564630701, 0
379, 0.23754330854261, 0.040626152058442, 0
380, 0.14644789797437, 0.26509079435199, 0
381, 0.031416046928181, 0.15598068611844, 0
382, 0.1975502117763, 0.053677889044675, 0
383, 0.7948525437476, 0.23918641326461, 0
384, 0.97368597729663, 0.027576872970494, 0
385, 0.70238432981259, 0.26224698796533, 0
386, 0.028258421834809, 0.27192026400722, 0
387, 0.97536193283093, -0.028720159590251, 0
388, 0.94916122646896, -0.0035769838318961, 0
389, 0.97451697562899, -0.00055353936885283, 0
390, 0.88246943762686, -0.23512326925091, 0
391, 0.33442860989492, -0.26087685559301, 0
392, 0.44780733374776, -0.28964386495968, 0
393, 0.8317278746828, -0.11975253803259, 0
394, 0.97687120961426, -0.085551943946519, 0
395, 0.61346187743276, -0.22928937625302, 0
396, 0.55154897035048, 0.26208266933982, 0
397, 0.66085468696005, 0.21110548104454, 0
398, 0.97290706035613, 0.055714772460169, 0
399, 0.22180625141057, -0.15242308521954, 0
400, 0.82604553404523, -0.17921697769255, 0
401, 0.90656559603483, -0.069685833630361, 0
402, 0.70332419731263, 0.23532232446817, 0
403, 0.85805745954486, 0.083388371387325, 0
404, 0.62759455626572, 0.26872062127693, 0
405, 0.060049324064978, 0.034945513294366, 0
406, 0.063291458172817, 0.14975102027878, 0
407, 0.026092469719057, -0.24684122948917, 0
408, 0.026192116027948, -0.27341158482957, 0
409, 0.49358448042495, -0.24741580438675, 0
410, 0.88860033764666, -0.10318451994007, 0
411, 0.85599259457608, -0.16835426100067, 0
412, 0.6416493390329, 0.2042525542264, 0
413, 0.76644433665165, 0.24598209244357, 0
414, 0.92088076182187, 0.27477889475251, 0
415, 0.27073625489461, 0.25916421460611, 0
416, 0.28053514285179, 0.28195658345221, 0
417, 0.25970876971819, 0.27751173595925, 0
418, 0.66344653339172, 0.22956531695647, 0
419, 0.91845450307023, 0.052980627376277, 0
420, 0.87354979590594, -0.16317407919807, 0
421, 0.95547984209169, -0.14566450754009, 0
422, 0.85072422924439, -0.26187693942184, 0
423, 0.88141031461228, 0.17252746618743, 0
424, 0.77207118375642, 0.20268927667319, 0
425, 0.71138350166988, -0.27241435428386, 0
426, 0.97617182236651, -0.057141591802254, 0
427, 0.50901687749623, 0.27880730461441, 0
428, 0.53938371697606, 0.24252123422667, 0
429, 0.051801638077739, -0.21895897236931, 0
430, 0.025820146726702, -0.22031134751193, 0
431, 0.32903621021513, 0.27681997116047, 0
432, 0.29919584725256, 0.26146904811424, 0
433, 0.30210325152696, 0.28031884588924, 0
434, 0.071880304567862, -0.096974426736995, 0
435, 0.071319051026213, -0.14101256617518, 0
436, 0.07024165208415, -0.11886066747507, 0
437, 0.82339396066345, -0.1518716302519, 0
438, 0.78942076707838, -0.074579465874709, 0
439, 0.87682051422305, -0.25811934235004, 0
440, 0.37850838492266, 0.28026501621093, 0
441, 0.42751056481432, 0.28112526848093, 0
442, 0.40292833335377, 0.28127176580862, 0
443, 0.062799726535538, 0.091160840826184, 0
444, 0.36039793690791, -0.265384125857, 0
445, 0.47100744817569, -0.25241457243237, 0
446, 0.73610548865767, -0.28186539657776, 0
447, 0.452690210633, -0.2796941818632, 0
448, 0.22349923376428, -0.24593494217323, 0
449, 0.35399994409899, 0.27831575312924, 0
450, 0.20209776718007, 0.11083994483428, 0
451, 0.16515440232177, 0.15551553752444, 0
452, 0.029354798021551, 0.2435351684512, 0
453, 0.05799249390752, 0.0077556155205335, 0
454, 0.16407127677431, 0.093748407354835, 0
455, 0.25239785172723, 0.24797169538648, 0
456, 0.12467501436579, 0.046896105599402, 0
457, 0.21757865126843, -0.27289013957895, 0
458, 0.33045556585147, -0.193710668387, 0
459, 0.42805936113752, -0.28875917116849, 0
460, 0.93186930598771, -0.20276451637868, 0
461, 0.58245698737987, -0.27205776660969, 0
462, 0.95527923060889, -0.17293468433639, 0
463, 0.9140200783233, 0.11260647902581, 0
464, 0.5936084013974, 0.24769618263133, 0
465, 0.73596494197188, 0.17917027353279, 0
466, 0.66952686911116, 0.27380291558789, 0
467, 0.27219589818278, 0.23007897559833, 0
468, 0.1575537438733, 0.037374125583687, 0
469, 0.2404005429229, 0.1544637103011, 0
470, 0.095836292860155, 0.11270589308282, 0
471, 0.24094881652219, 0.095967495762052, 0
472, 0.104641999899, -0.056781126016557, 0
473, 0.19826472911784, -0.061652848471147, 0
474, 0.17913189268712, 0.262937650965, 0
475, 0.20300772182301, 0.17561397353351, 0
476, 0.095990609043211, 0.14267528889246, 0
477, 0.17658748818766, -0.025464102434068, 0
478, 0.60435048423631, -0.28646310305422, 0
479, 0.49167832176708, -0.27890855361964, 0
480, 0.098605723353464, -0.079728040274029, 0
481, 0.075123679821472, -0.074167765320454, 0
482, 0.64559393309647, 0.2234444747971, 0
483, 0.63833107231532, 0.16543900030232, 0
484, 0.56378248701948, 0.28151025869784, 0
485, 0.61490278835528, 0.28378573460628, 0
486, 0.47911667274078, 0.27724937371779, 0
487, 0.4530304584892, 0.27968385206964, 0
488, 0.76470494195793, -0.27080473867645, 0
489, 0.55817513370759, -0.28688778853288, 0
490, 0.61137105395266, -0.24450542411897, 0
491, 0.88432448303819, -0.074591330193988, 0
492, 0.57840006857451, 0.26413323977022, 0
493, 0.73200763480467, 0.23866870169159, 0
494, 0.86162086941741, 0.25248496075373, 0
495, 0.64964453460541, 0.27132246777852, 0
496, 0.7735353302547, 0.08930924308599, 0
497, 0.25214242445999, -0.24952410564776, 0
498, 0.51607841994557, -0.2385366365268, 0
499, 0.85789170000578, -0.23994041306046, 0
500, 0.47250016157917, -0.27982018418218, 0
501, 0.14719214731655, -0.13892290853805, 0
502, 0.7085611299311, -0.29066501187052, 0
503, 0.94311335751728, 0.11222719639785, 0
504, 0.77547589546086, 0.26304315428844, 0
505, 0.71739603171863, 0.17204137146065, 0
506, 0.13205316539289, -0.18071493285317, 0
507, 0.16698641906348, -0.20917400729838, 0
508, 0.10556603102574, -0.21477115031477, 0
509, 0.13472744481043, -0.21174305229093, 0
510, 0.18498810877796, 0.00035081698294248, 0
511, 0.12754397245644, 0.074976735902576, 0
512, 0.026745643679661, -0.03976653823446, 0
513, 0.63218570543371, -0.27498526390842, 0
514, 0.9210907827063, 0.023013773550701, 0
515, 0.73918319489508, 0.12255567654792, 0
516, 0.94568603399998, 0.24874448262697, 0
517, 0.79730664591194, -0.034644633678536, 0
518, 0.77359653241292, -0.04898015630232, 0
519, 0.66301424290434, 0.28650142935858, 0
520, 0.68515191509693, 0.28741536839878, 0
521, 0.76268156084525, -0.28059169147705, 0
522, 0.97648789871586, -0.22321698601081, 0
523, 0.97738250313653, -0.11394192035877, 0
524, 0.27518688138676, -0.17859309550115, 0
525, 0.78468557121384, 0.22024261120308, 0
526, 0.71157624226345, 0.040540855674184, 0
527, 0.88404165774885, 0.11366859226126, 0
528, 0.83257628266061, 0.25519714484973, 0
529, 0.65964194867688, 0.19207159699933, 0
530, 0.73443782405898, 0.064636661204454, 0
531, 0.85143192684054, 0.20363217058926, 0
532, 0.94738757478286, 0.27445254765722, 0
533, 0.63947091023088, 0.28512479394223, 0
534, 0.73111714223105, 0.28517998622801, 0
535, 0.40936426270825, -0.27475623016713, 0
536, 0.952971946469, -0.22553565525352, 0
537, 0.70630307994604, 0.011936724659146, 0
538, 0.92672142094349, -0.036202572921666, 0
539, 0.89867749087574, -0.010261281307747, 0
540, 0.92389336045242, -0.0067674769281616, 0
541, 0.847519682047, 0.17722387461336, 0
542, 0.68139061166301, 0.1615692384707, 0
543, 0.89087805762347, 0.051713658488584, 0
544, 0.68401671734856, -0.27989465294062, 0
545, 0.56191995127043, -0.24185396267739, 0
546, 0.91816264146822, 0.24942175106521, 0
547, 0.87910774624857, -0.045045049548214, 0
548, 0.84814618437507, -0.019108868950449, 0
549, 0.86791979921368, 0.017842306815105, 0
550, 0.87345414050449, -0.014261629937309, 0
551, 0.076502288216922, -0.19028538403635, 0
552, 0.078219716068719, -0.2171827819858, 0
553, 0.65997703561822, 0.17343129779894, 0
554, 0.89410409109329, 0.27534365571914, 0
555, 0.56490804999577, -0.22133346391835, 0
556, 0.28770136899462, 0.24613683338822, 0
557, 0.098185240648618, -0.16089265368755, 0
558, 0.073866502423032, -0.16472881373877, 0
559, 0.095130570114706, 0.17351495733947, 0
560, 0.029095916601343, 0.013910748312378, 0
561, 0.71262817871762, 0.24588009791934, 0
562, 0.69643622434189, 0.1868790551155, 0
563, 0.027961546912851, -0.013144197009276, 0
564, 0.059195293071528, 0.24041408050728, 0
565, 0.16523341758537, 0.12373020484764, 0
566, 0.085882121284315, 0.26880113627504, 0
567, 0.86553390686963, -0.21566539124815, 0
568, 0.27342032611907, -0.27628240544774, 0
569, 0.87221838332664, -0.13607558244516, 0
570, 0.89141939372355, -0.18483833337829, 0
571, 0.67765576755718, 0.19927148928245, 0
572, 0.69380230149627, 0.20702091849423, 0
573, 0.67512843071585, 0.26205744801331, 0
574, 0.71524373170057, 0.098111860459593, 0
575, 0.60370111706626, 0.2662967551139, 0
576, 0.62485884257878, 0.21754529259145, 0
577, 0.52158820899663, 0.25932575375096, 0
578, 0.7210712945206, 0.22645785352128, 0
579, 0.69807773655555, 0.25176180819279, 0
580, 0.18938991715824, -0.27163665635961, 0
581, 0.88732746922268, 0.082857977051253, 0
582, 0.97222076318306, 0.083894804637849, 0
583, 0.76120418602136, 0.12212273671786, 0
584, 0.71306265469455, 0.19467773478898, 0
585, 0.6826171599337, -0.28988186752344, 0
586, 0.71628479591733, 0.069202800299037, 0
587, 0.97373173875286, 0.27432394000166, 0
588, 0.94235882508045, 0.16875822075181, 0
589, 0.83921999434408, 0.27743991199971, 0
590, 0.053109560956904, -0.044641609637138, 0
591, 0.88650447277405, 0.2255071213918, 0
592, 0.77969781394097, 0.053316529263409, 0
593, 0.7051871530299, 0.27410481013642, 0
594, 0.16154883192035, 0.065053238108255, 0
595, 0.031006614466996, 0.18534554626573, 0
596, 0.7412713276887, 0.25237963328567, 0
597, 0.1226081236386, -0.15350014756232, 0
598, 0.079064676634704, -0.050155906176884, 0
599, 0.81227006669461, 0.011304589507495, 0
600, 0.8226811817499, -0.025451429164175, 0
601, 0.74931343950223, 0.26727552274926, 0
602, 0.82546263602595, 0.23295014042375, 0
603, 0.25620860070841, 0.21031575960278, 0
604, 0.062575415376065, 0.1798033623887, 0
605, 0.12113799828758, -0.087521946540241, 0
606, 0.15660058222861, -0.075978505015075, 0
607, 0.83061475328528, -0.24670910967973, 0
608, 0.59378296416687, 0.189599004179, 0
609, 0.75542680927053, 0.059629997120445, 0
610, 0.94429455514672, 0.08333685208497, 0
611, 0.67745235029595, 0.21825634387225, 0
612, 0.16811018875768, -0.11551628395717, 0
613, 0.74701081637257, 0.00025196393126412, 0
614, 0.12988185867407, 0.13420591841312, 0
615, 0.86278325786232, -0.080051759875664, 0
616, 0.10500479690548, -0.11951298725306, 0
617, 0.6881575752784, -0.25102054536819, 0
618, 0.6394820925618, 0.25467285649571, 0
619, 0.08991249163123, 0.23704936370204, 0
620, 0.055624480921201, -0.018785004484802, 0
621, 0.9293658656371, -0.065230508249791, 0
622, 0.66114152856266, -0.2555911662907, 0
623, 0.12077991187757, 0.019667926262976, 0
624, 0.57499840693867, 0.20664657435523, 0
625, 0.65796372685872, -0.27757493537807, 0
626, 0.56108234488519, -0.25859275338254, 0
627, 0.28015216384581, -0.25317783967776, 0
628, 0.40464898631744, -0.28700546518464, 0
629, 0.19410784070662, -0.24287928318503, 0
630, 0.84135211137494, -0.22247337575764, 0
631, 0.92951757365611, -0.22820650911519, 0
632, 0.43215267302169, -0.27809669973582, 0
633, 0.24563773242685, -0.27451389670054, 0
634, 0.3279778547228, -0.28012465321293, 0
635, 0.35436790755156, -0.28234022490036, 0
636, 0.30760732903664, -0.25687920124134, 0
637, 0.65958834943571, -0.26653850961949, 0
638, 0.842091391136, -0.086123036541315, 0
639, 0.58933191295359, -0.2230059163489, 0
640, 0.53890764414351, -0.28812570636146, 0
641, 0.54036047121736, -0.27599383583891, 0
642, 0.50436065856545, -0.28909058071306, 0
643, 0.51005005529657, -0.2778644737931, 0
644, 0.52174294883273, -0.28907574879271, 0
645, 0.52524543700834, -0.27833947346761, 0
646, 0.49797158703073, -0.26777823037057, 0
647, 0.47849051411787, -0.26977291177714, 0
648, 0.45809931874674, -0.27023305014767, 0
649, 0.43688618648747, -0.26820947302721, 0
650, 0.41429426479269, -0.26330880841297, 0
651, 0.39099309663548, -0.25639571505438, 0
652, 0.36672924685961, -0.24884556048227, 0
653, 0.34126994963419, -0.24191123202671, 0
654, 0.31468922698372, -0.23596788707798, 0
655, 0.28729998298369, -0.23055020610476, 0
656, 0.25923238976879, -0.22499820276555, 0
657, 0.230269803626, -0.21900572150638, 0
658, 0.19975133428818, -0.2130390729938, 0
659, 0.20784120818802, -0.18180866550822, 0
660, 0.2383790083301, -0.19247959875111, 0
661, 0.26699186673129, -0.20117472133024, 0
662, 0.29490790063159, -0.20835335639396, 0
663, 0.32226414792239, -0.21506898882248, 0
664, 0.34868769827142, -0.22276232269146, 0
665, 0.37352753615082, -0.23237648775005, 0
666, 0.39680187716977, -0.24310324940606, 0
667, 0.41934367272495, -0.25275064322285, 0
668, 0.4420508830544, -0.25925814665564, 0
669, 0.46413846704994, -0.26123450806678, 0
670, 0.48554057031147, -0.25932618083226, 0
671, 0.50717491303765, -0.2550360233777, 0
672, 0.53970782331926, -0.22824290163477, 0
673, 0.97756205207369, -0.16967619142421, 0
674, 0.71408088461913, -0.25513240473361, 0
675, 0.9489993113482, -0.27561651785339, 0
676, 0.9265888734866, -0.2528268405329, 0
677, 0.97716677563004, -0.19681525090515, 0
678, 0.9337586385683, -0.14953677187634, 0
679, 0.63006964818115, -0.28745069130316, 0
680, 0.819564257254, -0.20734603634919, 0
681, 0.65627311861254, -0.2887211043426, 0
682, 0.58692165132772, -0.24102060099423, 0
683, 0.95440931004163, -0.19959094928159, 0
684, 0.95260191243852, -0.061096150687836, 0
685, 0.86844342223168, -0.10842638588363, 0
686, 0.84943420875521, -0.11399382283823, 0
687, 0.58478910114264, -0.2571540866992, 0
688, 0.85335505251735, -0.1950880225574, 0
689, 0.85432298243639, -0.14132338494937, 0
690, 0.82280269435495, -0.26691056048276, 0
691, 0.95502828037514, -0.11783494196997, 0
692, 0.83475229494682, -0.20179773710948, 0
693, 0.70997990308141, -0.28144881542865, 0
694, 0.90191637107569, -0.25519604925604, 0
695, 0.89742184461704, -0.27801591805834, 0
696, 0.83798949541092, -0.14665965453638, 0
697, 0.81539216129057, -0.12549728284044, 0
698, 0.84423731267358, -0.2817167461868, 0
699, 0.52745898222393, -0.26879604292778, 0
700, 0.51646212851291, -0.26600434637666, 0
701, 0.53941745834464, -0.26359709497262, 0
702, 0.53321826664801, -0.25097708694131, 0
703, 0.94299776148467, 0.19606055070671, 0
704, 0.9716478822124, 0.19562670019107, 0
705, 0.80894171839858, 0.18639138788144, 0
706, 0.97136491663167, 0.14043469078782, 0
707, 0.94240338771126, 0.14077733345412, 0
708, 0.91269299198526, 0.14176030461647, 0
709, 0.88150381486842, 0.14383211150743, 0
710, 0.84692836508856, 0.14806513906936, 0
711, 0.83475423920026, 0.050070920078115, 0
712, 0.82834073272786, 0.084829931072104, 0
713, 0.81883123594644, 0.11991118411814, 0
714, 0.678323519267, 0.2361308662027, 0
715, 0.69160284504999, 0.22620081261469, 0
716, 0.70831534766512, 0.21593973524744, 0
717, 0.72902972341027, 0.20415102521604, 0
718, 0.75563755108585, 0.18854880243108, 0
719, 0.65111939647091, 0.24161208143598, 0
720, 0.63139601727509, 0.23672057407973, 0
721, 0.60899667751349, 0.23209118850666, 0
722, 0.58417996757027, 0.22793901955048, 0
723, 0.55717561484251, 0.22476680506017, 0
724, 0.68522522925014, 0.14380649944421, 0
725, 0.70260259625279, 0.14566877161997, 0
726, 0.72085830933599, 0.1478445289528, 0
727, 0.7413398752742, 0.15075509501006, 0
728, 0.76590090471478, 0.1546092515021, 0
729, 0.68916475467631, 0.25593285564736, 0
730, 0.81765316766017, 0.21027297021268, 0
731, 0.66776376371869, 0.24668597177664, 0
732, 0.79921729629178, 0.15940279123263, 0
733, 0.68680896590653, -0.26043755099886, 0
734, 0.71275562148207, -0.26362298337741, 0
735, 0.73913843470881, -0.26435966136498, 0
736, 0.76688339151815, -0.26068667015661, 0
737, 0.78825996748273, -0.28742653590933, 0
738, 0.79270344474996, -0.27355410962458, 0
739, 0.79847317379844, -0.2571330561006, 0
740, 0.80760074107649, -0.23480704339193, 0
******* E L E M E N T S *************
*ELEMENT, type=CPS4, ELSET=Surface1
1, 724, 245, 154, 160
2, 710, 709, 423, 541
3, 67, 57, 587, 307
4, 57, 5, 68, 587
5, 292, 302, 595, 604
6, 225, 214, 142, 172
7, 321, 319, 559, 221
8, 510, 210, 205, 477
9, 477, 322, 473, 211
10, 210, 623, 212, 205
11, 322, 369, 294, 606
12, 380, 93, 101, 213
13, 639, 182, 133, 555
14, 457, 21, 14, 633
15, 422, 698, 272, 439
16, 654, 636, 391, 653
17, 304, 226, 377, 475
18, 474, 209, 92, 100
19, 329, 471, 144, 170
20, 121, 111, 335, 332
21, 332, 335, 333, 220
22, 335, 334, 219, 333
23, 111, 122, 334, 335
24, 391, 634, 635, 444
25, 497, 633, 568, 627
26, 652, 444, 358, 651
27, 390, 439, 694, 313
28, 192, 342, 343, 340
29, 340, 343, 341, 193
30, 343, 11, 19, 341
31, 342, 18, 11, 343
32, 120, 110, 346, 344
33, 344, 346, 345, 224
34, 346, 332, 220, 345
35, 110, 121, 332, 346
36, 246, 583, 496, 243
37, 232, 55, 66, 704
38, 519, 520, 81, 74
39, 515, 238, 374, 256
40, 696, 393, 697, 437
41, 313, 694, 676, 631
42, 607, 690, 422, 499
43, 621, 684, 263, 538
44, 193, 341, 356, 354
45, 354, 356, 355, 194
46, 356, 12, 20, 355
47, 341, 19, 12, 356
48, 447, 392, 191, 500
49, 500, 191, 289, 479
50, 648, 447, 500, 647
51, 662, 661, 656, 655
52, 316, 464, 492, 396
53, 164, 577, 427, 486
54, 396, 492, 484, 349
55, 231, 549, 257, 543
56, 651, 358, 535, 650
57, 425, 338, 544, 693
58, 646, 479, 643, 700
59, 461, 286, 489, 350
60, 590, 512, 367, 366
61, 477, 205, 369, 322
62, 367, 344, 224, 366
63, 109, 120, 344, 367
64, 221, 559, 476, 614
65, 320, 469, 145, 169
66, 451, 221, 614, 565
67, 595, 115, 105, 381
68, 404, 495, 533, 485
69, 360, 258, 384, 398
70, 732, 710, 541, 705
71, 359, 485, 75, 6
72, 233, 403, 581, 527
73, 705, 541, 531, 730
74, 530, 586, 526, 250
75, 602, 528, 317, 383
76, 379, 225, 172, 143
77, 455, 415, 417, 323
78, 606, 294, 605, 297
79, 331, 382, 379, 204
80, 470, 279, 443, 365
81, 377, 321, 221, 451
82, 724, 160, 155, 371
83, 527, 581, 306, 463
84, 348, 729, 240, 573
85, 578, 493, 561, 402
86, 614, 476, 470, 328
87, 469, 329, 170, 145
88, 303, 213, 566, 619
89, 475, 296, 329, 469
90, 62, 52, 389, 387
91, 387, 389, 388, 263
92, 389, 384, 258, 388
93, 52, 63, 384, 389
94, 671, 670, 647, 646
95, 661, 524, 271, 660
96, 261, 638, 287, 264
97, 642, 30, 27, 644
98, 536, 268, 269, 522
99, 696, 689, 686, 393
100, 271, 175, 140, 399
101, 629, 580, 457, 448
102, 638, 615, 265, 287
103, 393, 686, 638, 261
104, 676, 364, 675, 268
105, 740, 739, 607, 630
106, 245, 483, 161, 154
107, 492, 575, 359, 484
108, 361, 237, 593, 385
109, 705, 730, 525, 424
110, 702, 671, 646, 700
111, 194, 355, 580, 629
112, 695, 45, 38, 364
113, 713, 246, 243, 712
114, 533, 519, 74, 82
115, 534, 80, 73, 372
116, 318, 579, 729, 348
117, 324, 117, 107, 293
118, 295, 405, 453, 277
119, 209, 323, 99, 92
120, 406, 381, 201, 279
121, 123, 113, 408, 407
122, 407, 408, 342, 192
123, 408, 10, 18, 342
124, 113, 1, 10, 408
125, 339, 270, 198, 570
126, 625, 513, 679, 681
127, 513, 337, 478, 679
128, 544, 625, 681, 585
129, 464, 373, 575, 492
130, 372, 73, 81, 520
131, 532, 76, 69, 414
132, 722, 721, 464, 316
133, 207, 416, 417, 415
134, 226, 380, 213, 303
135, 417, 91, 99, 323
136, 416, 98, 91, 417
137, 485, 533, 82, 75
138, 291, 516, 546, 308
139, 229, 72, 80, 534
140, 717, 242, 578, 716
141, 270, 313, 631, 460
142, 326, 288, 621, 401
143, 636, 228, 634, 391
144, 658, 629, 448, 657
145, 516, 532, 414, 546
146, 728, 727, 583, 246
147, 541, 423, 347, 531
148, 383, 317, 504, 413
149, 739, 488, 521, 738
150, 677, 522, 48, 59
151, 502, 585, 41, 34
152, 353, 186, 129, 327
153, 504, 236, 229, 601
154, 720, 719, 618, 373
155, 419, 514, 258, 360
156, 703, 291, 308, 241
157, 122, 112, 430, 334
158, 334, 430, 429, 219
159, 430, 407, 192, 429
160, 112, 123, 407, 430
161, 207, 432, 433, 416
162, 416, 433, 90, 98
163, 433, 431, 97, 90
164, 432, 167, 431, 433
165, 220, 435, 436, 345
166, 345, 436, 434, 224
167, 436, 283, 223, 434
168, 435, 218, 283, 436
169, 401, 621, 538, 262
170, 739, 738, 690, 607
171, 337, 461, 350, 478
172, 692, 195, 400, 680
173, 166, 149, 442, 440
174, 440, 442, 88, 96
175, 442, 441, 7, 88
176, 149, 165, 441, 442
177, 560, 118, 108, 563
178, 565, 614, 328, 454
179, 479, 289, 642, 643
180, 568, 22, 15, 228
181, 666, 665, 652, 651
182, 643, 642, 644, 645
183, 580, 13, 21, 457
184, 166, 440, 449, 148
185, 148, 449, 431, 167
186, 449, 89, 97, 431
187, 440, 96, 89, 449
188, 467, 168, 147, 556
189, 226, 303, 321, 377
190, 328, 470, 365, 511
191, 303, 619, 319, 321
192, 330, 510, 214, 225
193, 563, 108, 119, 512
194, 277, 453, 620, 222
195, 319, 292, 604, 559
196, 350, 489, 28, 3
197, 626, 701, 641, 286
198, 269, 200, 47, 58
199, 668, 667, 650, 649
200, 270, 460, 325, 198
201, 569, 336, 410, 685
202, 637, 310, 513, 625
203, 653, 391, 444, 652
204, 709, 527, 463, 708
205, 241, 308, 591, 347
206, 236, 79, 72, 229
207, 238, 371, 574, 374
208, 475, 377, 451, 296
209, 382, 594, 468, 330
210, 368, 106, 117, 324
211, 369, 202, 472, 294
212, 443, 368, 324, 278
213, 279, 201, 368, 443
214, 405, 293, 560, 453
215, 206, 102, 95, 386
216, 381, 105, 116, 201
217, 598, 590, 366, 481
218, 203, 278, 405, 295
219, 304, 320, 603, 208
220, 677, 59, 49, 673
221, 224, 434, 481, 366
222, 222, 620, 590, 598
223, 472, 598, 481, 480
224, 434, 223, 480, 481
225, 574, 159, 156, 586
226, 315, 608, 162, 153
227, 727, 726, 515, 583
228, 732, 713, 233, 710
229, 87, 85, 487, 486
230, 486, 487, 150, 164
231, 487, 441, 165, 150
232, 85, 7, 441, 487
233, 446, 693, 502, 282
234, 665, 664, 653, 652
235, 499, 422, 439, 390
236, 286, 641, 640, 489
237, 683, 677, 673, 462
238, 338, 637, 625, 544
239, 336, 301, 326, 410
240, 737, 311, 35, 43
241, 394, 61, 51, 426
242, 640, 644, 27, 31
243, 682, 545, 626, 687
244, 663, 662, 655, 654
245, 424, 525, 230, 242
246, 561, 361, 385, 579
247, 256, 374, 530, 609
248, 531, 234, 602, 730
249, 583, 515, 256, 496
250, 723, 722, 316, 428
251, 577, 396, 349, 427
252, 610, 360, 398, 582
253, 312, 438, 189, 126
254, 490, 395, 639, 682
255, 298, 297, 605, 284
256, 215, 24, 17, 628
257, 198, 325, 678, 305
258, 273, 501, 597, 506
259, 374, 574, 586, 530
260, 718, 424, 242, 717
261, 317, 235, 236, 504
262, 237, 534, 372, 593
263, 217, 508, 509, 506
264, 273, 227, 612, 501
265, 509, 354, 194, 507
266, 508, 193, 354, 509
267, 331, 454, 594, 382
268, 320, 169, 146, 603
269, 471, 204, 171, 144
270, 619, 564, 292, 319
271, 564, 452, 302, 292
272, 623, 295, 277, 212
273, 512, 119, 109, 367
274, 501, 612, 297, 298
275, 627, 568, 228, 636
276, 647, 500, 479, 646
277, 707, 706, 232, 588
278, 484, 359, 6, 83
279, 463, 306, 610, 503
280, 163, 723, 428, 151
281, 392, 25, 29, 191
282, 272, 37, 45, 695
283, 733, 617, 281, 622
284, 264, 517, 518, 438
285, 438, 518, 125, 189
286, 518, 276, 190, 125
287, 517, 251, 276, 518
288, 650, 535, 632, 649
289, 399, 140, 174, 227
290, 268, 675, 200, 269
291, 660, 659, 658, 657
292, 632, 459, 392, 447
293, 579, 385, 240, 729
294, 609, 530, 250, 275
295, 247, 573, 466, 495
296, 56, 67, 307, 249
297, 200, 39, 4, 47
298, 738, 737, 351, 690
299, 675, 46, 39, 200
300, 325, 462, 421, 678
301, 355, 20, 13, 580
302, 664, 663, 654, 653
303, 191, 29, 26, 289
304, 289, 26, 30, 642
305, 659, 273, 507, 658
306, 691, 523, 394, 260
307, 649, 632, 447, 648
308, 358, 215, 628, 535
309, 448, 457, 633, 497
310, 503, 610, 582, 290
311, 398, 384, 63, 53
312, 725, 724, 371, 238
313, 711, 252, 549, 231
314, 719, 731, 247, 618
315, 573, 240, 254, 466
316, 255, 554, 239, 494
317, 581, 543, 419, 306
318, 486, 427, 84, 87
319, 715, 402, 318, 714
320, 239, 70, 78, 589
321, 493, 596, 361, 561
322, 736, 327, 363, 735
323, 667, 666, 651, 650
324, 641, 645, 644, 640
325, 628, 17, 2, 459
326, 9, 157, 537, 124
327, 124, 537, 526, 158
328, 537, 274, 250, 526
329, 157, 190, 274, 537
330, 257, 539, 540, 514
331, 514, 540, 388, 258
332, 540, 538, 263, 388
333, 539, 262, 538, 540
334, 716, 578, 402, 715
335, 713, 712, 403, 233
336, 732, 728, 246, 713
337, 582, 398, 53, 64
338, 196, 60, 50, 523
339, 462, 673, 196, 421
340, 630, 567, 259, 688
341, 395, 132, 182, 639
342, 371, 155, 159, 574
343, 714, 318, 348, 731
344, 546, 414, 554, 255
345, 494, 239, 589, 528
346, 262, 539, 550, 547
347, 547, 550, 548, 265
348, 550, 549, 252, 548
349, 539, 257, 549, 550
350, 219, 429, 552, 551
351, 551, 552, 508, 217
352, 552, 340, 193, 508
353, 429, 192, 340, 552
354, 151, 428, 577, 164
355, 709, 708, 253, 423
356, 601, 229, 534, 237
357, 423, 253, 241, 347
358, 659, 399, 227, 273
359, 567, 499, 390, 339
360, 507, 194, 629, 658
361, 634, 23, 16, 635
362, 207, 415, 556, 432
363, 432, 556, 147, 167
364, 559, 604, 406, 476
365, 204, 379, 143, 171
366, 452, 386, 103, 114
367, 330, 468, 210, 510
368, 220, 333, 558, 435
369, 435, 558, 557, 218
370, 558, 551, 217, 557
371, 333, 219, 551, 558
372, 468, 456, 623, 210
373, 452, 114, 104, 302
374, 619, 566, 206, 564
375, 731, 348, 573, 247
376, 66, 56, 249, 704
377, 712, 711, 231, 403
378, 376, 592, 251, 599
379, 296, 450, 471, 329
380, 378, 612, 227, 174
381, 604, 595, 381, 406
382, 603, 146, 168, 467
383, 212, 277, 222, 202
384, 304, 474, 380, 226
385, 456, 203, 295, 623
386, 201, 116, 106, 368
387, 293, 107, 118, 560
388, 566, 94, 102, 206
389, 660, 271, 399, 659
390, 633, 14, 22, 568
391, 655, 627, 636, 654
392, 734, 674, 617, 733
393, 669, 668, 649, 648
394, 339, 390, 313, 270
395, 281, 131, 183, 300
396, 698, 44, 37, 272
397, 235, 71, 79, 236
398, 543, 257, 514, 419
399, 587, 68, 76, 532
400, 242, 230, 493, 578
401, 726, 725, 238, 515
402, 588, 232, 704, 703
403, 575, 404, 485, 359
404, 721, 720, 373, 464
405, 712, 243, 376, 711
406, 730, 602, 383, 525
407, 466, 254, 520, 519
408, 554, 77, 70, 239
409, 214, 211, 173, 142
410, 657, 448, 497, 656
411, 661, 660, 657, 656
412, 195, 696, 437, 400
413, 403, 231, 543, 581
414, 591, 255, 494, 234
415, 528, 589, 235, 317
416, 708, 707, 588, 253
417, 535, 628, 459, 632
418, 426, 51, 62, 387
419, 364, 38, 46, 675
420, 478, 350, 3, 32
421, 349, 484, 83, 86
422, 608, 624, 152, 162
423, 706, 290, 54, 65
424, 624, 723, 163, 152
425, 211, 473, 141, 173
426, 594, 511, 456, 468
427, 382, 330, 225, 379
428, 454, 328, 511, 594
429, 290, 582, 64, 54
430, 414, 69, 77, 554
431, 413, 504, 601, 596
432, 308, 546, 255, 591
433, 427, 349, 86, 84
434, 307, 587, 532, 516
435, 428, 316, 396, 577
436, 306, 419, 360, 610
437, 208, 455, 323, 209
438, 564, 206, 386, 452
439, 510, 477, 211, 214
440, 586, 156, 158, 526
441, 402, 561, 579, 318
442, 706, 65, 55, 232
443, 593, 372, 520, 254
444, 459, 2, 25, 392
445, 506, 597, 557, 217
446, 597, 285, 218, 557
447, 411, 420, 569, 689
448, 467, 556, 415, 455
449, 294, 472, 480, 605
450, 365, 443, 278, 203
451, 251, 517, 600, 599
452, 599, 600, 548, 252
453, 600, 287, 265, 548
454, 517, 264, 287, 600
455, 618, 247, 495, 404
456, 708, 463, 503, 707
457, 230, 413, 596, 493
458, 525, 383, 413, 230
459, 202, 222, 598, 472
460, 304, 475, 469, 320
461, 620, 563, 512, 590
462, 474, 100, 93, 380
463, 501, 298, 285, 597
464, 301, 362, 288, 326
465, 605, 480, 223, 284
466, 205, 212, 202, 369
467, 606, 297, 612, 378
468, 476, 406, 279, 470
469, 305, 678, 362, 301
470, 400, 437, 127, 187
471, 694, 695, 364, 676
472, 420, 309, 336, 569
473, 249, 307, 516, 291
474, 711, 376, 599, 252
475, 234, 494, 528, 602
476, 495, 466, 519, 533
477, 596, 601, 237, 361
478, 707, 503, 290, 706
479, 373, 618, 404, 575
480, 253, 588, 703, 241
481, 710, 233, 527, 709
482, 243, 496, 592, 376
483, 589, 78, 71, 235
484, 496, 256, 609, 592
485, 298, 284, 616, 285
486, 701, 699, 645, 641
487, 656, 497, 627, 655
488, 190, 276, 613, 274
489, 274, 613, 275, 250
490, 276, 251, 275, 613
491, 278, 324, 293, 405
492, 453, 560, 563, 620
493, 700, 643, 645, 699
494, 692, 688, 411, 195
495, 228, 15, 23, 634
496, 218, 285, 616, 283
497, 283, 616, 284, 223
498, 273, 506, 509, 507
499, 351, 36, 44, 698
500, 421, 196, 523, 691
501, 685, 410, 491, 615
502, 635, 16, 24, 215
503, 704, 249, 291, 703
504, 732, 705, 424, 718
505, 385, 593, 254, 240
506, 302, 104, 115, 595
507, 322, 606, 378, 473
508, 208, 603, 467, 455
509, 473, 378, 174, 141
510, 450, 331, 204, 471
511, 386, 95, 8, 103
512, 296, 451, 565, 450
513, 213, 101, 94, 566
514, 491, 401, 262, 547
515, 521, 446, 282, 311
516, 690, 351, 698, 422
517, 450, 565, 454, 331
518, 511, 365, 203, 456
519, 304, 208, 209, 474
520, 702, 700, 699, 701
521, 439, 272, 695, 694
522, 740, 630, 688, 692
523, 592, 609, 275, 251
524, 347, 591, 234, 531
525, 483, 315, 153, 161
526, 622, 281, 300, 266
527, 363, 185, 130, 674
528, 555, 133, 181, 672
529, 327, 129, 185, 363
530, 740, 353, 327, 736
531, 738, 521, 311, 737
532, 259, 570, 309, 420
533, 353, 680, 128, 186
534, 524, 139, 175, 271
535, 288, 260, 684, 621
536, 444, 635, 215, 358
537, 260, 394, 426, 684
538, 585, 681, 33, 41
539, 670, 669, 648, 647
540, 678, 421, 691, 362
541, 523, 50, 61, 394
542, 437, 697, 188, 127
543, 460, 631, 536, 683
544, 280, 176, 139, 524
545, 662, 280, 524, 661
546, 458, 138, 176, 280
547, 663, 458, 280, 662
548, 299, 177, 138, 458
549, 664, 299, 458, 663
550, 357, 137, 177, 299
551, 665, 357, 299, 664
552, 314, 178, 137, 357
553, 666, 314, 357, 665
554, 216, 136, 178, 314
555, 667, 216, 314, 666
556, 197, 179, 136, 216
557, 668, 197, 216, 667
558, 445, 135, 179, 197
559, 669, 445, 197, 668
560, 409, 180, 135, 445
561, 670, 409, 445, 669
562, 498, 134, 180, 409
563, 671, 498, 409, 670
564, 672, 181, 134, 498
565, 702, 672, 498, 671
566, 266, 300, 395, 490
567, 631, 676, 268, 536
568, 688, 259, 420, 411
569, 684, 426, 387, 263
570, 460, 683, 462, 325
571, 674, 130, 184, 617
572, 687, 626, 286, 461
573, 617, 184, 131, 281
574, 686, 685, 615, 638
575, 693, 544, 585, 502
576, 697, 312, 126, 188
577, 300, 183, 132, 395
578, 267, 687, 461, 337
579, 393, 261, 312, 697
580, 615, 491, 547, 265
581, 680, 400, 187, 128
582, 362, 691, 260, 288
583, 567, 339, 570, 259
584, 679, 478, 32, 40
585, 740, 692, 680, 353
586, 545, 555, 672, 702
587, 310, 267, 337, 513
588, 410, 326, 401, 491
589, 282, 502, 34, 42
590, 309, 305, 301, 336
591, 737, 43, 36, 351
592, 545, 702, 701, 626
593, 735, 363, 674, 734
594, 673, 49, 60, 196
595, 570, 198, 305, 309
596, 311, 282, 42, 35
597, 261, 264, 438, 312
598, 195, 411, 689, 696
599, 488, 352, 446, 521
600, 681, 679, 40, 33
601, 352, 425, 693, 446
602, 489, 640, 31, 28
603, 630, 607, 499, 567
604, 683, 536, 522, 677
605, 522, 269, 58, 48
606, 682, 639, 555, 545
607, 689, 569, 685, 686
608, 244, 722, 723, 624
609, 248, 244, 624, 608
610, 199, 248, 608, 315
611, 553, 199, 315, 483
612, 542, 553, 483, 245
613, 725, 542, 245, 724
614, 576, 721, 722, 244
615, 412, 576, 244, 248
616, 529, 412, 248, 199
617, 375, 529, 199, 553
618, 370, 375, 553, 542
619, 726, 370, 542, 725
620, 482, 720, 721, 576
621, 397, 482, 576, 412
622, 571, 397, 412, 529
623, 562, 571, 529, 375
624, 505, 562, 375, 370
625, 727, 505, 370, 726
626, 418, 719, 720, 482
627, 611, 418, 482, 397
628, 572, 611, 397, 571
629, 584, 572, 571, 562
630, 465, 584, 562, 505
631, 728, 465, 505, 727
632, 714, 731, 719, 418
633, 715, 714, 418, 611
634, 716, 715, 611, 572
635, 717, 716, 572, 584
636, 718, 717, 584, 465
637, 732, 718, 465, 728
638, 490, 682, 687, 267
639, 266, 490, 267, 310
640, 622, 266, 310, 637
641, 733, 622, 637, 338
642, 734, 733, 338, 425
643, 735, 734, 425, 352
644, 736, 735, 352, 488
645, 740, 736, 488, 739
*ELSET,ELSET=contact_source
101, 102, 103, 104, 105, 106, 107, 108, 109, 110, 
111, 112, 113, 114, 115, 116, 117, 118, 119, 120, 
121, 122, 
*ELSET,ELSET=contact_drain
41, 42, 43, 44, 45, 46, 47, 48, 49, 50, 
51, 52, 53, 54, 55, 56, 57, 58, 59, 60, 
61, 62, 
*ELSET,ELSET=probe_A
79, 80, 81, 82, 83, 84, 
*ELSET,ELSET=probe_B
17, 18, 19, 20, 21, 22, 23, 24, 
*ELSET,ELSET=walls
1, 2, 3, 4, 5, 6, 7, 8, 9, 10, 
11, 12, 13, 14, 15, 16, 25, 26, 27, 28, 
29, 30, 31, 32, 33, 34, 35, 36, 37, 38, 
39, 40, 63, 64, 65, 66, 67, 68, 69, 70, 
71, 72, 73, 74, 75, 76, 77, 78, 85, 86, 
87, 88, 89, 90, 91, 92, 93, 94, 95, 96, 
97, 98, 99, 100, 123, 124, 125, 126, 127, 128, 
129, 130, 131, 132, 133, 134, 135, 136, 137, 138, 
139, 140, 141, 142, 143, 144, 145, 146, 147, 148, 
149, 150, 151, 152, 153, 154, 155, 156, 157, 158, 
159, 160, 161, 162, 163, 164, 165, 166, 167, 168, 
169, 170, 171, 172, 173, 174, 175, 176, 177, 178, 
179, 180, 181, 182, 183, 184, 185, 186, 187, 188, 
189, 190, 
*ELSET,ELSET=domain
191, 192, 193, 194, 195, 196, 197, 198, 199, 200, 
201, 202, 203, 204, 205, 206, 207, 208, 209, 210, 
211, 212, 213, 214, 215, 216, 217, 218, 219, 220, 
221, 222, 223, 224, 225, 226, 227, 228, 229, 230, 
231, 232, 233, 234, 235, 236, 237, 238, 239, 240, 
241, 242, 243, 244, 245, 246, 247, 248, 249, 250, 
251, 252, 253, 254, 255, 256, 257, 258, 259, 260, 
261, 262, 263, 264, 265, 266, 267, 268, 269, 270, 
271, 272, 273, 274, 275, 276, 277, 278, 279, 280, 
281, 282, 283, 284, 285, 286, 287, 288, 289, 290, 
291, 292, 293, 294, 295, 296, 297, 298, 299, 300, 
301, 302, 303, 304, 305, 306, 307, 308, 309, 310, 
311, 312, 313, 314, 315, 316, 317, 318, 319, 320, 
321, 322, 323, 324, 325, 326, 327, 328, 329, 330, 
331, 332, 333, 334, 335, 336, 337, 338, 339, 340, 
341, 342, 343, 344, 345, 346, 347, 348, 349, 350, 
351, 352, 353, 354, 355, 356, 357, 358, 359, 360, 
361, 362, 363, 364, 365, 366, 367, 368, 369, 370, 
371, 372, 373, 374, 375, 376, 377, 378, 379, 380, 
381, 382, 383, 384, 385, 386, 387, 388, 389, 390, 
391, 392, 393, 394, 395, 396, 397, 398, 399, 400, 
401, 402, 403, 404, 405, 406, 407, 408, 409, 410, 
411, 412, 413, 414, 415, 416, 417, 418, 419, 420, 
421, 422, 423, 424, 425, 426, 427, 428, 429, 430, 
431, 432, 433, 434, 435, 436, 437, 438, 439, 440, 
441, 442, 443, 444, 445, 446, 447, 448, 449, 450, 
451, 452, 453, 454, 455, 456, 457, 458, 459, 460, 
461, 462, 463, 464, 465, 466, 467, 468, 469, 470, 
471, 472, 473, 474, 475, 476, 477, 478, 479, 480, 
481, 482, 483, 484, 485, 486, 487, 488, 489, 490, 
491, 492, 493, 494, 495, 496, 497, 498, 499, 500, 
501, 502, 503, 504, 505, 506, 507, 508, 509, 510, 
511, 512, 513, 514, 515, 516, 517, 518, 519, 520, 
521, 522, 523, 524, 525, 526, 527, 528, 529, 530, 
531, 532, 533, 534, 535, 536, 537, 538, 539, 540, 
541, 542, 543, 544, 545, 546, 547, 548, 549, 550, 
551, 552, 553, 554, 555, 556, 557, 558, 559, 560, 
561, 562, 563, 564, 565, 566, 567, 568, 569, 570, 
571, 572, 573, 574, 575, 576, 577, 578, 579, 580, 
581, 582, 583, 584, 585, 586, 587, 588, 589, 590, 
591, 592, 593, 594, 595, 596, 597, 598, 599, 600, 
601, 602, 603, 604, 605, 606, 607, 608, 609, 610, 
611, 612, 613, 614, 615, 616, 617, 618, 619, 620, 
621, 622, 623, 624, 625, 626, 627, 628, 629, 630, 
631, 632, 633, 634, 635, 636, 637, 638, 639, 640, 
641, 642, 643, 644, 645, 646, 647, 648, 649, 650, 
651, 652, 653, 654, 655, 656, 657, 658, 659, 660, 
661, 662, 663, 664, 665, 666, 667, 668, 669, 670, 
671, 672, 673, 674, 675, 676, 677, 678, 679, 680, 
681, 682, 683, 684, 685, 686, 687, 688, 689, 690, 
691, 692, 693, 694, 695, 696, 697, 698, 699, 700, 
701, 702, 703, 704, 705, 706, 707, 708, 709, 710, 
711, 712, 713, 714, 715, 716, 717, 718, 719, 720, 
721, 722, 723, 724, 725, 726, 727, 728, 729, 730, 
731, 732, 733, 734, 735, 736, 737, 738, 739, 740, 
741, 742, 743, 744, 745, 746, 747, 748, 749, 750, 
751, 752, 753, 754, 755, 756, 757, 758, 759, 760, 
761, 762, 763, 764, 765, 766, 767, 768, 769, 770, 
771, 772, 773, 774, 775, 776, 777, 778, 779, 780, 
781, 782, 783, 784, 785, 786, 787, 788, 789, 790, 
791, 792, 793, 794, 795, 796, 797, 798, 799, 800, 
801, 802, 803, 804, 805, 806, 807, 808, 809, 810, 
811, 812, 813, 814, 815, 816, 817, 818, 819, 820, 
821, 822, 823, 824, 825, 826, 827, 828, 829, 830, 
831, 832, 833, 834, 835, 
*NSET,NSET=contact_source
1, 8, 103, 104, 105, 106, 107, 108, 109, 110, 
111, 112, 113, 114, 115, 116, 117, 118, 119, 120, 
121, 122, 123, 
*NSET,NSET=contact_drain
4, 5, 47, 48, 49, 50, 51, 52, 53, 54, 
55, 56, 57, 58, 59, 60, 61, 62, 63, 64, 
65, 66, 67, 
*NSET,NSET=probe_A
6, 7, 83, 84, 85, 86, 87, 
*NSET,NSET=probe_B
2, 3, 25, 26, 27, 28, 29, 30, 31, 
*NSET,NSET=walls
1, 2, 3, 4, 5, 6, 7, 8, 9, 10, 
11, 12, 13, 14, 15, 16, 17, 18, 19, 20, 
21, 22, 23, 24, 32, 33, 34, 35, 36, 37, 
38, 39, 40, 41, 42, 43, 44, 45, 46, 68, 
69, 70, 71, 72, 73, 74, 75, 76, 77, 78, 
79, 80, 81, 82, 88, 89, 90, 91, 92, 93, 
94, 95, 96, 97, 98, 99, 100, 101, 102, 124, 
125, 126, 127, 128, 129, 130, 131, 132, 133, 134, 
135, 136, 137, 138, 139, 140, 141, 142, 143, 144, 
145, 146, 147, 148, 149, 150, 151, 152, 153, 154, 
155, 156, 157, 158, 159, 160, 161, 162, 163, 164, 
165, 166, 167, 168, 169, 170, 171, 172, 173, 174, 
175, 176, 177, 178, 179, 180, 181, 182, 183, 184, 
185, 186, 187, 188, 189, 190, 
*NSET,NSET=domain
1, 2, 3, 4, 5, 6, 7, 8, 9, 10, 
11, 12, 13, 14, 15, 16, 17, 18, 19, 20, 
21, 22, 23, 24, 25, 26, 27, 28, 29, 30, 
31, 32, 33, 34, 35, 36, 37, 38, 39, 40, 
41, 42, 43, 44, 45, 46, 47, 48, 49, 50, 
51, 52, 53, 54, 55, 56, 57, 58, 59, 60, 
61, 62, 63, 64, 65, 66, 67, 68, 69, 70, 
71, 72, 73, 74, 75, 76, 77, 78, 79, 80, 
81, 82, 83, 84, 85, 86, 87, 88, 89, 90, 
91, 92, 93, 94, 95, 96, 97, 98, 99, 100, 
101, 102, 103, 104, 105, 106, 107, 108, 109, 110, 
111, 112, 113, 114, 115, 116, 117, 118, 119, 120, 
121, 122, 123, 124, 125, 126, 127, 128, 129, 130, 
131, 132, 133, 134, 135, 136, 137, 138, 139, 140, 
141, 142, 143, 144, 145, 146, 147, 148, 149, 150, 
151, 152, 153, 154, 155, 156, 157, 158, 159, 160, 
161, 162, 163, 164, 165, 166, 167, 168, 169, 170, 
171, 172, 173, 174, 175, 176, 177, 178, 179, 180, 
181, 182, 183, 184, 185, 186, 187, 188, 189, 190, 
191, 192, 193, 194, 195, 196, 197, 198, 199, 200, 
201, 202, 203, 204, 205, 206, 207, 208, 209, 210, 
211, 212, 213, 214, 215, 216, 217, 218, 219, 220, 
221, 222, 223, 224, 225, 226, 227, 228, 229, 230, 
231, 232, 233, 234, 235, 236, 237, 238, 239, 240, 
241, 242, 243, 244, 245, 246, 247, 248, 249, 250, 
251, 252, 253, 254, 255, 256, 257, 258, 259, 260, 
261, 262, 263, 264, 265, 266, 267, 268, 269, 270, 
271, 272, 273, 274, 275, 276, 277, 278, 279, 280, 
281, 282, 283, 284, 285, 286, 287, 288, 289, 290, 
291, 292, 293, 294, 295, 296, 297, 298, 299, 300, 
301, 302, 303, 304, 305, 306, 307, 308, 309, 310, 
311, 312, 313, 314, 315, 316, 317, 318, 319, 320, 
321, 322, 323, 324, 325, 326, 327, 328, 329, 330, 
331, 332, 333, 334, 335, 336, 337, 338, 339, 340, 
341, 342, 343, 344, 345, 346, 347, 348, 349, 350, 
351, 352, 353, 354, 355, 356, 357, 358, 359, 360, 
361, 362, 363, 364, 365, 366, 367, 368, 369, 370, 
371, 372, 373, 374, 375, 376, 377, 378, 379, 380, 
381, 382, 383, 384, 385, 386, 387, 388, 389, 390, 
391, 392, 393, 394, 395, 396, 397, 398, 399, 400, 
401, 402, 403, 404, 405, 406, 407, 408, 409, 410, 
411, 412, 413, 414, 415, 416, 417, 418, 419, 420, 
421, 422, 423, 424, 425, 426, 427, 428, 429, 430, 
431, 432, 433, 434, 435, 436, 437, 438, 439, 440, 
441, 442, 443, 444, 445, 446, 447, 448, 449, 450, 
451, 452, 453, 454, 455, 456, 457, 458, 459, 460, 
461, 462, 463, 464, 465, 466, 467, 468, 469, 470, 
471, 472, 473, 474, 475, 476, 477, 478, 479, 480, 
481, 482, 483, 484, 485, 486, 487, 488, 489, 490, 
491, 492, 493, 494, 495, 496, 497, 498, 499, 500, 
501, 502, 503, 504, 505, 506, 507, 508, 509, 510, 
511, 512, 513, 514, 515, 516, 517, 518, 519, 520, 
521, 522, 523, 524, 525, 526, 527, 528, 529, 530, 
531, 532, 533, 534, 535, 536, 537, 538, 539, 540, 
541, 542, 543, 544, 545, 546, 547, 548, 549, 550, 
551, 552, 553, 554, 555, 556, 557, 558, 559, 560, 
561, 562, 563, 564, 565, 566, 567, 568, 569, 570, 
571, 572, 573, 574, 575, 576, 577, 578, 579, 580, 
581, 582, 583, 584, 585, 586, 587, 588, 589, 590, 
591, 592, 593, 594, 595, 596, 597, 598, 599, 600, 
601, 602, 603, 604, 605, 606, 607, 608, 609, 610, 
611, 612, 613, 614, 615, 616, 617, 618, 619, 620, 
621, 622, 623, 624, 625, 626, 627, 628, 629, 630, 
631, 632, 633, 634, 635, 636, 637, 638, 639, 640, 
641, 642, 643, 644, 645, 646, 647, 648, 649, 650, 
651, 652, 653, 654, 655, 656, 657, 658, 659, 660, 
661, 662, 663, 664, 665, 666, 667, 668, 669, 670, 
671, 672, 673, 674, 675, 676, 677, 678, 679, 680, 
681, 682, 683, 684, 685, 686, 687, 688, 689, 690, 
691, 692, 693, 694, 695, 696, 697, 698, 699, 700, 
701, 702, 703, 704, 705, 706, 707, 708, 709, 710, 
711, 712, 713, 714, 715, 716, 717, 718, 719, 720, 
721, 722, 723, 724, 725, 726, 727, 728, 729, 730, 
731, 732, 733, 734, 735, 736, 737, 738, 739, 740, 
