*Heading
 /Users/juliagao/geometry-optimization-net/scripts/../runs/run2/shape_21.inp
*NODE
1, 0, -0.3, 0
2, 0.425, -0.3, 0
3, 0.575, -0.3, 0
4, 1, -0.3, 0
5, 1, 0.3, 0
6, 0.575, 0.3, 0
7, 0.425, 0.3, 0
8, 0, 0.3, 0
9, 0.6513308406, 0.0480630145, 0
10, 0.02551805088629, -0.3, 0
11, 0.077326620286516, -0.3, 0
12, 0.13128335060493, -0.3, 0
13, 0.18698216094996, -0.3, 0
14, 0.24217788234904, -0.3, 0
15, 0.29582495017175, -0.3, 0
16, 0.34814974665528, -0.3, 0
17, 0.39949529908732, -0.3, 0
18, 0.051036101772581, -0.3, 0
19, 0.10361713880045, -0.3, 0
20, 0.15894956240942, -0.3, 0
21, 0.2150147594905, -0.3, 0
22, 0.26934100520758, -0.3, 0
23, 0.32230889513592, -0.3, 0
24, 0.37399059817464, -0.3, 0
25, 0.45019665795985, -0.3, 0
26, 0.50023818305382, -0.3, 0
27, 0.55004152509397, -0.3, 0
28, 0.4753933159197, -0.3, 0
29, 0.52508305018794, -0.3, 0
30, 0.60061046127887, -0.3, 0
31, 0.65207003843934, -0.3, 0
32, 0.7040904593483, -0.3, 0
33, 0.75745396943529, -0.3, 0
34, 0.81239945743082, -0.3, 0
35, 0.86737398990041, -0.3, 0
36, 0.92123951700381, -0.3, 0
37, 0.97394189728676, -0.3, 0
38, 0.62622092255773, -0.3, 0
39, 0.67791915432094, -0.3, 0
40, 0.73026176437567, -0.3, 0
41, 0.7846461744949, -0.3, 0
42, 0.84015274036674, -0.3, 0
43, 0.89459523943408, -0.3, 0
44, 0.94788379457353, -0.3, 0
45, 1, -0.27404115535858, 0
46, 1, -0.22135106898813, 0
47, 1, -0.16718669575926, 0
48, 1, -0.11206564579379, 0
49, 1, -0.056711209873343, 0
50, 1, -0.0013047490421644, 0
51, 1, 0.054286009039192, 0
52, 1, 0.11002573547208, 0
53, 1, 0.16573239238759, 0
54, 1, 0.22062747577526, 0
55, 1, 0.27385240698765, 0
56, 1, -0.24808231071716, 0
57, 1, -0.19461982725909, 0
58, 1, -0.13975356425942, 0
59, 1, -0.084377727328158, 0
60, 1, -0.029044692418527, 0
61, 1, 0.026435194334198, 0
62, 1, 0.082136823744186, 0
63, 1, 0.13791464719997, 0
64, 1, 0.1935501375752, 0
65, 1, 0.24770481397531, 0
66, 0.97429055937476, 0.3, 0
67, 0.9220090139053, 0.3, 0
68, 0.86808436848394, 0.3, 0
69, 0.81351343970243, 0.3, 0
70, 0.75912030078261, 0.3, 0
71, 0.70489728980467, 0.3, 0
72, 0.6518257744292, 0.3, 0
73, 0.60040125965811, 0.3, 0
74, 0.94858111874951, 0.3, 0
75, 0.89543690906108, 0.3, 0
76, 0.8407318279068, 0.3, 0
77, 0.78629505149806, 0.3, 0
78, 0.73194555006716, 0.3, 0
79, 0.67784902954218, 0.3, 0
80, 0.62580251931622, 0.3, 0
81, 0.54969546520972, 0.3, 0
82, 0.49965458936079, 0.3, 0
83, 0.44995912415108, 0.3, 0
84, 0.52439093041943, 0.3, 0
85, 0.47491824830215, 0.3, 0
86, 0.39984756277593, 0.3, 0
87, 0.34865711307737, 0.3, 0
88, 0.29553366210997, 0.3, 0
89, 0.24102581390976, 0.3, 0
90, 0.18703598723385, 0.3, 0
91, 0.1338454307916, 0.3, 0
92, 0.080356757944865, 0.3, 0
93, 0.026745612285882, 0.3, 0
94, 0.37469512555187, 0.3, 0
95, 0.32261910060288, 0.3, 0
96, 0.26844822361706, 0.3, 0
97, 0.21360340420247, 0.3, 0
98, 0.16046857026524, 0.3, 0
99, 0.10722229131796, 0.3, 0
100, 0.053491224571765, 0.3, 0
101, 0, 0.2724261539602, 0
102, 0, 0.21803103056929, 0
103, 0, 0.16428899247188, 0
104, 0, 0.10967706320895, 0
105, 0, 0.054158866741172, 0
106, 0, -0.0013045038252774, 0
107, 0, -0.056835940583159, 0
108, 0, -0.11270772240239, 0
109, 0, -0.16823696140717, 0
110, 0, -0.22232408189936, 0
111, 0, -0.2744293255317, 0
112, 0, 0.24485230792039, 0
113, 0, 0.1912097532182, 0
114, 0, 0.13736823172557, 0
115, 0, 0.081985894692336, 0
116, 0, 0.026331838790008, 0
117, 0, -0.028940846440563, 0
118, 0, -0.084731034725755, 0
119, 0, -0.14068441007903, 0
120, 0, -0.19578951273531, 0
121, 0, -0.24885865106341, 0
122, 0.66102140124968, 0.073813569198862, 0
123, 0.60851058052532, -0.019837165370533, 0
124, 0.60218829079052, -0.070233348581415, 0
125, 0.56654345578893, -0.10373896678379, 0
126, 0.51728216167168, -0.092639472890934, 0
127, 0.46698004437503, -0.078907833227814, 0
128, 0.4150009214485, -0.073264984610267, 0
129, 0.38367866206364, -0.031076743680398, 0
130, 0.35686861370309, 0.01536337819814, 0
131, 0.33140201474969, 0.06244563675556, 0
132, 0.33882394638367, 0.11433973906279, 0
133, 0.37239259228894, 0.15377003073406, 0
134, 0.41773167547823, 0.1766405426974, 0
135, 0.46775572185625, 0.1715810001442, 0
136, 0.51660100726731, 0.15824440865276, 0
137, 0.56539794742368, 0.16968186752088, 0
138, 0.6151561886932, 0.16229647002731, 0
139, 0.65214687958767, 0.12642429429509, 0
140, 0.6349601008228, 0.025952777581594, 0
141, 0.66108191456356, 0.10138148380319, 0
142, 0.63605797171816, 0.14756242926185, 0
143, 0.59067583090538, 0.16973074148018, 0
144, 0.5408098376826, 0.16427174605759, 0
145, 0.4911675180252, 0.16207868414198, 0
146, 0.44309936756873, 0.17765231845241, 0
147, 0.39387690801989, 0.16807209828358, 0
148, 0.35383127152305, 0.13587344445425, 0
149, 0.33035731875451, 0.08935715332598, 0
150, 0.34147175388863, 0.037616725446537, 0
151, 0.37247178832074, -0.0067318562590729, 0
152, 0.39546422079051, -0.055190954599097, 0
153, 0.44064562137782, -0.079821505079569, 0
154, 0.49350965883654, -0.081911742166741, 0
155, 0.54163410301186, -0.10217132689081, 0
156, 0.58920336759029, -0.092152961105795, 0
157, 0.60683611185923, -0.04554114043145, 0
158, 0.61714917943502, 0.0051171181656433, 0
159, 0.41385647536411, -0.24140148759274, 0
160, 0.56910641887201, -0.24792249856144, 0
161, 0.90242432802841, 0.19435778848924, 0
162, 0.31489933197003, -0.24269907490975, 0
163, 0.057886986268611, -0.079798813479691, 0
164, 0.11182546365697, 0.042191618541508, 0
165, 0.46315574971063, -0.24266037078467, 0
166, 0.36430640828198, -0.24203658567748, 0
167, 0.25097184371059, -0.033291816737924, 0
168, 0.61522836504906, -0.099553471119003, 0
169, 0.88490954918186, 0.048211584157374, 0
170, 0.51486511732842, -0.2460096316452, 0
171, 0.62366063891829, -0.24912860363147, 0
172, 0.67851028035813, -0.2498519047482, 0
173, 0.73342221117141, -0.25042785125952, 0
174, 0.78809876415014, -0.25074987088853, 0
175, 0.026561728195548, 0.18864419832364, 0
176, 0.24548004328393, 0.18360053167482, 0
177, 0.11528123586843, -0.1024401362344, 0
178, 0.027319534351692, 0.050100602523224, 0
179, 0.15341785041545, -0.16096933231944, 0
180, 0.15342008121511, 0.15156118582953, 0
181, 0.21099442219028, 0.094570634145131, 0
182, 0.052400092252087, 0.24398688079764, 0
183, 0.10297078257487, 0.24287658210226, 0
184, 0.1521773752178, 0.24216291236803, 0
185, 0.20035703455069, 0.24245844413723, 0
186, 0.24835337731551, 0.24435517430163, 0
187, 0.2942912486576, 0.2010313931265, 0
188, 0.30056718640864, 0.25002815697098, 0
189, 0.35548516393067, 0.20432301036285, 0
190, 0.35806726848298, 0.25068431481768, 0
191, 0.70117349175296, 0.086176016193227, 0
192, 0.89665817066555, 0.2745682611362, 0
193, 0.30981284389537, 0.15845525871713, 0
194, 0.2668042925592, 0.1226749840893, 0
195, 0.27281536206729, 0.07045105736347, 0
196, 0.28980640204869, 0.018908961538388, 0
197, 0.26124769991258, 0.01625682078168, 0
198, 0.1551494408098, -0.24659406023069, 0
199, 0.15815982029708, -0.13051345086721, 0
200, 0.26459945996295, -0.24536125469291, 0
201, 0.17388513689912, 0.012593009281684, 0
202, 0.028245396248906, -0.029658741999848, 0
203, 0.052625719957174, 0.15795268189967, 0
204, 0.081706244073021, 0.071328260393637, 0
205, 0.31886992281493, -0.12540968294217, 0
206, 0.056221041701093, 0.020558019916669, 0
207, 0.26009393716183, -0.055175288108798, 0
208, 0.052518033572329, -0.18777296865141, 0
209, 0.27861755416284, -0.098665408558123, 0
210, 0.29506835853714, -0.053278023137928, 0
211, 0.178357759327, -0.19564429961229, 0
212, 0.28415999121684, -0.031068846227212, 0
213, 0.087255164390734, -0.0070469773017399, 0
214, 0.20831051055201, -0.22534442312371, 0
215, 0.10251911009828, 0.18356486546853, 0
216, 0.052823733071679, -0.15960574712962, 0
217, 0.11789821966503, -0.009030099123032, 0
218, 0.19925182570085, 0.1809971301867, 0
219, 0.17815188519139, 0.15091855947634, 0
220, 0.19518789206034, -0.082510726121975, 0
221, 0.30059389397859, -0.15408347563699, 0
222, 0.12932115704298, -0.15809266512168, 0
223, 0.45937011112652, -0.18596091919486, 0
224, 0.40841433245188, -0.18235039086085, 0
225, 0.35643071585704, -0.18378914410236, 0
226, 0.057952658988853, -0.030433075113519, 0
227, 0.34619633801536, -0.12816469376347, 0
228, 0.21255626747669, -0.27484351040637, 0
229, 0.46507625810641, -0.1327153693762, 0
230, 0.40494562301287, -0.12608358764325, 0
231, 0.27252569361997, -0.0080665374541048, 0
232, 0.34285033849735, -0.076717435141587, 0
233, 0.31657875215158, -0.028813509419322, 0
234, 0.17989819729909, -0.13894228622522, 0
235, 0.60557840550027, -0.15022246159083, 0
236, 0.88516270088333, 0.078005956297033, 0
237, 0.74643535329728, 0.2477321808841, 0
238, 0.38726363014896, 0.25384311080303, 0
239, 0.63547761252747, -0.025073674482216, 0
240, 0.95317168472087, 0.052126555623528, 0
241, 0.97434692782416, 0.27390269449612, 0
242, 0.8184667331863, 0.042458884227182, 0
243, 0.83812850304385, 0.13607688125173, 0
244, 0.69246371361854, -0.12844426839933, 0
245, 0.84046411525235, 0.10578209142184, 0
246, 0.92992123130207, 0.10920651316616, 0
247, 0.95319864882594, 0.080938839646047, 0
248, 0.47693758985916, 0.27639014661841, 0
249, 0.7197006407534, -0.12815866302812, 0
250, 0.81616763603465, 0.135237807036, 0
251, 0.62575497464466, -0.20021063166508, 0
252, 0.6035432044951, 0.21031000289806, 0
253, 0.69771059756772, -0.0023128524944008, 0
254, 0.94863122809827, 0.27411077585907, 0
255, 0.85741995634467, -0.040731305540365, 0
256, 0.79664159595089, 0.039877083727567, 0
257, 0.86044938690024, 0.13675815079615, 0
258, 0.73974529781242, -0.17707372542691, 0
259, 0.77487635636755, 0.036863260151451, 0
260, 0.55884010545769, 0.27652690496784, 0
261, 0.61122307712544, -0.12484136277772, 0
262, 0.7931566701843, 0.0097542644510829, 0
263, 0.81970494657843, 0.073300441473272, 0
264, 0.62671910491705, -0.075485465188945, 0
265, 0.82205591165302, 0.24858094251679, 0
266, 0.7701972246766, 0.0067996780157197, 0
267, 0.73543052758191, 0.19149554633547, 0
268, 0.90247669142365, -0.09249553844723, 0
269, 0.50416351144773, 0.27596565284956, 0
270, 0.87299436664934, -0.17350859126276, 0
271, 0.79647951837427, -0.15086474449832, 0
272, 0.44935105198859, 0.25621225188589, 0
273, 0.68965972681336, -0.028027128486475, 0
274, 0.45168007872507, 0.23627909474501, 0
275, 0.71956372133325, 0.090998166631047, 0
276, 0.97619378948039, 0.13822578173997, 0
277, 0.97489251738934, -0.19545984316278, 0
278, 0.57905260095857, -0.14879170206301, 0
279, 0.52063722207319, -0.14730144494621, 0
280, 0.51303401057869, -0.19480929224426, 0
281, 0.56994120645614, -0.1982996770158, 0
282, 0.85759989386198, 0.16595469582887, 0
283, 0.79169593769011, -0.20115770888104, 0
284, 0.92917326908734, 0.13803733893502, 0
285, 0.74499508822085, 0.16240864016894, 0
286, 0.72860163143014, 0.21950049466275, 0
287, 0.69750077158447, 0.2462438936066, 0
288, 0.92371299520068, -0.1974328831107, 0
289, 0.87296482944136, 0.24865148786291, 0
290, 0.75272411972186, 0.22042637751114, 0
291, 0.92856713966195, -0.035202524363435, 0
292, 0.81783802366254, 0.27469247183039, 0
293, 0.74290296790429, -0.15240906286009, 0
294, 0.94943797655969, -0.19644939791466, 0
295, 0.84229999572114, -0.25041871157708, 0
296, 0.89578375604188, -0.24957344608118, 0
297, 0.975915465129, -0.05921893348528, 0
298, 0.94835577627333, -0.24859210394181, 0
299, 0.37729195007885, -0.13551363750822, 0
300, 0.33586567020576, -0.099427383869734, 0
301, 0.38055658097646, -0.098876779647865, 0
302, 0.56927526033246, 0.19235757395532, 0
303, 0.95194179002073, 0.1663672154621, 0
304, 0.60094941140722, -0.17495581434259, 0
305, 0.95051094660632, -0.14329385209094, 0
306, 0.75315574773943, 0.13114292144083, 0
307, 0.49037660242668, 0.18768135157856, 0
308, 0.62742484424171, 0.18192029740233, 0
309, 0.71396336941982, 0.27411068626395, 0
310, 0.32506604224491, 0.21082489674214, 0
311, 0.33864540576773, 0.17894803353972, 0
312, 0.29377178972299, 0.17490193395564, 0
313, 0.82276648359684, -0.14984075974026, 0
314, 0.35586686000459, 0.22726928010143, 0
315, 0.38828897350235, 0.21351011393635, 0
316, 0.303453279028, 0.11096443906017, 0
317, 0.30330186226168, 0.072363175652129, 0
318, 0.26198716370573, 0.097397513205946, 0
319, 0.17547360327236, 0.18103909326505, 0
320, 0.02769713629933, 0.023123302893405, 0
321, 0.1775806668992, -0.16815369630142, 0
322, 0.080164574366194, 0.098944973895725, 0
323, 0.18323755159297, 0.1221154069762, 0
324, 0.15141940938296, 0.18155404348146, 0
325, 0.83452888136431, 0.16558564757963, 0
326, 0.78515749124433, -0.047090492883158, 0
327, 0.83026730059905, 0.19409611536033, 0
328, 0.70477124680009, 0.21824132030935, 0
329, 0.42015453587934, 0.27710272961892, 0
330, 0.97518680243298, -0.16867844957602, 0
331, 0.82617886248515, 0.22171390986106, 0
332, 0.5114797071942, 0.23129602219752, 0
333, 0.76687253288008, 0.16358430429601, 0
334, 0.50810689515581, 0.25339700601676, 0
335, 0.68442988699612, -0.17711718645969, 0
336, 0.41891116944411, 0.23677909439107, 0
337, 0.73345718869704, 0.12885111768924, 0
338, 0.67989209918362, 0.11246685598121, 0
339, 0.77748061921399, 0.10080332179942, 0
340, 0.76048610610338, -0.049271103326165, 0
341, 0.97540754271718, -0.14164141308169, 0
342, 0.61392298646024, 0.27465163532063, 0
343, 0.26935744842095, -0.076172028819312, 0
344, 0.25270125075723, -0.15944770514784, 0
345, 0.29001129260782, -0.24376289820029, 0
346, 0.24147167547144, -0.010230907215408, 0
347, 0.6594237211009, 0.021394625524793, 0
348, 0.97635787759466, 0.1100013205435, 0
349, 0.38624964803764, 0.23291752648686, 0
350, 0.9764257120831, 0.081630086758619, 0
351, 0.71560602486938, -0.15281541015341, 0
352, 0.87826021815109, 0.19439660897635, 0
353, 0.95109965195543, 0.19403385405103, 0
354, 0.87561047633006, 0.22186049414442, 0
355, 0.83076615873708, -0.070441815202758, 0
356, 0.92620600064663, -0.11797029877563, 0
357, 0.64259539472003, -0.10249994390692, 0
358, 0.052813097438001, 0.27226278540343, 0
359, 0.1046082061626, 0.271902987715, 0
360, 0.077877436774847, 0.24341303266086, 0
361, 0.0788478563593, 0.27209885630706, 0
362, 0.80156867992048, 0.22146439596546, 0
363, 0.71464969843106, 0.12575208432722, 0
364, 0.97470321990833, 0.24761608908464, 0
365, 0.74682815948561, 0.0036190882162877, 0
366, 0.71193347588743, 0.19003876017189, 0
367, 0.65106084560225, -0.24952722567339, 0
368, 0.6779716404953, -0.27461393214546, 0
369, 0.62440031668495, -0.27420722069531, 0
370, 0.65113715647582, -0.27442170672877, 0
371, 0.73084911424388, 0.029516767828147, 0
372, 0.79797210457551, 0.10282093407086, 0
373, 0.95099532940485, -0.11628062245954, 0
374, 0.48258036224363, 0.23301109634971, 0
375, 0.84110210738152, -0.27532624405699, 0
376, 0.7864880950904, -0.27542091079898, 0
377, 0.81527286917722, -0.25069919903679, 0
378, 0.81383301958732, -0.27547861119598, 0
379, 0.028051773631447, -0.0034481622970753, 0
380, 0.15930160289222, 0.094069465341994, 0
381, 0.15268040450966, -0.19044706201698, 0
382, 0.026739710405635, -0.13520093719815, 0
383, 0.028134710704059, -0.081601132641912, 0
384, 0.055190862436594, 0.046994517687606, 0
385, 0.027453158403864, -0.10800398465731, 0
386, 0.59516715122642, 0.2530768116955, 0
387, 0.69736553562439, -0.10380583345344, 0
388, 0.9757659360433, -0.086889395528047, 0
389, 0.88308408696944, 0.13730588074682, 0
390, 0.46802343222836, -0.27136597790172, 0
391, 0.48858912311861, -0.24418425175903, 0
392, 0.51880908031092, -0.27263266035059, 0
393, 0.4931535731207, -0.27190597886401, 0
394, 0.73698021332575, 0.061303313525407, 0
395, 0.86233957308856, 0.10688899953754, 0
396, 0.84120320232096, 0.075140121333664, 0
397, 0.39160899702653, 0.27607015641343, 0
398, 0.95300737536695, 0.10969451913641, 0
399, 0.027019876055254, 0.077433635859179, 0
400, 0.14596949072305, -0.10249706737998, 0
401, 0.93025538048679, 0.080104403041385, 0
402, 0.95265367505678, -0.005108721988901, 0
403, 0.51414068518644, 0.20870953292165, 0
404, 0.76698832782548, -0.17670709270771, 0
405, 0.40151279294739, 0.19603541699613, 0
406, 0.68422138072417, 0.022337026862168, 0
407, 0.8988795809951, -0.17241767197714, 0
408, 0.85296778292763, -0.095811994643604, 0
409, 0.36874753355321, -0.27125806053541, 0
410, 0.3892789494682, -0.2424301864768, 0
411, 0.41859285979778, -0.27094313983493, 0
412, 0.39381781779749, -0.27136776015887, 0
413, 0.43835192848764, -0.24177331430539, 0
414, 0.44323984594207, -0.27107319793378, 0
415, 0.70984481259751, -0.052756624883671, 0
416, 0.88270011900152, -0.010323031940773, 0
417, 0.90041952400556, 0.22171286313347, 0
418, 0.59633756037871, -0.2486191367099, 0
419, 0.57130365886367, -0.27353470287418, 0
420, 0.59777950402132, -0.27393979708648, 0
421, 0.12821091239423, -0.21674368289108, 0
422, 0.078860342940881, -0.15782995678495, 0
423, 0.23224448454033, 0.014255677464917, 0
424, 0.17979484132011, -0.012801516876161, 0
425, 0.12772664998947, 0.24243870641252, 0
426, 0.15536998465377, 0.27169067605338, 0
427, 0.13010176603026, 0.27174845300471, 0
428, 0.30777140676033, -0.097979319821206, 0
429, 0.21796778377087, -0.035544542660727, 0
430, 0.19641486958293, 0.039036858703042, 0
431, 0.54188664272132, -0.24750117026456, 0
432, 0.54496064799334, -0.27326432780013, 0
433, 0.25600672613786, 0.27298425415861, 0
434, 0.224265133327, 0.24319769234315, 0
435, 0.20553229430809, 0.27207789042446, 0
436, 0.23068810644398, 0.27254622312175, 0
437, 0.05262862021601, -0.2160068474318, 0
438, 0.19095284207211, 0.066013831258538, 0
439, 0.86914798493346, -0.25002842631398, 0
440, 0.89502788212838, -0.27487966146588, 0
441, 0.8681785529663, -0.27511904237529, 0
442, 0.026869426102403, -0.24545650777674, 0
443, 0.15301350165102, -0.035315538208536, 0
444, 0.026842574487405, -0.27255668466041, 0
445, 0.026644267709864, 0.16068929637151, 0
446, 0.14442036887882, 0.014098625961246, 0
447, 0.13025370073784, -0.27310085665663, 0
448, 0.20235920343478, -0.15099866403453, 0
449, 0.22424819728231, 0.040113690791061, 0
450, 0.23330266978258, -0.19467395916226, 0
451, 0.60082797875274, 0.23109877267581, 0
452, 0.84688748709824, -0.17451420239692, 0
453, 0.77359017733824, 0.13286608606948, 0
454, 0.17636574182933, 0.24211650870007, 0
455, 0.18046933285343, 0.27174559132461, 0
456, 0.32582295644212, -0.15397524555179, 0
457, 0.026513797017695, -0.19061770826157, 0
458, 0.026497333899504, -0.16287785015598, 0
459, 0.70597896653467, -0.2501277919827, 0
460, 0.73196508618793, -0.27505669410686, 0
461, 0.70490974606999, -0.27479186940143, 0
462, 0.92218847966944, -0.2490837200672, 0
463, 0.94795093603417, -0.27436758237689, 0
464, 0.92161632747373, -0.27462422734982, 0
465, 0.97429143221643, -0.2481701431091, 0
466, 0.97404129210767, -0.27414492011276, 0
467, 0.25183899712322, 0.042012710404841, 0
468, 0.16845320736683, 0.038943118032142, 0
469, 0.47939522988266, 0.2544103190061, 0
470, 0.71562954884077, -0.0266040002904, 0
471, 0.026473936737984, 0.24457021575972, 0
472, 0.026509474740044, 0.27241058071813, 0
473, 0.75727264745245, 0.065186488805589, 0
474, 0.85523398274027, -0.068576673174292, 0
475, 0.32986603812563, 0.25324740249584, 0
476, 0.30896303427804, 0.27487497937459, 0
477, 0.36407475678907, 0.27478345252651, 0
478, 0.33711843850802, 0.27605385928857, 0
479, 0.27353516591786, 0.24693934620205, 0
480, 0.28199614769928, 0.27388328794386, 0
481, 0.87780792059603, -0.094157630648949, 0
482, 0.84518384385726, -0.20003439127044, 0
483, 0.81856259650654, -0.2006917233116, 0
484, 0.79161273175968, 0.27462679120702, 0
485, 0.73715654780555, -0.20155458140589, 0
486, 0.05286055060807, -0.24412415953329, 0
487, 0.14885520788408, -0.011123685793829, 0
488, 0.078351265207347, -0.24383708182276, 0
489, 0.83354176240354, -0.042754643941262, 0
490, 0.7608027990134, -0.25066154889071, 0
491, 0.75917745473389, -0.27529409916249, 0
492, 0.10368387112551, -0.2442822253013, 0
493, 0.18213544139331, -0.24844155192096, 0
494, 0.76456121503144, -0.20144920543741, 0
495, 0.43212171827202, 0.19942596319564, 0
496, 0.052277902086956, 0.21535479877291, 0
497, 0.026534868679482, 0.21662230093736, 0
498, 0.31750370476624, 0.024493932735756, 0
499, 0.34568119441817, -0.020274574125438, 0
500, 0.30311797321877, -0.0053893484903798, 0
501, 0.33168449798036, 0.0018554573139209, 0
502, 0.26169704281562, -0.21743425960162, 0
503, 0.22970925779981, -0.1672381219768, 0
504, 0.079250488515688, 0.12710361572816, 0
505, 0.1993367250864, -0.11837192550745, 0
506, 0.12854961508276, 0.15264297546949, 0
507, 0.36032692902668, -0.21273978430965, 0
508, 0.38282590387746, -0.18595009815141, 0
509, 0.41053453433896, -0.21175697631798, 0
510, 0.3857031026433, -0.2137430388716, 0
511, 0.94887669919162, -0.22263373793121, 0
512, 0.97458960847406, -0.22194948419021, 0
513, 0.48642679227105, 0.21119093360125, 0
514, 0.63781038325467, -0.12694792706352, 0
515, 0.92701152858538, -0.090787680062961, 0
516, 0.31101169047734, -0.2132858355104, 0
517, 0.026676926670584, -0.21816949499591, 0
518, 0.97513887369314, 0.22091950375784, 0
519, 0.7768867329262, -0.10065483928599, 0
520, 0.84365823406524, -0.22532193042984, 0
521, 0.78978499894285, -0.22600464630634, 0
522, 0.66837216977183, 0.14259803005361, 0
523, 0.81682344038938, -0.22577134144197, 0
524, 0.46029975176871, -0.21410188635297, 0
525, 0.48566961030042, -0.19009811514853, 0
526, 0.5129387234965, -0.22003927522055, 0
527, 0.48610925358077, -0.21685836133752, 0
528, 0.1034917208417, 0.15406195967343, 0
529, 0.10230381463271, 0.21329450686675, 0
530, 0.15090229659453, 0.21192920189455, 0
531, 0.12676315597461, 0.21250413241755, 0
532, 0.83857739517047, 0.01476992974149, 0
533, 0.89671165553102, -0.22407905915856, 0
534, 0.87029093183373, -0.22474285794477, 0
535, 0.71664986155479, 0.056855421166069, 0
536, 0.5413228441108, 0.18859397374734, 0
537, 0.53124544910947, 0.27630153930054, 0
538, 0.33176426191963, 0.14795518258658, 0
539, 0.37418689976352, 0.18697741902859, 0
540, 0.35498700878973, 0.16732636657205, 0
541, 0.95143727521753, -0.088960016889155, 0
542, 0.68804229011449, -0.15287541342992, 0
543, 0.80948076438074, -0.044886981221095, 0
544, 0.97561041339711, -0.11436822074118, 0
545, 0.028279213936956, -0.05564436819699, 0
546, 0.17641318754589, -0.10427142423097, 0
547, 0.053497464970151, 0.10160925162607, 0
548, 0.12710735044919, 0.18242576305201, 0
549, 0.16383366192012, 0.0660863137188, 0
550, 0.026760544719383, 0.10505809192867, 0
551, 0.79668653089978, 0.24842022960872, 0
552, 0.90488239376498, -0.036994958956359, 0
553, 0.81590558803698, 0.012412181087166, 0
554, 0.90757586172774, 0.079132571952128, 0
555, 0.90600050052763, 0.13772753920468, 0
556, 0.70406692860327, -0.078599085210278, 0
557, 0.63081127986313, 0.22478560828428, 0
558, 0.63538975169489, 0.20117926649997, 0
559, 0.47824806126698, -0.10784889385167, 0
560, 0.43595741190021, -0.12975361241185, 0
561, 0.42089462152035, -0.10439483208779, 0
562, 0.4506718843123, -0.10548379708064, 0
563, 0.85421240175585, 0.19430347129626, 0
564, 0.68880536801112, 0.27367839461629, 0
565, 0.64996237132543, 0.24532839853868, 0
566, 0.84749687659818, 0.24866583372375, 0
567, 0.87953167278708, -0.066764404929342, 0
568, 0.66413456675697, 0.27327351266348, 0
569, 0.81169459542294, 0.1650966558978, 0
570, 0.92807337207712, 0.16641271715599, 0
571, 0.67367382652175, 0.24542629688781, 0
572, 0.87157890293388, -0.19924938529765, 0
573, 0.36964955329784, -0.067437171293676, 0
574, 0.32880386889801, -0.052528002110467, 0
575, 0.35710322676828, -0.043578415657919, 0
576, 0.55002671572667, -0.15194735625046, 0
577, 0.53014568717265, -0.12511680855784, 0
578, 0.58654053489949, -0.12205626837418, 0
579, 0.55881660518712, -0.12887643305481, 0
580, 0.85946033675947, -0.012257992382107, 0
581, 0.97633106795643, 0.024888226827213, 0
582, 0.92925253622677, -0.0068131270063942, 0
583, 0.30564258346009, -0.074814209379326, 0
584, 0.10318575225381, -0.18640609838171, 0
585, 0.10672081057301, 0.096817988187533, 0
586, 0.28668528931563, 0.13952505078685, 0
587, 0.31477161579306, 0.12875961465234, 0
588, 0.92390257904977, 0.24817640706499, 0
589, 0.59883246413806, 0.19071920244871, 0
590, 0.93019598956138, 0.050947284930044, 0
591, 0.56561852093967, 0.25452708358958, 0
592, 0.95257898075023, 0.13822233082185, 0
593, 0.77706787323226, 0.22105783387772, 0
594, 0.68392918432424, -0.053353953363679, 0
595, 0.077621619883652, 0.18494797941034, 0
596, 0.20278177710354, 0.15072984914921, 0
597, 0.078203794138188, 0.1558071310646, 0
598, 0.43369590519081, -0.18355165750691, 0
599, 0.43522282789877, -0.21247539403812, 0
600, 0.67970350919397, -0.22546701971841, 0
601, 0.62409147307134, -0.22453298466456, 0
602, 0.65189573086366, -0.22506946511154, 0
603, 0.19829425416744, 0.21184853333683, 0
604, 0.24486518689311, 0.214487940324, 0
605, 0.2226597925681, 0.1816852788559, 0
606, 0.22160595274818, 0.2126933699983, 0
607, 0.078056114472769, -0.21522371988117, 0
608, 0.052720111627037, -0.27212008739953, 0
609, 0.18009535602757, -0.22226872660295, 0
610, 0.49253327076175, -0.13941188086993, 0
611, 0.50354804389773, -0.1160182180096, 0
612, 0.58670445996625, 0.27597042403462, 0
613, 0.7530252596365, 0.033388026682238, 0
614, 0.90125484519549, -0.11953572585718, 0
615, 0.56997578068961, 0.23346525813063, 0
616, 0.10526172458849, 0.12512418829207, 0
617, 0.080786566741141, -0.12980192845636, 0
618, 0.13311660789996, 0.095159977681516, 0
619, 0.95186706053772, -0.061319080689966, 0
620, 0.8025679034359, -0.09909551369375, 0
621, 0.86125787288064, 0.016855717536511, 0
622, 0.1569230790861, -0.27364060349711, 0
623, 0.083420611724145, 0.044428721275963, 0
624, 0.2865219183309, -0.21485372224099, 0
625, 0.078067308730422, -0.18646345114911, 0
626, 0.23820424915036, -0.24762445888999, 0
627, 0.14022570016928, 0.040277970141847, 0
628, 0.86303096459145, 0.076689408908047, 0
629, 0.88456462091596, 0.10781235297392, 0
630, 0.68350821478229, 0.15562382344915, 0
631, 0.53650203784814, 0.25409221539945, 0
632, 0.97555821798542, 0.19377983555938, 0
633, 0.68124680283531, 0.21695134436548, 0
634, 0.90710112109494, 0.10857786778734, 0
635, 0.79938523168256, -0.12521896675321, 0
636, 0.76986497514558, -0.15173828424945, 0
637, 0.84876514719755, -0.14869277771245, 0
638, 0.20629699821179, -0.20095546917731, 0
639, 0.053096002533727, 0.12958866690245, 0
640, 0.21046927213548, -0.011952539989773, 0
641, 0.27921233857835, 0.044545679638035, 0
642, 0.3069442085148, 0.048308648508381, 0
643, 0.88400181769611, 0.018710755918611, 0
644, 0.56860165768271, -0.22291292353763, 0
645, 0.59632536034424, -0.22383672831745, 0
646, 0.39695092666597, -0.087647565817335, 0
647, 0.33552728312097, -0.2126058550873, 0
648, 0.17474176808669, 0.21165783196226, 0
649, 0.085342648834946, 0.018285398865095, 0
650, 0.15360553262729, -0.21890890621318, 0
651, 0.24039405711056, -0.27377667667966, 0
652, 0.23590057216648, -0.22132713240781, 0
653, 0.10756359567487, -0.1287140072611, 0
654, 0.31857770066767, -0.27168847715397, 0
655, 0.54144252872425, -0.19827251742864, 0
656, 0.54068677574179, -0.22250810505058, 0
657, 0.27617682202715, -0.1557556617446, 0
658, 0.1561888017266, -0.058412612137876, 0
659, 0.9252894758603, 0.2214767890716, 0
660, 0.82790728475626, -0.097465963860358, 0
661, 0.54183211367135, 0.2110929248584, 0
662, 0.7407663902361, -0.024346923069265, 0
663, 0.90438213248634, 0.16636075687659, 0
664, 0.75757469919594, 0.098264149935227, 0
665, 0.65790866241264, -0.052522726842512, 0
666, 0.88118200897116, -0.038820210824763, 0
667, 0.2451910741334, 0.068599167104798, 0
668, 0.19081815976928, -0.06050508995748, 0
669, 0.23733783888258, 0.12332012181687, 0
670, 0.2364721075205, 0.096050858846924, 0
671, 0.42258731462269, 0.21826949116075, 0
672, 0.85080612905647, -0.1224868526213, 0
673, 0.26716405702532, -0.27285903276693, 0
674, 0.077495476730576, 0.21425200687837, 0
675, 0.95000170796309, -0.17001012198849, 0
676, 0.055935115724673, -0.10512110507161, 0
677, 0.1279541834512, -0.18764406013479, 0
678, 0.18434103588901, -0.27433435362296, 0
679, 0.2580910305658, -0.18888178698375, 0
680, 0.72174757230428, 0.24711254276132, 0
681, 0.73508600271363, -0.22596772130104, 0
682, 0.70745765460292, -0.2257487580882, 0
683, 0.77319253487026, -0.12642545689861, 0
684, 0.76253527372343, -0.22607033756746, 0
685, 0.22276029282906, -0.13816503332017, 0
686, 0.23279651264808, -0.078862189325601, 0
687, 0.10411631003683, -0.27254588058127, 0
688, 0.10442818910521, -0.15726799534224, 0
689, 0.85086526581359, 0.22184722636161, 0
690, 0.65189843247771, 0.16763517945826, 0
691, 0.70950143904715, -0.20149088405245, 0
692, 0.87613087044493, -0.1210332766233, 0
693, 0.13361320446275, -0.1287236243459, 0
694, 0.97620857256599, -0.0033181495636818, 0
695, 0.84043107374352, 0.044667473602768, 0
696, 0.95020648582735, 0.22119502667549, 0
697, 0.63969709697638, 0.2731558760934, 0
698, 0.92982339074892, 0.021929333772512, 0
699, 0.95227950358978, -0.03336225210369, 0
700, 0.33958392018957, -0.24212714900051, 0
701, 0.22514753209731, -0.057869525067737, 0
702, 0.69685888056838, 0.12150501486299, 0
703, 0.92291062557501, -0.2233641223394, 0
704, 0.40716617371813, -0.15355735313679, 0
705, 0.46068055146942, -0.15865062286834, 0
706, 0.43380653115828, -0.15556898454832, 0
707, 0.97594913347225, 0.16618774082104, 0
708, 0.82524035005895, -0.12389279502835, 0
709, 0.12228833916991, -0.056506326735348, 0
710, 0.058247919621647, -0.05517473973212, 0
711, 0.2669066628197, -0.12629637537295, 0
712, 0.054288116522366, 0.074028635705602, 0
713, 0.2507903893708, 0.15174880586687, 0
714, 0.2272043185879, 0.15104941806991, 0
715, 0.35207389730298, -0.15556894634461, 0
716, 0.38028841498269, -0.15973083584657, 0
717, 0.6603538945637, -0.15247634773162, 0
718, 0.97606849970839, -0.031359696425439, 0
719, 0.29246227588489, -0.12513498714401, 0
720, 0.10316596198908, -0.21550872500847, 0
721, 0.13656759863375, 0.067295455327041, 0
722, 0.29312514581226, -0.27218266567751, 0
723, 0.30647943410354, -0.18365089960516, 0
724, 0.68217619635916, 0.079856844411169, 0
725, 0.88088741374688, 0.16621521287112, 0
726, 0.28222274028108, -0.1854781181668, 0
727, 0.15718015673026, -0.080232889202466, 0
728, 0.73539122904679, -0.051254914605706, 0
729, 0.77775900836093, 0.068424424173873, 0
730, 0.73006502013895, -0.077557618092395, 0
731, 0.7508083464716, -0.102056983751, 0
732, 0.76550141065809, 0.27452328831729, 0
733, 0.78912789655627, 0.16445061063142, 0
734, 0.54007757979984, 0.23257988097367, 0
735, 0.69594509907742, 0.052334747532055, 0
736, 0.15712882260363, 0.12249499658004, 0
737, 0.085232607075351, -0.10336613695228, 0
738, 0.34372023974674, -0.27136534105358, 0
739, 0.74663058776082, -0.12743909131532, 0
740, 0.79462838983931, 0.13419302615568, 0
741, 0.053741303226396, -0.13184724205755, 0
742, 0.18561779102261, -0.037176248103774, 0
743, 0.51543666586286, -0.1705002859184, 0
744, 0.48759598118318, -0.16418062078207, 0
745, 0.46263762748883, 0.19543650360167, 0
746, 0.63219331165955, -0.049858601192417, 0
747, 0.4559873054808, 0.21651583377397, 0
748, 0.7227744288656, 0.00042166476050916, 0
749, 0.67008056965504, -0.10369960849425, 0
750, 0.89775547830291, -0.19837357996863, 0
751, 0.63276527615616, -0.15155509260017, 0
752, 0.6286730791529, -0.1759503234082, 0
753, 0.75575458826932, -0.076027684336608, 0
754, 0.44890166679716, 0.27712000962317, 0
755, 0.65786437655779, 0.21660090202597, 0
756, 0.72361200500044, 0.16079889079851, 0
757, 0.08881574858143, -0.031577674260093, 0
758, 0.11482442448487, 0.016120805565422, 0
759, 0.95296748581936, 0.023408523288829, 0
760, 0.51568432517819, 0.184482388282, 0
761, 0.87042031074406, 0.27474318583758, 0
762, 0.92455199332897, -0.17125243595285, 0
763, 0.21920037193064, -0.10363323308383, 0
764, 0.21805516411293, 0.066892000492176, 0
765, 0.10916566584943, 0.069098179926017, 0
766, 0.57335741205038, -0.17378879667382, 0
767, 0.54442009858347, -0.1748008947139, 0
768, 0.79391561671385, -0.17614178822109, 0
769, 0.87451516027795, -0.14746032018075, 0
770, 0.24300281744771, -0.12916422345404, 0
771, 0.052347442401735, 0.18660591746623, 0
772, 0.078363644140082, -0.27215816408763, 0
773, 0.83617690446898, -0.014369542698512, 0
774, 0.62374203765939, 0.24954961532663, 0
775, 0.7590067941655, 0.19254746797542, 0
776, 0.12203226743881, -0.079067969102121, 0
777, 0.20981766142178, 0.12244381591151, 0
778, 0.29600902088282, 0.22540515922252, 0
779, 0.32620714044175, 0.2315119128105, 0
780, 0.20434883345986, -0.17660569682727, 0
781, 0.21038690542352, -0.24998337997434, 0
782, 0.33113714969621, -0.18311533827183, 0
783, 0.057218161336702, -0.0052412557090546, 0
784, 0.026723667416468, 0.13282776289611, 0
785, 0.12916208625377, -0.24525247045195, 0
786, 0.089114860913668, -0.078984821055024, 0
787, 0.24868883274567, -0.10040567339967, 0
788, 0.64394082555954, -0.0019615609966449, 0
789, 0.72429857097958, -0.10317041257278, 0
790, 0.65371090509636, -0.20085029820004, 0
791, 0.90370961483666, -0.064988079483909, 0
792, 0.80641984620114, 0.19376742754342, 0
793, 0.65653875124379, -0.17669859273255, 0
794, 0.20305944447189, 0.012944732797422, 0
795, 0.12059702386082, -0.033225340268887, 0
796, 0.26848898569457, 0.19129443631787, 0
797, 0.26918498029465, 0.21938414161938, 0
798, 0.66507173313505, -0.12810652584969, 0
799, 0.66511800606687, 0.18715627622505, 0
800, 0.67428948565252, 0.048570283766356, 0
801, 0.92538011590412, -0.14477978498536, 0
802, 0.86257319018695, 0.046565880173429, 0
803, 0.08961419626334, -0.055441839517141, 0
804, 0.27139723678899, 0.16202717004734, 0
805, 0.36498496964554, -0.11105138706746, 0
806, 0.67138631060161, -0.003631583483642, 0
807, 0.90744777907165, 0.049655936474292, 0
808, 0.84412192194099, 0.27474039776592, 0
809, 0.31946181067002, 0.18844448142911, 0
810, 0.6628456760543, -0.027817326411681, 0
811, 0.28999643993621, 0.093803370270937, 0
812, 0.13119231883996, 0.12356980197697, 0
813, 0.18525574638214, 0.093887445628178, 0
814, 0.57173424804965, 0.21305834719187, 0
815, 0.82053813200925, -0.17540830847298, 0
816, 0.41815163804065, 0.25627304457402, 0
817, 0.67793585302591, -0.078846220013291, 0
818, 0.78266771801422, 0.19327516944052, 0
819, 0.92670840695432, 0.19423032744698, 0
820, 0.90004751882119, -0.14615824642507, 0
821, 0.92273281314826, 0.27435083684445, 0
822, 0.70294526855431, 0.15862476783344, 0
823, 0.65200877133714, -0.077946150055342, 0
824, 0.97641400079085, 0.053227344650146, 0
825, 0.81898834083795, 0.1044484269496, 0
826, 0.80606978974413, -0.072344385906278, 0
827, 0.78916959584299, -0.019162439631208, 0
828, 0.8984423133688, 0.24845349381536, 0
829, 0.77145152129821, 0.24815370622263, 0
830, 0.68850377731508, 0.18832212648026, 0
831, 0.79855643659186, 0.071093725069592, 0
832, 0.71220403211876, -0.17722035328834, 0
833, 0.59783816888152, -0.19937238183173, 0
834, 0.81277897031716, -0.016674845651687, 0
835, 0.94932589926686, 0.24786886824889, 0
836, 0.73828639644452, 0.095040417454888, 0
837, 0.92780966916591, -0.063200194787013, 0
838, 0.73958281400795, 0.27435527094276, 0
839, 0.68165569900393, -0.20127241027811, 0
840, 0.70801706057846, 0.02555936368458, 0
841, 0.90594945549567, -0.0085267608864687, 0
842, 0.78108316437066, -0.074238146452808, 0
843, 0.90684660920158, 0.020383502013401, 0
844, 0.76521956614506, -0.021769381497329, 0
******* E L E M E N T S *************
*ELEMENT, type=CPS4, ELSET=Surface1
1, 163, 383, 385, 676
2, 812, 736, 180, 506
3, 686, 343, 207, 701
4, 364, 65, 55, 241
5, 631, 537, 269, 334
6, 751, 752, 793, 717
7, 832, 691, 485, 258
8, 351, 832, 258, 293
9, 532, 773, 580, 621
10, 830, 822, 756, 366
11, 244, 542, 351, 249
12, 397, 86, 94, 477
13, 258, 485, 494, 404
14, 470, 415, 728, 662
15, 563, 282, 725, 352
16, 182, 360, 361, 358
17, 358, 361, 92, 100
18, 361, 359, 99, 92
19, 360, 183, 359, 361
20, 304, 766, 281, 833
21, 396, 695, 802, 628
22, 514, 751, 717, 798
23, 406, 806, 253, 840
24, 799, 630, 822, 830
25, 800, 9, 140, 347
26, 305, 675, 330, 341
27, 637, 452, 270, 769
28, 171, 369, 370, 367
29, 367, 370, 368, 172
30, 370, 31, 39, 368
31, 369, 38, 31, 370
32, 628, 802, 169, 236
33, 662, 728, 340, 844
34, 402, 699, 718, 694
35, 570, 284, 592, 303
36, 295, 377, 378, 375
37, 375, 378, 34, 42
38, 378, 376, 41, 34
39, 377, 174, 376, 378
40, 771, 496, 497, 175
41, 658, 443, 795, 709
42, 117, 107, 545, 202
43, 458, 457, 208, 216
44, 640, 346, 423, 794
45, 382, 385, 108, 119
46, 385, 383, 118, 108
47, 468, 430, 438, 549
48, 740, 372, 825, 250
49, 773, 489, 255, 580
50, 416, 666, 552, 841
51, 283, 521, 523, 483
52, 28, 26, 393, 390
53, 390, 393, 391, 165
54, 393, 392, 170, 391
55, 26, 29, 392, 393
56, 395, 628, 236, 629
57, 789, 249, 739, 731
58, 236, 169, 807, 554
59, 826, 620, 660, 355
60, 544, 341, 58, 48
61, 357, 514, 798, 749
62, 747, 274, 336, 671
63, 356, 801, 305, 373
64, 492, 687, 447, 785
65, 487, 446, 758, 217
66, 786, 803, 710, 163
67, 712, 547, 550, 399
68, 325, 243, 257, 282
69, 699, 619, 297, 718
70, 405, 315, 189, 539
71, 484, 292, 69, 77
72, 745, 495, 146, 135
73, 566, 289, 761, 808
74, 556, 387, 789, 730
75, 615, 591, 631, 734
76, 24, 17, 412, 409
77, 409, 412, 410, 166
78, 412, 411, 159, 410
79, 17, 2, 411, 412
80, 2, 25, 414, 411
81, 411, 414, 413, 159
82, 414, 390, 165, 413
83, 25, 28, 390, 414
84, 271, 768, 815, 313
85, 837, 515, 541, 619
86, 836, 394, 473, 664
87, 474, 408, 481, 567
88, 160, 419, 420, 418
89, 418, 420, 369, 171
90, 420, 30, 38, 369
91, 419, 3, 30, 420
92, 220, 668, 658, 727
93, 346, 231, 197, 423
94, 227, 205, 456, 715
95, 486, 608, 772, 488
96, 184, 426, 427, 425
97, 425, 427, 359, 183
98, 427, 91, 99, 359
99, 426, 98, 91, 427
100, 343, 209, 428, 583
101, 608, 18, 11, 772
102, 442, 444, 608, 486
103, 384, 712, 399, 178
104, 3, 419, 432, 27
105, 27, 432, 392, 29
106, 432, 431, 170, 392
107, 419, 160, 431, 432
108, 96, 89, 436, 433
109, 433, 436, 434, 186
110, 436, 435, 185, 434
111, 89, 97, 435, 436
112, 424, 201, 446, 487
113, 344, 503, 450, 679
114, 688, 584, 677, 222
115, 438, 764, 181, 813
116, 42, 35, 441, 375
117, 375, 441, 439, 295
118, 441, 440, 296, 439
119, 35, 43, 440, 441
120, 121, 111, 444, 442
121, 162, 345, 722, 654
122, 226, 783, 379, 202
123, 111, 1, 10, 444
124, 546, 199, 234, 505
125, 742, 429, 640, 424
126, 322, 504, 639, 547
127, 207, 210, 212, 167
128, 211, 609, 214, 638
129, 220, 686, 701, 668
130, 726, 679, 502, 624
131, 774, 342, 612, 386
132, 775, 818, 593, 290
133, 481, 692, 614, 268
134, 184, 454, 455, 426
135, 426, 455, 90, 98
136, 455, 435, 97, 90
137, 454, 185, 435, 455
138, 119, 109, 458, 382
139, 803, 757, 226, 710
140, 216, 208, 625, 422
141, 109, 120, 457, 458
142, 172, 368, 461, 459
143, 459, 461, 460, 173
144, 461, 32, 40, 460
145, 368, 39, 32, 461
146, 43, 36, 464, 440
147, 440, 464, 462, 296
148, 464, 463, 298, 462
149, 36, 44, 463, 464
150, 44, 37, 466, 463
151, 463, 466, 465, 298
152, 466, 45, 56, 465
153, 37, 4, 45, 466
154, 693, 222, 179, 199
155, 782, 723, 516, 647
156, 711, 770, 344, 657
157, 213, 649, 206, 783
158, 536, 661, 403, 760
159, 820, 407, 762, 801
160, 619, 541, 388, 297
161, 558, 557, 451, 252
162, 112, 471, 472, 101
163, 101, 472, 93, 8
164, 472, 358, 100, 93
165, 471, 182, 358, 472
166, 273, 594, 415, 470
167, 363, 275, 836, 337
168, 660, 708, 672, 408
169, 680, 237, 838, 309
170, 190, 477, 478, 475
171, 475, 478, 476, 188
172, 478, 87, 95, 476
173, 477, 94, 87, 478
174, 188, 476, 480, 479
175, 479, 480, 433, 186
176, 480, 88, 96, 433
177, 476, 95, 88, 480
178, 806, 810, 273, 253
179, 537, 84, 82, 269
180, 613, 365, 266, 259
181, 775, 333, 733, 818
182, 315, 349, 314, 189
183, 342, 73, 6, 612
184, 254, 241, 66, 74
185, 814, 615, 734, 661
186, 677, 421, 650, 381
187, 444, 10, 18, 608
188, 429, 167, 346, 640
189, 710, 226, 202, 545
190, 749, 798, 244, 387
191, 371, 748, 365, 613
192, 632, 707, 53, 64
193, 806, 788, 239, 810
194, 173, 460, 491, 490
195, 490, 491, 376, 174
196, 491, 33, 41, 376
197, 460, 40, 33, 491
198, 199, 179, 321, 234
199, 382, 458, 216, 741
200, 763, 770, 711, 787
201, 201, 794, 430, 468
202, 536, 760, 136, 144
203, 302, 536, 144, 137
204, 554, 807, 590, 401
205, 760, 403, 513, 307
206, 204, 322, 547, 712
207, 102, 497, 471, 112
208, 497, 496, 182, 471
209, 776, 786, 737, 177
210, 196, 500, 501, 498
211, 498, 501, 130, 150
212, 501, 499, 151, 130
213, 500, 233, 499, 501
214, 639, 203, 445, 784
215, 106, 117, 202, 379
216, 623, 204, 712, 384
217, 812, 506, 528, 616
218, 166, 410, 510, 507
219, 507, 510, 508, 225
220, 510, 509, 224, 508
221, 410, 159, 509, 510
222, 298, 465, 512, 511
223, 453, 339, 372, 740
224, 761, 192, 75, 68
225, 465, 56, 46, 512
226, 728, 730, 753, 340
227, 768, 283, 483, 815
228, 762, 288, 294, 675
229, 756, 337, 306, 285
230, 120, 110, 517, 457
231, 668, 701, 429, 742
232, 785, 447, 622, 198
233, 110, 121, 442, 517
234, 388, 544, 48, 59
235, 672, 637, 769, 692
236, 843, 841, 582, 698
237, 494, 684, 521, 283
238, 482, 520, 534, 572
239, 520, 523, 377, 295
240, 523, 521, 174, 377
241, 568, 564, 79, 72
242, 170, 526, 527, 391
243, 391, 527, 524, 165
244, 527, 525, 223, 524
245, 526, 280, 525, 527
246, 609, 493, 781, 214
247, 763, 505, 685, 770
248, 531, 425, 183, 529
249, 530, 184, 425, 531
250, 295, 439, 534, 520
251, 542, 335, 832, 351
252, 241, 55, 5, 66
253, 439, 296, 533, 534
254, 842, 519, 620, 826
255, 374, 469, 272, 274
256, 753, 731, 519, 842
257, 838, 732, 70, 78
258, 148, 133, 540, 538
259, 538, 540, 311, 193
260, 540, 539, 189, 311
261, 133, 147, 539, 540
262, 754, 83, 7, 329
263, 793, 790, 839, 335
264, 588, 835, 254, 821
265, 522, 139, 141, 338
266, 813, 181, 777, 323
267, 163, 710, 545, 383
268, 516, 624, 345, 162
269, 687, 19, 12, 447
270, 424, 640, 794, 201
271, 765, 585, 322, 204
272, 399, 550, 104, 115
273, 528, 215, 595, 597
274, 696, 518, 364, 835
275, 293, 258, 404, 636
276, 265, 566, 808, 292
277, 551, 265, 292, 484
278, 621, 580, 416, 643
279, 327, 325, 282, 563
280, 513, 374, 274, 747
281, 518, 54, 65, 364
282, 153, 561, 562, 127
283, 127, 562, 559, 154
284, 562, 560, 229, 559
285, 561, 230, 560, 562
286, 683, 636, 271, 635
287, 810, 665, 594, 273
288, 307, 513, 747, 745
289, 834, 543, 489, 773
290, 552, 791, 837, 291
291, 253, 273, 470, 748
292, 799, 690, 522, 630
293, 243, 245, 395, 257
294, 294, 511, 512, 277
295, 257, 395, 629, 389
296, 580, 255, 666, 416
297, 242, 553, 532, 695
298, 233, 574, 575, 499
299, 499, 575, 129, 151
300, 575, 573, 152, 129
301, 574, 232, 573, 575
302, 278, 578, 579, 576
303, 576, 579, 577, 279
304, 579, 125, 155, 577
305, 578, 156, 125, 579
306, 691, 682, 681, 485
307, 297, 388, 59, 49
308, 831, 256, 242, 263
309, 302, 814, 661, 536
310, 175, 497, 102, 113
311, 450, 638, 214, 652
312, 493, 678, 228, 781
313, 504, 597, 203, 639
314, 148, 538, 587, 132
315, 132, 587, 316, 149
316, 587, 586, 194, 316
317, 538, 193, 586, 587
318, 695, 532, 621, 802
319, 734, 631, 334, 332
320, 630, 522, 338, 702
321, 489, 355, 474, 255
322, 815, 483, 482, 452
323, 717, 793, 335, 542
324, 260, 81, 84, 537
325, 341, 330, 47, 58
326, 256, 262, 553, 242
327, 415, 556, 730, 728
328, 366, 756, 285, 267
329, 725, 389, 555, 663
330, 107, 118, 383, 545
331, 116, 106, 379, 320
332, 180, 219, 319, 324
333, 445, 175, 113, 103
334, 159, 413, 599, 509
335, 509, 599, 598, 224
336, 599, 524, 223, 598
337, 413, 165, 524, 599
338, 276, 348, 52, 63
339, 262, 827, 834, 553
340, 602, 367, 172, 600
341, 601, 171, 367, 602
342, 596, 714, 605, 218
343, 603, 606, 434, 185
344, 606, 604, 186, 434
345, 605, 176, 604, 606
346, 447, 12, 20, 622
347, 467, 641, 195, 667
348, 787, 711, 719, 209
349, 583, 428, 300, 232
350, 229, 610, 611, 559
351, 559, 611, 126, 154
352, 611, 577, 155, 126
353, 610, 279, 577, 611
354, 801, 762, 675, 305
355, 328, 286, 680, 287
356, 735, 800, 347, 406
357, 817, 749, 387, 556
358, 469, 248, 754, 272
359, 745, 747, 671, 495
360, 708, 313, 637, 672
361, 591, 260, 537, 631
362, 736, 323, 219, 180
363, 647, 516, 162, 700
364, 795, 217, 213, 757
365, 222, 677, 381, 179
366, 697, 568, 72, 80
367, 308, 589, 143, 138
368, 569, 250, 243, 325
369, 337, 836, 664, 306
370, 678, 13, 21, 228
371, 343, 583, 210, 207
372, 505, 234, 448, 685
373, 794, 423, 449, 430
374, 209, 719, 205, 428
375, 381, 650, 609, 211
376, 686, 787, 209, 343
377, 776, 709, 803, 786
378, 357, 168, 261, 514
379, 269, 82, 85, 248
380, 593, 362, 551, 829
381, 329, 7, 86, 397
382, 249, 351, 293, 739
383, 259, 266, 262, 256
384, 251, 833, 645, 601
385, 565, 697, 342, 774
386, 535, 840, 371, 394
387, 350, 824, 51, 62
388, 372, 831, 263, 825
389, 403, 332, 374, 513
390, 215, 529, 674, 595
391, 399, 115, 105, 178
392, 380, 813, 323, 736
393, 764, 667, 670, 181
394, 150, 131, 642, 498
395, 498, 642, 641, 196
396, 642, 317, 195, 641
397, 131, 149, 317, 642
398, 192, 821, 67, 75
399, 270, 572, 750, 407
400, 645, 418, 171, 601
401, 644, 160, 418, 645
402, 152, 573, 646, 128
403, 128, 646, 561, 153
404, 646, 301, 230, 561
405, 573, 232, 301, 646
406, 219, 596, 218, 319
407, 530, 648, 454, 184
408, 648, 603, 185, 454
409, 181, 670, 669, 777
410, 488, 772, 687, 492
411, 723, 726, 624, 516
412, 651, 228, 21, 14
413, 607, 488, 492, 720
414, 179, 381, 211, 321
415, 422, 625, 584, 688
416, 220, 727, 400, 546
417, 160, 644, 656, 431
418, 431, 656, 526, 170
419, 656, 655, 280, 526
420, 644, 281, 655, 656
421, 345, 200, 673, 722
422, 217, 758, 649, 213
423, 421, 785, 198, 650
424, 657, 344, 679, 726
425, 406, 347, 788, 806
426, 828, 588, 821, 192
427, 365, 662, 844, 266
428, 643, 416, 841, 843
429, 408, 672, 692, 481
430, 571, 287, 564, 568
431, 665, 823, 817, 594
432, 707, 276, 63, 53
433, 306, 664, 339, 453
434, 309, 838, 78, 71
435, 751, 235, 304, 752
436, 819, 353, 696, 659
437, 194, 669, 670, 318
438, 318, 670, 667, 195
439, 548, 324, 530, 531
440, 423, 197, 467, 449
441, 798, 717, 542, 244
442, 733, 740, 250, 569
443, 718, 297, 49, 60
444, 555, 634, 246, 284
445, 597, 595, 771, 203
446, 496, 674, 360, 182
447, 674, 529, 183, 360
448, 653, 688, 222, 693
449, 327, 563, 689, 331
450, 823, 357, 749, 817
451, 338, 141, 122, 724
452, 290, 593, 829, 237
453, 786, 163, 676, 737
454, 198, 622, 678, 493
455, 685, 448, 780, 503
456, 701, 207, 167, 429
457, 788, 158, 123, 239
458, 347, 140, 158, 788
459, 682, 459, 173, 681
460, 600, 172, 459, 682
461, 174, 521, 684, 490
462, 490, 684, 681, 173
463, 246, 401, 247, 398
464, 665, 746, 264, 823
465, 208, 437, 607, 625
466, 502, 652, 626, 200
467, 720, 492, 785, 421
468, 757, 213, 783, 226
469, 404, 494, 283, 768
470, 692, 769, 820, 614
471, 558, 252, 589, 308
472, 630, 702, 363, 822
473, 722, 673, 22, 15
474, 206, 384, 178, 320
475, 446, 627, 164, 758
476, 649, 623, 384, 206
477, 702, 338, 724, 191
478, 835, 364, 241, 254
479, 389, 629, 634, 555
480, 452, 482, 572, 270
481, 635, 271, 313, 708
482, 634, 554, 401, 246
483, 675, 294, 277, 330
484, 251, 601, 602, 790
485, 495, 405, 134, 146
486, 589, 252, 814, 302
487, 824, 581, 61, 51
488, 288, 703, 511, 294
489, 618, 380, 736, 812
490, 506, 548, 215, 528
491, 626, 781, 228, 651
492, 296, 462, 703, 533
493, 247, 240, 824, 350
494, 261, 578, 278, 235
495, 462, 298, 511, 703
496, 223, 705, 706, 598
497, 598, 706, 704, 224
498, 706, 560, 230, 704
499, 705, 229, 560, 706
500, 287, 680, 309, 564
501, 799, 558, 308, 690
502, 266, 844, 827, 262
503, 567, 481, 268, 791
504, 709, 795, 757, 803
505, 668, 742, 443, 658
506, 584, 720, 421, 677
507, 548, 531, 529, 215
508, 225, 782, 647, 507
509, 714, 713, 176, 605
510, 669, 194, 713, 714
511, 230, 299, 716, 704
512, 704, 716, 508, 224
513, 716, 715, 225, 508
514, 299, 227, 715, 716
515, 792, 327, 331, 362
516, 335, 839, 691, 832
517, 238, 397, 477, 190
518, 739, 293, 636, 683
519, 457, 517, 437, 208
520, 428, 205, 227, 300
521, 700, 162, 654, 738
522, 456, 221, 723, 782
523, 616, 528, 597, 504
524, 547, 639, 784, 550
525, 618, 812, 616, 585
526, 583, 232, 574, 210
527, 353, 303, 707, 632
528, 331, 689, 566, 265
529, 633, 328, 287, 571
530, 822, 363, 337, 756
531, 201, 468, 627, 446
532, 437, 486, 488, 607
533, 197, 196, 641, 467
534, 205, 719, 221, 456
535, 614, 820, 801, 356
536, 620, 635, 708, 660
537, 702, 191, 275, 363
538, 565, 571, 568, 697
539, 697, 80, 73, 342
540, 844, 340, 326, 827
541, 792, 569, 325, 327
542, 239, 123, 157, 746
543, 161, 663, 570, 819
544, 694, 718, 60, 50
545, 730, 789, 731, 753
546, 582, 291, 699, 402
547, 790, 602, 600, 839
548, 589, 302, 137, 143
549, 250, 825, 245, 243
550, 654, 722, 15, 23
551, 449, 467, 667, 764
552, 324, 319, 648, 530
553, 430, 449, 764, 438
554, 164, 765, 204, 623
555, 627, 721, 765, 164
556, 212, 233, 500, 231
557, 612, 6, 81, 260
558, 671, 336, 349, 315
559, 515, 356, 373, 541
560, 833, 281, 644, 645
561, 783, 206, 320, 379
562, 234, 321, 780, 448
563, 617, 422, 688, 653
564, 650, 198, 493, 609
565, 229, 705, 744, 610
566, 610, 744, 743, 279
567, 744, 525, 280, 743
568, 705, 223, 525, 744
569, 336, 816, 238, 349
570, 285, 306, 453, 333
571, 594, 817, 556, 415
572, 808, 761, 68, 76
573, 451, 386, 591, 615
574, 698, 582, 402, 759
575, 830, 366, 328, 633
576, 355, 660, 408, 474
577, 760, 307, 145, 136
578, 267, 285, 333, 775
579, 732, 484, 77, 70
580, 161, 819, 659, 417
581, 330, 277, 57, 47
582, 563, 352, 354, 689
583, 237, 829, 732, 838
584, 503, 780, 638, 450
585, 742, 424, 487, 443
586, 719, 711, 657, 221
587, 252, 451, 615, 814
588, 541, 373, 544, 388
589, 277, 512, 46, 57
590, 519, 683, 635, 620
591, 746, 157, 124, 264
592, 755, 565, 774, 557
593, 731, 739, 683, 519
594, 729, 259, 256, 831
595, 218, 605, 606, 603
596, 777, 669, 714, 596
597, 721, 549, 380, 618
598, 727, 776, 177, 400
599, 279, 743, 767, 576
600, 576, 767, 766, 278
601, 767, 655, 281, 766
602, 743, 280, 655, 767
603, 557, 774, 386, 451
604, 274, 272, 816, 336
605, 248, 85, 83, 754
606, 840, 253, 748, 371
607, 624, 502, 200, 345
608, 507, 647, 700, 166
609, 178, 105, 116, 320
610, 221, 657, 726, 723
611, 168, 156, 578, 261
612, 752, 304, 833, 251
613, 263, 242, 695, 396
614, 495, 671, 315, 405
615, 167, 212, 231, 346
616, 200, 626, 651, 673
617, 166, 700, 738, 409
618, 506, 180, 324, 548
619, 727, 658, 709, 776
620, 595, 674, 496, 771
621, 220, 763, 787, 686
622, 188, 778, 779, 475
623, 475, 779, 314, 190
624, 779, 310, 189, 314
625, 778, 187, 310, 779
626, 676, 385, 382, 741
627, 443, 487, 217, 795
628, 549, 438, 813, 380
629, 784, 445, 103, 114
630, 738, 654, 23, 16
631, 622, 20, 13, 678
632, 673, 651, 14, 22
633, 220, 546, 505, 763
634, 721, 618, 585, 765
635, 400, 177, 653, 693
636, 321, 211, 638, 780
637, 772, 11, 19, 687
638, 679, 450, 652, 502
639, 517, 442, 486, 437
640, 468, 549, 721, 627
641, 758, 164, 623, 649
642, 737, 676, 741, 617
643, 741, 216, 422, 617
644, 291, 837, 619, 699
645, 553, 834, 773, 532
646, 827, 326, 543, 834
647, 659, 696, 835, 588
648, 394, 371, 613, 473
649, 340, 753, 842, 326
650, 353, 632, 518, 696
651, 564, 309, 71, 79
652, 829, 551, 484, 732
653, 819, 570, 303, 353
654, 823, 264, 168, 357
655, 417, 659, 588, 828
656, 590, 698, 759, 240
657, 352, 161, 417, 354
658, 326, 842, 826, 543
659, 514, 261, 235, 751
660, 282, 257, 389, 725
661, 759, 402, 694, 581
662, 750, 533, 703, 288
663, 799, 755, 557, 558
664, 177, 737, 617, 653
665, 546, 400, 693, 199
666, 770, 685, 503, 344
667, 715, 456, 782, 225
668, 186, 604, 797, 479
669, 479, 797, 778, 188
670, 797, 796, 187, 778
671, 604, 176, 796, 797
672, 661, 734, 332, 403
673, 769, 270, 407, 820
674, 755, 633, 571, 565
675, 483, 523, 520, 482
676, 349, 238, 190, 314
677, 348, 350, 62, 52
678, 354, 417, 828, 289
679, 629, 236, 554, 634
680, 818, 792, 362, 593
681, 275, 535, 394, 836
682, 752, 251, 790, 793
683, 799, 830, 633, 755
684, 841, 552, 291, 582
685, 191, 724, 800, 735
686, 724, 122, 9, 800
687, 169, 643, 843, 807
688, 409, 738, 16, 24
689, 210, 574, 233, 212
690, 625, 607, 720, 584
691, 231, 500, 196, 197
692, 176, 713, 804, 796
693, 796, 804, 312, 187
694, 804, 586, 193, 312
695, 713, 194, 586, 804
696, 230, 301, 805, 299
697, 299, 805, 300, 227
698, 301, 232, 300, 805
699, 810, 239, 746, 665
700, 387, 244, 249, 789
701, 255, 474, 567, 666
702, 292, 808, 76, 69
703, 303, 592, 276, 707
704, 386, 612, 260, 591
705, 289, 828, 192, 761
706, 748, 470, 662, 365
707, 332, 334, 469, 374
708, 187, 312, 809, 310
709, 310, 809, 311, 189
710, 312, 193, 311, 809
711, 405, 539, 147, 134
712, 821, 254, 74, 67
713, 581, 694, 50, 61
714, 194, 318, 811, 316
715, 316, 811, 317, 149
716, 318, 195, 317, 811
717, 323, 777, 596, 219
718, 585, 616, 504, 322
719, 550, 784, 114, 104
720, 652, 214, 781, 626
721, 203, 771, 175, 445
722, 319, 218, 603, 648
723, 313, 815, 452, 637
724, 272, 754, 329, 816
725, 666, 567, 791, 552
726, 373, 305, 341, 544
727, 334, 269, 248, 469
728, 407, 750, 288, 762
729, 366, 267, 286, 328
730, 485, 681, 684, 494
731, 307, 745, 135, 145
732, 339, 729, 831, 372
733, 191, 735, 535, 275
734, 816, 329, 397, 238
735, 362, 331, 265, 551
736, 543, 826, 355, 489
737, 352, 725, 663, 161
738, 235, 278, 766, 304
739, 690, 142, 139, 522
740, 663, 555, 284, 570
741, 333, 453, 740, 733
742, 264, 124, 156, 168
743, 401, 590, 240, 247
744, 802, 621, 643, 169
745, 735, 406, 840, 535
746, 636, 404, 768, 271
747, 818, 733, 569, 792
748, 240, 759, 581, 824
749, 825, 263, 396, 245
750, 632, 64, 54, 518
751, 286, 290, 237, 680
752, 268, 614, 356, 515
753, 791, 268, 515, 837
754, 245, 396, 628, 395
755, 473, 613, 259, 729
756, 267, 775, 290, 286
757, 839, 600, 682, 691
758, 592, 398, 348, 276
759, 689, 354, 289, 566
760, 398, 247, 350, 348
761, 690, 308, 138, 142
762, 284, 246, 398, 592
763, 807, 843, 698, 590
764, 572, 534, 533, 750
765, 664, 473, 729, 339
*ELSET,ELSET=contact_source
99, 100, 101, 102, 103, 104, 105, 106, 107, 108, 
109, 110, 111, 112, 113, 114, 115, 116, 117, 118, 
119, 120, 
*ELSET,ELSET=contact_drain
39, 40, 41, 42, 43, 44, 45, 46, 47, 48, 
49, 50, 51, 52, 53, 54, 55, 56, 57, 58, 
59, 60, 
*ELSET,ELSET=probe_A
77, 78, 79, 80, 81, 82, 
*ELSET,ELSET=probe_B
17, 18, 19, 20, 21, 22, 
*ELSET,ELSET=walls
1, 2, 3, 4, 5, 6, 7, 8, 9, 10, 
11, 12, 13, 14, 15, 16, 23, 24, 25, 26, 
27, 28, 29, 30, 31, 32, 33, 34, 35, 36, 
37, 38, 61, 62, 63, 64, 65, 66, 67, 68, 
69, 70, 71, 72, 73, 74, 75, 76, 83, 84, 
85, 86, 87, 88, 89, 90, 91, 92, 93, 94, 
95, 96, 97, 98, 121, 122, 123, 124, 125, 126, 
127, 128, 129, 130, 131, 132, 133, 134, 135, 136, 
137, 138, 139, 140, 141, 142, 143, 144, 145, 146, 
147, 148, 149, 150, 151, 152, 153, 154, 155, 156, 
157, 158, 
*ELSET,ELSET=domain
159, 160, 161, 162, 163, 164, 165, 166, 167, 168, 
169, 170, 171, 172, 173, 174, 175, 176, 177, 178, 
179, 180, 181, 182, 183, 184, 185, 186, 187, 188, 
189, 190, 191, 192, 193, 194, 195, 196, 197, 198, 
199, 200, 201, 202, 203, 204, 205, 206, 207, 208, 
209, 210, 211, 212, 213, 214, 215, 216, 217, 218, 
219, 220, 221, 222, 223, 224, 225, 226, 227, 228, 
229, 230, 231, 232, 233, 234, 235, 236, 237, 238, 
239, 240, 241, 242, 243, 244, 245, 246, 247, 248, 
249, 250, 251, 252, 253, 254, 255, 256, 257, 258, 
259, 260, 261, 262, 263, 264, 265, 266, 267, 268, 
269, 270, 271, 272, 273, 274, 275, 276, 277, 278, 
279, 280, 281, 282, 283, 284, 285, 286, 287, 288, 
289, 290, 291, 292, 293, 294, 295, 296, 297, 298, 
299, 300, 301, 302, 303, 304, 305, 306, 307, 308, 
309, 310, 311, 312, 313, 314, 315, 316, 317, 318, 
319, 320, 321, 322, 323, 324, 325, 326, 327, 328, 
329, 330, 331, 332, 333, 334, 335, 336, 337, 338, 
339, 340, 341, 342, 343, 344, 345, 346, 347, 348, 
349, 350, 351, 352, 353, 354, 355, 356, 357, 358, 
359, 360, 361, 362, 363, 364, 365, 366, 367, 368, 
369, 370, 371, 372, 373, 374, 375, 376, 377, 378, 
379, 380, 381, 382, 383, 384, 385, 386, 387, 388, 
389, 390, 391, 392, 393, 394, 395, 396, 397, 398, 
399, 400, 401, 402, 403, 404, 405, 406, 407, 408, 
409, 410, 411, 412, 413, 414, 415, 416, 417, 418, 
419, 420, 421, 422, 423, 424, 425, 426, 427, 428, 
429, 430, 431, 432, 433, 434, 435, 436, 437, 438, 
439, 440, 441, 442, 443, 444, 445, 446, 447, 448, 
449, 450, 451, 452, 453, 454, 455, 456, 457, 458, 
459, 460, 461, 462, 463, 464, 465, 466, 467, 468, 
469, 470, 471, 472, 473, 474, 475, 476, 477, 478, 
479, 480, 481, 482, 483, 484, 485, 486, 487, 488, 
489, 490, 491, 492, 493, 494, 495, 496, 497, 498, 
499, 500, 501, 502, 503, 504, 505, 506, 507, 508, 
509, 510, 511, 512, 513, 514, 515, 516, 517, 518, 
519, 520, 521, 522, 523, 524, 525, 526, 527, 528, 
529, 530, 531, 532, 533, 534, 535, 536, 537, 538, 
539, 540, 541, 542, 543, 544, 545, 546, 547, 548, 
549, 550, 551, 552, 553, 554, 555, 556, 557, 558, 
559, 560, 561, 562, 563, 564, 565, 566, 567, 568, 
569, 570, 571, 572, 573, 574, 575, 576, 577, 578, 
579, 580, 581, 582, 583, 584, 585, 586, 587, 588, 
589, 590, 591, 592, 593, 594, 595, 596, 597, 598, 
599, 600, 601, 602, 603, 604, 605, 606, 607, 608, 
609, 610, 611, 612, 613, 614, 615, 616, 617, 618, 
619, 620, 621, 622, 623, 624, 625, 626, 627, 628, 
629, 630, 631, 632, 633, 634, 635, 636, 637, 638, 
639, 640, 641, 642, 643, 644, 645, 646, 647, 648, 
649, 650, 651, 652, 653, 654, 655, 656, 657, 658, 
659, 660, 661, 662, 663, 664, 665, 666, 667, 668, 
669, 670, 671, 672, 673, 674, 675, 676, 677, 678, 
679, 680, 681, 682, 683, 684, 685, 686, 687, 688, 
689, 690, 691, 692, 693, 694, 695, 696, 697, 698, 
699, 700, 701, 702, 703, 704, 705, 706, 707, 708, 
709, 710, 711, 712, 713, 714, 715, 716, 717, 718, 
719, 720, 721, 722, 723, 724, 725, 726, 727, 728, 
729, 730, 731, 732, 733, 734, 735, 736, 737, 738, 
739, 740, 741, 742, 743, 744, 745, 746, 747, 748, 
749, 750, 751, 752, 753, 754, 755, 756, 757, 758, 
759, 760, 761, 762, 763, 764, 765, 766, 767, 768, 
769, 770, 771, 772, 773, 774, 775, 776, 777, 778, 
779, 780, 781, 782, 783, 784, 785, 786, 787, 788, 
789, 790, 791, 792, 793, 794, 795, 796, 797, 798, 
799, 800, 801, 802, 803, 804, 805, 806, 807, 808, 
809, 810, 811, 812, 813, 814, 815, 816, 817, 818, 
819, 820, 821, 822, 823, 824, 825, 826, 827, 828, 
829, 830, 831, 832, 833, 834, 835, 836, 837, 838, 
839, 840, 841, 842, 843, 844, 845, 846, 847, 848, 
849, 850, 851, 852, 853, 854, 855, 856, 857, 858, 
859, 860, 861, 862, 863, 864, 865, 866, 867, 868, 
869, 870, 871, 872, 873, 874, 875, 876, 877, 878, 
879, 880, 881, 882, 883, 884, 885, 886, 887, 888, 
889, 890, 891, 892, 893, 894, 895, 896, 897, 898, 
899, 900, 901, 902, 903, 904, 905, 906, 907, 908, 
909, 910, 911, 912, 913, 914, 915, 916, 917, 918, 
919, 920, 921, 922, 923, 
*NSET,NSET=contact_source
1, 8, 101, 102, 103, 104, 105, 106, 107, 108, 
109, 110, 111, 112, 113, 114, 115, 116, 117, 118, 
119, 120, 121, 
*NSET,NSET=contact_drain
4, 5, 45, 46, 47, 48, 49, 50, 51, 52, 
53, 54, 55, 56, 57, 58, 59, 60, 61, 62, 
63, 64, 65, 
*NSET,NSET=probe_A
6, 7, 81, 82, 83, 84, 85, 
*NSET,NSET=probe_B
2, 3, 25, 26, 27, 28, 29, 
*NSET,NSET=walls
1, 2, 3, 4, 5, 6, 7, 8, 9, 10, 
11, 12, 13, 14, 15, 16, 17, 18, 19, 20, 
21, 22, 23, 24, 30, 31, 32, 33, 34, 35, 
36, 37, 38, 39, 40, 41, 42, 43, 44, 66, 
67, 68, 69, 70, 71, 72, 73, 74, 75, 76, 
77, 78, 79, 80, 86, 87, 88, 89, 90, 91, 
92, 93, 94, 95, 96, 97, 98, 99, 100, 122, 
123, 124, 125, 126, 127, 128, 129, 130, 131, 132, 
133, 134, 135, 136, 137, 138, 139, 140, 141, 142, 
143, 144, 145, 146, 147, 148, 149, 150, 151, 152, 
153, 154, 155, 156, 157, 158, 
*NSET,NSET=domain
1, 2, 3, 4, 5, 6, 7, 8, 9, 10, 
11, 12, 13, 14, 15, 16, 17, 18, 19, 20, 
21, 22, 23, 24, 25, 26, 27, 28, 29, 30, 
31, 32, 33, 34, 35, 36, 37, 38, 39, 40, 
41, 42, 43, 44, 45, 46, 47, 48, 49, 50, 
51, 52, 53, 54, 55, 56, 57, 58, 59, 60, 
61, 62, 63, 64, 65, 66, 67, 68, 69, 70, 
71, 72, 73, 74, 75, 76, 77, 78, 79, 80, 
81, 82, 83, 84, 85, 86, 87, 88, 89, 90, 
91, 92, 93, 94, 95, 96, 97, 98, 99, 100, 
101, 102, 103, 104, 105, 106, 107, 108, 109, 110, 
111, 112, 113, 114, 115, 116, 117, 118, 119, 120, 
121, 122, 123, 124, 125, 126, 127, 128, 129, 130, 
131, 132, 133, 134, 135, 136, 137, 138, 139, 140, 
141, 142, 143, 144, 145, 146, 147, 148, 149, 150, 
151, 152, 153, 154, 155, 156, 157, 158, 159, 160, 
161, 162, 163, 164, 165, 166, 167, 168, 169, 170, 
171, 172, 173, 174, 175, 176, 177, 178, 179, 180, 
181, 182, 183, 184, 185, 186, 187, 188, 189, 190, 
191, 192, 193, 194, 195, 196, 197, 198, 199, 200, 
201, 202, 203, 204, 205, 206, 207, 208, 209, 210, 
211, 212, 213, 214, 215, 216, 217, 218, 219, 220, 
221, 222, 223, 224, 225, 226, 227, 228, 229, 230, 
231, 232, 233, 234, 235, 236, 237, 238, 239, 240, 
241, 242, 243, 244, 245, 246, 247, 248, 249, 250, 
251, 252, 253, 254, 255, 256, 257, 258, 259, 260, 
261, 262, 263, 264, 265, 266, 267, 268, 269, 270, 
271, 272, 273, 274, 275, 276, 277, 278, 279, 280, 
281, 282, 283, 284, 285, 286, 287, 288, 289, 290, 
291, 292, 293, 294, 295, 296, 297, 298, 299, 300, 
301, 302, 303, 304, 305, 306, 307, 308, 309, 310, 
311, 312, 313, 314, 315, 316, 317, 318, 319, 320, 
321, 322, 323, 324, 325, 326, 327, 328, 329, 330, 
331, 332, 333, 334, 335, 336, 337, 338, 339, 340, 
341, 342, 343, 344, 345, 346, 347, 348, 349, 350, 
351, 352, 353, 354, 355, 356, 357, 358, 359, 360, 
361, 362, 363, 364, 365, 366, 367, 368, 369, 370, 
371, 372, 373, 374, 375, 376, 377, 378, 379, 380, 
381, 382, 383, 384, 385, 386, 387, 388, 389, 390, 
391, 392, 393, 394, 395, 396, 397, 398, 399, 400, 
401, 402, 403, 404, 405, 406, 407, 408, 409, 410, 
411, 412, 413, 414, 415, 416, 417, 418, 419, 420, 
421, 422, 423, 424, 425, 426, 427, 428, 429, 430, 
431, 432, 433, 434, 435, 436, 437, 438, 439, 440, 
441, 442, 443, 444, 445, 446, 447, 448, 449, 450, 
451, 452, 453, 454, 455, 456, 457, 458, 459, 460, 
461, 462, 463, 464, 465, 466, 467, 468, 469, 470, 
471, 472, 473, 474, 475, 476, 477, 478, 479, 480, 
481, 482, 483, 484, 485, 486, 487, 488, 489, 490, 
491, 492, 493, 494, 495, 496, 497, 498, 499, 500, 
501, 502, 503, 504, 505, 506, 507, 508, 509, 510, 
511, 512, 513, 514, 515, 516, 517, 518, 519, 520, 
521, 522, 523, 524, 525, 526, 527, 528, 529, 530, 
531, 532, 533, 534, 535, 536, 537, 538, 539, 540, 
541, 542, 543, 544, 545, 546, 547, 548, 549, 550, 
551, 552, 553, 554, 555, 556, 557, 558, 559, 560, 
561, 562, 563, 564, 565, 566, 567, 568, 569, 570, 
571, 572, 573, 574, 575, 576, 577, 578, 579, 580, 
581, 582, 583, 584, 585, 586, 587, 588, 589, 590, 
591, 592, 593, 594, 595, 596, 597, 598, 599, 600, 
601, 602, 603, 604, 605, 606, 607, 608, 609, 610, 
611, 612, 613, 614, 615, 616, 617, 618, 619, 620, 
621, 622, 623, 624, 625, 626, 627, 628, 629, 630, 
631, 632, 633, 634, 635, 636, 637, 638, 639, 640, 
641, 642, 643, 644, 645, 646, 647, 648, 649, 650, 
651, 652, 653, 654, 655, 656, 657, 658, 659, 660, 
661, 662, 663, 664, 665, 666, 667, 668, 669, 670, 
671, 672, 673, 674, 675, 676, 677, 678, 679, 680, 
681, 682, 683, 684, 685, 686, 687, 688, 689, 690, 
691, 692, 693, 694, 695, 696, 697, 698, 699, 700, 
701, 702, 703, 704, 705, 706, 707, 708, 709, 710, 
711, 712, 713, 714, 715, 716, 717, 718, 719, 720, 
721, 722, 723, 724, 725, 726, 727, 728, 729, 730, 
731, 732, 733, 734, 735, 736, 737, 738, 739, 740, 
741, 742, 743, 744, 745, 746, 747, 748, 749, 750, 
751, 752, 753, 754, 755, 756, 757, 758, 759, 760, 
761, 762, 763, 764, 765, 766, 767, 768, 769, 770, 
771, 772, 773, 774, 775, 776, 777, 778, 779, 780, 
781, 782, 783, 784, 785, 786, 787, 788, 789, 790, 
791, 792, 793, 794, 795, 796, 797, 798, 799, 800, 
801, 802, 803, 804, 805, 806, 807, 808, 809, 810, 
811, 812, 813, 814, 815, 816, 817, 818, 819, 820, 
821, 822, 823, 824, 825, 826, 827, 828, 829, 830, 
831, 832, 833, 834, 835, 836, 837, 838, 839, 840, 
841, 842, 843, 844, 
