*Heading
 /Users/juliagao/geometry-optimization-net/scripts/../runs/run2/shape_76.inp
*NODE
1, 0, -0.3, 0
2, 0.425, -0.3, 0
3, 0.575, -0.3, 0
4, 1, -0.3, 0
5, 1, 0.3, 0
6, 0.575, 0.3, 0
7, 0.425, 0.3, 0
8, 0, 0.3, 0
9, 0.6695565458, -0.0384195535, 0
10, 0.026416943840687, -0.3, 0
11, 0.079934935344044, -0.3, 0
12, 0.13452190241751, -0.3, 0
13, 0.18953847389251, -0.3, 0
14, 0.24433592912041, -0.3, 0
15, 0.29826534317433, -0.3, 0
16, 0.35077783302784, -0.3, 0
17, 0.40081385599556, -0.3, 0
18, 0.052833887681374, -0.3, 0
19, 0.10703598300671, -0.3, 0
20, 0.16200782182831, -0.3, 0
21, 0.21706912595671, -0.3, 0
22, 0.27160273228411, -0.3, 0
23, 0.32492795406456, -0.3, 0
24, 0.37662771199112, -0.3, 0
25, 0.44332435055702, -0.3, 0
26, 0.47996693066502, -0.3, 0
27, 0.51697007773994, -0.3, 0
28, 0.55532749763194, -0.3, 0
29, 0.46164870111404, -0.3, 0
30, 0.498285160216, -0.3, 0
31, 0.53565499526388, -0.3, 0
32, 0.60112357488838, -0.3, 0
33, 0.65312302310787, -0.3, 0
34, 0.70601131426981, -0.3, 0
35, 0.76075309633872, -0.3, 0
36, 0.81515232700764, -0.3, 0
37, 0.86833768556781, -0.3, 0
38, 0.92111384193984, -0.3, 0
39, 0.97368725309127, -0.3, 0
40, 0.62724714977675, -0.3, 0
41, 0.67899889643898, -0.3, 0
42, 0.73302373210064, -0.3, 0
43, 0.7884824605768, -0.3, 0
44, 0.84182219343848, -0.3, 0
45, 0.89485317769713, -0.3, 0
46, 0.94737450618254, -0.3, 0
47, 1, -0.27312192985769, 0
48, 1, -0.21896629723834, 0
49, 1, -0.16413221509318, 0
50, 1, -0.10871977549114, 0
51, 1, -0.052768215481696, 0
52, 1, 0.0031288157398444, 0
53, 1, 0.058137085865863, 0
54, 1, 0.11231534617849, 0
55, 1, 0.16641879556174, 0
56, 1, 0.22035927894317, 0
57, 1, 0.27358384713698, 0
58, 1, -0.24624385971537, 0
59, 1, -0.19168873476131, 0
60, 1, -0.13657569542504, 0
61, 1, -0.080863855557237, 0
62, 1, -0.024672575406155, 0
63, 1, 0.030930206885844, 0
64, 1, 0.085343964845882, 0
65, 1, 0.1392867275111, 0
66, 1, 0.19355086361237, 0
67, 1, 0.24716769427396, 0
68, 0.9739798383827, 0.3, 0
69, 0.92148795675339, 0.3, 0
70, 0.86761425528307, 0.3, 0
71, 0.81246806300859, 0.3, 0
72, 0.75788084066841, 0.3, 0
73, 0.7049175154555, 0.3, 0
74, 0.65275526239701, 0.3, 0
75, 0.60085666151371, 0.3, 0
76, 0.94795967676539, 0.3, 0
77, 0.89501623674138, 0.3, 0
78, 0.84021227382475, 0.3, 0
79, 0.78472385219242, 0.3, 0
80, 0.7310378291444, 0.3, 0
81, 0.67879720176659, 0.3, 0
82, 0.62671332302742, 0.3, 0
83, 0.55595132592338, 0.3, 0
84, 0.51857927064334, 0.3, 0
85, 0.48176768352556, 0.3, 0
86, 0.44413973880561, 0.3, 0
87, 0.53690265184676, 0.3, 0
88, 0.50025588943991, 0.3, 0
89, 0.46327947761121, 0.3, 0
90, 0.39913575302824, 0.3, 0
91, 0.34658056491628, 0.3, 0
92, 0.29303165981694, 0.3, 0
93, 0.23923501357267, 0.3, 0
94, 0.18558972799486, 0.3, 0
95, 0.13242441573657, 0.3, 0
96, 0.079450639954922, 0.3, 0
97, 0.026467786569447, 0.3, 0
98, 0.37327150605648, 0.3, 0
99, 0.31988962377608, 0.3, 0
100, 0.26617369585779, 0.3, 0
101, 0.21229633128754, 0.3, 0
102, 0.15888312470218, 0.3, 0
103, 0.10596570677095, 0.3, 0
104, 0.052935573138895, 0.3, 0
105, 0, 0.27380212487209, 0
106, 0, 0.221048572699, 0
107, 0, 0.1672058028383, 0
108, 0, 0.11225181790064, 0
109, 0, 0.05741140297779, 0
110, 0, 0.0024408042098772, 0
111, 0, -0.053767612767085, 0
112, 0, -0.11010741972226, 0
113, 0, -0.16566597431515, 0
114, 0, -0.22041485942314, 0
115, 0, -0.27376682794182, 0
116, 0, 0.24760424974417, 0
117, 0, 0.19449289565382, 0
118, 0, 0.13991871002278, 0
119, 0, 0.084584925778494, 0
120, 0, 0.030237880177085, 0
121, 0, -0.025356271757331, 0
122, 0, -0.08217895377684, 0
123, 0, -0.13803588566767, 0
124, 0, -0.19329606296264, 0
125, 0, -0.24753365588365, 0
126, 0.66629868180733, -0.0094851854659642, 0
127, 0.73396349416046, -0.097854624159304, 0
128, 0.76976247980088, -0.14344030366622, 0
129, 0.78704801718094, -0.19684243148031, 0
130, 0.76386682497189, -0.24516195055967, 0
131, 0.71219892433816, -0.25841892798837, 0
132, 0.66020316500385, -0.24946411513857, 0
133, 0.61122008884573, -0.23036116453451, 0
134, 0.56278148092415, -0.21159937667721, 0
135, 0.51652388014154, -0.23126522639547, 0
136, 0.47400861870633, -0.2541791388684, 0
137, 0.42634473644515, -0.25057263528504, 0
138, 0.38078456973011, -0.22919742112578, 0
139, 0.33072261375514, -0.21057699565831, 0
140, 0.28184951268559, -0.18469393695981, 0
141, 0.2549648534525, -0.13622439271798, 0
142, 0.26314327433001, -0.08178515867656, 0
143, 0.28350653562613, -0.030676308175328, 0
144, 0.28339929964417, 0.025288491752514, 0
145, 0.27523614617547, 0.082003339300815, 0
146, 0.28570776824028, 0.13918416176584, 0
147, 0.31981115677257, 0.18691641456584, 0
148, 0.36606913216916, 0.22076352359419, 0
149, 0.41735321866539, 0.23896681177435, 0
150, 0.46940432460397, 0.23284516682393, 0
151, 0.51212479268016, 0.20143410334535, 0
152, 0.54164085085662, 0.15541996934362, 0
153, 0.56437906242314, 0.10763334785282, 0
154, 0.61517844000706, 0.094739326776715, 0
155, 0.66644741192821, 0.086633177026015, 0
156, 0.68596858953135, 0.03937622021629, 0
157, 0.69046815883715, -0.058847813147267, 0
158, 0.67723735961978, 0.014051104218062, 0
159, 0.68437745007739, 0.066707168887757, 0
160, 0.64160793154425, 0.094104066707341, 0
161, 0.58880617556638, 0.094067682031646, 0
162, 0.55293500338567, 0.13017040604329, 0
163, 0.52831135441347, 0.17968744650519, 0
164, 0.49220096621283, 0.21987877361951, 0
165, 0.44398311706396, 0.23941797366366, 0
166, 0.39159835492107, 0.23241479775805, 0
167, 0.34240031660627, 0.20572579444925, 0
168, 0.30039433634394, 0.16480623328535, 0
169, 0.27726762763758, 0.11086733496934, 0
170, 0.27810207564841, 0.053262547267123, 0
171, 0.2871159468503, -0.0029913934505376, 0
172, 0.27359484981561, -0.056532190365391, 0
173, 0.25582043212516, -0.10818571094195, 0
174, 0.26375668546341, -0.16301654670045, 0
175, 0.30539370690305, -0.1999782156406, 0
176, 0.35663017777764, -0.21956975624651, 0
177, 0.40413914121485, -0.24059952240033, 0
178, 0.45017776576511, -0.25611628124402, 0
179, 0.49607352484303, -0.24517716883093, 0
180, 0.5365538383039, -0.21680501748042, 0
181, 0.58697727907665, -0.21943711568267, 0
182, 0.63566843063195, -0.24083108104553, 0
183, 0.6854775415173, -0.25566039354916, 0
184, 0.73900528982229, -0.25579908980524, 0
185, 0.7816481410328, -0.22435779726959, 0
186, 0.7818888460369, -0.16959917465541, 0
187, 0.75342015615165, -0.11974608063948, 0
188, 0.71264640244652, -0.077791281558807, 0
189, 0.58749287321486, 0.25768581175084, 0
190, 0.11198436793023, 0.15858395847599, 0
191, 0.087769271291174, 0.13248647003936, 0
192, 0.02131390859169, -0.1390019367638, 0
193, 0.20303843070609, 0.036149500479337, 0
194, 0.20682684477571, 0.092086645898536, 0
195, 0.066065575238376, 0.13430170148832, 0
196, 0.5363076723375, -0.26484667736044, 0
197, 0.94652757538925, -0.19229037623477, 0
198, 0.89437922572512, -0.24701056239071, 0
199, 0.84243125867095, -0.2467540292457, 0
200, 0.94706422284106, -0.24639301945636, 0
201, 0.20702730239569, -0.22648226695097, 0
202, 0.16175568541215, -0.12221438534114, 0
203, 0.12205028690583, -0.0099253580995623, 0
204, 0.25950399347037, 0.084640841524944, 0
205, 0.11523562164596, 0.18661279567973, 0
206, 0.04526338931258, 0.1636508579267, 0
207, 0.10923780305902, 0.13064581322047, 0
208, 0.049463734721669, 0.24562956813848, 0
209, 0.14749917296463, 0.24211002712807, 0
210, 0.098638235836973, 0.24388733091219, 0
211, 0.2468923245127, 0.23795281540693, 0
212, 0.19637272594831, 0.24012814934222, 0
213, 0.31006517937948, 0.237418554927, 0
214, 0.37757587169371, 0.26609882183154, 0
215, 0.21063440944407, 0.12036022642526, 0
216, 0.063742801135329, -0.14124911524533, 0
217, 0.046702669943398, -0.22102220676541, 0
218, 0.020768190332278, 0.027980511147347, 0
219, 0.12338421235634, -0.11866287565971, 0
220, 0.024003737331311, 0.21968817652208, 0
221, 0.062579369752748, -0.11403942131077, 0
222, 0.16185523177127, -0.22466409430918, 0
223, 0.21164397392579, 0.20904372918863, 0
224, 0.02092777965866, -0.11135632982212, 0
225, 0.043660116567212, -0.16728492488445, 0
226, 0.043255162865726, 0.10851590286209, 0
227, 0.23172327169769, -0.27558051782609, 0
228, 0.041911065161325, 0.053401820113019, 0
229, 0.022685818511167, 0.16539263712194, 0
230, 0.19145998931752, 0.12260735713185, 0
231, 0.18531340159469, 0.066382161502119, 0
232, 0.16958123070695, -0.17467178148134, 0
233, 0.25414039363141, -0.05357690684103, 0
234, 0.16558323403684, 0.21214118643022, 0
235, 0.020994033042873, 0.055410960410219, 0
236, 0.045037435915718, -0.19427977465621, 0
237, 0.14818525709278, 0.098748723472905, 0
238, 0.12203488142863, -0.09173694296326, 0
239, 0.30188971602948, 0.19531665581503, 0
240, 0.36795056846523, -0.26760967569751, 0
241, 0.88883225354601, 0.1160376469144, 0
242, 0.83206727617087, 0.12012402309479, 0
243, 0.621041615761, 0.19754276162797, 0
244, 0.94501792335689, 0.16776401448157, 0
245, 0.65342493003321, 0.26034289381184, 0
246, 0.65333829952937, 0.28003469886167, 0
247, 0.68364806846082, 0.17216850852529, 0
248, 0.78349383983386, 0.27610573020151, 0
249, 0.83581336424141, 0.22464595104508, 0
250, 0.80634045499008, 0.20120462899323, 0
251, 0.94536646694507, 0.19450719822215, 0
252, 0.78008255835981, 0.2280925239755, 0
253, 0.75640287909005, 0.27683697423931, 0
254, 0.70362186124436, 0.2785470161807, 0
255, 0.91681413328434, 0.11472482114152, 0
256, 0.91791367265485, 0.19527200297598, 0
257, 0.49790036928833, 0.26896831069992, 0
258, 0.53539430405231, 0.24987635510873, 0
259, 0.65841205319288, 0.13187742289424, 0
260, 0.63252587857759, 0.1428601005107, 0
261, 0.83719706683192, 0.24987604098463, 0
262, 0.72787183345063, 0.25535264648031, 0
263, 0.63786218537579, 0.1886534441747, 0
264, 0.63169911908319, 0.22575156132885, 0
265, 0.83206278884839, 0.09255030154199, 0
266, 0.77343660263134, 0.099974878630562, 0
267, 0.7467809580358, 0.077325561003597, 0
268, 0.60053898869057, 0.22139535483937, 0
269, 0.83292342252489, 0.034891888185594, 0
270, 0.77629873524103, 0.041966654209706, 0
271, 0.88877239688724, 0.088532135746064, 0
272, 0.94459309360245, 0.086419324857603, 0
273, 0.8892614048055, 0.032233461335274, 0
274, 0.94480041236355, 0.031095355209678, 0
275, 0.94581229903744, -0.081232234447325, 0
276, 0.89204426428686, -0.08197064225184, 0
277, 0.94530339032895, -0.025007406809047, 0
278, 0.89054727272798, -0.025215273997372, 0
279, 0.84077154877042, -0.083456101653886, 0
280, 0.79650141543254, -0.094764615003741, 0
281, 0.83507366558683, -0.026230364202504, 0
282, 0.77170188630763, -0.03095342622249, 0
283, 0.72059247842129, -0.0035247041962027, 0
284, 0.89304786368226, -0.19410407208446, 0
285, 0.94603955186083, -0.13712130110824, 0
286, 0.89155067144692, -0.13833652554882, 0
287, 0.83046890339244, -0.13919181454797, 0
288, 0.84020881301059, -0.19953772853481, 0
289, 0.67512504962252, 0.23875681102119, 0
290, 0.88961469768711, 0.16985737206198, 0
291, 0.81783436783956, -0.085768243648282, 0
292, 0.84100921425814, -0.10913666267001, 0
293, 0.80861292082115, -0.11753978634336, 0
294, 0.7461434756011, -0.057366138941683, 0
295, 0.71405979830578, -0.032627853199663, 0
296, 0.74448485695412, -0.012601786903334, 0
297, 0.046515677147229, 0.19109509948072, 0
298, 0.27491021117079, 0.23709003409132, 0
299, 0.089721276311323, -0.19587294836263, 0
300, 0.46117519307953, 0.27786403664649, 0
301, 0.42877285681587, 0.27009654402414, 0
302, 0.1229080502983, 0.017599204647267, 0
303, 0.16576206085369, 0.068656948400641, 0
304, 0.13041557995935, 0.1287564167427, 0
305, 0.40026654626642, 0.27538321512815, 0
306, 0.37318439967297, 0.28318872515015, 0
307, 0.8160328677485, -0.24369105850754, 0
308, 0.81472024006311, -0.20612463712904, 0
309, 0.84355528539241, -0.22298037143315, 0
310, 0.14180376377437, -0.012041888156704, 0
311, 0.12568100346955, 0.072961202668249, 0
312, 0.17161827543363, 0.12475205315035, 0
313, 0.72545404593598, 0.2329940611061, 0
314, 0.71270645079749, 0.16428990689171, 0
315, 0.71701041875915, 0.083927638639724, 0
316, 0.75247478756465, 0.23036256055487, 0
317, 0.72224674843342, 0.21049048856596, 0
318, 0.25918456880084, -0.27570378392361, 0
319, 0.1408980861436, -0.066574149528515, 0
320, 0.24913852804051, -0.15983557938518, 0
321, 0.05071532318035, -0.27382202135943, 0
322, 0.26031728536482, -0.027080100939604, 0
323, 0.80300749590462, 0.1232082410896, 0
324, 0.83252770872347, 0.14701452320882, 0
325, 0.86612939578664, 0.27454110960077, 0
326, 0.56434825350298, 0.25413373290044, 0
327, 0.65260623791048, 0.24120513899419, 0
328, 0.60843937293578, 0.20755254718091, 0
329, 0.18443396817507, -0.2255873253193, 0
330, 0.12907284844407, -0.17177550291855, 0
331, 0.12775319930001, 0.10080156370759, 0
332, 0.14235010733049, 0.21348451657381, 0
333, 0.081714144526715, -0.060889793981968, 0
334, 0.18780254439263, 0.094398514151908, 0
335, 0.14281705936789, 0.015449982989593, 0
336, 0.074091651318892, 0.24474954005728, 0
337, 0.051138885703278, 0.27280784817795, 0
338, 0.10215213862796, 0.27188889591223, 0
339, 0.076664818776649, 0.27234466868155, 0
340, 0.16042054778503, -0.04150854700465, 0
341, 0.061839740947593, -0.086645155181694, 0
342, 0.061472296127098, -0.059095909133867, 0
343, 0.17995380722298, -0.1241535963977, 0
344, 0.25755355214137, 0.26927751588913, 0
345, 0.22119151234103, 0.23904281169143, 0
346, 0.20434093250304, 0.26995352422782, 0
347, 0.2305323628483, 0.26950545320446, 0
348, 0.97232232458753, 0.085780919756005, 0
349, 0.67814537656224, 0.27939307443486, 0
350, 0.77805507654494, 0.20373353627383, 0
351, 0.97322600236406, 0.2472321235353, 0
352, 0.972892435614, -0.080995960542923, 0
353, 0.94558747569343, -0.053148223558238, 0
354, 0.97265402027313, -0.024893985348223, 0
355, 0.97278447834563, -0.052952318812853, 0
356, 0.86357741514387, 0.22340104879393, 0
357, 0.91938482911665, 0.2478591429503, 0
358, 0.74987100176073, 0.20681907336549, 0
359, 0.86251345653736, 0.19754267848008, 0
360, 0.15304224679432, 0.27095007578228, 0
361, 0.12310088085858, 0.24301537544202, 0
362, 0.1275971719977, 0.27142748347113, 0
363, 0.89220419010398, 0.24837319126484, 0
364, 0.54631196230742, 0.1916426596049, 0
365, 0.75463590545594, 0.25365842373144, 0
366, 0.31665950634154, 0.27221003423841, 0
367, 0.28607730842305, 0.26973534595902, 0
368, 0.84193500499128, -0.27295247091621, 0
369, 0.86828842507698, -0.24722747646366, 0
370, 0.8946076705299, -0.27343579970374, 0
371, 0.86829130903009, -0.27340430539981, 0
372, 0.092510666869685, 0.18810619953834, 0
373, 0.067453524707632, -0.19501447251993, 0
374, 0.062063407869343, 0.023799565773821, 0
375, 0.071729531603379, 0.21717369540293, 0
376, 0.28316684570762, 0.16891880909114, 0
377, 0.23456803895788, 0.20714034880214, 0
378, 0.12148256254709, -0.064616040774286, 0
379, 0.10209485569546, -0.007863399478514, 0
380, 0.093194562907366, -0.22219248623841, 0
381, 0.12762888222596, -0.2744900793113, 0
382, 0.16024197457497, -0.09551968164441, 0
383, 0.94724040249077, -0.27321738746949, 0
384, 0.92066567712113, -0.24667299636282, 0
385, 0.92090741360067, -0.27333132183677, 0
386, 0.97303600382458, -0.13676062313143, 0
387, 0.94594331711765, -0.10922333111982, 0
388, 0.97296865793944, -0.10892672221184, 0
389, 0.94623717468684, -0.16484188670199, 0
390, 0.97326675829906, -0.19188316356857, 0
391, 0.97313493123922, -0.16440706930228, 0
392, 0.021675920160611, 0.11038637485864, 0
393, 0.021294458139854, 0.082812347359193, 0
394, 0.1784901432055, -0.097541758966483, 0
395, 0.17188861111647, 0.24115192560624, 0
396, 0.17859495812328, 0.27045392299544, 0
397, 0.83451903410328, 0.19916542844312, 0
398, 0.70602878717795, 0.13981864479815, 0
399, 0.80793810877543, 0.22619592673987, 0
400, 0.97242007739164, 0.030872084837344, 0
401, 0.94465233389615, 0.05887179181643, 0
402, 0.97235006947631, 0.058412572018715, 0
403, 0.89117224602474, 0.2224159913083, 0
404, 0.92035511503042, 0.27395347486474, 0
405, 0.74138500302837, 0.10545917568546, 0
406, 0.88911529927283, 0.14313186509654, 0
407, 0.66660614305284, 0.19945137828677, 0
408, 0.94477263780414, 0.14083948559514, 0
409, 0.5937977587816, 0.23832978204406, 0
410, 0.16822618431093, 0.096617701999948, 0
411, 0.26249279005073, 0.11321086803467, 0
412, 0.97352081791384, -0.24623050203184, 0
413, 0.97361254275767, -0.27314318061547, 0
414, 0.10699241538268, 0.1027897040125, 0
415, 0.12154201679383, -0.037336439123408, 0
416, 0.067699174596324, 0.16195865862418, 0
417, 0.041316429738208, -0.085077086330887, 0
418, 0.076276768999393, -0.27398816771593, 0
419, 0.94502543723748, 0.0031033341538826, 0
420, 0.97252564772816, 0.0030528180315443, 0
421, 0.74944530141139, 0.048310926961465, 0
422, 0.9446313478884, 0.11373295019843, 0
423, 0.80364000992121, 0.14985601283183, 0
424, 0.58184173118775, 0.27850684226776, 0
425, 0.94637972958236, 0.24747844244458, 0
426, 0.024764305553576, 0.24656220710069, 0
427, 0.02558546515343, 0.27329254806817, 0
428, 0.17851487737772, -0.070718290305264, 0
429, 0.086886408930251, -0.16931506009704, 0
430, 0.17945591841236, -0.043711877783298, 0
431, 0.24735697887127, -0.079662744446221, 0
432, 0.02055739022859, -0.055558555185449, 0
433, 0.02533642337645, -0.27374234724437, 0
434, 0.084500158123783, 0.077020198432057, 0
435, 0.063584801638061, 0.078989071118956, 0
436, 0.53713075040499, 0.27715519227036, 0
437, 0.51083385898332, 0.26139147419661, 0
438, 0.49898268740209, 0.28271017422352, 0
439, 0.5164239687989, 0.28017786342685, 0
440, 0.63750105216887, 0.11590629540237, 0
441, 0.57493959058339, 0.15162990402644, 0
442, 0.65033845502539, 0.22285417207834, 0
443, 0.10280715403378, 0.019694136840474, 0
444, 0.13772914600907, 0.18507004358599, 0
445, 0.10190378461846, -0.27421694531417, 0
446, 0.18183821931238, 0.18169903049524, 0
447, 0.70193705755921, 0.25717284094605, 0
448, 0.97253543600017, 0.16703652064897, 0
449, 0.9468263836396, -0.21944547943654, 0
450, 0.97340395268898, -0.21913366236954, 0
451, 0.67341975020069, 0.15116765315262, 0
452, 0.86162797509812, 0.17137612352687, 0
453, 0.085957288326005, 0.10472833143378, 0
454, 0.1639593073972, 0.040860806144722, 0
455, 0.082519267018517, 0.02175337493448, 0
456, 0.19659114010219, 0.15104102475869, 0
457, 0.26207710117135, 0.028194768593269, 0
458, 0.14587532623159, 0.070846143514615, 0
459, 0.55954241327825, 0.27731732498667, 0
460, 0.2045080015423, 0.06401190966339, 0
461, 0.041171403458676, -0.0017902160228038, 0
462, 0.91676157335367, 0.087307275330559, 0
463, 0.74370824766739, 0.15818934019348, 0
464, 0.53119324989699, 0.21258763473022, 0
465, 0.77596699019467, 0.1789349615561, 0
466, 0.63198523453912, 0.24259255366827, 0
467, 0.61338738142171, 0.12334471443873, 0
468, 0.55171189496533, 0.22424264203962, 0
469, 0.73600066880303, -0.2775508795095, 0
470, 0.68257076606715, -0.27716447187106, 0
471, 0.70918264352408, -0.27849909352043, 0
472, 0.63144293316692, -0.27087095217677, 0
473, 0.65683762061384, -0.27434724360958, 0
474, 0.51361150760614, 0.23233577846761, 0
475, 0.62634712636044, 0.17194968145725, 0
476, 0.30754316007329, -0.22125141121396, 0
477, 0.13373598150601, 0.15683796898503, 0
478, 0.023310214564254, 0.19269293606168, 0
479, 0.022140376447692, 0.13797006557001, 0
480, 0.10814952822511, -0.17049190005966, 0
481, 0.24260343273165, -0.13334482817476, 0
482, 0.61119606265147, 0.1546282233445, 0
483, 0.6475280200308, 0.16141879008123, 0
484, 0.69951207028572, 0.23588043274553, 0
485, 0.77481722841339, -0.10698147383635, 0
486, 0.80318382110116, -0.15569779616196, 0
487, 0.78915351919302, -0.13079584543839, 0
488, 0.49756585350769, -0.27576261419873, 0
489, 0.52201995118983, -0.25747306984249, 0
490, 0.53640058303227, -0.2801848901068, 0
491, 0.51812300880549, -0.27830857809403, 0
492, 0.15994739234286, 0.18344420233719, 0
493, 0.081946398104641, -0.0058367035317194, 0
494, 0.20526255502072, -0.27536940858056, 0
495, 0.14111605690459, -0.039386921975566, 0
496, 0.15339098685312, -0.2747894207852, 0
497, 0.18337809820714, -0.15044981958421, 0
498, 0.18215764626823, 0.010921767024388, 0
499, 0.14414069506944, 0.043080661805917, 0
500, 0.020680912103734, -0.083575716702669, 0
501, 0.047919173983062, 0.21840172776283, 0
502, 0.72470481434267, 0.02584111539131, 0
503, 0.69820958467104, 0.0054900621478692, 0
504, 0.70345731600292, 0.033058457267504, 0
505, 0.91894509986224, -0.13765051320437, 0
506, 0.89206914773313, -0.11000034100381, 0
507, 0.9188172892413, -0.081553690305424, 0
508, 0.91894801607415, -0.10960685738122, 0
509, 0.32761942864668, 0.22040806154809, 0
510, 0.35023603110286, 0.25679731616944, 0
511, 0.38397476618518, 0.24881627496697, 0
512, 0.35738426447627, 0.23760168982652, 0
513, 0.86056395638967, 0.09022138994301, 0
514, 0.61573636351771, 0.22633666698729, 0
515, 0.63097781186845, 0.26092207263075, 0
516, 0.83338608488361, 0.17332537257916, 0
517, 0.45647947967095, -0.27735447699404, 0
518, 0.47711123454581, -0.27667028768495, 0
519, 0.2001337681789, -0.018882772254421, 0
520, 0.042586723023879, -0.14007668862444, 0
521, 0.021848364887922, -0.16643187890806, 0
522, 0.58020793098679, -0.26982030372299, 0
523, 0.60599760582763, -0.26824213428745, 0
524, 0.20333736737452, 0.17979117484948, 0
525, 0.062713245047286, 0.051390340785676, 0
526, 0.069592540408891, 0.18958623822308, 0
527, 0.18867011965596, 0.21067934332549, 0
528, 0.22436246349697, 0.17766601768469, 0
529, 0.041468219345041, 0.025861259343674, 0
530, 0.064696535928489, 0.10663274585096, 0
531, 0.37103573244948, -0.28189983016046, 0
532, 0.35157885150632, -0.26178286120599, 0
533, 0.34915632768835, -0.28050869977494, 0
534, 0.91709893045928, 0.031540726465251, 0
535, 0.88892145905306, 0.060591502637531, 0
536, 0.91686015458828, 0.059573187617193, 0
537, 0.77303122525237, 0.12723466209813, 0
538, 0.94581793003977, 0.22106805448003, 0
539, 0.62910635538899, 0.21081709191659, 0
540, 0.6897819736308, 0.087087082106507, 0
541, 0.81102741003903, 0.275479136997, 0
542, 0.80484086991904, 0.17580638293522, 0
543, 0.89141142498828, -0.053777365377992, 0
544, 0.91794214660231, -0.025088752990733, 0
545, 0.91844303038611, -0.053395490421408, 0
546, 0.16255071259565, 0.013229632533862, 0
547, 0.10538371097431, -0.14388498980803, 0
548, 0.60930461174406, 0.260133178523, 0
549, 0.70231555331188, 0.06125206510899, 0
550, 0.91739473536582, 0.16867980936578, 0
551, 0.78501229069353, -0.067766296512672, 0
552, 0.75998464023589, -0.082505208923124, 0
553, 0.97271083041739, 0.1939339045595, 0
554, 0.59193265453065, 0.13513805381641, 0
555, 0.65869495599844, 0.18029465343621, 0
556, 0.72437829325507, 0.055067130378212, 0
557, 0.91978219074927, -0.19297648876052, 0
558, 0.8920622095147, -0.16666313231738, 0
559, 0.91925281822442, -0.1655365331603, 0
560, 0.26306319282184, 0.00031756716953335, 0
561, 0.78756159705927, -0.26928216190644, 0
562, 0.81520524857901, -0.27161465481603, 0
563, 0.4078461017024, 0.25806482926524, 0
564, 0.28839153545463, -0.27584389714203, 0
565, 0.10227217553751, -0.089968911607785, 0
566, 0.022534355315004, -0.19369104380392, 0
567, 0.89395183977185, -0.22070846358422, 0
568, 0.92030746668678, -0.21995418510714, 0
569, 0.88979939819603, 0.003556799075565, 0
570, 0.9174678741245, 0.0032751606584155, 0
571, 0.60543508694967, 0.27969801852808, 0
572, 0.59343498342648, 0.16873384938601, 0
573, 0.15502651517711, -0.19907355266262, 0
574, 0.042503103808624, 0.080925158245094, 0
575, 0.48401759510222, 0.26167618769123, 0
576, 0.48162162569553, 0.28081431425825, 0
577, 0.34732888218392, 0.27851521689858, 0
578, 0.86122055712443, 0.033273684277688, 0
579, 0.83241598069667, 0.064183416723115, 0
580, 0.8607835033611, 0.062056520979271, 0
581, 0.15514491336113, 0.1550154084359, 0
582, 0.27020601071516, 0.14155689158546, 0
583, 0.3812792700668, -0.25791185382769, 0
584, 0.1761306910994, 0.15309075304961, 0
585, 0.36324597065175, -0.24586576282298, 0
586, 0.83641444666658, -0.17296258483072, 0
587, 0.81053969879269, -0.18294672226932, 0
588, 0.41391022301681, -0.27457028238013, 0
589, 0.39140725842868, -0.27768904639302, 0
590, 0.041067462375246, -0.057325786147125, 0
591, 0.17614948255371, -0.2003173515823, 0
592, 0.54999809415903, -0.25534971226923, 0
593, 0.55532026080871, -0.27698316259281, 0
594, 0.69186065805678, -0.022445437050902, 0
595, 0.76237472171628, -0.27386009655696, 0
596, 0.065364049915691, -0.16824545999995, 0
597, 0.86642003380088, -0.19603323589445, 0
598, 0.86806393535298, -0.22174528953615, 0
599, 0.4354945024225, -0.27642543429843, 0
600, 0.86302785845509, -0.025516059457264, 0
601, 0.83363523182556, 0.0046173495768915, 0
602, 0.86191705329164, 0.0039648114240183, 0
603, 0.74117260559416, 0.13250202668636, 0
604, 0.78191633678189, 0.25217279630648, 0
605, 0.86478484995108, 0.24903780476767, 0
606, 0.91857615378645, 0.22164970687628, 0
607, 0.86313471341765, -0.13906312505329, 0
608, 0.86444701979451, -0.1686707290731, 0
609, 0.26000012458252, 0.056209245232102, 0
610, 0.061627829402967, -0.0038218800014653, 0
611, 0.09541586434411, 0.21596787745497, 0
612, 0.10345015256433, -0.11703445832479, 0
613, 0.53598336943517, -0.24078105679188, 0
614, 0.2427030926834, -0.10617861670304, 0
615, 0.069995596939197, -0.22154612160991, 0
616, 0.08315249006949, -0.11549534416487, 0
617, 0.28266474913944, -0.20409426206692, 0
618, 0.77559929119076, 0.0096672196388356, 0
619, 0.61280340085442, 0.24198995621818, 0
620, 0.7487953447895, 0.018195495838716, 0
621, 0.72968735042691, 0.27766598928643, 0
622, 0.6089315271416, 0.1837593472015, 0
623, 0.02054111065964, -0.027514081181271, 0
624, 0.26282608058068, -0.18373359259401, 0
625, 0.12569399836275, -0.14535389138451, 0
626, 0.10521107612407, 0.075014740025073, 0
627, 0.14553537939868, -0.14693047994841, 0
628, 0.10173615203628, -0.062724941720947, 0
629, 0.49552144277755, 0.24704068536604, 0
630, 0.80571166176614, -0.02778157835669, 0
631, 0.80445056719737, 0.037554673909832, 0
632, 0.80473446723951, 0.0059879431193285, 0
633, 0.77411161674092, 0.15350392646587, 0
634, 0.69597276007696, 0.21464776710146, 0
635, 0.80951774916279, 0.25091405317269, 0
636, 0.86061593937607, 0.11778961824486, 0
637, 0.91702557924656, 0.14184010457352, 0
638, 0.15992753323029, -0.068607017330333, 0
639, 0.044174959603463, 0.13611798387647, 0
640, 0.10171452662816, -0.035344199103932, 0
641, 0.11625633050349, -0.22294044324138, 0
642, 0.020615241504042, 0.00029042816049335, 0
643, 0.13914569289408, -0.2237714153642, 0
644, 0.041030244948256, -0.02951875688821, 0
645, 0.16136656318339, -0.014229182095045, 0
646, 0.2163969358874, 0.14885003609434, 0
647, 0.69087600044107, 0.19341947175853, 0
648, 0.74686482127264, 0.1828467590104, 0
649, 0.67706341668414, 0.25893973638415, 0
650, 0.77528256234986, 0.071667429211975, 0
651, 0.80314455883127, 0.095732967784727, 0
652, 0.8038618729408, 0.067284201292257, 0
653, 0.1835745966459, 0.038555070487143, 0
654, 0.18903316077219, -0.17629674690185, 0
655, 0.08218207673399, -0.08827419283854, 0
656, 0.8386488192086, 0.27496031832437, 0
657, 0.86097711412046, 0.14481787517107, 0
658, 0.11177762790593, -0.19684184934451, 0
659, 0.083365198165194, 0.049367344008951, 0
660, 0.13356231942793, -0.19791172337634, 0
661, 0.56507498547897, 0.20347176656799, 0
662, 0.67184098709397, 0.21892312747264, 0
663, 0.14138854622746, -0.093585376917734, 0
664, 0.081661410377748, -0.033393418947748, 0
665, 0.12409901754529, 0.045228369744296, 0
666, 0.10383538241054, 0.047318790493969, 0
667, 0.17922631936095, -0.27509271993907, 0
668, 0.62916059897207, 0.28021891188597, 0
669, 0.59485183046703, 0.19734606911255, 0
670, 0.86581165866731, -0.082530049821149, 0
671, 0.86564960181197, -0.11012233213261, 0
672, 0.97241275486488, 0.14003022408917, 0
673, 0.97293987254673, 0.22064691718112, 0
674, 0.83801944860204, -0.056014979895218, 0
675, 0.81160495443231, -0.059545476870266, 0
676, 0.20173669713772, 0.0085080430639245, 0
677, 0.19696123310312, -0.20162279927033, 0
678, 0.023360056712484, -0.22064419326466, 0
679, 0.89030771583324, 0.19626590016826, 0
680, 0.061419104211498, -0.031461945204694, 0
681, 0.084703181489031, -0.14251807115319, 0
682, 0.14285646981561, -0.12038699939403, 0
683, 0.14957522722275, -0.17316732375049, 0
684, 0.86458118351409, -0.054488902049608, 0
685, 0.97234220377444, 0.11296186306676, 0
686, 0.82253318752772, -0.10497626816089, 0
687, 0.73493865856964, -0.03581124238282, 0
688, 0.1512362415236, 0.12679760215436, 0
689, 0.44439174769279, 0.28122971752868, 0
690, 0.089954447975448, 0.16028083428892, 0
691, 0.39140568868246, 0.28744524960204, 0
692, 0.8230999371843, -0.22390786678304, 0
693, 0.041812173412875, -0.11266159227916, 0
694, 0.64582320242501, 0.205394688558, 0
695, 0.57360957307588, 0.23239212655932, 0
696, 0.16480100295141, -0.14862398921236, 0
697, 0.18078049505262, -0.016503421804054, 0
698, 0.89343989799276, 0.27420860246906, 0
699, 0.58361306322491, 0.21353289584063, 0
700, 0.11896013369714, 0.21474910131244, 0
701, 0.94707374852615, 0.27376601462232, 0
702, 0.97357399243776, 0.27364394380297, 0
703, 0.19824621918393, -0.046005521489382, 0
704, 0.19660206275907, -0.072904102357957, 0
705, 0.19600978520017, -0.099646527671037, 0
706, 0.19730368001393, -0.12621500142586, 0
707, 0.20115476929882, -0.1524325439652, 0
708, 0.20791437138726, -0.17805183079256, 0
709, 0.21758879214228, -0.20294458762159, 0
710, 0.22996657563436, -0.22723033065063, 0
711, 0.25755502007307, 0.20479076036615, 0
712, 0.24480821651015, 0.17524942333487, 0
713, 0.23539019252647, 0.14651553228053, 0
714, 0.22898690368416, 0.11802098052265, 0
715, 0.22519605103897, 0.08968422658414, 0
716, 0.22333598370922, 0.061537204446743, 0
717, 0.22245376057835, 0.03363004510757, 0
718, 0.22146995332578, 0.0059649016664121, 0
719, 0.21959124118492, -0.021394571812528, 0
720, 0.2168527332569, -0.048398846340131, 0
721, 0.21413094187276, -0.075149244483665, 0
722, 0.21265754712339, -0.10181710884761, 0
723, 0.21364083490469, -0.12841333705763, 0
724, 0.21803882657418, -0.15461249249108, 0
725, 0.22629801603978, -0.17994142241158, 0
726, 0.23835039737807, -0.20417190214098, 0
727, 0.25398880372622, -0.22757787359444, 0
728, 0.33622664475131, -0.23538271725895, 0
729, 0.31972226864267, -0.27681862173911, 0
730, 0.28098865185682, 0.20168991890892, 0
731, 0.26455788830896, 0.17243916844269, 0
732, 0.25339202333484, 0.14406319955576, 0
733, 0.24633776234398, 0.11562001682755, 0
734, 0.24279416455873, 0.087199517441903, 0
735, 0.24181102389541, 0.058945558870108, 0
736, 0.2420122407206, 0.030982204857289, 0
737, 0.2416922351821, 0.0032563838656105, 0
738, 0.23945576964195, -0.024089155983926, 0
739, 0.23540105117612, -0.050908605076398, 0
740, 0.23105294301213, -0.077421593123788, 0
741, 0.22827461291022, -0.10401717962137, 0
742, 0.22879352824359, -0.13077390763708, 0
743, 0.23400277049279, -0.15705497906113, 0
744, 0.24447004975423, -0.18193421821547, 0
745, 0.26009438590932, -0.20501388993429, 0
746, 0.28137192100027, -0.22692997060941, 0
747, 0.024307701070327, -0.2473802713385, 0
748, 0.048619836691331, -0.24753541180012, 0
749, 0.072953699215538, -0.24785960646553, 0
750, 0.097271034749821, -0.24829557926959, 0
751, 0.12155068758357, -0.24881237555285, 0
752, 0.14577404706116, -0.24938565573421, 0
753, 0.16997358775615, -0.24998661433601, 0
754, 0.19428045279243, -0.25057242644339, 0
755, 0.21900401559898, -0.25107014301787, 0
756, 0.24488986909983, -0.2513568299855, 0
757, 0.2738070184244, -0.25123073425562, 0
758, 0.31250078919832, -0.25031781659334, 0
759, 0.56034151323829, 0.17101756907758, 0
760, 0.66606666567314, 0.10591675715971, 0
761, 0.61776030256287, 0.21489933064683, 0
762, 0.71805643568876, 0.18767946648371, 0
763, 0.57841299876244, 0.18506845851834, 0
764, 0.69775745951389, 0.11309797221266, 0
******* E L E M E N T S *************
*ELEMENT, type=T3D2, ELSET=Line1
1, 1, 10
2, 10, 18
3, 18, 11
4, 11, 19
5, 19, 12
6, 12, 20
7, 20, 13
8, 13, 21
9, 21, 14
10, 14, 22
11, 22, 15
12, 15, 23
13, 23, 16
14, 16, 24
15, 24, 17
16, 17, 2
*ELEMENT, type=T3D2, ELSET=Line2
17, 2, 25
18, 25, 29
19, 29, 26
20, 26, 30
21, 30, 27
22, 27, 31
23, 31, 28
24, 28, 3
*ELEMENT, type=T3D2, ELSET=Line3
25, 3, 32
26, 32, 40
27, 40, 33
28, 33, 41
29, 41, 34
30, 34, 42
31, 42, 35
32, 35, 43
33, 43, 36
34, 36, 44
35, 44, 37
36, 37, 45
37, 45, 38
38, 38, 46
39, 46, 39
40, 39, 4
*ELEMENT, type=T3D2, ELSET=Line4
41, 4, 47
42, 47, 58
43, 58, 48
44, 48, 59
45, 59, 49
46, 49, 60
47, 60, 50
48, 50, 61
49, 61, 51
50, 51, 62
51, 62, 52
52, 52, 63
53, 63, 53
54, 53, 64
55, 64, 54
56, 54, 65
57, 65, 55
58, 55, 66
59, 66, 56
60, 56, 67
61, 67, 57
62, 57, 5
*ELEMENT, type=T3D2, ELSET=Line5
63, 5, 68
64, 68, 76
65, 76, 69
66, 69, 77
67, 77, 70
68, 70, 78
69, 78, 71
70, 71, 79
71, 79, 72
72, 72, 80
73, 80, 73
74, 73, 81
75, 81, 74
76, 74, 82
77, 82, 75
78, 75, 6
*ELEMENT, type=T3D2, ELSET=Line6
79, 6, 83
80, 83, 87
81, 87, 84
82, 84, 88
83, 88, 85
84, 85, 89
85, 89, 86
86, 86, 7
*ELEMENT, type=T3D2, ELSET=Line7
87, 7, 90
88, 90, 98
89, 98, 91
90, 91, 99
91, 99, 92
92, 92, 100
93, 100, 93
94, 93, 101
95, 101, 94
96, 94, 102
97, 102, 95
98, 95, 103
99, 103, 96
100, 96, 104
101, 104, 97
102, 97, 8
*ELEMENT, type=T3D2, ELSET=Line8
103, 8, 105
104, 105, 116
105, 116, 106
106, 106, 117
107, 117, 107
108, 107, 118
109, 118, 108
110, 108, 119
111, 119, 109
112, 109, 120
113, 120, 110
114, 110, 121
115, 121, 111
116, 111, 122
117, 122, 112
118, 112, 123
119, 123, 113
120, 113, 124
121, 124, 114
122, 114, 125
123, 125, 115
124, 115, 1
*ELEMENT, type=T3D2, ELSET=Line9
125, 9, 126
126, 126, 158
127, 158, 156
128, 156, 159
129, 159, 155
130, 155, 160
131, 160, 154
132, 154, 161
133, 161, 153
134, 153, 162
135, 162, 152
136, 152, 163
137, 163, 151
138, 151, 164
139, 164, 150
140, 150, 165
141, 165, 149
142, 149, 166
143, 166, 148
144, 148, 167
145, 167, 147
146, 147, 168
147, 168, 146
148, 146, 169
149, 169, 145
150, 145, 170
151, 170, 144
152, 144, 171
153, 171, 143
154, 143, 172
155, 172, 142
156, 142, 173
157, 173, 141
158, 141, 174
159, 174, 140
160, 140, 175
161, 175, 139
162, 139, 176
163, 176, 138
164, 138, 177
165, 177, 137
166, 137, 178
167, 178, 136
168, 136, 179
169, 179, 135
170, 135, 180
171, 180, 134
172, 134, 181
173, 181, 133
174, 133, 182
175, 182, 132
176, 132, 183
177, 183, 131
178, 131, 184
179, 184, 130
180, 130, 185
181, 185, 129
182, 129, 186
183, 186, 128
184, 128, 187
185, 187, 127
186, 127, 188
187, 188, 157
188, 157, 9
*ELEMENT, type=CPS4, ELSET=Surface1
189, 654, 497, 696, 232
190, 655, 333, 342, 341
191, 332, 209, 361, 700
192, 645, 546, 335, 310
193, 210, 338, 339, 336
194, 336, 339, 337, 208
195, 339, 96, 104, 337
196, 338, 103, 96, 339
197, 227, 494, 21, 14
198, 416, 526, 297, 206
199, 206, 297, 478, 229
200, 754, 329, 222, 753
201, 100, 93, 347, 344
202, 344, 347, 345, 211
203, 347, 346, 212, 345
204, 93, 101, 346, 347
205, 254, 349, 649, 447
206, 647, 634, 662, 407
207, 425, 357, 606, 538
208, 75, 6, 424, 571
209, 62, 354, 355, 51
210, 51, 355, 352, 61
211, 355, 353, 275, 352
212, 354, 277, 353, 355
213, 538, 606, 256, 251
214, 572, 622, 669, 763
215, 242, 323, 651, 265
216, 662, 289, 327, 442
217, 210, 361, 362, 338
218, 338, 362, 95, 103
219, 362, 360, 102, 95
220, 361, 209, 360, 362
221, 256, 679, 290, 550
222, 56, 673, 553, 66
223, 359, 397, 516, 452
224, 80, 73, 254, 621
225, 213, 366, 367, 298
226, 298, 367, 344, 211
227, 367, 92, 100, 344
228, 366, 99, 92, 367
229, 44, 37, 371, 368
230, 368, 371, 369, 199
231, 371, 370, 198, 369
232, 37, 45, 370, 371
233, 335, 499, 665, 302
234, 591, 232, 683, 573
235, 220, 426, 116, 106
236, 660, 330, 480, 658
237, 547, 612, 616, 681
238, 225, 520, 192, 521
239, 747, 125, 115, 433
240, 497, 343, 202, 696
241, 584, 446, 492, 581
242, 311, 331, 414, 626
243, 228, 574, 393, 235
244, 640, 379, 493, 664
245, 200, 384, 385, 383
246, 383, 385, 38, 46
247, 385, 370, 45, 38
248, 384, 198, 370, 385
249, 61, 352, 388, 50
250, 50, 388, 386, 60
251, 388, 387, 285, 386
252, 352, 275, 387, 388
253, 197, 390, 391, 389
254, 389, 391, 386, 285
255, 391, 49, 60, 386
256, 390, 59, 49, 391
257, 665, 311, 626, 666
258, 664, 493, 610, 680
259, 457, 144, 170, 609
260, 428, 430, 340, 638
261, 101, 94, 396, 346
262, 346, 396, 395, 212
263, 396, 360, 209, 395
264, 94, 102, 360, 396
265, 151, 464, 474, 164
266, 76, 69, 404, 701
267, 465, 350, 358, 648
268, 77, 70, 325, 698
269, 63, 53, 402, 400
270, 400, 402, 401, 274
271, 402, 348, 272, 401
272, 53, 64, 348, 402
273, 263, 694, 539, 243
274, 351, 425, 538, 673
275, 241, 636, 513, 271
276, 475, 263, 243, 622
277, 79, 72, 253, 248
278, 314, 463, 648, 762
279, 70, 78, 656, 325
280, 637, 406, 241, 255
281, 378, 415, 640, 628
282, 499, 458, 311, 665
283, 729, 23, 16, 533
284, 478, 220, 106, 117
285, 200, 383, 413, 412
286, 412, 413, 47, 58
287, 413, 39, 4, 47
288, 383, 46, 39, 413
289, 696, 202, 682, 627
290, 758, 757, 564, 729
291, 642, 218, 120, 110
292, 666, 626, 434, 659
293, 219, 238, 565, 612
294, 322, 143, 171, 560
295, 230, 456, 584, 312
296, 741, 614, 431, 740
297, 62, 52, 420, 354
298, 354, 420, 419, 277
299, 420, 400, 274, 419
300, 52, 63, 400, 420
301, 72, 80, 621, 253
302, 466, 515, 548, 619
303, 550, 290, 406, 637
304, 66, 553, 448, 55
305, 452, 516, 324, 657
306, 253, 621, 262, 365
307, 406, 657, 636, 241
308, 259, 451, 483, 260
309, 104, 97, 427, 337
310, 337, 427, 426, 208
311, 427, 105, 116, 426
312, 97, 8, 105, 427
313, 434, 453, 530, 435
314, 627, 682, 219, 625
315, 663, 319, 378, 238
316, 573, 683, 330, 660
317, 341, 342, 590, 417
318, 340, 645, 310, 495
319, 320, 174, 141, 481
320, 231, 334, 410, 303
321, 623, 642, 110, 121
322, 223, 345, 212, 527
323, 525, 435, 574, 228
324, 319, 495, 415, 378
325, 87, 84, 439, 436
326, 436, 439, 437, 258
327, 439, 438, 257, 437
328, 84, 88, 438, 439
329, 323, 537, 266, 651
330, 669, 328, 268, 699
331, 482, 475, 622, 572
332, 603, 537, 633, 463
333, 493, 455, 374, 610
334, 501, 208, 426, 220
335, 560, 171, 144, 457
336, 299, 429, 596, 373
337, 334, 230, 312, 410
338, 380, 299, 373, 615
339, 492, 234, 332, 444
340, 648, 358, 317, 762
341, 313, 262, 447, 484
342, 261, 635, 399, 249
343, 65, 672, 685, 54
344, 59, 390, 450, 48
345, 48, 450, 412, 58
346, 450, 449, 200, 412
347, 390, 197, 449, 450
348, 440, 467, 161, 154
349, 314, 762, 647, 247
350, 673, 538, 251, 553
351, 255, 241, 271, 462
352, 564, 318, 22, 15
353, 392, 479, 118, 108
354, 683, 627, 625, 330
355, 590, 644, 623, 432
356, 734, 204, 411, 733
357, 756, 755, 227, 318
358, 238, 378, 628, 565
359, 495, 310, 203, 415
360, 6, 83, 459, 424
361, 424, 459, 326, 189
362, 459, 436, 258, 326
363, 83, 87, 436, 459
364, 520, 693, 224, 192
365, 639, 206, 229, 479
366, 565, 628, 333, 655
367, 677, 654, 232, 591
368, 404, 698, 363, 357
369, 668, 571, 548, 515
370, 267, 421, 270, 650
371, 685, 422, 272, 348
372, 316, 365, 262, 313
373, 289, 649, 245, 327
374, 421, 620, 618, 270
375, 760, 160, 155, 540
376, 183, 470, 471, 131
377, 131, 471, 469, 184
378, 471, 34, 42, 469
379, 470, 41, 34, 471
380, 40, 33, 473, 472
381, 472, 473, 132, 182
382, 473, 470, 183, 132
383, 33, 41, 470, 473
384, 252, 604, 365, 316
385, 152, 759, 364, 163
386, 409, 619, 548, 189
387, 441, 759, 152, 162
388, 453, 191, 195, 530
389, 566, 521, 113, 124
390, 329, 591, 573, 222
391, 581, 492, 444, 477
392, 331, 304, 207, 414
393, 376, 168, 147, 239
394, 582, 146, 168, 376
395, 333, 664, 680, 342
396, 657, 324, 242, 636
397, 73, 81, 349, 254
398, 397, 250, 542, 516
399, 656, 541, 635, 261
400, 187, 128, 487, 485
401, 485, 487, 293, 280
402, 487, 486, 287, 293
403, 128, 186, 486, 487
404, 30, 27, 491, 488
405, 488, 491, 489, 179
406, 491, 490, 196, 489
407, 27, 31, 490, 491
408, 596, 216, 520, 225
409, 481, 141, 173, 614
410, 446, 527, 234, 492
411, 500, 432, 111, 122
412, 224, 500, 122, 112
413, 235, 393, 119, 109
414, 750, 380, 615, 749
415, 643, 660, 658, 641
416, 207, 190, 690, 191
417, 218, 235, 109, 120
418, 755, 754, 494, 227
419, 195, 416, 206, 639
420, 763, 669, 699, 661
421, 502, 504, 503, 283
422, 504, 156, 158, 503
423, 328, 761, 514, 268
424, 285, 387, 508, 505
425, 505, 508, 506, 286
426, 508, 507, 276, 506
427, 387, 275, 507, 508
428, 167, 148, 512, 509
429, 509, 512, 510, 213
430, 512, 511, 214, 510
431, 148, 166, 511, 512
432, 315, 556, 421, 267
433, 244, 550, 637, 408
434, 74, 82, 668, 246
435, 554, 441, 162, 153
436, 29, 26, 518, 517
437, 517, 518, 136, 178
438, 518, 488, 179, 136
439, 26, 30, 488, 518
440, 431, 142, 172, 233
441, 321, 433, 10, 18
442, 736, 457, 609, 735
443, 667, 496, 20, 13
444, 182, 133, 523, 472
445, 472, 523, 32, 40
446, 523, 522, 3, 32
447, 133, 181, 522, 523
448, 375, 336, 208, 501
449, 477, 444, 205, 190
450, 373, 596, 225, 236
451, 435, 530, 226, 574
452, 616, 655, 341, 221
453, 739, 233, 322, 738
454, 236, 225, 521, 566
455, 700, 361, 210, 611
456, 240, 532, 533, 531
457, 531, 533, 16, 24
458, 614, 173, 142, 431
459, 433, 115, 1, 10
460, 274, 401, 536, 534
461, 534, 536, 535, 273
462, 536, 462, 271, 535
463, 401, 272, 462, 536
464, 327, 245, 515, 466
465, 463, 633, 465, 648
466, 357, 363, 403, 606
467, 764, 405, 603, 398
468, 55, 448, 672, 65
469, 694, 442, 264, 539
470, 324, 423, 323, 242
471, 571, 424, 189, 548
472, 275, 353, 545, 507
473, 507, 545, 543, 276
474, 545, 544, 278, 543
475, 353, 277, 544, 545
476, 753, 222, 643, 752
477, 429, 681, 216, 596
478, 205, 700, 611, 372
479, 742, 481, 614, 741
480, 290, 452, 657, 406
481, 701, 404, 357, 425
482, 549, 159, 156, 504
483, 264, 466, 619, 514
484, 280, 551, 552, 485
485, 485, 552, 127, 187
486, 552, 294, 188, 127
487, 551, 282, 294, 552
488, 635, 604, 252, 399
489, 248, 253, 365, 604
490, 516, 542, 423, 324
491, 539, 264, 514, 761
492, 286, 558, 559, 505
493, 505, 559, 389, 285
494, 559, 557, 197, 389
495, 558, 284, 557, 559
496, 414, 207, 191, 453
497, 530, 195, 639, 226
498, 217, 236, 566, 678
499, 688, 581, 477, 304
500, 199, 307, 562, 368
501, 368, 562, 36, 44
502, 562, 561, 43, 36
503, 307, 185, 561, 562
504, 166, 149, 563, 511
505, 511, 563, 305, 214
506, 563, 301, 7, 305
507, 149, 165, 301, 563
508, 749, 615, 217, 748
509, 641, 658, 299, 380
510, 728, 585, 138, 176
511, 393, 392, 108, 119
512, 198, 384, 568, 567
513, 567, 568, 557, 284
514, 568, 449, 197, 557
515, 384, 200, 449, 568
516, 277, 419, 570, 544
517, 544, 570, 569, 278
518, 570, 534, 273, 569
519, 419, 274, 534, 570
520, 350, 252, 316, 358
521, 484, 447, 649, 289
522, 541, 248, 604, 635
523, 69, 77, 698, 404
524, 191, 690, 416, 195
525, 302, 665, 666, 443
526, 297, 501, 220, 478
527, 342, 680, 644, 590
528, 89, 300, 576, 85
529, 85, 576, 438, 88
530, 576, 575, 257, 438
531, 300, 165, 575, 576
532, 99, 366, 577, 91
533, 91, 577, 306, 98
534, 577, 510, 214, 306
535, 366, 213, 510, 577
536, 273, 535, 580, 578
537, 578, 580, 579, 269
538, 580, 513, 265, 579
539, 535, 271, 513, 580
540, 379, 443, 455, 493
541, 746, 476, 617, 745
542, 527, 212, 395, 234
543, 751, 750, 445, 381
544, 735, 609, 204, 734
545, 138, 585, 583, 177
546, 585, 532, 240, 583
547, 444, 332, 700, 205
548, 186, 129, 587, 486
549, 486, 587, 586, 287
550, 587, 308, 288, 586
551, 129, 185, 308, 587
552, 2, 588, 589, 17
553, 17, 589, 531, 24
554, 589, 583, 240, 531
555, 588, 177, 583, 589
556, 410, 312, 688, 237
557, 455, 659, 525, 374
558, 625, 219, 612, 547
559, 232, 696, 627, 683
560, 3, 522, 593, 28
561, 28, 593, 490, 31
562, 593, 592, 196, 490
563, 522, 181, 592, 593
564, 9, 157, 594, 126
565, 126, 594, 503, 158
566, 594, 295, 283, 503
567, 157, 188, 295, 594
568, 43, 561, 595, 35
569, 35, 595, 469, 42
570, 595, 130, 184, 469
571, 561, 185, 130, 595
572, 737, 560, 457, 736
573, 226, 639, 479, 392
574, 697, 498, 546, 645
575, 615, 373, 236, 217
576, 199, 369, 598, 309
577, 309, 598, 597, 288
578, 598, 567, 284, 597
579, 369, 198, 567, 598
580, 178, 137, 599, 517
581, 517, 599, 25, 29
582, 599, 588, 2, 25
583, 137, 177, 588, 599
584, 278, 569, 602, 600
585, 600, 602, 601, 281
586, 602, 578, 269, 601
587, 569, 273, 578, 602
588, 78, 71, 541, 656
589, 249, 399, 250, 397
590, 260, 483, 475, 482
591, 759, 763, 661, 364
592, 81, 74, 246, 349
593, 553, 251, 244, 448
594, 622, 243, 328, 669
595, 423, 633, 537, 323
596, 287, 586, 608, 607
597, 607, 608, 558, 286
598, 608, 597, 284, 558
599, 586, 288, 597, 608
600, 729, 564, 15, 23
601, 743, 320, 481, 742
602, 747, 678, 114, 125
603, 748, 747, 433, 321
604, 372, 611, 375, 526
605, 498, 653, 454, 546
606, 753, 752, 496, 667
607, 626, 414, 453, 434
608, 196, 592, 613, 489
609, 489, 613, 135, 179
610, 613, 134, 180, 135
611, 592, 181, 134, 613
612, 204, 145, 169, 411
613, 480, 547, 681, 429
614, 758, 729, 533, 532
615, 617, 175, 140, 624
616, 358, 316, 313, 317
617, 618, 620, 296, 282
618, 620, 502, 283, 296
619, 762, 317, 634, 647
620, 699, 268, 409, 695
621, 163, 364, 464, 151
622, 661, 699, 695, 468
623, 363, 605, 356, 403
624, 752, 751, 381, 496
625, 216, 221, 693, 520
626, 748, 217, 678, 747
627, 732, 582, 376, 731
628, 546, 454, 499, 335
629, 318, 227, 14, 22
630, 610, 374, 529, 461
631, 234, 395, 209, 332
632, 678, 566, 124, 114
633, 690, 372, 526, 416
634, 638, 340, 495, 319
635, 417, 590, 432, 500
636, 257, 575, 629, 437
637, 437, 629, 474, 258
638, 629, 150, 164, 474
639, 575, 165, 150, 629
640, 269, 631, 632, 601
641, 601, 632, 630, 281
642, 632, 618, 282, 630
643, 631, 270, 618, 632
644, 250, 350, 465, 542
645, 679, 359, 452, 290
646, 605, 261, 249, 356
647, 71, 79, 248, 541
648, 467, 554, 153, 161
649, 621, 254, 447, 262
650, 325, 656, 261, 605
651, 636, 242, 265, 513
652, 432, 623, 121, 111
653, 524, 223, 527, 446
654, 653, 231, 303, 454
655, 192, 224, 112, 123
656, 479, 229, 107, 118
657, 574, 226, 392, 393
658, 445, 418, 11, 19
659, 628, 640, 664, 333
660, 529, 228, 235, 218
661, 733, 411, 582, 732
662, 740, 431, 233, 739
663, 382, 638, 319, 663
664, 448, 244, 408, 672
665, 442, 327, 466, 264
666, 422, 255, 462, 272
667, 356, 249, 397, 359
668, 265, 651, 652, 579
669, 579, 652, 631, 269
670, 652, 650, 270, 631
671, 651, 266, 650, 652
672, 202, 382, 663, 682
673, 430, 697, 645, 340
674, 456, 524, 446, 584
675, 659, 434, 435, 525
676, 237, 688, 304, 331
677, 239, 147, 167, 509
678, 496, 381, 12, 20
679, 682, 663, 238, 219
680, 246, 668, 515, 245
681, 405, 267, 650, 266
682, 247, 647, 407, 555
683, 67, 351, 673, 56
684, 394, 428, 638, 382
685, 411, 169, 146, 582
686, 728, 176, 139, 476
687, 304, 477, 190, 207
688, 702, 701, 425, 351
689, 251, 256, 550, 244
690, 243, 539, 761, 328
691, 399, 252, 350, 250
692, 680, 610, 461, 644
693, 454, 303, 458, 499
694, 745, 617, 624, 744
695, 749, 748, 321, 418
696, 751, 641, 380, 750
697, 343, 394, 382, 202
698, 415, 203, 379, 640
699, 494, 667, 13, 21
700, 233, 172, 143, 322
701, 624, 140, 174, 320
702, 757, 756, 318, 564
703, 312, 584, 581, 688
704, 634, 484, 289, 662
705, 54, 685, 348, 64
706, 698, 325, 605, 363
707, 349, 246, 245, 649
708, 556, 502, 620, 421
709, 468, 695, 326, 258
710, 695, 409, 189, 326
711, 540, 155, 159, 549
712, 276, 670, 671, 506
713, 506, 671, 607, 286
714, 671, 292, 287, 607
715, 670, 279, 292, 671
716, 556, 549, 504, 502
717, 364, 661, 468, 464
718, 464, 468, 258, 474
719, 57, 702, 351, 67
720, 281, 630, 675, 674
721, 674, 675, 291, 279
722, 675, 551, 280, 291
723, 630, 282, 551, 675
724, 203, 302, 443, 379
725, 229, 478, 117, 107
726, 752, 643, 641, 751
727, 758, 532, 585, 728
728, 408, 637, 255, 422
729, 268, 514, 619, 409
730, 407, 662, 442, 694
731, 483, 555, 263, 475
732, 758, 728, 476, 746
733, 443, 666, 659, 455
734, 644, 461, 642, 623
735, 303, 410, 237, 458
736, 310, 335, 302, 203
737, 374, 525, 228, 529
738, 612, 565, 655, 616
739, 461, 529, 218, 642
740, 521, 192, 123, 113
741, 693, 417, 500, 224
742, 658, 480, 429, 299
743, 731, 376, 239, 730
744, 279, 670, 684, 674
745, 674, 684, 600, 281
746, 684, 543, 278, 600
747, 670, 276, 543, 684
748, 403, 356, 359, 679
749, 672, 408, 422, 685
750, 606, 403, 679, 256
751, 280, 293, 686, 291
752, 291, 686, 292, 279
753, 293, 287, 292, 686
754, 282, 296, 687, 294
755, 294, 687, 295, 188
756, 296, 283, 295, 687
757, 754, 753, 667, 494
758, 611, 210, 336, 375
759, 744, 624, 320, 743
760, 89, 86, 689, 300
761, 300, 689, 301, 165
762, 86, 7, 301, 689
763, 222, 573, 660, 643
764, 418, 321, 18, 11
765, 738, 322, 560, 737
766, 98, 306, 691, 90
767, 90, 691, 305, 7
768, 306, 214, 305, 691
769, 199, 309, 692, 307
770, 307, 692, 308, 185
771, 309, 288, 308, 692
772, 330, 625, 547, 480
773, 750, 749, 418, 445
774, 730, 239, 509, 213
775, 398, 603, 463, 314
776, 764, 315, 267, 405
777, 405, 266, 537, 603
778, 315, 540, 549, 556
779, 764, 398, 451, 259
780, 555, 407, 694, 263
781, 476, 139, 175, 617
782, 526, 375, 501, 297
783, 221, 341, 417, 693
784, 458, 237, 331, 311
785, 381, 445, 19, 12
786, 542, 465, 633, 423
787, 451, 247, 555, 483
788, 82, 75, 571, 668
789, 317, 313, 484, 634
790, 764, 760, 540, 315
791, 398, 314, 247, 451
792, 190, 205, 372, 690
793, 681, 616, 221, 216
794, 609, 170, 145, 204
795, 68, 76, 701, 702
796, 5, 68, 702, 57
797, 201, 677, 591, 329
798, 755, 201, 329, 754
799, 377, 211, 345, 223
800, 528, 377, 223, 524
801, 646, 528, 524, 456
802, 215, 646, 456, 230
803, 194, 215, 230, 334
804, 460, 194, 334, 231
805, 193, 460, 231, 653
806, 676, 193, 653, 498
807, 519, 676, 498, 697
808, 703, 519, 697, 430
809, 704, 703, 430, 428
810, 705, 704, 428, 394
811, 706, 705, 394, 343
812, 707, 706, 343, 497
813, 708, 707, 497, 654
814, 709, 708, 654, 677
815, 710, 709, 677, 201
816, 756, 710, 201, 755
817, 711, 298, 211, 377
818, 712, 711, 377, 528
819, 713, 712, 528, 646
820, 714, 713, 646, 215
821, 715, 714, 215, 194
822, 716, 715, 194, 460
823, 717, 716, 460, 193
824, 718, 717, 193, 676
825, 719, 718, 676, 519
826, 720, 719, 519, 703
827, 721, 720, 703, 704
828, 722, 721, 704, 705
829, 723, 722, 705, 706
830, 724, 723, 706, 707
831, 725, 724, 707, 708
832, 726, 725, 708, 709
833, 727, 726, 709, 710
834, 757, 727, 710, 756
835, 730, 213, 298, 711
836, 731, 730, 711, 712
837, 732, 731, 712, 713
838, 733, 732, 713, 714
839, 734, 733, 714, 715
840, 735, 734, 715, 716
841, 736, 735, 716, 717
842, 737, 736, 717, 718
843, 738, 737, 718, 719
844, 739, 738, 719, 720
845, 740, 739, 720, 721
846, 741, 740, 721, 722
847, 742, 741, 722, 723
848, 743, 742, 723, 724
849, 744, 743, 724, 725
850, 745, 744, 725, 726
851, 746, 745, 726, 727
852, 758, 746, 727, 757
853, 760, 440, 154, 160
854, 572, 763, 759, 441
855, 482, 572, 441, 554
856, 260, 482, 554, 467
857, 259, 260, 467, 440
858, 764, 259, 440, 760
*ELSET,ELSET=contact_source
103, 104, 105, 106, 107, 108, 109, 110, 111, 112, 
113, 114, 115, 116, 117, 118, 119, 120, 121, 122, 
123, 124, 
*ELSET,ELSET=contact_drain
41, 42, 43, 44, 45, 46, 47, 48, 49, 50, 
51, 52, 53, 54, 55, 56, 57, 58, 59, 60, 
61, 62, 
*ELSET,ELSET=probe_A
79, 80, 81, 82, 83, 84, 85, 86, 
*ELSET,ELSET=probe_B
17, 18, 19, 20, 21, 22, 23, 24, 
*ELSET,ELSET=walls
1, 2, 3, 4, 5, 6, 7, 8, 9, 10, 
11, 12, 13, 14, 15, 16, 25, 26, 27, 28, 
29, 30, 31, 32, 33, 34, 35, 36, 37, 38, 
39, 40, 63, 64, 65, 66, 67, 68, 69, 70, 
71, 72, 73, 74, 75, 76, 77, 78, 87, 88, 
89, 90, 91, 92, 93, 94, 95, 96, 97, 98, 
99, 100, 101, 102, 125, 126, 127, 128, 129, 130, 
131, 132, 133, 134, 135, 136, 137, 138, 139, 140, 
141, 142, 143, 144, 145, 146, 147, 148, 149, 150, 
151, 152, 153, 154, 155, 156, 157, 158, 159, 160, 
161, 162, 163, 164, 165, 166, 167, 168, 169, 170, 
171, 172, 173, 174, 175, 176, 177, 178, 179, 180, 
181, 182, 183, 184, 185, 186, 187, 188, 
*ELSET,ELSET=domain
189, 190, 191, 192, 193, 194, 195, 196, 197, 198, 
199, 200, 201, 202, 203, 204, 205, 206, 207, 208, 
209, 210, 211, 212, 213, 214, 215, 216, 217, 218, 
219, 220, 221, 222, 223, 224, 225, 226, 227, 228, 
229, 230, 231, 232, 233, 234, 235, 236, 237, 238, 
239, 240, 241, 242, 243, 244, 245, 246, 247, 248, 
249, 250, 251, 252, 253, 254, 255, 256, 257, 258, 
259, 260, 261, 262, 263, 264, 265, 266, 267, 268, 
269, 270, 271, 272, 273, 274, 275, 276, 277, 278, 
279, 280, 281, 282, 283, 284, 285, 286, 287, 288, 
289, 290, 291, 292, 293, 294, 295, 296, 297, 298, 
299, 300, 301, 302, 303, 304, 305, 306, 307, 308, 
309, 310, 311, 312, 313, 314, 315, 316, 317, 318, 
319, 320, 321, 322, 323, 324, 325, 326, 327, 328, 
329, 330, 331, 332, 333, 334, 335, 336, 337, 338, 
339, 340, 341, 342, 343, 344, 345, 346, 347, 348, 
349, 350, 351, 352, 353, 354, 355, 356, 357, 358, 
359, 360, 361, 362, 363, 364, 365, 366, 367, 368, 
369, 370, 371, 372, 373, 374, 375, 376, 377, 378, 
379, 380, 381, 382, 383, 384, 385, 386, 387, 388, 
389, 390, 391, 392, 393, 394, 395, 396, 397, 398, 
399, 400, 401, 402, 403, 404, 405, 406, 407, 408, 
409, 410, 411, 412, 413, 414, 415, 416, 417, 418, 
419, 420, 421, 422, 423, 424, 425, 426, 427, 428, 
429, 430, 431, 432, 433, 434, 435, 436, 437, 438, 
439, 440, 441, 442, 443, 444, 445, 446, 447, 448, 
449, 450, 451, 452, 453, 454, 455, 456, 457, 458, 
459, 460, 461, 462, 463, 464, 465, 466, 467, 468, 
469, 470, 471, 472, 473, 474, 475, 476, 477, 478, 
479, 480, 481, 482, 483, 484, 485, 486, 487, 488, 
489, 490, 491, 492, 493, 494, 495, 496, 497, 498, 
499, 500, 501, 502, 503, 504, 505, 506, 507, 508, 
509, 510, 511, 512, 513, 514, 515, 516, 517, 518, 
519, 520, 521, 522, 523, 524, 525, 526, 527, 528, 
529, 530, 531, 532, 533, 534, 535, 536, 537, 538, 
539, 540, 541, 542, 543, 544, 545, 546, 547, 548, 
549, 550, 551, 552, 553, 554, 555, 556, 557, 558, 
559, 560, 561, 562, 563, 564, 565, 566, 567, 568, 
569, 570, 571, 572, 573, 574, 575, 576, 577, 578, 
579, 580, 581, 582, 583, 584, 585, 586, 587, 588, 
589, 590, 591, 592, 593, 594, 595, 596, 597, 598, 
599, 600, 601, 602, 603, 604, 605, 606, 607, 608, 
609, 610, 611, 612, 613, 614, 615, 616, 617, 618, 
619, 620, 621, 622, 623, 624, 625, 626, 627, 628, 
629, 630, 631, 632, 633, 634, 635, 636, 637, 638, 
639, 640, 641, 642, 643, 644, 645, 646, 647, 648, 
649, 650, 651, 652, 653, 654, 655, 656, 657, 658, 
659, 660, 661, 662, 663, 664, 665, 666, 667, 668, 
669, 670, 671, 672, 673, 674, 675, 676, 677, 678, 
679, 680, 681, 682, 683, 684, 685, 686, 687, 688, 
689, 690, 691, 692, 693, 694, 695, 696, 697, 698, 
699, 700, 701, 702, 703, 704, 705, 706, 707, 708, 
709, 710, 711, 712, 713, 714, 715, 716, 717, 718, 
719, 720, 721, 722, 723, 724, 725, 726, 727, 728, 
729, 730, 731, 732, 733, 734, 735, 736, 737, 738, 
739, 740, 741, 742, 743, 744, 745, 746, 747, 748, 
749, 750, 751, 752, 753, 754, 755, 756, 757, 758, 
759, 760, 761, 762, 763, 764, 765, 766, 767, 768, 
769, 770, 771, 772, 773, 774, 775, 776, 777, 778, 
779, 780, 781, 782, 783, 784, 785, 786, 787, 788, 
789, 790, 791, 792, 793, 794, 795, 796, 797, 798, 
799, 800, 801, 802, 803, 804, 805, 806, 807, 808, 
809, 810, 811, 812, 813, 814, 815, 816, 817, 818, 
819, 820, 821, 822, 823, 824, 825, 826, 827, 828, 
829, 830, 831, 832, 833, 834, 835, 836, 837, 838, 
839, 840, 841, 842, 843, 844, 845, 846, 847, 848, 
849, 850, 851, 852, 853, 854, 855, 856, 857, 858, 
*NSET,NSET=contact_source
1, 8, 105, 106, 107, 108, 109, 110, 111, 112, 
113, 114, 115, 116, 117, 118, 119, 120, 121, 122, 
123, 124, 125, 
*NSET,NSET=contact_drain
4, 5, 47, 48, 49, 50, 51, 52, 53, 54, 
55, 56, 57, 58, 59, 60, 61, 62, 63, 64, 
65, 66, 67, 
*NSET,NSET=probe_A
6, 7, 83, 84, 85, 86, 87, 88, 89, 
*NSET,NSET=probe_B
2, 3, 25, 26, 27, 28, 29, 30, 31, 
*NSET,NSET=walls
1, 2, 3, 4, 5, 6, 7, 8, 9, 10, 
11, 12, 13, 14, 15, 16, 17, 18, 19, 20, 
21, 22, 23, 24, 32, 33, 34, 35, 36, 37, 
38, 39, 40, 41, 42, 43, 44, 45, 46, 68, 
69, 70, 71, 72, 73, 74, 75, 76, 77, 78, 
79, 80, 81, 82, 90, 91, 92, 93, 94, 95, 
96, 97, 98, 99, 100, 101, 102, 103, 104, 126, 
127, 128, 129, 130, 131, 132, 133, 134, 135, 136, 
137, 138, 139, 140, 141, 142, 143, 144, 145, 146, 
147, 148, 149, 150, 151, 152, 153, 154, 155, 156, 
157, 158, 159, 160, 161, 162, 163, 164, 165, 166, 
167, 168, 169, 170, 171, 172, 173, 174, 175, 176, 
177, 178, 179, 180, 181, 182, 183, 184, 185, 186, 
187, 188, 
*NSET,NSET=domain
1, 2, 3, 4, 5, 6, 7, 8, 9, 10, 
11, 12, 13, 14, 15, 16, 17, 18, 19, 20, 
21, 22, 23, 24, 25, 26, 27, 28, 29, 30, 
31, 32, 33, 34, 35, 36, 37, 38, 39, 40, 
41, 42, 43, 44, 45, 46, 47, 48, 49, 50, 
51, 52, 53, 54, 55, 56, 57, 58, 59, 60, 
61, 62, 63, 64, 65, 66, 67, 68, 69, 70, 
71, 72, 73, 74, 75, 76, 77, 78, 79, 80, 
81, 82, 83, 84, 85, 86, 87, 88, 89, 90, 
91, 92, 93, 94, 95, 96, 97, 98, 99, 100, 
101, 102, 103, 104, 105, 106, 107, 108, 109, 110, 
111, 112, 113, 114, 115, 116, 117, 118, 119, 120, 
121, 122, 123, 124, 125, 126, 127, 128, 129, 130, 
131, 132, 133, 134, 135, 136, 137, 138, 139, 140, 
141, 142, 143, 144, 145, 146, 147, 148, 149, 150, 
151, 152, 153, 154, 155, 156, 157, 158, 159, 160, 
161, 162, 163, 164, 165, 166, 167, 168, 169, 170, 
171, 172, 173, 174, 175, 176, 177, 178, 179, 180, 
181, 182, 183, 184, 185, 186, 187, 188, 189, 190, 
191, 192, 193, 194, 195, 196, 197, 198, 199, 200, 
201, 202, 203, 204, 205, 206, 207, 208, 209, 210, 
211, 212, 213, 214, 215, 216, 217, 218, 219, 220, 
221, 222, 223, 224, 225, 226, 227, 228, 229, 230, 
231, 232, 233, 234, 235, 236, 237, 238, 239, 240, 
241, 242, 243, 244, 245, 246, 247, 248, 249, 250, 
251, 252, 253, 254, 255, 256, 257, 258, 259, 260, 
261, 262, 263, 264, 265, 266, 267, 268, 269, 270, 
271, 272, 273, 274, 275, 276, 277, 278, 279, 280, 
281, 282, 283, 284, 285, 286, 287, 288, 289, 290, 
291, 292, 293, 294, 295, 296, 297, 298, 299, 300, 
301, 302, 303, 304, 305, 306, 307, 308, 309, 310, 
311, 312, 313, 314, 315, 316, 317, 318, 319, 320, 
321, 322, 323, 324, 325, 326, 327, 328, 329, 330, 
331, 332, 333, 334, 335, 336, 337, 338, 339, 340, 
341, 342, 343, 344, 345, 346, 347, 348, 349, 350, 
351, 352, 353, 354, 355, 356, 357, 358, 359, 360, 
361, 362, 363, 364, 365, 366, 367, 368, 369, 370, 
371, 372, 373, 374, 375, 376, 377, 378, 379, 380, 
381, 382, 383, 384, 385, 386, 387, 388, 389, 390, 
391, 392, 393, 394, 395, 396, 397, 398, 399, 400, 
401, 402, 403, 404, 405, 406, 407, 408, 409, 410, 
411, 412, 413, 414, 415, 416, 417, 418, 419, 420, 
421, 422, 423, 424, 425, 426, 427, 428, 429, 430, 
431, 432, 433, 434, 435, 436, 437, 438, 439, 440, 
441, 442, 443, 444, 445, 446, 447, 448, 449, 450, 
451, 452, 453, 454, 455, 456, 457, 458, 459, 460, 
461, 462, 463, 464, 465, 466, 467, 468, 469, 470, 
471, 472, 473, 474, 475, 476, 477, 478, 479, 480, 
481, 482, 483, 484, 485, 486, 487, 488, 489, 490, 
491, 492, 493, 494, 495, 496, 497, 498, 499, 500, 
501, 502, 503, 504, 505, 506, 507, 508, 509, 510, 
511, 512, 513, 514, 515, 516, 517, 518, 519, 520, 
521, 522, 523, 524, 525, 526, 527, 528, 529, 530, 
531, 532, 533, 534, 535, 536, 537, 538, 539, 540, 
541, 542, 543, 544, 545, 546, 547, 548, 549, 550, 
551, 552, 553, 554, 555, 556, 557, 558, 559, 560, 
561, 562, 563, 564, 565, 566, 567, 568, 569, 570, 
571, 572, 573, 574, 575, 576, 577, 578, 579, 580, 
581, 582, 583, 584, 585, 586, 587, 588, 589, 590, 
591, 592, 593, 594, 595, 596, 597, 598, 599, 600, 
601, 602, 603, 604, 605, 606, 607, 608, 609, 610, 
611, 612, 613, 614, 615, 616, 617, 618, 619, 620, 
621, 622, 623, 624, 625, 626, 627, 628, 629, 630, 
631, 632, 633, 634, 635, 636, 637, 638, 639, 640, 
641, 642, 643, 644, 645, 646, 647, 648, 649, 650, 
651, 652, 653, 654, 655, 656, 657, 658, 659, 660, 
661, 662, 663, 664, 665, 666, 667, 668, 669, 670, 
671, 672, 673, 674, 675, 676, 677, 678, 679, 680, 
681, 682, 683, 684, 685, 686, 687, 688, 689, 690, 
691, 692, 693, 694, 695, 696, 697, 698, 699, 700, 
701, 702, 703, 704, 705, 706, 707, 708, 709, 710, 
711, 712, 713, 714, 715, 716, 717, 718, 719, 720, 
721, 722, 723, 724, 725, 726, 727, 728, 729, 730, 
731, 732, 733, 734, 735, 736, 737, 738, 739, 740, 
741, 742, 743, 744, 745, 746, 747, 748, 749, 750, 
751, 752, 753, 754, 755, 756, 757, 758, 759, 760, 
761, 762, 763, 764, 
