*Heading
 /Users/juliagao/geometry-optimization-net/scripts/../runs/run2/shape_112.inp
*NODE
1, 0, -0.3, 0
2, 0.425, -0.3, 0
3, 0.575, -0.3, 0
4, 1, -0.3, 0
5, 1, 0.3, 0
6, 0.575, 0.3, 0
7, 0.425, 0.3, 0
8, 0, 0.3, 0
9, 0.6921035776, -0.0054323767, 0
10, 0.02594896285035, -0.3, 0
11, 0.07811991547562, -0.3, 0
12, 0.13117625809111, -0.3, 0
13, 0.1847407761488, -0.3, 0
14, 0.23831741250081, -0.3, 0
15, 0.29254501957677, -0.3, 0
16, 0.34697392001971, -0.3, 0
17, 0.39951084226079, -0.3, 0
18, 0.0518979257007, -0.3, 0
19, 0.10434190525054, -0.3, 0
20, 0.15801061093167, -0.3, 0
21, 0.21147094136594, -0.3, 0
22, 0.26516388363569, -0.3, 0
23, 0.31992615551785, -0.3, 0
24, 0.37402168452158, -0.3, 0
25, 0.44333898914057, -0.3, 0
26, 0.47989988898586, -0.3, 0
27, 0.51696683270534, -0.3, 0
28, 0.55540593286006, -0.3, 0
29, 0.46167797828115, -0.3, 0
30, 0.49812179969056, -0.3, 0
31, 0.53581186572011, -0.3, 0
32, 0.60149137209835, -0.3, 0
33, 0.65494869709528, -0.3, 0
34, 0.70800358708284, -0.3, 0
35, 0.76004777099502, -0.3, 0
36, 0.8132239705805, -0.3, 0
37, 0.86784190946751, -0.3, 0
38, 0.92168823403412, -0.3, 0
39, 0.974068786238, -0.3, 0
40, 0.6279827441967, -0.3, 0
41, 0.68191464999386, -0.3, 0
42, 0.73409252417182, -0.3, 0
43, 0.78600301781822, -0.3, 0
44, 0.84044492334278, -0.3, 0
45, 0.89523889559225, -0.3, 0
46, 0.948137572476, -0.3, 0
47, 1, -0.27360924780885, 0
48, 1, -0.22038649057376, 0
49, 1, -0.16623560441228, 0
50, 1, -0.11153509176749, 0
51, 1, -0.05658861015298, 0
52, 1, -0.00095916188828088, 0
53, 1, 0.054808648173379, 0
54, 1, 0.11018777605528, 0
55, 1, 0.16560827163228, 0
56, 1, 0.22056792108051, 0
57, 1, 0.27389149547472, 0
58, 1, -0.2472184956177, 0
59, 1, -0.19355448552981, 0
60, 1, -0.13891672329476, 0
61, 1, -0.084153460240219, 0
62, 1, -0.029023760065742, 0
63, 1, 0.02710543628918, 0
64, 1, 0.082511860057579, 0
65, 1, 0.13786369205298, 0
66, 1, 0.19335285121157, 0
67, 1, 0.24778299094944, 0
68, 0.97533450076205, 0.3, 0
69, 0.9254502960938, 0.3, 0
70, 0.87364305989695, 0.3, 0
71, 0.81915574047207, 0.3, 0
72, 0.76324459596205, 0.3, 0
73, 0.70789866494195, 0.3, 0
74, 0.65366480939888, 0.3, 0
75, 0.6008822645121, 0.3, 0
76, 0.95066900152409, 0.3, 0
77, 0.90023159066351, 0.3, 0
78, 0.84705452913039, 0.3, 0
79, 0.79125695181375, 0.3, 0
80, 0.73523224011035, 0.3, 0
81, 0.68056508977355, 0.3, 0
82, 0.62676452902421, 0.3, 0
83, 0.55021326557326, 0.3, 0
84, 0.49985102554018, 0.3, 0
85, 0.44963775996691, 0.3, 0
86, 0.52542653114653, 0.3, 0
87, 0.47427551993383, 0.3, 0
88, 0.40374231740733, 0.3, 0
89, 0.3609693717835, 0.3, 0
90, 0.31640487297474, 0.3, 0
91, 0.26901172165822, 0.3, 0
92, 0.21990649397342, 0.3, 0
93, 0.17048018211905, 0.3, 0
94, 0.12126687374911, 0.3, 0
95, 0.072349155685113, 0.3, 0
96, 0.023989873141285, 0.3, 0
97, 0.38248463481465, 0.3, 0
98, 0.33945410875235, 0.3, 0
99, 0.29335563719714, 0.3, 0
100, 0.24466780611931, 0.3, 0
101, 0.19514518182753, 0.3, 0
102, 0.14581518241056, 0.3, 0
103, 0.096718565087655, 0.3, 0
104, 0.047979746282571, 0.3, 0
105, 0, 0.2739578606956, 0
106, 0, 0.22167270891649, 0
107, 0, 0.16841848498582, 0
108, 0, 0.11333325276349, 0
109, 0, 0.056626596018497, 0
110, 0, -0.00071441969045061, 0
111, 0, -0.057791306140128, 0
112, 0, -0.11360586922788, 0
113, 0, -0.16787671741008, 0
114, 0, -0.22128646868152, 0
115, 0, -0.27393571406958, 0
116, 0, 0.2479157213912, 0
117, 0, 0.19542969644178, 0
118, 0, 0.14140727352985, 0
119, 0, 0.085259231997138, 0
120, 0, 0.027993960039857, 0
121, 0, -0.029422799420758, 0
122, 0, -0.086159812859498, 0
123, 0, -0.14105192559627, 0
124, 0, -0.19470150922389, 0
125, 0, -0.24787142813915, 0
126, 0.68650101327837, 0.022778986959233, 0
127, 0.75336402658083, -0.065597625741761, 0
128, 0.78986536326593, -0.11021612297461, 0
129, 0.81282273169221, -0.16302774704288, 0
130, 0.80356160499345, -0.2179305190002, 0
131, 0.75674793523773, -0.24429261131267, 0
132, 0.70331649609648, -0.24232271368625, 0
133, 0.65183286722789, -0.22626723117242, 0
134, 0.60335561339545, -0.20369884678407, 0
135, 0.55310397900723, -0.1912029772326, 0
136, 0.51326192812319, -0.22271035338371, 0
137, 0.46934878373367, -0.2467116716848, 0
138, 0.42115177956951, -0.23364196153574, 0
139, 0.38349252310139, -0.19698520492819, 0
140, 0.33553704454155, -0.17337123065349, 0
141, 0.28286231597571, -0.15903686417239, 0
142, 0.23891537437592, -0.12571543287528, 0
143, 0.23385139370218, -0.070545531400299, 0
144, 0.26248422499529, -0.020750305100467, 0
145, 0.29583433743766, 0.027386551748305, 0
146, 0.28629662421621, 0.08653949150925, 0
147, 0.2720212661549, 0.14484608155242, 0
148, 0.27963517607888, 0.20198587123349, 0
149, 0.31458622996881, 0.24353531546126, 0
150, 0.36105934240061, 0.26253543224709, 0
151, 0.40877885597522, 0.26724271289307, 0
152, 0.45829035327592, 0.2606421995647, 0
153, 0.50614922519477, 0.23861479878615, 0
154, 0.54540904176933, 0.20142053986077, 0
155, 0.58195060658954, 0.16009335317146, 0
156, 0.63627648556638, 0.14584220514015, 0
157, 0.68790044354423, 0.12623736734559, 0
158, 0.70292151335605, 0.074392761442694, 0
159, 0.71156358845818, -0.02643067341837, 0
160, 0.6951032241895, 0.047912039845571, 0
161, 0.70241920249726, 0.10234955093118, 0
162, 0.66397606761905, 0.13973193852299, 0
163, 0.60825686574498, 0.14963313127872, 0
164, 0.56241834123729, 0.17996304614214, 0
165, 0.52687402456122, 0.22161965598538, 0
166, 0.48282537432589, 0.25184457355506, 0
167, 0.4327217066477, 0.26562192235451, 0
168, 0.38480292186451, 0.26625473680886, 0
169, 0.33802783159681, 0.25561081977831, 0
170, 0.29470937790533, 0.22612184990865, 0
171, 0.27230447642541, 0.17454083304981, 0
172, 0.2773130613491, 0.11569106564001, 0
173, 0.29554980850851, 0.05748026919807, 0
174, 0.28097234154958, 0.0020162768703407, 0
175, 0.24562035933441, -0.044800152814617, 0
176, 0.23027747246555, -0.098837212390006, 0
177, 0.2582670409302, -0.14601790244349, 0
178, 0.30935196813412, -0.16721840233345, 0
179, 0.36116029387684, -0.18180667174351, 0
180, 0.40214476729155, -0.2161753653641, 0
181, 0.4443442847711, -0.24551558124986, 0
182, 0.49258967572289, -0.23793966845972, 0
183, 0.5319321591971, -0.2052112153599, 0
184, 0.57915860418591, -0.19317319071119, 0
185, 0.62706326108757, -0.21523379644415, 0
186, 0.67731182635727, -0.23557130105916, 0
187, 0.72999401712, -0.24568980938399, 0
188, 0.78235870151663, -0.23601418792383, 0
189, 0.81386219058957, -0.19202002979499, 0
190, 0.80384920228596, -0.13561620992476, 0
191, 0.77264233896576, -0.086923621721805, 0
192, 0.73267207430564, -0.045654758318219, 0
193, 0.55746704141704, -0.25507984608202, 0
194, 0.025235025397249, 0.0020602537293662, 0
195, 0.12762650296239, -0.18634613488888, 0
196, 0.18358596547815, -0.27229423343614, 0
197, 0.28463783317951, -0.18119329320788, 0
198, 0.18084715322331, -0.21514085041112, 0
199, 0.31616149276124, -0.25453906167966, 0
200, 0.37044331629086, -0.24821985658215, 0
201, 0.81688378274264, -0.045734561362988, 0
202, 0.761731245789, 0.23138130554708, 0
203, 0.19263865002321, 0.24635213621695, 0
204, 0.073426992183006, 0.16957794116227, 0
205, 0.16856601551025, 0.17265260193058, 0
206, 0.1940862500827, -0.084596314898562, 0
207, 0.17028229577161, 0.14881520056015, 0
208, 0.1688791789209, 0.2473093113553, 0
209, 0.1817812949397, 0.046995453548928, 0
210, 0.025169536396316, -0.054543794965101, 0
211, 0.075167337331426, 0.089788052204564, 0
212, 0.26554587303694, 0.23659181099763, 0
213, 0.072636654191237, 0.24788565711451, 0
214, 0.21823101668557, 0.2720163386704, 0
215, 0.20426443232834, 0.10334478298643, 0
216, 0.15130708427818, 0.096413569718799, 0
217, 0.10054977316839, -0.044971328545563, 0
218, 0.24568818257437, 0.026953542513576, 0
219, 0.17586394881776, -0.033520315209958, 0
220, 0.025205365953329, -0.026284838264906, 0
221, 0.21479622032074, -0.10828047548813, 0
222, 0.12966969441675, -0.24388763201438, 0
223, 0.1257058649268, 0.093893964827325, 0
224, 0.15699570321774, -0.27203673659241, 0
225, 0.2089527690474, -0.2452898501926, 0
226, 0.16824376474845, 0.22171198447102, 0
227, 0.10023881910399, -0.10158569145989, 0
228, 0.20696627915367, -0.0025676106419447, 0
229, 0.10063877773358, -0.1302718829734, 0
230, 0.1536290019181, 0.016864086496285, 0
231, 0.025026705280573, 0.086553993655222, 0
232, 0.077117572631981, -0.21726731691681, 0
233, 0.024515845610858, 0.1686005391125, 0
234, 0.12492151194508, -0.069635620889576, 0
235, 0.10137990897858, 0.010506993846444, 0
236, 0.32160796313244, -0.20954763603856, 0
237, 0.726364689812, 0.17645541366559, 0
238, 0.82367990847134, 0.253095483373, 0
239, 0.84807176611336, 0.15183152357366, 0
240, 0.89921906959601, 0.14598246599477, 0
241, 0.94967377567772, 0.14168214743315, 0
242, 0.8490920963609, 0.20340674357716, 0
243, 0.89931593689093, 0.1987233860775, 0
244, 0.94970931935683, 0.1955311927722, 0
245, 0.94991688198412, 0.24823324773286, 0
246, 0.89945571423151, 0.24976515745529, 0
247, 0.84870645220775, 0.25195640536948, 0
248, 0.76924614396103, 0.10327725446588, 0
249, 0.74557747610232, 0.27400426698103, 0
250, 0.70530999191557, 0.16415721900642, 0
251, 0.66810027694034, 0.25866114596146, 0
252, 0.75439284532017, 0.2508586123905, 0
253, 0.74296513031036, 0.10357825174078, 0
254, 0.84949292649391, 0.096162331355818, 0
255, 0.80150911604291, 0.23188214687744, 0
256, 0.80818113962381, -0.011841095679458, 0
257, 0.85242833824127, 0.041732935297486, 0
258, 0.89969091992821, 0.091750551655607, 0
259, 0.94971780255002, 0.087134102700611, 0
260, 0.89988086838864, 0.037754652636588, 0
261, 0.94935675980726, 0.032415540391529, 0
262, 0.94180490956971, -0.13652869793848, 0
263, 0.8803718620711, -0.13379177255801, 0
264, 0.89021637324879, -0.071151779850391, 0
265, 0.83909009348775, -0.057139558197668, 0
266, 0.94477121300183, -0.078709956021777, 0
267, 0.94776884261212, -0.022600410783707, 0
268, 0.85156631586072, -0.0068655292381071, 0
269, 0.89735688276256, -0.015433676058558, 0
270, 0.83200324972628, 0.0178863905494, 0
271, 0.6796663602267, -0.26795314428745, 0
272, 0.87438963840032, -0.20250593913913, 0
273, 0.94182447458687, -0.19437073309266, 0
274, 0.89314796833708, -0.25190772341242, 0
275, 0.84701447052481, -0.25019990948289, 0
276, 0.94550671545799, -0.24838531762057, 0
277, 0.79666339711497, -0.031368418919681, 0
278, 0.81761784047897, 0.00052241773536482, 0
279, 0.82945779507656, 0.042008515581973, 0
280, 0.15145535070818, -0.15479022066313, 0
281, 0.050492353496273, 0.032752290686489, 0
282, 0.15234343178058, -0.010231264708625, 0
283, 0.65946546375595, 0.16955287324366, 0
284, 0.82474237001483, 0.22992016844096, 0
285, 0.19137328764119, 0.22070662968678, 0
286, 0.18115839133525, 0.020329533869981, 0
287, 0.17888569728944, -0.0064495844875242, 0
288, 0.42613749775849, -0.27697966527948, 0
289, 0.45778807696847, -0.27664950772081, 0
290, 0.8894966127334, -0.22837884986375, 0
291, 0.87019437790185, -0.25378389078013, 0
292, 0.85454291356951, -0.2271209919843, 0
293, 0.048557563647546, 0.22168324628902, 0
294, 0.17323365095846, -0.061253925803651, 0
295, 0.024203890914064, 0.24782605840251, 0
296, 0.40395745108578, -0.25504732904364, 0
297, 0.38631265295994, -0.22857373861595, 0
298, 0.072510902282931, 0.27393712283503, 0
299, 0.14485070366702, 0.19684195780845, 0
300, 0.097219343151008, 0.19615700771316, 0
301, 0.84665334295041, -0.030691755831746, 0
302, 0.78256258275423, 0.033783776681108, 0
303, 0.79466713630867, 0.0061465098145315, 0
304, 0.60378874228994, -0.25622312172614, 0
305, 0.14929426532365, -0.065727668669935, 0
306, 0.21194114318454, 0.050537185329091, 0
307, 0.075681219611503, -0.020230667147962, 0
308, 0.82325559326898, 0.18233543319476, 0
309, 0.55208381346957, 0.25386682083991, 0
310, 0.34094577219912, -0.25517581123305, 0
311, 0.3158754651397, -0.23278028574118, 0
312, 0.34915241880905, -0.22599030490711, 0
313, 0.15397314837888, 0.043700949444589, 0
314, 0.050504995193796, 0.0048072908627969, 0
315, 0.025286034127018, -0.13821530413234, 0
316, 0.19540657294831, -0.11549386810314, 0
317, 0.15066733783303, -0.037694570578238, 0
318, 0.53607271928095, -0.25888324893706, 0
319, 0.7667887767065, 0.21754844342612, 0
320, 0.75723408808286, 0.20685549832644, 0
321, 0.16802159879529, 0.1968416582705, 0
322, 0.23376363411665, 0.10868111959313, 0
323, 0.19059414231734, 0.17311768900065, 0
324, 0.20191204735572, -0.15050606918688, 0
325, 0.2343145681591, -0.21968677697727, 0
326, 0.34482175709987, -0.19827570415438, 0
327, 0.31157974194396, -0.18715906400076, 0
328, 0.79460933900563, 0.16297051339508, 0
329, 0.84831569499914, 0.12429414224196, 0
330, 0.024285931856378, 0.22161999636667, 0
331, 0.12651018319391, -0.013781550544475, 0
332, 0.075380842240442, -0.10463300246399, 0
333, 0.17346213932899, 0.12463999489751, 0
334, 0.22961575786732, 0.1708891781066, 0
335, 0.07279166062758, 0.22183580321387, 0
336, 0.94686977805286, -0.27428914300713, 0
337, 0.97270944023571, -0.24757823667448, 0
338, 0.97341583990177, -0.27386674631117, 0
339, 0.17322991481908, -0.12049597920459, 0
340, 0.192399101619, 0.15087155980908, 0
341, 0.22021897136048, -0.050438674257333, 0
342, 0.051658040736195, -0.24580625889138, 0
343, 0.94875840037579, 0.0049818247274105, 0
344, 0.97459274551824, 0.029718144430404, 0
345, 0.97375700100086, -0.025805452723297, 0
346, 0.97426432414562, 0.0019989175591521, 0
347, 0.048259237042743, 0.27392321271227, 0
348, 0.169663698972, 0.2734933349166, 0
349, 0.051394917839469, -0.2184970193959, 0
350, 0.10211746371227, -0.18775861548786, 0
351, 0.97107673998021, -0.13772069048524, 0
352, 0.94312250371114, -0.10744184264621, 0
353, 0.97234068468009, -0.081529571869294, 0
354, 0.97161741119247, -0.10957767718197, 0
355, 0.21412418717455, 0.21868729853634, 0
356, 0.050425612651149, -0.023261242314805, 0
357, 0.075657568779931, -0.13292977263709, 0
358, 0.21966710486476, 0.13402112449611, 0
359, 0.2121477176837, 0.19465977829379, 0
360, 0.97483971715109, 0.13975768969446, 0
361, 0.94967323506064, 0.16873280017792, 0
362, 0.97486221224416, 0.19431691179767, 0
363, 0.9748423776738, 0.16712085522406, 0
364, 0.18232868656388, -0.24416149793598, 0
365, 0.28983919019787, -0.25248982855812, 0
366, 0.31788602738506, -0.2770098657947, 0
367, 0.26283463122375, -0.24994216903829, 0
368, 0.075628569428667, 0.062639694841679, 0
369, 0.20736635223697, -0.21653849362742, 0
370, 0.025554268874766, -0.19280617917552, 0
371, 0.025198171826627, -0.11055408522536, 0
372, 0.22946139923303, -0.14884664611988, 0
373, 0.25749385507696, -0.17045898459391, 0
374, 0.1546759739796, -0.21490659987463, 0
375, 0.97483326175967, 0.084820724865371, 0
376, 0.94970233549142, 0.11445647203454, 0
377, 0.97484440194076, 0.11231462544825, 0
378, 0.075864025972666, 0.035232989141993, 0
379, 0.19672985939517, -0.056118685035379, 0
380, 0.14688439426472, 0.14710685033313, 0
381, 0.12536405813049, -0.12745217038482, 0
382, 0.94125343239411, -0.16565217263697, 0
383, 0.97117012102959, -0.19363483428916, 0
384, 0.97088724300001, -0.16580935860586, 0
385, 0.94963912694707, 0.059780470462561, 0
386, 0.97476632812885, 0.057290605610014, 0
387, 0.10407558830902, -0.27223576484767, 0
388, 0.13047883936744, -0.27204445974175, 0
389, 0.077562164448461, -0.24499799309614, 0
390, 0.74454298948033, 0.22367806641923, 0
391, 0.57768740628532, 0.24214318639504, 0
392, 0.69486023292595, 0.26553563958494, 0
393, 0.94639876885632, -0.05044523252105, 0
394, 0.97309300340428, -0.053601571285676, 0
395, 0.17645741686385, -0.15262372730105, 0
396, 0.15319451778456, -0.18522749296797, 0
397, 0.79588038724974, 0.27660398913492, 0
398, 0.73263881016986, 0.24507138725121, 0
399, 0.74362016047442, 0.19222021588122, 0
400, 0.77055117256241, 0.27596438166843, 0
401, 0.70640785498309, 0.13152480000539, 0
402, 0.12284672651013, 0.14563447207953, 0
403, 0.14966569889179, -0.12429452504307, 0
404, 0.04933688348592, 0.14232360532191, 0
405, 0.84302438386335, -0.27468149426617, 0
406, 0.89439524255587, -0.27575185726525, 0
407, 0.86891227704437, -0.27613563914446, 0
408, 0.101437557715, 0.037853606479378, 0
409, 0.66023634012449, 0.21171858204578, 0
410, 0.8478496573418, 0.2759770931476, 0
411, 0.82170691352843, 0.27645664263336, 0
412, 0.21637617124981, 0.24461327921833, 0
413, 0.10288187940569, -0.21619431477453, 0
414, 0.073040914303652, 0.19575466823447, 0
415, 0.050346456000275, 0.060522990070245, 0
416, 0.024385094929256, 0.19528364390088, 0
417, 0.37244156802583, -0.27543147839471, 0
418, 0.34445222906678, -0.27695045747336, 0
419, 0.91868968651206, -0.24981532138563, 0
420, 0.920398910971, -0.27494795510963, 0
421, 0.94978331859893, 0.22202362939498, 0
422, 0.9749825461863, 0.24780471381667, 0
423, 0.97490462838082, 0.22119039320782, 0
424, 0.26158752696811, -0.22445778879417, 0
425, 0.10022849576888, -0.073135196927519, 0
426, 0.12684736539833, 0.067449083569478, 0
427, 0.12096676707888, 0.24793596767485, 0
428, 0.1035522992524, -0.24433739212147, 0
429, 0.024857582481252, 0.11424213295147, 0
430, 0.050071216327605, 0.088072293571248, 0
431, 0.94375338821799, -0.22191244512051, 0
432, 0.97191004603499, -0.22086718380299, 0
433, 0.62833779410999, -0.25992466711301, 0
434, 0.87404716669251, 0.25079840162063, 0
435, 0.89962513187681, 0.27492310092396, 0
436, 0.87380198098105, 0.27543042133403, 0
437, 0.050281078952081, -0.079528792459409, 0
438, 0.21449068970993, -0.077922629395028, 0
439, 0.79852307743249, 0.18806543577182, 0
440, 0.95017047107165, 0.27417592657014, 0
441, 0.97511888675688, 0.27396930884022, 0
442, 0.20956922604999, 0.077202159577323, 0
443, 0.2428845308976, 0.081663553750425, 0
444, 0.92474373642888, 0.24890363618707, 0
445, 0.92499542396785, 0.27450029913711, 0
446, 0.82822540518947, -0.088514628293092, 0
447, 0.78511695970268, -0.056944629575957, 0
448, 0.80577080549438, -0.074020188473593, 0
449, 0.78588460068426, -0.27030281334512, 0
450, 0.73217609003831, -0.2719985753134, 0
451, 0.75872763000531, -0.27159662343968, 0
452, 0.74939326294152, 0.068033349077575, 0
453, 0.78119453018352, 0.21440330554743, 0
454, 0.8015273495636, 0.069081580065393, 0
455, 0.77567258322342, 0.068140705340686, 0
456, 0.1003583599169, 0.091714561801585, 0
457, 0.050342065669244, -0.10758353769726, 0
458, 0.14474944163289, 0.22210236936608, 0
459, 0.051091231513638, -0.191014758116, 0
460, 0.1242420151275, 0.11994879830023, 0
461, 0.17209343790696, -0.090088045653589, 0
462, 0.81947306220713, -0.24548360274796, 0
463, 0.81539455623757, -0.27255642057151, 0
464, 0.025695236405668, -0.21984684086823, 0
465, 0.26738899332389, 0.26921108883028, 0
466, 0.19733256063591, 0.12823620118412, 0
467, 0.22915029991958, -0.024422653526974, 0
468, 0.92448179205389, 0.14372622688948, 0
469, 0.8992251137168, 0.17259706641723, 0
470, 0.9245264098037, 0.19698599975072, 0
471, 0.92447437698478, 0.17052847062958, 0
472, 0.92467504714543, 0.08945037222211, 0
473, 0.89938480934824, 0.11896179711967, 0
474, 0.92456443463563, 0.1166562440904, 0
475, 0.38363549500278, 0.28278186547863, 0
476, 0.42916775078458, 0.28274274120515, 0
477, 0.40621107417793, 0.28333535528086, 0
478, 0.19051467981459, 0.19627466068769, 0
479, 0.073953071586978, 0.14323641332741, 0
480, 0.025160290019198, -0.082718483014172, 0
481, 0.074568039260381, 0.11665134788335, 0
482, 0.12721282179896, 0.013584254514491, 0
483, 0.050325919480543, -0.051387773379331, 0
484, 0.33853395849787, 0.27803235472447, 0
485, 0.36108994161642, 0.28105230576731, 0
486, 0.70581277197732, -0.2707110377326, 0
487, 0.12180587061282, 0.17110350047368, 0
488, 0.099418840564758, 0.11817939543593, 0
489, 0.24746995502701, 0.16234218288906, 0
490, 0.91733256074638, -0.075394782928486, 0
491, 0.89433784520359, -0.042638594171748, 0
492, 0.92221191992827, -0.019188978353718, 0
493, 0.92005848135713, -0.046888559532129, 0
494, 0.36622485807413, -0.21245387332223, 0
495, 0.12479500319474, -0.098291177888186, 0
496, 0.17896955792593, -0.18469771137568, 0
497, 0.025155996454705, 0.058538777436749, 0
498, 0.2586416760109, 0.20936298310066, 0
499, 0.79279679754953, 0.13340954612098, 0
500, 0.77570127792687, 0.19603778818401, 0
501, 0.4759849951998, -0.27301407427748, 0
502, 0.78032877631409, 0.23293487601115, 0
503, 0.63343180345033, 0.18916131337888, 0
504, 0.797174683629, 0.10046770464446, 0
505, 0.87737595341916, -0.16654493883752, 0
506, 0.8402230709605, -0.19505389547814, 0
507, 0.84677840716078, -0.13207803314497, 0
508, 0.84418453184789, -0.1642404318227, 0
509, 0.29217174066098, 0.26897597339597, 0
510, 0.21191698945783, 0.1534231650447, 0
511, 0.63947340593456, 0.24812730807106, 0
512, 0.75678956686221, 0.14482750552148, 0
513, 0.4005245700677, -0.27700104573288, 0
514, 0.47872082057098, 0.27690875788883, 0
515, 0.45392311427726, 0.2806768271857, 0
516, 0.60660675132355, 0.22808171905109, 0
517, 0.20162089737711, -0.029005939472414, 0
518, 0.5156269321568, -0.26403861332912, 0
519, 0.89913583079743, 0.011166100575858, 0
520, 0.92441233794785, 0.03512763186137, 0
521, 0.92364610071961, 0.0080444721139041, 0
522, 0.12560856680745, -0.041491095307306, 0
523, 0.58006147141861, -0.25420165815364, 0
524, 0.65371458174887, -0.26414139341049, 0
525, 0.84918570748521, 0.22785312332652, 0
526, 0.68421808760366, 0.15264493360241, 0
527, 0.77636662301935, 0.25346480367887, 0
528, 0.74289577042946, -0.014493544407139, 0
529, 0.76483903098704, -0.037746997297872, 0
530, 0.3153352318989, 0.27359935548793, 0
531, 0.14897461500589, 0.12203724158319, 0
532, 0.14550508051374, 0.17192013630478, 0
533, 0.25992582883742, -0.19828743891852, 0
534, 0.21028159771395, -0.27289562898925, 0
535, 0.025903419119575, -0.27341245893183, 0
536, 0.096832913838249, 0.24794288121055, 0
537, 0.12110341723143, 0.27391248697604, 0
538, 0.097726587395848, 0.17030049763283, 0
539, 0.89994984530328, 0.06461765371641, 0
540, 0.92468586142538, 0.062248306655976, 0
541, 0.91175266891901, -0.13527384278286, 0
542, 0.88531928749343, -0.10151131969283, 0
543, 0.91436777158681, -0.10489759795757, 0
544, 0.82953809968174, -0.22155278107905, 0
545, 0.21107098286381, 0.17289973049999, 0
546, 0.0246777910125, 0.14166618335343, 0
547, 0.19391855829652, 0.27293801250388, 0
548, 0.048414762645264, 0.24783059940541, 0
549, 0.075322102202518, -0.076384269784523, 0
550, 0.8245822627633, 0.20658890952713, 0
551, 0.72249899774979, 0.038049762009011, 0
552, 0.72414497876067, 0.071511306699745, 0
553, 0.91092767777297, -0.19645837086678, 0
554, 0.9157533762119, -0.22411318695796, 0
555, 0.87360668287272, -0.01128505123695, 0
556, 0.85300725222828, 0.016717572428424, 0
557, 0.87586966421836, 0.040088721658628, 0
558, 0.87548784199705, 0.014191606138265, 0
559, 0.50344769146535, 0.27118347744952, 0
560, 0.85102581752439, 0.068392497002492, 0
561, 0.87468906849345, 0.09399903029978, 0
562, 0.87542705228488, 0.066743625112055, 0
563, 0.91039147714524, -0.16594058902821, 0
564, 0.87379993862269, 0.14859421727321, 0
565, 0.84854431966152, 0.17819534622967, 0
566, 0.87412257793798, 0.20082490671511, 0
567, 0.87390983834728, 0.17507585634748, 0
568, 0.12737651798781, 0.04066262318618, 0
569, 0.24714347237577, 0.054197151467453, 0
570, 0.89939527911162, 0.22440738539667, 0
571, 0.92461151561393, 0.22309248419045, 0
572, 0.20525184339942, -0.18547669009045, 0
573, 0.23711419664497, -0.27386000024798, 0
574, 0.29107534642418, -0.27620571765277, 0
575, 0.15591860642081, -0.24376849998294, 0
576, 0.2358122194849, -0.24729489738104, 0
577, 0.52772681281417, 0.26351296034761, 0
578, 0.82379213843817, 0.098261705361762, 0
579, 0.87419125971628, 0.22599124435291, 0
580, 0.71688476981843, 0.0057617521174599, 0
581, 0.72876466387952, 0.13749982000705, 0
582, 0.72583469669024, 0.21284176779708, 0
583, 0.12095595134625, 0.22214567748023, 0
584, 0.17734309865262, 0.099448974565095, 0
585, 0.1449913021576, 0.24777064942916, 0
586, 0.12119604120194, 0.19655694291523, 0
587, 0.81264703612831, 0.015930188425374, 0
588, 0.82651842792667, 0.06925611067577, 0
589, 0.82166525201402, 0.12790857563082, 0
590, 0.14539157279572, 0.273786173812, 0
591, 0.04874424920566, 0.19543538545234, 0
592, 0.024114292480223, 0.27392730938449, 0
593, 0.23864426720448, 0.00093579112061337, 0
594, 0.87404938851507, 0.12145075760562, 0
595, 0.68583184475899, 0.22621420100194, 0
596, 0.76705236150256, 0.17425199799983, 0
597, 0.049003851363508, 0.16899356494319, 0
598, 0.096792784351585, 0.27394560077042, 0
599, 0.2528020272231, 0.18443803901943, 0
600, 0.82596492320455, -0.022366779685393, 0
601, 0.025816709684144, -0.24674627594097, 0
602, 0.15314631260986, 0.07025651600645, 0
603, 0.076611462630256, -0.18932647339837, 0
604, 0.12871865759132, -0.21535420142048, 0
605, 0.2109211811077, 0.023850188100445, 0
606, 0.05184398764726, -0.27294623379428, 0
607, 0.18041486267155, 0.073455559791063, 0
608, 0.096944501736217, 0.22201753372301, 0
609, 0.72033486419543, 0.10304620862915, 0
610, 0.6827110866317, 0.18642451741027, 0
611, 0.86386740738438, -0.065347914576849, 0
612, 0.86966884393758, -0.037354531766092, 0
613, 0.050519187902782, -0.13554488779951, 0
614, 0.101084738016, 0.064932150339104, 0
615, 0.82178153992129, 0.15624143860348, 0
616, 0.85624804366102, -0.096513882099062, 0
617, 0.83224360869117, -0.0026206039142663, 0
618, 0.14885142788469, -0.094548682790061, 0
619, 0.025225370897557, 0.030358112384085, 0
620, 0.44304780448663, -0.28319079237503, 0
621, 0.87146429890486, -0.23564964767068, 0
622, 0.077903694085357, -0.27254832118221, 0
623, 0.40472560523725, -0.23786242165033, 0
624, 0.049712571835863, 0.11533981186351, 0
625, 0.77766649836429, -0.01158865930688, 0
626, 0.075455834367822, -0.048233648068162, 0
627, 0.70515584379152, 0.20023736821884, 0
628, 0.33569771243688, -0.23770888311341, 0
629, 0.1010144060437, -0.017097173186085, 0
630, 0.07585922799321, 0.0076002072865635, 0
631, 0.4955671112374, -0.26902469685752, 0
632, 0.79943819077062, 0.25384270934976, 0
633, 0.098483531381954, 0.14434719909843, 0
634, 0.26404114277898, -0.27505806212205, 0
635, 0.33067635426366, -0.18623001636341, 0
636, 0.80140359202794, 0.2103807753195, 0
637, 0.28830034429563, -0.204875649308, 0
638, 0.28911412462871, -0.22880663684578, 0
639, 0.23236782066501, -0.18938264443249, 0
640, 0.12644721045527, -0.15693449328708, 0
641, 0.10132831097306, -0.15906060905411, 0
642, 0.076098951094674, -0.16118996041515, 0
643, 0.050784470210082, -0.16335619467937, 0
644, 0.025411192641043, -0.16558674138954, 0
645, 0.23285118793636, 0.19117222261896, 0
646, 0.23655153783724, 0.21509759635207, 0
647, 0.2403990959478, 0.24165598340628, 0
648, 0.24269558700232, 0.27068530386396, 0
649, 0.23826760261179, 0.14468654518747, 0
650, 0.22633473964137, 0.15637692741823, 0
651, 0.72055949901676, 0.27049492565763, 0
652, 0.70992252113485, 0.23686899333712, 0
653, 0.80653280764386, 0.039856448912605, 0
654, 0.75512208021483, 0.022757809345377, 0
******* E L E M E N T S *************
*ELEMENT, type=T3D2, ELSET=Line1
1, 1, 10
2, 10, 18
3, 18, 11
4, 11, 19
5, 19, 12
6, 12, 20
7, 20, 13
8, 13, 21
9, 21, 14
10, 14, 22
11, 22, 15
12, 15, 23
13, 23, 16
14, 16, 24
15, 24, 17
16, 17, 2
*ELEMENT, type=T3D2, ELSET=Line2
17, 2, 25
18, 25, 29
19, 29, 26
20, 26, 30
21, 30, 27
22, 27, 31
23, 31, 28
24, 28, 3
*ELEMENT, type=T3D2, ELSET=Line3
25, 3, 32
26, 32, 40
27, 40, 33
28, 33, 41
29, 41, 34
30, 34, 42
31, 42, 35
32, 35, 43
33, 43, 36
34, 36, 44
35, 44, 37
36, 37, 45
37, 45, 38
38, 38, 46
39, 46, 39
40, 39, 4
*ELEMENT, type=T3D2, ELSET=Line4
41, 4, 47
42, 47, 58
43, 58, 48
44, 48, 59
45, 59, 49
46, 49, 60
47, 60, 50
48, 50, 61
49, 61, 51
50, 51, 62
51, 62, 52
52, 52, 63
53, 63, 53
54, 53, 64
55, 64, 54
56, 54, 65
57, 65, 55
58, 55, 66
59, 66, 56
60, 56, 67
61, 67, 57
62, 57, 5
*ELEMENT, type=T3D2, ELSET=Line5
63, 5, 68
64, 68, 76
65, 76, 69
66, 69, 77
67, 77, 70
68, 70, 78
69, 78, 71
70, 71, 79
71, 79, 72
72, 72, 80
73, 80, 73
74, 73, 81
75, 81, 74
76, 74, 82
77, 82, 75
78, 75, 6
*ELEMENT, type=T3D2, ELSET=Line6
79, 6, 83
80, 83, 86
81, 86, 84
82, 84, 87
83, 87, 85
84, 85, 7
*ELEMENT, type=T3D2, ELSET=Line7
85, 7, 88
86, 88, 97
87, 97, 89
88, 89, 98
89, 98, 90
90, 90, 99
91, 99, 91
92, 91, 100
93, 100, 92
94, 92, 101
95, 101, 93
96, 93, 102
97, 102, 94
98, 94, 103
99, 103, 95
100, 95, 104
101, 104, 96
102, 96, 8
*ELEMENT, type=T3D2, ELSET=Line8
103, 8, 105
104, 105, 116
105, 116, 106
106, 106, 117
107, 117, 107
108, 107, 118
109, 118, 108
110, 108, 119
111, 119, 109
112, 109, 120
113, 120, 110
114, 110, 121
115, 121, 111
116, 111, 122
117, 122, 112
118, 112, 123
119, 123, 113
120, 113, 124
121, 124, 114
122, 114, 125
123, 125, 115
124, 115, 1
*ELEMENT, type=T3D2, ELSET=Line9
125, 9, 126
126, 126, 160
127, 160, 158
128, 158, 161
129, 161, 157
130, 157, 162
131, 162, 156
132, 156, 163
133, 163, 155
134, 155, 164
135, 164, 154
136, 154, 165
137, 165, 153
138, 153, 166
139, 166, 152
140, 152, 167
141, 167, 151
142, 151, 168
143, 168, 150
144, 150, 169
145, 169, 149
146, 149, 170
147, 170, 148
148, 148, 171
149, 171, 147
150, 147, 172
151, 172, 146
152, 146, 173
153, 173, 145
154, 145, 174
155, 174, 144
156, 144, 175
157, 175, 143
158, 143, 176
159, 176, 142
160, 142, 177
161, 177, 141
162, 141, 178
163, 178, 140
164, 140, 179
165, 179, 139
166, 139, 180
167, 180, 138
168, 138, 181
169, 181, 137
170, 137, 182
171, 182, 136
172, 136, 183
173, 183, 135
174, 135, 184
175, 184, 134
176, 134, 185
177, 185, 133
178, 133, 186
179, 186, 132
180, 132, 187
181, 187, 131
182, 131, 188
183, 188, 130
184, 130, 189
185, 189, 129
186, 129, 190
187, 190, 128
188, 128, 191
189, 191, 127
190, 127, 192
191, 192, 159
192, 159, 9
*ELEMENT, type=CPS4, ELSET=Surface1
193, 341, 175, 144, 467
194, 372, 373, 177, 142
195, 479, 633, 538, 204
196, 215, 466, 333, 584
197, 546, 404, 597, 233
198, 298, 598, 103, 95
199, 46, 39, 338, 336
200, 336, 338, 337, 276
201, 338, 47, 58, 337
202, 39, 4, 47, 338
203, 359, 645, 646, 355
204, 306, 569, 443, 442
205, 227, 495, 234, 425
206, 618, 461, 294, 305
207, 267, 345, 346, 343
208, 343, 346, 344, 261
209, 346, 52, 63, 344
210, 345, 62, 52, 346
211, 622, 387, 428, 389
212, 415, 368, 211, 430
213, 147, 489, 649, 172
214, 614, 426, 223, 456
215, 60, 50, 354, 351
216, 351, 354, 352, 262
217, 354, 353, 266, 352
218, 50, 61, 353, 354
219, 642, 641, 229, 357
220, 389, 428, 413, 232
221, 639, 325, 424, 533
222, 649, 650, 510, 358
223, 460, 402, 633, 488
224, 285, 355, 412, 203
225, 548, 213, 298, 347
226, 416, 591, 293, 330
227, 65, 55, 363, 360
228, 360, 363, 361, 241
229, 363, 362, 244, 361
230, 55, 66, 362, 363
231, 225, 364, 196, 534
232, 324, 395, 496, 572
233, 638, 365, 199, 311
234, 374, 604, 222, 575
235, 331, 282, 230, 482
236, 387, 388, 222, 428
237, 456, 488, 481, 211
238, 235, 482, 568, 408
239, 197, 637, 236, 327
240, 395, 339, 403, 280
241, 396, 195, 604, 374
242, 576, 225, 534, 573
243, 65, 360, 377, 54
244, 54, 377, 375, 64
245, 377, 376, 259, 375
246, 360, 241, 376, 377
247, 395, 280, 396, 496
248, 332, 227, 425, 549
249, 171, 599, 489, 147
250, 273, 383, 384, 382
251, 382, 384, 351, 262
252, 384, 49, 60, 351
253, 383, 59, 49, 384
254, 63, 53, 386, 344
255, 344, 386, 385, 261
256, 386, 375, 259, 385
257, 53, 64, 375, 386
258, 123, 315, 371, 112
259, 457, 332, 549, 437
260, 531, 380, 402, 460
261, 10, 18, 606, 535
262, 439, 308, 550, 636
263, 409, 595, 251, 511
264, 266, 353, 394, 393
265, 393, 394, 345, 267
266, 394, 51, 62, 345
267, 353, 61, 51, 394
268, 280, 640, 195, 396
269, 634, 22, 15, 574
270, 364, 575, 224, 196
271, 198, 374, 575, 364
272, 79, 72, 400, 397
273, 162, 526, 283, 156
274, 247, 410, 411, 238
275, 577, 86, 84, 559
276, 391, 6, 83, 309
277, 512, 499, 328, 596
278, 516, 75, 6, 391
279, 121, 220, 194, 110
280, 112, 371, 480, 122
281, 478, 359, 355, 285
282, 107, 233, 416, 117
283, 44, 37, 407, 405
284, 405, 407, 291, 275
285, 407, 406, 274, 291
286, 37, 45, 406, 407
287, 125, 601, 464, 114
288, 293, 335, 213, 548
289, 591, 414, 335, 293
290, 228, 593, 218, 605
291, 237, 399, 582, 627
292, 411, 71, 79, 397
293, 410, 78, 71, 411
294, 117, 416, 330, 106
295, 286, 605, 306, 209
296, 547, 214, 92, 101
297, 282, 287, 286, 230
298, 480, 437, 483, 210
299, 109, 497, 231, 119
300, 380, 207, 205, 532
301, 119, 231, 429, 108
302, 23, 16, 418, 366
303, 366, 418, 310, 199
304, 418, 417, 200, 310
305, 16, 24, 417, 418
306, 45, 38, 420, 406
307, 406, 420, 419, 274
308, 420, 336, 276, 419
309, 38, 46, 336, 420
310, 66, 56, 423, 362
311, 362, 423, 421, 244
312, 423, 422, 245, 421
313, 56, 67, 422, 423
314, 367, 634, 574, 365
315, 428, 222, 604, 413
316, 116, 295, 592, 105
317, 11, 19, 387, 622
318, 358, 510, 340, 466
319, 535, 606, 342, 601
320, 643, 642, 357, 613
321, 572, 496, 198, 369
322, 315, 613, 457, 371
323, 426, 602, 216, 223
324, 307, 629, 235, 630
325, 425, 234, 522, 217
326, 276, 337, 432, 431
327, 431, 432, 383, 273
328, 432, 48, 59, 383
329, 337, 58, 48, 432
330, 40, 33, 524, 433
331, 524, 271, 186, 133
332, 246, 435, 436, 434
333, 434, 436, 410, 247
334, 436, 70, 78, 410
335, 435, 77, 70, 436
336, 305, 294, 219, 317
337, 381, 403, 618, 495
338, 120, 619, 497, 109
339, 641, 640, 381, 229
340, 80, 249, 400, 72
341, 401, 157, 161, 609
342, 632, 397, 400, 527
343, 73, 651, 249, 80
344, 67, 57, 441, 422
345, 422, 441, 440, 245
346, 441, 68, 76, 440
347, 57, 5, 68, 441
348, 172, 322, 443, 146
349, 314, 630, 378, 281
350, 230, 286, 209, 313
351, 322, 215, 442, 443
352, 245, 440, 445, 444
353, 444, 445, 435, 246
354, 445, 69, 77, 435
355, 440, 76, 69, 445
356, 270, 617, 268, 556
357, 446, 448, 128, 190
358, 448, 447, 191, 128
359, 277, 201, 600, 256
360, 187, 450, 451, 131
361, 131, 451, 449, 188
362, 451, 35, 43, 449
363, 450, 42, 35, 451
364, 279, 270, 556, 257
365, 256, 600, 617, 278
366, 320, 319, 202, 390
367, 582, 390, 398, 652
368, 592, 347, 104, 96
369, 458, 226, 208, 585
370, 598, 537, 94, 103
371, 624, 404, 546, 429
372, 330, 293, 548, 295
373, 413, 604, 195, 350
374, 281, 378, 368, 415
375, 593, 174, 145, 218
376, 275, 462, 463, 405
377, 405, 463, 36, 44
378, 463, 449, 43, 36
379, 462, 188, 449, 463
380, 464, 349, 459, 370
381, 467, 144, 174, 593
382, 316, 221, 438, 206
383, 573, 14, 22, 634
384, 241, 361, 471, 468
385, 468, 471, 469, 240
386, 471, 470, 243, 469
387, 361, 244, 470, 471
388, 259, 376, 474, 472
389, 472, 474, 473, 258
390, 474, 468, 240, 473
391, 376, 241, 468, 474
392, 168, 151, 477, 475
393, 475, 477, 88, 97
394, 477, 476, 7, 88
395, 151, 167, 476, 477
396, 368, 614, 456, 211
397, 379, 341, 467, 517
398, 111, 210, 220, 121
399, 356, 307, 630, 314
400, 114, 464, 370, 124
401, 549, 425, 217, 626
402, 487, 532, 299, 586
403, 576, 573, 634, 367
404, 168, 475, 485, 150
405, 150, 485, 484, 169
406, 485, 89, 98, 484
407, 475, 97, 89, 485
408, 187, 132, 486, 450
409, 450, 486, 34, 42
410, 216, 531, 460, 223
411, 226, 285, 203, 208
412, 583, 458, 585, 427
413, 355, 646, 647, 412
414, 266, 393, 493, 490
415, 490, 493, 491, 264
416, 493, 492, 269, 491
417, 393, 267, 492, 493
418, 179, 326, 494, 139
419, 139, 494, 297, 180
420, 494, 312, 200, 297
421, 326, 236, 312, 494
422, 412, 647, 648, 214
423, 483, 626, 307, 356
424, 1, 10, 535, 115
425, 323, 545, 359, 478
426, 581, 250, 526, 401
427, 512, 596, 399, 237
428, 391, 309, 154, 164
429, 398, 252, 249, 651
430, 29, 26, 501, 289
431, 289, 501, 137, 181
432, 193, 523, 184, 135
433, 74, 251, 392, 81
434, 525, 247, 238, 284
435, 500, 453, 319, 320
436, 30, 27, 518, 631
437, 304, 433, 185, 134
438, 33, 41, 271, 524
439, 263, 507, 508, 505
440, 505, 508, 506, 272
441, 508, 129, 189, 506
442, 507, 190, 129, 508
443, 599, 645, 334, 489
444, 545, 334, 645, 359
445, 348, 547, 101, 93
446, 608, 583, 427, 536
447, 502, 527, 252, 202
448, 163, 503, 516, 155
449, 652, 398, 651, 392
450, 577, 559, 153, 165
451, 516, 511, 82, 75
452, 2, 288, 513, 17
453, 17, 513, 417, 24
454, 513, 296, 200, 417
455, 288, 181, 296, 513
456, 87, 85, 515, 514
457, 514, 515, 152, 166
458, 515, 476, 167, 152
459, 85, 7, 476, 515
460, 503, 409, 511, 516
461, 309, 577, 165, 154
462, 81, 392, 651, 73
463, 206, 438, 341, 379
464, 209, 306, 442, 607
465, 217, 522, 331, 629
466, 122, 480, 210, 111
467, 31, 28, 193, 318
468, 28, 3, 523, 193
469, 267, 343, 521, 492
470, 492, 521, 519, 269
471, 521, 520, 260, 519
472, 343, 261, 520, 521
473, 221, 176, 143, 438
474, 234, 305, 317, 522
475, 626, 217, 629, 307
476, 522, 317, 282, 331
477, 41, 34, 486, 271
478, 501, 631, 182, 137
479, 523, 304, 134, 184
480, 615, 239, 565, 308
481, 610, 627, 595, 409
482, 253, 609, 552, 452
483, 328, 615, 308, 439
484, 625, 529, 447, 277
485, 447, 529, 127, 191
486, 529, 528, 192, 127
487, 201, 265, 301, 600
488, 99, 509, 530, 90
489, 90, 530, 484, 98
490, 530, 149, 169, 484
491, 509, 170, 149, 530
492, 229, 381, 495, 227
493, 300, 586, 583, 608
494, 488, 633, 479, 481
495, 203, 412, 214, 547
496, 373, 197, 141, 177
497, 224, 388, 12, 20
498, 424, 367, 365, 638
499, 533, 424, 638, 637
500, 19, 12, 388, 387
501, 210, 483, 356, 220
502, 461, 206, 379, 294
503, 575, 222, 388, 224
504, 633, 402, 487, 538
505, 347, 298, 95, 104
506, 295, 548, 347, 592
507, 585, 208, 348, 590
508, 32, 40, 433, 304
509, 27, 31, 318, 518
510, 258, 539, 540, 472
511, 472, 540, 385, 259
512, 540, 520, 261, 385
513, 539, 260, 520, 540
514, 271, 486, 132, 186
515, 518, 318, 183, 136
516, 262, 352, 543, 541
517, 541, 543, 542, 263
518, 543, 490, 264, 542
519, 352, 266, 490, 543
520, 275, 292, 544, 462
521, 462, 544, 130, 188
522, 544, 506, 189, 130
523, 292, 272, 506, 544
524, 232, 413, 350, 603
525, 371, 457, 437, 480
526, 569, 173, 146, 443
527, 482, 230, 313, 568
528, 214, 648, 100, 92
529, 536, 427, 537, 598
530, 108, 429, 546, 118
531, 106, 330, 295, 116
532, 160, 551, 552, 158
533, 238, 411, 397, 632
534, 248, 455, 454, 504
535, 653, 587, 270, 279
536, 274, 419, 554, 290
537, 290, 554, 553, 272
538, 554, 431, 273, 553
539, 419, 276, 431, 554
540, 260, 557, 558, 519
541, 519, 558, 555, 269
542, 558, 556, 268, 555
543, 557, 257, 556, 558
544, 166, 153, 559, 514
545, 514, 559, 84, 87
546, 516, 391, 164, 155
547, 260, 539, 562, 557
548, 557, 562, 560, 257
549, 562, 561, 254, 560
550, 539, 258, 561, 562
551, 433, 524, 133, 185
552, 3, 32, 304, 523
553, 26, 30, 631, 501
554, 272, 553, 563, 505
555, 505, 563, 541, 263
556, 563, 382, 262, 541
557, 553, 273, 382, 563
558, 240, 469, 567, 564
559, 564, 567, 565, 239
560, 567, 566, 242, 565
561, 469, 243, 566, 567
562, 313, 209, 607, 602
563, 606, 622, 389, 342
564, 590, 348, 93, 102
565, 517, 467, 593, 228
566, 246, 570, 571, 444
567, 444, 571, 421, 245
568, 571, 470, 244, 421
569, 570, 243, 470, 571
570, 325, 576, 367, 424
571, 639, 572, 369, 325
572, 573, 534, 21, 14
573, 496, 396, 374, 198
574, 372, 142, 176, 221
575, 196, 224, 20, 13
576, 197, 327, 178, 141
577, 372, 221, 316, 324
578, 372, 639, 533, 373
579, 534, 196, 13, 21
580, 372, 324, 572, 639
581, 365, 574, 366, 199
582, 156, 283, 503, 163
583, 82, 511, 251, 74
584, 589, 578, 254, 329
585, 243, 570, 579, 566
586, 566, 579, 525, 242
587, 579, 434, 247, 525
588, 570, 246, 434, 579
589, 9, 159, 580, 126
590, 126, 580, 551, 160
591, 454, 653, 279, 588
592, 159, 192, 528, 580
593, 581, 401, 609, 253
594, 512, 237, 250, 581
595, 596, 500, 320, 399
596, 205, 323, 478, 321
597, 498, 646, 645, 599
598, 213, 536, 598, 298
599, 597, 204, 414, 591
600, 250, 237, 627, 610
601, 600, 301, 268, 617
602, 654, 625, 303, 302
603, 390, 202, 252, 398
604, 636, 255, 502, 453
605, 308, 565, 242, 550
606, 309, 83, 86, 577
607, 284, 238, 632, 255
608, 538, 487, 586, 300
609, 427, 585, 590, 537
610, 340, 510, 545, 323
611, 481, 479, 404, 624
612, 339, 316, 206, 461
613, 404, 479, 204, 597
614, 430, 624, 429, 231
615, 239, 329, 594, 564
616, 564, 594, 473, 240
617, 594, 561, 258, 473
618, 329, 254, 561, 594
619, 589, 329, 239, 615
620, 248, 253, 452, 455
621, 512, 248, 504, 499
622, 609, 161, 158, 552
623, 211, 481, 624, 430
624, 335, 608, 536, 213
625, 532, 205, 321, 299
626, 172, 649, 358, 322
627, 586, 299, 458, 583
628, 223, 460, 488, 456
629, 233, 597, 591, 416
630, 148, 498, 599, 171
631, 588, 279, 257, 560
632, 654, 551, 580, 528
633, 447, 448, 201, 277
634, 302, 303, 587, 653
635, 322, 358, 466, 215
636, 204, 538, 300, 414
637, 342, 389, 232, 349
638, 299, 321, 226, 458
639, 619, 281, 415, 497
640, 629, 331, 482, 235
641, 630, 235, 408, 378
642, 601, 342, 349, 464
643, 644, 643, 613, 315
644, 602, 607, 584, 216
645, 607, 442, 215, 584
646, 194, 314, 281, 619
647, 18, 11, 622, 606
648, 115, 535, 601, 125
649, 438, 143, 175, 341
650, 317, 219, 287, 282
651, 595, 652, 392, 251
652, 550, 284, 255, 636
653, 242, 525, 284, 550
654, 268, 301, 612, 555
655, 555, 612, 491, 269
656, 612, 611, 264, 491
657, 301, 265, 611, 612
658, 207, 340, 323, 205
659, 489, 334, 650, 649
660, 613, 357, 332, 457
661, 497, 415, 430, 231
662, 118, 546, 233, 107
663, 113, 644, 315, 123
664, 105, 592, 96, 8
665, 357, 229, 227, 332
666, 499, 504, 578, 589
667, 499, 589, 615, 328
668, 527, 400, 249, 252
669, 265, 446, 616, 611
670, 611, 616, 542, 264
671, 616, 507, 263, 542
672, 446, 190, 507, 616
673, 303, 256, 278, 587
674, 654, 452, 552, 551
675, 654, 528, 529, 625
676, 220, 356, 314, 194
677, 110, 194, 619, 120
678, 294, 379, 517, 219
679, 512, 581, 253, 248
680, 568, 313, 602, 426
681, 466, 340, 207, 333
682, 537, 590, 102, 94
683, 2, 25, 620, 288
684, 288, 620, 289, 181
685, 25, 29, 289, 620
686, 272, 292, 621, 290
687, 290, 621, 291, 274
688, 292, 275, 291, 621
689, 349, 232, 603, 459
690, 495, 618, 305, 234
691, 333, 207, 380, 531
692, 180, 297, 623, 138
693, 138, 623, 296, 181
694, 297, 200, 296, 623
695, 208, 203, 547, 348
696, 414, 300, 608, 335
697, 402, 380, 532, 487
698, 448, 446, 265, 201
699, 587, 278, 617, 270
700, 625, 277, 256, 303
701, 631, 518, 136, 182
702, 318, 193, 135, 183
703, 408, 568, 426, 614
704, 218, 145, 173, 569
705, 373, 533, 637, 197
706, 399, 320, 390, 582
707, 578, 588, 560, 254
708, 500, 439, 636, 453
709, 200, 312, 628, 310
710, 310, 628, 311, 199
711, 312, 236, 311, 628
712, 403, 339, 461, 618
713, 378, 408, 614, 368
714, 219, 517, 228, 287
715, 287, 228, 605, 286
716, 605, 218, 569, 306
717, 437, 549, 626, 483
718, 453, 502, 202, 319
719, 255, 632, 527, 502
720, 283, 610, 409, 503
721, 510, 650, 334, 545
722, 321, 478, 285, 226
723, 584, 333, 531, 216
724, 280, 403, 381, 640
725, 325, 369, 225, 576
726, 369, 198, 364, 225
727, 178, 327, 635, 140
728, 140, 635, 326, 179
729, 327, 236, 326, 635
730, 526, 250, 610, 283
731, 596, 328, 439, 500
732, 627, 582, 652, 595
733, 637, 638, 311, 236
734, 324, 316, 339, 395
735, 574, 15, 23, 366
736, 350, 195, 640, 641
737, 603, 350, 641, 642
738, 459, 603, 642, 643
739, 370, 459, 643, 644
740, 124, 370, 644, 113
741, 212, 647, 646, 498
742, 170, 212, 498, 148
743, 465, 648, 647, 212
744, 509, 465, 212, 170
745, 91, 100, 648, 465
746, 99, 91, 465, 509
747, 504, 454, 588, 578
748, 401, 526, 162, 157
749, 302, 653, 454, 455
750, 654, 302, 455, 452
*ELSET,ELSET=contact_source
103, 104, 105, 106, 107, 108, 109, 110, 111, 112, 
113, 114, 115, 116, 117, 118, 119, 120, 121, 122, 
123, 124, 
*ELSET,ELSET=contact_drain
41, 42, 43, 44, 45, 46, 47, 48, 49, 50, 
51, 52, 53, 54, 55, 56, 57, 58, 59, 60, 
61, 62, 
*ELSET,ELSET=probe_A
79, 80, 81, 82, 83, 84, 
*ELSET,ELSET=probe_B
17, 18, 19, 20, 21, 22, 23, 24, 
*ELSET,ELSET=walls
1, 2, 3, 4, 5, 6, 7, 8, 9, 10, 
11, 12, 13, 14, 15, 16, 25, 26, 27, 28, 
29, 30, 31, 32, 33, 34, 35, 36, 37, 38, 
39, 40, 63, 64, 65, 66, 67, 68, 69, 70, 
71, 72, 73, 74, 75, 76, 77, 78, 85, 86, 
87, 88, 89, 90, 91, 92, 93, 94, 95, 96, 
97, 98, 99, 100, 101, 102, 125, 126, 127, 128, 
129, 130, 131, 132, 133, 134, 135, 136, 137, 138, 
139, 140, 141, 142, 143, 144, 145, 146, 147, 148, 
149, 150, 151, 152, 153, 154, 155, 156, 157, 158, 
159, 160, 161, 162, 163, 164, 165, 166, 167, 168, 
169, 170, 171, 172, 173, 174, 175, 176, 177, 178, 
179, 180, 181, 182, 183, 184, 185, 186, 187, 188, 
189, 190, 191, 192, 
*ELSET,ELSET=domain
193, 194, 195, 196, 197, 198, 199, 200, 201, 202, 
203, 204, 205, 206, 207, 208, 209, 210, 211, 212, 
213, 214, 215, 216, 217, 218, 219, 220, 221, 222, 
223, 224, 225, 226, 227, 228, 229, 230, 231, 232, 
233, 234, 235, 236, 237, 238, 239, 240, 241, 242, 
243, 244, 245, 246, 247, 248, 249, 250, 251, 252, 
253, 254, 255, 256, 257, 258, 259, 260, 261, 262, 
263, 264, 265, 266, 267, 268, 269, 270, 271, 272, 
273, 274, 275, 276, 277, 278, 279, 280, 281, 282, 
283, 284, 285, 286, 287, 288, 289, 290, 291, 292, 
293, 294, 295, 296, 297, 298, 299, 300, 301, 302, 
303, 304, 305, 306, 307, 308, 309, 310, 311, 312, 
313, 314, 315, 316, 317, 318, 319, 320, 321, 322, 
323, 324, 325, 326, 327, 328, 329, 330, 331, 332, 
333, 334, 335, 336, 337, 338, 339, 340, 341, 342, 
343, 344, 345, 346, 347, 348, 349, 350, 351, 352, 
353, 354, 355, 356, 357, 358, 359, 360, 361, 362, 
363, 364, 365, 366, 367, 368, 369, 370, 371, 372, 
373, 374, 375, 376, 377, 378, 379, 380, 381, 382, 
383, 384, 385, 386, 387, 388, 389, 390, 391, 392, 
393, 394, 395, 396, 397, 398, 399, 400, 401, 402, 
403, 404, 405, 406, 407, 408, 409, 410, 411, 412, 
413, 414, 415, 416, 417, 418, 419, 420, 421, 422, 
423, 424, 425, 426, 427, 428, 429, 430, 431, 432, 
433, 434, 435, 436, 437, 438, 439, 440, 441, 442, 
443, 444, 445, 446, 447, 448, 449, 450, 451, 452, 
453, 454, 455, 456, 457, 458, 459, 460, 461, 462, 
463, 464, 465, 466, 467, 468, 469, 470, 471, 472, 
473, 474, 475, 476, 477, 478, 479, 480, 481, 482, 
483, 484, 485, 486, 487, 488, 489, 490, 491, 492, 
493, 494, 495, 496, 497, 498, 499, 500, 501, 502, 
503, 504, 505, 506, 507, 508, 509, 510, 511, 512, 
513, 514, 515, 516, 517, 518, 519, 520, 521, 522, 
523, 524, 525, 526, 527, 528, 529, 530, 531, 532, 
533, 534, 535, 536, 537, 538, 539, 540, 541, 542, 
543, 544, 545, 546, 547, 548, 549, 550, 551, 552, 
553, 554, 555, 556, 557, 558, 559, 560, 561, 562, 
563, 564, 565, 566, 567, 568, 569, 570, 571, 572, 
573, 574, 575, 576, 577, 578, 579, 580, 581, 582, 
583, 584, 585, 586, 587, 588, 589, 590, 591, 592, 
593, 594, 595, 596, 597, 598, 599, 600, 601, 602, 
603, 604, 605, 606, 607, 608, 609, 610, 611, 612, 
613, 614, 615, 616, 617, 618, 619, 620, 621, 622, 
623, 624, 625, 626, 627, 628, 629, 630, 631, 632, 
633, 634, 635, 636, 637, 638, 639, 640, 641, 642, 
643, 644, 645, 646, 647, 648, 649, 650, 651, 652, 
653, 654, 655, 656, 657, 658, 659, 660, 661, 662, 
663, 664, 665, 666, 667, 668, 669, 670, 671, 672, 
673, 674, 675, 676, 677, 678, 679, 680, 681, 682, 
683, 684, 685, 686, 687, 688, 689, 690, 691, 692, 
693, 694, 695, 696, 697, 698, 699, 700, 701, 702, 
703, 704, 705, 706, 707, 708, 709, 710, 711, 712, 
713, 714, 715, 716, 717, 718, 719, 720, 721, 722, 
723, 724, 725, 726, 727, 728, 729, 730, 731, 732, 
733, 734, 735, 736, 737, 738, 739, 740, 741, 742, 
743, 744, 745, 746, 747, 748, 749, 750, 
*NSET,NSET=contact_source
1, 8, 105, 106, 107, 108, 109, 110, 111, 112, 
113, 114, 115, 116, 117, 118, 119, 120, 121, 122, 
123, 124, 125, 
*NSET,NSET=contact_drain
4, 5, 47, 48, 49, 50, 51, 52, 53, 54, 
55, 56, 57, 58, 59, 60, 61, 62, 63, 64, 
65, 66, 67, 
*NSET,NSET=probe_A
6, 7, 83, 84, 85, 86, 87, 
*NSET,NSET=probe_B
2, 3, 25, 26, 27, 28, 29, 30, 31, 
*NSET,NSET=walls
1, 2, 3, 4, 5, 6, 7, 8, 9, 10, 
11, 12, 13, 14, 15, 16, 17, 18, 19, 20, 
21, 22, 23, 24, 32, 33, 34, 35, 36, 37, 
38, 39, 40, 41, 42, 43, 44, 45, 46, 68, 
69, 70, 71, 72, 73, 74, 75, 76, 77, 78, 
79, 80, 81, 82, 88, 89, 90, 91, 92, 93, 
94, 95, 96, 97, 98, 99, 100, 101, 102, 103, 
104, 126, 127, 128, 129, 130, 131, 132, 133, 134, 
135, 136, 137, 138, 139, 140, 141, 142, 143, 144, 
145, 146, 147, 148, 149, 150, 151, 152, 153, 154, 
155, 156, 157, 158, 159, 160, 161, 162, 163, 164, 
165, 166, 167, 168, 169, 170, 171, 172, 173, 174, 
175, 176, 177, 178, 179, 180, 181, 182, 183, 184, 
185, 186, 187, 188, 189, 190, 191, 192, 
*NSET,NSET=domain
1, 2, 3, 4, 5, 6, 7, 8, 9, 10, 
11, 12, 13, 14, 15, 16, 17, 18, 19, 20, 
21, 22, 23, 24, 25, 26, 27, 28, 29, 30, 
31, 32, 33, 34, 35, 36, 37, 38, 39, 40, 
41, 42, 43, 44, 45, 46, 47, 48, 49, 50, 
51, 52, 53, 54, 55, 56, 57, 58, 59, 60, 
61, 62, 63, 64, 65, 66, 67, 68, 69, 70, 
71, 72, 73, 74, 75, 76, 77, 78, 79, 80, 
81, 82, 83, 84, 85, 86, 87, 88, 89, 90, 
91, 92, 93, 94, 95, 96, 97, 98, 99, 100, 
101, 102, 103, 104, 105, 106, 107, 108, 109, 110, 
111, 112, 113, 114, 115, 116, 117, 118, 119, 120, 
121, 122, 123, 124, 125, 126, 127, 128, 129, 130, 
131, 132, 133, 134, 135, 136, 137, 138, 139, 140, 
141, 142, 143, 144, 145, 146, 147, 148, 149, 150, 
151, 152, 153, 154, 155, 156, 157, 158, 159, 160, 
161, 162, 163, 164, 165, 166, 167, 168, 169, 170, 
171, 172, 173, 174, 175, 176, 177, 178, 179, 180, 
181, 182, 183, 184, 185, 186, 187, 188, 189, 190, 
191, 192, 193, 194, 195, 196, 197, 198, 199, 200, 
201, 202, 203, 204, 205, 206, 207, 208, 209, 210, 
211, 212, 213, 214, 215, 216, 217, 218, 219, 220, 
221, 222, 223, 224, 225, 226, 227, 228, 229, 230, 
231, 232, 233, 234, 235, 236, 237, 238, 239, 240, 
241, 242, 243, 244, 245, 246, 247, 248, 249, 250, 
251, 252, 253, 254, 255, 256, 257, 258, 259, 260, 
261, 262, 263, 264, 265, 266, 267, 268, 269, 270, 
271, 272, 273, 274, 275, 276, 277, 278, 279, 280, 
281, 282, 283, 284, 285, 286, 287, 288, 289, 290, 
291, 292, 293, 294, 295, 296, 297, 298, 299, 300, 
301, 302, 303, 304, 305, 306, 307, 308, 309, 310, 
311, 312, 313, 314, 315, 316, 317, 318, 319, 320, 
321, 322, 323, 324, 325, 326, 327, 328, 329, 330, 
331, 332, 333, 334, 335, 336, 337, 338, 339, 340, 
341, 342, 343, 344, 345, 346, 347, 348, 349, 350, 
351, 352, 353, 354, 355, 356, 357, 358, 359, 360, 
361, 362, 363, 364, 365, 366, 367, 368, 369, 370, 
371, 372, 373, 374, 375, 376, 377, 378, 379, 380, 
381, 382, 383, 384, 385, 386, 387, 388, 389, 390, 
391, 392, 393, 394, 395, 396, 397, 398, 399, 400, 
401, 402, 403, 404, 405, 406, 407, 408, 409, 410, 
411, 412, 413, 414, 415, 416, 417, 418, 419, 420, 
421, 422, 423, 424, 425, 426, 427, 428, 429, 430, 
431, 432, 433, 434, 435, 436, 437, 438, 439, 440, 
441, 442, 443, 444, 445, 446, 447, 448, 449, 450, 
451, 452, 453, 454, 455, 456, 457, 458, 459, 460, 
461, 462, 463, 464, 465, 466, 467, 468, 469, 470, 
471, 472, 473, 474, 475, 476, 477, 478, 479, 480, 
481, 482, 483, 484, 485, 486, 487, 488, 489, 490, 
491, 492, 493, 494, 495, 496, 497, 498, 499, 500, 
501, 502, 503, 504, 505, 506, 507, 508, 509, 510, 
511, 512, 513, 514, 515, 516, 517, 518, 519, 520, 
521, 522, 523, 524, 525, 526, 527, 528, 529, 530, 
531, 532, 533, 534, 535, 536, 537, 538, 539, 540, 
541, 542, 543, 544, 545, 546, 547, 548, 549, 550, 
551, 552, 553, 554, 555, 556, 557, 558, 559, 560, 
561, 562, 563, 564, 565, 566, 567, 568, 569, 570, 
571, 572, 573, 574, 575, 576, 577, 578, 579, 580, 
581, 582, 583, 584, 585, 586, 587, 588, 589, 590, 
591, 592, 593, 594, 595, 596, 597, 598, 599, 600, 
601, 602, 603, 604, 605, 606, 607, 608, 609, 610, 
611, 612, 613, 614, 615, 616, 617, 618, 619, 620, 
621, 622, 623, 624, 625, 626, 627, 628, 629, 630, 
631, 632, 633, 634, 635, 636, 637, 638, 639, 640, 
641, 642, 643, 644, 645, 646, 647, 648, 649, 650, 
651, 652, 653, 654, 
