*Heading
 /Users/juliagao/geometry-optimization-net/scripts/../runs/main/shape_12.inp
*NODE
1, 0, -0.3, 0
2, 0.425, -0.3, 0
3, 0.575, -0.3, 0
4, 1, -0.3, 0
5, 1, 0.3, 0
6, 0.575, 0.3, 0
7, 0.425, 0.3, 0
8, 0, 0.3, 0
9, 0.678618256, -0.0061822447, 0
10, 0.026121557506424, -0.3, 0
11, 0.079042077627122, -0.3, 0
12, 0.13278699215768, -0.3, 0
13, 0.18700337713154, -0.3, 0
14, 0.24149133570775, -0.3, 0
15, 0.29525468714226, -0.3, 0
16, 0.34787772912463, -0.3, 0
17, 0.39947747259557, -0.3, 0
18, 0.052243115012847, -0.3, 0
19, 0.1058410402414, -0.3, 0
20, 0.15973294407395, -0.3, 0
21, 0.21427381018912, -0.3, 0
22, 0.26870886122638, -0.3, 0
23, 0.32180051305814, -0.3, 0
24, 0.37395494519113, -0.3, 0
25, 0.45019564093608, -0.3, 0
26, 0.50012621428257, -0.3, 0
27, 0.54993057334649, -0.3, 0
28, 0.47539128187216, -0.3, 0
29, 0.52486114669298, -0.3, 0
30, 0.60058111685827, -0.3, 0
31, 0.6520992093392, -0.3, 0
32, 0.70475273566898, -0.3, 0
33, 0.75876229099165, -0.3, 0
34, 0.81290324389951, -0.3, 0
35, 0.86647517768873, -0.3, 0
36, 0.91998790034355, -0.3, 0
37, 0.97338831875071, -0.3, 0
38, 0.62616223371653, -0.3, 0
39, 0.67803618496187, -0.3, 0
40, 0.73146928637608, -0.3, 0
41, 0.78605529560722, -0.3, 0
42, 0.8397511921918, -0.3, 0
43, 0.89319916318567, -0.3, 0
44, 0.94677663750143, -0.3, 0
45, 1, -0.27356956722857, 0
46, 1, -0.22034301595672, 0
47, 1, -0.16624000384747, 0
48, 1, -0.11116637350536, 0
49, 1, -0.055727450426286, 0
50, 1, -0.00049556159287761, 0
51, 1, 0.054504980149337, 0
52, 1, 0.10933257249089, 0
53, 1, 0.1644762494951, 0
54, 1, 0.21976550671453, 0
55, 1, 0.27364892000835, 0
56, 1, -0.24713913445714, 0
57, 1, -0.19354689745631, 0
58, 1, -0.13893311023863, 0
59, 1, -0.083399636772081, 0
60, 1, -0.028055264080491, 0
61, 1, 0.027064140894736, 0
62, 1, 0.081945819403939, 0
63, 1, 0.13671932557783, 0
64, 1, 0.19223317341237, 0
65, 1, 0.2472978400167, 0
66, 0.97463494507741, 0.3, 0
67, 0.92248223804506, 0.3, 0
68, 0.86770736817265, 0.3, 0
69, 0.81268732709455, 0.3, 0
70, 0.75940737994438, 0.3, 0
71, 0.70625240272656, 0.3, 0
72, 0.65267533729237, 0.3, 0
73, 0.60050306262064, 0.3, 0
74, 0.94926989015483, 0.3, 0
75, 0.89569458593529, 0.3, 0
76, 0.83972015041001, 0.3, 0
77, 0.78565450377909, 0.3, 0
78, 0.73316025610968, 0.3, 0
79, 0.67934454934345, 0.3, 0
80, 0.62600612524128, 0.3, 0
81, 0.55000569370923, 0.3, 0
82, 0.5004097399991, 0.3, 0
83, 0.45040404628987, 0.3, 0
84, 0.52501138741845, 0.3, 0
85, 0.47580809257974, 0.3, 0
86, 0.39918401315326, 0.3, 0
87, 0.34753295546492, 0.3, 0
88, 0.2951469839871, 0.3, 0
89, 0.24103419066407, 0.3, 0
90, 0.185934924179, 0.3, 0
91, 0.131381987001, 0.3, 0
92, 0.078017233750026, 0.3, 0
93, 0.025834021939398, 0.3, 0
94, 0.37336802630651, 0.3, 0
95, 0.32169788462333, 0.3, 0
96, 0.26859608335088, 0.3, 0
97, 0.21347229797725, 0.3, 0
98, 0.15839755038075, 0.3, 0
99, 0.10436642362126, 0.3, 0
100, 0.051668043878795, 0.3, 0
101, 0, 0.27315232896348, 0
102, 0, 0.21911774070383, 0
103, 0, 0.16450599978799, 0
104, 0, 0.10920095935587, 0
105, 0, 0.053027426393636, 0
106, 0, -0.0033779841567529, 0
107, 0, -0.058710149650248, 0
108, 0, -0.1124554886345, 0
109, 0, -0.16590713403848, 0
110, 0, -0.21989457982666, 0
111, 0, -0.27347782401458, 0
112, 0, 0.24630465792695, 0
113, 0, 0.19193082348072, 0
114, 0, 0.13708117609526, 0
115, 0, 0.081320742616474, 0
116, 0, 0.024734110170797, 0
117, 0, -0.031490078484303, 0
118, 0, -0.085930220816193, 0
119, 0, -0.1389807564528, 0
120, 0, -0.19283351162416, 0
121, 0, -0.24695564802917, 0
122, 0.66603124079409, 0.019040947192605, 0
123, 0.63255809092588, -0.066450954445089, 0
124, 0.60854128204818, -0.11037878717285, 0
125, 0.61133177057275, -0.16414820488561, 0
126, 0.5987718678792, -0.21610282514046, 0
127, 0.5550400932528, -0.24085551055901, 0
128, 0.51214903530873, -0.21459526896244, 0
129, 0.48488738252631, -0.17034741082712, 0
130, 0.46791309101291, -0.1241387726559, 0
131, 0.42469185761669, -0.11550464637495, 0
132, 0.37562046719126, -0.13127121041471, 0
133, 0.32329284619076, -0.12991851176088, 0
134, 0.28258442866489, -0.097463306093015, 0
135, 0.27750861349982, -0.044074397235506, 0
136, 0.29926982666234, 0.0074992147920162, 0
137, 0.33713771654317, 0.049191238531253, 0
138, 0.38763717322064, 0.07147585263252, 0
139, 0.4415036762896, 0.070979874044302, 0
140, 0.49162251519458, 0.080247411670013, 0
141, 0.5345695459845, 0.10972406771198, 0
142, 0.58496292088782, 0.094871094097921, 0
143, 0.62178337356014, 0.05317939322106, 0
144, 0.6735635025107, -0.033293255381517, 0
145, 0.64535064516168, 0.037428296586591, 0
146, 0.60093849351838, 0.07283228798197, 0
147, 0.56167394695286, 0.11059566924274, 0
148, 0.51107388063508, 0.097266338826137, 0
149, 0.46797805669046, 0.067759715215279, 0
150, 0.41493501562046, 0.073609555065557, 0
151, 0.36143838412101, 0.063433094965572, 0
152, 0.31643664743204, 0.030143758245873, 0
153, 0.28595321893817, -0.017602640012997, 0
154, 0.2755950096604, -0.071891928777333, 0
155, 0.29951611322277, -0.11801854437934, 0
156, 0.34946382626478, -0.13362980230496, 0
157, 0.40098589227511, -0.12461761307193, 0
158, 0.448605159094, -0.10688621965778, 0
159, 0.47537036230094, -0.14583665908877, 0
160, 0.49697062947734, -0.19372370126376, 0
161, 0.53157564402299, -0.23171743970748, 0
162, 0.58032725674745, -0.23580106967738, 0
163, 0.60799071218363, -0.19119962805098, 0
164, 0.61074703412447, -0.13694544676161, 0
165, 0.61169519273686, -0.083451128503385, 0
166, 0.65524812032151, -0.05277840404295, 0
167, 0.39196405745726, -0.22531603990708, 0
168, 0.43662466078883, 0.21641915652164, 0
169, 0.30130188530129, 0.21191491093166, 0
170, 0.054367045417654, -0.24964915623731, 0
171, 0.10893483999239, -0.25304303358139, 0
172, 0.16315084625839, -0.2572318720901, 0
173, 0.21536147256594, -0.26176473591147, 0
174, 0.26270174181577, -0.2642651474203, 0
175, 0.43976375119881, -0.26744804566723, 0
176, 0.3568446741054, -0.25717242743175, 0
177, 0.30863396525422, -0.25719432796997, 0
178, 0.90064165329472, 0.016262142516548, 0
179, 0.73308611343468, -0.018051557028554, 0
180, 0.64444526544421, -0.20854085396558, 0
181, 0.69774802288392, -0.2526014598138, 0
182, 0.69681722510756, -0.038293653530395, 0
183, 0.72272154368439, -0.18692777802476, 0
184, 0.22007712588491, 0.15392297537636, 0
185, 0.55504027129726, 0.27260109149664, 0
186, 0.24823890246882, 0.15266102732514, 0
187, 0.19309030354004, 0.12596224979707, 0
188, 0.11036256785102, 0.13019557564797, 0
189, 0.055134214411043, 0.13338294110538, 0
190, 0.10880713594372, 0.18716556162568, 0
191, 0.054272487217018, 0.18937342438443, 0
192, 0.05323417180868, 0.24487254227827, 0
193, 0.27706854054659, 0.15147148087997, 0
194, 0.10697146081185, 0.24373148953412, 0
195, 0.13710297744747, 0.15749351612726, 0
196, 0.30389610942486, 0.18188964878617, 0
197, 0.71224871115537, 0.26971343991915, 0
198, 0.21636342271382, 0.24193166480002, 0
199, 0.59062641858711, 0.21659408762628, 0
200, 0.2487460622502, 0.12252912475181, 0
201, 0.65262839354475, 0.14582386949465, 0
202, 0.43324652564098, 0.10187808101129, 0
203, 0.24243342715309, 0.27086166862982, 0
204, 0.60393798027121, 0.105488198315, 0
205, 0.26834100626789, 0.057940317081452, 0
206, 0.13888763708606, 0.099876892325133, 0
207, 0.19128178756257, 0.1842801164741, 0
208, 0.16259804292535, 0.21401660167884, 0
209, 0.16001350422394, 0.27140153745742, 0
210, 0.16763669282911, 0.069279462313792, 0
211, 0.22063451510866, 0.067251407767541, 0
212, 0.17248863873794, 0.0090928469083442, 0
213, 0.23583808973764, 0.0079426921760847, 0
214, 0.11207656287421, 0.072683497243817, 0
215, 0.056019442773843, 0.07678585041324, 0
216, 0.057016791660765, 0.019702660652538, 0
217, 0.11439792899865, 0.014257713934108, 0
218, 0.056096019042978, -0.19869156553999, 0
219, 0.2194484508691, -0.22437117977409, 0
220, 0.2617835354352, -0.2324731079634, 0
221, 0.27107554028726, -0.20429857585202, 0
222, 0.16770233599833, -0.21417156358819, 0
223, 0.1122143309162, -0.20543788340746, 0
224, 0.17421949022244, -0.16940267610604, 0
225, 0.11555104487257, -0.15584653012981, 0
226, 0.057509065064093, -0.14657605371549, 0
227, 0.11669846397044, -0.044890257670581, 0
228, 0.057902417458597, -0.037193072838147, 0
229, 0.11759375153391, -0.10252004646311, 0
230, 0.058191751596243, -0.092827435606533, 0
231, 0.23619423836022, -0.067600412457789, 0
232, 0.17742340131169, -0.055569264324418, 0
233, 0.21539828576808, -0.13381519503797, 0
234, 0.18098967733033, -0.11907144083771, 0
235, 0.42631940706051, -0.17845811223722, 0
236, 0.28783999053739, -0.23520570961476, 0
237, 0.34197110812774, -0.2232531168838, 0
238, 0.29969021651541, -0.21806750277935, 0
239, 0.31772789357835, -0.23188277756063, 0
240, 0.41432847226697, -0.27195298783224, 0
241, 0.83557635211409, 0.164767190738, 0
242, 0.8762817974498, 0.21898817138657, 0
243, 0.37985327879066, 0.24273928992042, 0
244, 0.77099314998361, 0.24119361148424, 0
245, 0.88276494601752, 0.14244784966878, 0
246, 0.82436190359269, 0.0088731593679981, 0
247, 0.92875452000828, 0.14098325499762, 0
248, 0.76835531164024, 0.14888015310583, 0
249, 0.86027150094565, 0.074572885641314, 0
250, 0.54827791682268, 0.16910126619665, 0
251, 0.5392108668224, 0.21923197027484, 0
252, 0.7652415268957, 0.066794753981305, 0
253, 0.73072077181329, 0.056091157620059, 0
254, 0.88362599404503, 0.11832936177988, 0
255, 0.86209594345141, 0.09692305398944, 0
256, 0.77723264082057, 0.0278966948985, 0
257, 0.85306377152416, 0.02713215093218, 0
258, 0.48376343245457, 0.24544526669857, 0
259, 0.77708720226902, 0.21204568224199, 0
260, 0.50469649605203, 0.2727879206696, 0
261, 0.56942931964297, 0.19201629067003, 0
262, 0.86212278213017, 0.11925026504651, 0
263, 0.79313115265185, -0.0090726410134485, 0
264, 0.80213768120215, 0.21456920517998, 0
265, 0.90600892064799, 0.11694741339371, 0
266, 0.82237369810557, 0.24396620770043, 0
267, 0.90464495177911, 0.067318033454634, 0
268, 0.49284875578176, 0.1923940996939, 0
269, 0.75903847365646, 0.17867579979006, 0
270, 0.87354863981585, 0.24569675344956, 0
271, 0.67424416873453, 0.057062113486034, 0
272, 0.83928666249518, 0.14115946463535, 0
273, 0.5569156783121, 0.1271081166712, 0
274, 0.37646500765111, 0.27136552640068, 0
275, 0.94983232739225, 0.24652941861931, 0
276, 0.89298391700843, -0.065326458462849, 0
277, 0.94650807268194, -0.074972377064434, 0
278, 0.62750793528544, 0.12294264065372, 0
279, 0.69947878710037, -0.16381165345901, 0
280, 0.79403333851232, -0.17238517990921, 0
281, 0.78556939691273, -0.03695063139011, 0
282, 0.83918172129337, -0.053104853823249, 0
283, 0.33637230224373, 0.1522400126496, 0
284, 0.70137569915855, -0.20201136649953, 0
285, 0.76983135311534, -0.095576142231568, 0
286, 0.72675123377224, -0.27394782718489, 0
287, 0.62593411554957, -0.2000184453048, 0
288, 0.94496525859569, -0.13132607715056, 0
289, 0.83473299759245, -0.082065000870075, 0
290, 0.88904428328859, -0.12299320493356, 0
291, 0.73755422143906, -0.21555437754757, 0
292, 0.65289442355814, -0.18876843150748, 0
293, 0.69264627073128, -0.23151269828485, 0
294, 0.66281272801224, -0.16788456674011, 0
295, 0.88795952494701, -0.1824113424196, 0
296, 0.80627945626391, -0.074543970852688, 0
297, 0.889975246771, -0.24171883206601, 0
298, 0.94460048623992, -0.18800810729531, 0
299, 0.94536484476995, -0.24429350913459, 0
300, 0.32985376523263, -0.14715374208648, 0
301, 0.25187506776999, -0.19677673037739, 0
302, 0.33312421030492, -0.16704343024761, 0
303, 0.26983773997683, 0.2707854227031, 0
304, 0.13282931246802, 0.2716380775772, 0
305, 0.24473908529426, 0.065889259620534, 0
306, 0.25715516479673, 0.032822258574049, 0
307, 0.22231689816516, 0.040212088373555, 0
308, 0.65722304590988, -0.23364508323381, 0
309, 0.67086136061804, -0.20074435880248, 0
310, 0.72106766915777, -0.2485449200288, 0
311, 0.60893855104368, -0.24545990200377, 0
312, 0.7398783627058, -0.084067305237686, 0
313, 0.61677698553836, 0.21411822171101, 0
314, 0.89724765706978, 0.27300237815716, 0
315, 0.79136500032244, 0.27118733683134, 0
316, 0.71598397085193, -0.14024783187207, 0
317, 0.7614078242238, -0.12784172066709, 0
318, 0.79111949383992, 0.15655029070063, 0
319, 0.3565609622687, 0.21308123509495, 0
320, 0.7514789940444, 0.2093760684846, 0
321, 0.52568940322245, -0.2627116232467, 0
322, 0.49620860974667, -0.25065222112093, 0
323, 0.45069936292172, -0.16271780394721, 0
324, 0.6738372010713, -0.14555539890571, 0
325, 0.83645040654804, -0.27010897553023, 0
326, 0.68391733673665, -0.1836160905497, 0
327, 0.56481123852419, 0.21835470280863, 0
328, 0.1352092489533, 0.21473219196608, 0
329, 0.3508944502326, -0.15403522809755, 0
330, 0.37082936058382, -0.16109365703444, 0
331, 0.20278513205077, -0.17836134561578, 0
332, 0.82690067070561, 0.21660456967036, 0
333, 0.71921181458987, 0.023905337456449, 0
334, 0.78372251866432, 0.18348669903525, 0
335, 0.31832015128058, -0.17814025179014, 0
336, 0.41339607558328, -0.15452880606714, 0
337, 0.37977487973429, -0.20622043347024, 0
338, 0.44649776810293, 0.16133060830606, 0
339, 0.69791706839699, 0.2068810995239, 0
340, 0.8122608966843, 0.10200915324931, 0
341, 0.58168723732587, 0.11927867378523, 0
342, 0.7651626817842, 0.27053102839282, 0
343, 0.32618861012317, 0.24171174820264, 0
344, 0.18882304017814, 0.24231222832057, 0
345, 0.68199717155946, 0.13549396326164, 0
346, 0.97603924714398, 0.084578101493042, 0
347, 0.92509383237101, 0.011690379015098, 0
348, 0.97611387271151, 0.1383435226382, 0
349, 0.97615898483025, 0.11143788419997, 0
350, 0.97534323551747, 0.030642531747516, 0
351, 0.9742819590605, -0.02394179856472, 0
352, 0.89911170497983, 0.24613166558382, 0
353, 0.97483514969364, 0.00344000589509, 0
354, 0.72876305516737, -0.11226928282064, 0
355, 0.86177920109079, -0.24059429736635, 0
356, 0.89154975452194, -0.27095971107924, 0
357, 0.86409809346693, -0.27044917881143, 0
358, 0.13615769749667, -0.25503862957513, 0
359, 0.16140140142745, -0.27859876646563, 0
360, 0.10738835869062, -0.27653309015488, 0
361, 0.1344377518046, -0.27751938317604, 0
362, 0.81879617027296, 0.13837729345632, 0
363, 0.97575837410814, 0.057665174693353, 0
364, 0.5525989894615, 0.1467176742666, 0
365, 0.24395469478423, 0.2416336834663, 0
366, 0.2207058859074, 0.12444173823744, 0
367, 0.52287007034321, 0.16897514998968, 0
368, 0.94601374376985, -0.27220181206061, 0
369, 0.91780519070104, -0.24297363996259, 0
370, 0.91884928596774, -0.27155740530631, 0
371, 0.82319342397744, 0.11816776958077, 0
372, 0.33241019978532, 0.18256388934775, 0
373, 0.87317440452301, -0.004730615312991, 0
374, 0.87883956710153, 0.19278470898283, 0
375, 0.74673799273606, -0.24402842945752, 0
376, 0.66125969980572, -0.21620312948031, 0
377, 0.63809018547794, -0.22882190412236, 0
378, 0.75213436841841, -0.16722054054423, 0
379, 0.027993645716954, 0.078980460941149, 0
380, 0.056508915043569, 0.048276048465099, 0
381, 0.028475436141184, 0.02228334651503, 0
382, 0.028232262354387, 0.050648275007439, 0
383, 0.40257742487589, 0.27168404315984, 0
384, 0.37113067403697, 0.12499733914565, 0
385, 0.68022642439938, 0.095033875548897, 0
386, 0.47224706006574, 0.16414662363468, 0
387, 0.05255859446977, 0.27246802426928, 0
388, 0.026578698918147, 0.24553089397246, 0
389, 0.026238374347925, 0.27279542792187, 0
390, 0.9725203255711, -0.13512778444387, 0
391, 0.94561273622774, -0.10305206804401, 0
392, 0.97322776961289, -0.079273571928051, 0
393, 0.97281273281779, -0.1071695945957, 0
394, 0.029032643846247, -0.089102037415098, 0
395, 0.057970017645639, -0.11993448248438, 0
396, 0.028732191854007, -0.14273106137551, 0
397, 0.028938811215352, -0.11603287416576, 0
398, 0.74400390072879, 0.13795786485366, 0
399, 0.97373109420519, -0.051524910093326, 0
400, 0.45231559242606, 0.13356830205784, 0
401, 0.92149709068159, -0.042523798656147, 0
402, 0.65050425332973, 0.073890496061995, 0
403, 0.8707036111862, 0.27274710633002, 0
404, 0.054711869700783, 0.16144563688197, 0
405, 0.027551040085129, 0.13514336179836, 0
406, 0.027111575239614, 0.19059812922276, 0
407, 0.027336391659287, 0.1629339731113, 0
408, 0.24703189832424, 0.18259675494776, 0
409, 0.63797018735047, 0.24145602945204, 0
410, 0.48362210978869, 0.11093351984476, 0
411, 0.60409049937623, -0.27226812882836, 0
412, 0.75325837240471, -0.27201505016176, 0
413, 0.62912224140676, -0.27479418483687, 0
414, 0.88107588390644, 0.16724288389109, 0
415, 0.97562948207202, 0.1925814589992, 0
416, 0.97592404132932, 0.16542449738627, 0
417, 0.68492381692244, -0.21386735723343, 0
418, 0.31508781612773, -0.27909812544815, 0
419, 0.33418673579054, -0.25928193517272, 0
420, 0.36496693712352, -0.27770541402083, 0
421, 0.34046085625463, -0.27911228469945, 0
422, 0.97273362134494, -0.24566837189033, 0
423, 0.97303833854359, -0.27287677697751, 0
424, 0.18968116208116, -0.25954226049155, 0
425, 0.21462802787906, -0.2808163756223, 0
426, 0.18822761836621, -0.27973420979362, 0
427, 0.055563649735629, 0.10515800034106, 0
428, 0.027767634192352, 0.10713042464273, 0
429, 0.52979381184673, 0.27279414623444, 0
430, 0.44130987276435, 0.1888344543925, 0
431, 0.10581908077325, 0.27189402670977, 0
432, 0.30973303629037, 0.11802580690543, 0
433, 0.081641328506284, -0.25125458582573, 0
434, 0.053399021618289, -0.27484920323163, 0
435, 0.080360651235062, -0.27564632328214, 0
436, 0.94462205426201, -0.15967426566095, 0
437, 0.97237098600592, -0.19073262108384, 0
438, 0.97237230691962, -0.16297504057232, 0
439, 0.85157776120175, 0.21806248249841, 0
440, 0.81768726779541, 0.27182548269951, 0
441, 0.77994013774582, 0.12339311337619, 0
442, 0.057500246568488, -0.0088309696153169, 0
443, 0.028892916189003, -0.034081431420671, 0
444, 0.028704135550803, -0.0059901014812282, 0
445, 0.23977892073531, -0.26353221110612, 0
446, 0.26532954710518, -0.28182171853318, 0
447, 0.24035399666605, -0.28163298423927, 0
448, 0.056863121914351, -0.17281177157915, 0
449, 0.028055273201989, -0.19574926943894, 0
450, 0.028428931409982, -0.16931818061506, 0
451, 0.28458627379447, -0.2629725810037, 0
452, 0.28983340517114, -0.28091025709215, 0
453, 0.39312547371034, 0.15664885215354, 0
454, 0.027172206619199, -0.24820449832233, 0
455, 0.026670877747012, -0.27413283781934, 0
456, 0.21492367109229, 0.27100198786142, 0
457, 0.6265946056231, 0.089735512305766, 0
458, 0.95087585952782, 0.034278699359043, 0
459, 0.85709528563395, 0.051439010324693, 0
460, 0.89550205444688, -0.037437281577753, 0
461, 0.080026635273535, 0.24427906834945, 0
462, 0.07910262485453, 0.27216923078816, 0
463, 0.37970666264432, -0.25300767945024, 0
464, 0.38945980090536, -0.27529564089742, 0
465, 0.058157131975041, -0.065221293511139, 0
466, 0.029011893007723, -0.061749792110417, 0
467, 0.79911242980561, 0.13298621932392, 0
468, 0.97495226178867, 0.24674826013197, 0
469, 0.97528408554681, 0.21970685101284, 0
470, 0.82773280265582, -0.17612696690134, 0
471, 0.84856486001653, 0.0015565829969844, 0
472, 0.90288554612131, 0.042080083354527, 0
473, 0.6116401106159, 0.24300595282089, 0
474, 0.71618051848703, 0.12161580754078, 0
475, 0.57787266261295, 0.14246173824291, 0
476, 0.90572679957934, 0.0921772382304, 0
477, 0.54381200696517, 0.19350175893737, 0
478, 0.94487014792672, -0.2162252945073, 0
479, 0.9725007370842, -0.21827111818446, 0
480, 0.19377536645143, 0.096921357307956, 0
481, 0.13619871442313, 0.18615785842275, 0
482, 0.35018017977349, 0.27109592901804, 0
483, 0.60257271175267, 0.13404183883506, 0
484, 0.11053691862269, -0.22939452231442, 0
485, 0.14015205906049, -0.20952553265558, 0
486, 0.1651997748333, -0.23579940546698, 0
487, 0.13804135096079, -0.23242656325153, 0
488, 0.087634437083408, -0.097198548728755, 0
489, 0.11686891173189, -0.12975507145585, 0
490, 0.086424867188657, -0.15084546970202, 0
491, 0.087226948955305, -0.12439683163099, 0
492, 0.90284729465564, 0.19318097139272, 0
493, 0.97471321739237, 0.27341783465347, 0
494, 0.4149338538159, 0.18705029067293, 0
495, 0.94871715474831, -0.01968356392398, 0
496, 0.76822847050492, 0.00075713176720685, 0
497, 0.80514788535147, 0.09083463302973, 0
498, 0.053790268363221, 0.21717584486535, 0
499, 0.026864234251059, 0.218114140725, 0
500, 0.055257643157904, -0.22428408014593, 0
501, 0.027632557924923, -0.22205414507146, 0
502, 0.69850201193906, -0.097572160505977, 0
503, 0.74993289926158, -0.055899884346736, 0
504, 0.64549668570726, -0.12895354620066, 0
505, 0.65334797899144, -0.27638728584428, 0
506, 0.57792371984316, -0.26923570569467, 0
507, 0.41521895553037, -0.21517330396244, 0
508, 0.55209864744166, -0.26795360122226, 0
509, 0.67623663316842, 0.174950279986, 0
510, 0.64839380899513, 0.1798315073271, 0
511, 0.63899083338104, -0.1530914328175, 0
512, 0.71319162107066, -0.22422036021172, 0
513, 0.9505544097986, 0.21971568119364, 0
514, 0.94929250648383, 0.27327530485547, 0
515, 0.085649135562849, 0.017013012271477, 0
516, 0.11561704558393, -0.015320959974547, 0
517, 0.08712875306455, -0.040769656745124, 0
518, 0.086448171610675, -0.011937376798737, 0
519, 0.90552038229857, 0.1419255564059, 0
520, 0.43236904843645, 0.24415356047332, 0
521, 0.46255505292612, 0.21760771249379, 0
522, 0.77826434663229, 0.088199986698995, 0
523, 0.92668479935615, 0.038057093678452, 0
524, 0.80766683235175, 0.18732572251727, 0
525, 0.31443640979412, -0.15751912459401, 0
526, 0.31953101911661, -0.21803938584934, 0
527, 0.30094217970947, -0.16789398828361, 0
528, 0.21776038744708, 0.21274172042198, 0
529, 0.34907774817894, 0.090056352624311, 0
530, 0.70514678420692, 0.1712310658939, 0
531, 0.29688436553705, 0.27079429000018, 0
532, 0.164654876677, 0.15630107555141, 0
533, 0.10794714111758, 0.21549347691585, 0
534, 0.19228219713624, 0.15512677985694, 0
535, 0.29439725378069, -0.14640097751397, 0
536, 0.35959713394587, -0.2158606541985, 0
537, 0.33388725533596, -0.18875699214071, 0
538, 0.46271777239455, -0.18728825572642, 0
539, 0.47653420552952, -0.21393112298995, 0
540, 0.40331309372694, -0.24715232872477, 0
541, 0.66811647495807, -0.083477574167508, 0
542, 0.63276403574291, -0.2507356581528, 0
543, 0.91977585018118, -0.070375781983722, 0
544, 0.62148704391427, 0.18475630255503, 0
545, 0.88340076294102, 0.094603564157282, 0
546, 0.38801929208932, 0.18537336850919, 0
547, 0.85855933248098, -0.17939645690993, 0
548, 0.88868970498869, -0.2121931266235, 0
549, 0.85978300573884, -0.21024691230662, 0
550, 0.76082122998862, 0.10866381343821, 0
551, 0.59525642639201, 0.18899802289715, 0
552, 0.19437403954312, -0.21924906409779, 0
553, 0.2168459293041, -0.2429364230056, 0
554, 0.19164644884316, -0.23939961994723, 0
555, 0.72508031681721, 0.20729687595639, 0
556, 0.66466967568444, 0.24000625248421, 0
557, 0.60618961377943, 0.27161471230835, 0
558, 0.62544307274482, 0.15444719149893, 0
559, 0.84183582942334, 0.11939395248611, 0
560, 0.92874932245002, 0.089688894310592, 0
561, 0.40625816494202, 0.24342586306762, 0
562, 0.70677420770699, -0.0098496437595979, 0
563, 0.53452426436024, 0.24578328347713, 0
564, 0.91653247991974, -0.18525953766268, 0
565, 0.91698358381392, -0.21420059742025, 0
566, 0.86960921460027, -0.031733597545391, 0
567, 0.92454181893305, 0.24637321954317, 0
568, 0.85812750087933, 0.16649761302968, 0
569, 0.90440423487353, 0.16731392735461, 0
570, 0.084059768598092, 0.07468268817189, 0
571, 0.1131586436977, 0.043613952425857, 0
572, 0.084825457897853, 0.045915797012791, 0
573, 0.27282763375865, -0.13074257320696, 0
574, 0.3081661622457, -0.13796414774381, 0
575, 0.22079360384297, 0.095329761657533, 0
576, 0.42620887647729, 0.13063794221401, 0
577, 0.68548246798335, 0.26982005823531, 0
578, 0.24214719674212, -0.22894257874526, 0
579, 0.26112758681941, -0.24779268176652, 0
580, 0.24019216481256, -0.24593570768008, 0
581, 0.43916745124051, -0.2024435565557, 0
582, 0.42764955093197, -0.23937411592348, 0
583, 0.2086037836785, -0.1569886550825, 0
584, 0.24613600891631, -0.15416152291984, 0
585, 0.17789666032372, -0.14537200362141, 0
586, 0.2487017878112, -0.10281175444321, 0
587, 0.95245290944762, 0.11342843677883, 0
588, 0.36523038887857, 0.15437733378207, 0
589, 0.63279406201902, -0.17694974653199, 0
590, 0.65464419429881, -0.10526484857391, 0
591, 0.67362994878598, -0.2219435544421, 0
592, 0.64337635903736, 0.21128326625302, 0
593, 0.5993889035914, 0.16155066823176, 0
594, 0.83133516652431, 0.1900590988851, 0
595, 0.84233616504611, 0.099049938737081, 0
596, 0.82508575512503, 0.1008314751022, 0
597, 0.81333321446909, 0.16163231922585, 0
598, 0.89075872354241, -0.093866149497939, 0
599, 0.91719302262393, -0.1273407461935, 0
600, 0.91829473014377, -0.098674433911645, 0
601, 0.95128789621098, 0.19293783576746, 0
602, 0.82124924046849, 0.083873185598499, 0
603, 0.81835125871723, -0.017715617623904, 0
604, 0.79602897473372, 0.074050871650968, 0
605, 0.798955967831, -0.20746948210237, 0
606, 0.29894827530645, 0.24147845710821, 0
607, 0.21903922644141, 0.18340043939839, 0
608, 0.87962708517598, 0.046478709264882, 0
609, 0.90103048802726, 0.21948673384006, 0
610, 0.57379557372318, 0.16662482188492, 0
611, 0.45243526052125, -0.22885469745975, 0
612, 0.11116508118816, 0.10152325377916, 0
613, 0.082742872319306, 0.13174032135941, 0
614, 0.083372818918631, 0.1032881963218, 0
615, 0.31321527605493, 0.078360949480412, 0
616, 0.13797113912304, 0.128737845877, 0
617, 0.16138425185858, 0.24274722258219, 0
618, 0.43895842427725, -0.13919619009441, 0
619, 0.46723855107049, 0.19069160154645, 0
620, 0.88199682940732, 0.070805493927008, 0
621, 0.84386800417343, -0.025221812398432, 0
622, 0.47762845164223, 0.13781884961419, 0
623, 0.36050736990383, 0.18382522427688, 0
624, 0.94757221562633, -0.047168805661067, 0
625, 0.92331686182231, -0.01516268272422, 0
626, 0.92804447655434, 0.16693573926308, 0
627, 0.86033429321911, -0.1180564835907, 0
628, 0.88806184665695, -0.15258196151648, 0
629, 0.68325730503161, -0.062198813555356, 0
630, 0.8587532693061, -0.14848136386839, 0
631, 0.11750361981058, -0.0741267765963, 0
632, 0.087579541042121, -0.069268500482022, 0
633, 0.78645970082666, 0.052750960893296, 0
634, 0.7064534837713, 0.076417909872396, 0
635, 0.35316040843892, 0.24214873341486, 0
636, 0.50915742305686, 0.24579617766461, 0
637, 0.47956979557943, 0.27262355505062, 0
638, 0.23311807285004, -0.032137014186303, 0
639, 0.28134703729182, -0.15628362618867, 0
640, 0.80798873653874, 0.042236099506569, 0
641, 0.75405428517555, 0.040515900039232, 0
642, 0.83984647263982, 0.078799084615743, 0
643, 0.52725406955872, 0.14632068828439, 0
644, 0.18742644842609, 0.27118650114513, 0
645, 0.65486550848616, -0.25391164090557, 0
646, 0.89811664517165, -0.010235370142357, 0
647, 0.50694942124816, 0.11967992648912, 0
648, 0.91658735150036, -0.15625260750394, 0
649, 0.80398684005281, -0.23956617058159, 0
650, 0.78074304017633, -0.27063789683922, 0
651, 0.35049892955555, -0.1770412916186, 0
652, 0.28689796729195, -0.21113791800899, 0
653, 0.34765717908909, -0.20112304107851, 0
654, 0.17487601926056, -0.022953080389701, 0
655, 0.14676068890223, -0.049727782771595, 0
656, 0.14330216372147, 0.011541020312103, 0
657, 0.1450809921364, -0.018989245669615, 0
658, 0.53126895136072, 0.12633207582864, 0
659, 0.74320997688484, 0.08662007465516, 0
660, 0.75918885404682, -0.027540519503242, 0
661, 0.86063921734444, 0.1423165019325, 0
662, 0.74358379475909, 0.011729464007759, 0
663, 0.79225819411505, 0.10403224169883, 0
664, 0.17072808543988, -0.19214843869497, 0
665, 0.22346087938318, -0.2060704602185, 0
666, 0.19805096579807, -0.19897376706169, 0
667, 0.50236279694444, 0.14269490694111, 0
668, 0.27533258734832, 0.18199975100195, 0
669, 0.24553077804033, 0.21223802733123, 0
670, 0.32370220991937, 0.27089962146812, 0
671, 0.081500757852119, 0.18823366368615, 0
672, 0.080811976611191, 0.2163050851209, 0
673, 0.084157106675636, -0.20186724135036, 0
674, 0.082905291962003, -0.22670105684419, 0
675, 0.11392688995967, -0.18099412703562, 0
676, 0.085359463790233, -0.17662722302955, 0
677, 0.45818838697058, 0.2448573194514, 0
678, 0.19011584049948, 0.21334806552579, 0
679, 0.14488890658459, -0.16192109201974, 0
680, 0.14247817250967, -0.18612322864015, 0
681, 0.10959646647499, 0.15873675920818, 0
682, 0.082131887784746, 0.16004984003148, 0
683, 0.27672397963463, 0.087519037481597, 0
684, 0.4882150921969, 0.21863225288046, 0
685, 0.3290766286395, 0.2123185347389, 0
686, 0.13998956552141, 0.070848010581407, 0
687, 0.16951296454423, 0.039788453585858, 0
688, 0.14144378106356, 0.041487875084455, 0
689, 0.14847259775966, -0.10939602725425, 0
690, 0.14707357447772, -0.13650843283685, 0
691, 0.27151963959733, 0.24146428878142, 0
692, 0.42849717561766, 0.2720241016888, 0
693, 0.2088387792626, -0.063112442217999, 0
694, 0.20250930158148, 0.0074154005863761, 0
695, 0.20481962893817, -0.02734325486769, 0
696, 0.80057478381701, -0.10491736921616, 0
697, 0.58566862230378, 0.24435599391445, 0
698, 0.95232739385212, 0.13976435725356, 0
699, 0.1814784295546, -0.089048838611859, 0
700, 0.24783803654731, 0.092851075454419, 0
701, 0.19470302065141, 0.068093645440732, 0
702, 0.16368344062052, 0.18519915474179, 0
703, 0.69157542956738, 0.23904790214188, 0
704, 0.80860706868033, -0.27009162444385, 0
705, 0.949850077712, 0.0074609238038661, 0
706, 0.87659258620885, 0.021338310444517, 0
707, 0.81509910785825, 0.064457465468108, 0
708, 0.95191251403759, 0.1662689061018, 0
709, 0.16554579043441, 0.12734664143078, 0
710, 0.14837838551607, -0.080291481203806, 0
711, 0.34965264231738, -0.23889740136079, 0
712, 0.37000046924265, -0.23316760996201, 0
713, 0.39922826231708, 0.1280926876534, 0
714, 0.16645845612585, 0.098358476026377, 0
715, 0.327537508159, -0.22862874413841, 0
716, 0.31521698790604, -0.24193112770549, 0
717, 0.33119797272116, -0.24222206825666, 0
718, 0.51831790542855, 0.19350060483943, 0
719, 0.45414324553182, 0.27235141463067, 0
720, 0.92339775341218, 0.27315914496626, 0
721, 0.86611179833809, -0.059636779989307, 0
722, 0.84794664702186, 0.24498802672293, 0
723, 0.855013216894, 0.19181183179486, 0
724, 0.71841241980493, 0.23900392330201, 0
725, 0.80060297999281, 0.017523601544248, 0
726, 0.92901672921425, 0.11528111632882, 0
727, 0.95170078445382, 0.060812789002085, 0
728, 0.82821935585802, -0.14363448481704, 0
729, 0.81228209436983, -0.045557222312562, 0
730, 0.67612290137536, -0.25480243835522, 0
731, 0.70150537164581, -0.27577935753167, 0
732, 0.76663923496446, -0.20832520530751, 0
733, 0.27806094815856, 0.12001357734475, 0
734, 0.3836588948211, 0.21408199655475, 0
735, 0.19691055605787, 0.039028612242714, 0
736, 0.83311855245052, -0.239762361493, 0
737, 0.82998080427906, -0.20852167379637, 0
738, 0.77785274519851, -0.065711647632303, 0
739, 0.8629184975978, -0.08841542373837, 0
740, 0.55999714623539, 0.24530996877051, 0
741, 0.69584482441841, 0.038571254261747, 0
742, 0.83017154033797, 0.033945116677713, 0
743, 0.7449152391235, 0.23984398696665, 0
744, 0.58045765788301, 0.27219766849897, 0
745, 0.63223986449922, 0.27093418998158, 0
746, 0.84408491412439, 0.27235617559066, 0
747, 0.71114922117316, -0.072595521909873, 0
748, 0.68588742970303, -0.12197278620034, 0
749, 0.65341182680256, 0.11008419368341, 0
750, 0.73885841491505, 0.26998776628894, 0
751, 0.30996883182323, -0.22559929803132, 0
752, 0.29524099537468, -0.19983758126316, 0
753, 0.67720488659504, -0.27677943575589, 0
754, 0.79582830046053, -0.13734455597057, 0
755, 0.92579630088648, 0.21968538019373, 0
756, 0.8355096884021, 0.057257478350685, 0
757, 0.51371980456536, 0.21925976172116, 0
758, 0.79675767035779, 0.2426572231708, 0
759, 0.4590658174027, 0.10430184590906, 0
760, 0.3414703394309, 0.12117081065001, 0
761, 0.73300483907052, 0.1737213096349, 0
762, 0.46642170492938, -0.26103667100626, 0
763, 0.42016708600836, 0.15889482984527, 0
764, 0.65877092705509, 0.27027946853125, 0
765, 0.2652292077536, -0.21805491489472, 0
766, 0.29291302345365, -0.22745626063797, 0
767, 0.27750548204727, -0.2346104622821, 0
768, 0.28084544031212, -0.22275077427689, 0
769, 0.29372525694797, -0.24389913714842, 0
770, 0.27913541575603, -0.24764147716348, 0
771, 0.49759865355588, 0.16698780437478, 0
772, 0.61810057859393, -0.22256671966198, 0
773, 0.24601356244231, -0.21254726154591, 0
774, 0.95224336597491, 0.087156145328043, 0
775, 0.41034166656135, 0.21521738249977, 0
776, 0.92794585432039, 0.064010397326263, 0
777, 0.67046851096908, 0.20862197248145, 0
778, 0.3029154909769, -0.23487619216768, 0
779, 0.30865323531464, -0.20855541401179, 0
780, 0.30670167630136, 0.15097574330539, 0
781, 0.24150398088687, 0.045343125724611, 0
782, 0.72280905868955, -0.046287612229253, 0
783, 0.8308716921151, -0.11219913736606, 0
784, 0.80663088106833, 0.11431561448583, 0
785, 0.77472336166226, -0.24065353661777, 0
786, 0.92701175226811, 0.19318116961883, 0
787, 0.40218209615448, -0.19381203074892, 0
788, 0.6748657654023, -0.23568836414131, 0
789, 0.13409837465363, 0.24322160280816, 0
790, 0.38775971829545, -0.17517225699471, 0
791, 0.4065337553171, 0.10018427279205, 0
792, 0.36608975854087, -0.18999258611864, 0
793, 0.37869243329063, 0.09669254848162, 0
794, 0.27340432203076, 0.21192095367199, 0
795, 0.2790925239121, -0.19124986158537, 0
796, 0.25975513153444, -0.18183752274103, 0
797, 0.33212972980464, -0.21017059809773, 0
798, 0.32002428869425, -0.19893447270132, 0
799, 0.30573505655212, -0.18888907055966, 0
800, 0.28911025958498, -0.17907630404192, 0
801, 0.26963490323451, -0.1681589819236, 0
802, 0.25829376360473, -0.14033782957889, 0
803, 0.22262422045257, -0.10562468154995, 0
804, 0.28675282408357, -0.12359906627911, 0
805, 0.29374414660312, 0.046096879632852, 0
806, 0.27847426294979, 0.019891396444246, 0
807, 0.26405344004322, -0.0071008024646633, 0
808, 0.25752763792993, -0.038710498708743, 0
809, 0.25816744979157, -0.070153005520172, 0
810, 0.22908950775584, -0.1880690214568, 0
811, 0.26774275624159, -0.099943372656906, 0
812, 0.23654595697314, -0.17056540284197, 0
******* E L E M E N T S *************
*ELEMENT, type=CPS4, ELSET=Surface1
1, 63, 348, 349, 52
2, 52, 349, 346, 62
3, 569, 519, 247, 626
4, 726, 560, 774, 587
5, 256, 725, 640, 633
6, 350, 353, 50, 61
7, 353, 351, 60, 50
8, 264, 524, 594, 332
9, 43, 356, 357, 35
10, 748, 590, 504, 324
11, 504, 124, 164, 511
12, 356, 297, 355, 357
13, 171, 360, 361, 358
14, 358, 361, 359, 172
15, 361, 12, 20, 359
16, 360, 19, 12, 361
17, 339, 703, 556, 777
18, 346, 363, 51, 62
19, 363, 350, 61, 51
20, 761, 269, 320, 555
21, 186, 408, 607, 184
22, 683, 700, 305, 205
23, 669, 365, 198, 528
24, 299, 369, 370, 368
25, 368, 370, 36, 44
26, 370, 356, 43, 36
27, 369, 297, 356, 370
28, 597, 362, 272, 241
29, 660, 281, 263, 496
30, 633, 640, 707, 604
31, 244, 259, 264, 758
32, 326, 294, 292, 309
33, 291, 512, 310, 375
34, 590, 541, 123, 165
35, 312, 503, 782, 747
36, 116, 381, 382, 105
37, 105, 382, 379, 115
38, 382, 380, 215, 379
39, 381, 216, 380, 382
40, 402, 457, 143, 145
41, 494, 775, 734, 546
42, 474, 634, 253, 659
43, 634, 741, 333, 253
44, 100, 93, 389, 387
45, 387, 389, 388, 192
46, 389, 101, 112, 388
47, 93, 8, 101, 389
48, 59, 392, 393, 48
49, 48, 393, 390, 58
50, 393, 391, 288, 390
51, 392, 277, 391, 393
52, 118, 108, 397, 394
53, 394, 397, 395, 230
54, 397, 396, 226, 395
55, 108, 119, 396, 397
56, 458, 350, 363, 727
57, 351, 399, 49, 60
58, 399, 392, 59, 49
59, 492, 569, 626, 786
60, 409, 745, 557, 473
61, 70, 342, 315, 77
62, 555, 320, 743, 724
63, 333, 562, 179, 662
64, 191, 406, 407, 404
65, 404, 407, 405, 189
66, 407, 103, 114, 405
67, 406, 113, 103, 407
68, 658, 647, 148, 141
69, 544, 313, 199, 551
70, 593, 551, 261, 610
71, 542, 413, 505, 645
72, 505, 31, 39, 753
73, 649, 704, 325, 736
74, 64, 415, 416, 53
75, 53, 416, 348, 63
76, 514, 275, 468, 493
77, 743, 244, 342, 750
78, 293, 788, 730, 181
79, 289, 739, 721, 282
80, 704, 34, 42, 325
81, 286, 731, 32, 40
82, 23, 16, 421, 418
83, 418, 421, 419, 177
84, 421, 420, 176, 419
85, 16, 24, 420, 421
86, 44, 37, 423, 368
87, 368, 423, 422, 299
88, 423, 45, 56, 422
89, 37, 4, 45, 423
90, 21, 425, 426, 13
91, 13, 426, 359, 20
92, 426, 424, 172, 359
93, 425, 173, 424, 426
94, 189, 405, 428, 427
95, 427, 428, 379, 215
96, 428, 104, 115, 379
97, 405, 114, 104, 428
98, 344, 644, 209, 617
99, 607, 528, 678, 207
100, 170, 434, 435, 433
101, 433, 435, 360, 171
102, 435, 11, 19, 360
103, 434, 18, 11, 435
104, 298, 437, 438, 436
105, 436, 438, 390, 288
106, 438, 47, 58, 390
107, 437, 57, 47, 438
108, 250, 477, 718, 367
109, 398, 550, 441, 248
110, 75, 314, 720, 67
111, 341, 273, 147, 142
112, 116, 106, 444, 381
113, 381, 444, 442, 216
114, 444, 443, 228, 442
115, 106, 117, 443, 444
116, 21, 14, 447, 425
117, 425, 447, 445, 173
118, 447, 446, 174, 445
119, 14, 22, 446, 447
120, 226, 396, 450, 448
121, 448, 450, 449, 218
122, 450, 109, 120, 449
123, 396, 119, 109, 450
124, 22, 15, 452, 446
125, 446, 452, 451, 174
126, 452, 418, 177, 451
127, 15, 23, 418, 452
128, 575, 366, 187, 480
129, 169, 606, 691, 794
130, 593, 610, 475, 483
131, 121, 111, 455, 454
132, 454, 455, 434, 170
133, 455, 10, 18, 434
134, 111, 1, 10, 455
135, 610, 261, 477, 250
136, 534, 207, 702, 532
137, 733, 193, 186, 200
138, 561, 383, 274, 243
139, 439, 723, 374, 242
140, 265, 476, 560, 726
141, 283, 372, 196, 780
142, 367, 718, 268, 771
143, 99, 92, 462, 431
144, 431, 462, 461, 194
145, 462, 387, 192, 461
146, 92, 100, 387, 462
147, 24, 17, 464, 420
148, 420, 464, 463, 176
149, 321, 508, 127, 161
150, 117, 107, 466, 443
151, 443, 466, 465, 228
152, 466, 394, 230, 465
153, 107, 118, 394, 466
154, 64, 54, 469, 415
155, 719, 83, 7, 692
156, 269, 334, 259, 320
157, 54, 65, 468, 469
158, 731, 753, 39, 32
159, 285, 696, 296, 738
160, 183, 284, 512, 291
161, 310, 181, 731, 286
162, 472, 523, 776, 267
163, 684, 258, 677, 521
164, 550, 522, 663, 441
165, 729, 282, 621, 603
166, 365, 203, 456, 198
167, 771, 386, 622, 667
168, 328, 789, 194, 533
169, 193, 668, 408, 186
170, 322, 762, 28, 26
171, 175, 582, 540, 240
172, 762, 611, 582, 175
173, 539, 160, 129, 538
174, 271, 402, 145, 122
175, 718, 757, 684, 268
176, 374, 414, 569, 492
177, 253, 333, 662, 641
178, 299, 422, 479, 478
179, 478, 479, 437, 298
180, 479, 46, 57, 437
181, 422, 56, 46, 479
182, 480, 187, 709, 714
183, 775, 561, 243, 734
184, 556, 764, 745, 409
185, 530, 761, 555, 339
186, 313, 473, 697, 199
187, 269, 248, 318, 334
188, 662, 179, 660, 496
189, 471, 373, 706, 257
190, 172, 486, 487, 358
191, 358, 487, 484, 171
192, 487, 485, 223, 484
193, 486, 222, 485, 487
194, 230, 395, 491, 488
195, 488, 491, 489, 229
196, 491, 490, 225, 489
197, 395, 226, 490, 491
198, 65, 55, 493, 468
199, 77, 315, 440, 69
200, 441, 663, 784, 467
201, 55, 5, 66, 493
202, 621, 566, 373, 471
203, 334, 318, 597, 524
204, 338, 430, 494, 763
205, 192, 388, 499, 498
206, 498, 499, 406, 191
207, 499, 102, 113, 406
208, 388, 112, 102, 499
209, 120, 110, 501, 449
210, 449, 501, 500, 218
211, 501, 454, 170, 500
212, 110, 121, 454, 501
213, 183, 279, 326, 284
214, 785, 650, 704, 649
215, 696, 783, 289, 296
216, 589, 125, 163, 287
217, 322, 321, 161, 128
218, 127, 508, 506, 162
219, 508, 27, 3, 506
220, 787, 790, 792, 337
221, 201, 558, 278, 749
222, 528, 198, 344, 678
223, 644, 90, 98, 209
224, 531, 88, 96, 303
225, 378, 317, 354, 316
226, 294, 511, 589, 292
227, 512, 293, 181, 310
228, 316, 748, 324, 279
229, 254, 545, 476, 265
230, 242, 374, 492, 609
231, 204, 341, 142, 146
232, 281, 729, 603, 263
233, 216, 442, 518, 515
234, 515, 518, 516, 217
235, 518, 517, 227, 516
236, 442, 228, 517, 518
237, 609, 492, 786, 755
238, 559, 595, 255, 262
239, 734, 243, 635, 319
240, 277, 392, 399, 624
241, 345, 201, 749, 385
242, 659, 253, 641, 252
243, 272, 559, 262, 661
244, 383, 86, 94, 274
245, 652, 238, 779, 752
246, 752, 779, 798, 799
247, 751, 239, 715, 526
248, 132, 329, 330, 157
249, 780, 196, 668, 193
250, 480, 714, 210, 701
251, 203, 89, 97, 456
252, 683, 733, 200, 700
253, 410, 759, 149, 140
254, 637, 85, 83, 719
255, 606, 531, 303, 691
256, 779, 526, 797, 798
257, 300, 525, 302, 329
258, 335, 799, 798, 537
259, 653, 797, 237, 536
260, 322, 26, 29, 321
261, 538, 129, 159, 323
262, 322, 539, 611, 762
263, 322, 128, 160, 539
264, 738, 281, 660, 503
265, 783, 627, 739, 289
266, 738, 296, 729, 281
267, 311, 411, 413, 542
268, 69, 440, 746, 76
269, 496, 263, 725, 256
270, 558, 593, 483, 278
271, 398, 248, 269, 761
272, 417, 591, 788, 293
273, 547, 549, 548, 295
274, 549, 355, 297, 548
275, 413, 38, 31, 505
276, 791, 793, 138, 150
277, 495, 351, 353, 705
278, 371, 596, 595, 559
279, 257, 706, 608, 459
280, 173, 553, 554, 424
281, 424, 554, 486, 172
282, 554, 552, 222, 486
283, 553, 219, 552, 554
284, 670, 95, 88, 531
285, 692, 7, 86, 383
286, 521, 677, 520, 168
287, 474, 659, 550, 398
288, 741, 271, 122, 9
289, 784, 340, 596, 371
290, 723, 568, 414, 374
291, 243, 274, 482, 635
292, 297, 369, 565, 548
293, 548, 565, 564, 295
294, 565, 478, 298, 564
295, 369, 299, 478, 565
296, 763, 494, 546, 453
297, 247, 726, 587, 698
298, 685, 343, 606, 169
299, 745, 80, 73, 557
300, 216, 515, 572, 380
301, 380, 572, 570, 215
302, 572, 571, 214, 570
303, 515, 217, 571, 572
304, 537, 798, 797, 653
305, 302, 335, 537, 651
306, 535, 639, 527, 525
307, 199, 697, 740, 327
308, 558, 544, 551, 593
309, 473, 557, 744, 697
310, 173, 445, 580, 553
311, 553, 580, 578, 219
312, 580, 579, 220, 578
313, 445, 174, 579, 580
314, 321, 29, 27, 508
315, 337, 792, 653, 536
316, 233, 583, 812, 584
317, 803, 699, 234, 233
318, 586, 573, 804, 811
319, 352, 609, 755, 567
320, 263, 603, 246, 725
321, 546, 734, 319, 623
322, 602, 642, 595, 596
323, 605, 649, 736, 737
324, 511, 164, 125, 589
325, 279, 324, 294, 326
326, 453, 588, 384, 713
327, 483, 475, 341, 204
328, 430, 168, 775, 494
329, 617, 209, 304, 789
330, 577, 197, 71, 79
331, 709, 532, 195, 616
332, 319, 635, 343, 685
333, 663, 497, 340, 784
334, 246, 471, 257, 742
335, 625, 495, 705, 347
336, 290, 599, 600, 598
337, 598, 600, 543, 276
338, 600, 391, 277, 543
339, 599, 288, 391, 600
340, 474, 530, 509, 345
341, 725, 246, 742, 640
342, 249, 620, 545, 255
343, 252, 641, 256, 633
344, 440, 266, 722, 746
345, 763, 453, 713, 576
346, 594, 241, 568, 723
347, 650, 41, 34, 704
348, 316, 354, 502, 748
349, 470, 547, 630, 728
350, 590, 165, 124, 504
351, 261, 327, 251, 477
352, 789, 304, 431, 194
353, 384, 760, 529, 793
354, 777, 556, 409, 592
355, 641, 662, 496, 256
356, 362, 371, 559, 272
357, 315, 758, 266, 440
358, 475, 364, 273, 341
359, 240, 540, 463, 464
360, 611, 581, 507, 582
361, 582, 507, 167, 540
362, 540, 167, 712, 463
363, 188, 613, 614, 612
364, 612, 614, 570, 214
365, 614, 427, 215, 570
366, 613, 189, 427, 614
367, 700, 575, 211, 305
368, 740, 185, 429, 563
369, 133, 574, 300, 156
370, 700, 200, 366, 575
371, 158, 131, 618, 130
372, 175, 240, 2, 25
373, 131, 157, 336, 618
374, 259, 334, 524, 264
375, 258, 637, 719, 677
376, 568, 661, 245, 414
377, 467, 784, 371, 362
378, 750, 342, 70, 78
379, 724, 743, 750, 197
380, 588, 623, 372, 283
381, 624, 399, 351, 495
382, 727, 363, 346, 774
383, 178, 347, 523, 472
384, 76, 746, 403, 68
385, 754, 728, 783, 696
386, 627, 630, 628, 290
387, 630, 547, 295, 628
388, 728, 630, 627, 783
389, 228, 465, 632, 517
390, 517, 632, 631, 227
391, 632, 488, 229, 631
392, 465, 230, 488, 632
393, 459, 608, 620, 249
394, 414, 245, 519, 569
395, 575, 480, 701, 211
396, 408, 669, 528, 607
397, 209, 98, 91, 304
398, 482, 87, 95, 670
399, 714, 709, 616, 206
400, 643, 667, 647, 658
401, 557, 73, 6, 744
402, 527, 800, 799, 335
403, 574, 535, 525, 300
404, 651, 537, 653, 792
405, 221, 652, 752, 795
406, 771, 268, 619, 386
407, 513, 601, 415, 469
408, 755, 786, 601, 513
409, 343, 670, 531, 606
410, 532, 702, 481, 195
411, 529, 615, 137, 151
412, 202, 791, 150, 139
413, 126, 162, 311, 772
414, 354, 312, 747, 502
415, 785, 375, 412, 650
416, 296, 289, 282, 729
417, 776, 727, 774, 560
418, 566, 460, 646, 373
419, 720, 567, 275, 514
420, 282, 721, 566, 621
421, 288, 599, 648, 436
422, 436, 648, 564, 298
423, 648, 628, 295, 564
424, 599, 290, 628, 648
425, 308, 645, 730, 788
426, 732, 785, 649, 605
427, 181, 730, 753, 731
428, 541, 629, 166, 123
429, 583, 585, 224, 331
430, 240, 464, 17, 2
431, 811, 804, 155, 134
432, 157, 330, 790, 336
433, 212, 656, 657, 654
434, 654, 657, 655, 232
435, 657, 516, 227, 655
436, 656, 217, 516, 657
437, 622, 400, 759, 410
438, 550, 659, 252, 522
439, 759, 202, 139, 149
440, 722, 439, 242, 270
441, 746, 722, 270, 403
442, 563, 429, 260, 636
443, 267, 776, 560, 476
444, 523, 458, 727, 776
445, 219, 665, 666, 552
446, 552, 666, 664, 222
447, 803, 233, 584, 802
448, 812, 810, 301, 796
449, 303, 96, 89, 203
450, 616, 195, 681, 188
451, 677, 719, 692, 520
452, 794, 691, 365, 669
453, 194, 461, 672, 533
454, 533, 672, 671, 190
455, 672, 498, 191, 671
456, 461, 192, 498, 672
457, 171, 484, 674, 433
458, 433, 674, 500, 170
459, 674, 673, 218, 500
460, 484, 223, 673, 674
461, 223, 675, 676, 673
462, 673, 676, 448, 218
463, 676, 490, 226, 448
464, 675, 225, 490, 676
465, 385, 749, 402, 271
466, 635, 482, 670, 343
467, 222, 664, 680, 485
468, 485, 680, 675, 223
469, 680, 679, 225, 675
470, 664, 224, 679, 680
471, 189, 613, 682, 404
472, 404, 682, 671, 191
473, 682, 681, 190, 671
474, 613, 188, 681, 682
475, 477, 251, 757, 718
476, 330, 651, 792, 790
477, 744, 6, 81, 185
478, 200, 186, 184, 366
479, 217, 656, 688, 571
480, 571, 688, 686, 214
481, 688, 687, 210, 686
482, 656, 212, 687, 688
483, 224, 585, 690, 679
484, 679, 690, 489, 225
485, 690, 689, 229, 489
486, 585, 234, 689, 690
487, 283, 780, 432, 760
488, 206, 616, 188, 612
489, 714, 206, 686, 210
490, 213, 694, 695, 638
491, 638, 695, 693, 231
492, 695, 654, 232, 693
493, 694, 212, 654, 695
494, 317, 754, 696, 285
495, 737, 736, 355, 549
496, 650, 412, 33, 41
497, 318, 467, 362, 597
498, 543, 277, 624, 401
499, 601, 708, 416, 415
500, 646, 625, 347, 178
501, 804, 574, 133, 155
502, 802, 584, 801, 639
503, 573, 535, 574, 804
504, 810, 665, 773, 301
505, 304, 91, 99, 431
506, 195, 481, 190, 681
507, 273, 658, 141, 147
508, 432, 780, 193, 733
509, 284, 326, 309, 417
510, 180, 377, 308, 376
511, 163, 126, 772, 287
512, 588, 283, 760, 384
513, 74, 514, 493, 66
514, 275, 513, 469, 468
515, 706, 178, 472, 608
516, 474, 398, 761, 530
517, 386, 619, 430, 338
518, 703, 724, 197, 577
519, 721, 276, 460, 566
520, 793, 529, 151, 138
521, 668, 794, 669, 408
522, 339, 555, 724, 703
523, 227, 631, 710, 655
524, 655, 710, 699, 232
525, 710, 689, 234, 699
526, 631, 229, 689, 710
527, 463, 712, 711, 176
528, 712, 536, 237, 711
529, 507, 787, 337, 167
530, 702, 208, 328, 481
531, 168, 520, 561, 775
532, 251, 563, 636, 757
533, 239, 716, 717, 715
534, 715, 717, 711, 237
535, 717, 419, 176, 711
536, 716, 177, 419, 717
537, 481, 328, 533, 190
538, 206, 612, 214, 686
539, 636, 260, 637, 258
540, 615, 432, 733, 683
541, 742, 257, 459, 756
542, 274, 94, 87, 482
543, 667, 622, 410, 647
544, 509, 777, 592, 510
545, 603, 621, 471, 246
546, 345, 509, 510, 201
547, 708, 698, 348, 416
548, 519, 265, 726, 247
549, 403, 270, 352, 314
550, 347, 705, 458, 523
551, 610, 250, 364, 475
552, 327, 740, 563, 251
553, 502, 747, 629, 541
554, 162, 506, 411, 311
555, 378, 732, 605, 280
556, 772, 311, 542, 377
557, 309, 292, 180, 376
558, 280, 605, 737, 470
559, 412, 286, 40, 33
560, 377, 542, 645, 308
561, 530, 339, 777, 509
562, 691, 303, 203, 365
563, 510, 592, 313, 544
564, 212, 694, 735, 687
565, 687, 735, 701, 210
566, 735, 307, 211, 701
567, 694, 213, 307, 735
568, 375, 310, 286, 412
569, 645, 505, 753, 730
570, 292, 589, 287, 180
571, 276, 721, 739, 598
572, 598, 739, 627, 290
573, 736, 325, 357, 355
574, 314, 352, 567, 720
575, 386, 338, 400, 622
576, 592, 409, 473, 313
577, 67, 720, 514, 74
578, 764, 72, 80, 745
579, 245, 254, 265, 519
580, 551, 199, 327, 261
581, 661, 262, 254, 245
582, 470, 737, 549, 547
583, 325, 42, 35, 357
584, 317, 285, 312, 354
585, 647, 410, 140, 148
586, 248, 441, 467, 318
587, 642, 249, 255, 595
588, 697, 744, 185, 740
589, 238, 751, 526, 779
590, 301, 221, 795, 796
591, 795, 752, 799, 800
592, 811, 134, 154, 809
593, 378, 183, 291, 732
594, 411, 30, 38, 413
595, 287, 772, 377, 180
596, 629, 182, 144, 166
597, 342, 244, 758, 315
598, 634, 385, 271, 741
599, 626, 247, 698, 708
600, 741, 9, 562, 333
601, 364, 643, 658, 273
602, 757, 636, 258, 684
603, 278, 483, 204, 457
604, 367, 771, 667, 643
605, 604, 707, 602, 497
606, 576, 713, 791, 202
607, 241, 272, 661, 568
608, 372, 685, 169, 196
609, 620, 267, 476, 545
610, 373, 646, 178, 706
611, 786, 626, 708, 601
612, 185, 81, 84, 429
613, 756, 459, 249, 642
614, 332, 594, 723, 439
615, 270, 242, 609, 352
616, 762, 175, 25, 28
617, 538, 323, 235, 581
618, 167, 337, 536, 712
619, 524, 597, 241, 594
620, 577, 79, 72, 764
621, 260, 82, 85, 637
622, 276, 543, 401, 460
623, 220, 767, 768, 765
624, 765, 768, 652, 221
625, 768, 766, 238, 652
626, 767, 236, 766, 768
627, 236, 767, 770, 769
628, 769, 770, 451, 177
629, 770, 579, 174, 451
630, 767, 220, 579, 770
631, 474, 345, 385, 634
632, 197, 750, 78, 71
633, 678, 344, 617, 208
634, 184, 607, 207, 534
635, 378, 280, 754, 317
636, 378, 316, 279, 183
637, 285, 738, 503, 312
638, 221, 301, 773, 765
639, 765, 773, 578, 220
640, 773, 665, 219, 578
641, 803, 802, 573, 586
642, 262, 255, 545, 254
643, 429, 84, 82, 260
644, 400, 576, 202, 759
645, 698, 587, 349, 348
646, 497, 602, 596, 340
647, 457, 204, 146, 143
648, 250, 367, 643, 364
649, 707, 756, 642, 602
650, 567, 755, 513, 275
651, 587, 774, 346, 349
652, 320, 259, 244, 743
653, 522, 252, 633, 604
654, 236, 769, 778, 766
655, 766, 778, 751, 238
656, 778, 716, 239, 751
657, 769, 177, 716, 778
658, 366, 184, 534, 187
659, 207, 678, 208, 702
660, 196, 169, 794, 668
661, 456, 97, 90, 644
662, 525, 527, 335, 302
663, 639, 801, 800, 527
664, 156, 300, 329, 132
665, 453, 546, 623, 588
666, 208, 617, 789, 328
667, 623, 319, 685, 372
668, 211, 307, 781, 305
669, 305, 781, 306, 205
670, 307, 213, 306, 781
671, 732, 291, 375, 785
672, 782, 179, 562, 182
673, 417, 309, 376, 591
674, 503, 660, 179, 782
675, 748, 502, 541, 590
676, 376, 308, 788, 591
677, 522, 604, 497, 663
678, 619, 521, 168, 430
679, 608, 472, 267, 620
680, 324, 504, 511, 294
681, 284, 417, 293, 512
682, 747, 782, 182, 629
683, 640, 742, 756, 707
684, 705, 353, 350, 458
685, 460, 401, 625, 646
686, 581, 235, 787, 507
687, 235, 336, 790, 787
688, 323, 159, 130, 618
689, 506, 3, 30, 411
690, 182, 562, 9, 144
691, 280, 470, 728, 754
692, 201, 510, 544, 558
693, 198, 456, 644, 344
694, 187, 534, 532, 709
695, 329, 302, 651, 330
696, 323, 618, 336, 235
697, 526, 715, 237, 797
698, 266, 332, 439, 722
699, 758, 264, 332, 266
700, 401, 624, 495, 625
701, 331, 666, 665, 810
702, 796, 795, 800, 801
703, 539, 538, 581, 611
704, 749, 278, 457, 402
705, 268, 684, 521, 619
706, 520, 692, 383, 561
707, 68, 403, 314, 75
708, 760, 432, 615, 529
709, 713, 384, 793, 791
710, 338, 763, 576, 400
711, 703, 577, 764, 556
712, 803, 693, 232, 699
713, 586, 811, 809, 231
714, 583, 331, 810, 812
715, 802, 639, 535, 573
716, 233, 234, 585, 583
717, 331, 224, 664, 666
718, 805, 615, 683, 205
719, 806, 805, 205, 306
720, 807, 806, 306, 213
721, 808, 807, 213, 638
722, 809, 808, 638, 231
723, 805, 152, 137, 615
724, 806, 136, 152, 805
725, 807, 153, 136, 806
726, 808, 135, 153, 807
727, 809, 154, 135, 808
728, 803, 586, 231, 693
729, 584, 812, 796, 801
*ELSET,ELSET=contact_source
99, 100, 101, 102, 103, 104, 105, 106, 107, 108, 
109, 110, 111, 112, 113, 114, 115, 116, 117, 118, 
119, 120, 
*ELSET,ELSET=contact_drain
39, 40, 41, 42, 43, 44, 45, 46, 47, 48, 
49, 50, 51, 52, 53, 54, 55, 56, 57, 58, 
59, 60, 
*ELSET,ELSET=probe_A
77, 78, 79, 80, 81, 82, 
*ELSET,ELSET=probe_B
17, 18, 19, 20, 21, 22, 
*ELSET,ELSET=walls
1, 2, 3, 4, 5, 6, 7, 8, 9, 10, 
11, 12, 13, 14, 15, 16, 23, 24, 25, 26, 
27, 28, 29, 30, 31, 32, 33, 34, 35, 36, 
37, 38, 61, 62, 63, 64, 65, 66, 67, 68, 
69, 70, 71, 72, 73, 74, 75, 76, 83, 84, 
85, 86, 87, 88, 89, 90, 91, 92, 93, 94, 
95, 96, 97, 98, 121, 122, 123, 124, 125, 126, 
127, 128, 129, 130, 131, 132, 133, 134, 135, 136, 
137, 138, 139, 140, 141, 142, 143, 144, 145, 146, 
147, 148, 149, 150, 151, 152, 153, 154, 155, 156, 
157, 158, 159, 160, 161, 162, 163, 164, 165, 166, 
*ELSET,ELSET=domain
167, 168, 169, 170, 171, 172, 173, 174, 175, 176, 
177, 178, 179, 180, 181, 182, 183, 184, 185, 186, 
187, 188, 189, 190, 191, 192, 193, 194, 195, 196, 
197, 198, 199, 200, 201, 202, 203, 204, 205, 206, 
207, 208, 209, 210, 211, 212, 213, 214, 215, 216, 
217, 218, 219, 220, 221, 222, 223, 224, 225, 226, 
227, 228, 229, 230, 231, 232, 233, 234, 235, 236, 
237, 238, 239, 240, 241, 242, 243, 244, 245, 246, 
247, 248, 249, 250, 251, 252, 253, 254, 255, 256, 
257, 258, 259, 260, 261, 262, 263, 264, 265, 266, 
267, 268, 269, 270, 271, 272, 273, 274, 275, 276, 
277, 278, 279, 280, 281, 282, 283, 284, 285, 286, 
287, 288, 289, 290, 291, 292, 293, 294, 295, 296, 
297, 298, 299, 300, 301, 302, 303, 304, 305, 306, 
307, 308, 309, 310, 311, 312, 313, 314, 315, 316, 
317, 318, 319, 320, 321, 322, 323, 324, 325, 326, 
327, 328, 329, 330, 331, 332, 333, 334, 335, 336, 
337, 338, 339, 340, 341, 342, 343, 344, 345, 346, 
347, 348, 349, 350, 351, 352, 353, 354, 355, 356, 
357, 358, 359, 360, 361, 362, 363, 364, 365, 366, 
367, 368, 369, 370, 371, 372, 373, 374, 375, 376, 
377, 378, 379, 380, 381, 382, 383, 384, 385, 386, 
387, 388, 389, 390, 391, 392, 393, 394, 395, 396, 
397, 398, 399, 400, 401, 402, 403, 404, 405, 406, 
407, 408, 409, 410, 411, 412, 413, 414, 415, 416, 
417, 418, 419, 420, 421, 422, 423, 424, 425, 426, 
427, 428, 429, 430, 431, 432, 433, 434, 435, 436, 
437, 438, 439, 440, 441, 442, 443, 444, 445, 446, 
447, 448, 449, 450, 451, 452, 453, 454, 455, 456, 
457, 458, 459, 460, 461, 462, 463, 464, 465, 466, 
467, 468, 469, 470, 471, 472, 473, 474, 475, 476, 
477, 478, 479, 480, 481, 482, 483, 484, 485, 486, 
487, 488, 489, 490, 491, 492, 493, 494, 495, 496, 
497, 498, 499, 500, 501, 502, 503, 504, 505, 506, 
507, 508, 509, 510, 511, 512, 513, 514, 515, 516, 
517, 518, 519, 520, 521, 522, 523, 524, 525, 526, 
527, 528, 529, 530, 531, 532, 533, 534, 535, 536, 
537, 538, 539, 540, 541, 542, 543, 544, 545, 546, 
547, 548, 549, 550, 551, 552, 553, 554, 555, 556, 
557, 558, 559, 560, 561, 562, 563, 564, 565, 566, 
567, 568, 569, 570, 571, 572, 573, 574, 575, 576, 
577, 578, 579, 580, 581, 582, 583, 584, 585, 586, 
587, 588, 589, 590, 591, 592, 593, 594, 595, 596, 
597, 598, 599, 600, 601, 602, 603, 604, 605, 606, 
607, 608, 609, 610, 611, 612, 613, 614, 615, 616, 
617, 618, 619, 620, 621, 622, 623, 624, 625, 626, 
627, 628, 629, 630, 631, 632, 633, 634, 635, 636, 
637, 638, 639, 640, 641, 642, 643, 644, 645, 646, 
647, 648, 649, 650, 651, 652, 653, 654, 655, 656, 
657, 658, 659, 660, 661, 662, 663, 664, 665, 666, 
667, 668, 669, 670, 671, 672, 673, 674, 675, 676, 
677, 678, 679, 680, 681, 682, 683, 684, 685, 686, 
687, 688, 689, 690, 691, 692, 693, 694, 695, 696, 
697, 698, 699, 700, 701, 702, 703, 704, 705, 706, 
707, 708, 709, 710, 711, 712, 713, 714, 715, 716, 
717, 718, 719, 720, 721, 722, 723, 724, 725, 726, 
727, 728, 729, 730, 731, 732, 733, 734, 735, 736, 
737, 738, 739, 740, 741, 742, 743, 744, 745, 746, 
747, 748, 749, 750, 751, 752, 753, 754, 755, 756, 
757, 758, 759, 760, 761, 762, 763, 764, 765, 766, 
767, 768, 769, 770, 771, 772, 773, 774, 775, 776, 
777, 778, 779, 780, 781, 782, 783, 784, 785, 786, 
787, 788, 789, 790, 791, 792, 793, 794, 795, 796, 
797, 798, 799, 800, 801, 802, 803, 804, 805, 806, 
807, 808, 809, 810, 811, 812, 813, 814, 815, 816, 
817, 818, 819, 820, 821, 822, 823, 824, 825, 826, 
827, 828, 829, 830, 831, 832, 833, 834, 835, 836, 
837, 838, 839, 840, 841, 842, 843, 844, 845, 846, 
847, 848, 849, 850, 851, 852, 853, 854, 855, 856, 
857, 858, 859, 860, 861, 862, 863, 864, 865, 866, 
867, 868, 869, 870, 871, 872, 873, 874, 875, 876, 
877, 878, 879, 880, 881, 882, 883, 884, 885, 886, 
887, 888, 889, 890, 891, 892, 893, 894, 895, 
*NSET,NSET=contact_source
1, 8, 101, 102, 103, 104, 105, 106, 107, 108, 
109, 110, 111, 112, 113, 114, 115, 116, 117, 118, 
119, 120, 121, 
*NSET,NSET=contact_drain
4, 5, 45, 46, 47, 48, 49, 50, 51, 52, 
53, 54, 55, 56, 57, 58, 59, 60, 61, 62, 
63, 64, 65, 
*NSET,NSET=probe_A
6, 7, 81, 82, 83, 84, 85, 
*NSET,NSET=probe_B
2, 3, 25, 26, 27, 28, 29, 
*NSET,NSET=walls
1, 2, 3, 4, 5, 6, 7, 8, 9, 10, 
11, 12, 13, 14, 15, 16, 17, 18, 19, 20, 
21, 22, 23, 24, 30, 31, 32, 33, 34, 35, 
36, 37, 38, 39, 40, 41, 42, 43, 44, 66, 
67, 68, 69, 70, 71, 72, 73, 74, 75, 76, 
77, 78, 79, 80, 86, 87, 88, 89, 90, 91, 
92, 93, 94, 95, 96, 97, 98, 99, 100, 122, 
123, 124, 125, 126, 127, 128, 129, 130, 131, 132, 
133, 134, 135, 136, 137, 138, 139, 140, 141, 142, 
143, 144, 145, 146, 147, 148, 149, 150, 151, 152, 
153, 154, 155, 156, 157, 158, 159, 160, 161, 162, 
163, 164, 165, 166, 
*NSET,NSET=domain
1, 2, 3, 4, 5, 6, 7, 8, 9, 10, 
11, 12, 13, 14, 15, 16, 17, 18, 19, 20, 
21, 22, 23, 24, 25, 26, 27, 28, 29, 30, 
31, 32, 33, 34, 35, 36, 37, 38, 39, 40, 
41, 42, 43, 44, 45, 46, 47, 48, 49, 50, 
51, 52, 53, 54, 55, 56, 57, 58, 59, 60, 
61, 62, 63, 64, 65, 66, 67, 68, 69, 70, 
71, 72, 73, 74, 75, 76, 77, 78, 79, 80, 
81, 82, 83, 84, 85, 86, 87, 88, 89, 90, 
91, 92, 93, 94, 95, 96, 97, 98, 99, 100, 
101, 102, 103, 104, 105, 106, 107, 108, 109, 110, 
111, 112, 113, 114, 115, 116, 117, 118, 119, 120, 
121, 122, 123, 124, 125, 126, 127, 128, 129, 130, 
131, 132, 133, 134, 135, 136, 137, 138, 139, 140, 
141, 142, 143, 144, 145, 146, 147, 148, 149, 150, 
151, 152, 153, 154, 155, 156, 157, 158, 159, 160, 
161, 162, 163, 164, 165, 166, 167, 168, 169, 170, 
171, 172, 173, 174, 175, 176, 177, 178, 179, 180, 
181, 182, 183, 184, 185, 186, 187, 188, 189, 190, 
191, 192, 193, 194, 195, 196, 197, 198, 199, 200, 
201, 202, 203, 204, 205, 206, 207, 208, 209, 210, 
211, 212, 213, 214, 215, 216, 217, 218, 219, 220, 
221, 222, 223, 224, 225, 226, 227, 228, 229, 230, 
231, 232, 233, 234, 235, 236, 237, 238, 239, 240, 
241, 242, 243, 244, 245, 246, 247, 248, 249, 250, 
251, 252, 253, 254, 255, 256, 257, 258, 259, 260, 
261, 262, 263, 264, 265, 266, 267, 268, 269, 270, 
271, 272, 273, 274, 275, 276, 277, 278, 279, 280, 
281, 282, 283, 284, 285, 286, 287, 288, 289, 290, 
291, 292, 293, 294, 295, 296, 297, 298, 299, 300, 
301, 302, 303, 304, 305, 306, 307, 308, 309, 310, 
311, 312, 313, 314, 315, 316, 317, 318, 319, 320, 
321, 322, 323, 324, 325, 326, 327, 328, 329, 330, 
331, 332, 333, 334, 335, 336, 337, 338, 339, 340, 
341, 342, 343, 344, 345, 346, 347, 348, 349, 350, 
351, 352, 353, 354, 355, 356, 357, 358, 359, 360, 
361, 362, 363, 364, 365, 366, 367, 368, 369, 370, 
371, 372, 373, 374, 375, 376, 377, 378, 379, 380, 
381, 382, 383, 384, 385, 386, 387, 388, 389, 390, 
391, 392, 393, 394, 395, 396, 397, 398, 399, 400, 
401, 402, 403, 404, 405, 406, 407, 408, 409, 410, 
411, 412, 413, 414, 415, 416, 417, 418, 419, 420, 
421, 422, 423, 424, 425, 426, 427, 428, 429, 430, 
431, 432, 433, 434, 435, 436, 437, 438, 439, 440, 
441, 442, 443, 444, 445, 446, 447, 448, 449, 450, 
451, 452, 453, 454, 455, 456, 457, 458, 459, 460, 
461, 462, 463, 464, 465, 466, 467, 468, 469, 470, 
471, 472, 473, 474, 475, 476, 477, 478, 479, 480, 
481, 482, 483, 484, 485, 486, 487, 488, 489, 490, 
491, 492, 493, 494, 495, 496, 497, 498, 499, 500, 
501, 502, 503, 504, 505, 506, 507, 508, 509, 510, 
511, 512, 513, 514, 515, 516, 517, 518, 519, 520, 
521, 522, 523, 524, 525, 526, 527, 528, 529, 530, 
531, 532, 533, 534, 535, 536, 537, 538, 539, 540, 
541, 542, 543, 544, 545, 546, 547, 548, 549, 550, 
551, 552, 553, 554, 555, 556, 557, 558, 559, 560, 
561, 562, 563, 564, 565, 566, 567, 568, 569, 570, 
571, 572, 573, 574, 575, 576, 577, 578, 579, 580, 
581, 582, 583, 584, 585, 586, 587, 588, 589, 590, 
591, 592, 593, 594, 595, 596, 597, 598, 599, 600, 
601, 602, 603, 604, 605, 606, 607, 608, 609, 610, 
611, 612, 613, 614, 615, 616, 617, 618, 619, 620, 
621, 622, 623, 624, 625, 626, 627, 628, 629, 630, 
631, 632, 633, 634, 635, 636, 637, 638, 639, 640, 
641, 642, 643, 644, 645, 646, 647, 648, 649, 650, 
651, 652, 653, 654, 655, 656, 657, 658, 659, 660, 
661, 662, 663, 664, 665, 666, 667, 668, 669, 670, 
671, 672, 673, 674, 675, 676, 677, 678, 679, 680, 
681, 682, 683, 684, 685, 686, 687, 688, 689, 690, 
691, 692, 693, 694, 695, 696, 697, 698, 699, 700, 
701, 702, 703, 704, 705, 706, 707, 708, 709, 710, 
711, 712, 713, 714, 715, 716, 717, 718, 719, 720, 
721, 722, 723, 724, 725, 726, 727, 728, 729, 730, 
731, 732, 733, 734, 735, 736, 737, 738, 739, 740, 
741, 742, 743, 744, 745, 746, 747, 748, 749, 750, 
751, 752, 753, 754, 755, 756, 757, 758, 759, 760, 
761, 762, 763, 764, 765, 766, 767, 768, 769, 770, 
771, 772, 773, 774, 775, 776, 777, 778, 779, 780, 
781, 782, 783, 784, 785, 786, 787, 788, 789, 790, 
791, 792, 793, 794, 795, 796, 797, 798, 799, 800, 
801, 802, 803, 804, 805, 806, 807, 808, 809, 810, 
811, 812, 
