*Heading
 /Users/juliagao/geometry-optimization-net/scripts/../runs/main/shape_11.inp
*NODE
1, 0, -0.3, 0
2, 0.425, -0.3, 0
3, 0.575, -0.3, 0
4, 1, -0.3, 0
5, 1, 0.3, 0
6, 0.575, 0.3, 0
7, 0.425, 0.3, 0
8, 0, 0.3, 0
9, 0.6225470072, -0.1162933579, 0
10, 0.025718631027896, -0.3, 0
11, 0.077423532754528, -0.3, 0
12, 0.12990187600274, -0.3, 0
13, 0.18298141441971, -0.3, 0
14, 0.23629161069226, -0.3, 0
15, 0.2905135772057, -0.3, 0
16, 0.34529958130342, -0.3, 0
17, 0.39879317464637, -0.3, 0
18, 0.051437262055792, -0.3, 0
19, 0.10340980345326, -0.3, 0
20, 0.15639394855221, -0.3, 0
21, 0.2095688802872, -0.3, 0
22, 0.26301434109731, -0.3, 0
23, 0.31801281331409, -0.3, 0
24, 0.37258634929274, -0.3, 0
25, 0.45093107719405, -0.3, 0
26, 0.50173903491727, -0.3, 0
27, 0.55080795772322, -0.3, 0
28, 0.4768621543881, -0.3, 0
29, 0.52661591544644, -0.3, 0
30, 0.59969383157506, -0.3, 0
31, 0.6508055592693, -0.3, 0
32, 0.7045628606747, -0.3, 0
33, 0.75944889098659, -0.3, 0
34, 0.81420078880742, -0.3, 0
35, 0.8681956173741, -0.3, 0
36, 0.92150175442482, -0.3, 0
37, 0.97400916785202, -0.3, 0
38, 0.62438766315012, -0.3, 0
39, 0.67722345538847, -0.3, 0
40, 0.73190226596094, -0.3, 0
41, 0.78699551601225, -0.3, 0
42, 0.84140606160259, -0.3, 0
43, 0.8949851731456, -0.3, 0
44, 0.94801833570404, -0.3, 0
45, 1, -0.27542178754238, 0
46, 1, -0.22607951748317, 0
47, 1, -0.17633554435288, 0
48, 1, -0.1266102520675, 0
49, 1, -0.077633432106089, 0
50, 1, -0.028933012197449, 0
51, 1, 0.020933045836015, 0
52, 1, 0.072345499846908, 0
53, 1, 0.12441697874727, 0
54, 1, 0.17588846805821, 0
55, 1, 0.22610119542209, 0
56, 1, 0.27544926984702, 0
57, 1, -0.25084357508476, 0
58, 1, -0.20131545988158, 0
59, 1, -0.15135562882418, 0
60, 1, -0.10186487531082, 0
61, 1, -0.053401988901356, 0
62, 1, -0.004464035493542, 0
63, 1, 0.046330127165572, 0
64, 1, 0.098360872528243, 0
65, 1, 0.15047308496629, 0
66, 1, 0.20130385115014, 0
67, 1, 0.25089853969404, 0
68, 0.97384371285809, 0.3, 0
69, 0.92090298684252, 0.3, 0
70, 0.86676731687206, 0.3, 0
71, 0.81218212755214, 0.3, 0
72, 0.75781694060241, 0.3, 0
73, 0.70405592990041, 0.3, 0
74, 0.65159777423311, 0.3, 0
75, 0.60038470027061, 0.3, 0
76, 0.94768742571618, 0.3, 0
77, 0.89411854796886, 0.3, 0
78, 0.83941608577526, 0.3, 0
79, 0.78494816932901, 0.3, 0
80, 0.73068571187582, 0.3, 0
81, 0.677426147925, 0.3, 0
82, 0.62576940054122, 0.3, 0
83, 0.55056077517434, 0.3, 0
84, 0.50151426951964, 0.3, 0
85, 0.4509534943453, 0.3, 0
86, 0.52612155034868, 0.3, 0
87, 0.47690698869061, 0.3, 0
88, 0.39831988527073, 0.3, 0
89, 0.34549870275004, 0.3, 0
90, 0.29309458649199, 0.3, 0
91, 0.24005232907986, 0.3, 0
92, 0.18660913973032, 0.3, 0
93, 0.13325379361676, 0.3, 0
94, 0.079864096944901, 0.3, 0
95, 0.026582882991273, 0.3, 0
96, 0.37163977054145, 0.3, 0
97, 0.31935763495862, 0.3, 0
98, 0.26683153802536, 0.3, 0
99, 0.21327312013436, 0.3, 0
100, 0.15994515932627, 0.3, 0
101, 0.10656242790726, 0.3, 0
102, 0.053165765982546, 0.3, 0
103, 0, 0.2732620355162, 0
104, 0, 0.21922126767944, 0
105, 0, 0.16414629650105, 0
106, 0, 0.10865015444156, 0
107, 0, 0.053475690805643, 0
108, 0, -0.0013155651612624, 0
109, 0, -0.056056732818908, 0
110, 0, -0.11076629552773, 0
111, 0, -0.1652956108636, 0
112, 0, -0.21965624746558, 0
113, 0, -0.27339836517394, 0
114, 0, 0.24652407103239, 0
115, 0, 0.19191846432649, 0
116, 0, 0.1363741286756, 0
117, 0, 0.080926180207517, 0
118, 0, 0.026025201403768, 0
119, 0, -0.028656331726293, 0
120, 0, -0.083457133911523, 0
121, 0, -0.13807545714393, 0
122, 0, -0.19251576458328, 0
123, 0, -0.24679673034789, 0
124, 0.60207226469549, -0.099512089748627, 0
125, 0.59373705580843, -0.17117888110254, 0
126, 0.56478150141502, -0.20476221638496, 0
127, 0.55909673508895, -0.25268603135854, 0
128, 0.51965789437148, -0.26655793759529, 0
129, 0.49578117442283, -0.22616647861966, 0
130, 0.48805943927267, -0.17819707980877, 0
131, 0.47207401352198, -0.16149711595594, 0
132, 0.44208517071506, -0.18898005548727, 0
133, 0.3989134489886, -0.21579863363252, 0
134, 0.34689446851043, -0.23049918525867, 0
135, 0.29772980073401, -0.20917465980617, 0
136, 0.30971334582299, -0.15676780062193, 0
137, 0.34996490627726, -0.11887286491002, 0
138, 0.39803461764204, -0.091822781896325, 0
139, 0.45235350269244, -0.082727936876805, 0
140, 0.47947757669751, -0.062406791015297, 0
141, 0.49302523575823, -0.015732859584303, 0
142, 0.53492853775668, -0.031462416466576, 0
143, 0.55647315014554, -0.077020191461982, 0
144, 0.63189160089857, -0.13935345766311, 0
145, 0.57846585211683, -0.087956006335333, 0
146, 0.54263220506687, -0.054864582349306, 0
147, 0.51987856150507, -0.011231181120451, 0
148, 0.48295646473046, -0.035222671601436, 0
149, 0.47913905988554, -0.089578469229747, 0
150, 0.42434430785574, -0.082992245920094, 0
151, 0.37334208601851, -0.10429033817465, 0
152, 0.32840511115857, -0.13605971056711, 0
153, 0.29691252812551, -0.18174958196597, 0
154, 0.3190770328837, -0.2274224876352, 0
155, 0.3741619485843, -0.22535297256627, 0
156, 0.42214331286907, -0.20301558577833, 0
157, 0.46056674445185, -0.17307350360771, 0
158, 0.48845817554999, -0.15446255445005, 0
159, 0.49021542711999, -0.20184845863699, 0
160, 0.50560389561814, -0.24914910344796, 0
161, 0.54386293805921, -0.27156435333675, 0
162, 0.56405378567103, -0.22987486593908, 0
163, 0.56932275617915, -0.17962007394526, 0
164, 0.61793491567586, -0.16181192345485, 0
165, 0.4065985603541, -0.25854243550976, 0
166, 0.69625360659346, 0.18056658447848, 0
167, 0.41111451840926, 0.24907760205957, 0
168, 0.050292029011912, -0.24559995400157, 0
169, 0.099510875216076, -0.24508611304528, 0
170, 0.14768150876382, -0.24451893903524, 0
171, 0.19469582044305, -0.24380822282696, 0
172, 0.24090707142452, -0.2426438398707, 0
173, 0.89348718960421, 0.15914064785923, 0
174, 0.67225404129235, -0.09202129479663, 0
175, 0.92356552577884, -0.27591477431302, 0
176, 0.69545490813691, -0.22910491867543, 0
177, 0.83754598941328, 0.16114513946394, 0
178, 0.9747178336368, 0.1030981149317, 0
179, 0.64993802017906, 0.037254110444795, 0
180, 0.71864063541413, -0.11373985460731, 0
181, 0.87736819567187, -0.031523546070221, 0
182, 0.67526673603335, 0.27537132030618, 0
183, 0.56259350737655, 0.17224645321202, 0
184, 0.24758357929104, 0.13641944290524, 0
185, 0.14962392692108, 0.13601264218806, 0
186, 0.19879815751453, 0.13574993462112, 0
187, 0.050026624058911, 0.13663315248502, 0
188, 0.099976669711785, 0.13645455366898, 0
189, 0.1006630291322, 0.19198458842612, 0
190, 0.15067753105222, 0.19183372609639, 0
191, 0.050389391542362, 0.19201680147208, 0
192, 0.051458686738608, 0.24671477651971, 0
193, 0.10286087085985, 0.24677043385846, 0
194, 0.15410449638299, 0.24676948104142, 0
195, 0.20036256783129, 0.19183476803117, 0
196, 0.20514004205058, 0.24685669686032, 0
197, 0.2498832572211, 0.19230774459348, 0
198, 0.25603514760993, 0.24700880339217, 0
199, 0.2998205552241, 0.19371982900813, 0
200, 0.30714042084622, 0.24742980087269, 0
201, 0.35074003643828, 0.19593857600033, 0
202, 0.35883627720929, 0.2483376872933, 0
203, 0.46399368646018, 0.2492587108432, 0
204, 0.40277912623107, 0.19813134917041, 0
205, 0.45655295590314, 0.20014933856095, 0
206, 0.39853658879979, 0.14706062172666, 0
207, 0.45271329559745, 0.15219061455931, 0
208, 0.29670027749309, 0.13908207348548, 0
209, 0.34701244050327, 0.14307751764356, 0
210, 0.29771970212325, 0.084028156818984, 0
211, 0.3478357029552, 0.090110481606715, 0
212, 0.39820752288828, 0.095112942239967, 0
213, 0.44598172617994, 0.0043495856243521, 0
214, 0.45143626212358, 0.10531661453907, 0
215, 0.42894045179365, -0.018962533002738, 0
216, 0.47482296279879, 0.017955724613487, 0
217, 0.47914238750609, 0.044752900221066, 0
218, 0.35462533108839, 0.038274061880803, 0
219, 0.36998658080997, -0.0088308857737618, 0
220, 0.21584429768496, -0.080526099197901, 0
221, 0.1507842169317, 0.080163332351761, 0
222, 0.20031376135331, 0.079327727639535, 0
223, 0.24900283077801, 0.079775338061268, 0
224, 0.27533297007217, 0.053474446484357, 0
225, 0.17723255359174, 0.051848059458057, 0
226, 0.21077212867997, -0.1041163174614, 0
227, 0.10065999337247, 0.081000125307576, 0
228, 0.050317492699692, 0.081292895512959, 0
229, 0.050918678947374, 0.026588146395333, 0
230, 0.10222849965294, 0.026401851242984, 0
231, 0.19435499074441, -0.18554098423806, 0
232, 0.24241727969824, -0.18760454996672, 0
233, 0.14684888560654, -0.18671566801503, 0
234, 0.04985198461941, -0.19002304192644, 0
235, 0.098757697087204, -0.18832608828233, 0
236, 0.05043278208223, -0.13459982933653, 0
237, 0.10377367359893, -0.026819116011238, 0
238, 0.051400059200864, -0.027240949248337, 0
239, 0.051363897290607, -0.080568896880714, 0
240, 0.15163956147951, -0.13018091382475, 0
241, 0.10084369161536, -0.13226328774485, 0
242, 0.10384838291881, -0.078991222162528, 0
243, 0.20217223924563, 0.051251072136034, 0
244, 0.25827231866134, -0.005736360812837, 0
245, 0.31805452103667, -0.046563981721383, 0
246, 0.20359324815758, -0.12911555800953, 0
247, 0.28761015864303, -0.029054666743217, 0
248, 0.45609207896963, -0.22787949222367, 0
249, 0.29615198774464, -0.26084147240979, 0
250, 0.35744318625006, -0.26477201350018, 0
251, 0.26843968883051, -0.11268294120658, 0
252, 0.32566113092077, -0.071205000955536, 0
253, 0.37550532947766, -0.051981066983707, 0
254, 0.42676251405964, 0.049881697005286, 0
255, 0.56148452406862, 0.093161371490227, 0
256, 0.77673962607095, -0.107990584742, 0
257, 0.59427133568488, -0.067835544281282, 0
258, 0.61291833987033, 0.076014767596075, 0
259, 0.94711561378096, 0.25163126029711, 0
260, 0.94921879876451, 0.033456496955771, 0
261, 0.76343884011115, -0.050582318135128, 0
262, 0.71984299916779, -0.1457059250412, 0
263, 0.70648295840826, 0.044949711292811, 0
264, 0.8800044089968, -0.22446998896396, 0
265, 0.66981166239662, 0.20259485622782, 0
266, 0.90318392100247, -0.060876964127479, 0
267, 0.90469326860179, -0.087900262430178, 0
268, 0.78359291247677, 0.27640812803281, 0
269, 0.6263743332392, -0.20956820733977, 0
270, 0.85274341636624, -0.2507708601345, 0
271, 0.92680377902765, -0.064112583390917, 0
272, 0.72493106567561, 0.20528759976475, 0
273, 0.83412567138943, -0.2242611434775, 0
274, 0.51689834601892, 0.24864782813463, 0
275, 0.75240827348855, 0.18322549288688, 0
276, 0.5112677328353, 0.19940862220698, 0
277, 0.50911795585323, 0.15115611847231, 0
278, 0.75885475814688, -0.13957634986204, 0
279, 0.70609147556701, -0.026762949796882, 0
280, 0.9755220864215, -0.12338366510613, 0
281, 0.9747056997178, 0.0029624689357344, 0
282, 0.83305656213983, -0.053699885622187, 0
283, 0.97480227113676, -0.047116077439958, 0
284, 0.75569474301148, 0.092910828397717, 0
285, 0.50973378427685, 0.10347148662273, 0
286, 0.64140539815697, 0.17664426958695, 0
287, 0.94764380717414, 0.17947032572809, 0
288, 0.86526614839816, 0.22968819220594, 0
289, 0.84030467618343, -0.16797657037895, 0
290, 0.59505009861086, -0.033348636635703, 0
291, 0.92891440222019, -0.14490652367496, 0
292, 0.63163218292538, 0.0091818939844515, 0
293, 0.72393831619761, 0.15912634812605, 0
294, 0.85314821151882, -0.029079146003353, 0
295, 0.81021125130965, 0.25315412829747, 0
296, 0.94798011362113, 0.15537018523466, 0
297, 0.75668206817023, -0.10873052814204, 0
298, 0.81832310312339, -0.10875852239049, 0
299, 0.7981653540589, -0.16778925842142, 0
300, 0.97377375995627, 0.22674061390647, 0
301, 0.97524438146188, -0.22600013147436, 0
302, 0.73726914649368, -0.1105513791342, 0
303, 0.75713518056686, -0.25181624062693, 0
304, 0.68010292322336, -0.15789915346832, 0
305, 0.89460389968337, 0.11250256340508, 0
306, 0.97491916940297, -0.25108334512576, 0
307, 0.69820485110665, 0.089131958921319, 0
308, 0.97371307170363, 0.27550965552761, 0
309, 0.77994975693566, -0.02462085417547, 0
310, 0.74584405665064, -0.27668887845927, 0
311, 0.97497186015604, -0.072330899551962, 0
312, 0.61286690210077, -0.051916988986561, 0
313, 0.95090760025341, -0.22563712099909, 0
314, 0.97453817064122, -0.27575803640536, 0
315, 0.59446926678369, 0.24883996418999, 0
316, 0.83813867925642, 0.1383457207982, 0
317, 0.89289846138885, 0.2057422549014, 0
318, 0.70837798803156, -0.25283734611149, 0
319, 0.80923582554876, 0.16142027075479, 0
320, 0.79432873424983, 0.024182645923092, 0
321, 0.8110968065737, 0.27647857826981, 0
322, 0.78110002415284, -0.25142795901681, 0
323, 0.59000120015889, 0.19830746916368, 0
324, 0.66942329334353, 0.085766356875256, 0
325, 0.87972230231784, -0.058090611903515, 0
326, 0.78657870648912, -0.051032920725875, 0
327, 0.97415848519097, 0.1776955733249, 0
328, 0.55926762876455, -0.28612549421692, 0
329, 0.27041072943726, -0.18621400661757, 0
330, 0.24085803663992, -0.15918597974468, 0
331, 0.28248966496749, -0.14849021509767, 0
332, 0.5971076670709, -0.2000973633657, 0
333, 0.97476531729427, 0.027969950268734, 0
334, 0.92780356682367, -0.090771239714876, 0
335, 0.72700771286259, 0.091485274094996, 0
336, 0.76616021480466, -0.22546069032141, 0
337, 0.8823621890961, -0.19732469178957, 0
338, 0.75481695263061, 0.2527334306006, 0
339, 0.74321387139181, -0.2264035619642, 0
340, 0.80979575232812, -0.052116407888083, 0
341, 0.94942477355707, 0.008579095304398, 0
342, 0.56314754818823, -0.033539967008695, 0
343, 0.87502259742487, -0.0057282837765778, 0
344, 0.85635899601348, -0.05570213422689, 0
345, 0.83906324172654, 0.11551238794283, 0
346, 0.41055683352955, -0.23400640126771, 0
347, 0.47875619256832, -0.24070587118988, 0
348, 0.46112980027227, -0.20210235428928, 0
349, 0.18168389993471, -0.0026445291158085, 0
350, 0.26928436484698, -0.063038855698391, 0
351, 0.2825401155222, -0.0019676981889112, 0
352, 0.47471748183204, -0.21968828879987, 0
353, 0.23337443145479, -0.0051333759448715, 0
354, 0.26333307553498, -0.034302119636791, 0
355, 0.17741419294983, -0.12935533286977, 0
356, 0.27214912719413, -0.22385253278687, 0
357, 0.3099574120365, -0.24361524530962, 0
358, 0.26518210669462, -0.25507551946146, 0
359, 0.7003186392123, -0.15110518733292, 0
360, 0.81738205478802, 0.047074154111024, 0
361, 0.43431043967278, -0.22595884360624, 0
362, 0.47454446893396, -0.19182990645557, 0
363, 0.43187676224849, 0.023513020572225, 0
364, 0.48090903086923, 0.06668726543326, 0
365, 0.50950765571769, 0.056135928921376, 0
366, 0.81466207727398, -0.079891845828314, 0
367, 0.92059175294227, 0.18108448714501, 0
368, 0.79910860904058, -0.13797470230982, 0
369, 0.025542524183472, -0.081791530641833, 0
370, 0.025561883912098, -0.027858754938455, 0
371, 0.051462882092081, -0.053913523289024, 0
372, 0.025568907202798, -0.054832297963725, 0
373, 0.23059337790351, 0.24694636771308, 0
374, 0.20879059674417, 0.27372500262243, 0
375, 0.26074018699541, 0.27375725076422, 0
376, 0.23479228579056, 0.27378539990251, 0
377, 0.17964683541348, 0.24679073322048, 0
378, 0.15672213968372, 0.27364610899728, 0
379, 0.18276881612925, 0.27366801275477, 0
380, 0.025062405853913, -0.19110729714223, 0
381, 0.025237381998755, -0.13608684950317, 0
382, 0.04991660539586, -0.16219924329654, 0
383, 0.025062476602329, -0.16354700480392, 0
384, 0.82885634622039, -0.027085597492865, 0
385, 0.97461146252253, 0.12808055446121, 0
386, 0.80446131546734, -0.02557207124033, 0
387, 0.92484627412769, -0.012207643496062, 0
388, 0.025403086123905, 0.02636878857493, 0
389, 0.051204213588284, -0.00042978875774276, 0
390, 0.025508755566434, -0.00080895432403956, 0
391, 0.72733626535897, 0.25226857610572, 0
392, 0.63986734547664, 0.12835515314814, 0
393, 0.65786326910184, -0.25355212112994, 0
394, 0.75617789007753, 0.27628187989739, 0
395, 0.12850838838514, 0.24676909014677, 0
396, 0.10452270350633, 0.27362584613574, 0
397, 0.13063944677572, 0.27363557622279, 0
398, 0.077172835486001, 0.2467597033056, 0
399, 0.052231711707271, 0.27357288744694, 0
400, 0.07838118505327, 0.27361257076816, 0
401, 0.025299650092529, -0.24602477279802, 0
402, 0.050819926007423, -0.27304849729578, 0
403, 0.025536991619975, -0.27315755782816, 0
404, 0.05095827907785, -0.10740728127132, 0
405, 0.02540889866675, -0.10884358749503, 0
406, 0.72022503705193, -0.27684740472514, 0
407, 0.56177855322811, 0.14653280694355, 0
408, 0.86185248993921, -0.16862703934119, 0
409, 0.86518085101615, 0.20649271810905, 0
410, 0.65847183985566, 0.015404831494125, 0
411, 0.75383977595387, 0.11532243164555, 0
412, 0.77879447202405, -0.13835010415113, 0
413, 0.79268987969525, -0.078888936521347, 0
414, 0.74045766616425, -0.050948966327346, 0
415, 0.78134696200936, 0.13859167497385, 0
416, 0.36466278477678, 0.27428638888998, 0
417, 0.41719122970532, 0.2745552158805, 0
418, 0.38491296962186, 0.24880262716466, 0
419, 0.39092089527934, 0.27453339001424, 0
420, 0.050103123331062, 0.16436385862556, 0
421, 0.02501074374939, 0.13656629113839, 0
422, 0.025203184736739, 0.19195747678009, 0
423, 0.025039897452067, 0.16430373009496, 0
424, 0.19830966088843, -0.27288086526282, 0
425, 0.15031836476152, -0.27298438260528, 0
426, 0.17133140404049, -0.24415366186361, 0
427, 0.17453278415397, -0.27292027409591, 0
428, 0.050103037459451, 0.1089145876415, 0
429, 0.025149965774953, 0.081199863626293, 0
430, 0.025043175990522, 0.10884038749303, 0
431, 0.050610468066422, 0.053834624921097, 0
432, 0.025284260536394, 0.053704538244077, 0
433, 0.84037097895693, 0.092548719069473, 0
434, 0.69574492159949, 0.13427293254401, 0
435, 0.67002800826951, -0.23046892559738, 0
436, 0.92339455069908, 0.037738947101567, 0
437, 0.58671881264063, 0.12200044222391, 0
438, 0.94723340016636, 0.2757591215142, 0
439, 0.59728771593643, 0.27432903133745, 0
440, 0.7991762898859, -0.00019615718719884, 0
441, 0.7513380808735, -0.19898476906583, 0
442, 0.63709267095119, -0.1670791052376, 0
443, 0.63421847243483, -0.072234401825742, 0
444, 0.94735966038816, 0.20352632340745, 0
445, 0.5718237046978, 0.27399030617564, 0
446, 0.90503505557075, -0.19801529869527, 0
447, 0.92139801752551, 0.13380023647204, 0
448, 0.86621385806011, 0.13737609578043, 0
449, 0.95199948227389, -0.14695107945028, 0
450, 0.85925752656112, -0.083203221449618, 0
451, 0.123737090853, -0.2448466714013, 0
452, 0.10093154977143, -0.27302270597941, 0
453, 0.12575423624909, -0.2730415274643, 0
454, 0.67421303722488, -0.059081636031978, 0
455, 0.63903235741416, -0.10560002681686, 0
456, 0.92808600693752, -0.19883458659795, 0
457, 0.31255847242689, 0.27385504916151, 0
458, 0.33289892992923, 0.24782125625362, 0
459, 0.33854069650642, 0.27400752845044, 0
460, 0.83685862860546, -0.081358435820817, 0
461, 0.65529347031531, -0.20943968328106, 0
462, 0.92021488940028, 0.2521744729425, 0
463, 0.59201090792631, 0.22353104201707, 0
464, 0.61812315398244, 0.22442714296431, 0
465, 0.73464567759485, 0.046863622634296, 0
466, 0.64336927906539, -0.23094160438153, 0
467, 0.075024198204082, -0.24530855583351, 0
468, 0.07594647382523, -0.27300384199977, 0
469, 0.82078171444158, 0.023162748531347, 0
470, 0.68580064875228, 0.019713397437566, 0
471, 0.69562403883613, -0.055011600785732, 0
472, 0.69648654776678, 0.11154398256233, 0
473, 0.025734692689709, 0.24663322037278, 0
474, 0.026099320881178, 0.2735097579624, 0
475, 0.95015342604269, -0.04206349110875, 0
476, 0.70088261194913, -0.11847800208464, 0
477, 0.92045887744353, 0.27603157563038, 0
478, 0.28153201754883, 0.24714903175867, 0
479, 0.286639744602, 0.27375587849102, 0
480, 0.52107217770757, 0.27392506483284, 0
481, 0.54292472612127, 0.24832337643268, 0
482, 0.54648481248492, 0.27382023625966, 0
483, 0.21784131582691, -0.24351087272574, 0
484, 0.24414171839851, -0.27308352471413, 0
485, 0.22156619076659, -0.27289542013741, 0
486, 0.64280215813705, 0.20101433360098, 0
487, 0.79012757261471, 0.047780457966077, 0
488, 0.72920792943377, -0.20095430096654, 0
489, 0.56127941802595, 0.064914504403098, 0
490, 0.70897647700498, -0.082929955440311, 0
491, 0.76254443275427, 0.047752611888818, 0
492, 0.75277171944083, 0.1378083825593, 0
493, 0.61469287949194, 0.17465500548989, 0
494, 0.95004904380489, -0.25105437635753, 0
495, 0.49055242250247, 0.24910313529739, 0
496, 0.4695258542254, 0.27434220803027, 0
497, 0.49542114089748, 0.27411979315476, 0
498, 0.43749339891141, 0.24928228084063, 0
499, 0.44342462461721, 0.27453108948473, 0
500, 0.83725398588561, 0.18398345141088, 0
501, 0.85695467491253, -0.22428341464712, 0
502, 0.95194524748481, -0.17343432346355, 0
503, 0.88345031918054, -0.11325386698591, 0
504, 0.77135709027197, -0.27654724548044, 0
505, 0.87095141013369, 0.043734743449048, 0
506, 0.71778176386313, -0.052352721005595, 0
507, 0.94970865287266, -0.016577324290947, 0
508, 0.92031706067365, 0.20472586193163, 0
509, 0.9756621235911, -0.17491928730589, 0
510, 0.69454875765312, -0.27692010391204, 0
511, 0.1257105607739, 0.19191070781263, 0
512, 0.10157359062834, 0.21952292664319, 0
513, 0.15209058448641, 0.21946469737605, 0
514, 0.12686529212798, 0.21949357069314, 0
515, 0.049914907156671, -0.21787108447388, 0
516, 0.025098732422695, -0.21863610211274, 0
517, 0.050842647817056, 0.21949932698293, 0
518, 0.025433625754262, 0.21942253160824, 0
519, 0.35421806848957, 0.22220964383732, 0
520, 0.40637830986922, 0.22360107566405, 0
521, 0.37660427546182, 0.19704344550005, 0
522, 0.38018251269268, 0.22296139649052, 0
523, 0.89997549396409, -0.0086481941925283, 0
524, 0.53790638674755, 0.19828544063565, 0
525, 0.51363173756042, 0.22386522957359, 0
526, 0.54003609490285, 0.2232061362571, 0
527, 0.098723468705812, -0.21674331560683, 0
528, 0.12289746448586, -0.18753023706451, 0
529, 0.14644159927775, -0.21561278029041, 0
530, 0.12271936258927, -0.2162078766674, 0
531, 0.71510308429179, -0.1759132458485, 0
532, 0.97394867592499, 0.20228274348261, 0
533, 0.80954841489409, 0.23000044472682, 0
534, 0.56148066566141, 0.1202702328155, 0
535, 0.92876503625145, -0.17200179454195, 0
536, 0.60596335168016, 0.00045477488423841, 0
537, 0.78884042859826, -0.22482388289598, 0
538, 0.34966797523052, -0.088478093111037, 0
539, 0.30802397756923, -0.11309529708983, 0
540, 0.32748055761215, -0.10098084853316, 0
541, 0.076534463696765, 0.026613848098214, 0
542, 0.10308274393026, -0.00038982109009189, 0
543, 0.077472166295332, -0.026879678059317, 0
544, 0.077068054476277, -0.0002720501925718, 0
545, 0.69005685969971, -0.08690911602767, 0
546, 0.64455279529271, 0.2255135065006, 0
547, 0.72135974282459, -0.00069009515549212, 0
548, 0.68175680645534, -0.029913569173062, 0
549, 0.58609046596989, 0.07013079697679, 0
550, 0.80902432102383, 0.18415473368842, 0
551, 0.780709994578, 0.18390687237203, 0
552, 0.97564737069672, -0.14913997925927, 0
553, 0.59530407061184, -0.2748903424251, 0
554, 0.36434501131308, -0.24611920593901, 0
555, 0.32721000039882, -0.26506187171975, 0
556, 0.3365291699326, -0.2482887281221, 0
557, 0.17555878685385, 0.1917928852417, 0
558, 0.20233858748217, 0.21952436274862, 0
559, 0.17724602463506, 0.21946439180644, 0
560, 0.8499331305227, -0.0033558878432565, 0
561, 0.86230315501717, -0.14003611241593, 0
562, 0.75233640299417, 0.16043193213167, 0
563, 0.90099705461122, -0.25082508776919, 0
564, 0.8614112001671, -0.11142655370694, 0
565, 0.27322515079197, 0.081504816410736, 0
566, 0.24782468639638, 0.10816520584236, 0
567, 0.27202993923697, 0.13751556489847, 0
568, 0.29667618590133, 0.11155799207511, 0
569, 0.27213091380259, 0.10955362650791, 0
570, 0.86802287666498, 0.091093920913181, 0
571, 0.81086273105855, 0.11610425487294, 0
572, 0.58739839590533, 0.14764775040332, 0
573, 0.62039394017376, 0.24945247230537, 0
574, 0.07549605337791, 0.081226803236019, 0
575, 0.10138011603154, 0.053550267412191, 0
576, 0.075983536282335, 0.053791360421814, 0
577, 0.68389650970275, -0.1245262561549, 0
578, 0.86565399196337, 0.16038209666748, 0
579, 0.86699206124639, 0.11431134024596, 0
580, 0.86557217542045, 0.25301069631595, 0
581, 0.50045475697317, 0.0065108543806427, 0
582, 0.45498309805624, 0.03389523587029, 0
583, 0.53565175304371, 0.045768400997512, 0
584, 0.7815939096163, 0.22980650017019, 0
585, 0.52310570063786, 0.022737618021123, 0
586, 0.60795869731067, -0.2504255799671, 0
587, 0.64895311853125, 0.27497333166307, 0
588, 0.61837588631077, -0.020967430674817, 0
589, 0.63477656756138, -0.04178336645363, 0
590, 0.12796459838813, 0.025936075051357, 0
591, 0.30196358002337, -0.08202869301304, 0
592, 0.13031545261597, -0.027104913096886, 0
593, 0.12922653154259, -0.00081816866478861, 0
594, 0.37261870229112, 0.14494018001194, 0
595, 0.3483428342028, 0.16955132008939, 0
596, 0.40018730607917, 0.17263898376059, 0
597, 0.37409196790333, 0.17104467725216, 0
598, 0.23989341994467, -0.21526558107344, 0
599, 0.26709010987445, -0.20750629890488, 0
600, 0.61697635457054, -0.08368864979123, 0
601, 0.94832469855689, 0.13120604540087, 0
602, 0.80982809738373, 0.13875875470514, 0
603, 0.72598886185565, 0.22867943329649, 0
604, 0.40168428067932, -0.065728691538566, 0
605, 0.34983823785448, -0.060732752266751, 0
606, 0.37441157900871, -0.076513765760303, 0
607, 0.83723616905319, 0.20691165400849, 0
608, 0.71975371010213, -0.22763535277996, 0
609, 0.88186109721387, -0.08538527403759, 0
610, 0.61285329132046, 0.12498710005248, 0
611, 0.61357219917498, 0.14981039017721, 0
612, 0.56871375933948, 0.24835712180615, 0
613, 0.72893014017585, 0.27604529578389, 0
614, 0.89339955430323, 0.27627408467423, 0
615, 0.92579201233907, -0.037909500366386, 0
616, 0.3839064884435, -0.26183528593758, 0
617, 0.38942746833703, -0.24026366625681, 0
618, 0.22511778350926, 0.19199568150972, 0
619, 0.25245289913615, 0.21983570875735, 0
620, 0.22739062341243, 0.21965039081566, 0
621, 0.20774313110769, -0.0039229583851924, 0
622, 0.15206810639394, 0.052519183970641, 0
623, 0.15545657910359, -0.0015754512756487, 0
624, 0.2297058335365, 0.022780951198253, 0
625, 0.80914213249073, 0.20700575530969, 0
626, 0.61609243794035, -0.22863657351702, 0
627, 0.075025271189829, 0.13659197901891, 0
628, 0.1001673116213, 0.10866692323475, 0
629, 0.075153858346226, 0.10885410394272, 0
630, 0.56606907754003, 0.22296773331305, 0
631, 0.70622325742273, -0.20359755118729, 0
632, 0.57514597316684, -0.053547993557879, 0
633, 0.22475899974619, 0.079280467063505, 0
634, 0.19917884890441, 0.10753244324554, 0
635, 0.2232159729419, 0.13591282160253, 0
636, 0.22355814323955, 0.10762693548622, 0
637, 0.24652888525527, -0.083971601340894, 0
638, 0.29420298590017, -0.12952094898062, 0
639, 0.53596991278886, 0.14846580309121, 0
640, 0.50977988323878, 0.17518981522857, 0
641, 0.5365590966541, 0.17341719567466, 0
642, 0.24826846804888, 0.16448437921036, 0
643, 0.2747550484055, 0.19288433412644, 0
644, 0.29775213201469, 0.16649294709339, 0
645, 0.2729044597815, 0.16531263567397, 0
646, 0.3029294124218, 0.22071162079177, 0
647, 0.27760931162651, 0.22017895046134, 0
648, 0.10408928154321, -0.052960824193584, 0
649, 0.077446981538092, -0.079654594895256, 0
650, 0.077629570775985, -0.05328839976467, 0
651, 0.65866025714676, -0.16465433680735, 0
652, 0.64040493387378, 0.1524083341412, 0
653, 0.7730424908693, -0.19765344553826, 0
654, 0.70194324664279, 0.2757493519691, 0
655, 0.77345368703829, 0.00047726069083757, 0
656, 0.90630352635016, -0.14305114367385, 0
657, 0.73621891708219, -0.17235642335678, 0
658, 0.80496690679205, -0.25110611310652, 0
659, 0.29909956184437, -0.27967756718042, 0
660, 0.35927848991722, -0.28217688373592, 0
661, 0.3297208292307, -0.2819468417418, 0
662, 0.12577154114456, 0.080630357592649, 0
663, 0.23018302621549, -0.13036463053122, 0
664, 0.12676020074243, 0.05311436030256, 0
665, 0.92017382289418, 0.22841372384309, 0
666, 0.63235372836721, -0.25293541448454, 0
667, 0.88411031198886, -0.14141712822055, 0
668, 0.83747174648456, 0.22996341011016, 0
669, 0.17064517715571, -0.18597410478368, 0
670, 0.1931508948426, -0.21455785405244, 0
671, 0.16990299177388, -0.21501926006381, 0
672, 0.42932414179257, -0.050735157827234, 0
673, 0.45503182598999, -0.028123907229002, 0
674, 0.45357008011201, -0.05551510167537, 0
675, 0.17427422473627, 0.13581773445397, 0
676, 0.14985798254761, 0.16398147277486, 0
677, 0.19918760034432, 0.16388074572024, 0
678, 0.17457204658231, 0.16387755568925, 0
679, 0.22373300771796, 0.16405961079774, 0
680, 0.66757078112278, 0.13155291294871, 0
681, 0.66731838429641, -0.13078556782729, 0
682, 0.73293367651585, -0.25231136672502, 0
683, 0.4095697636725, -0.28013725695308, 0
684, 0.45896039987654, -0.28185785121826, 0
685, 0.43406301638911, -0.28148937173087, 0
686, 0.92857718293237, -0.11776123396561, 0
687, 0.55376256434688, -0.01013626307983, 0
688, 0.75289028679355, 0.20620395521531, 0
689, 0.63992995409769, 0.10460340659675, 0
690, 0.32513820396153, 0.19476041918566, 0
691, 0.32845792671371, 0.22139891988742, 0
692, 0.61621273031225, 0.19951375548444, 0
693, 0.7973171830974, -0.10806975971131, 0
694, 0.65051697227872, -0.13577709990123, 0
695, 0.74052156734208, 0.024005220424214, 0
696, 0.69720986337863, 0.20406379519467, 0
697, 0.89285506242113, 0.2291465912554, 0
698, 0.97480023358995, 0.07805386157802, 0
699, 0.95155782853828, -0.19971536283146, 0
700, 0.58632078534562, 0.096091572637619, 0
701, 0.67319036172628, 0.25093181798858, 0
702, 0.79680427257435, -0.27636093725936, 0
703, 0.97468032335595, -0.022032517207539, 0
704, 0.10255942777638, -0.10529779398435, 0
705, 0.075622266493012, -0.1333717188563, 0
706, 0.076657081415054, -0.10626289795061, 0
707, 0.38589756631924, -0.28129133746991, 0
708, 0.26992372062887, -0.27706594650007, 0
709, 0.37312735524227, 0.092231290911612, 0
710, 0.34679937687841, 0.11656573794362, 0
711, 0.39783472629232, 0.12128318342209, 0
712, 0.37223903222193, 0.11868791407305, 0
713, 0.54121789384415, 0.0093553393324245, 0
714, 0.74749972265375, 0.00037759857373737, 0
715, 0.86531032862881, 0.18340312835639, 0
716, 0.32168144663034, 0.14098667916347, 0
717, 0.32288488822129, 0.16794072038614, 0
718, 0.14756113204202, -0.15802738798749, 0
719, 0.19502358228249, -0.15654614904431, 0
720, 0.17144363567106, -0.157107939353, 0
721, 0.77099727296778, -0.078485680127779, 0
722, 0.78243599107722, 0.11605807795249, 0
723, 0.66892506575746, -0.18592065721259, 0
724, 0.68180962652872, -0.20668312301371, 0
725, 0.62297434333236, 0.27463896269919, 0
726, 0.69513826749633, -0.0029752716068423, 0
727, 0.81908856899915, -0.16766397688399, 0
728, 0.72422058673717, 0.18210059772368, 0
729, 0.83969866045937, -0.10990974334442, 0
730, 0.64661713284282, 0.25015845370536, 0
731, 0.6432830726222, -0.012557909174234, 0
732, 0.32259693735297, 0.087008133906116, 0
733, 0.32155861587246, 0.11396918591089, 0
734, 0.43003082337826, -0.26316319448246, 0
735, 0.73924868526626, -0.14192719408749, 0
736, 0.46903171021432, -0.0049613924356347, 0
737, 0.79460546763646, -0.19687649371063, 0
738, 0.66861545909061, 0.17869616982465, 0
739, 0.6957259676519, 0.15729292428813, 0
740, 0.78247008506895, 0.25301609029356, 0
741, 0.70010769042853, 0.251663863758, 0
742, 0.64336131796566, -0.27674149366275, 0
743, 0.87678693933023, -0.25075034681796, 0
744, 0.83800003016206, -0.19653492751002, 0
745, 0.90332132300439, -0.22479603652705, 0
746, 0.72419719647139, 0.13637166029713, 0
747, 0.49871270184373, -0.27923165044747, 0
748, 0.4809745532957, -0.28089159434821, 0
749, 0.17564709273077, 0.079684447520343, 0
750, 0.14994599614316, 0.10803507919082, 0
751, 0.17464266371686, 0.10771611950416, 0
752, 0.13068607890398, -0.078583467852288, 0
753, 0.25422479734143, 0.022794235001427, 0
754, 0.13090185718924, -0.05296892118243, 0
755, 0.71322497976237, 0.022484484554556, 0
756, 0.94716104877076, 0.22756875653407, 0
757, 0.87281536823671, -0.27597618037923, 0
758, 0.89855072837316, 0.016512895854531, 0
759, 0.75371019431845, 0.2293730443921, 0
760, 0.62219316147324, 0.031027161702348, 0
761, 0.90156176426254, -0.034441704346537, 0
762, 0.92540905425377, -0.25094925699197, 0
763, 0.074411974618354, -0.18912974617945, 0
764, 0.074453818901287, -0.21726888750223, 0
765, 0.61257529556927, 0.10029168465687, 0
766, 0.48404025698098, 0.20052526890341, 0
767, 0.45974875809809, 0.22455310639533, 0
768, 0.48680162692243, 0.22460638575958, 0
769, 0.075549576525069, 0.19202667634542, 0
770, 0.076227551220512, 0.21953165963833, 0
771, 0.27812398697248, -0.091449439410635, 0
772, 0.30319014592, 0.0296988914111, 0
773, 0.22681483250817, 0.050963128214892, 0
774, 0.42942584827285, 0.19932741178958, 0
775, 0.43290876578557, 0.22422429565791, 0
776, 0.20469183423072, 0.02344199722862, 0
777, 0.15814306726202, -0.053403342152527, 0
778, 0.25679569958871, -0.13499643354902, 0
779, 0.89399196245681, 0.13585746631887, 0
780, 0.66783356305964, 0.15499925897432, 0
781, 0.90582697103494, -0.1153675427548, 0
782, 0.53655624066938, 0.097738574576863, 0
783, 0.51025996212596, 0.079745262665359, 0
784, 0.53691636927904, 0.071768114346467, 0
785, 0.1261539910557, -0.13119831792237, 0
786, 0.099111486165702, -0.1600512498666, 0
787, 0.12343870562476, -0.15904100578459, 0
788, 0.78099313159782, 0.20677305653928, 0
789, 0.56401644549442, 0.19765706596178, 0
790, 0.89730599653701, 0.041106251130073, 0
791, 0.51927579951324, -0.28107642381005, 0
792, 0.074599593220949, -0.16107614433914, 0
793, 0.12485172830863, 0.13624687446955, 0
794, 0.12510994550442, 0.10837803422284, 0
795, 0.4542499740748, 0.17602757209812, 0
796, 0.42516185422791, 0.14990739299905, 0
797, 0.42688102692152, 0.17456640178839, 0
798, 0.10012859094071, 0.1642609955055, 0
799, 0.075141778129151, 0.16434771828103, 0
800, 0.12504026748305, 0.16412668459037, 0
801, 0.4810850103787, 0.15364856579419, 0
802, 0.48216769185755, 0.17685545300521, 0
803, 0.97550208509089, -0.20058180800227, 0
804, 0.58625108869258, -0.24106162132497, 0
805, 0.25113333336459, 0.051303420392092, 0
806, 0.18269716263688, -0.10355569110488, 0
807, 0.15709829986785, -0.027795539052363, 0
808, 0.42396837424016, 0.1005744814138, 0
809, 0.45181900671602, 0.12863608635204, 0
810, 0.42419567920837, 0.12528625356301, 0
811, 0.81621782784421, -0.19653071353906, 0
812, 0.50917905157756, 0.12726467173198, 0
813, 0.53604716936196, 0.12328728108547, 0
814, 0.35034590802195, 0.063898600949488, 0
815, 0.40002217764034, 0.068235597482497, 0
816, 0.38046241550084, 0.038534512603601, 0
817, 0.37564839260659, 0.06551424454622, 0
818, 0.12876410413962, -0.10446982031578, 0
819, 0.74968896623451, -0.078873020322845, 0
820, 0.84431690881907, 0.045715348555073, 0
821, 0.72893569792974, -0.080280694388459, 0
822, 0.6536931081342, -0.064676236062055, 0
823, 0.89534974706858, 0.088991681663462, 0
824, 0.94903689913461, -0.27585719190759, 0
825, 0.17930252767178, 0.024350466511451, 0
826, 0.18643598686313, -0.07901640174683, 0
827, 0.21107620306882, -0.03060000611245, 0
828, 0.73067792221575, -0.025004188609351, 0
829, 0.97526526594442, -0.097752816204004, 0
830, 0.18586619709741, -0.054424725990258, 0
831, 0.29988211316609, 0.056659660566063, 0
832, 0.41278434255735, 0.010515894694267, 0
833, 0.45222620385196, 0.05855160967551, 0
834, 0.5011916881903, 0.033183791249241, 0
835, 0.92694369096429, -0.22520910782989, 0
836, 0.9209646007276, 0.1574554208931, 0
837, 0.86608649554187, 0.27646320078042, 0
838, 0.30758222645692, 0.0034608395799774, 0
839, 0.29322271072647, -0.055951850531498, 0
840, 0.48070925299198, 0.10895958226204, 0
841, 0.48066450918673, 0.13098779381388, 0
842, 0.36092994151144, 0.013769662463085, 0
843, 0.40171268614866, -0.015149579567316, 0
844, 0.38849384863508, 0.011485011906071, 0
845, 0.37419331160475, -0.03017805236113, 0
846, 0.23772183125398, -0.032576837694965, 0
847, 0.34028089442271, -0.014173471419035, 0
848, 0.34464553470745, -0.037103296661847, 0
849, 0.83861812705568, 0.27650113704846, 0
850, 0.75688882398344, -0.16994174454573, 0
851, 0.58991794281978, -0.21833870784862, 0
852, 0.15541623685534, -0.10382490400084, 0
853, 0.23960281229174, -0.10648165063157, 0
854, 0.24222044379058, -0.059175418060883, 0
855, 0.21401655501011, -0.05626696476147, 0
856, 0.15368531104955, 0.025230953042547, 0
857, 0.69851420193266, 0.22776612961042, 0
858, 0.88375983671911, -0.16954704965646, 0
859, 0.92183675299685, 0.11006844129451, 0
860, 0.89301698289031, 0.25265443091882, 0
861, 0.32863495234088, 0.034206179240149, 0
862, 0.32491603857514, 0.060309684510719, 0
863, 0.87285995437075, 0.019327960615967, 0
864, 0.84694877890212, 0.021534626610893, 0
865, 0.65789876046723, -0.034766240719958, 0
866, 0.57747338756507, -0.26515161328511, 0
867, 0.95067846795887, -0.067887467782189, 0
868, 0.33377839671703, 0.0091608693034854, 0
869, 0.82882298442651, -0.25088881569291, 0
870, 0.18407349423258, -0.028954051618183, 0
871, 0.76757278306914, 0.024509277813942, 0
872, 0.89311591358705, 0.18241914233016, 0
873, 0.95127891883948, -0.094040408860847, 0
874, 0.66800335638547, 0.10843998802549, 0
875, 0.84749960656402, -0.27607063461887, 0
876, 0.61855776392256, -0.27617533955249, 0
877, 0.59569925143039, 0.022844863587541, 0
878, 0.92231192819233, 0.086195240670679, 0
879, 0.84086781124459, -0.13894983974877, 0
880, 0.65533167266076, -0.097984222754486, 0
881, 0.67817246017194, 0.041817522930366, 0
882, 0.82466268395448, -0.0015021947109773, 0
883, 0.78080275398146, 0.16119029428929, 0
884, 0.95177060960902, -0.12043529168525, 0
885, 0.21814511141849, -0.1859014641464, 0
886, 0.216336402055, -0.21446429333394, 0
887, 0.90605287212276, -0.17068794878452, 0
888, 0.82217111637781, -0.27620211734681, 0
889, 0.45148725890549, 0.082073522128518, 0
890, 0.48091762854321, 0.087593126412591, 0
891, 0.66901811547985, -0.0067905064657974, 0
892, 0.27845369415453, 0.025599162451844, 0
893, 0.21819288599871, -0.15690474001872, 0
894, 0.92405853688931, 0.012991850177848, 0
895, 0.67135417695293, 0.22667454361666, 0
896, 0.68333263014591, -0.25335429578945, 0
897, 0.97370670233702, 0.25112788615065, 0
898, 0.94883652612835, 0.082604015936674, 0
899, 0.40461156541125, -0.040433351747577, 0
900, 0.42462413302481, 0.075540921181609, 0
901, 0.64087988806886, 0.081360107310101, 0
902, 0.26499356526966, -0.16421625679662, 0
903, 0.66884318835264, -0.27695337263831, 0
904, 0.81241685279746, 0.093363647503803, 0
905, 0.69295431961828, -0.18060230611337, 0
906, 0.77747026211803, -0.16848568655565, 0
907, 0.81980148824852, -0.13822669780024, 0
908, 0.48449231427635, -0.25892562490961, 0
909, 0.31299361035092, -0.021697684410663, 0
910, 0.45528593507176, -0.24717295974654, 0
911, 0.15813744661355, -0.07851868635941, 0
912, 0.28148295440797, -0.2397946942747, 0
913, 0.9743887739206, 0.15296581289436, 0
914, 0.45809829591687, -0.26415192883153, 0
915, 0.40418794102631, 0.040202233399142, 0
916, 0.64231071585717, -0.18995070104756, 0
917, 0.86003038583702, -0.19681712808704, 0
918, 0.83794402276615, 0.25315747407124, 0
919, 0.81145188072082, -0.22442979203317, 0
920, 0.89816141972405, -0.27593578583015, 0
921, 0.61564808280347, -0.18633333270142, 0
922, 0.75533609961303, -0.024368391005537, 0
923, 0.7841813606662, 0.093506467924231, 0
924, 0.72515249291203, 0.11383423850299, 0
925, 0.58847024693361, 0.17305194191263, 0
926, 0.94859269931341, 0.10696025329937, 0
927, 0.58257981867004, -0.011908700193805, 0
928, 0.57182412164295, 0.012135239098483, 0
929, 0.97478591652661, 0.053002599070799, 0
930, 0.94902179216127, 0.058117918073483, 0
931, 0.92281313420559, 0.062113550200692, 0
932, 0.89623571023527, 0.065229995114197, 0
933, 0.86932823777231, 0.067612589662168, 0
934, 0.84210344027803, 0.069333858913602, 0
935, 0.81455962129939, 0.070411379435282, 0
936, 0.78669163148219, 0.070812510542581, 0
937, 0.75849993491049, 0.070460243653323, 0
938, 0.7299993674536, 0.069239797453449, 0
939, 0.7012285432532, 0.067010013659827, 0
940, 0.67226259377778, 0.063612707433133, 0
941, 0.64323294686211, 0.058889814545109, 0
942, 0.61437182691425, 0.052702321995599, 0
943, 0.58612896093275, 0.044955517773722, 0
944, 0.55949885054662, 0.035589669834699, 0
945, 0.44559598118413, -0.20630110015377, 0
946, 0.42907114232163, -0.24439159551047, 0
******* E L E M E N T S *************
*ELEMENT, type=T3D2, ELSET=Line1
1, 1, 10
2, 10, 18
3, 18, 11
4, 11, 19
5, 19, 12
6, 12, 20
7, 20, 13
8, 13, 21
9, 21, 14
10, 14, 22
11, 22, 15
12, 15, 23
13, 23, 16
14, 16, 24
15, 24, 17
16, 17, 2
*ELEMENT, type=T3D2, ELSET=Line2
17, 2, 25
18, 25, 28
19, 28, 26
20, 26, 29
21, 29, 27
22, 27, 3
*ELEMENT, type=T3D2, ELSET=Line3
23, 3, 30
24, 30, 38
25, 38, 31
26, 31, 39
27, 39, 32
28, 32, 40
29, 40, 33
30, 33, 41
31, 41, 34
32, 34, 42
33, 42, 35
34, 35, 43
35, 43, 36
36, 36, 44
37, 44, 37
38, 37, 4
*ELEMENT, type=T3D2, ELSET=Line4
39, 4, 45
40, 45, 57
41, 57, 46
42, 46, 58
43, 58, 47
44, 47, 59
45, 59, 48
46, 48, 60
47, 60, 49
48, 49, 61
49, 61, 50
50, 50, 62
51, 62, 51
52, 51, 63
53, 63, 52
54, 52, 64
55, 64, 53
56, 53, 65
57, 65, 54
58, 54, 66
59, 66, 55
60, 55, 67
61, 67, 56
62, 56, 5
*ELEMENT, type=T3D2, ELSET=Line5
63, 5, 68
64, 68, 76
65, 76, 69
66, 69, 77
67, 77, 70
68, 70, 78
69, 78, 71
70, 71, 79
71, 79, 72
72, 72, 80
73, 80, 73
74, 73, 81
75, 81, 74
76, 74, 82
77, 82, 75
78, 75, 6
*ELEMENT, type=T3D2, ELSET=Line6
79, 6, 83
80, 83, 86
81, 86, 84
82, 84, 87
83, 87, 85
84, 85, 7
*ELEMENT, type=T3D2, ELSET=Line7
85, 7, 88
86, 88, 96
87, 96, 89
88, 89, 97
89, 97, 90
90, 90, 98
91, 98, 91
92, 91, 99
93, 99, 92
94, 92, 100
95, 100, 93
96, 93, 101
97, 101, 94
98, 94, 102
99, 102, 95
100, 95, 8
*ELEMENT, type=T3D2, ELSET=Line8
101, 8, 103
102, 103, 114
103, 114, 104
104, 104, 115
105, 115, 105
106, 105, 116
107, 116, 106
108, 106, 117
109, 117, 107
110, 107, 118
111, 118, 108
112, 108, 119
113, 119, 109
114, 109, 120
115, 120, 110
116, 110, 121
117, 121, 111
118, 111, 122
119, 122, 112
120, 112, 123
121, 123, 113
122, 113, 1
*ELEMENT, type=T3D2, ELSET=Line9
123, 9, 124
124, 124, 145
125, 145, 143
126, 143, 146
127, 146, 142
128, 142, 147
129, 147, 141
130, 141, 148
131, 148, 140
132, 140, 149
133, 149, 139
134, 139, 150
135, 150, 138
136, 138, 151
137, 151, 137
138, 137, 152
139, 152, 136
140, 136, 153
141, 153, 135
142, 135, 154
143, 154, 134
144, 134, 155
145, 155, 133
146, 133, 156
147, 156, 132
148, 132, 157
149, 157, 131
150, 131, 158
151, 158, 130
152, 130, 159
153, 159, 129
154, 129, 160
155, 160, 128
156, 128, 161
157, 161, 127
158, 127, 162
159, 162, 126
160, 126, 163
161, 163, 125
162, 125, 164
163, 164, 144
164, 144, 9
*ELEMENT, type=CPS4, ELSET=Surface1
165, 239, 371, 372, 369
166, 369, 372, 109, 120
167, 372, 370, 119, 109
168, 371, 238, 370, 372
169, 198, 375, 376, 373
170, 373, 376, 374, 196
171, 376, 91, 99, 374
172, 375, 98, 91, 376
173, 99, 92, 379, 374
174, 374, 379, 377, 196
175, 379, 378, 194, 377
176, 92, 100, 378, 379
177, 234, 382, 383, 380
178, 380, 383, 111, 122
179, 383, 381, 121, 111
180, 382, 236, 381, 383
181, 263, 755, 695, 465
182, 626, 851, 804, 586
183, 730, 701, 182, 587
184, 465, 695, 871, 491
185, 119, 370, 390, 108
186, 108, 390, 388, 118
187, 390, 389, 229, 388
188, 370, 238, 389, 390
189, 262, 531, 657, 735
190, 411, 722, 415, 492
191, 560, 294, 181, 343
192, 194, 378, 397, 395
193, 395, 397, 396, 193
194, 397, 93, 101, 396
195, 378, 100, 93, 397
196, 101, 94, 400, 396
197, 396, 400, 398, 193
198, 400, 399, 192, 398
199, 94, 102, 399, 400
200, 123, 113, 403, 401
201, 401, 403, 402, 168
202, 403, 10, 18, 402
203, 113, 1, 10, 403
204, 120, 110, 405, 369
205, 369, 405, 404, 239
206, 405, 381, 236, 404
207, 110, 121, 381, 405
208, 447, 601, 296, 836
209, 906, 653, 737, 299
210, 180, 262, 735, 302
211, 287, 327, 532, 444
212, 322, 504, 702, 658
213, 564, 561, 667, 503
214, 901, 324, 874, 689
215, 444, 532, 300, 756
216, 174, 577, 476, 545
217, 828, 414, 261, 922
218, 384, 282, 344, 294
219, 924, 411, 492, 746
220, 202, 418, 419, 416
221, 416, 419, 88, 96
222, 419, 417, 7, 88
223, 418, 167, 417, 419
224, 191, 422, 423, 420
225, 420, 423, 421, 187
226, 423, 105, 116, 421
227, 422, 115, 105, 423
228, 171, 426, 427, 424
229, 424, 427, 13, 21
230, 427, 425, 20, 13
231, 426, 170, 425, 427
232, 116, 106, 430, 421
233, 421, 430, 428, 187
234, 430, 429, 228, 428
235, 106, 117, 429, 430
236, 117, 107, 432, 429
237, 429, 432, 431, 228
238, 432, 388, 229, 431
239, 107, 118, 388, 432
240, 918, 580, 837, 849
241, 291, 535, 502, 449
242, 883, 319, 550, 551
243, 688, 788, 584, 759
244, 743, 757, 920, 563
245, 537, 322, 658, 919
246, 259, 897, 308, 438
247, 166, 728, 272, 696
248, 437, 610, 611, 572
249, 487, 320, 469, 360
250, 270, 875, 757, 743
251, 756, 300, 897, 259
252, 891, 548, 279, 726
253, 327, 54, 66, 532
254, 940, 881, 263, 939
255, 689, 874, 680, 392
256, 579, 305, 779, 448
257, 366, 298, 729, 460
258, 653, 336, 537, 737
259, 445, 439, 75, 6
260, 169, 452, 453, 451
261, 451, 453, 425, 170
262, 453, 12, 20, 425
263, 452, 19, 12, 453
264, 933, 932, 823, 570
265, 896, 903, 510, 318
266, 789, 323, 463, 630
267, 177, 578, 715, 500
268, 200, 458, 459, 457
269, 457, 459, 89, 97
270, 459, 416, 96, 89
271, 458, 202, 416, 459
272, 944, 583, 585, 713
273, 546, 895, 701, 730
274, 570, 823, 305, 579
275, 739, 293, 728, 166
276, 325, 609, 267, 266
277, 811, 919, 273, 744
278, 255, 700, 437, 534
279, 759, 584, 740, 338
280, 316, 448, 578, 177
281, 829, 280, 48, 60
282, 307, 335, 924, 472
283, 168, 402, 468, 467
284, 467, 468, 452, 169
285, 468, 11, 19, 452
286, 402, 18, 11, 468
287, 264, 743, 563, 745
288, 898, 698, 178, 926
289, 507, 475, 283, 703
290, 441, 339, 336, 653
291, 682, 406, 310, 303
292, 819, 297, 256, 721
293, 803, 301, 46, 58
294, 102, 95, 474, 399
295, 399, 474, 473, 192
296, 474, 103, 114, 473
297, 95, 8, 103, 474
298, 941, 179, 881, 940
299, 937, 936, 923, 284
300, 406, 32, 40, 310
301, 933, 505, 790, 932
302, 200, 457, 479, 478
303, 478, 479, 375, 198
304, 479, 90, 98, 375
305, 457, 97, 90, 479
306, 274, 481, 482, 480
307, 480, 482, 83, 86
308, 873, 884, 280, 829
309, 762, 175, 824, 494
310, 22, 484, 485, 14
311, 14, 485, 424, 21
312, 485, 483, 171, 424
313, 484, 172, 483, 485
314, 436, 894, 341, 260
315, 326, 413, 366, 340
316, 391, 338, 394, 613
317, 548, 471, 506, 279
318, 472, 924, 746, 434
319, 694, 144, 164, 442
320, 741, 391, 613, 654
321, 489, 255, 782, 784
322, 394, 268, 79, 72
323, 181, 325, 266, 761
324, 299, 737, 811, 727
325, 439, 725, 82, 75
326, 505, 863, 758, 790
327, 500, 715, 409, 607
328, 464, 546, 730, 573
329, 274, 480, 497, 495
330, 495, 497, 496, 203
331, 497, 84, 87, 496
332, 480, 86, 84, 497
333, 203, 496, 499, 498
334, 498, 499, 417, 167
335, 499, 85, 7, 417
336, 496, 87, 85, 499
337, 602, 316, 177, 319
338, 175, 36, 44, 824
339, 315, 573, 725, 439
340, 284, 923, 722, 411
341, 926, 178, 385, 601
342, 501, 270, 743, 264
343, 589, 822, 454, 865
344, 182, 654, 73, 81
345, 572, 611, 493, 925
346, 613, 394, 72, 80
347, 440, 386, 384, 882
348, 190, 513, 514, 511
349, 511, 514, 512, 189
350, 514, 395, 193, 512
351, 513, 194, 395, 514
352, 122, 112, 516, 380
353, 380, 516, 515, 234
354, 516, 401, 168, 515
355, 112, 123, 401, 516
356, 192, 473, 518, 517
357, 517, 518, 422, 191
358, 518, 104, 115, 422
359, 473, 114, 104, 518
360, 201, 521, 522, 519
361, 519, 522, 418, 202
362, 522, 520, 167, 418
363, 521, 204, 520, 522
364, 867, 873, 829, 311
365, 779, 447, 836, 173
366, 526, 525, 276, 524
367, 481, 274, 525, 526
368, 169, 451, 530, 527
369, 527, 530, 528, 235
370, 530, 529, 233, 528
371, 451, 170, 529, 530
372, 837, 614, 77, 70
373, 461, 466, 435, 724
374, 655, 309, 386, 440
375, 387, 615, 475, 507
376, 686, 291, 449, 884
377, 680, 434, 739, 780
378, 334, 686, 884, 873
379, 663, 246, 719, 893
380, 538, 540, 137, 151
381, 540, 539, 152, 137
382, 353, 624, 776, 621
383, 229, 389, 544, 541
384, 541, 544, 542, 230
385, 544, 543, 237, 542
386, 389, 238, 543, 544
387, 611, 652, 286, 493
388, 407, 572, 925, 183
389, 493, 286, 486, 692
390, 931, 436, 260, 930
391, 737, 537, 919, 811
392, 267, 781, 686, 334
393, 836, 296, 287, 367
394, 692, 486, 546, 464
395, 934, 933, 570, 433
396, 607, 409, 288, 668
397, 755, 547, 714, 695
398, 462, 259, 438, 477
399, 155, 134, 556, 554
400, 554, 556, 555, 250
401, 556, 357, 249, 555
402, 134, 154, 357, 556
403, 195, 558, 559, 557
404, 557, 559, 513, 190
405, 559, 377, 194, 513
406, 558, 196, 377, 559
407, 304, 723, 905, 359
408, 296, 913, 327, 287
409, 283, 311, 49, 61
410, 176, 896, 318, 608
411, 881, 470, 755, 263
412, 941, 940, 324, 901
413, 475, 867, 311, 283
414, 937, 491, 487, 936
415, 210, 568, 569, 565
416, 565, 569, 566, 223
417, 569, 567, 184, 566
418, 568, 208, 567, 569
419, 668, 288, 580, 918
420, 393, 742, 903, 896
421, 552, 509, 47, 59
422, 183, 789, 524, 641
423, 228, 431, 576, 574
424, 574, 576, 575, 227
425, 576, 541, 230, 575
426, 431, 229, 541, 576
427, 936, 935, 904, 923
428, 271, 334, 873, 867
429, 928, 687, 342, 927
430, 929, 63, 52, 698
431, 920, 43, 36, 175
432, 583, 784, 783, 365
433, 365, 783, 890, 364
434, 713, 585, 581, 147
435, 701, 741, 654, 182
436, 412, 906, 299, 368
437, 303, 310, 504, 322
438, 931, 930, 898, 878
439, 872, 367, 508, 317
440, 454, 545, 490, 471
441, 456, 835, 313, 699
442, 600, 124, 9, 455
443, 230, 542, 593, 590
444, 846, 353, 621, 827
445, 753, 892, 224, 805
446, 542, 237, 592, 593
447, 206, 596, 597, 594
448, 594, 597, 595, 209
449, 597, 521, 201, 595
450, 596, 204, 521, 597
451, 172, 356, 599, 598
452, 598, 599, 329, 232
453, 599, 135, 153, 329
454, 356, 154, 135, 599
455, 407, 183, 641, 639
456, 386, 340, 282, 384
457, 523, 761, 615, 387
458, 940, 939, 307, 324
459, 253, 605, 606, 604
460, 604, 606, 138, 150
461, 606, 538, 151, 138
462, 605, 252, 538, 606
463, 745, 563, 762, 835
464, 306, 314, 45, 57
465, 944, 943, 549, 489
466, 510, 39, 32, 406
467, 550, 500, 607, 625
468, 609, 503, 781, 267
469, 293, 562, 275, 728
470, 319, 177, 500, 550
471, 573, 730, 587, 725
472, 266, 267, 334, 271
473, 935, 934, 433, 904
474, 930, 929, 698, 898
475, 165, 346, 617, 616
476, 616, 617, 554, 250
477, 617, 133, 155, 554
478, 346, 156, 133, 617
479, 197, 619, 620, 618
480, 618, 620, 558, 195
481, 620, 373, 196, 558
482, 619, 198, 373, 620
483, 771, 539, 540, 591
484, 853, 226, 246, 663
485, 838, 868, 861, 772
486, 551, 550, 625, 788
487, 508, 444, 756, 665
488, 822, 174, 545, 454
489, 392, 680, 780, 652
490, 227, 628, 629, 574
491, 574, 629, 428, 228
492, 629, 627, 187, 428
493, 628, 188, 627, 629
494, 256, 412, 368, 693
495, 531, 631, 488, 657
496, 913, 65, 54, 327
497, 700, 765, 610, 437
498, 223, 566, 636, 633
499, 633, 636, 634, 222
500, 636, 635, 186, 634
501, 566, 184, 635, 636
502, 244, 753, 624, 353
503, 539, 638, 136, 152
504, 638, 331, 153, 136
505, 778, 330, 902, 331
506, 276, 640, 641, 524
507, 658, 702, 888, 869
508, 916, 921, 332, 269
509, 640, 277, 639, 641
510, 208, 644, 645, 567
511, 567, 645, 642, 184
512, 645, 643, 197, 642
513, 644, 199, 643, 645
514, 199, 646, 647, 643
515, 643, 647, 619, 197
516, 647, 478, 198, 619
517, 646, 200, 478, 647
518, 238, 371, 650, 543
519, 543, 650, 648, 237
520, 650, 649, 242, 648
521, 371, 239, 649, 650
522, 744, 273, 501, 917
523, 433, 570, 579, 345
524, 789, 630, 526, 524
525, 612, 445, 482, 481
526, 562, 883, 551, 275
527, 860, 462, 477, 614
528, 445, 6, 83, 482
529, 869, 888, 875, 270
530, 24, 660, 661, 16
531, 16, 661, 659, 23
532, 661, 555, 249, 659
533, 660, 250, 555, 661
534, 771, 251, 638, 539
535, 590, 664, 575, 230
536, 664, 662, 227, 575
537, 777, 911, 826, 830
538, 491, 871, 320, 487
539, 903, 31, 39, 510
540, 699, 313, 301, 803
541, 471, 490, 821, 506
542, 170, 426, 671, 529
543, 529, 671, 669, 233
544, 671, 670, 231, 669
545, 426, 171, 670, 671
546, 148, 673, 674, 140
547, 140, 674, 139, 149
548, 674, 672, 150, 139
549, 215, 843, 899, 672
550, 186, 677, 678, 675
551, 675, 678, 676, 185
552, 678, 557, 190, 676
553, 677, 195, 557, 678
554, 184, 642, 679, 635
555, 635, 679, 677, 186
556, 679, 618, 195, 677
557, 642, 197, 618, 679
558, 290, 632, 257, 312
559, 934, 820, 505, 933
560, 294, 344, 325, 181
561, 410, 891, 726, 470
562, 28, 684, 685, 25
563, 25, 685, 683, 2
564, 129, 347, 908, 160
565, 158, 131, 362, 130
566, 871, 655, 440, 320
567, 850, 441, 653, 906
568, 929, 333, 51, 63
569, 657, 488, 441, 850
570, 199, 690, 691, 646
571, 646, 691, 458, 200
572, 691, 519, 202, 458
573, 690, 201, 519, 691
574, 321, 849, 78, 71
575, 532, 66, 55, 300
576, 255, 534, 813, 782
577, 492, 415, 883, 562
578, 409, 317, 697, 288
579, 502, 699, 803, 509
580, 760, 292, 410, 179
581, 265, 696, 857, 895
582, 761, 266, 271, 615
583, 320, 440, 882, 469
584, 725, 587, 74, 82
585, 488, 608, 339, 441
586, 308, 56, 5, 68
587, 880, 455, 694, 681
588, 864, 560, 343, 863
589, 580, 860, 614, 837
590, 239, 404, 706, 649
591, 649, 706, 704, 242
592, 706, 705, 241, 704
593, 404, 236, 705, 706
594, 2, 683, 707, 17
595, 17, 707, 660, 24
596, 707, 616, 250, 660
597, 683, 165, 616, 707
598, 249, 358, 708, 659
599, 659, 708, 15, 23
600, 708, 484, 22, 15
601, 358, 172, 484, 708
602, 212, 711, 712, 709
603, 709, 712, 710, 211
604, 712, 594, 209, 710
605, 711, 206, 594, 712
606, 693, 368, 907, 298
607, 415, 602, 319, 883
608, 449, 502, 509, 552
609, 506, 821, 819, 414
610, 208, 716, 717, 644
611, 644, 717, 690, 199
612, 717, 595, 201, 690
613, 716, 209, 595, 717
614, 233, 669, 720, 718
615, 718, 720, 355, 240
616, 720, 719, 246, 355
617, 669, 231, 719, 720
618, 302, 735, 278, 297
619, 615, 271, 867, 475
620, 824, 44, 37, 314
621, 878, 898, 926, 859
622, 547, 828, 922, 714
623, 907, 727, 289, 879
624, 338, 740, 268, 394
625, 448, 779, 173, 578
626, 367, 287, 444, 508
627, 652, 780, 738, 286
628, 742, 38, 31, 903
629, 210, 732, 733, 568
630, 568, 733, 716, 208
631, 733, 710, 209, 716
632, 732, 211, 710, 733
633, 946, 361, 156, 346
634, 910, 946, 734, 914
635, 914, 734, 685, 684
636, 361, 945, 132, 156
637, 944, 713, 687, 928
638, 279, 506, 414, 828
639, 586, 804, 866, 553
640, 932, 790, 436, 931
641, 148, 141, 736, 673
642, 213, 216, 582, 363
643, 215, 672, 674, 673
644, 141, 147, 581, 736
645, 865, 454, 471, 548
646, 695, 714, 655, 871
647, 726, 279, 828, 547
648, 942, 760, 179, 941
649, 435, 393, 896, 176
650, 930, 260, 333, 929
651, 310, 40, 33, 504
652, 553, 866, 328, 3
653, 288, 697, 860, 580
654, 339, 682, 303, 336
655, 666, 876, 742, 393
656, 261, 721, 413, 326
657, 333, 281, 62, 51
658, 345, 579, 448, 316
659, 466, 666, 393, 435
660, 681, 694, 442, 651
661, 28, 26, 748, 684
662, 248, 361, 946, 910
663, 734, 946, 346, 165
664, 26, 29, 747, 748
665, 186, 675, 751, 634
666, 634, 751, 749, 222
667, 751, 750, 221, 749
668, 675, 185, 750, 751
669, 911, 852, 806, 826
670, 752, 754, 648, 242
671, 754, 592, 237, 648
672, 771, 350, 854, 637
673, 727, 811, 744, 289
674, 584, 533, 295, 740
675, 632, 143, 145, 257
676, 944, 489, 784, 583
677, 323, 692, 464, 463
678, 939, 263, 465, 938
679, 879, 289, 408, 561
680, 490, 180, 302, 821
681, 408, 917, 337, 858
682, 612, 315, 439, 445
683, 932, 931, 878, 823
684, 450, 564, 503, 609
685, 234, 515, 764, 763
686, 763, 764, 527, 235
687, 764, 467, 169, 527
688, 515, 168, 467, 764
689, 927, 342, 632, 290
690, 849, 837, 70, 78
691, 804, 162, 127, 866
692, 654, 613, 80, 73
693, 203, 767, 768, 495
694, 495, 768, 525, 274
695, 768, 766, 276, 525
696, 767, 205, 766, 768
697, 193, 398, 770, 512
698, 512, 770, 769, 189
699, 770, 517, 191, 769
700, 398, 192, 517, 770
701, 349, 623, 807, 870
702, 773, 805, 223, 633
703, 827, 870, 830, 855
704, 773, 633, 222, 243
705, 167, 520, 775, 498
706, 498, 775, 767, 203
707, 775, 774, 205, 767
708, 520, 204, 774, 775
709, 591, 540, 538, 252
710, 351, 838, 772, 892
711, 830, 826, 220, 855
712, 561, 408, 858, 667
713, 698, 52, 64, 178
714, 601, 385, 913, 296
715, 923, 904, 571, 722
716, 285, 783, 784, 782
717, 921, 125, 163, 332
718, 340, 366, 460, 282
719, 216, 581, 585, 834
720, 241, 786, 787, 785
721, 785, 787, 718, 240
722, 787, 528, 233, 718
723, 786, 235, 528, 787
724, 922, 261, 326, 309
725, 578, 173, 872, 715
726, 533, 668, 918, 295
727, 300, 55, 67, 897
728, 312, 257, 600, 443
729, 757, 35, 43, 920
730, 311, 829, 60, 49
731, 486, 265, 895, 546
732, 161, 128, 791, 328
733, 328, 791, 27, 3
734, 791, 747, 29, 27
735, 128, 160, 747, 791
736, 235, 786, 792, 763
737, 763, 792, 382, 234
738, 792, 705, 236, 382
739, 786, 241, 705, 792
740, 227, 662, 794, 628
741, 628, 794, 793, 188
742, 794, 750, 185, 793
743, 662, 221, 750, 794
744, 204, 596, 797, 774
745, 774, 797, 795, 205
746, 797, 796, 207, 795
747, 596, 206, 796, 797
748, 187, 627, 799, 420
749, 420, 799, 769, 191
750, 799, 798, 189, 769
751, 627, 188, 798, 799
752, 190, 511, 800, 676
753, 676, 800, 793, 185
754, 800, 798, 188, 793
755, 511, 189, 798, 800
756, 205, 795, 802, 766
757, 766, 802, 640, 276
758, 802, 801, 277, 640
759, 795, 207, 801, 802
760, 549, 258, 765, 700
761, 905, 724, 631, 531
762, 504, 33, 41, 702
763, 724, 435, 176, 631
764, 818, 785, 240, 852
765, 854, 846, 827, 855
766, 350, 839, 247, 354
767, 624, 753, 805, 773
768, 214, 809, 810, 808
769, 808, 810, 711, 212
770, 810, 796, 206, 711
771, 809, 207, 796, 810
772, 277, 812, 813, 639
773, 503, 667, 656, 781
774, 446, 745, 835, 456
775, 812, 285, 782, 813
776, 218, 816, 817, 814
777, 814, 817, 709, 211
778, 817, 815, 212, 709
779, 834, 365, 364, 217
780, 354, 244, 353, 846
781, 785, 818, 704, 241
782, 818, 752, 242, 704
783, 244, 351, 892, 753
784, 714, 922, 309, 655
785, 571, 345, 316, 602
786, 342, 146, 143, 632
787, 368, 299, 727, 907
788, 723, 461, 724, 905
789, 882, 384, 294, 560
790, 630, 463, 315, 612
791, 179, 410, 470, 881
792, 938, 465, 491, 937
793, 687, 142, 146, 342
794, 494, 824, 314, 306
795, 460, 729, 564, 450
796, 778, 663, 893, 330
797, 892, 772, 831, 224
798, 805, 224, 565, 223
799, 856, 622, 664, 590
800, 876, 30, 38, 742
801, 442, 164, 125, 921
802, 281, 703, 50, 62
803, 534, 437, 572, 407
804, 623, 593, 592, 807
805, 354, 247, 351, 244
806, 852, 240, 355, 806
807, 870, 807, 777, 830
808, 832, 363, 254, 915
809, 363, 582, 833, 254
810, 215, 673, 736, 213
811, 582, 217, 364, 833
812, 935, 360, 820, 934
813, 344, 450, 609, 325
814, 260, 341, 281, 333
815, 728, 275, 688, 272
816, 637, 854, 855, 220
817, 350, 354, 846, 854
818, 624, 773, 243, 776
819, 349, 825, 856, 623
820, 285, 812, 841, 840
821, 840, 841, 809, 214
822, 841, 801, 207, 809
823, 812, 277, 801, 841
824, 219, 843, 844, 842
825, 842, 844, 816, 218
826, 833, 364, 890, 889
827, 915, 254, 900, 815
828, 219, 847, 848, 845
829, 845, 848, 605, 253
830, 591, 252, 245, 839
831, 776, 243, 225, 825
832, 863, 343, 523, 758
833, 280, 552, 59, 48
834, 835, 762, 494, 313
835, 603, 759, 338, 391
836, 623, 856, 590, 593
837, 621, 776, 825, 349
838, 752, 818, 852, 911
839, 243, 222, 749, 225
840, 621, 349, 870, 827
841, 771, 591, 839, 350
842, 251, 853, 663, 778
843, 746, 492, 562, 293
844, 282, 460, 450, 344
845, 656, 887, 535, 291
846, 587, 182, 81, 74
847, 286, 738, 265, 486
848, 943, 942, 258, 549
849, 888, 34, 42, 875
850, 443, 600, 455, 880
851, 622, 221, 662, 664
852, 807, 592, 754, 777
853, 862, 814, 211, 732
854, 861, 218, 814, 862
855, 314, 37, 4, 45
856, 925, 493, 692, 323
857, 341, 507, 703, 281
858, 884, 449, 552, 280
859, 651, 442, 921, 916
860, 278, 850, 906, 412
861, 625, 607, 668, 533
862, 336, 303, 322, 537
863, 859, 926, 601, 447
864, 715, 872, 317, 409
865, 703, 283, 61, 50
866, 272, 688, 759, 603
867, 218, 861, 868, 842
868, 842, 868, 847, 219
869, 224, 831, 210, 565
870, 608, 318, 682, 339
871, 534, 407, 639, 813
872, 939, 938, 335, 307
873, 729, 879, 561, 564
874, 772, 861, 862, 831
875, 754, 752, 911, 777
876, 825, 225, 622, 856
877, 909, 245, 848, 847
878, 917, 501, 264, 337
879, 305, 859, 447, 779
880, 477, 438, 76, 69
881, 874, 472, 434, 680
882, 897, 67, 56, 308
883, 631, 176, 608, 488
884, 866, 127, 161, 328
885, 273, 869, 270, 501
886, 469, 882, 560, 864
887, 183, 925, 323, 789
888, 738, 166, 696, 265
889, 335, 284, 411, 924
890, 722, 571, 602, 415
891, 289, 744, 917, 408
892, 887, 446, 456, 535
893, 298, 907, 879, 729
894, 851, 126, 162, 804
895, 781, 656, 291, 686
896, 731, 865, 548, 891
897, 713, 147, 142, 687
898, 178, 64, 53, 385
899, 313, 494, 306, 301
900, 438, 308, 68, 76
901, 904, 433, 345, 571
902, 171, 483, 886, 670
903, 670, 886, 885, 231
904, 886, 598, 232, 885
905, 483, 172, 598, 886
906, 895, 857, 741, 701
907, 257, 145, 124, 600
908, 765, 689, 392, 610
909, 790, 758, 894, 436
910, 214, 889, 890, 840
911, 840, 890, 783, 285
912, 585, 583, 365, 834
913, 213, 736, 581, 216
914, 563, 920, 175, 762
915, 385, 53, 65, 913
916, 820, 864, 863, 505
917, 413, 693, 298, 366
918, 251, 778, 331, 638
919, 245, 252, 605, 848
920, 771, 637, 853, 251
921, 225, 749, 221, 622
922, 232, 330, 893, 885
923, 885, 893, 719, 231
924, 247, 909, 838, 351
925, 839, 245, 909, 247
926, 509, 803, 58, 47
927, 337, 264, 745, 446
928, 665, 756, 259, 462
929, 332, 163, 126, 851
930, 301, 306, 57, 46
931, 702, 41, 34, 888
932, 317, 508, 665, 697
933, 894, 387, 507, 341
934, 470, 726, 547, 755
935, 858, 337, 446, 887
936, 857, 603, 391, 741
937, 476, 359, 262, 180
938, 919, 658, 869, 273
939, 577, 304, 359, 476
940, 821, 302, 297, 819
941, 610, 392, 652, 611
942, 455, 9, 144, 694
943, 823, 878, 859, 305
944, 360, 469, 864, 820
945, 414, 819, 721, 261
946, 253, 604, 899, 845
947, 845, 899, 843, 219
948, 844, 832, 915, 816
949, 604, 150, 672, 899
950, 212, 815, 900, 808
951, 808, 900, 889, 214
952, 254, 833, 889, 900
953, 816, 915, 815, 817
954, 788, 625, 533, 584
955, 292, 731, 891, 410
956, 343, 181, 761, 523
957, 153, 331, 902, 329
958, 329, 902, 330, 232
959, 875, 42, 35, 757
960, 297, 278, 412, 256
961, 463, 464, 573, 315
962, 173, 836, 367, 872
963, 309, 326, 340, 386
964, 630, 612, 481, 526
965, 434, 746, 293, 739
966, 696, 272, 603, 857
967, 735, 657, 850, 278
968, 758, 523, 387, 894
969, 697, 665, 462, 860
970, 780, 739, 166, 738
971, 269, 332, 851, 626
972, 359, 905, 531, 262
973, 721, 256, 693, 413
974, 159, 352, 347, 129
975, 685, 734, 165, 683
976, 160, 908, 748, 747
977, 831, 862, 732, 210
978, 838, 909, 847, 868
979, 352, 248, 910, 347
980, 908, 914, 684, 748
981, 130, 362, 352, 159
982, 806, 355, 246, 226
983, 637, 220, 226, 853
984, 826, 806, 226, 220
985, 172, 358, 912, 356
986, 356, 912, 357, 154
987, 358, 249, 357, 912
988, 318, 510, 406, 682
989, 942, 941, 901, 258
990, 362, 348, 248, 352
991, 347, 910, 914, 908
992, 348, 945, 361, 248
993, 216, 834, 217, 582
994, 215, 213, 363, 832
995, 215, 832, 844, 843
996, 295, 918, 849, 321
997, 268, 321, 71, 79
998, 740, 295, 321, 268
999, 545, 476, 180, 490
1000, 667, 858, 887, 656
1001, 936, 487, 360, 935
1002, 535, 456, 699, 502
1003, 938, 937, 284, 335
1004, 614, 477, 69, 77
1005, 258, 901, 689, 765
1006, 489, 549, 700, 255
1007, 275, 551, 788, 688
1008, 324, 307, 472, 874
1009, 588, 589, 865, 731
1010, 536, 588, 731, 292
1011, 877, 536, 292, 760
1012, 943, 877, 760, 942
1013, 553, 3, 30, 876
1014, 586, 553, 876, 666
1015, 626, 586, 666, 466
1016, 269, 626, 466, 461
1017, 916, 269, 461, 723
1018, 651, 916, 723, 304
1019, 681, 651, 304, 577
1020, 880, 681, 577, 174
1021, 443, 880, 174, 822
1022, 312, 443, 822, 589
1023, 290, 312, 589, 588
1024, 927, 290, 588, 536
1025, 928, 927, 536, 877
1026, 944, 928, 877, 943
1027, 131, 157, 348, 362
1028, 157, 132, 945, 348
*ELSET,ELSET=contact_source
101, 102, 103, 104, 105, 106, 107, 108, 109, 110, 
111, 112, 113, 114, 115, 116, 117, 118, 119, 120, 
121, 122, 
*ELSET,ELSET=contact_drain
39, 40, 41, 42, 43, 44, 45, 46, 47, 48, 
49, 50, 51, 52, 53, 54, 55, 56, 57, 58, 
59, 60, 61, 62, 
*ELSET,ELSET=probe_A
79, 80, 81, 82, 83, 84, 
*ELSET,ELSET=probe_B
17, 18, 19, 20, 21, 22, 
*ELSET,ELSET=walls
1, 2, 3, 4, 5, 6, 7, 8, 9, 10, 
11, 12, 13, 14, 15, 16, 23, 24, 25, 26, 
27, 28, 29, 30, 31, 32, 33, 34, 35, 36, 
37, 38, 63, 64, 65, 66, 67, 68, 69, 70, 
71, 72, 73, 74, 75, 76, 77, 78, 85, 86, 
87, 88, 89, 90, 91, 92, 93, 94, 95, 96, 
97, 98, 99, 100, 123, 124, 125, 126, 127, 128, 
129, 130, 131, 132, 133, 134, 135, 136, 137, 138, 
139, 140, 141, 142, 143, 144, 145, 146, 147, 148, 
149, 150, 151, 152, 153, 154, 155, 156, 157, 158, 
159, 160, 161, 162, 163, 164, 
*ELSET,ELSET=domain
165, 166, 167, 168, 169, 170, 171, 172, 173, 174, 
175, 176, 177, 178, 179, 180, 181, 182, 183, 184, 
185, 186, 187, 188, 189, 190, 191, 192, 193, 194, 
195, 196, 197, 198, 199, 200, 201, 202, 203, 204, 
205, 206, 207, 208, 209, 210, 211, 212, 213, 214, 
215, 216, 217, 218, 219, 220, 221, 222, 223, 224, 
225, 226, 227, 228, 229, 230, 231, 232, 233, 234, 
235, 236, 237, 238, 239, 240, 241, 242, 243, 244, 
245, 246, 247, 248, 249, 250, 251, 252, 253, 254, 
255, 256, 257, 258, 259, 260, 261, 262, 263, 264, 
265, 266, 267, 268, 269, 270, 271, 272, 273, 274, 
275, 276, 277, 278, 279, 280, 281, 282, 283, 284, 
285, 286, 287, 288, 289, 290, 291, 292, 293, 294, 
295, 296, 297, 298, 299, 300, 301, 302, 303, 304, 
305, 306, 307, 308, 309, 310, 311, 312, 313, 314, 
315, 316, 317, 318, 319, 320, 321, 322, 323, 324, 
325, 326, 327, 328, 329, 330, 331, 332, 333, 334, 
335, 336, 337, 338, 339, 340, 341, 342, 343, 344, 
345, 346, 347, 348, 349, 350, 351, 352, 353, 354, 
355, 356, 357, 358, 359, 360, 361, 362, 363, 364, 
365, 366, 367, 368, 369, 370, 371, 372, 373, 374, 
375, 376, 377, 378, 379, 380, 381, 382, 383, 384, 
385, 386, 387, 388, 389, 390, 391, 392, 393, 394, 
395, 396, 397, 398, 399, 400, 401, 402, 403, 404, 
405, 406, 407, 408, 409, 410, 411, 412, 413, 414, 
415, 416, 417, 418, 419, 420, 421, 422, 423, 424, 
425, 426, 427, 428, 429, 430, 431, 432, 433, 434, 
435, 436, 437, 438, 439, 440, 441, 442, 443, 444, 
445, 446, 447, 448, 449, 450, 451, 452, 453, 454, 
455, 456, 457, 458, 459, 460, 461, 462, 463, 464, 
465, 466, 467, 468, 469, 470, 471, 472, 473, 474, 
475, 476, 477, 478, 479, 480, 481, 482, 483, 484, 
485, 486, 487, 488, 489, 490, 491, 492, 493, 494, 
495, 496, 497, 498, 499, 500, 501, 502, 503, 504, 
505, 506, 507, 508, 509, 510, 511, 512, 513, 514, 
515, 516, 517, 518, 519, 520, 521, 522, 523, 524, 
525, 526, 527, 528, 529, 530, 531, 532, 533, 534, 
535, 536, 537, 538, 539, 540, 541, 542, 543, 544, 
545, 546, 547, 548, 549, 550, 551, 552, 553, 554, 
555, 556, 557, 558, 559, 560, 561, 562, 563, 564, 
565, 566, 567, 568, 569, 570, 571, 572, 573, 574, 
575, 576, 577, 578, 579, 580, 581, 582, 583, 584, 
585, 586, 587, 588, 589, 590, 591, 592, 593, 594, 
595, 596, 597, 598, 599, 600, 601, 602, 603, 604, 
605, 606, 607, 608, 609, 610, 611, 612, 613, 614, 
615, 616, 617, 618, 619, 620, 621, 622, 623, 624, 
625, 626, 627, 628, 629, 630, 631, 632, 633, 634, 
635, 636, 637, 638, 639, 640, 641, 642, 643, 644, 
645, 646, 647, 648, 649, 650, 651, 652, 653, 654, 
655, 656, 657, 658, 659, 660, 661, 662, 663, 664, 
665, 666, 667, 668, 669, 670, 671, 672, 673, 674, 
675, 676, 677, 678, 679, 680, 681, 682, 683, 684, 
685, 686, 687, 688, 689, 690, 691, 692, 693, 694, 
695, 696, 697, 698, 699, 700, 701, 702, 703, 704, 
705, 706, 707, 708, 709, 710, 711, 712, 713, 714, 
715, 716, 717, 718, 719, 720, 721, 722, 723, 724, 
725, 726, 727, 728, 729, 730, 731, 732, 733, 734, 
735, 736, 737, 738, 739, 740, 741, 742, 743, 744, 
745, 746, 747, 748, 749, 750, 751, 752, 753, 754, 
755, 756, 757, 758, 759, 760, 761, 762, 763, 764, 
765, 766, 767, 768, 769, 770, 771, 772, 773, 774, 
775, 776, 777, 778, 779, 780, 781, 782, 783, 784, 
785, 786, 787, 788, 789, 790, 791, 792, 793, 794, 
795, 796, 797, 798, 799, 800, 801, 802, 803, 804, 
805, 806, 807, 808, 809, 810, 811, 812, 813, 814, 
815, 816, 817, 818, 819, 820, 821, 822, 823, 824, 
825, 826, 827, 828, 829, 830, 831, 832, 833, 834, 
835, 836, 837, 838, 839, 840, 841, 842, 843, 844, 
845, 846, 847, 848, 849, 850, 851, 852, 853, 854, 
855, 856, 857, 858, 859, 860, 861, 862, 863, 864, 
865, 866, 867, 868, 869, 870, 871, 872, 873, 874, 
875, 876, 877, 878, 879, 880, 881, 882, 883, 884, 
885, 886, 887, 888, 889, 890, 891, 892, 893, 894, 
895, 896, 897, 898, 899, 900, 901, 902, 903, 904, 
905, 906, 907, 908, 909, 910, 911, 912, 913, 914, 
915, 916, 917, 918, 919, 920, 921, 922, 923, 924, 
925, 926, 927, 928, 929, 930, 931, 932, 933, 934, 
935, 936, 937, 938, 939, 940, 941, 942, 943, 944, 
945, 946, 947, 948, 949, 950, 951, 952, 953, 954, 
955, 956, 957, 958, 959, 960, 961, 962, 963, 964, 
965, 966, 967, 968, 969, 970, 971, 972, 973, 974, 
975, 976, 977, 978, 979, 980, 981, 982, 983, 984, 
985, 986, 987, 988, 989, 990, 991, 992, 993, 994, 
995, 996, 997, 998, 999, 1000, 1001, 1002, 1003, 1004, 
1005, 1006, 1007, 1008, 1009, 1010, 1011, 1012, 1013, 1014, 
1015, 1016, 1017, 1018, 1019, 1020, 1021, 1022, 1023, 1024, 
1025, 1026, 1027, 1028, 
*NSET,NSET=contact_source
1, 8, 103, 104, 105, 106, 107, 108, 109, 110, 
111, 112, 113, 114, 115, 116, 117, 118, 119, 120, 
121, 122, 123, 
*NSET,NSET=contact_drain
4, 5, 45, 46, 47, 48, 49, 50, 51, 52, 
53, 54, 55, 56, 57, 58, 59, 60, 61, 62, 
63, 64, 65, 66, 67, 
*NSET,NSET=probe_A
6, 7, 83, 84, 85, 86, 87, 
*NSET,NSET=probe_B
2, 3, 25, 26, 27, 28, 29, 
*NSET,NSET=walls
1, 2, 3, 4, 5, 6, 7, 8, 9, 10, 
11, 12, 13, 14, 15, 16, 17, 18, 19, 20, 
21, 22, 23, 24, 30, 31, 32, 33, 34, 35, 
36, 37, 38, 39, 40, 41, 42, 43, 44, 68, 
69, 70, 71, 72, 73, 74, 75, 76, 77, 78, 
79, 80, 81, 82, 88, 89, 90, 91, 92, 93, 
94, 95, 96, 97, 98, 99, 100, 101, 102, 124, 
125, 126, 127, 128, 129, 130, 131, 132, 133, 134, 
135, 136, 137, 138, 139, 140, 141, 142, 143, 144, 
145, 146, 147, 148, 149, 150, 151, 152, 153, 154, 
155, 156, 157, 158, 159, 160, 161, 162, 163, 164, 
*NSET,NSET=domain
1, 2, 3, 4, 5, 6, 7, 8, 9, 10, 
11, 12, 13, 14, 15, 16, 17, 18, 19, 20, 
21, 22, 23, 24, 25, 26, 27, 28, 29, 30, 
31, 32, 33, 34, 35, 36, 37, 38, 39, 40, 
41, 42, 43, 44, 45, 46, 47, 48, 49, 50, 
51, 52, 53, 54, 55, 56, 57, 58, 59, 60, 
61, 62, 63, 64, 65, 66, 67, 68, 69, 70, 
71, 72, 73, 74, 75, 76, 77, 78, 79, 80, 
81, 82, 83, 84, 85, 86, 87, 88, 89, 90, 
91, 92, 93, 94, 95, 96, 97, 98, 99, 100, 
101, 102, 103, 104, 105, 106, 107, 108, 109, 110, 
111, 112, 113, 114, 115, 116, 117, 118, 119, 120, 
121, 122, 123, 124, 125, 126, 127, 128, 129, 130, 
131, 132, 133, 134, 135, 136, 137, 138, 139, 140, 
141, 142, 143, 144, 145, 146, 147, 148, 149, 150, 
151, 152, 153, 154, 155, 156, 157, 158, 159, 160, 
161, 162, 163, 164, 165, 166, 167, 168, 169, 170, 
171, 172, 173, 174, 175, 176, 177, 178, 179, 180, 
181, 182, 183, 184, 185, 186, 187, 188, 189, 190, 
191, 192, 193, 194, 195, 196, 197, 198, 199, 200, 
201, 202, 203, 204, 205, 206, 207, 208, 209, 210, 
211, 212, 213, 214, 215, 216, 217, 218, 219, 220, 
221, 222, 223, 224, 225, 226, 227, 228, 229, 230, 
231, 232, 233, 234, 235, 236, 237, 238, 239, 240, 
241, 242, 243, 244, 245, 246, 247, 248, 249, 250, 
251, 252, 253, 254, 255, 256, 257, 258, 259, 260, 
261, 262, 263, 264, 265, 266, 267, 268, 269, 270, 
271, 272, 273, 274, 275, 276, 277, 278, 279, 280, 
281, 282, 283, 284, 285, 286, 287, 288, 289, 290, 
291, 292, 293, 294, 295, 296, 297, 298, 299, 300, 
301, 302, 303, 304, 305, 306, 307, 308, 309, 310, 
311, 312, 313, 314, 315, 316, 317, 318, 319, 320, 
321, 322, 323, 324, 325, 326, 327, 328, 329, 330, 
331, 332, 333, 334, 335, 336, 337, 338, 339, 340, 
341, 342, 343, 344, 345, 346, 347, 348, 349, 350, 
351, 352, 353, 354, 355, 356, 357, 358, 359, 360, 
361, 362, 363, 364, 365, 366, 367, 368, 369, 370, 
371, 372, 373, 374, 375, 376, 377, 378, 379, 380, 
381, 382, 383, 384, 385, 386, 387, 388, 389, 390, 
391, 392, 393, 394, 395, 396, 397, 398, 399, 400, 
401, 402, 403, 404, 405, 406, 407, 408, 409, 410, 
411, 412, 413, 414, 415, 416, 417, 418, 419, 420, 
421, 422, 423, 424, 425, 426, 427, 428, 429, 430, 
431, 432, 433, 434, 435, 436, 437, 438, 439, 440, 
441, 442, 443, 444, 445, 446, 447, 448, 449, 450, 
451, 452, 453, 454, 455, 456, 457, 458, 459, 460, 
461, 462, 463, 464, 465, 466, 467, 468, 469, 470, 
471, 472, 473, 474, 475, 476, 477, 478, 479, 480, 
481, 482, 483, 484, 485, 486, 487, 488, 489, 490, 
491, 492, 493, 494, 495, 496, 497, 498, 499, 500, 
501, 502, 503, 504, 505, 506, 507, 508, 509, 510, 
511, 512, 513, 514, 515, 516, 517, 518, 519, 520, 
521, 522, 523, 524, 525, 526, 527, 528, 529, 530, 
531, 532, 533, 534, 535, 536, 537, 538, 539, 540, 
541, 542, 543, 544, 545, 546, 547, 548, 549, 550, 
551, 552, 553, 554, 555, 556, 557, 558, 559, 560, 
561, 562, 563, 564, 565, 566, 567, 568, 569, 570, 
571, 572, 573, 574, 575, 576, 577, 578, 579, 580, 
581, 582, 583, 584, 585, 586, 587, 588, 589, 590, 
591, 592, 593, 594, 595, 596, 597, 598, 599, 600, 
601, 602, 603, 604, 605, 606, 607, 608, 609, 610, 
611, 612, 613, 614, 615, 616, 617, 618, 619, 620, 
621, 622, 623, 624, 625, 626, 627, 628, 629, 630, 
631, 632, 633, 634, 635, 636, 637, 638, 639, 640, 
641, 642, 643, 644, 645, 646, 647, 648, 649, 650, 
651, 652, 653, 654, 655, 656, 657, 658, 659, 660, 
661, 662, 663, 664, 665, 666, 667, 668, 669, 670, 
671, 672, 673, 674, 675, 676, 677, 678, 679, 680, 
681, 682, 683, 684, 685, 686, 687, 688, 689, 690, 
691, 692, 693, 694, 695, 696, 697, 698, 699, 700, 
701, 702, 703, 704, 705, 706, 707, 708, 709, 710, 
711, 712, 713, 714, 715, 716, 717, 718, 719, 720, 
721, 722, 723, 724, 725, 726, 727, 728, 729, 730, 
731, 732, 733, 734, 735, 736, 737, 738, 739, 740, 
741, 742, 743, 744, 745, 746, 747, 748, 749, 750, 
751, 752, 753, 754, 755, 756, 757, 758, 759, 760, 
761, 762, 763, 764, 765, 766, 767, 768, 769, 770, 
771, 772, 773, 774, 775, 776, 777, 778, 779, 780, 
781, 782, 783, 784, 785, 786, 787, 788, 789, 790, 
791, 792, 793, 794, 795, 796, 797, 798, 799, 800, 
801, 802, 803, 804, 805, 806, 807, 808, 809, 810, 
811, 812, 813, 814, 815, 816, 817, 818, 819, 820, 
821, 822, 823, 824, 825, 826, 827, 828, 829, 830, 
831, 832, 833, 834, 835, 836, 837, 838, 839, 840, 
841, 842, 843, 844, 845, 846, 847, 848, 849, 850, 
851, 852, 853, 854, 855, 856, 857, 858, 859, 860, 
861, 862, 863, 864, 865, 866, 867, 868, 869, 870, 
871, 872, 873, 874, 875, 876, 877, 878, 879, 880, 
881, 882, 883, 884, 885, 886, 887, 888, 889, 890, 
891, 892, 893, 894, 895, 896, 897, 898, 899, 900, 
901, 902, 903, 904, 905, 906, 907, 908, 909, 910, 
911, 912, 913, 914, 915, 916, 917, 918, 919, 920, 
921, 922, 923, 924, 925, 926, 927, 928, 929, 930, 
931, 932, 933, 934, 935, 936, 937, 938, 939, 940, 
941, 942, 943, 944, 945, 946, 
