*Heading
 /Users/juliagao/geometry-optimization-net/scripts/../runs/main/shape_4.inp
*NODE
1, 0, -0.3, 0
2, 0.425, -0.3, 0
3, 0.575, -0.3, 0
4, 1, -0.3, 0
5, 1, 0.3, 0
6, 0.575, 0.3, 0
7, 0.425, 0.3, 0
8, 0, 0.3, 0
9, 0.6217647689, -0.0879106932, 0
10, 0.017282818570794, -0.3, 0
11, 0.052147352368692, -0.3, 0
12, 0.08771350560028, -0.3, 0
13, 0.12379290297382, -0.3, 0
14, 0.15978378097622, -0.3, 0
15, 0.195447424751, -0.3, 0
16, 0.2313399157595, -0.3, 0
17, 0.26731016979906, -0.3, 0
18, 0.30252090272914, -0.3, 0
19, 0.33734375183136, -0.3, 0
20, 0.37221769273715, -0.3, 0
21, 0.40731701464914, -0.3, 0
22, 0.034565637141588, -0.3, 0
23, 0.069729067595796, -0.3, 0
24, 0.10569794360477, -0.3, 0
25, 0.14188786234288, -0.3, 0
26, 0.17767969960957, -0.3, 0
27, 0.21321514989244, -0.3, 0
28, 0.24946468162655, -0.3, 0
29, 0.28515565797158, -0.3, 0
30, 0.3198861474867, -0.3, 0
31, 0.35480135617602, -0.3, 0
32, 0.38963402929828, -0.3, 0
33, 0.44312812616742, -0.3, 0
34, 0.47993504415665, -0.3, 0
35, 0.51778583991331, -0.3, 0
36, 0.55597892192408, -0.3, 0
37, 0.46125625233484, -0.3, 0
38, 0.49861383597846, -0.3, 0
39, 0.53695784384816, -0.3, 0
40, 0.59351785789382, -0.3, 0
41, 0.6299179476069, -0.3, 0
42, 0.66539730425794, -0.3, 0
43, 0.7003401618816, -0.3, 0
44, 0.73484188196349, -0.3, 0
45, 0.76942046809153, -0.3, 0
46, 0.80485147957157, -0.3, 0
47, 0.84080086744778, -0.3, 0
48, 0.87633934434294, -0.3, 0
49, 0.91167038890876, -0.3, 0
50, 0.94707803719071, -0.3, 0
51, 0.98237607128391, -0.3, 0
52, 0.61203571578764, -0.3, 0
53, 0.64780017942615, -0.3, 0
54, 0.68299442908972, -0.3, 0
55, 0.71768589467348, -0.3, 0
56, 0.75199786925351, -0.3, 0
57, 0.78684306692954, -0.3, 0
58, 0.8228598922136, -0.3, 0
59, 0.85874184268196, -0.3, 0
60, 0.89393684600391, -0.3, 0
61, 0.9294039318136, -0.3, 0
62, 0.96475214256782, -0.3, 0
63, 1, -0.28234249540964, 0
64, 1, 0.24664778715346, 0
65, 1, 0.20931036531006, 0
66, 1, 0.17122494276891, 0
67, 1, 0.13297528176123, 0
68, 1, 0.094677509593702, 0
69, 1, 0.056355724920012, 0
70, 1, 0.018010211283151, 0
71, 1, -0.020423687951702, 0
72, 1, -0.058949727294991, 0
73, 1, -0.097205463015631, 0
74, 1, -0.13468330119179, 0
75, 1, -0.17186069271119, 0
76, 1, -0.20930569347116, 0
77, 1, -0.24637666440842, 0
78, 1, 0.28250436952728, 0
79, 1, -0.26468499081928, 0
80, 1, -0.22806833799756, 0
81, 1, -0.19054304894476, 0
82, 1, -0.15317833647761, 0
83, 1, -0.11618826590597, 0
84, 1, -0.078222660125292, 0
85, 1, -0.03967679446469, 0
86, 1, -0.0011705814387131, 0
87, 1, 0.037191004005016, 0
88, 1, 0.075520445835008, 0
89, 1, 0.1138345733524, 0
90, 1, 0.15211599017006, 0
91, 1, 0.19033389536775, 0
92, 1, 0.22828683525237, 0
93, 1, 0.26500873905455, 0
94, 0.9828477129729, 0.3, 0
95, 0.9485976521353, 0.3, 0
96, 0.91408330827089, 0.3, 0
97, 0.87877078308819, 0.3, 0
98, 0.84272960435585, 0.3, 0
99, 0.80694170935191, 0.3, 0
100, 0.77193264549962, 0.3, 0
101, 0.73711134847426, 0.3, 0
102, 0.70188426409645, 0.3, 0
103, 0.6659543374453, 0.3, 0
104, 0.62948735397943, 0.3, 0
105, 0.59308905868021, 0.3, 0
106, 0.9656954259458, 0.3, 0
107, 0.93149987832479, 0.3, 0
108, 0.896666738217, 0.3, 0
109, 0.86087482795938, 0.3, 0
110, 0.82458438075233, 0.3, 0
111, 0.78929903795148, 0.3, 0
112, 0.75456625304777, 0.3, 0
113, 0.71965644390074, 0.3, 0
114, 0.68411208429215, 0.3, 0
115, 0.64779659059844, 0.3, 0
116, 0.61117811736042, 0.3, 0
117, 0.55666920930454, 0.3, 0
118, 0.5195055321913, 0.3, 0
119, 0.48165008328592, 0.3, 0
120, 0.44381376039916, 0.3, 0
121, 0.53833841860907, 0.3, 0
122, 0.50067264577352, 0.3, 0
123, 0.46262752079833, 0.3, 0
124, 0.40635472762621, 0.3, 0
125, 0.3694246538823, 0.3, 0
126, 0.33326797541647, 0.3, 0
127, 0.29766686291231, 0.3, 0
128, 0.26253258314565, 0.3, 0
129, 0.22818958768351, 0.3, 0
130, 0.19426570130429, 0.3, 0
131, 0.15983647996204, 0.3, 0
132, 0.12420993660271, 0.3, 0
133, 0.087802815410085, 0.3, 0
134, 0.052129427947252, 0.3, 0
135, 0.017339952192349, 0.3, 0
136, 0.38770945525243, 0.3, 0
137, 0.35113985251217, 0.3, 0
138, 0.31539609832077, 0.3, 0
139, 0.27993762750385, 0.3, 0
140, 0.24512753878745, 0.3, 0
141, 0.21125163657957, 0.3, 0
142, 0.17727976602901, 0.3, 0
143, 0.14239319389506, 0.3, 0
144, 0.10602667931036, 0.3, 0
145, 0.069578951509806, 0.3, 0
146, 0.034679904384699, 0.3, 0
147, 0, 0.28237921320103, 0
148, 0, -0.24732264382164, 0
149, 0, -0.21155297591489, 0
150, 0, -0.17560310532466, 0
151, 0, -0.1390657591587, 0
152, 0, -0.10105740570014, 0
153, 0, -0.0618204813524, 0
154, 0, -0.022318928041203, 0
155, 0, 0.016894708027329, 0
156, 0, 0.055751038184027, 0
157, 0, 0.094360456580247, 0
158, 0, 0.13280121505242, 0
159, 0, 0.17105505559925, 0
160, 0, 0.20903749090902, 0
161, 0, 0.24635287818034, 0
162, 0, -0.28255700750233, 0
163, 0, 0.26475842640205, 0
164, 0, 0.22794732995864, 0
165, 0, 0.1901276518594, 0
166, 0, 0.1519824593391, 0
167, 0, 0.11361997076575, 0
168, 0, 0.07510094239474, 0
169, 0, 0.036401133973313, 0
170, 0, -0.0026117179186546, 0
171, 0, -0.042026138163752, 0
172, 0, -0.081614824541049, 0
173, 0, -0.12049998685924, 0
174, 0, -0.15763153145816, 0
175, 0, -0.19357467919117, 0
176, 0, -0.22953127263862, 0
177, 0, -0.26511401500465, 0
178, 0.62057837037342, -0.069572074733968, 0
179, 0.60730633791412, -0.13939802755123, 0
180, 0.60359535206383, -0.17428046839867, 0
181, 0.57968050028924, -0.19834380167765, 0
182, 0.54509796516332, -0.19284214359435, 0
183, 0.51269041218583, -0.17714915170052, 0
184, 0.47755646617166, -0.18117976031609, 0
185, 0.46297576694564, -0.14984749382926, 0
186, 0.47319253476228, -0.11728617687756, 0
187, 0.46176170179313, -0.10487120091005, 0
188, 0.42582291980885, -0.1044833292218, 0
189, 0.39265654367097, -0.087555407891388, 0
190, 0.37839124440771, -0.052426288412032, 0
191, 0.37864301636031, -0.014403412769156, 0
192, 0.40143441546731, 0.014135006489372, 0
193, 0.4371252761641, 0.011089186634597, 0
194, 0.46678735803227, -0.0051649083588132, 0
195, 0.49220055032908, 0.00725511871493, 0
196, 0.50667939627204, 0.038784939981945, 0
197, 0.52582426631601, 0.068363917300966, 0
198, 0.55135445099351, 0.092194692389838, 0
199, 0.58454519447895, 0.10158183905652, 0
200, 0.61206560545661, 0.079603136703648, 0
201, 0.6185738026899, 0.04258751501862, 0
202, 0.61365076815226, 0.0038538794769143, 0
203, 0.60868184466842, -0.034388131462223, 0
204, 0.61686579259311, -0.10517851591526, 0
205, 0.61407626262932, -0.052618063358789, 0
206, 0.60984623034356, -0.015518230248952, 0
207, 0.61702010004312, 0.023313223656054, 0
208, 0.61729620405899, 0.061911726255952, 0
209, 0.60089245720267, 0.094538857935474, 0
210, 0.56706145185947, 0.099773853611673, 0
211, 0.53775131887063, 0.081373972482055, 0
212, 0.51554505044407, 0.054029126774305, 0
213, 0.49898104537166, 0.022924427474297, 0
214, 0.48388404331206, -0.007751390725416, 0
215, 0.45319764584848, 0.003179345333698, 0
216, 0.41973985688827, 0.015656801492168, 0
217, 0.38623023871835, 0.0032660599623324, 0
218, 0.37700756388677, -0.033324502968374, 0
219, 0.38273262298977, -0.071128029502617, 0
220, 0.40817865527327, -0.098769265828492, 0
221, 0.44424539012327, -0.10619416026552, 0
222, 0.47901283638503, -0.10175330006548, 0
223, 0.46680866994223, -0.13253555840659, 0
224, 0.46425520284303, -0.16768137309085, 0
225, 0.49401211978584, -0.17910491131501, 0
226, 0.52901725029339, -0.18460201855172, 0
227, 0.56237016472364, -0.19838077102155, 0
228, 0.59507230048429, -0.18973736157914, 0
229, 0.60641260099818, -0.15711550719618, 0
230, 0.61044267120052, -0.12184262774723, 0
231, 0.21779006262545, 0.014797715407122, 0
232, 0.426574202016, -0.2667921517264, 0
233, 0.57861325864713, 0.14054903016405, 0
234, 0.58286909520403, -0.26681500377581, 0
235, 0.65100060910166, -0.074441907862455, 0
236, 0.052192203016455, 0.24446791521293, 0
237, 0.2673829438528, 0.11630103209384, 0
238, 0.30139223249497, -0.11264497325452, 0
239, 0.053365275470688, -0.28170076729252, 0
240, 0.016605171234853, 0.015916943557507, 0
241, 0.23436034004136, 0.13248072597061, 0
242, 0.1590793125395, -0.18969079109847, 0
243, 0.50501480955354, -0.26393602915306, 0
244, 0.46743528697376, -0.26663593969875, 0
245, 0.22880964538575, -0.18853703138458, 0
246, 0.30354705189544, -0.020342270487534, 0
247, 0.31362570368884, 0.066260743988012, 0
248, 0.29732237431861, -0.18694566150288, 0
249, 0.84463866771467, 0.1643649253928, 0
250, 0.7611824797239, 0.241673300586, 0
251, 0.78365925697865, -0.17699302270551, 0
252, 0.8277745064903, 0.24252285157423, 0
253, 0.77726702572014, 0.16203611722705, 0
254, 0.69896431289745, 0.045313126580471, 0
255, 0.87806267498816, -0.041228456944371, 0
256, 0.76172466159007, 0.1815238669645, 0
257, 0.83406092853814, -0.22900421167697, 0
258, 0.77135655613058, 0.085533107556278, 0
259, 0.54134291231306, -0.26640806809359, 0
260, 0.63645870767859, -0.20326510126859, 0
261, 0.66549189026064, -0.17044092110916, 0
262, 0.76427226055339, -0.11875919240158, 0
263, 0.84236490961374, 0.088157978637832, 0
264, 0.82702018907603, 0.14440194277401, 0
265, 0.86051671135584, -0.041396169012324, 0
266, 0.91215402494522, -0.13578878479343, 0
267, 0.79765393139236, -0.26404891591034, 0
268, 0.78013770221657, -0.19474530603069, 0
269, 0.69615289026507, -0.029448375713148, 0
270, 0.79582086860428, -0.24666733846063, 0
271, 0.73571955629863, 0.084332870583702, 0
272, 0.81081879543533, 0.1632147436782, 0
273, 0.96535422510126, -0.078069307236383, 0
274, 0.31281465391259, 0.26415346964459, 0
275, 0.20933707198345, 0.28118641072688, 0
276, 0.24518933961267, -0.078751876471298, 0
277, 0.224951099053, 0.2626132329112, 0
278, 0.21157692199113, -0.20754002495611, 0
279, 0.1052922031898, 0.28195040726877, 0
280, 0.15885738640669, -0.17125486075536, 0
281, 0.11704364921982, 0.032920470858991, 0
282, 0.17658224395948, -0.18946315165501, 0
283, 0.33967194991865, 0.14320240404564, 0
284, 0.21684270798957, 0.034408487980468, 0
285, 0.19420460794707, -0.20776398754634, 0
286, 0.37331795630109, 0.11432813080029, 0
287, 0.11681405093652, 0.11027169722108, 0
288, 0.44182486966467, 0.24931096516637, 0
289, 0.35401333817061, 0.11116435137784, 0
290, 0.22860338389016, -0.097095998922772, 0
291, 0.071522742315091, -0.26353358493816, 0
292, 0.035208134216793, 0.26313162966724, 0
293, 0.44308336067151, 0.283038080924, 0
294, 0.34561231076554, 0.21257756936585, 0
295, 0.18506467742435, 0.16844998797868, 0
296, 0.53695112880112, 0.16448574430325, 0
297, 0.43776516299409, 0.1504565336833, 0
298, 0.23314593105573, 0.035254215135019, 0
299, 0.31113413401646, -0.039503369219601, 0
300, 0.07100762799986, -0.28179284825151, 0
301, 0.28582175873998, 0.1368662123806, 0
302, 0.2832164460129, 0.099259123565634, 0
303, 0.29495827751817, 0.26385288281767, 0
304, 0.33203076968761, 0.28217842079969, 0
305, 0.4429968577328, 0.02736800735901, 0
306, 0.46676880960861, 0.03783512835887, 0
307, 0.15702329428496, -0.098119368000978, 0
308, 0.32845444776675, 0.22919782872541, 0
309, 0.51858454511681, 0.20463573774286, 0
310, 0.28338311367237, -0.095519795536186, 0
311, 0.35181478994625, -0.076291963622351, 0
312, 0.55991256363134, 0.26766897871024, 0
313, 0.016598670734872, -0.061714061288053, 0
314, 0.11938236254251, -0.042968919242755, 0
315, 0.14093046457838, -0.15309428621485, 0
316, 0.07143770922448, -0.20880329895266, 0
317, 0.26525132471845, 0.037900014541645, 0
318, 0.31954090782662, 0.12294184316713, 0
319, 0.28448638233241, 0.11821407839004, 0
320, 0.36609947565729, -0.17156073766995, 0
321, 0.42280546845434, 0.24906391560719, 0
322, 0.38523382200122, 0.084754085604885, 0
323, 0.035745379301541, -0.28167277856111, 0
324, 0.48370119117146, 0.07041945457378, 0
325, 0.56209274725615, 0.23780349780273, 0
326, 0.21745681133455, 0.13150850789428, 0
327, 0.36305271424558, 0.19641790986691, 0
328, 0.45616464774945, 0.05839977120449, 0
329, 0.37779593469128, 0.1474162909972, 0
330, 0.13494621951587, -0.0053951787739418, 0
331, 0.13673572123969, 0.22541790782309, 0
332, 0.42857303150213, 0.090676366438535, 0
333, 0.066737060350979, 0.03354600945151, 0
334, 0.31188561449325, 0.024610906565602, 0
335, 0.10569085477131, -0.15343480312179, 0
336, 0.33102255636855, -0.057252873931164, 0
337, 0.43571119778697, 0.061129677476984, 0
338, 0.30062782508311, -0.28140370580022, 0
339, 0.017272682509763, 0.22671014194206, 0
340, 0.47715178307775, 0.15041098569926, 0
341, 0.18721508526651, -0.024235504819934, 0
342, 0.28110690634499, -0.16833290532273, 0
343, 0.21150653544011, -0.15191987109981, 0
344, 0.067530624408257, 0.16865896938522, 0
345, 0.11901515554231, 0.20653700719252, 0
346, 0.38600566156824, 0.26549457737422, 0
347, 0.26113761328534, -0.060224216143164, 0
348, 0.016903759221328, 0.1701538308839, 0
349, 0.087194734424511, 0.2634067340614, 0
350, 0.16757482411518, 0.14908733212747, 0
351, 0.18438823281513, 0.14938837079845, 0
352, 0.13762633003758, -0.061535805541646, 0
353, 0.22909136157357, -0.22603075637103, 0
354, 0.45930175011288, 0.19972549745927, 0
355, 0.19362580829939, -0.13402860706456, 0
356, 0.05189818536003, -0.11747826112227, 0
357, 0.56015673874566, 0.16905904425509, 0
358, 0.32820999534027, -0.038021860153662, 0
359, 0.22914739882389, -0.15145213881249, 0
360, 0.55772545141324, 0.14157803381439, 0
361, 0.070901214897984, -0.17223343726592, 0
362, 0.23523511440308, 0.15140914647926, 0
363, 0.30025008855737, 0.10173592537741, 0
364, 0.12452519693772, -0.24531280117252, 0
365, 0.19990746369876, 0.053313686462445, 0
366, 0.069973645880793, -0.13552791767128, 0
367, 0.034881760130893, 0.24466258666156, 0
368, 0.31955774237156, -0.11218409777203, 0
369, 0.15010683828383, 0.11035792939407, 0
370, 0.017470944574675, 0.24521511500091, 0
371, 0.31544370197589, -0.16782235437524, 0
372, 0.14209303224068, -0.24523122440547, 0
373, 0.035876074000224, -0.20952985814727, 0
374, 0.18321165347454, 0.09164113474653, 0
375, 0.17753517252263, -0.28178113038622, 0
376, 0.052413534962708, -0.13593424379223, 0
377, 0.47805385513087, 0.18382832391667, 0
378, 0.26469676907152, -0.26309108794269, 0
379, 0.21111824227874, -0.11550243374198, 0
380, 0.53876890985123, 0.28339955562735, 0
381, 0.31408094371781, 0.28204755657789, 0
382, 0.29920645663182, -0.07722777650129, 0
383, 0.35283642268465, -0.28162197370102, 0
384, 0.19973859472538, 0.072807399798865, 0
385, 0.086389677252911, -0.098507863393654, 0
386, 0.22128976952314, -0.023874847092803, 0
387, 0.10107550314948, 0.16829969144833, 0
388, 0.033363155216879, 0.073261680394262, 0
389, 0.1667669829934, 0.1105889696697, 0
390, 0.120687564836, 0.24455629585573, 0
391, 0.29663482533927, 0.042487113961531, 0
392, 0.26616620662214, 0.017620860890023, 0
393, 0.2826531818029, -0.13133565228536, 0
394, 0.25135999313414, 0.13369427968331, 0
395, 0.33262327321159, -0.24440894099804, 0
396, 0.34681130080374, 0.22994012214291, 0
397, 0.24969286491747, 0.095478499949243, 0
398, 0.22388649038758, -0.042604235701736, 0
399, 0.25493590154769, -0.023087011965661, 0
400, 0.053513480207838, -0.19087871095351, 0
401, 0.053854307335493, -0.22719606597467, 0
402, 0.17192049518686, 0.24391361518698, 0
403, 0.14997498906271, 0.071627357001956, 0
404, 0.15293964506829, -0.024326733787376, 0
405, 0.13345729978168, 0.11025960902823, 0
406, 0.41871549145017, 0.16615105321982, 0
407, 0.42480674933153, -0.23592768817675, 0
408, 0.10647759947584, -0.28193187093408, 0
409, 0.41626573870971, -0.20223096341099, 0
410, 0.51804689006486, -0.20341392531634, 0
411, 0.50987566420726, -0.22528348981599, 0
412, 0.24641309502553, -0.16940119375664, 0
413, 0.016666174294337, 0.05470989201814, 0
414, 0.086987264194918, -0.11690136996139, 0
415, 0.26392959059265, -0.24433619079455, 0
416, 0.25027825060546, 0.01638170598122, 0
417, 0.34294257873291, 0.17793572425846, 0
418, 0.26498666791301, -0.096106418535497, 0
419, 0.12012637827224, -0.0615329087989, 0
420, 0.37942871016473, 0.16399929779446, 0
421, 0.18344138754644, 0.11097744594939, 0
422, 0.42407099227571, -0.16948694090027, 0
423, 0.15134710939956, 0.16811895283145, 0
424, 0.42655965531965, -0.1375994110748, 0
425, 0.20013474135679, 0.11155407862863, 0
426, 0.51917866810887, 0.22003335292712, 0
427, 0.29901960180388, 0.00037011017017322, 0
428, 0.033516762426075, -0.061609461248253, 0
429, 0.21290148059505, -0.28181089148244, 0
430, 0.26580803002246, -0.28167737347874, 0
431, 0.20202474910254, 0.16884637185258, 0
432, 0.08352075088075, 0.11058203478424, 0
433, 0.4242506989684, 0.28295802014487, 0
434, 0.15053900778545, 0.032935580205299, 0
435, 0.28772336627067, -0.021569367667854, 0
436, 0.36022389266961, 0.16240710807255, 0
437, 0.38755539018195, -0.26488676537953, 0
438, 0.70893920432647, 0.14134594912597, 0
439, 0.74545086568553, -0.28081630816178, 0
440, 0.83544808106404, -0.26397042360684, 0
441, 0.92972573292404, 0.26181482802525, 0
442, 0.77640446609098, 0.26146081480752, 0
443, 0.72545521103567, 0.1411695766607, 0
444, 0.82467789696568, 0.087537456544745, 0
445, 0.87178388224066, -0.22805045409628, 0
446, 0.92748594236278, -0.26317666083845, 0
447, 0.82804373940754, -0.11888759271932, 0
448, 0.91021622645868, -0.28152149174341, 0
449, 0.93020940027164, -0.11645636303822, 0
450, 0.94557533462369, -0.26311720963644, 0
451, 0.71911371251424, -0.061571514675979, 0
452, 0.62720103908831, -0.21436624972402, 0
453, 0.86087676303587, 0.28136140424123, 0
454, 0.74292608967175, 0.26150767484182, 0
455, 0.84458697266499, 0.2427603375871, 0
456, 0.71631146195869, 0.04617171743967, 0
457, 0.93058112381138, -0.040535709552823, 0
458, 0.78916939990718, 0.086210019419974, 0
459, 0.91055827474412, -0.17306089740031, 0
460, 0.94787016822314, 0.016394595155014, 0
461, 0.6967702767182, 0.22324188399551, 0
462, 0.75352806339599, 0.084889499718196, 0
463, 0.69247633207434, 0.26246717827257, 0
464, 0.66325008160986, 0.2263435845204, 0
465, 0.65781313362568, 0.26372493236958, 0
466, 0.13577142669784, -0.024301769381922, 0
467, 0.64540222933846, 0.22935472506269, 0
468, 0.10002747989893, 0.071651430177975, 0
469, 0.60088147222618, 0.2669947047391, 0
470, 0.24372525738128, 0.28139232971374, 0
471, 0.27726227009112, 0.26352795767152, 0
472, 0.53614787940885, 0.14990432421307, 0
473, 0.18318276164939, 0.072239502978187, 0
474, 0.46143495605356, 0.26628362599652, 0
475, 0.10027015762904, 0.033039902998742, 0
476, 0.068346748915126, -0.080142030655819, 0
477, 0.64709100755756, 0.21140679504822, 0
478, 0.62385455428012, 0.24920983959328, 0
479, 0.10669545012457, -0.20856566068428, 0
480, 0.91287827705675, -0.1167975916243, 0
481, 0.69703362454779, 0.18286430798465, 0
482, 0.66492427841577, 0.18751014147089, 0
483, 0.6615389575033, 0.14662125192179, 0
484, 0.085272720399832, 0.20671983948779, 0
485, 0.69268796485297, 0.14205947191775, 0
486, 0.96531599899466, 0.1115573276631, 0
487, 0.68294848295008, 0.06424510982854, 0
488, 0.89563147504883, 0.22346329349236, 0
489, 0.87787961888546, 0.1081100032759, 0
490, 0.68362562520131, 0.1030049359458, 0
491, 0.6509632644793, 0.06491673102209, 0
492, 0.648528278545, 0.10494160655629, 0
493, 0.35776978077879, -0.008827459344135, 0
494, 0.41761494157027, 0.15007651901103, 0
495, 0.15371634323394, 0.22523093664039, 0
496, 0.47843729627109, 0.11753993913258, 0
497, 0.68057478459831, 0.023587061736306, 0
498, 0.64943940862781, 0.020124378840339, 0
499, 0.8787866237313, 0.20398241128218, 0
500, 0.9475716091001, 0.20521281097849, 0
501, 0.82769825068758, 0.1638116092204, 0
502, 0.82368818298479, 0.032039496190002, 0
503, 0.81494332538093, -0.22935533242843, 0
504, 0.7580985684884, -0.21122567103917, 0
505, 0.81015671110393, -0.079479940698647, 0
506, 0.74885434722939, -0.11793432544532, 0
507, 0.8915806824798, -0.19181231599255, 0
508, 0.80637334793527, 0.068326418111164, 0
509, 0.7231173734231, -0.18893540284436, 0
510, 0.78856853944988, -0.023374241198741, 0
511, 0.77860193959783, 0.20186587202996, 0
512, 0.80566837083764, 0.03153770015464, 0
513, 0.93030087184022, 0.07228238424673, 0
514, 0.94783021953652, 0.05409387923062, 0
515, 0.91272046750428, 0.071686133109627, 0
516, 0.62593837670303, -0.16152594818952, 0
517, 0.77590644799293, 0.14240804843661, 0
518, 0.77057894489586, 0.067009734693892, 0
519, 0.70546867546929, 0.12162819962611, 0
520, 0.77033842420046, -0.023679499330151, 0
521, 0.73229386112119, 0.010295420859498, 0
522, 0.8110230518363, 0.24222976520742, 0
523, 0.71172964181824, 0.24236966737682, 0
524, 0.86187262763002, 0.20376541631001, 0
525, 0.96530982298748, 0.14943315016263, 0
526, 0.89588891112419, 0.16570897147029, 0
527, 0.7374897950989, -0.24388739362019, 0
528, 0.75072027639115, 0.011385773749919, 0
529, 0.80771089925529, 0.10558221545502, 0
530, 0.8115433176759, 0.22247981161929, 0
531, 0.87414081918824, -0.28154736256194, 0
532, 0.81661159116878, -0.26408349932338, 0
533, 0.77374058215586, -0.060113429098957, 0
534, 0.64467853850145, -0.026470321198857, 0
535, 0.67673136479665, -0.016764891064197, 0
536, 0.77447560003862, 0.28088982341962, 0
537, 0.68007978089383, -0.05577203373795, 0
538, 0.78764920163576, -0.0052694310572182, 0
539, 0.68956820548021, -0.093011545498694, 0
540, 0.73693255165512, 0.10296751157238, 0
541, 0.64286456347322, -0.1914057520484, 0
542, 0.74130279781318, -0.078522063024105, 0
543, 0.54299996961104, -0.23150849402469, 0
544, 0.46118736940631, -0.22267179785666, 0
545, 0.58045138843641, -0.23398201324387, 0
546, 0.7246076729463, -0.13469314904321, 0
547, 0.80993848014455, 0.14374177728392, 0
548, 0.65043271206901, -0.14265027742969, 0
549, 0.6860925355967, -0.17287981315946, 0
550, 0.96532174858447, 0.1304960765397, 0
551, 0.79314118754629, -0.079298957527309, 0
552, 0.72323755560762, -0.078942575982354, 0
553, 0.68115622475059, -0.20769255490083, 0
554, 0.83834224862233, -0.17565217895063, 0
555, 0.77423068929703, 0.12309689559042, 0
556, 0.75843639851777, -0.13886130421937, 0
557, 0.74591427923869, 0.20152554372464, 0
558, 0.87592490189819, -0.15569206639721, 0
559, 0.87825685820536, 0.26216968519143, 0
560, 0.75192779498735, 0.04784118503762, 0
561, 0.76993304301942, 0.048585933537813, 0
562, 0.82820072434046, 0.22283623502724, 0
563, 0.71149897862761, 0.16150847860258, 0
564, 0.89082968431711, -0.2098012913875, 0
565, 0.79289730528614, 0.14306556613534, 0
566, 0.91271923282798, 0.015527485914759, 0
567, 0.8531148495682, -0.24609078581116, 0
568, 0.89517022321974, -0.0035208898486272, 0
569, 0.90983228159419, -0.19131673469678, 0
570, 0.91268004884196, 0.052950973749739, 0
571, 0.66442170894059, -0.19102782551343, 0
572, 0.050403021843025, -0.04265941064104, 0
573, 0.25347424346889, 0.17114838081644, 0
574, 0.13333763034826, 0.071527623930514, 0
575, 0.64324794108124, 0.13698066905212, 0
576, 0.47975042938618, 0.23331645949482, 0
577, 0.6479301050566, 0.17462194039571, 0
578, 0.62740093902913, 0.095084683685676, 0
579, 0.58393142919154, 0.16796942898172, 0
580, 0.18338193199715, 0.052800550629031, 0
581, 0.28196517874889, -0.14969732101398, 0
582, 0.53601598779351, 0.10262100005738, 0
583, 0.42383302623715, 0.03155543956906, 0
584, 0.49146894694255, -0.19941422270012, 0
585, 0.49300936495971, -0.22958506143558, 0
586, 0.46931028055049, -0.20730684308468, 0
587, 0.61688329365834, -0.19258607346174, 0
588, 0.79677310944089, -0.21224179958996, 0
589, 0.77514913626184, -0.13939569035153, 0
590, 0.35835071424279, -0.095015973706595, 0
591, 0.34927803062403, -0.16930257561218, 0
592, 0.21247547957348, -0.26340183333835, 0
593, 0.036075111022653, -0.24553818691552, 0
594, 0.62984822583524, -0.013618397755863, 0
595, 0.63281368136248, -0.046744106988742, 0
596, 0.61230748021886, 0.12415744094821, 0
597, 0.58248786258482, 0.25208937998591, 0
598, 0.088714678183987, -0.28189314690146, 0
599, 0.1005502838771, 0.013850419915164, 0
600, 0.083363137748096, 0.071865715097279, 0
601, 0.37052190043539, -0.28179559803375, 0
602, 0.75898362086728, 0.14182268175997, 0
603, 0.7784547670636, 0.22185612001115, 0
604, 0.79433902869279, 0.24196278531298, 0
605, 0.85595692680325, -0.28166930693768, 0
606, 0.76062376053819, 0.16155353562625, 0
607, 0.96541977806826, -0.021047727782731, 0
608, 0.47387183682294, -0.19464639321706, 0
609, 0.45052860511178, -0.20597508444719, 0
610, 0.1419723127832, -0.22679172550895, 0
611, 0.016751039256802, 0.11266643331807, 0
612, 0.036060857140768, -0.26354689226515, 0
613, 0.72771221958948, 0.16116714408199, 0
614, 0.64728282477275, -0.1793092235414, 0
615, 0.79400463946506, 0.16260967308066, 0
616, 0.51946480257604, 0.23551102946461, 0
617, 0.31464355319826, -0.22520742893044, 0
618, 0.36745273221742, 0.26517566727709, 0
619, 0.5475618139011, -0.21268827223732, 0
620, 0.57643694848197, -0.21542820961807, 0
621, 0.5615586098209, -0.23934306468866, 0
622, 0.59085076712086, 0.12507974564744, 0
623, 0.067900217737524, -0.061509243034833, 0
624, 0.49056035481855, 0.046618903500185, 0
625, 0.26813477760993, -0.0026238374823936, 0
626, 0.083951506599919, -0.0050585679175903, 0
627, 0.13994017569545, -0.11649702381774, 0
628, 0.1044638964682, 0.26343310651755, 0
629, 0.053829420492104, -0.26347346563865, 0
630, 0.63804618620325, -0.087200378360858, 0
631, 0.66456653988471, -0.2511288882222, 0
632, 0.6574187495345, -0.22113395198849, 0
633, 0.10266525463936, -0.061518536168032, 0
634, 0.14213069865492, -0.26361647815645, 0
635, 0.38857404471953, -0.28217716967007, 0
636, 0.29948447532875, -0.14920450976886, 0
637, 0.36425766810948, 0.2135022438326, 0
638, 0.31397059481886, -0.05820687998116, 0
639, 0.31817020536197, -0.13039871941365, 0
640, 0.066997149802397, -0.0048357750430998, 0
641, 0.10693829492074, -0.24532998023207, 0
642, 0.088844649808435, -0.19032894225856, 0
643, 0.050099136691053, -0.0045316823679811, 0
644, 0.16975219241277, 0.20622956278856, 0
645, 0.34387406592506, 0.055319443423344, 0
646, 0.8925547757653, -0.17358980468786, 0
647, 0.947978825074, -0.07821483975503, 0
648, 0.854848103191, -0.19307347929261, 0
649, 0.93060120629866, -0.078425487456399, 0
650, 0.016789492021802, 0.13189709387423, 0
651, 0.22354830679377, 0.24405673772944, 0
652, 0.033994619110929, 0.18846872537016, 0
653, 0.17331988660904, 0.26264628182483, 0
654, 0.94681693870861, -0.15380050111699, 0
655, 0.84284471848102, 0.10692088159506, 0
656, 0.84413954665635, 0.14501905381112, 0
657, 0.3296625982505, 0.24680967103879, 0
658, 0.23621063869264, 0.17019344715051, 0
659, 0.56116734781799, 0.25251341637577, 0
660, 0.47469081395474, 0.054287667621329, 0
661, 0.87821547981569, 0.12703276502526, 0
662, 0.85644989603544, -0.17492149672899, 0
663, 0.75964478448538, -0.26309340812626, 0
664, 0.050216045248268, -0.02365281437657, 0
665, 0.33418514925983, -0.14922669060879, 0
666, 0.34433329124884, 0.19524956424854, 0
667, 0.29110641336073, 0.2097522657891, 0
668, 0.81009663689624, 0.26180542568586, 0
669, 0.8158870851338, -0.21198359561998, 0
670, 0.85363133126556, -0.21090703866813, 0
671, 0.70437217767912, -0.18286025737235, 0
672, 0.7947049309195, -0.098966817235829, 0
673, 0.87727673272855, 0.033355700453976, 0
674, 0.76220825552673, 0.20161153758957, 0
675, 0.017703226855321, 0.26352580707516, 0
676, 0.03530793211378, 0.28155522586686, 0
677, 0.017834053385211, 0.28170201657107, 0
678, 0.86036900362549, 0.10752969461305, 0
679, 0.93063395148872, -0.059453746186145, 0
680, 0.87851316723853, 0.14609531522334, 0
681, 0.72331381160012, 0.28109535232873, 0
682, 0.81915425839416, -0.28182527744462, 0
683, 0.74039759978323, 0.28095865535438, 0
684, 0.89558765804574, -0.041022029088064, 0
685, 0.94789237638813, 0.12957592832579, 0
686, 0.78795419079232, 0.049263298741977, 0
687, 0.70136601894853, 0.10263043788764, 0
688, 0.82421464371549, 0.068939206812902, 0
689, 0.92723778947572, -0.24505929341422, 0
690, 0.94707536944001, 0.24295435826673, 0
691, 0.71312185746219, 0.22240125456142, 0
692, 0.96537592290626, -0.0020707749248195, 0
693, 0.14048377809116, -0.13477576998912, 0
694, 0.10017081733031, 0.11037864717617, 0
695, 0.24677659028515, -0.15089915452947, 0
696, 0.10687337170153, -0.22695255521393, 0
697, 0.33023038644675, 0.07036953013265, 0
698, 0.15200488523463, 0.1872359722957, 0
699, 0.034463064012344, -0.1180492662492, 0
700, 0.2992261969159, -0.26274478486357, 0
701, 0.78773250486167, -0.15861109048783, 0
702, 0.89591271372806, -0.078919086307629, 0
703, 0.79561915266631, -0.11928129912278, 0
704, 0.93049608105914, -0.021669063337033, 0
705, 0.69587470002077, 0.0068651914955761, 0
706, 0.94786783622916, 0.11067920353287, 0
707, 0.15766538910307, -0.11633599842827, 0
708, 0.36843621831446, 0.28254980371929, 0
709, 0.31364416618751, 0.0028023708687776, 0
710, 0.21820339026438, 0.15052984266358, 0
711, 0.3063543134059, 0.174936898056, 0
712, 0.3564490934252, 0.12838832943275, 0
713, 0.035753667630291, -0.19144153504508, 0
714, 0.65349157623237, 0.28201177039604, 0
715, 0.59750639803616, 0.28311315410825, 0
716, 0.13774059593361, 0.24433927378451, 0
717, 0.1345659185582, 0.16812260704689, 0
718, 0.084752523516199, 0.18762407181857, 0
719, 0.12427012466005, -0.28195006350914, 0
720, 0.24824321536164, -0.28178621559941, 0
721, 0.34481852008866, -0.036056515539122, 0
722, 0.2788672166408, -0.05968785460232, 0
723, 0.103315520653, -0.08000641686606, 0
724, 0.16658998401167, 0.091242647466264, 0
725, 0.067242222170581, 0.14946369667591, 0
726, 0.38262700630364, -0.2129991793103, 0
727, 0.084320655606082, 0.16845145986612, 0
728, 0.38081381975662, 0.18067359983256, 0
729, 0.40388445313024, 0.24875387065955, 0
730, 0.89537296522189, -0.022231313873338, 0
731, 0.8776296608345, 0.089310550748942, 0
732, 0.8958800143347, -0.098026207371196, 0
733, 0.6272511017566, 0.15030351376585, 0
734, 0.59889485089804, 0.13884273456309, 0
735, 0.6298284927368, 0.18306878102058, 0
736, 0.53820682043154, 0.17892203754583, 0
737, 0.31762095913907, 0.10460924365901, 0
738, 0.21643725524137, 0.093039848886614, 0
739, 0.96527043096182, 0.16835305719819, 0
740, 0.6998485595997, 0.064701484534769, 0
741, 0.81141532010121, 0.18288015952208, 0
742, 0.067227574889626, -0.023863062499596, 0
743, 0.1197912395785, 0.22559773282344, 0
744, 0.22110115843323, 0.20688245193167, 0
745, 0.18678558533046, 0.20629273371151, 0
746, 0.34906340254484, 0.26482125677286, 0
747, 0.18784605218529, 0.22508847579098, 0
748, 0.20938960001331, -0.079404236169046, 0
749, 0.17543332756814, -0.11612617992539, 0
750, 0.23961561100019, 0.22593691527601, 0
751, 0.089269692360374, -0.22699330009143, 0
752, 0.18384151178823, 0.13022979445977, 0
753, 0.23059197770454, -0.28186826764303, 0
754, 0.94803665311157, -0.040283106008038, 0
755, 0.94731551526977, 0.22408245365324, 0
756, 0.872291958653, -0.21031445708872, 0
757, 0.77171451345592, -0.041751207674693, 0
758, 0.86173381875582, 0.22331731272626, 0
759, 0.89579352218936, -0.059913697187726, 0
760, 0.91267722393069, 0.034236999490777, 0
761, 0.71666582735546, -0.11446188593792, 0
762, 0.75268405302532, 0.066331482784943, 0
763, 0.89045886349483, -0.24546306996132, 0
764, 0.50232044616271, -0.28222068093011, 0
765, 0.52275584212499, -0.26502174657898, 0
766, 0.53950611873319, -0.28310572295423, 0
767, 0.52057403490224, -0.28270445406298, 0
768, 0.70557226193259, -0.25795339941062, 0
769, 0.85974633375083, 0.070067459877381, 0
770, 0.73401582524777, 0.047030133002356, 0
771, 0.94784852517555, 0.091803664577427, 0
772, 0.68021282696139, -0.27710507329837, 0
773, 0.81773724850876, -0.19435671254071, 0
774, 0.8614693109077, -0.11807391583702, 0
775, 0.65170944477547, -0.27875974891657, 0
776, 0.77982335773959, -0.11917301821487, 0
777, 0.66633501483496, -0.27781965293256, 0
778, 0.19982655059323, 0.092229467748952, 0
779, 0.26317844678338, -0.078303904665136, 0
780, 0.11836052155289, 0.18739828113362, 0
781, 0.29366724210759, 0.24581205768536, 0
782, 0.12400757804109, -0.19004287448471, 0
783, 0.28102532218003, 0.039886011042396, 0
784, 0.2759406841997, 0.24531862325126, 0
785, 0.21146447568345, -0.18889579722669, 0
786, 0.11704332125122, 0.12961904761909, 0
787, 0.35618841217248, 0.040072072876764, 0
788, 0.3103153161457, 0.22847955170893, 0
789, 0.34623453898979, -0.012932774873274, 0
790, 0.47510499798613, 0.012757664131485, 0
791, 0.12161433355843, -0.098321418165026, 0
792, 0.26639411873733, 0.097181880570417, 0
793, 0.40630316260524, 0.088659980856855, 0
794, 0.92814220455075, -0.2814843232348, 0
795, 0.91256003014131, 0.24271006670001, 0
796, 0.811219264839, -0.099087020258341, 0
797, 0.1689001890944, 0.18726627987195, 0
798, 0.29651875529696, -0.059020005187698, 0
799, 0.75964875437682, 0.26143714013053, 0
800, 0.67532095819846, 0.26304248492414, 0
801, 0.68880650550934, 0.28149902456559, 0
802, 0.67127236282814, 0.28176115156123, 0
803, 0.12289313200451, 0.28191144988661, 0
804, 0.4369611713202, 0.13470444149229, 0
805, 0.17736539557836, -0.26344231662894, 0
806, 0.44058737686776, 0.21592571437162, 0
807, 0.10068173922895, 0.14903694890032, 0
808, 0.4805309487175, 0.26645334613414, 0
809, 0.58167139969374, 0.15468267461924, 0
810, 0.070135699678976, 0.28174503688947, 0
811, 0.61667716133798, 0.28272003240485, 0
812, 0.8449556491712, 0.18386859002623, 0
813, 0.81509734465323, -0.2466510567163, 0
814, 0.84186644153353, -0.0043629444346891, 0
815, 0.91293493790811, 0.28100948092897, 0
816, 0.73486603920631, 0.065678651994553, 0
817, 0.94798899901132, -0.021361976346774, 0
818, 0.84342602325189, 0.28139708450139, 0
819, 0.84235234255605, -0.022866557464505, 0
820, 0.71356931528533, 0.20219943563825, 0
821, 0.86162067332815, -0.098635879911143, 0
822, 0.96530923078015, 0.054762104533154, 0
823, 0.93036700847955, 0.18569391837069, 0
824, 0.79008321489314, 0.10487305361974, 0
825, 0.94759156555191, -0.11618706659742, 0
826, 0.79189709791697, -0.13941454423965, 0
827, 0.87451950933527, -0.17421472413333, 0
828, 0.84505653221999, 0.20348119307688, 0
829, 0.83634696712422, -0.19375741328226, 0
830, 0.61871303260306, -0.2812773758346, 0
831, 0.62829412928438, -0.14575824978201, 0
832, 0.63593010952127, -0.27991710215262, 0
833, 0.20641761704428, -0.042803916104472, 0
834, 0.19404975321428, -0.1891963740203, 0
835, 0.74210572207067, -0.19236761179522, 0
836, 0.69909429111815, -0.21719041115178, 0
837, 0.63502098855523, -0.23596399745069, 0
838, 0.9089052410947, -0.24524382580671, 0
839, 0.89505103721902, 0.015140341794231, 0
840, 0.72619410982824, 0.26170907509294, 0
841, 0.24917805424122, 0.076017578852377, 0
842, 0.0834057144821, 0.091224493995035, 0
843, 0.36758455976891, 0.0024014955567966, 0
844, 0.58041660906513, -0.28308423207461, 0
845, 0.5615795874792, -0.26949756760087, 0
846, 0.5595968921456, -0.28442402340697, 0
847, 0.40669041269371, -0.2659068806282, 0
848, 0.42616347231118, -0.28293070125119, 0
849, 0.40711794942322, -0.28256405983726, 0
850, 0.22648799674842, 0.28122078957017, 0
851, 0.40681621141841, 0.04532552376027, 0
852, 0.24607722996723, -0.18810558582415, 0
853, 0.033298956268491, 0.034544404923206, 0
854, 0.76203341784486, 0.22169810084445, 0
855, 0.84467323092162, -0.098883339026297, 0
856, 0.053259120778921, -0.17263085994401, 0
857, 0.64799500545124, 0.19318109426139, 0
858, 0.44701230836745, -0.26719982411401, 0
859, 0.46508354360392, -0.28302188061815, 0
860, 0.44560078544406, -0.28313871534673, 0
861, 0.73332421413576, -0.02517819733125, 0
862, 0.87744317495716, 0.070600284496908, 0
863, 0.48690122691774, -0.26476221628765, 0
864, 0.48405569152638, -0.28240756151089, 0
865, 0.29873705441474, 0.082594980441987, 0
866, 0.24137199920041, -0.042311831783458, 0
867, 0.2714771633788, -0.022449494085118, 0
868, 0.91310547916894, 0.1471307522414, 0
869, 0.84492743196736, 0.22313938328604, 0
870, 0.22226923553136, 0.22549236899743, 0
871, 0.25582023163991, 0.20811215951928, 0
872, 0.37297348128613, -0.11482411232583, 0
873, 0.2651489969106, 0.057984688837246, 0
874, 0.6968487763319, -0.11141521856285, 0
875, 0.72823188056081, -0.17229840218727, 0
876, 0.89106544645064, -0.26338126693897, 0
877, 0.8773004786524, -0.13681614413588, 0
878, 0.73489120139641, -0.042783445136929, 0
879, 0.92976020476918, 0.24274486217479, 0
880, 0.052587721659727, 0.26305563907379, 0
881, 0.05270034567698, 0.28155739500575, 0
882, 0.017852751458038, -0.1742194423339, 0
883, 0.54045813108135, 0.22220571387857, 0
884, 0.1857634551551, -0.0052288146454056, 0
885, 0.86146792669702, 0.24284365998344, 0
886, 0.79495917950729, 0.22213918238031, 0
887, 0.86114384236344, 0.26224158768502, 0
888, 0.29737388827634, 0.062862702717682, 0
889, 0.38202603763706, 0.19744805138668, 0
890, 0.32589074877805, 0.1940272490287, 0
891, 0.067893134253987, 0.1877723932605, 0
892, 0.96521494998043, -0.097062900837512, 0
893, 0.82569582717055, -0.1386252559651, 0
894, 0.71514277622493, 0.027335181617332, 0
895, 0.60281975241359, -0.26535152826155, 0
896, 0.60001798112333, -0.28253392026598, 0
897, 0.87847437646005, -0.11762417279292, 0
898, 0.91281146984781, -0.0031970844488621, 0
899, 0.71394909457157, 0.0088185529651735, 0
900, 0.94697367946302, 0.26186819583213, 0
901, 0.92802354356184, -0.19092086232239, 0
902, 0.87872624915521, 0.16528894331482, 0
903, 0.72822659710497, 0.24194922280431, 0
904, 0.38321959357916, -0.17673050735645, 0
905, 0.085251143201186, -0.06150614529062, 0
906, 0.84278172334691, -0.13803834983296, 0
907, 0.89469648451074, -0.13626774810055, 0
908, 0.68219575373697, -0.18900834362431, 0
909, 0.93020139579118, 0.20469426312865, 0
910, 0.067541669084271, -0.042754708394229, 0
911, 0.23577978985802, -0.0042036006076253, 0
912, 0.32758491117395, 0.0062075116421245, 0
913, 0.017915861589453, -0.19230979308427, 0
914, 0.071605127717098, -0.22704573140501, 0
915, 0.71940368878136, -0.20567356816567, 0
916, 0.93013441225417, 0.28091966973623, 0
917, 0.12225342570577, -0.11662751675798, 0
918, 0.22904627614772, -0.11506364996987, 0
919, 0.083709243253192, 0.12991705925595, 0
920, 0.36643507853415, 0.24787760703353, 0
921, 0.4609289434038, 0.24953714060053, 0
922, 0.27861046268707, 0.28175628937688, 0
923, 0.033749610438642, -0.080563091765558, 0
924, 0.05098170117369, -0.080299611105972, 0
925, 0.12171622624713, 0.26336129842755, 0
926, 0.38942380895564, -0.12486979596834, 0
927, 0.14178559012738, -0.20833349745457, 0
928, 0.33309740302002, -0.016179565217736, 0
929, 0.36075945507554, 0.060973090500661, 0
930, 0.12282131975738, -0.13493660264519, 0
931, 0.2470397046508, -0.11452999468877, 0
932, 0.22886915791454, -0.20727047195706, 0
933, 0.38489793296436, 0.036781772904389, 0
934, 0.76525794503397, -0.17658289290675, 0
935, 0.94792219333755, -0.002471768651915, 0
936, 0.76186443970252, -0.098150609333816, 0
937, 0.93046026930484, 0.16670703063465, 0
938, 0.79154280256818, 0.1238037554156, 0
939, 0.87839007456849, -0.060114851438629, 0
940, 0.94616142266629, -0.19064178327364, 0
941, 0.79900281694382, -0.19475200262934, 0
942, 0.73309378430858, 0.028520238300492, 0
943, 0.83419655280482, -0.24643210569684, 0
944, 0.86184262879849, 0.18425929688769, 0
945, 0.70987799660075, -0.097372085933713, 0
946, 0.76940616077754, 0.030300854619935, 0
947, 0.12448806748685, -0.26368316605888, 0
948, 0.051397923166951, -0.098940475815657, 0
949, 0.1389382843506, 0.2631247358869, 0
950, 0.32780475244253, 0.050151579197492, 0
951, 0.36823234255461, -0.1528060405323, 0
952, 0.2372690139589, 0.18885841796512, 0
953, 0.29759988673716, -0.22507706066534, 0
954, 0.19441472532718, -0.22634731755803, 0
955, 0.066857412027334, 0.11088888118548, 0
956, 0.43590546251765, 0.1194904926879, 0
957, 0.26510155071686, -0.11391878414122, 0
958, 0.36786136092922, -0.24607882544748, 0
959, 0.36915352457442, -0.26389798339655, 0
960, 0.2634557094439, -0.22547739099045, 0
961, 0.72251456197355, 0.12159698298452, 0
962, 0.89578084703801, 0.14659858067814, 0
963, 0.67737935517818, -0.13947903753234, 0
964, 0.77617773812654, -0.22918189921125, 0
965, 0.85998837630918, -0.13741860230738, 0
966, 0.82814882647358, 0.18339694967448, 0
967, 0.64657956603179, -0.10819558611581, 0
968, 0.12443653024087, -0.22689671948753, 0
969, 0.34787594974677, -0.20775518344486, 0
970, 0.38635936840185, -0.24782864903173, 0
971, 0.48099008653433, 0.28319359808437, 0
972, 0.67701504755219, -0.1054170038112, 0
973, 0.77607409084189, -0.079013325595802, 0
974, 0.6760942642329, -0.24911745788029, 0
975, 0.70453077475468, -0.080864435464828, 0
976, 0.403043157464, 0.23182994982755, 0
977, 0.23271479462963, 0.055014758965405, 0
978, 0.2938036418359, -0.040569969199405, 0
979, 0.9478309451703, -0.09720841220099, 0
980, 0.94647941599732, -0.17231755914311, 0
981, 0.74568994401766, 0.22169493762555, 0
982, 0.84164898273208, 0.014067127355316, 0
983, 0.7107496669597, -0.27941560443218, 0
984, 0.31156772079064, 0.24630311381909, 0
985, 0.033411181652474, 0.09260181545734, 0
986, 0.33770990177366, 0.12564859224711, 0
987, 0.66458039883817, 0.20715216541259, 0
988, 0.62929940681911, 0.16652049332363, 0
989, 0.5853452230129, 0.18122171776979, 0
990, 0.58513677758581, 0.22270441231435, 0
991, 0.22003554757969, 0.18819958872158, 0
992, 0.66101106187843, 0.24517740473759, 0
993, 0.20256655143536, -0.0050122039304411, 0
994, 0.80662615389469, -0.023180741786162, 0
995, 0.89522163325095, 0.089872983891151, 0
996, 0.19034204827208, -0.061357645764863, 0
997, 0.17383465553501, -0.079767099638853, 0
998, 0.38491497360621, -0.23071428461699, 0
999, 0.018050941031165, -0.2817843864381, 0
1000, 0.46042507756527, 0.2328769537176, 0
1001, 0.37270895232301, 0.047639657895522, 0
1002, 0.42352038540894, 0.26597236170562, 0
1003, 0.26482287252681, -0.13198198070735, 0
1004, 0.13349063518044, 0.052179003092132, 0
1005, 0.40261154393521, 0.030015931060543, 0
1006, 0.51544285588387, 0.14178441182931, 0
1007, 0.28381067102608, -0.0013681714577878, 0
1008, 0.3512861767216, -0.15032992807983, 0
1009, 0.45869423490535, 0.1831879726315, 0
1010, 0.32133052685486, 0.14094805769884, 0
1011, 0.33173269409013, -0.22567391771394, 0
1012, 0.3674790284186, 0.025736228603039, 0
1013, 0.9645399129265, 0.24350508555408, 0
1014, 0.87747187661864, -0.0038200810114311, 0
1015, 0.77639094515932, -0.24630674329615, 0
1016, 0.73867532408126, -0.20931371172189, 0
1017, 0.35366939754574, 0.016636210793705, 0
1018, 0.11742473180508, 0.013731464806624, 0
1019, 0.11680024044344, 0.052200995883227, 0
1020, 0.21906806568594, 0.16942165563922, 0
1021, 0.96451577788896, 0.28099926474612, 0
1022, 0.81166902303193, 0.20266401050401, 0
1023, 0.89545100910753, 0.24276950629932, 0
1024, 0.15613746362032, -0.079868173335388, 0
1025, 0.16679425708592, 0.052459384159192, 0
1026, 0.066692468637672, 0.052849031747581, 0
1027, 0.35301045657777, -0.13139842625183, 0
1028, 0.050176022883058, 0.11132236876466, 0
1029, 0.26967595788233, 0.15379591301866, 0
1030, 0.29722471905481, -0.20605621338049, 0
1031, 0.90925999459648, -0.20937273944411, 0
1032, 0.80594475547965, 0.0498797282811, 0
1033, 0.80694604590944, 0.086884733939704, 0
1034, 0.76360883480675, -0.28123697063757, 0
1035, 0.82368154838798, 0.013697120819811, 0
1036, 0.90891490411058, -0.2273132073986, 0
1037, 0.82602756565756, 0.28125735002064, 0
1038, 0.73201544076741, -0.0075628854643037, 0
1039, 0.12425489188287, -0.20846705145983, 0
1040, 0.51768682715848, 0.18920702756456, 0
1041, 0.5193072809252, 0.28333492766944, 0
1042, 0.24228277648661, 0.26287883247355, 0
1043, 0.53944736594424, 0.26747357898565, 0
1044, 0.47277259550937, 0.088241419411097, 0
1045, 0.48015053598313, 0.24983347845501, 0
1046, 0.017092344184267, 0.20800881546021, 0
1047, 0.75693940460576, 0.12244588728735, 0
1048, 0.9130819595001, 0.18524658278061, 0
1049, 0.92760447213976, -0.20903226274447, 0
1050, 0.1672302963026, 0.033090169590654, 0
1051, 0.10460225846152, -0.11675064980553, 0
1052, 0.28211029371377, 0.079927576456047, 0
1053, 0.25886757396455, -0.041902612345053, 0
1054, 0.19522118049308, -0.28174542398062, 0
1055, 0.086546972141955, 0.24463971992186, 0
1056, 0.46199541337887, 0.28311551353045, 0
1057, 0.050302447081484, 0.13060749493524, 0
1058, 0.40120946080849, 0.19829965354351, 0
1059, 0.36408286128144, -0.19048770061307, 0
1060, 0.3850855574588, 0.24835009317884, 0
1061, 0.56238974595399, 0.19582452320622, 0
1062, 0.10009811305093, 0.052317282281481, 0
1063, 0.28322588348481, -0.11326621808459, 0
1064, 0.71915042347834, 0.10262958986605, 0
1065, 0.91254354669952, 0.26188413437426, 0
1066, 0.65201968913535, -0.25445470686684, 0
1067, 0.72971108259162, 0.20169066154755, 0
1068, 0.9285331410767, -0.17263401055014, 0
1069, 0.94774267357344, 0.1863232092903, 0
1070, 0.28034725926202, -0.18722646093359, 0
1071, 0.22944373332659, -0.244761789244, 0
1072, 0.80886338272624, 0.12451901716179, 0
1073, 0.73456557709956, -0.15535347708878, 0
1074, 0.96435511166855, 0.26219640863645, 0
1075, 0.71465871382882, -0.026822231863401, 0
1076, 0.79321467247871, 0.26160715311955, 0
1077, 0.7446934282655, 0.24172253600617, 0
1078, 0.26109624554071, 0.28158596968288, 0
1079, 0.17588525545899, -0.13433802938495, 0
1080, 0.17074955421945, 0.225110720231, 0
1081, 0.016987753532887, 0.18914395237796, 0
1082, 0.28175069292177, 0.019292471513749, 0
1083, 0.25238040897042, 0.1524997682274, 0
1084, 0.066837425148746, 0.01430878865695, 0
1085, 0.54041639079086, 0.23697206491196, 0
1086, 0.32061777952738, -0.09448359116033, 0
1087, 0.19466134512699, -0.24490136799031, 0
1088, 0.034052467090525, -0.099379504130097, 0
1089, 0.31648566201619, -0.26279862933209, 0
1090, 0.20290483128925, 0.18772445750126, 0
1091, 0.28120159976696, -0.07778589820319, 0
1092, 0.17503818691299, 0.28132881856183, 0
1093, 0.10144295454994, -0.024147186191403, 0
1094, 0.62135557074188, -0.26211597442382, 0
1095, 0.73707797786292, -0.22641133578378, 0
1096, 0.68984611903678, -0.25435661253611, 0
1097, 0.089184339139911, -0.26362842410713, 0
1098, 0.2012602709166, 0.14986314283474, 0
1099, 0.42133314983963, 0.21553153428443, 0
1100, 0.87830288600394, 0.28128568960489, 0
1101, 0.9471781910487, -0.1350800801021, 0
1102, 0.69754213847621, 0.025937631167161, 0
1103, 0.72914661805091, 0.18139736306005, 0
1104, 0.43850551570465, 0.16656751775112, 0
1105, 0.53670488479121, 0.13521479284628, 0
1106, 0.44121684978891, 0.23257461487486, 0
1107, 0.44895075856136, 0.043104345122807, 0
1108, 0.089322905139733, -0.24531647379503, 0
1109, 0.33534654210141, -0.28151481187312, 0
1110, 0.19324915542112, -0.11585200769025, 0
1111, 0.92996506581583, 0.22370815033638, 0
1112, 0.947891113288, 0.14849088220981, 0
1113, 0.9303970750059, -0.0028472880510506, 0
1114, 0.93033672794739, 0.09109126312269, 0
1115, 0.64959540381848, -0.049209035044203, 0
1116, 0.63682523219459, -0.065080153177244, 0
1117, 0.5401098590825, 0.20766738307432, 0
1118, 0.018027532736018, -0.22824200018496, 0
1119, 0.31564238195267, 0.085796923521295, 0
1120, 0.3489813129807, -0.2265887968282, 0
1121, 0.11668686110919, 0.071539186614706, 0
1122, 0.017428617365295, -0.13759098394382, 0
1123, 0.10518201613048, -0.13508819471655, 0
1124, 0.21625485423481, 0.07359613251734, 0
1125, 0.43922648082207, 0.18289754458637, 0
1126, 0.93044880202225, 0.12881553495797, 0
1127, 0.71326220794588, -0.0092140991239941, 0
1128, 0.75122240167439, 0.029498100212729, 0
1129, 0.35005293496812, -0.24504435914562, 0
1130, 0.106116130392, -0.17179880081612, 0
1131, 0.87325612883187, -0.19240186864571, 0
1132, 0.80060177128858, -0.28179842046197, 0
1133, 0.80873659937554, -0.13911586656739, 0
1134, 0.70613403610943, 0.28127177614657, 0
1135, 0.87732241925398, 0.051955899495332, 0
1136, 0.69462364849963, -0.011665217929561, 0
1137, 0.68620076705066, -0.12533900708771, 0
1138, 0.82625469740459, -0.060399687127432, 0
1139, 0.86141656356148, -0.079353888003048, 0
1140, 0.91288781599121, 0.10927840979341, 0
1141, 0.82530751143487, -0.041589482299266, 0
1142, 0.21209234938599, -0.24484569389007, 0
1143, 0.48247062803429, 0.029958392196891, 0
1144, 0.27464700575212, 0.22711491430105, 0
1145, 0.28109195812449, -0.24410408489892, 0
1146, 0.47746865991356, 0.16716304044593, 0
1147, 0.034224640180871, 0.2073428823112, 0
1148, 0.21685516472909, 0.11234650313354, 0
1149, 0.24090811893285, 0.2444081260815, 0
1150, 0.156137825536, 0.26285375396562, 0
1151, 0.40016013521221, 0.18171944566786, 0
1152, 0.1548143973239, 0.24409535702618, 0
1153, 0.017957914913785, -0.21031467194234, 0
1154, 0.36172423398884, 0.17939208751076, 0
1155, 0.71304098357975, 0.18185775450876, 0
1156, 0.8283250847803, 0.20309695572719, 0
1157, 0.91135781417638, -0.15455546626995, 0
1158, 0.85970862518786, -0.0040984815404272, 0
1159, 0.30772465380794, 0.19282603633502, 0
1160, 0.15039331982398, 0.12967164583036, 0
1161, 0.19494142543944, -0.26338091451158, 0
1162, 0.4042745386162, -0.23345733350326, 0
1163, 0.4261638283971, -0.25122101181372, 0
1164, 0.40577102667679, -0.24964742910949, 0
1165, 0.23840359505495, 0.20743035526396, 0
1166, 0.33087684629686, -0.18739523982172, 0
1167, 0.033282766311702, -0.0041094958819907, 0
1168, 0.30491633192317, 0.15695091051465, 0
1169, 0.10644100933824, -0.19017875422865, 0
1170, 0.18896775365151, -0.042930394910023, 0
1171, 0.051742465915287, 0.22577300703715, 0
1172, 0.068332715187137, 0.20679200807459, 0
1173, 0.8271868357772, -0.079540056999394, 0
1174, 0.83483548367773, -0.21149879916818, 0
1175, 0.85948564634589, 0.032930790101026, 0
1176, 0.35131942077292, -0.26334068258527, 0
1177, 0.033392362529881, -0.042537261785358, 0
1178, 0.016691153202508, 0.074064768648304, 0
1179, 0.56149171783207, 0.18239372452802, 0
1180, 0.39754765437093, 0.14903432373522, 0
1181, 0.63474769038374, 0.062746328433359, 0
1182, 0.64933375833628, 0.085844614260267, 0
1183, 0.6318821336622, 0.080601388685508, 0
1184, 0.84293862145977, -0.041517049023209, 0
1185, 0.91309490574736, -0.040786971399131, 0
1186, 0.83762392850434, -0.28178751013547, 0
1187, 0.016722542300897, -0.080973089975195, 0
1188, 0.12330639249469, -0.15327062985269, 0
1189, 0.1166932535807, 0.090904647284345, 0
1190, 0.05392269111123, -0.2453198875716, 0
1191, 0.7179845972652, 0.083945365337533, 0
1192, 0.635634998427, -0.11427394890698, 0
1193, 0.86008121022113, -0.022685297969587, 0
1194, 0.067019048181037, 0.13020137423258, 0
1195, 0.29627499664882, 0.28192006111635, 0
1196, 0.15778033887626, 0.28148814165579, 0
1197, 0.10215601321471, 0.20663781942138, 0
1198, 0.45768652872154, 0.15028610494831, 0
1199, 0.51949874247432, 0.25116383256671, 0
1200, 0.30183812879045, 0.12043684192528, 0
1201, 0.29833247253749, -0.16793745204739, 0
1202, 0.19385808457085, -0.15230610459765, 0
1203, 0.44340564162962, 0.075694242345353, 0
1204, 0.41444083478189, 0.1189208887421, 0
1205, 0.2330527762275, 0.094110700743258, 0
1206, 0.82295282505891, -0.15777025796579, 0
1207, 0.89221767770802, -0.281527466806, 0
1208, 0.84464661239919, -0.1185085861519, 0
1209, 0.79156198082933, 0.2809785027545, 0
1210, 0.77819097868299, 0.18189000462446, 0
1211, 0.63408631812497, 0.023577937344561, 0
1212, 0.65110065389844, 0.042800286868499, 0
1213, 0.63541944135678, 0.043283170095383, 0
1214, 0.59863043656263, -0.23140413074713, 0
1215, 0.59306555434875, -0.21374030994556, 0
1216, 0.17676987727629, -0.20797788071496, 0
1217, 0.47927009699708, 0.21685276203598, 0
1218, 0.55875678358424, 0.15558785707827, 0
1219, 0.15948614306715, -0.226655587745, 0
1220, 0.083682418340322, 0.014038996508997, 0
1221, 0.38669114384305, -0.14189998690919, 0
1222, 0.18464842015258, 0.01400023750905, 0
1223, 0.3555444595365, -0.11278594881258, 0
1224, 0.29699165953813, 0.021552219450103, 0
1225, 0.62074089904804, 0.26585224611584, 0
1226, 0.50979969290803, 0.077822231956866, 0
1227, 0.74215432745864, 0.14137613896055, 0
1228, 0.7452614638796, -0.097500020984331, 0
1229, 0.80560805026265, 0.013287073379425, 0
1230, 0.71721540853462, 0.065107379165493, 0
1231, 0.79509187898766, 0.20223880791414, 0
1232, 0.69548802518385, 0.16242778592746, 0
1233, 0.70025244547316, -0.064257391611024, 0
1234, 0.42208336607193, 0.23224721948641, 0
1235, 0.26849564992628, 0.13515575881256, 0
1236, 0.36824183419643, -0.076957602560809, 0
1237, 0.17717150342894, -0.24500553500873, 0
1238, 0.14206004101817, -0.28189645374789, 0
1239, 0.2805463562402, -0.22521258170928, 0
1240, 0.39578846285083, 0.13297112743924, 0
1241, 0.15975982248677, -0.26352553093924, 0
1242, 0.13332957974879, 0.090896710845854, 0
1243, 0.45988623752296, 0.21628231507993, 0
1244, 0.18385962594499, 0.033367488759225, 0
1245, 0.89566396343177, 0.28114882276612, 0
1246, 0.72773625829159, -0.28019644183652, 0
1247, 0.89363429935449, -0.15507945768953, 0
1248, 0.8956228581585, -0.11719230639481, 0
1249, 0.38412928854635, 0.23129054637626, 0
1250, 0.51659935699236, 0.1736249901137, 0
1251, 0.7000720162162, -0.23648087927607, 0
1252, 0.66640401061418, -0.11793285369831, 0
1253, 0.737690313622, -0.060434482443646, 0
1254, 0.30045339502635, -0.13075946865814, 0
1255, 0.25971116326946, 0.26320285701155, 0
1256, 0.06885592993144, -0.098670848475049, 0
1257, 0.2570665395147, 0.22649257847033, 0
1258, 0.86100364835748, -0.060273831345828, 0
1259, 0.69511874809258, 0.24302379625606, 0
1260, 0.93029056598023, 0.034719968459116, 0
1261, 0.6974274451582, 0.20317005483639, 0
1262, 0.77828462888769, -0.098657211934027, 0
1263, 0.22994832107107, -0.26340310811271, 0
1264, 0.018137666720081, -0.26391629410913, 0
1265, 0.94729840401402, 0.28087919133849, 0
1266, 0.87882098464507, 0.18459422666091, 0
1267, 0.74409678507595, 0.16122946472541, 0
1268, 0.34114338332978, 0.033950835730655, 0
1269, 0.33548692464761, 0.10781275034594, 0
1270, 0.15278852875694, 0.20627496875443, 0
1271, 0.44606536327832, -0.13812264702179, 0
1272, 0.44448366862607, -0.17035795638865, 0
1273, 0.42433226992608, -0.15352081269942, 0
1274, 0.4439880831809, -0.15426465401414, 0
1275, 0.63728299984357, 0.11909549295429, 0
1276, 0.60721117979686, 0.22100849993981, 0
1277, 0.5805065699178, 0.26738534214345, 0
1278, 0.93038566538042, 0.10993197928711, 0
1279, 0.9290876942178, -0.15412708359195, 0
1280, 0.8953847442538, 0.10868275665916, 0
1281, 0.66629157553699, -0.21563878309623, 0
1282, 0.96479380492002, 0.22480896299776, 0
1283, 0.81169361970489, -0.11916487877863, 0
1284, 0.63152762196537, -0.13031603807745, 0
1285, 0.3229766517581, 0.15874578639475, 0
1286, 0.36568533999186, 0.079928270710151, 0
1287, 0.14155265017126, -0.18988289109075, 0
1288, 0.72940144312816, 0.22191107623916, 0
1289, 0.68306911058426, 0.083940581454788, 0
1290, 0.84363006389745, -0.060373274246236, 0
1291, 0.86085593093719, 0.12646666011134, 0
1292, 0.85823828645367, -0.15637881866631, 0
1293, 0.32651918667267, 0.028704380874862, 0
1294, 0.38194618987986, 0.018346339446221, 0
1295, 0.15929249489353, -0.20816850423178, 0
1296, 0.36537600332756, 0.23065395977203, 0
1297, 0.41626417062003, 0.13431020061199, 0
1298, 0.55839398279644, 0.28340367561315, 0
1299, 0.49967574924291, 0.062675235344768, 0
1300, 0.10683798050051, -0.26367437044742, 0
1301, 0.33470326639619, -0.076304378400377, 0
1302, 0.26438738848652, -0.15029537030951, 0
1303, 0.66666698846198, 0.064323868329094, 0
1304, 0.66602779190033, 0.10406209139504, 0
1305, 0.66610636924278, 0.084657293637026, 0
1306, 0.52032532858838, 0.091695993434361, 0
1307, 0.25209622641439, -0.0035383000256492, 0
1308, 0.071206561983305, -0.19053677688838, 0
1309, 0.033670349420079, 0.15035952075405, 0
1310, 0.11781620584033, 0.16819315357435, 0
1311, 0.03331101960329, -0.02336310468725, 0
1312, 0.80534284462163, -0.15832215560432, 0
1313, 0.96533882837464, 0.016886240410084, 0
1314, 0.80874116278214, 0.28109346062679, 0
1315, 0.85413236689219, -0.26374850807846, 0
1316, 0.16887573105521, -0.0053539809227482, 0
1317, 0.27635681166112, -0.041340582295128, 0
1318, 0.033811790666826, 0.16946691099937, 0
1319, 0.16710109008402, 0.12987492612522, 0
1320, 0.19265731839294, -0.097746719630214, 0
1321, 0.42053589629216, 0.19892742112257, 0
1322, 0.39348411088858, 0.11707329782316, 0
1323, 0.10362963276385, 0.2446424029842, 0
1324, 0.37912512543136, 0.067102962035622, 0
1325, 0.1340815787246, 0.14888628255552, 0
1326, 0.58579749031679, 0.20853739108968, 0
1327, 0.033558464444657, 0.13116734518378, 0
1328, 0.41967239572896, 0.18245480342341, 0
1329, 0.20128156864545, 0.014322738377566, 0
1330, 0.16817589256344, 0.16821881205797, 0
1331, 0.39443868439925, -0.10956841105149, 0
1332, 0.17642402656821, -0.17100215323003, 0
1333, 0.2114963916143, -0.17033888887716, 0
1334, 0.35849059695599, 0.14542812671491, 0
1335, 0.29238721100118, 0.22778579642887, 0
1336, 0.18906868869411, 0.2438181208713, 0
1337, 0.42144341578512, 0.07594366257545, 0
1338, 0.42010433599505, -0.18533645906704, 0
1339, 0.43373959169974, -0.20484250238684, 0
1340, 0.43876514595041, -0.18710686467598, 0
1341, 0.76115284908808, -0.1940864593301, 0
1342, 0.92730849247484, -0.22704595164796, 0
1343, 0.43233254778971, -0.1221231063094, 0
1344, 0.40756234026643, -0.13290431454535, 0
1345, 0.41320260590703, -0.11803915812656, 0
1346, 0.47740540993458, 0.13374075539691, 0
1347, 0.42890899685129, 0.046474897271644, 0
1348, 0.64686814840201, -0.0028352917781492, 0
1349, 0.6316813535127, 0.0045168209712242, 0
1350, 0.12370271024941, -0.17163977965466, 0
1351, 0.24671833394176, -0.24456934506568, 0
1352, 0.19220353676476, 0.28120023144451, 0
1353, 0.21139180532444, -0.13364512178477, 0
1354, 0.34084288218918, 0.010831723652177, 0
1355, 0.17620874250411, -0.15262584014868, 0
1356, 0.34140256188214, 0.16060389413255, 0
1357, 0.20501651362063, 0.22521752018267, 0
1358, 0.06941056632163, 0.2445255841487, 0
1359, 0.10205376392658, -0.042909593344105, 0
1360, 0.68021321926544, 0.22453561912262, 0
1361, 0.67827011268047, 0.24395554952751, 0
1362, 0.94804985625219, -0.059234930032052, 0
1363, 0.8435161391155, 0.12586521513263, 0
1364, 0.75743402201544, 0.28090375749745, 0
1365, 0.050086812745584, 0.091995534823039, 0
1366, 0.45094168644777, 0.090050739186953, 0
1367, 0.11860134204652, -0.024240336100243, 0
1368, 0.91324022844377, -0.07866876301981, 0
1369, 0.82618749728377, 0.1252129438082, 0
1370, 0.38548378657452, -0.15945556786775, 0
1371, 0.82018565878572, -0.17632385884695, 0
1372, 0.93048070877719, 0.14774357833261, 0
1373, 0.91314498092643, -0.097718373282679, 0
1374, 0.75588086992338, -0.060099106056014, 0
1375, 0.68266730352746, -0.22888771588333, 0
1376, 0.75660775734272, -0.22827331725511, 0
1377, 0.64787261505658, -0.16025068384743, 0
1378, 0.2117942065183, -0.226207074347, 0
1379, 0.10397886611558, -0.098403213251298, 0
1380, 0.28125859201868, 0.060136181420674, 0
1381, 0.016841215379631, 0.15106517472476, 0
1382, 0.083392958176035, 0.052529919085963, 0
1383, 0.38689719450471, 0.28271514072377, 0
1384, 0.35113232375733, 0.09355022873442, 0
1385, 0.65783503645515, -0.13125176342392, 0
1386, 0.62291486537022, -0.17771792753786, 0
1387, 0.70039452706671, 0.083839464731133, 0
1388, 0.91295504135394, -0.021961294554965, 0
1389, 0.45173181763291, -0.12220982720844, 0
1390, 0.46944326973355, -0.23628729090352, 0
1391, 0.45655902740255, -0.18686612938825, 0
1392, 0.96544447571038, -0.040045876359721, 0
1393, 0.85300243874466, -0.22853268885182, 0
1394, 0.82705175677112, 0.26204334775089, 0
1395, 0.57802822521918, 0.28325085794428, 0
1396, 0.2656204705206, 0.077755446772175, 0
1397, 0.33084812057369, 0.26446322722223, 0
1398, 0.034895527345721, -0.13658028772879, 0
1399, 0.28197752615294, -0.26288608710215, 0
1400, 0.45738888029536, 0.11864174774428, 0
1401, 0.20040522037445, 0.033795121465524, 0
1402, 0.40470293438965, 0.26576953665424, 0
1403, 0.22918148862298, -0.13317369231596, 0
1404, 0.45993014509044, 0.020839398979099, 0
1405, 0.15192951622693, -0.005405237027933, 0
1406, 0.27337716162212, 0.20889287141689, 0
1407, 0.31416698989203, -0.18695126273931, 0
1408, 0.13848682858566, -0.079931998949532, 0
1409, 0.44657757717978, -0.23738288342165, 0
1410, 0.46891605083228, -0.25088496529356, 0
1411, 0.44740307056813, -0.25196581444824, 0
1412, 0.15856494694494, -0.15288444616064, 0
1413, 0.32720432548839, 0.21161060396947, 0
1414, 0.28981451922911, 0.19168293772519, 0
1415, 0.52597427384797, -0.22787893548376, 0
1416, 0.53199972881061, -0.20855511593393, 0
1417, 0.19049807312993, 0.26250660782232, 0
1418, 0.3758088782222, 0.13088993588126, 0
1419, 0.050640413707728, -0.061540817123859, 0
1420, 0.34748476448355, -0.18848948471553, 0
1421, 0.017146986555991, -0.11895720736744, 0
1422, 0.016881375210886, -0.10007156019917, 0
1423, 0.035996466237726, -0.22755066966542, 0
1424, 0.22567547347556, -0.060964999709127, 0
1425, 0.8416254862508, 0.032497630380164, 0
1426, 0.66974240514022, -0.085328273943737, 0
1427, 0.33302703668385, 0.089505793300102, 0
1428, 0.068857848762447, 0.22571177139394, 0
1429, 0.053702640195873, -0.20905997799163, 0
1430, 0.3628907740993, -0.055408210210074, 0
1431, 0.43992368234014, 0.19936308776494, 0
1432, 0.55458137235385, 0.11220430915348, 0
1433, 0.28025416740484, -0.20623671475917, 0
1434, 0.68105198470839, 0.18468086053, 0
1435, 0.68116610457444, 0.2047795766903, 0
1436, 0.069414533319293, -0.11712328285328, 0
1437, 0.17273344785191, -0.061459603018809, 0
1438, 0.91301380633173, 0.12816742658848, 0
1439, 0.89560089343543, 0.12758746527274, 0
1440, 0.24673154438235, -0.096640582301392, 0
1441, 0.033474608376814, 0.11190911196229, 0
1442, 0.20428875402587, -0.0240967321053, 0
1443, 0.74092961917039, -0.26208620845827, 0
1444, 0.79136699566208, -0.060236499534107, 0
1445, 0.68392484161662, -0.074555016123886, 0
1446, 0.45812416876447, 0.16668264868269, 0
1447, 0.15964450443697, -0.24512000229968, 0
1448, 0.088081273082729, -0.15362693709115, 0
1449, 0.20389902472454, 0.20650939263113, 0
1450, 0.088517836416254, -0.17198085338331, 0
1451, 0.33098161703887, -0.20667432443282, 0
1452, 0.050029953783624, 0.072646730966472, 0
1453, 0.62626634510878, 0.23268011162758, 0
1454, 0.64296335534099, 0.24711271415551, 0
1455, 0.63967828355721, 0.2647666002151, 0
1456, 0.64732548097392, -0.2284480281235, 0
1457, 0.70976294222877, -0.16690635474037, 0
1458, 0.73327588874689, -0.11656698154389, 0
1459, 0.71662272145456, -0.15109458209047, 0
1460, 0.47869210722458, 0.20037812814766, 0
1461, 0.087682610365787, 0.28193679150499, 0
1462, 0.5400480133728, 0.25203526439901, 0
1463, 0.89510050030087, 0.071132945616531, 0
1464, 0.84058124377932, -0.15709355734508, 0
1465, 0.24928911048895, 0.036391560290091, 0
1466, 0.051314833008442, 0.20695946236654, 0
1467, 0.75344200464201, -0.04204959882097, 0
1468, 0.86001287248737, 0.088744912088059, 0
1469, 0.96543981409377, -0.059056862653223, 0
1470, 0.87869709862778, -0.098339646340204, 0
1471, 0.68220852313001, 0.044028040617689, 0
1472, 0.66456203416302, 0.021526631683054, 0
1473, 0.66626947573679, 0.043148625884235, 0
1474, 0.56264081474536, 0.22347521308142, 0
1475, 0.31796449628504, -0.28143319278213, 0
1476, 0.92965320080485, -0.13538945796772, 0
1477, 0.82529559635099, 0.10627001683993, 0
1478, 0.94784093207907, 0.035246933190618, 0
1479, 0.93032709713493, 0.015943566563698, 0
1480, 0.69479855221044, -0.27844107320934, 0
1481, 0.61460365179181, -0.22416294143387, 0
1482, 0.78848817914059, 0.067680840487192, 0
1483, 0.89580843833311, 0.20416339616207, 0
1484, 0.67684358352893, 0.14371152411997, 0
1485, 0.6640510182677, 0.16733596956215, 0
1486, 0.67969625901278, 0.16427524285756, 0
1487, 0.62808996719115, 0.21618085259392, 0
1488, 0.60878965973301, 0.17778239236413, 0
1489, 0.45746573256675, 0.13417578210574, 0
1490, 0.33381442505524, -0.26299708252208, 0
1491, 0.53934184452024, 0.19327567897288, 0
1492, 0.033283611539684, 0.015200347206629, 0
1493, 0.68864243033084, 0.12209911395524, 0
1494, 0.65672520383336, 0.12556092356654, 0
1495, 0.67225319612663, 0.1233683486771, 0
1496, 0.13588236384184, 0.2063970554552, 0
1497, 0.27089143891317, 0.17227015370129, 0
1498, 0.7692680461507, -0.0057547050954175, 0
1499, 0.93028352676887, 0.0534954971162, 0
1500, 0.94600721918683, -0.2814589697879, 0
1501, 0.035269445040181, -0.15497912087177, 0
1502, 0.36657829037578, -0.22810986395813, 0
1503, 0.24897722376118, 0.056307132978719, 0
1504, 0.38100138101243, -0.19452651736372, 0
1505, 0.24607817402966, -0.20692714019378, 0
1506, 0.91273997309647, 0.22353215816762, 0
1507, 0.94562411381227, -0.22688571676535, 0
1508, 0.75884796755991, -0.07869257574268, 0
1509, 0.67894652509184, -0.035841334228792, 0
1510, 0.70050900021187, -0.19936594697732, 0
1511, 0.8440695723686, 0.26223198239765, 0
1512, 0.74676641404006, -0.17522140756174, 0
1513, 0.78756859738462, 0.030968470847184, 0
1514, 0.93046880892911, -0.09743751597147, 0
1515, 0.85952438233698, 0.014420665699426, 0
1516, 0.018087843330432, -0.24609925161259, 0
1517, 0.070475455196145, -0.15389643874012, 0
1518, 0.052872238677529, -0.15431652940783, 0
1519, 0.14996214160187, 0.091002668691518, 0
1520, 0.12087955843051, -0.079972630967036, 0
1521, 0.31539005276812, -0.24406873369017, 0
1522, 0.033328385224217, 0.053903762902329, 0
1523, 0.20798941237394, -0.061197510719207, 0
1524, 0.19397438513313, -0.17069710435464, 0
1525, 0.15015929466162, 0.052259749288667, 0
1526, 0.67844245132053, 0.0032329177486309, 0
1527, 0.89500588626135, 0.033786527087149, 0
1528, 0.16792194194068, 0.013799769183432, 0
1529, 0.016719443197195, 0.093385598628202, 0
1530, 0.31216493629064, 0.045864322011121, 0
1531, 0.75688962747334, -0.24546045581046, 0
1532, 0.67052101983073, -0.15461853438818, 0
1533, 0.71844241677857, -0.24111209370557, 0
1534, 0.94783437448781, 0.072943814865403, 0
1535, 0.79564351925226, -0.22947967521617, 0
1536, 0.75191720711081, -0.024218348861705, 0
1537, 0.74537365072949, 0.18132734292112, 0
1538, 0.66005905536391, -0.021896921112491, 0
1539, 0.66209850930857, -0.00023599484157986, 0
1540, 0.75071361196003, -0.0064717802095458, 0
1541, 0.60684998989092, -0.20519393388333, 0
1542, 0.66473608352792, -0.064839225143879, 0
1543, 0.66342404388623, -0.04252657952464, 0
1544, 0.39945035143942, 0.072597147448853, 0
1545, 0.050971791367629, 0.1880253270179, 0
1546, 0.80884913292747, -0.060349351571018, 0
1547, 0.4041915675901, -0.16543885174408, 0
1548, 0.4050016375052, -0.14898186056038, 0
1549, 0.39188259059943, 0.05536125175519, 0
1550, 0.085800037372641, -0.080054605953849, 0
1551, 0.51938714082292, 0.26707783816262, 0
1552, 0.1015660387766, 0.18750313960609, 0
1553, 0.1541291511231, -0.043021932873299, 0
1554, 0.13428968417285, 0.013679161387756, 0
1555, 0.87732150033105, 0.014774548861845, 0
1556, 0.96531865886187, 0.035828689019678, 0
1557, 0.71609904610142, -0.044330786361975, 0
1558, 0.9651814180813, 0.187235271907, 0
1559, 0.79475928172766, 0.18236339022258, 0
1560, 0.08909547473524, -0.20866547886461, 0
1561, 0.30903974307118, 0.21066244084367, 0
1562, 0.3141240797416, -0.20616313311432, 0
1563, 0.21058441880537, -0.097462411911961, 0
1564, 0.87863237322738, 0.22341536897291, 0
1565, 0.84175495313192, 0.05097207778936, 0
1566, 0.17153796653347, -0.042999058402911, 0
1567, 0.11794415610963, -0.0053323786535885, 0
1568, 0.13674285875492, -0.04300894501826, 0
1569, 0.54223384639934, -0.24936926840556, 0
1570, 0.50727543584791, -0.24516103649384, 0
1571, 0.5243213074039, -0.24683560185751, 0
1572, 0.91313539992331, 0.16616114060494, 0
1573, 0.80586152426093, -0.0049158144778029, 0
1574, 0.20770015922682, 0.26250796389565, 0
1575, 0.085885516287296, 0.22573051917551, 0
1576, 0.78974516640019, -0.041654344661888, 0
1577, 0.65729844286379, -0.096249899168187, 0
1578, 0.34795551486681, 0.24735096289057, 0
1579, 0.82454320264976, -0.023024989680278, 0
1580, 0.94587954858801, -0.20880927089872, 0
1581, 0.066751084128685, 0.091544926980157, 0
1582, 0.13371040402172, 0.12959480167406, 0
1583, 0.2272576152256, -0.079119182803227, 0
1584, 0.28326718618184, -0.28152825195247, 0
1585, 0.33943397422992, -0.094372988490483, 0
1586, 0.1858631782653, 0.18741631949316, 0
1587, 0.016554990987393, -0.022941816536753, 0
1588, 0.05069304126968, 0.16897749654292, 0
1589, 0.10005248806, 0.091013547479936, 0
1590, 0.35014380800842, 0.28236435742785, 0
1591, 0.15817133325474, -0.13458217020318, 0
1592, 0.2006229794263, 0.13076670089084, 0
1593, 0.017654486230949, -0.15600242420534, 0
1594, 0.27212637720454, 0.19062275150706, 0
1595, 0.10038032818015, 0.12972546702236, 0
1596, 0.28716929889659, 0.15528792261726, 0
1597, 0.15112836418983, 0.01369825252603, 0
1598, 0.72813478106243, -0.096944456230692, 0
1599, 0.7396896100385, 0.12191413598698, 0
1600, 0.8958991263522, 0.18490395516881, 0
1601, 0.7724090559648, 0.10416855522774, 0
1602, 0.51564139769652, 0.15779999514736, 0
1603, 0.56276015329174, 0.20949425704093, 0
1604, 0.46433942147035, 0.073470758040669, 0
1605, 0.86130124437718, 0.14557765357082, 0
1606, 0.96501018888999, -0.11601114692753, 0
1607, 0.30340692295482, 0.13880966500979, 0
1608, 0.23818653501739, -0.023547875674215, 0
1609, 0.71781370394707, -0.22299913487366, 0
1610, 0.84200517347303, 0.069518096176252, 0
1611, 0.96530816152366, 0.073692272696435, 0
1612, 0.9478483489591, 0.16741171822981, 0
1613, 0.96503896507208, 0.20605778254329, 0
1614, 0.31709433844331, -0.076692916953822, 0
1615, 0.10285159087233, 0.22569233388813, 0
1616, 0.48926993548104, -0.24719127402458, 0
1617, 0.24735491795334, -0.26327069939755, 0
1618, 0.4934650237126, 0.086163863450769, 0
1619, 0.87863389781791, -0.079154657643702, 0
1620, 0.87842237909279, 0.24283860429251, 0
1621, 0.7069125560392, -0.12930163231299, 0
1622, 0.90932821618336, -0.26328017932438, 0
1623, 0.87266916647253, -0.26351695615243, 0
1624, 0.8238811286939, 0.050445684224865, 0
1625, 0.39851080227565, -0.19863387998456, 0
1626, 0.42047951933962, -0.21985458408948, 0
1627, 0.40113695449652, -0.21656128211438, 0
1628, 0.77772682610256, 0.24175451034885, 0
1629, 0.91294590098259, 0.20437371088093, 0
1630, 0.74165505273587, -0.13748290591781, 0
1631, 0.69859114723154, -0.14345802670931, 0
1632, 0.72276628191415, -0.26044418654987, 0
1633, 0.24339611167397, -0.060644909943671, 0
1634, 0.066696661738683, 0.072190608228246, 0
1635, 0.89041614063374, -0.22764675313373, 0
1636, 0.80196348847306, -0.17682909099615, 0
1637, 0.91321087914522, -0.059687207231049, 0
1638, 0.77862402065204, -0.26371904450531, 0
1639, 0.62003534595255, -0.24291657881783, 0
1640, 0.78203773986189, -0.28157338663184, 0
1641, 0.8950258768555, 0.052443651530306, 0
1642, 0.08756533986393, -0.13526920769966, 0
1643, 0.80759118309885, -0.041624423211065, 0
1644, 0.01657511266653, -0.0035092363251229, 0
1645, 0.15516204958106, -0.061515192906336, 0
1646, 0.62932316986159, 0.19965053029497, 0
1647, 0.40215965805202, 0.21500824147316, 0
1648, 0.76911506985245, 0.012191632297963, 0
1649, 0.016634090512161, 0.03532656033723, 0
1650, 0.37730700009258, -0.096830048087469, 0
1651, 0.84426817628016, -0.079490973060222, 0
1652, 0.82787096837009, -0.099046110760438, 0
1653, 0.69727254854819, -0.047253316497958, 0
1654, 0.94549412637923, -0.24495625568009, 0
1655, 0.89539087713681, 0.26202694083093, 0
1656, 0.91279152804545, 0.090457163342982, 0
1657, 0.071660818060757, -0.24528360852764, 0
1658, 0.36079227492486, -0.033937408108847, 0
1659, 0.62297873837288, 0.13508700346216, 0
1660, 0.75238026039819, -0.15753202202459, 0
1661, 0.70940228993871, 0.26202357372574, 0
1662, 0.63774438080406, -0.25826593330476, 0
1663, 0.60895509056816, 0.19183287316252, 0
1664, 0.58591777452736, 0.19471467758504, 0
1665, 0.01656744933596, -0.042353592776578, 0
1666, 0.34740352712565, -0.056239008015816, 0
1667, 0.19158350232286, -0.079616113178376, 0
1668, 0.17697152452742, -0.22650463871676, 0
1669, 0.85956709096649, 0.051470509024394, 0
1670, 0.87186617489102, -0.24573519344993, 0
1671, 0.75468991610556, 0.10351241449512, 0
1672, 0.44056226445598, -0.22226085356536, 0
1673, 0.21635597464532, 0.05403590561143, 0
1674, 0.77749834842162, -0.2120682597858, 0
1675, 0.58276681158554, -0.25065371405127, 0
1676, 0.60232698904836, -0.24836541114494, 0
1677, 0.05047358955055, 0.14983209917463, 0
1678, 0.34748437740551, 0.075064301134056, 0
1679, 0.26326030465326, -0.18764802018294, 0
1680, 0.083975065225288, 0.14921179580824, 0
1681, 0.36495343026285, -0.20961851322176, 0
1682, 0.25462303867666, 0.18967471849752, 0
1683, 0.57674492720874, 0.11618819247575, 0
1684, 0.38311856124473, 0.21432167288231, 0
1685, 0.034540250077083, 0.22607447320114, 0
1686, 0.8777503801706, -0.022473607497754, 0
1687, 0.24630810040292, -0.22576811250752, 0
1688, 0.60352181243066, 0.25134220334423, 0
1689, 0.60156740117048, 0.10981987151617, 0
1690, 0.60753151108465, 0.16424167809604, 0
1691, 0.62243607923077, 0.10931539488373, 0
1692, 0.1598164143214, -0.2818317932119, 0
1693, 0.25044647715665, 0.11469746117834, 0
1694, 0.23273150568143, 0.074650034301237, 0
1695, 0.33764970586798, -0.11210220020485, 0
1696, 0.60480185366797, 0.15129839421794, 0
1697, 0.41375649466267, 0.060771082859781, 0
1698, 0.050002986808855, 0.053296465495748, 0
1699, 0.56207201600956, -0.25465008483547, 0
1700, 0.77009049513804, -0.15844926861406, 0
1701, 0.11737804280528, 0.14893028737219, 0
1702, 0.40135145965314, -0.18162256768747, 0
1703, 0.69156525985526, -0.15777193238746, 0
1704, 0.069908270128321, 0.26321770050557, 0
1705, 0.64653308496554, 0.15578390467213, 0
1706, 0.1351643760012, 0.18729537316644, 0
1707, 0.60560231555487, 0.23603046476977, 0
1708, 0.58402478994359, 0.23721598568486, 0
1709, 0.2469936957807, -0.13261053424383, 0
1710, 0.50498383412296, -0.20103533789081, 0
1711, 0.82392547636923, -0.0046272906172761, 0
1712, 0.40551331953856, 0.28286193320433, 0
1713, 0.32448974177798, 0.1764192433046, 0
1714, 0.62424327426284, -0.03151148339, 0
1715, 0.39896420512943, 0.16528920504141, 0
1716, 0.33572516100715, -0.13048105957814, 0
1717, 0.78741873859549, 0.012802233388735, 0
1718, 0.96531168380599, 0.092623188112058, 0
1719, 0.48323180999136, -0.21953107389025, 0
1720, 0.14128245578727, -0.17146388468329, 0
1721, 0.86164500850773, 0.16485053771201, 0
1722, 0.2632062332523, -0.20656230468486, 0
1723, 0.56179349169952, -0.22229674400404, 0
1724, 0.63531488186016, 0.28238563896871, 0
1725, 0.17009254974291, -0.024307877391326, 0
1726, 0.14040585290118, 0.28171016654665, 0
1727, 0.15080950909338, 0.14892868599226, 0
1728, 0.29823340888443, -0.24397115366615, 0
1729, 0.60835790381835, 0.20626691996931, 0
1730, 0.96472196170028, -0.13486534345354, 0
1731, 0.964541077415, -0.15356859186804, 0
1732, 0.96439018212947, -0.172106043857, 0
1733, 0.96423740637859, -0.19049010412587, 0
1734, 0.96408260832274, -0.20874037417363, 0
1735, 0.96387326231276, -0.22689543144932, 0
1736, 0.96370710216844, -0.2450123185371, 0
1737, 0.96364293631682, -0.26316980055308, 0
1738, 0.96384737014169, -0.28147668975873, 0
1739, 0.98194597363016, 0.28132974485354, 0
1740, 0.9819884564316, 0.26298742766267, 0
1741, 0.98219082629637, 0.24460128841937, 0
1742, 0.98238108628918, 0.22606651436775, 0
1743, 0.98255689427872, 0.20736342336446, 0
1744, 0.98263050278448, 0.18852347831799, 0
1745, 0.98267920200587, 0.16959841273336, 0
1746, 0.98269720607407, 0.15062062476818, 0
1747, 0.98270487958357, 0.13161522637409, 0
1748, 0.98270437819406, 0.11259727609648, 0
1749, 0.98270480135733, 0.093573610547581, 0
1750, 0.98270430482926, 0.074545433817122, 0
1751, 0.98270537125991, 0.055512833052825, 0
1752, 0.98271038940946, 0.036473752361868, 0
1753, 0.98271967894297, 0.017423960196596, 0
1754, 0.98274197339803, -0.0016426565882079, 0
1755, 0.98276690588624, -0.020732663891755, 0
1756, 0.98277775666839, -0.039840917370547, 0
1757, 0.98277513752554, -0.058952798431863, 0
1758, 0.98270396766496, -0.078036167888184, 0
1759, 0.98260940941308, -0.097049957156724, 0
1760, 0.98246902737954, -0.11596587606079, 0
1761, 0.98229980805394, -0.13474283422717, 0
1762, 0.98226396719598, -0.15339725762947, 0
1763, 0.98224609824344, -0.17196982682429, 0
1764, 0.98221277708944, -0.19046531810268, 0
1765, 0.9821704282468, -0.2088801059832, 0
1766, 0.98203134653655, -0.22719152076008, 0
1767, 0.98189446843763, -0.24538748420158, 0
1768, 0.98176316215053, -0.26350350675385, 0
1769, 0.98175274581197, -0.28162365771766, 0
1770, 0.05003222093408, 0.014683188643859, 0
1771, 0.20627387756593, 0.24387182666233, 0
1772, 0.31876046561298, -0.018611051988135, 0
1773, 0.28850305549438, 0.17354255914802, 0
1774, 0.084767687261031, -0.042837181357563, 0
1775, 0.22897815154766, -0.1699092708139, 0
1776, 0.10094019267125, -0.0052208532149388, 0
1777, 0.33242152834533, -0.16818100541299, 0
1778, 0.30192827147809, -0.094939944772318, 0
1779, 0.03558296358214, -0.17326057178103, 0
1780, 0.23413670777272, 0.015466022458541, 0
1781, 0.084311816032344, -0.024023113228641, 0
1782, 0.174807626864, -0.097961899225916, 0
1783, 0.25836375248089, 0.24484646882824, 0
1784, 0.083497193927017, 0.033244601805295, 0
1785, 0.16659248018652, 0.071856662146557, 0
1786, 0.36989891997259, -0.13374345836637, 0
1787, 0.23361738584539, 0.11338642568075, 0
1788, 0.3169063038289, -0.14897278932383, 0
1789, 0.13929454767276, -0.09823362484869, 0
1790, 0.050001181822185, 0.033967388604024, 0
1791, 0.44243647742472, 0.26613523302102, 0
1792, 0.51691134826799, 0.1259070570004, 0
1793, 0.26379375342523, -0.16885545766624, 0
1794, 0.21925241139918, -0.004680904396828, 0
1795, 0.13380467252444, 0.032883574317356, 0
1796, 0.37017376541597, 0.097541214053384, 0
1797, 0.3903890632243, 0.10122494444898, 0
1798, 0.41184466864112, 0.10392425502994, 0
1799, 0.43432886778548, 0.10499042707703, 0
1800, 0.45728256912022, 0.10404436105839, 0
1801, 0.48037092986095, 0.10245974279656, 0
1802, 0.56582011254301, 0.12884847477644, 0
1803, 0.54320952707063, 0.12286432231803, 0
1804, 0.52244333746296, 0.1121990125039, 0
1805, 0.50006918351587, 0.28321422550953, 0
1806, 0.49979263214749, 0.26663317627605, 0
1807, 0.49959531597989, 0.25025093830932, 0
1808, 0.49932608183049, 0.234015712518, 0
1809, 0.4988948222818, 0.21784637788048, 0
1810, 0.49826547520232, 0.20164161209099, 0
1811, 0.49746986570731, 0.18528463386428, 0
1812, 0.49664993122899, 0.16865823195156, 0
1813, 0.4961313500222, 0.15169061205075, 0
1814, 0.49648833554271, 0.13445043854748, 0
1815, 0.49849145392046, 0.11728067070884, 0
1816, 0.50320748015274, 0.10127485395634, 0
******* E L E M E N T S *************
*ELEMENT, type=T3D2, ELSET=Line1
1, 1, 10
2, 10, 22
3, 22, 11
4, 11, 23
5, 23, 12
6, 12, 24
7, 24, 13
8, 13, 25
9, 25, 14
10, 14, 26
11, 26, 15
12, 15, 27
13, 27, 16
14, 16, 28
15, 28, 17
16, 17, 29
17, 29, 18
18, 18, 30
19, 30, 19
20, 19, 31
21, 31, 20
22, 20, 32
23, 32, 21
24, 21, 2
*ELEMENT, type=T3D2, ELSET=Line2
25, 2, 33
26, 33, 37
27, 37, 34
28, 34, 38
29, 38, 35
30, 35, 39
31, 39, 36
32, 36, 3
*ELEMENT, type=T3D2, ELSET=Line3
33, 3, 40
34, 40, 52
35, 52, 41
36, 41, 53
37, 53, 42
38, 42, 54
39, 54, 43
40, 43, 55
41, 55, 44
42, 44, 56
43, 56, 45
44, 45, 57
45, 57, 46
46, 46, 58
47, 58, 47
48, 47, 59
49, 59, 48
50, 48, 60
51, 60, 49
52, 49, 61
53, 61, 50
54, 50, 62
55, 62, 51
56, 51, 4
*ELEMENT, type=T3D2, ELSET=Line4
57, 4, 63
58, 63, 79
59, 79, 77
60, 77, 80
61, 80, 76
62, 76, 81
63, 81, 75
64, 75, 82
65, 82, 74
66, 74, 83
67, 83, 73
68, 73, 84
69, 84, 72
70, 72, 85
71, 85, 71
72, 71, 86
73, 86, 70
74, 70, 87
75, 87, 69
76, 69, 88
77, 88, 68
78, 68, 89
79, 89, 67
80, 67, 90
81, 90, 66
82, 66, 91
83, 91, 65
84, 65, 92
85, 92, 64
86, 64, 93
87, 93, 78
88, 78, 5
*ELEMENT, type=T3D2, ELSET=Line5
89, 5, 94
90, 94, 106
91, 106, 95
92, 95, 107
93, 107, 96
94, 96, 108
95, 108, 97
96, 97, 109
97, 109, 98
98, 98, 110
99, 110, 99
100, 99, 111
101, 111, 100
102, 100, 112
103, 112, 101
104, 101, 113
105, 113, 102
106, 102, 114
107, 114, 103
108, 103, 115
109, 115, 104
110, 104, 116
111, 116, 105
112, 105, 6
*ELEMENT, type=T3D2, ELSET=Line6
113, 6, 117
114, 117, 121
115, 121, 118
116, 118, 122
117, 122, 119
118, 119, 123
119, 123, 120
120, 120, 7
*ELEMENT, type=T3D2, ELSET=Line7
121, 7, 124
122, 124, 136
123, 136, 125
124, 125, 137
125, 137, 126
126, 126, 138
127, 138, 127
128, 127, 139
129, 139, 128
130, 128, 140
131, 140, 129
132, 129, 141
133, 141, 130
134, 130, 142
135, 142, 131
136, 131, 143
137, 143, 132
138, 132, 144
139, 144, 133
140, 133, 145
141, 145, 134
142, 134, 146
143, 146, 135
144, 135, 8
*ELEMENT, type=T3D2, ELSET=Line8
145, 8, 147
146, 147, 163
147, 163, 161
148, 161, 164
149, 164, 160
150, 160, 165
151, 165, 159
152, 159, 166
153, 166, 158
154, 158, 167
155, 167, 157
156, 157, 168
157, 168, 156
158, 156, 169
159, 169, 155
160, 155, 170
161, 170, 154
162, 154, 171
163, 171, 153
164, 153, 172
165, 172, 152
166, 152, 173
167, 173, 151
168, 151, 174
169, 174, 150
170, 150, 175
171, 175, 149
172, 149, 176
173, 176, 148
174, 148, 177
175, 177, 162
176, 162, 1
*ELEMENT, type=T3D2, ELSET=Line9
177, 9, 178
178, 178, 205
179, 205, 203
180, 203, 206
181, 206, 202
182, 202, 207
183, 207, 201
184, 201, 208
185, 208, 200
186, 200, 209
187, 209, 199
188, 199, 210
189, 210, 198
190, 198, 211
191, 211, 197
192, 197, 212
193, 212, 196
194, 196, 213
195, 213, 195
196, 195, 214
197, 214, 194
198, 194, 215
199, 215, 193
200, 193, 216
201, 216, 192
202, 192, 217
203, 217, 191
204, 191, 218
205, 218, 190
206, 190, 219
207, 219, 189
208, 189, 220
209, 220, 188
210, 188, 221
211, 221, 187
212, 187, 222
213, 222, 186
214, 186, 223
215, 223, 185
216, 185, 224
217, 224, 184
218, 184, 225
219, 225, 183
220, 183, 226
221, 226, 182
222, 182, 227
223, 227, 181
224, 181, 228
225, 228, 180
226, 180, 229
227, 229, 179
228, 179, 230
229, 230, 204
230, 204, 9
*ELEMENT, type=CPS4, ELSET=Surface1
231, 1452, 1365, 985, 388
232, 392, 317, 1465, 416
233, 825, 979, 1514, 449
234, 964, 1535, 588, 1674
235, 875, 1512, 1660, 1073
236, 1737, 1736, 1654, 450
237, 617, 953, 1728, 1521
238, 1153, 149, 176, 1118
239, 1430, 190, 218, 1658
240, 1254, 393, 581, 636
241, 514, 1534, 513, 1499
242, 551, 672, 796, 505
243, 266, 480, 1248, 907
244, 654, 1101, 1476, 1279
245, 1354, 1268, 1293, 912
246, 658, 952, 991, 1020
247, 833, 1442, 341, 1170
248, 652, 1147, 1046, 1081
249, 1606, 892, 979, 825
250, 1102, 254, 1471, 497
251, 255, 1686, 1193, 265
252, 1738, 1737, 450, 1500
253, 931, 918, 1403, 1709
254, 385, 1256, 1436, 414
255, 1790, 1698, 1522, 853
256, 362, 658, 1020, 710
257, 944, 524, 828, 812
258, 1556, 822, 514, 1478
259, 862, 731, 1468, 769
260, 1479, 1260, 760, 566
261, 1014, 1555, 1515, 1158
262, 662, 1292, 1464, 554
263, 449, 1514, 1373, 480
264, 1375, 1251, 836, 553
265, 292, 676, 677, 675
266, 675, 677, 147, 163
267, 677, 135, 8, 147
268, 676, 146, 135, 677
269, 1711, 1035, 1229, 1573
270, 1141, 1579, 994, 1643
271, 1758, 1757, 1469, 273
272, 1759, 1758, 273, 892
273, 646, 1247, 558, 827
274, 1364, 112, 101, 683
275, 524, 758, 869, 828
276, 1444, 551, 505, 1546
277, 250, 799, 454, 1077
278, 1629, 1506, 488, 1483
279, 731, 489, 678, 1468
280, 814, 982, 1035, 1711
281, 827, 558, 1292, 662
282, 1064, 961, 519, 687
283, 1620, 559, 887, 885
284, 1193, 1158, 814, 819
285, 396, 1578, 657, 308
286, 1334, 436, 1356, 283
287, 479, 1560, 751, 696
288, 709, 334, 1224, 427
289, 601, 20, 32, 635
290, 778, 425, 421, 374
291, 917, 1051, 1123, 930
292, 315, 1188, 1350, 1720
293, 1541, 228, 181, 1215
294, 935, 460, 1479, 1113
295, 1564, 1620, 885, 758
296, 682, 532, 267, 1132
297, 903, 840, 1661, 523
298, 1619, 939, 1258, 1139
299, 261, 1532, 1385, 548
300, 536, 100, 112, 1364
301, 660, 328, 1107, 306
302, 948, 924, 923, 1088
303, 287, 786, 1595, 694
304, 1779, 882, 913, 713
305, 1816, 1306, 582, 1804
306, 1325, 717, 1310, 1701
307, 792, 237, 1693, 397
308, 1370, 904, 1702, 1547
309, 1724, 811, 1225, 1455
310, 577, 735, 988, 1705
311, 1225, 469, 1688, 478
312, 575, 733, 1659, 1275
313, 698, 1270, 1496, 1706
314, 904, 1504, 1625, 1702
315, 416, 1465, 298, 1780
316, 1332, 280, 242, 282
317, 1293, 950, 1530, 334
318, 593, 1516, 1264, 612
319, 435, 1007, 625, 867
320, 590, 311, 1301, 1585
321, 1404, 215, 194, 790
322, 643, 1770, 1492, 1167
323, 1713, 890, 1159, 711
324, 1130, 1450, 642, 1169
325, 433, 7, 124, 1712
326, 970, 437, 847, 1164
327, 1257, 1783, 1149, 750
328, 345, 743, 1615, 1197
329, 828, 869, 562, 1156
330, 1140, 1438, 1439, 1280
331, 1075, 1127, 1136, 269
332, 566, 760, 1527, 839
333, 104, 116, 811, 1724
334, 783, 1380, 873, 317
335, 116, 105, 715, 811
336, 1807, 1806, 808, 1045
337, 376, 1398, 1501, 1518
338, 744, 870, 1357, 1449
339, 394, 1083, 362, 241
340, 1523, 833, 1170, 996
341, 1500, 450, 446, 794
342, 1756, 1755, 607, 1392
343, 1506, 795, 1023, 488
344, 649, 679, 1637, 1368
345, 1188, 335, 1130, 1350
346, 748, 1523, 996, 1667
347, 1803, 1432, 1683, 1802
348, 1716, 639, 1788, 665
349, 1678, 1384, 1427, 697
350, 1465, 1503, 977, 298
351, 1448, 1517, 361, 1450
352, 1316, 1528, 1597, 1405
353, 1706, 1496, 345, 780
354, 798, 978, 1317, 722
355, 332, 793, 1544, 1337
356, 1804, 582, 1432, 1803
357, 373, 1153, 1118, 1423
358, 918, 379, 1353, 1403
359, 1604, 1203, 337, 328
360, 284, 1673, 365, 1401
361, 43, 1480, 772, 54
362, 1227, 1267, 613, 443
363, 1755, 1754, 692, 607
364, 934, 251, 701, 1700
365, 656, 249, 501, 264
366, 1640, 1132, 267, 1638
367, 1128, 560, 770, 942
368, 515, 1656, 995, 1463
369, 1536, 1540, 1038, 861
370, 1021, 106, 95, 1265
371, 527, 1531, 1376, 1095
372, 885, 887, 1511, 455
373, 39, 766, 767, 35
374, 35, 767, 764, 38
375, 767, 765, 243, 764
376, 766, 259, 765, 767
377, 799, 1364, 683, 454
378, 705, 1102, 497, 1526
379, 1744, 1743, 1613, 1558
380, 565, 615, 253, 517
381, 965, 774, 1208, 906
382, 488, 1023, 1620, 1564
383, 1290, 1184, 1141, 1138
384, 1467, 1536, 861, 878
385, 556, 589, 776, 262
386, 772, 777, 42, 54
387, 777, 775, 53, 42
388, 1530, 247, 888, 391
389, 1687, 353, 1071, 1351
390, 1585, 1301, 1614, 1086
391, 1596, 1773, 1497, 1029
392, 1694, 1205, 738, 1124
393, 1217, 576, 1000, 1243
394, 1412, 315, 1720, 280
395, 321, 1002, 1402, 729
396, 1295, 927, 610, 1219
397, 310, 418, 957, 1063
398, 665, 1788, 371, 1777
399, 1403, 1353, 343, 359
400, 1203, 1337, 1697, 337
401, 1367, 1567, 1776, 1093
402, 1816, 1815, 496, 1801
403, 1352, 130, 142, 1092
404, 1380, 1052, 1396, 873
405, 1682, 871, 1165, 952
406, 635, 32, 21, 849
407, 808, 971, 1056, 474
408, 55, 983, 1480, 43
409, 1740, 1739, 1021, 1074
410, 906, 1208, 447, 893
411, 1342, 1049, 1031, 1036
412, 1681, 969, 1120, 1502
413, 960, 1687, 1351, 415
414, 1051, 414, 1642, 1123
415, 842, 432, 955, 1581
416, 571, 261, 548, 1377
417, 685, 1112, 1372, 1126
418, 61, 794, 448, 49
419, 1363, 656, 264, 1369
420, 463, 801, 802, 800
421, 800, 802, 714, 465
422, 802, 103, 115, 714
423, 801, 114, 103, 802
424, 305, 583, 216, 193
425, 1365, 1028, 1441, 985
426, 1399, 378, 430, 1584
427, 1089, 700, 338, 1475
428, 1117, 1603, 1474, 883
429, 1650, 590, 1223, 872
430, 843, 493, 218, 191
431, 1588, 1545, 652, 1318
432, 1705, 988, 733, 575
433, 1234, 321, 729, 976
434, 1454, 478, 1453, 467
435, 1033, 529, 824, 458
436, 1439, 962, 680, 661
437, 1076, 1209, 536, 442
438, 1742, 1741, 1013, 1282
439, 1111, 879, 795, 1506
440, 818, 98, 110, 1037
441, 1251, 1533, 1609, 836
442, 440, 943, 813, 532
443, 741, 1022, 1231, 1559
444, 258, 1601, 1671, 462
445, 1749, 1748, 486, 1718
446, 272, 741, 1559, 615
447, 687, 519, 1493, 490
448, 739, 1558, 1069, 1612
449, 1732, 1731, 654, 980
450, 1035, 502, 512, 1229
451, 819, 814, 1711, 1579
452, 762, 462, 271, 816
453, 1372, 937, 1572, 868
454, 861, 1038, 1127, 1075
455, 704, 1113, 898, 1388
456, 1131, 827, 662, 648
457, 1573, 1229, 1717, 538
458, 874, 1621, 761, 945
459, 775, 832, 41, 53
460, 832, 830, 52, 41
461, 837, 1639, 1094, 1662
462, 1430, 1658, 721, 1666
463, 1000, 921, 288, 1106
464, 1728, 1145, 1399, 700
465, 361, 856, 400, 1308
466, 759, 684, 255, 939
467, 758, 885, 455, 869
468, 1628, 442, 799, 250
469, 755, 690, 879, 1111
470, 504, 1674, 268, 1341
471, 50, 1500, 794, 61
472, 1641, 1463, 862, 1135
473, 1373, 1368, 702, 732
474, 591, 1777, 1166, 1420
475, 323, 999, 10, 22
476, 641, 1108, 1097, 1300
477, 1489, 1198, 297, 804
478, 234, 845, 846, 844
479, 844, 846, 36, 3
480, 846, 766, 39, 36
481, 845, 259, 766, 846
482, 2, 848, 849, 21
483, 1070, 1679, 1722, 1433
484, 694, 1595, 919, 432
485, 848, 232, 847, 849
486, 346, 1383, 708, 618
487, 1524, 1332, 282, 834
488, 1397, 304, 381, 274
489, 723, 633, 905, 1550
490, 408, 598, 12, 24
491, 1088, 923, 1187, 1422
492, 1269, 986, 318, 737
493, 576, 1045, 921, 1000
494, 1459, 1073, 1630, 546
495, 1601, 555, 1047, 1671
496, 823, 909, 1629, 1048
497, 1656, 1140, 1280, 995
498, 307, 1024, 1408, 1789
499, 478, 1688, 1707, 1453
500, 1176, 1490, 1109, 383
501, 297, 1104, 406, 494
502, 37, 859, 860, 33
503, 33, 860, 848, 2
504, 860, 858, 232, 848
505, 859, 244, 858, 860
506, 256, 674, 557, 1537
507, 1292, 965, 906, 1464
508, 558, 877, 965, 1292
509, 1734, 1733, 940, 1580
510, 38, 764, 864, 34
511, 34, 864, 859, 37
512, 864, 863, 244, 859
513, 764, 243, 863, 864
514, 1052, 302, 792, 1396
515, 369, 1160, 1582, 405
516, 1421, 173, 151, 1122
517, 1063, 957, 1003, 393
518, 1623, 1670, 567, 1315
519, 1138, 1141, 1643, 1546
520, 1313, 1556, 1478, 460
521, 1066, 1662, 832, 775
522, 851, 933, 1294, 1005
523, 1122, 151, 174, 1593
524, 484, 1575, 1428, 1172
525, 1650, 1331, 220, 189
526, 48, 531, 605, 59
527, 855, 1651, 1173, 1652
528, 1013, 1074, 900, 690
529, 605, 1315, 440, 1186
530, 1743, 1742, 1282, 1613
531, 892, 273, 647, 979
532, 532, 813, 270, 267
533, 542, 1228, 936, 1508
534, 355, 1079, 1355, 1202
535, 659, 597, 1277, 312
536, 881, 676, 292, 880
537, 134, 146, 676, 881
538, 953, 1239, 1145, 1728
539, 365, 384, 473, 580
540, 1241, 634, 1238, 1692
541, 729, 1402, 346, 1060
542, 898, 566, 839, 568
543, 673, 1135, 1669, 1175
544, 518, 258, 462, 762
545, 1632, 1443, 527, 1533
546, 1650, 189, 219, 1236
547, 804, 297, 494, 1297
548, 1359, 1093, 1781, 1774
549, 1432, 210, 199, 1683
550, 1236, 219, 190, 1430
551, 348, 1081, 165, 159
552, 1055, 349, 1704, 1358
553, 1384, 1796, 286, 289
554, 886, 604, 1628, 603
555, 60, 1207, 531, 48
556, 647, 1362, 679, 649
557, 1074, 1021, 1265, 900
558, 251, 1636, 1312, 701
559, 830, 896, 40, 52
560, 896, 844, 3, 40
561, 895, 234, 844, 896
562, 265, 1193, 819, 1184
563, 1464, 906, 893, 1206
564, 1377, 548, 1192, 1284
565, 502, 1624, 1032, 512
566, 732, 702, 1619, 1470
567, 1467, 1374, 533, 757
568, 1207, 876, 1623, 531
569, 429, 1054, 15, 27
570, 1583, 1424, 1523, 748
571, 1300, 1097, 598, 408
572, 891, 1172, 1466, 1545
573, 1745, 1744, 1558, 739
574, 760, 570, 1641, 1527
575, 1034, 1640, 1638, 663
576, 1386, 229, 180, 587
577, 1422, 152, 173, 1421
578, 1516, 148, 177, 1264
579, 1800, 1400, 956, 1799
580, 1144, 784, 1783, 1257
581, 995, 1280, 489, 731
582, 836, 1609, 915, 1510
583, 603, 1628, 250, 854
584, 456, 1230, 740, 254
585, 999, 162, 1, 10
586, 1503, 841, 1694, 977
587, 1324, 929, 787, 1001
588, 572, 664, 1311, 1177
589, 1788, 636, 1201, 371
590, 1189, 287, 694, 1589
591, 351, 295, 1330, 350
592, 436, 420, 728, 1154
593, 1585, 1086, 368, 1695
594, 1789, 791, 917, 627
595, 382, 798, 722, 1091
596, 1093, 1776, 626, 1781
597, 430, 720, 28, 17
598, 1446, 1009, 1125, 1104
599, 1146, 377, 1009, 1446
600, 719, 408, 24, 13
601, 1387, 687, 490, 1289
602, 1280, 1439, 661, 489
603, 1094, 895, 896, 830
604, 897, 1470, 821, 774
605, 757, 533, 1444, 1576
606, 974, 631, 777, 772
607, 878, 1253, 1374, 1467
608, 56, 439, 1246, 44
609, 1103, 1067, 820, 1155
610, 1499, 513, 515, 570
611, 909, 1111, 1506, 1629
612, 254, 740, 487, 1471
613, 942, 770, 456, 894
614, 1392, 607, 817, 754
615, 824, 938, 555, 1601
616, 1065, 815, 1245, 1655
617, 1615, 1323, 1055, 1575
618, 693, 930, 1188, 315
619, 326, 710, 1098, 1592
620, 1161, 805, 375, 1054
621, 1794, 231, 1329, 993
622, 1330, 797, 698, 423
623, 866, 1608, 386, 398
624, 1159, 1561, 667, 1414
625, 237, 1235, 394, 1693
626, 873, 1396, 841, 1503
627, 1549, 1001, 1012, 933
628, 1574, 275, 1352, 1417
629, 1772, 709, 427, 246
630, 475, 1062, 1382, 1784
631, 865, 363, 302, 1052
632, 1447, 372, 634, 1241
633, 509, 835, 1512, 875
634, 563, 1155, 481, 1232
635, 458, 824, 1601, 258
636, 453, 109, 98, 818
637, 1315, 567, 943, 440
638, 691, 523, 1259, 461
639, 1753, 1752, 1556, 1313
640, 1112, 1612, 937, 1372
641, 806, 1106, 1234, 1099
642, 1381, 348, 159, 166
643, 1320, 1782, 749, 1110
644, 785, 834, 285, 278
645, 541, 516, 1386, 260
646, 1638, 267, 270, 1015
647, 663, 1638, 1015, 1531
648, 239, 323, 22, 11
649, 240, 1649, 169, 155
650, 1709, 1403, 359, 695
651, 1152, 1150, 949, 716
652, 674, 854, 981, 557
653, 1191, 1064, 687, 1387
654, 831, 1284, 204, 230
655, 1068, 1279, 1157, 459
656, 1174, 829, 773, 669
657, 769, 1468, 263, 1610
658, 528, 1128, 942, 521
659, 1739, 94, 106, 1021
660, 1722, 1505, 1687, 960
661, 318, 1010, 1607, 1200
662, 950, 697, 247, 1530
663, 791, 1520, 723, 1379
664, 1453, 1707, 1276, 1487
665, 1149, 1042, 277, 651
666, 380, 1298, 117, 121
667, 809, 1696, 1690, 579
668, 578, 1691, 1689, 209
669, 1816, 1618, 1226, 1306
670, 496, 1346, 1489, 1400
671, 1206, 893, 1133, 1312
672, 1624, 688, 508, 1032
673, 943, 257, 503, 813
674, 1246, 439, 1443, 1632
675, 1617, 1263, 753, 720
676, 651, 277, 1574, 1771
677, 1561, 788, 1335, 667
678, 722, 1317, 1053, 347
679, 1041, 380, 121, 118
680, 231, 284, 1401, 1329
681, 322, 1286, 929, 1324
682, 724, 389, 369, 1519
683, 749, 707, 1591, 1079
684, 333, 1026, 1698, 1790
685, 1180, 1715, 420, 329
686, 640, 1084, 1770, 643
687, 1404, 305, 193, 215
688, 1595, 807, 1680, 919
689, 921, 474, 1791, 288
690, 1171, 236, 367, 1685
691, 681, 113, 102, 1134
692, 257, 1174, 669, 503
693, 1445, 1233, 1653, 537
694, 763, 1635, 445, 1670
695, 696, 751, 1108, 641
696, 625, 392, 416, 1307
697, 1492, 853, 1649, 240
698, 737, 318, 1200, 363
699, 1746, 1745, 739, 525
700, 1754, 1753, 1313, 692
701, 1134, 102, 114, 801
702, 1621, 546, 1458, 761
703, 427, 1224, 1082, 1007
704, 1680, 727, 344, 725
705, 1383, 136, 125, 708
706, 418, 1440, 931, 957
707, 339, 370, 161, 164
708, 398, 386, 1442, 833
709, 1351, 1071, 1263, 1617
710, 1256, 476, 924, 948
711, 1733, 1732, 980, 940
712, 1031, 569, 507, 564
713, 1208, 855, 1652, 447
714, 938, 565, 517, 555
715, 1229, 512, 1513, 1717
716, 813, 503, 1535, 270
717, 756, 1131, 648, 670
718, 907, 1248, 897, 877
719, 890, 1413, 1561, 1159
720, 1020, 991, 1090, 431
721, 1107, 1347, 583, 305
722, 1299, 624, 196, 212
723, 726, 998, 1162, 1627
724, 1306, 1226, 197, 211
725, 325, 1708, 597, 659
726, 1644, 240, 155, 170
727, 1137, 1631, 1621, 874
728, 462, 1671, 540, 271
729, 1077, 454, 840, 903
730, 916, 107, 96, 815
731, 743, 390, 1323, 1615
732, 1396, 792, 397, 841
733, 1727, 423, 717, 1325
734, 419, 314, 1359, 633
735, 919, 1680, 725, 1194
736, 1423, 1118, 1516, 593
737, 299, 246, 435, 978
738, 582, 198, 210, 1432
739, 984, 274, 303, 781
740, 1650, 1236, 311, 590
741, 1197, 1615, 1575, 484
742, 925, 803, 279, 628
743, 552, 1598, 1228, 542
744, 1648, 946, 1128, 528
745, 1069, 500, 909, 823
746, 981, 1077, 903, 1288
747, 569, 459, 646, 507
748, 683, 101, 113, 681
749, 1600, 1483, 499, 1266
750, 1478, 514, 1499, 1260
751, 242, 1287, 927, 1295
752, 956, 804, 1297, 1204
753, 1142, 1087, 1161, 592
754, 306, 1404, 790, 1143
755, 1635, 564, 756, 445
756, 1032, 508, 1482, 686
757, 632, 1456, 1066, 631
758, 1210, 511, 674, 256
759, 1730, 1606, 825, 1101
760, 1291, 1605, 656, 1363
761, 45, 1034, 439, 56
762, 1468, 678, 655, 263
763, 1800, 1799, 332, 1366
764, 1525, 403, 574, 1004
765, 1618, 1044, 1604, 324
766, 1427, 1269, 737, 1119
767, 381, 138, 127, 1195
768, 1462, 659, 312, 1043
769, 1645, 1553, 1568, 352
770, 301, 1596, 1029, 1235
771, 926, 1221, 1548, 1344
772, 1088, 1422, 1421, 699
773, 331, 716, 390, 743
774, 385, 1550, 476, 1256
775, 1118, 176, 148, 1516
776, 1238, 719, 13, 25
777, 1196, 131, 143, 1726
778, 971, 119, 123, 1056
779, 991, 744, 1449, 1090
780, 304, 126, 138, 381
781, 418, 779, 276, 1440
782, 1557, 451, 1253, 878
783, 1252, 972, 1426, 1577
784, 1481, 1541, 1215, 1214
785, 972, 539, 1445, 1426
786, 353, 1378, 1142, 1071
787, 1773, 1414, 1594, 1497
788, 1195, 127, 139, 922
789, 634, 947, 719, 1238
790, 1661, 1134, 801, 463
791, 486, 550, 685, 706
792, 1175, 1669, 1565, 1425
793, 510, 538, 1498, 520
794, 405, 1582, 786, 287
795, 628, 279, 1461, 349
796, 1046, 339, 164, 160
797, 1106, 288, 321, 1234
798, 912, 1293, 334, 709
799, 1673, 1124, 384, 365
800, 294, 396, 308, 1413
801, 282, 242, 1295, 1216
802, 878, 861, 1075, 1557
803, 1067, 1288, 691, 820
804, 252, 1394, 668, 522
805, 539, 975, 1233, 1445
806, 9, 630, 1116, 178
807, 178, 1116, 595, 205
808, 1116, 1115, 534, 595
809, 630, 235, 1115, 1116
810, 1235, 1029, 1083, 394
811, 293, 120, 7, 433
812, 289, 286, 1418, 712
813, 1563, 1320, 1110, 379
814, 1097, 291, 300, 598
815, 1308, 400, 1429, 316
816, 633, 1359, 1774, 905
817, 797, 644, 1270, 698
818, 1592, 1098, 351, 752
819, 389, 1319, 1160, 369
820, 1618, 324, 1299, 1226
821, 401, 1423, 593, 1190
822, 1248, 732, 1470, 897
823, 1532, 963, 1252, 1385
824, 521, 942, 894, 899
825, 838, 1036, 1635, 763
826, 1205, 1787, 1148, 738
827, 1098, 431, 295, 351
828, 1647, 976, 1249, 1684
829, 1522, 388, 1178, 413
830, 455, 1511, 1394, 252
831, 1515, 1175, 1425, 982
832, 1281, 974, 1096, 1375
833, 887, 453, 818, 1511
834, 678, 1291, 1363, 655
835, 1599, 1227, 443, 961
836, 459, 1157, 1247, 646
837, 1260, 1499, 570, 760
838, 607, 692, 935, 817
839, 589, 826, 703, 776
840, 602, 606, 1267, 1227
841, 770, 816, 1230, 456
842, 1237, 1447, 1241, 805
843, 1560, 316, 914, 751
844, 930, 1123, 335, 1188
845, 295, 1586, 797, 1330
846, 790, 194, 214, 195
847, 1323, 628, 349, 1055
848, 1328, 1321, 1058, 1151
849, 1431, 806, 1099, 1321
850, 976, 729, 1060, 1249
851, 1681, 1502, 998, 726
852, 1030, 1433, 1239, 953
853, 245, 785, 278, 932
854, 968, 696, 641, 364
855, 993, 1329, 1222, 884
856, 718, 484, 1172, 891
857, 639, 1254, 636, 1788
858, 1721, 944, 812, 249
859, 1513, 686, 561, 946
860, 513, 1114, 1656, 515
861, 730, 568, 1014, 1686
862, 1715, 1151, 728, 420
863, 1666, 721, 358, 336
864, 283, 1356, 1285, 1010
865, 1366, 332, 1337, 1203
866, 232, 1163, 1164, 847
867, 375, 1692, 14, 26
868, 1475, 338, 18, 30
869, 1163, 407, 1162, 1164
870, 341, 884, 1316, 1725
871, 611, 650, 158, 167
872, 664, 643, 1167, 1311
873, 1405, 1597, 1554, 330
874, 495, 1152, 716, 331
875, 1408, 352, 419, 1520
876, 959, 601, 635, 437
877, 717, 1706, 780, 1310
878, 447, 1652, 796, 1283
879, 571, 553, 908, 261
880, 531, 1623, 1315, 605
881, 564, 507, 1131, 756
882, 581, 1302, 1793, 342
883, 746, 1590, 304, 1397
884, 1007, 1082, 392, 625
885, 1009, 354, 1431, 1125
886, 1502, 958, 970, 998
887, 612, 1264, 999, 323
888, 1242, 405, 287, 1189
889, 1544, 1324, 1001, 1549
890, 491, 1182, 1183, 1181
891, 1181, 1183, 200, 208
892, 1183, 578, 209, 200
893, 1182, 492, 578, 1183
894, 1284, 1192, 9, 204
895, 59, 605, 1186, 47
896, 439, 1034, 663, 1443
897, 1579, 1711, 1573, 994
898, 350, 1330, 423, 1727
899, 601, 383, 31, 20
900, 1665, 1587, 154, 171
901, 1809, 426, 616, 1808
902, 977, 1694, 1124, 1673
903, 1816, 1801, 1044, 1618
904, 1552, 1197, 484, 718
905, 324, 1604, 328, 660
906, 1611, 1718, 771, 1534
907, 937, 823, 1048, 1572
908, 249, 812, 966, 501
909, 253, 1210, 256, 606
910, 415, 1351, 1617, 378
911, 1044, 1366, 1203, 1604
912, 1008, 665, 1777, 591
913, 1219, 610, 372, 1447
914, 1224, 391, 783, 1082
915, 434, 1525, 1004, 1795
916, 1236, 1430, 1666, 311
917, 1147, 1685, 339, 1046
918, 1812, 1811, 377, 1146
919, 1004, 574, 1121, 1019
920, 1704, 810, 881, 880
921, 1417, 1352, 1092, 653
922, 1186, 440, 532, 682
923, 1558, 1613, 500, 1069
924, 454, 683, 681, 840
925, 445, 756, 670, 1393
926, 443, 613, 563, 438
927, 448, 1622, 876, 1207
928, 795, 1065, 1655, 1023
929, 680, 902, 1721, 1605
930, 498, 1212, 1213, 1211
931, 1211, 1213, 201, 207
932, 1213, 1181, 208, 201
933, 1212, 491, 1181, 1213
934, 268, 941, 1636, 251
935, 1214, 1215, 620, 545
936, 1215, 181, 227, 620
937, 1376, 964, 1674, 504
938, 1123, 1642, 1448, 335
939, 328, 337, 1347, 1107
940, 236, 880, 292, 367
941, 1407, 248, 1030, 1562
942, 928, 912, 709, 1772
943, 1776, 599, 1220, 626
944, 1693, 394, 241, 1787
945, 947, 1300, 408, 719
946, 786, 1701, 807, 1595
947, 1720, 1350, 782, 1287
948, 1685, 367, 370, 339
949, 425, 1592, 752, 421
950, 1406, 1144, 1257, 871
951, 1810, 1809, 1217, 1460
952, 115, 104, 1724, 714
953, 992, 1454, 467, 464
954, 1127, 899, 705, 1136
955, 1651, 1290, 1138, 1173
956, 562, 252, 522, 530
957, 902, 1266, 944, 1721
958, 503, 669, 588, 1535
959, 982, 1425, 502, 1035
960, 837, 452, 1481, 1639
961, 850, 129, 141, 275
962, 803, 132, 144, 279
963, 1226, 1299, 212, 197
964, 327, 889, 1684, 637
965, 1200, 1607, 301, 319
966, 1086, 1614, 382, 1778
967, 241, 362, 710, 326
968, 1587, 1644, 170, 154
969, 1806, 1551, 1041, 1805
970, 1222, 1244, 1050, 1528
971, 1490, 1089, 1475, 1109
972, 711, 1159, 1414, 1773
973, 954, 1668, 1237, 1087
974, 1223, 1695, 1716, 1027
975, 1566, 1725, 404, 1553
976, 1160, 1727, 1325, 1582
977, 1151, 1058, 889, 728
978, 417, 666, 890, 1713
979, 653, 1092, 1196, 1150
980, 1255, 1078, 470, 1042
981, 1572, 1048, 1600, 526
982, 522, 668, 1076, 604
983, 1023, 1655, 559, 1620
984, 555, 517, 602, 1047
985, 327, 637, 294, 666
986, 957, 931, 1709, 1003
987, 1584, 430, 17, 29
988, 700, 1399, 1584, 338
989, 672, 703, 1283, 796
990, 553, 836, 1510, 908
991, 1674, 588, 941, 268
992, 403, 1519, 1242, 574
993, 1791, 293, 433, 1002
994, 302, 319, 237, 792
995, 290, 1563, 379, 918
996, 949, 1726, 803, 925
997, 1347, 851, 1005, 583
998, 1586, 745, 644, 797
999, 642, 1308, 316, 1560
1000, 550, 525, 1112, 685
1001, 526, 1600, 1266, 902
1002, 1282, 1013, 690, 755
1003, 1565, 1610, 688, 1624
1004, 815, 96, 108, 1245
1005, 980, 654, 1279, 1068
1006, 1266, 499, 524, 944
1007, 713, 913, 1153, 373
1008, 1355, 1412, 280, 1332
1009, 872, 1786, 1221, 926
1010, 1593, 174, 150, 882
1011, 874, 945, 975, 539
1012, 1576, 1444, 1546, 1643
1013, 794, 446, 1622, 448
1014, 1654, 1507, 1342, 689
1015, 1296, 1249, 1060, 920
1016, 1634, 1581, 1365, 1452
1017, 1129, 395, 1490, 1176
1018, 1302, 695, 412, 1793
1019, 424, 1273, 1274, 1271
1020, 1271, 1274, 185, 223
1021, 1274, 1272, 224, 185
1022, 1273, 422, 1272, 1274
1023, 371, 1201, 248, 1407
1024, 1277, 469, 715, 1395
1025, 464, 467, 477, 987
1026, 1664, 1663, 1729, 1326
1027, 1369, 264, 547, 1072
1028, 540, 1599, 961, 1064
1029, 1425, 1565, 1624, 502
1030, 754, 817, 704, 457
1031, 57, 1640, 1034, 45
1032, 668, 1314, 1209, 1076
1033, 62, 1738, 1500, 50
1034, 1393, 670, 1174, 257
1035, 908, 1510, 671, 549
1036, 1741, 1740, 1074, 1013
1037, 655, 1363, 1369, 1477
1038, 1113, 1479, 566, 898
1039, 1059, 1420, 969, 1681
1040, 1002, 433, 1712, 1402
1041, 1633, 866, 398, 1424
1042, 707, 627, 693, 1591
1043, 826, 1133, 1283, 703
1044, 1598, 1458, 506, 1228
1045, 835, 1341, 934, 1512
1046, 1511, 818, 1037, 1394
1047, 927, 1039, 968, 610
1048, 592, 1161, 1054, 429
1049, 644, 1080, 495, 1270
1050, 1178, 1529, 157, 168
1051, 1400, 1489, 804, 956
1052, 1318, 652, 1081, 348
1053, 1782, 997, 1024, 307
1054, 1460, 1217, 1243, 354
1055, 888, 865, 1052, 1380
1056, 279, 144, 133, 1461
1057, 871, 1257, 750, 1165
1058, 1043, 312, 1298, 380
1059, 487, 1289, 1305, 1303
1060, 1303, 1305, 1182, 491
1061, 1305, 1304, 492, 1182
1062, 1289, 490, 1304, 1305
1063, 1797, 1322, 286, 1796
1064, 1783, 1255, 1042, 1149
1065, 368, 238, 1254, 639
1066, 1642, 366, 1517, 1448
1067, 574, 1242, 1189, 1121
1068, 923, 428, 313, 1187
1069, 1172, 1428, 1171, 1466
1070, 1039, 479, 696, 968
1071, 446, 689, 838, 1622
1072, 1637, 1185, 684, 759
1073, 1049, 901, 569, 1031
1074, 1185, 1388, 730, 684
1075, 1155, 820, 1261, 481
1076, 559, 1100, 453, 887
1077, 1760, 1759, 892, 1606
1078, 1158, 1515, 982, 814
1079, 426, 883, 1085, 616
1080, 400, 713, 373, 1429
1081, 1108, 1657, 291, 1097
1082, 1451, 1562, 617, 1011
1083, 309, 1117, 883, 426
1084, 650, 1381, 166, 158
1085, 1395, 715, 105, 6
1086, 810, 145, 134, 881
1087, 1150, 1196, 1726, 949
1088, 402, 653, 1150, 1152
1089, 1726, 143, 132, 803
1090, 1799, 1798, 793, 332
1091, 364, 641, 1300, 947
1092, 393, 1003, 1302, 581
1093, 306, 1107, 305, 1404
1094, 288, 1791, 1002, 321
1095, 482, 857, 577, 1485
1096, 990, 1276, 1707, 1708
1097, 1357, 1771, 1336, 747
1098, 579, 1690, 1488, 989
1099, 1701, 1310, 387, 807
1100, 432, 919, 1194, 955
1101, 782, 1169, 479, 1039
1102, 1378, 954, 1087, 1142
1103, 1356, 417, 1713, 1285
1104, 780, 345, 1197, 1552
1105, 1775, 1333, 785, 245
1106, 1221, 1370, 1547, 1548
1107, 997, 1437, 1645, 1024
1108, 1306, 211, 198, 582
1109, 742, 640, 643, 664
1110, 1334, 329, 420, 436
1111, 409, 1339, 1340, 1338
1112, 1338, 1340, 1272, 422
1113, 585, 1616, 1570, 411
1114, 224, 1272, 1340, 1391
1115, 1022, 530, 886, 1231
1116, 1135, 862, 769, 1669
1117, 946, 561, 560, 1128
1118, 1612, 1069, 823, 937
1119, 725, 344, 1588, 1677
1120, 188, 1345, 1343, 221
1121, 1345, 1344, 424, 1343
1122, 590, 1585, 1695, 1223
1123, 377, 1460, 354, 1009
1124, 1440, 276, 1583, 290
1125, 1354, 1017, 787, 1268
1126, 1050, 1025, 1525, 434
1127, 206, 594, 1349, 202
1128, 202, 1349, 1211, 207
1129, 1349, 1348, 498, 1211
1130, 594, 534, 1348, 1349
1131, 712, 1418, 329, 1334
1132, 1154, 327, 666, 417
1133, 1504, 726, 1627, 1625
1134, 1805, 1041, 118, 122
1135, 1698, 1452, 388, 1522
1136, 573, 1682, 952, 658
1137, 414, 1436, 366, 1642
1138, 1296, 920, 1578, 396
1139, 281, 1019, 1062, 475
1140, 1124, 738, 778, 384
1141, 238, 1063, 393, 1254
1142, 312, 1277, 1395, 1298
1143, 1801, 496, 1400, 1800
1144, 1384, 289, 1269, 1427
1145, 600, 842, 1581, 1634
1146, 920, 618, 746, 1578
1147, 465, 992, 1361, 800
1148, 800, 1361, 1259, 463
1149, 1361, 1360, 461, 1259
1150, 992, 464, 1360, 1361
1151, 44, 1246, 983, 55
1152, 606, 256, 1537, 1267
1153, 706, 685, 1126, 1278
1154, 1314, 99, 111, 1209
1155, 1125, 1431, 1321, 1328
1156, 1190, 593, 612, 629
1157, 1216, 1295, 1219, 1668
1158, 468, 1589, 842, 600
1159, 839, 1527, 673, 1555
1160, 1371, 1206, 1312, 1636
1161, 264, 501, 272, 547
1162, 1231, 886, 603, 511
1163, 911, 1780, 231, 1794
1164, 428, 1177, 1665, 313
1165, 1683, 199, 209, 1689
1166, 1436, 356, 376, 366
1167, 1670, 445, 1393, 567
1168, 1463, 995, 731, 862
1169, 1136, 705, 1526, 535
1170, 511, 603, 854, 674
1171, 567, 1393, 257, 943
1172, 893, 447, 1283, 1133
1173, 879, 441, 1065, 795
1174, 525, 739, 1612, 1112
1175, 1577, 1426, 1542, 235
1176, 1341, 268, 251, 934
1177, 452, 587, 1541, 1481
1178, 1426, 1445, 537, 1542
1179, 1603, 1326, 990, 1474
1180, 289, 712, 986, 1269
1181, 978, 435, 867, 1317
1182, 914, 401, 1190, 1657
1183, 1697, 1549, 933, 851
1184, 1029, 1497, 573, 1083
1185, 1608, 911, 1794, 386
1186, 1814, 1813, 340, 1346
1187, 1750, 1749, 1718, 1611
1188, 820, 691, 461, 1261
1189, 648, 662, 554, 829
1190, 679, 457, 1185, 1637
1191, 221, 1343, 1389, 187
1192, 187, 1389, 186, 222
1193, 1389, 1271, 223, 186
1194, 1343, 424, 1271, 1389
1195, 411, 1570, 1571, 1415
1196, 1390, 1409, 1411, 1410
1197, 1391, 1340, 1339, 609
1198, 1710, 410, 226, 183
1199, 1534, 771, 1114, 513
1200, 520, 1498, 1540, 1536
1201, 47, 1186, 682, 58
1202, 1610, 263, 444, 688
1203, 597, 1688, 469, 1277
1204, 1607, 1168, 1596, 301
1205, 1487, 1276, 1729, 1646
1206, 383, 1109, 19, 31
1207, 1321, 1099, 1647, 1058
1208, 1679, 852, 1505, 1722
1209, 1437, 1566, 1553, 1645
1210, 358, 1772, 246, 299
1211, 1614, 638, 798, 382
1212, 712, 1334, 283, 986
1213, 1442, 993, 884, 341
1214, 932, 278, 1378, 353
1215, 320, 591, 1420, 1059
1216, 1078, 128, 140, 470
1217, 1550, 905, 623, 476
1218, 660, 306, 1143, 624
1219, 247, 1119, 865, 888
1220, 1018, 281, 475, 599
1221, 610, 968, 364, 372
1222, 471, 922, 1078, 1255
1223, 244, 1410, 1411, 858
1224, 858, 1411, 1163, 232
1225, 1411, 1409, 407, 1163
1226, 544, 609, 1339, 1672
1227, 473, 374, 724, 1785
1228, 1650, 872, 926, 1331
1229, 1154, 728, 889, 327
1230, 278, 285, 954, 1378
1231, 807, 387, 727, 1680
1232, 1353, 355, 1202, 343
1233, 1379, 723, 1550, 385
1234, 470, 140, 129, 850
1235, 543, 619, 1416, 1415
1236, 1390, 544, 1672, 1409
1237, 184, 224, 1391, 608
1238, 619, 227, 182, 1416
1239, 476, 623, 1419, 924
1240, 1327, 1309, 1381, 650
1241, 986, 283, 1010, 318
1242, 1301, 336, 638, 1614
1243, 388, 985, 1529, 1178
1244, 1011, 617, 1521, 395
1245, 1519, 369, 405, 1242
1246, 1563, 748, 1667, 1320
1247, 1336, 1417, 653, 402
1248, 1787, 241, 326, 1148
1249, 1424, 398, 833, 1523
1250, 727, 718, 891, 344
1251, 1202, 1355, 1332, 1524
1252, 1350, 1130, 1169, 782
1253, 338, 1584, 29, 18
1254, 1307, 416, 1780, 911
1255, 1576, 510, 520, 757
1256, 561, 518, 762, 560
1257, 966, 1156, 1022, 741
1258, 1228, 506, 262, 936
1259, 1358, 1704, 880, 236
1260, 959, 1176, 383, 601
1261, 1545, 1466, 1147, 652
1262, 1168, 711, 1773, 1596
1263, 1083, 573, 658, 362
1264, 340, 1146, 1446, 1198
1265, 1025, 1785, 403, 1525
1266, 324, 660, 624, 1299
1267, 464, 987, 1435, 1360
1268, 1360, 1435, 1261, 461
1269, 1435, 1434, 481, 1261
1270, 987, 482, 1434, 1435
1271, 359, 343, 1333, 1775
1272, 616, 1085, 1462, 1199
1273, 367, 292, 675, 370
1274, 1501, 1593, 882, 1779
1275, 1613, 1282, 755, 500
1276, 1508, 936, 1262, 973
1277, 1126, 1372, 868, 1438
1278, 523, 1661, 463, 1259
1279, 307, 1789, 627, 707
1280, 1071, 1142, 592, 1263
1281, 374, 421, 389, 724
1282, 1056, 123, 120, 293
1283, 614, 831, 516, 541
1284, 1374, 1508, 973, 533
1285, 1662, 1094, 830, 832
1286, 1457, 875, 1073, 1459
1287, 1081, 1046, 160, 165
1288, 387, 1552, 718, 727
1289, 1166, 1407, 1562, 1451
1290, 344, 891, 1545, 1588
1291, 1311, 1167, 1644, 1587
1292, 1145, 415, 378, 1399
1293, 1054, 375, 26, 15
1294, 629, 612, 323, 239
1295, 1780, 298, 284, 231
1296, 477, 1487, 1646, 857
1297, 1402, 1712, 1383, 346
1298, 1084, 333, 1790, 1770
1299, 1233, 975, 552, 451
1300, 533, 973, 551, 1444
1301, 49, 448, 1207, 60
1302, 939, 255, 265, 1258
1303, 1660, 1700, 589, 556
1304, 1531, 1015, 964, 1376
1305, 784, 471, 1255, 1783
1306, 300, 239, 11, 23
1307, 922, 139, 128, 1078
1308, 1310, 780, 1552, 387
1309, 812, 828, 1156, 966
1310, 451, 552, 542, 1253
1311, 1630, 556, 262, 506
1312, 1527, 1641, 1135, 673
1313, 1678, 1286, 1796, 1384
1314, 310, 1091, 779, 418
1315, 626, 1220, 1084, 640
1316, 920, 1060, 346, 618
1317, 1156, 562, 530, 1022
1318, 961, 443, 438, 519
1319, 1101, 825, 449, 1476
1320, 498, 1472, 1473, 1212
1321, 1212, 1473, 1303, 491
1322, 1473, 1471, 487, 1303
1323, 1472, 497, 1471, 1473
1324, 1090, 1449, 745, 1586
1325, 645, 1678, 697, 950
1326, 1422, 1187, 172, 152
1327, 834, 282, 1216, 285
1328, 684, 730, 1686, 255
1329, 702, 759, 939, 1619
1330, 570, 515, 1463, 1641
1331, 1368, 1637, 759, 702
1332, 1096, 768, 1251, 1375
1333, 1385, 1252, 1577, 967
1334, 670, 648, 829, 1174
1335, 1736, 1735, 1507, 1654
1336, 661, 680, 1605, 1291
1337, 901, 1068, 459, 569
1338, 689, 1342, 1036, 838
1339, 1631, 1459, 546, 1621
1340, 485, 1232, 1486, 1484
1341, 1484, 1486, 1485, 483
1342, 1486, 1434, 482, 1485
1343, 1232, 481, 1434, 1486
1344, 747, 1336, 402, 1080
1345, 596, 734, 233, 622
1346, 494, 406, 1715, 1180
1347, 1807, 1199, 1551, 1806
1348, 1268, 787, 929, 645
1349, 1562, 1030, 953, 617
1350, 913, 175, 149, 1153
1351, 474, 1056, 293, 1791
1352, 485, 1484, 1495, 1493
1353, 1493, 1495, 1304, 490
1354, 1495, 1494, 492, 1304
1355, 1484, 483, 1494, 1495
1356, 1346, 340, 1198, 1489
1357, 1379, 385, 414, 1051
1358, 1019, 1121, 468, 1062
1359, 1778, 382, 1091, 310
1360, 1555, 673, 1175, 1515
1361, 1483, 488, 1564, 499
1362, 1038, 521, 899, 1127
1363, 1512, 934, 1700, 1660
1364, 905, 1774, 910, 623
1365, 1120, 1011, 395, 1129
1366, 695, 359, 1775, 412
1367, 1220, 1784, 333, 1084
1368, 354, 1243, 806, 1431
1369, 1087, 1237, 805, 1161
1370, 1517, 1518, 856, 361
1371, 1026, 1634, 1452, 1698
1372, 501, 966, 741, 272
1373, 979, 647, 649, 1514
1374, 58, 682, 1132, 46
1375, 530, 522, 604, 886
1376, 994, 1573, 538, 510
1377, 568, 839, 1555, 1014
1378, 771, 706, 1278, 1114
1379, 1580, 940, 901, 1049
1380, 517, 253, 606, 602
1381, 854, 250, 1077, 981
1382, 1482, 458, 258, 518
1383, 876, 763, 1670, 1623
1384, 317, 873, 1503, 1465
1385, 856, 1779, 713, 400
1386, 363, 1200, 319, 302
1387, 276, 1633, 1424, 1583
1388, 841, 397, 1205, 1694
1389, 1692, 1238, 25, 14
1390, 852, 245, 932, 1505
1391, 1793, 412, 852, 1679
1392, 1597, 434, 1795, 1554
1393, 1797, 1796, 1286, 322
1394, 1148, 326, 1592, 425
1395, 291, 629, 239, 300
1396, 1100, 97, 109, 453
1397, 1139, 1258, 1290, 1651
1398, 773, 1371, 1636, 941
1399, 671, 509, 875, 1457
1400, 1268, 645, 950, 1293
1401, 1520, 419, 633, 723
1402, 637, 1684, 1249, 1296
1403, 1320, 1667, 997, 1782
1404, 457, 704, 1388, 1185
1405, 512, 1032, 686, 1513
1406, 701, 1312, 1133, 826
1407, 899, 894, 1102, 705
1408, 1037, 110, 99, 1314
1409, 686, 1482, 518, 561
1410, 1470, 1619, 1139, 821
1411, 1278, 1126, 1438, 1140
1412, 498, 1348, 1539, 1472
1413, 1472, 1539, 1526, 497
1414, 1539, 1538, 535, 1526
1415, 1348, 534, 1538, 1539
1416, 587, 180, 228, 1541
1417, 516, 179, 229, 1386
1418, 983, 1246, 1632, 768
1419, 235, 1542, 1543, 1115
1420, 1115, 1543, 1538, 534
1421, 1543, 1509, 535, 1538
1422, 1542, 537, 1509, 1543
1423, 1239, 960, 415, 1145
1424, 1658, 218, 493, 789
1425, 598, 300, 23, 12
1426, 1505, 932, 353, 1687
1427, 1700, 701, 826, 589
1428, 1540, 528, 521, 1038
1429, 1157, 266, 907, 1247
1430, 499, 1564, 758, 524
1431, 884, 1222, 1528, 1316
1432, 421, 752, 1319, 389
1433, 1548, 1273, 424, 1344
1434, 1547, 422, 1273, 1548
1435, 721, 928, 1772, 358
1436, 1012, 1017, 493, 843
1437, 580, 473, 1785, 1025
1438, 1589, 694, 432, 842
1439, 1086, 1778, 238, 368
1440, 1497, 1594, 1682, 573
1441, 716, 949, 925, 390
1442, 372, 364, 947, 634
1443, 500, 755, 1111, 909
1444, 546, 1630, 506, 1458
1445, 690, 900, 441, 879
1446, 1469, 1392, 754, 1362
1447, 1731, 1730, 1101, 654
1448, 1288, 903, 523, 691
1449, 894, 456, 254, 1102
1450, 549, 671, 1457, 1703
1451, 1658, 789, 928, 721
1452, 1786, 1027, 1008, 951
1453, 1789, 1408, 1520, 791
1454, 1003, 1709, 695, 1302
1455, 599, 475, 1784, 1220
1456, 1169, 642, 1560, 479
1457, 955, 1194, 1057, 1028
1458, 1005, 1294, 217, 192
1459, 46, 1132, 1640, 57
1460, 604, 1076, 442, 1628
1461, 1173, 1138, 1546, 505
1462, 489, 661, 1291, 678
1463, 330, 1554, 1018, 1567
1464, 1082, 783, 317, 392
1465, 1244, 580, 1025, 1050
1466, 952, 1165, 744, 991
1467, 585, 1710, 584, 1719
1468, 1415, 1571, 1569, 543
1469, 1571, 765, 259, 1569
1470, 1570, 243, 765, 1571
1471, 1394, 1037, 1314, 668
1472, 450, 1654, 689, 446
1473, 632, 541, 260, 1456
1474, 1622, 838, 763, 876
1475, 337, 1697, 851, 1347
1476, 347, 1053, 866, 1633
1477, 951, 320, 904, 1370
1478, 1806, 1805, 971, 808
1479, 1686, 1014, 1158, 1193
1480, 548, 1385, 967, 1192
1481, 1747, 1746, 525, 550
1482, 613, 1103, 1155, 563
1483, 1319, 350, 1727, 1160
1484, 583, 1005, 192, 216
1485, 1777, 371, 1407, 1166
1486, 1798, 1797, 322, 793
1487, 740, 1387, 1289, 487
1488, 945, 761, 1458, 1598
1489, 1559, 1231, 511, 1210
1490, 840, 681, 1134, 1661
1491, 996, 1170, 1566, 1437
1492, 1331, 1345, 188, 220
1493, 1053, 399, 1608, 866
1494, 1256, 948, 356, 1436
1495, 1028, 1057, 1327, 1441
1496, 467, 1453, 1487, 477
1497, 1771, 1574, 1417, 1336
1498, 483, 1705, 575, 1494
1499, 1024, 1645, 352, 1408
1500, 1529, 611, 167, 157
1501, 1270, 495, 331, 1496
1502, 1329, 1401, 1244, 1222
1503, 1167, 1492, 240, 1644
1504, 1695, 368, 639, 1716
1505, 1335, 781, 784, 1144
1506, 1811, 1810, 1460, 377
1507, 311, 1666, 336, 1301
1508, 998, 970, 1164, 1162
1509, 924, 1419, 428, 923
1510, 277, 850, 275, 1574
1511, 1170, 341, 1725, 1566
1512, 397, 1693, 1787, 1205
1513, 697, 1427, 1119, 247
1514, 958, 959, 437, 970
1515, 1240, 1180, 329, 1418
1516, 390, 925, 628, 1323
1517, 1591, 693, 315, 1412
1518, 423, 698, 1706, 717
1519, 1413, 308, 788, 1561
1520, 645, 929, 1286, 1678
1521, 657, 1397, 274, 984
1522, 352, 1568, 314, 419
1523, 1667, 996, 1437, 997
1524, 1322, 1240, 1418, 286
1525, 319, 301, 1235, 237
1526, 1429, 373, 1423, 401
1527, 1073, 1660, 556, 1630
1528, 963, 1137, 972, 1252
1529, 1456, 837, 1662, 1066
1530, 940, 980, 1068, 901
1531, 261, 908, 549, 1532
1532, 1072, 547, 565, 938
1533, 560, 762, 816, 770
1534, 1677, 1588, 1318, 1309
1535, 316, 1429, 401, 914
1536, 638, 299, 978, 798
1537, 290, 1583, 748, 1563
1538, 1114, 1278, 1140, 1656
1539, 438, 563, 1232, 485
1540, 538, 1717, 1648, 1498
1541, 757, 520, 1536, 1467
1542, 1449, 1357, 747, 745
1543, 431, 1090, 1586, 295
1544, 412, 1775, 245, 852
1545, 399, 1307, 911, 1608
1546, 444, 1477, 529, 1033
1547, 1498, 1648, 528, 1540
1548, 1209, 111, 100, 536
1549, 1477, 1369, 1072, 529
1550, 1757, 1756, 1392, 1469
1551, 1476, 449, 480, 266
1552, 1605, 1721, 249, 656
1553, 1507, 1580, 1049, 1342
1554, 1042, 470, 850, 277
1555, 243, 1570, 1616, 863
1556, 863, 1616, 1410, 244
1557, 584, 225, 184, 608
1558, 585, 411, 410, 1710
1559, 1518, 1501, 1779, 856
1560, 867, 625, 1307, 399
1561, 1725, 1316, 1405, 404
1562, 1095, 1376, 504, 1016
1563, 1279, 1476, 266, 1157
1564, 1752, 1751, 822, 1556
1565, 1653, 1233, 451, 1557
1566, 692, 1313, 460, 935
1567, 688, 444, 1033, 508
1568, 1245, 108, 97, 1100
1569, 631, 1066, 775, 777
1570, 407, 1626, 1627, 1162
1571, 789, 1354, 912, 928
1572, 1080, 402, 1152, 495
1573, 1626, 409, 1625, 1627
1574, 554, 1464, 1206, 1371
1575, 1639, 1481, 1214, 1676
1576, 1735, 1734, 1580, 1507
1577, 868, 1572, 526, 962
1578, 915, 1016, 835, 509
1579, 1192, 967, 630, 9
1580, 974, 772, 1480, 1096
1581, 1609, 1095, 1016, 915
1582, 708, 125, 137, 1590
1583, 406, 1328, 1151, 1715
1584, 1317, 867, 399, 1053
1585, 1059, 1681, 726, 1504
1586, 1554, 1795, 281, 1018
1587, 1187, 313, 153, 172
1588, 1433, 1722, 960, 1239
1589, 349, 1461, 810, 1704
1590, 1443, 663, 1531, 527
1591, 1047, 602, 1227, 1599
1592, 271, 540, 1064, 1191
1593, 1748, 1747, 550, 486
1594, 821, 1139, 1651, 855
1595, 817, 935, 1113, 704
1596, 963, 1703, 1631, 1137
1597, 1388, 898, 568, 730
1598, 936, 262, 776, 1262
1599, 973, 1262, 672, 551
1600, 1510, 915, 509, 671
1601, 1036, 1031, 564, 1635
1602, 273, 1469, 1362, 647
1603, 1718, 486, 706, 771
1604, 962, 526, 902, 680
1605, 636, 581, 342, 1201
1606, 1774, 1781, 742, 910
1607, 1575, 1055, 1358, 1428
1608, 1805, 122, 119, 971
1609, 669, 773, 941, 588
1610, 507, 646, 827, 1131
1611, 441, 916, 815, 1065
1612, 442, 536, 1364, 799
1613, 752, 351, 350, 1319
1614, 275, 141, 130, 1352
1615, 1590, 137, 126, 304
1616, 1712, 124, 136, 1383
1617, 793, 322, 1324, 1544
1618, 313, 1665, 171, 153
1619, 1104, 1125, 1328, 406
1620, 1079, 1591, 1412, 1355
1621, 1480, 983, 768, 1096
1622, 1438, 868, 962, 1439
1623, 1137, 874, 539, 972
1624, 1533, 527, 1095, 1609
1625, 1551, 1043, 380, 1041
1626, 1401, 365, 580, 1244
1627, 618, 708, 1590, 746
1628, 1264, 177, 162, 999
1629, 460, 1478, 1260, 1479
1630, 1362, 754, 457, 679
1631, 1048, 1629, 1483, 1600
1632, 1281, 614, 541, 632
1633, 557, 981, 1288, 1067
1634, 519, 438, 485, 1493
1635, 1247, 907, 877, 558
1636, 1652, 1173, 505, 796
1637, 816, 271, 1191, 1230
1638, 1230, 1191, 1387, 740
1639, 1717, 1513, 946, 1648
1640, 1669, 769, 1610, 1565
1641, 1557, 1075, 269, 1653
1642, 1281, 632, 631, 974
1643, 508, 1033, 458, 1482
1644, 1751, 1750, 1611, 822
1645, 985, 1441, 611, 1529
1646, 781, 303, 471, 784
1647, 248, 1070, 1433, 1030
1648, 882, 150, 175, 913
1649, 1085, 325, 659, 1462
1650, 988, 1488, 1690, 733
1651, 1808, 1807, 1045, 576
1652, 1455, 1225, 478, 1454
1653, 1761, 1760, 1606, 1730
1654, 547, 272, 615, 565
1655, 1653, 269, 1509, 537
1656, 774, 821, 855, 1208
1657, 831, 230, 179, 516
1658, 492, 1275, 1691, 578
1659, 1428, 1358, 236, 1171
1660, 298, 977, 1673, 284
1661, 1275, 1659, 596, 1691
1662, 791, 1379, 1051, 917
1663, 1795, 1004, 1019, 281
1664, 1398, 1122, 1593, 1501
1665, 1382, 600, 1634, 1026
1666, 805, 1241, 1692, 375
1667, 666, 294, 1413, 890
1668, 1671, 1047, 1599, 540
1669, 1655, 1245, 1100, 559
1670, 263, 655, 1477, 444
1671, 1184, 819, 1579, 1141
1672, 1456, 260, 452, 837
1673, 822, 1611, 1534, 514
1674, 1281, 1375, 553, 571
1675, 409, 1626, 1672, 1339
1676, 585, 1719, 544, 1390
1677, 1719, 586, 609, 544
1678, 1626, 407, 1409, 1672
1679, 1781, 626, 640, 742
1680, 667, 1335, 1144, 1406
1681, 1333, 1524, 834, 785
1682, 366, 376, 1518, 1517
1683, 1532, 549, 1703, 963
1684, 967, 1577, 235, 630
1685, 1676, 1675, 234, 895
1686, 1214, 545, 1675, 1676
1687, 1496, 331, 743, 345
1688, 1058, 1647, 1684, 889
1689, 870, 651, 1771, 1357
1690, 466, 330, 1567, 1367
1691, 314, 1367, 1093, 1359
1692, 320, 1059, 1504, 904
1693, 1799, 956, 1204, 1798
1694, 308, 657, 984, 788
1695, 853, 1522, 413, 1649
1696, 1581, 955, 1028, 1365
1697, 951, 1008, 591, 320
1698, 745, 747, 1080, 644
1699, 1198, 1446, 1104, 297
1700, 624, 1143, 213, 196
1701, 1815, 1814, 1346, 496
1702, 1177, 1311, 1587, 1665
1703, 1441, 1327, 650, 611
1704, 1143, 790, 195, 213
1705, 1668, 1219, 1447, 1237
1706, 1528, 1050, 434, 1597
1707, 615, 1559, 1210, 253
1708, 1514, 649, 1368, 1373
1709, 1267, 1537, 1103, 613
1710, 1265, 95, 107, 916
1711, 1553, 404, 466, 1568
1712, 1165, 750, 870, 744
1713, 1243, 1000, 1106, 806
1714, 1414, 667, 1406, 1594
1715, 1099, 1234, 976, 1647
1716, 811, 715, 469, 1225
1717, 1297, 494, 1180, 1240
1718, 1494, 575, 1275, 492
1719, 1521, 1728, 700, 1089
1720, 1691, 596, 622, 1689
1721, 1485, 577, 1705, 483
1722, 779, 347, 1633, 276
1723, 1813, 1812, 1146, 340
1724, 1594, 1406, 871, 1682
1725, 1785, 724, 1519, 403
1726, 246, 427, 1007, 435
1727, 378, 1617, 720, 430
1728, 1466, 1171, 1685, 1147
1729, 436, 1154, 417, 1356
1730, 280, 1720, 1287, 242
1731, 933, 1012, 843, 1294
1732, 285, 1216, 1668, 954
1733, 1092, 142, 131, 1196
1734, 714, 1724, 1455, 465
1735, 733, 1690, 1696, 1659
1736, 465, 1455, 1454, 992
1737, 1045, 808, 474, 921
1738, 1057, 1677, 1309, 1327
1739, 1582, 1325, 1701, 786
1740, 1027, 1716, 665, 1008
1741, 750, 1149, 651, 870
1742, 259, 845, 1699, 1569
1743, 1569, 1699, 621, 543
1744, 1699, 1675, 545, 621
1745, 845, 234, 1675, 1699
1746, 1281, 571, 1377, 614
1747, 768, 1632, 1533, 1251
1748, 1016, 504, 1341, 835
1749, 987, 477, 857, 482
1750, 1337, 1544, 1549, 1697
1751, 1298, 1395, 6, 117
1752, 735, 1663, 1488, 988
1753, 738, 1148, 425, 778
1754, 335, 1448, 1450, 1130
1755, 1702, 1338, 422, 1547
1756, 1625, 409, 1338, 1702
1757, 1639, 1676, 895, 1094
1758, 975, 945, 1598, 552
1759, 1262, 776, 703, 672
1760, 260, 1386, 587, 452
1761, 274, 381, 1195, 303
1762, 883, 1474, 325, 1085
1763, 1110, 749, 1079, 355
1764, 1502, 1120, 1129, 958
1765, 1287, 782, 1039, 927
1766, 1199, 1462, 1043, 1551
1767, 1809, 1808, 576, 1217
1768, 1567, 1018, 599, 1776
1769, 699, 1421, 1122, 1398
1770, 637, 1296, 396, 294
1771, 1194, 725, 1677, 1057
1772, 1201, 342, 1070, 248
1773, 1659, 1696, 734, 596
1774, 233, 734, 1696, 809
1775, 989, 1488, 1663, 1664
1776, 1326, 1729, 1276, 990
1777, 857, 1646, 735, 577
1778, 1657, 1190, 629, 291
1779, 1331, 926, 1344, 1345
1780, 1778, 310, 1063, 238
1781, 411, 1415, 1416, 410
1782, 608, 1391, 609, 586
1783, 1719, 584, 608, 586
1784, 1643, 994, 510, 1576
1785, 1537, 557, 1067, 1103
1786, 614, 1377, 1284, 831
1787, 1798, 1204, 1322, 1797
1788, 1263, 592, 429, 753
1789, 1119, 737, 363, 865
1790, 1808, 616, 1199, 1807
1791, 386, 1794, 993, 1442
1792, 720, 753, 16, 28
1793, 205, 595, 1714, 203
1794, 203, 1714, 594, 206
1795, 595, 534, 594, 1714
1796, 334, 1530, 391, 1224
1797, 1708, 1707, 1688, 597
1798, 958, 1129, 1176, 959
1799, 1770, 1790, 853, 1492
1800, 710, 1020, 431, 1098
1801, 336, 358, 299, 638
1802, 829, 554, 1371, 773
1803, 529, 1072, 938, 824
1804, 869, 455, 252, 562
1805, 1762, 1761, 1730, 1731
1806, 1258, 265, 1184, 1290
1807, 480, 1373, 732, 1248
1808, 585, 1390, 1410, 1616
1809, 410, 1416, 182, 226
1810, 1710, 183, 225, 584
1811, 1784, 1382, 1026, 333
1812, 910, 742, 664, 572
1813, 1810, 309, 426, 1809
1814, 269, 1136, 535, 1509
1815, 877, 897, 774, 965
1816, 900, 1265, 916, 441
1817, 1474, 990, 1708, 325
1818, 1419, 572, 1177, 428
1819, 1001, 787, 1017, 1012
1820, 543, 621, 1723, 619
1821, 619, 1723, 620, 227
1822, 621, 545, 620, 1723
1823, 303, 1195, 922, 471
1824, 1204, 1297, 1240, 1322
1825, 1801, 1800, 1366, 1044
1826, 623, 910, 572, 1419
1827, 1109, 1475, 30, 19
1828, 1285, 1713, 711, 1168
1829, 1294, 843, 191, 217
1830, 391, 888, 1380, 783
1831, 1802, 1683, 1689, 622
1832, 1015, 270, 1535, 964
1833, 1703, 1457, 1459, 1631
1834, 1253, 542, 1508, 1374
1835, 1782, 307, 707, 749
1836, 1010, 1285, 1168, 1607
1837, 1062, 468, 600, 1382
1838, 872, 1223, 1027, 1786
1839, 343, 1202, 1524, 1333
1840, 413, 1178, 168, 156
1841, 437, 635, 849, 847
1842, 1646, 1729, 1663, 735
1843, 1461, 133, 145, 810
1844, 1763, 1762, 1731, 1732
1845, 1764, 1763, 1732, 1733
1846, 1765, 1764, 1733, 1734
1847, 1766, 1765, 1734, 1735
1848, 1767, 1766, 1735, 1736
1849, 1768, 1767, 1736, 1737
1850, 1769, 1768, 1737, 1738
1851, 51, 1769, 1738, 62
1852, 78, 5, 94, 1739
1853, 93, 78, 1739, 1740
1854, 64, 93, 1740, 1741
1855, 92, 64, 1741, 1742
1856, 65, 92, 1742, 1743
1857, 91, 65, 1743, 1744
1858, 66, 91, 1744, 1745
1859, 90, 66, 1745, 1746
1860, 67, 90, 1746, 1747
1861, 89, 67, 1747, 1748
1862, 68, 89, 1748, 1749
1863, 88, 68, 1749, 1750
1864, 69, 88, 1750, 1751
1865, 87, 69, 1751, 1752
1866, 70, 87, 1752, 1753
1867, 86, 70, 1753, 1754
1868, 71, 86, 1754, 1755
1869, 85, 71, 1755, 1756
1870, 72, 85, 1756, 1757
1871, 84, 72, 1757, 1758
1872, 73, 84, 1758, 1759
1873, 83, 73, 1759, 1760
1874, 74, 83, 1760, 1761
1875, 82, 74, 1761, 1762
1876, 75, 82, 1762, 1763
1877, 81, 75, 1763, 1764
1878, 76, 81, 1764, 1765
1879, 80, 76, 1765, 1766
1880, 77, 80, 1766, 1767
1881, 79, 77, 1767, 1768
1882, 63, 79, 1768, 1769
1883, 4, 63, 1769, 51
1884, 342, 1793, 1679, 1070
1885, 404, 1405, 330, 466
1886, 1121, 1189, 1589, 468
1887, 789, 493, 1017, 1354
1888, 1420, 1166, 1451, 969
1889, 379, 1110, 355, 1353
1890, 1578, 746, 1397, 657
1891, 356, 699, 1398, 376
1892, 1649, 413, 156, 169
1893, 788, 984, 781, 1335
1894, 753, 429, 27, 16
1895, 1309, 1318, 348, 1381
1896, 751, 914, 1657, 1108
1897, 384, 778, 374, 473
1898, 1568, 466, 1367, 314
1899, 969, 1451, 1011, 1120
1900, 395, 1521, 1089, 1490
1901, 370, 675, 163, 161
1902, 1440, 290, 918, 931
1903, 1786, 951, 1370, 1221
1904, 1091, 722, 347, 779
1905, 627, 917, 930, 693
1906, 948, 1088, 699, 356
1907, 1450, 361, 1308, 642
1908, 1061, 1664, 1326, 1603
1909, 1491, 1061, 1603, 1117
1910, 1040, 1491, 1117, 309
1911, 1811, 1040, 309, 1810
1912, 1179, 989, 1664, 1061
1913, 736, 1179, 1061, 1491
1914, 1250, 736, 1491, 1040
1915, 1812, 1250, 1040, 1811
1916, 357, 579, 989, 1179
1917, 296, 357, 1179, 736
1918, 1602, 296, 736, 1250
1919, 1813, 1602, 1250, 1812
1920, 1218, 809, 579, 357
1921, 472, 1218, 357, 296
1922, 1006, 472, 296, 1602
1923, 1814, 1006, 1602, 1813
1924, 360, 233, 809, 1218
1925, 1105, 360, 1218, 472
1926, 1792, 1105, 472, 1006
1927, 1815, 1792, 1006, 1814
1928, 1802, 622, 233, 360
1929, 1803, 1802, 360, 1105
1930, 1804, 1803, 1105, 1792
1931, 1816, 1804, 1792, 1815
*ELSET,ELSET=contact_source
145, 146, 147, 148, 149, 150, 151, 152, 153, 154, 
155, 156, 157, 158, 159, 160, 161, 162, 163, 164, 
165, 166, 167, 168, 169, 170, 171, 172, 173, 174, 
175, 176, 
*ELSET,ELSET=contact_drain
57, 58, 59, 60, 61, 62, 63, 64, 65, 66, 
67, 68, 69, 70, 71, 72, 73, 74, 75, 76, 
77, 78, 79, 80, 81, 82, 83, 84, 85, 86, 
87, 88, 
*ELSET,ELSET=probe_A
113, 114, 115, 116, 117, 118, 119, 120, 
*ELSET,ELSET=probe_B
25, 26, 27, 28, 29, 30, 31, 32, 
*ELSET,ELSET=walls
1, 2, 3, 4, 5, 6, 7, 8, 9, 10, 
11, 12, 13, 14, 15, 16, 17, 18, 19, 20, 
21, 22, 23, 24, 33, 34, 35, 36, 37, 38, 
39, 40, 41, 42, 43, 44, 45, 46, 47, 48, 
49, 50, 51, 52, 53, 54, 55, 56, 89, 90, 
91, 92, 93, 94, 95, 96, 97, 98, 99, 100, 
101, 102, 103, 104, 105, 106, 107, 108, 109, 110, 
111, 112, 121, 122, 123, 124, 125, 126, 127, 128, 
129, 130, 131, 132, 133, 134, 135, 136, 137, 138, 
139, 140, 141, 142, 143, 144, 177, 178, 179, 180, 
181, 182, 183, 184, 185, 186, 187, 188, 189, 190, 
191, 192, 193, 194, 195, 196, 197, 198, 199, 200, 
201, 202, 203, 204, 205, 206, 207, 208, 209, 210, 
211, 212, 213, 214, 215, 216, 217, 218, 219, 220, 
221, 222, 223, 224, 225, 226, 227, 228, 229, 230, 
*ELSET,ELSET=domain
231, 232, 233, 234, 235, 236, 237, 238, 239, 240, 
241, 242, 243, 244, 245, 246, 247, 248, 249, 250, 
251, 252, 253, 254, 255, 256, 257, 258, 259, 260, 
261, 262, 263, 264, 265, 266, 267, 268, 269, 270, 
271, 272, 273, 274, 275, 276, 277, 278, 279, 280, 
281, 282, 283, 284, 285, 286, 287, 288, 289, 290, 
291, 292, 293, 294, 295, 296, 297, 298, 299, 300, 
301, 302, 303, 304, 305, 306, 307, 308, 309, 310, 
311, 312, 313, 314, 315, 316, 317, 318, 319, 320, 
321, 322, 323, 324, 325, 326, 327, 328, 329, 330, 
331, 332, 333, 334, 335, 336, 337, 338, 339, 340, 
341, 342, 343, 344, 345, 346, 347, 348, 349, 350, 
351, 352, 353, 354, 355, 356, 357, 358, 359, 360, 
361, 362, 363, 364, 365, 366, 367, 368, 369, 370, 
371, 372, 373, 374, 375, 376, 377, 378, 379, 380, 
381, 382, 383, 384, 385, 386, 387, 388, 389, 390, 
391, 392, 393, 394, 395, 396, 397, 398, 399, 400, 
401, 402, 403, 404, 405, 406, 407, 408, 409, 410, 
411, 412, 413, 414, 415, 416, 417, 418, 419, 420, 
421, 422, 423, 424, 425, 426, 427, 428, 429, 430, 
431, 432, 433, 434, 435, 436, 437, 438, 439, 440, 
441, 442, 443, 444, 445, 446, 447, 448, 449, 450, 
451, 452, 453, 454, 455, 456, 457, 458, 459, 460, 
461, 462, 463, 464, 465, 466, 467, 468, 469, 470, 
471, 472, 473, 474, 475, 476, 477, 478, 479, 480, 
481, 482, 483, 484, 485, 486, 487, 488, 489, 490, 
491, 492, 493, 494, 495, 496, 497, 498, 499, 500, 
501, 502, 503, 504, 505, 506, 507, 508, 509, 510, 
511, 512, 513, 514, 515, 516, 517, 518, 519, 520, 
521, 522, 523, 524, 525, 526, 527, 528, 529, 530, 
531, 532, 533, 534, 535, 536, 537, 538, 539, 540, 
541, 542, 543, 544, 545, 546, 547, 548, 549, 550, 
551, 552, 553, 554, 555, 556, 557, 558, 559, 560, 
561, 562, 563, 564, 565, 566, 567, 568, 569, 570, 
571, 572, 573, 574, 575, 576, 577, 578, 579, 580, 
581, 582, 583, 584, 585, 586, 587, 588, 589, 590, 
591, 592, 593, 594, 595, 596, 597, 598, 599, 600, 
601, 602, 603, 604, 605, 606, 607, 608, 609, 610, 
611, 612, 613, 614, 615, 616, 617, 618, 619, 620, 
621, 622, 623, 624, 625, 626, 627, 628, 629, 630, 
631, 632, 633, 634, 635, 636, 637, 638, 639, 640, 
641, 642, 643, 644, 645, 646, 647, 648, 649, 650, 
651, 652, 653, 654, 655, 656, 657, 658, 659, 660, 
661, 662, 663, 664, 665, 666, 667, 668, 669, 670, 
671, 672, 673, 674, 675, 676, 677, 678, 679, 680, 
681, 682, 683, 684, 685, 686, 687, 688, 689, 690, 
691, 692, 693, 694, 695, 696, 697, 698, 699, 700, 
701, 702, 703, 704, 705, 706, 707, 708, 709, 710, 
711, 712, 713, 714, 715, 716, 717, 718, 719, 720, 
721, 722, 723, 724, 725, 726, 727, 728, 729, 730, 
731, 732, 733, 734, 735, 736, 737, 738, 739, 740, 
741, 742, 743, 744, 745, 746, 747, 748, 749, 750, 
751, 752, 753, 754, 755, 756, 757, 758, 759, 760, 
761, 762, 763, 764, 765, 766, 767, 768, 769, 770, 
771, 772, 773, 774, 775, 776, 777, 778, 779, 780, 
781, 782, 783, 784, 785, 786, 787, 788, 789, 790, 
791, 792, 793, 794, 795, 796, 797, 798, 799, 800, 
801, 802, 803, 804, 805, 806, 807, 808, 809, 810, 
811, 812, 813, 814, 815, 816, 817, 818, 819, 820, 
821, 822, 823, 824, 825, 826, 827, 828, 829, 830, 
831, 832, 833, 834, 835, 836, 837, 838, 839, 840, 
841, 842, 843, 844, 845, 846, 847, 848, 849, 850, 
851, 852, 853, 854, 855, 856, 857, 858, 859, 860, 
861, 862, 863, 864, 865, 866, 867, 868, 869, 870, 
871, 872, 873, 874, 875, 876, 877, 878, 879, 880, 
881, 882, 883, 884, 885, 886, 887, 888, 889, 890, 
891, 892, 893, 894, 895, 896, 897, 898, 899, 900, 
901, 902, 903, 904, 905, 906, 907, 908, 909, 910, 
911, 912, 913, 914, 915, 916, 917, 918, 919, 920, 
921, 922, 923, 924, 925, 926, 927, 928, 929, 930, 
931, 932, 933, 934, 935, 936, 937, 938, 939, 940, 
941, 942, 943, 944, 945, 946, 947, 948, 949, 950, 
951, 952, 953, 954, 955, 956, 957, 958, 959, 960, 
961, 962, 963, 964, 965, 966, 967, 968, 969, 970, 
971, 972, 973, 974, 975, 976, 977, 978, 979, 980, 
981, 982, 983, 984, 985, 986, 987, 988, 989, 990, 
991, 992, 993, 994, 995, 996, 997, 998, 999, 1000, 
1001, 1002, 1003, 1004, 1005, 1006, 1007, 1008, 1009, 1010, 
1011, 1012, 1013, 1014, 1015, 1016, 1017, 1018, 1019, 1020, 
1021, 1022, 1023, 1024, 1025, 1026, 1027, 1028, 1029, 1030, 
1031, 1032, 1033, 1034, 1035, 1036, 1037, 1038, 1039, 1040, 
1041, 1042, 1043, 1044, 1045, 1046, 1047, 1048, 1049, 1050, 
1051, 1052, 1053, 1054, 1055, 1056, 1057, 1058, 1059, 1060, 
1061, 1062, 1063, 1064, 1065, 1066, 1067, 1068, 1069, 1070, 
1071, 1072, 1073, 1074, 1075, 1076, 1077, 1078, 1079, 1080, 
1081, 1082, 1083, 1084, 1085, 1086, 1087, 1088, 1089, 1090, 
1091, 1092, 1093, 1094, 1095, 1096, 1097, 1098, 1099, 1100, 
1101, 1102, 1103, 1104, 1105, 1106, 1107, 1108, 1109, 1110, 
1111, 1112, 1113, 1114, 1115, 1116, 1117, 1118, 1119, 1120, 
1121, 1122, 1123, 1124, 1125, 1126, 1127, 1128, 1129, 1130, 
1131, 1132, 1133, 1134, 1135, 1136, 1137, 1138, 1139, 1140, 
1141, 1142, 1143, 1144, 1145, 1146, 1147, 1148, 1149, 1150, 
1151, 1152, 1153, 1154, 1155, 1156, 1157, 1158, 1159, 1160, 
1161, 1162, 1163, 1164, 1165, 1166, 1167, 1168, 1169, 1170, 
1171, 1172, 1173, 1174, 1175, 1176, 1177, 1178, 1179, 1180, 
1181, 1182, 1183, 1184, 1185, 1186, 1187, 1188, 1189, 1190, 
1191, 1192, 1193, 1194, 1195, 1196, 1197, 1198, 1199, 1200, 
1201, 1202, 1203, 1204, 1205, 1206, 1207, 1208, 1209, 1210, 
1211, 1212, 1213, 1214, 1215, 1216, 1217, 1218, 1219, 1220, 
1221, 1222, 1223, 1224, 1225, 1226, 1227, 1228, 1229, 1230, 
1231, 1232, 1233, 1234, 1235, 1236, 1237, 1238, 1239, 1240, 
1241, 1242, 1243, 1244, 1245, 1246, 1247, 1248, 1249, 1250, 
1251, 1252, 1253, 1254, 1255, 1256, 1257, 1258, 1259, 1260, 
1261, 1262, 1263, 1264, 1265, 1266, 1267, 1268, 1269, 1270, 
1271, 1272, 1273, 1274, 1275, 1276, 1277, 1278, 1279, 1280, 
1281, 1282, 1283, 1284, 1285, 1286, 1287, 1288, 1289, 1290, 
1291, 1292, 1293, 1294, 1295, 1296, 1297, 1298, 1299, 1300, 
1301, 1302, 1303, 1304, 1305, 1306, 1307, 1308, 1309, 1310, 
1311, 1312, 1313, 1314, 1315, 1316, 1317, 1318, 1319, 1320, 
1321, 1322, 1323, 1324, 1325, 1326, 1327, 1328, 1329, 1330, 
1331, 1332, 1333, 1334, 1335, 1336, 1337, 1338, 1339, 1340, 
1341, 1342, 1343, 1344, 1345, 1346, 1347, 1348, 1349, 1350, 
1351, 1352, 1353, 1354, 1355, 1356, 1357, 1358, 1359, 1360, 
1361, 1362, 1363, 1364, 1365, 1366, 1367, 1368, 1369, 1370, 
1371, 1372, 1373, 1374, 1375, 1376, 1377, 1378, 1379, 1380, 
1381, 1382, 1383, 1384, 1385, 1386, 1387, 1388, 1389, 1390, 
1391, 1392, 1393, 1394, 1395, 1396, 1397, 1398, 1399, 1400, 
1401, 1402, 1403, 1404, 1405, 1406, 1407, 1408, 1409, 1410, 
1411, 1412, 1413, 1414, 1415, 1416, 1417, 1418, 1419, 1420, 
1421, 1422, 1423, 1424, 1425, 1426, 1427, 1428, 1429, 1430, 
1431, 1432, 1433, 1434, 1435, 1436, 1437, 1438, 1439, 1440, 
1441, 1442, 1443, 1444, 1445, 1446, 1447, 1448, 1449, 1450, 
1451, 1452, 1453, 1454, 1455, 1456, 1457, 1458, 1459, 1460, 
1461, 1462, 1463, 1464, 1465, 1466, 1467, 1468, 1469, 1470, 
1471, 1472, 1473, 1474, 1475, 1476, 1477, 1478, 1479, 1480, 
1481, 1482, 1483, 1484, 1485, 1486, 1487, 1488, 1489, 1490, 
1491, 1492, 1493, 1494, 1495, 1496, 1497, 1498, 1499, 1500, 
1501, 1502, 1503, 1504, 1505, 1506, 1507, 1508, 1509, 1510, 
1511, 1512, 1513, 1514, 1515, 1516, 1517, 1518, 1519, 1520, 
1521, 1522, 1523, 1524, 1525, 1526, 1527, 1528, 1529, 1530, 
1531, 1532, 1533, 1534, 1535, 1536, 1537, 1538, 1539, 1540, 
1541, 1542, 1543, 1544, 1545, 1546, 1547, 1548, 1549, 1550, 
1551, 1552, 1553, 1554, 1555, 1556, 1557, 1558, 1559, 1560, 
1561, 1562, 1563, 1564, 1565, 1566, 1567, 1568, 1569, 1570, 
1571, 1572, 1573, 1574, 1575, 1576, 1577, 1578, 1579, 1580, 
1581, 1582, 1583, 1584, 1585, 1586, 1587, 1588, 1589, 1590, 
1591, 1592, 1593, 1594, 1595, 1596, 1597, 1598, 1599, 1600, 
1601, 1602, 1603, 1604, 1605, 1606, 1607, 1608, 1609, 1610, 
1611, 1612, 1613, 1614, 1615, 1616, 1617, 1618, 1619, 1620, 
1621, 1622, 1623, 1624, 1625, 1626, 1627, 1628, 1629, 1630, 
1631, 1632, 1633, 1634, 1635, 1636, 1637, 1638, 1639, 1640, 
1641, 1642, 1643, 1644, 1645, 1646, 1647, 1648, 1649, 1650, 
1651, 1652, 1653, 1654, 1655, 1656, 1657, 1658, 1659, 1660, 
1661, 1662, 1663, 1664, 1665, 1666, 1667, 1668, 1669, 1670, 
1671, 1672, 1673, 1674, 1675, 1676, 1677, 1678, 1679, 1680, 
1681, 1682, 1683, 1684, 1685, 1686, 1687, 1688, 1689, 1690, 
1691, 1692, 1693, 1694, 1695, 1696, 1697, 1698, 1699, 1700, 
1701, 1702, 1703, 1704, 1705, 1706, 1707, 1708, 1709, 1710, 
1711, 1712, 1713, 1714, 1715, 1716, 1717, 1718, 1719, 1720, 
1721, 1722, 1723, 1724, 1725, 1726, 1727, 1728, 1729, 1730, 
1731, 1732, 1733, 1734, 1735, 1736, 1737, 1738, 1739, 1740, 
1741, 1742, 1743, 1744, 1745, 1746, 1747, 1748, 1749, 1750, 
1751, 1752, 1753, 1754, 1755, 1756, 1757, 1758, 1759, 1760, 
1761, 1762, 1763, 1764, 1765, 1766, 1767, 1768, 1769, 1770, 
1771, 1772, 1773, 1774, 1775, 1776, 1777, 1778, 1779, 1780, 
1781, 1782, 1783, 1784, 1785, 1786, 1787, 1788, 1789, 1790, 
1791, 1792, 1793, 1794, 1795, 1796, 1797, 1798, 1799, 1800, 
1801, 1802, 1803, 1804, 1805, 1806, 1807, 1808, 1809, 1810, 
1811, 1812, 1813, 1814, 1815, 1816, 1817, 1818, 1819, 1820, 
1821, 1822, 1823, 1824, 1825, 1826, 1827, 1828, 1829, 1830, 
1831, 1832, 1833, 1834, 1835, 1836, 1837, 1838, 1839, 1840, 
1841, 1842, 1843, 1844, 1845, 1846, 1847, 1848, 1849, 1850, 
1851, 1852, 1853, 1854, 1855, 1856, 1857, 1858, 1859, 1860, 
1861, 1862, 1863, 1864, 1865, 1866, 1867, 1868, 1869, 1870, 
1871, 1872, 1873, 1874, 1875, 1876, 1877, 1878, 1879, 1880, 
1881, 1882, 1883, 1884, 1885, 1886, 1887, 1888, 1889, 1890, 
1891, 1892, 1893, 1894, 1895, 1896, 1897, 1898, 1899, 1900, 
1901, 1902, 1903, 1904, 1905, 1906, 1907, 1908, 1909, 1910, 
1911, 1912, 1913, 1914, 1915, 1916, 1917, 1918, 1919, 1920, 
1921, 1922, 1923, 1924, 1925, 1926, 1927, 1928, 1929, 1930, 
1931, 
*NSET,NSET=contact_source
1, 8, 147, 148, 149, 150, 151, 152, 153, 154, 
155, 156, 157, 158, 159, 160, 161, 162, 163, 164, 
165, 166, 167, 168, 169, 170, 171, 172, 173, 174, 
175, 176, 177, 
*NSET,NSET=contact_drain
4, 5, 63, 64, 65, 66, 67, 68, 69, 70, 
71, 72, 73, 74, 75, 76, 77, 78, 79, 80, 
81, 82, 83, 84, 85, 86, 87, 88, 89, 90, 
91, 92, 93, 
*NSET,NSET=probe_A
6, 7, 117, 118, 119, 120, 121, 122, 123, 
*NSET,NSET=probe_B
2, 3, 33, 34, 35, 36, 37, 38, 39, 
*NSET,NSET=walls
1, 2, 3, 4, 5, 6, 7, 8, 9, 10, 
11, 12, 13, 14, 15, 16, 17, 18, 19, 20, 
21, 22, 23, 24, 25, 26, 27, 28, 29, 30, 
31, 32, 40, 41, 42, 43, 44, 45, 46, 47, 
48, 49, 50, 51, 52, 53, 54, 55, 56, 57, 
58, 59, 60, 61, 62, 94, 95, 96, 97, 98, 
99, 100, 101, 102, 103, 104, 105, 106, 107, 108, 
109, 110, 111, 112, 113, 114, 115, 116, 124, 125, 
126, 127, 128, 129, 130, 131, 132, 133, 134, 135, 
136, 137, 138, 139, 140, 141, 142, 143, 144, 145, 
146, 178, 179, 180, 181, 182, 183, 184, 185, 186, 
187, 188, 189, 190, 191, 192, 193, 194, 195, 196, 
197, 198, 199, 200, 201, 202, 203, 204, 205, 206, 
207, 208, 209, 210, 211, 212, 213, 214, 215, 216, 
217, 218, 219, 220, 221, 222, 223, 224, 225, 226, 
227, 228, 229, 230, 
*NSET,NSET=domain
1, 2, 3, 4, 5, 6, 7, 8, 9, 10, 
11, 12, 13, 14, 15, 16, 17, 18, 19, 20, 
21, 22, 23, 24, 25, 26, 27, 28, 29, 30, 
31, 32, 33, 34, 35, 36, 37, 38, 39, 40, 
41, 42, 43, 44, 45, 46, 47, 48, 49, 50, 
51, 52, 53, 54, 55, 56, 57, 58, 59, 60, 
61, 62, 63, 64, 65, 66, 67, 68, 69, 70, 
71, 72, 73, 74, 75, 76, 77, 78, 79, 80, 
81, 82, 83, 84, 85, 86, 87, 88, 89, 90, 
91, 92, 93, 94, 95, 96, 97, 98, 99, 100, 
101, 102, 103, 104, 105, 106, 107, 108, 109, 110, 
111, 112, 113, 114, 115, 116, 117, 118, 119, 120, 
121, 122, 123, 124, 125, 126, 127, 128, 129, 130, 
131, 132, 133, 134, 135, 136, 137, 138, 139, 140, 
141, 142, 143, 144, 145, 146, 147, 148, 149, 150, 
151, 152, 153, 154, 155, 156, 157, 158, 159, 160, 
161, 162, 163, 164, 165, 166, 167, 168, 169, 170, 
171, 172, 173, 174, 175, 176, 177, 178, 179, 180, 
181, 182, 183, 184, 185, 186, 187, 188, 189, 190, 
191, 192, 193, 194, 195, 196, 197, 198, 199, 200, 
201, 202, 203, 204, 205, 206, 207, 208, 209, 210, 
211, 212, 213, 214, 215, 216, 217, 218, 219, 220, 
221, 222, 223, 224, 225, 226, 227, 228, 229, 230, 
231, 232, 233, 234, 235, 236, 237, 238, 239, 240, 
241, 242, 243, 244, 245, 246, 247, 248, 249, 250, 
251, 252, 253, 254, 255, 256, 257, 258, 259, 260, 
261, 262, 263, 264, 265, 266, 267, 268, 269, 270, 
271, 272, 273, 274, 275, 276, 277, 278, 279, 280, 
281, 282, 283, 284, 285, 286, 287, 288, 289, 290, 
291, 292, 293, 294, 295, 296, 297, 298, 299, 300, 
301, 302, 303, 304, 305, 306, 307, 308, 309, 310, 
311, 312, 313, 314, 315, 316, 317, 318, 319, 320, 
321, 322, 323, 324, 325, 326, 327, 328, 329, 330, 
331, 332, 333, 334, 335, 336, 337, 338, 339, 340, 
341, 342, 343, 344, 345, 346, 347, 348, 349, 350, 
351, 352, 353, 354, 355, 356, 357, 358, 359, 360, 
361, 362, 363, 364, 365, 366, 367, 368, 369, 370, 
371, 372, 373, 374, 375, 376, 377, 378, 379, 380, 
381, 382, 383, 384, 385, 386, 387, 388, 389, 390, 
391, 392, 393, 394, 395, 396, 397, 398, 399, 400, 
401, 402, 403, 404, 405, 406, 407, 408, 409, 410, 
411, 412, 413, 414, 415, 416, 417, 418, 419, 420, 
421, 422, 423, 424, 425, 426, 427, 428, 429, 430, 
431, 432, 433, 434, 435, 436, 437, 438, 439, 440, 
441, 442, 443, 444, 445, 446, 447, 448, 449, 450, 
451, 452, 453, 454, 455, 456, 457, 458, 459, 460, 
461, 462, 463, 464, 465, 466, 467, 468, 469, 470, 
471, 472, 473, 474, 475, 476, 477, 478, 479, 480, 
481, 482, 483, 484, 485, 486, 487, 488, 489, 490, 
491, 492, 493, 494, 495, 496, 497, 498, 499, 500, 
501, 502, 503, 504, 505, 506, 507, 508, 509, 510, 
511, 512, 513, 514, 515, 516, 517, 518, 519, 520, 
521, 522, 523, 524, 525, 526, 527, 528, 529, 530, 
531, 532, 533, 534, 535, 536, 537, 538, 539, 540, 
541, 542, 543, 544, 545, 546, 547, 548, 549, 550, 
551, 552, 553, 554, 555, 556, 557, 558, 559, 560, 
561, 562, 563, 564, 565, 566, 567, 568, 569, 570, 
571, 572, 573, 574, 575, 576, 577, 578, 579, 580, 
581, 582, 583, 584, 585, 586, 587, 588, 589, 590, 
591, 592, 593, 594, 595, 596, 597, 598, 599, 600, 
601, 602, 603, 604, 605, 606, 607, 608, 609, 610, 
611, 612, 613, 614, 615, 616, 617, 618, 619, 620, 
621, 622, 623, 624, 625, 626, 627, 628, 629, 630, 
631, 632, 633, 634, 635, 636, 637, 638, 639, 640, 
641, 642, 643, 644, 645, 646, 647, 648, 649, 650, 
651, 652, 653, 654, 655, 656, 657, 658, 659, 660, 
661, 662, 663, 664, 665, 666, 667, 668, 669, 670, 
671, 672, 673, 674, 675, 676, 677, 678, 679, 680, 
681, 682, 683, 684, 685, 686, 687, 688, 689, 690, 
691, 692, 693, 694, 695, 696, 697, 698, 699, 700, 
701, 702, 703, 704, 705, 706, 707, 708, 709, 710, 
711, 712, 713, 714, 715, 716, 717, 718, 719, 720, 
721, 722, 723, 724, 725, 726, 727, 728, 729, 730, 
731, 732, 733, 734, 735, 736, 737, 738, 739, 740, 
741, 742, 743, 744, 745, 746, 747, 748, 749, 750, 
751, 752, 753, 754, 755, 756, 757, 758, 759, 760, 
761, 762, 763, 764, 765, 766, 767, 768, 769, 770, 
771, 772, 773, 774, 775, 776, 777, 778, 779, 780, 
781, 782, 783, 784, 785, 786, 787, 788, 789, 790, 
791, 792, 793, 794, 795, 796, 797, 798, 799, 800, 
801, 802, 803, 804, 805, 806, 807, 808, 809, 810, 
811, 812, 813, 814, 815, 816, 817, 818, 819, 820, 
821, 822, 823, 824, 825, 826, 827, 828, 829, 830, 
831, 832, 833, 834, 835, 836, 837, 838, 839, 840, 
841, 842, 843, 844, 845, 846, 847, 848, 849, 850, 
851, 852, 853, 854, 855, 856, 857, 858, 859, 860, 
861, 862, 863, 864, 865, 866, 867, 868, 869, 870, 
871, 872, 873, 874, 875, 876, 877, 878, 879, 880, 
881, 882, 883, 884, 885, 886, 887, 888, 889, 890, 
891, 892, 893, 894, 895, 896, 897, 898, 899, 900, 
901, 902, 903, 904, 905, 906, 907, 908, 909, 910, 
911, 912, 913, 914, 915, 916, 917, 918, 919, 920, 
921, 922, 923, 924, 925, 926, 927, 928, 929, 930, 
931, 932, 933, 934, 935, 936, 937, 938, 939, 940, 
941, 942, 943, 944, 945, 946, 947, 948, 949, 950, 
951, 952, 953, 954, 955, 956, 957, 958, 959, 960, 
961, 962, 963, 964, 965, 966, 967, 968, 969, 970, 
971, 972, 973, 974, 975, 976, 977, 978, 979, 980, 
981, 982, 983, 984, 985, 986, 987, 988, 989, 990, 
991, 992, 993, 994, 995, 996, 997, 998, 999, 1000, 
1001, 1002, 1003, 1004, 1005, 1006, 1007, 1008, 1009, 1010, 
1011, 1012, 1013, 1014, 1015, 1016, 1017, 1018, 1019, 1020, 
1021, 1022, 1023, 1024, 1025, 1026, 1027, 1028, 1029, 1030, 
1031, 1032, 1033, 1034, 1035, 1036, 1037, 1038, 1039, 1040, 
1041, 1042, 1043, 1044, 1045, 1046, 1047, 1048, 1049, 1050, 
1051, 1052, 1053, 1054, 1055, 1056, 1057, 1058, 1059, 1060, 
1061, 1062, 1063, 1064, 1065, 1066, 1067, 1068, 1069, 1070, 
1071, 1072, 1073, 1074, 1075, 1076, 1077, 1078, 1079, 1080, 
1081, 1082, 1083, 1084, 1085, 1086, 1087, 1088, 1089, 1090, 
1091, 1092, 1093, 1094, 1095, 1096, 1097, 1098, 1099, 1100, 
1101, 1102, 1103, 1104, 1105, 1106, 1107, 1108, 1109, 1110, 
1111, 1112, 1113, 1114, 1115, 1116, 1117, 1118, 1119, 1120, 
1121, 1122, 1123, 1124, 1125, 1126, 1127, 1128, 1129, 1130, 
1131, 1132, 1133, 1134, 1135, 1136, 1137, 1138, 1139, 1140, 
1141, 1142, 1143, 1144, 1145, 1146, 1147, 1148, 1149, 1150, 
1151, 1152, 1153, 1154, 1155, 1156, 1157, 1158, 1159, 1160, 
1161, 1162, 1163, 1164, 1165, 1166, 1167, 1168, 1169, 1170, 
1171, 1172, 1173, 1174, 1175, 1176, 1177, 1178, 1179, 1180, 
1181, 1182, 1183, 1184, 1185, 1186, 1187, 1188, 1189, 1190, 
1191, 1192, 1193, 1194, 1195, 1196, 1197, 1198, 1199, 1200, 
1201, 1202, 1203, 1204, 1205, 1206, 1207, 1208, 1209, 1210, 
1211, 1212, 1213, 1214, 1215, 1216, 1217, 1218, 1219, 1220, 
1221, 1222, 1223, 1224, 1225, 1226, 1227, 1228, 1229, 1230, 
1231, 1232, 1233, 1234, 1235, 1236, 1237, 1238, 1239, 1240, 
1241, 1242, 1243, 1244, 1245, 1246, 1247, 1248, 1249, 1250, 
1251, 1252, 1253, 1254, 1255, 1256, 1257, 1258, 1259, 1260, 
1261, 1262, 1263, 1264, 1265, 1266, 1267, 1268, 1269, 1270, 
1271, 1272, 1273, 1274, 1275, 1276, 1277, 1278, 1279, 1280, 
1281, 1282, 1283, 1284, 1285, 1286, 1287, 1288, 1289, 1290, 
1291, 1292, 1293, 1294, 1295, 1296, 1297, 1298, 1299, 1300, 
1301, 1302, 1303, 1304, 1305, 1306, 1307, 1308, 1309, 1310, 
1311, 1312, 1313, 1314, 1315, 1316, 1317, 1318, 1319, 1320, 
1321, 1322, 1323, 1324, 1325, 1326, 1327, 1328, 1329, 1330, 
1331, 1332, 1333, 1334, 1335, 1336, 1337, 1338, 1339, 1340, 
1341, 1342, 1343, 1344, 1345, 1346, 1347, 1348, 1349, 1350, 
1351, 1352, 1353, 1354, 1355, 1356, 1357, 1358, 1359, 1360, 
1361, 1362, 1363, 1364, 1365, 1366, 1367, 1368, 1369, 1370, 
1371, 1372, 1373, 1374, 1375, 1376, 1377, 1378, 1379, 1380, 
1381, 1382, 1383, 1384, 1385, 1386, 1387, 1388, 1389, 1390, 
1391, 1392, 1393, 1394, 1395, 1396, 1397, 1398, 1399, 1400, 
1401, 1402, 1403, 1404, 1405, 1406, 1407, 1408, 1409, 1410, 
1411, 1412, 1413, 1414, 1415, 1416, 1417, 1418, 1419, 1420, 
1421, 1422, 1423, 1424, 1425, 1426, 1427, 1428, 1429, 1430, 
1431, 1432, 1433, 1434, 1435, 1436, 1437, 1438, 1439, 1440, 
1441, 1442, 1443, 1444, 1445, 1446, 1447, 1448, 1449, 1450, 
1451, 1452, 1453, 1454, 1455, 1456, 1457, 1458, 1459, 1460, 
1461, 1462, 1463, 1464, 1465, 1466, 1467, 1468, 1469, 1470, 
1471, 1472, 1473, 1474, 1475, 1476, 1477, 1478, 1479, 1480, 
1481, 1482, 1483, 1484, 1485, 1486, 1487, 1488, 1489, 1490, 
1491, 1492, 1493, 1494, 1495, 1496, 1497, 1498, 1499, 1500, 
1501, 1502, 1503, 1504, 1505, 1506, 1507, 1508, 1509, 1510, 
1511, 1512, 1513, 1514, 1515, 1516, 1517, 1518, 1519, 1520, 
1521, 1522, 1523, 1524, 1525, 1526, 1527, 1528, 1529, 1530, 
1531, 1532, 1533, 1534, 1535, 1536, 1537, 1538, 1539, 1540, 
1541, 1542, 1543, 1544, 1545, 1546, 1547, 1548, 1549, 1550, 
1551, 1552, 1553, 1554, 1555, 1556, 1557, 1558, 1559, 1560, 
1561, 1562, 1563, 1564, 1565, 1566, 1567, 1568, 1569, 1570, 
1571, 1572, 1573, 1574, 1575, 1576, 1577, 1578, 1579, 1580, 
1581, 1582, 1583, 1584, 1585, 1586, 1587, 1588, 1589, 1590, 
1591, 1592, 1593, 1594, 1595, 1596, 1597, 1598, 1599, 1600, 
1601, 1602, 1603, 1604, 1605, 1606, 1607, 1608, 1609, 1610, 
1611, 1612, 1613, 1614, 1615, 1616, 1617, 1618, 1619, 1620, 
1621, 1622, 1623, 1624, 1625, 1626, 1627, 1628, 1629, 1630, 
1631, 1632, 1633, 1634, 1635, 1636, 1637, 1638, 1639, 1640, 
1641, 1642, 1643, 1644, 1645, 1646, 1647, 1648, 1649, 1650, 
1651, 1652, 1653, 1654, 1655, 1656, 1657, 1658, 1659, 1660, 
1661, 1662, 1663, 1664, 1665, 1666, 1667, 1668, 1669, 1670, 
1671, 1672, 1673, 1674, 1675, 1676, 1677, 1678, 1679, 1680, 
1681, 1682, 1683, 1684, 1685, 1686, 1687, 1688, 1689, 1690, 
1691, 1692, 1693, 1694, 1695, 1696, 1697, 1698, 1699, 1700, 
1701, 1702, 1703, 1704, 1705, 1706, 1707, 1708, 1709, 1710, 
1711, 1712, 1713, 1714, 1715, 1716, 1717, 1718, 1719, 1720, 
1721, 1722, 1723, 1724, 1725, 1726, 1727, 1728, 1729, 1730, 
1731, 1732, 1733, 1734, 1735, 1736, 1737, 1738, 1739, 1740, 
1741, 1742, 1743, 1744, 1745, 1746, 1747, 1748, 1749, 1750, 
1751, 1752, 1753, 1754, 1755, 1756, 1757, 1758, 1759, 1760, 
1761, 1762, 1763, 1764, 1765, 1766, 1767, 1768, 1769, 1770, 
1771, 1772, 1773, 1774, 1775, 1776, 1777, 1778, 1779, 1780, 
1781, 1782, 1783, 1784, 1785, 1786, 1787, 1788, 1789, 1790, 
1791, 1792, 1793, 1794, 1795, 1796, 1797, 1798, 1799, 1800, 
1801, 1802, 1803, 1804, 1805, 1806, 1807, 1808, 1809, 1810, 
1811, 1812, 1813, 1814, 1815, 1816, 
