*Heading
 /Users/juliagao/geometry-optimization-net/scripts/../runs/fourier/shape_4.inp
*NODE
1, 0, -0.3, 0
2, 0.425, -0.3, 0
3, 0.575, -0.3, 0
4, 1, -0.3, 0
5, 1, 0.3, 0
6, 0.575, 0.3, 0
7, 0.425, 0.3, 0
8, 0, 0.3, 0
9, 0.7283519888, 0.05475237, 0
10, 0.024273953989704, -0.3, 0
11, 0.073695661490755, -0.3, 0
12, 0.12464259299868, -0.3, 0
13, 0.17607259142486, -0.3, 0
14, 0.22680100058915, -0.3, 0
15, 0.27600257258282, -0.3, 0
16, 0.32263517633663, -0.3, 0
17, 0.36571123180774, -0.3, 0
18, 0.40562933339201, -0.3, 0
19, 0.048547907979407, -0.3, 0
20, 0.098843415002103, -0.3, 0
21, 0.15044177099527, -0.3, 0
22, 0.20170341185446, -0.3, 0
23, 0.25189858932385, -0.3, 0
24, 0.30010655584179, -0.3, 0
25, 0.34516379683146, -0.3, 0
26, 0.38625866678401, -0.3, 0
27, 0.44379198866702, -0.3, 0
28, 0.48122913485657, -0.3, 0
29, 0.51858707995894, -0.3, 0
30, 0.55614993376938, -0.3, 0
31, 0.46258397733403, -0.3, 0
32, 0.49987429237911, -0.3, 0
33, 0.53729986753876, -0.3, 0
34, 0.59710385648188, -0.3, 0
35, 0.64332875294304, -0.3, 0
36, 0.69325350522581, -0.3, 0
37, 0.74632076600979, -0.3, 0
38, 0.80229537262724, -0.3, 0
39, 0.86032457815788, -0.3, 0
40, 0.91797722786842, -0.3, 0
41, 0.97315586509265, -0.3, 0
42, 0.61920771296375, -0.3, 0
43, 0.66744979292232, -0.3, 0
44, 0.7190572175293, -0.3, 0
45, 0.77358431449028, -0.3, 0
46, 0.83100643076421, -0.3, 0
47, 0.88964272555155, -0.3, 0
48, 0.9463117301853, -0.3, 0
49, 1, -0.27402934541997, 0
50, 1, -0.22125082173259, 0
51, 1, -0.16679171811287, 0
52, 1, -0.11124087927914, 0
53, 1, -0.055672024145748, 0
54, 1, -0.000602755351021, 0
55, 1, 0.054216298270457, 0
56, 1, 0.10940081176851, 0
57, 1, 0.16523160049079, 0
58, 1, 0.22056426424706, 0
59, 1, 0.27391580857015, 0
60, 1, -0.24805869083993, 0
61, 1, -0.19444295262526, 0
62, 1, -0.13914048360049, 0
63, 1, -0.083341274957794, 0
64, 1, -0.028002773333702, 0
65, 1, 0.02679726263166, 0
66, 1, 0.081635333909255, 0
67, 1, 0.13716628962776, 0
68, 1, 0.19329691135381, 0
69, 1, 0.24783161714031, 0
70, 0.97339760067872, 0.3, 0
71, 0.91961424768675, 0.3, 0
72, 0.86581159999418, 0.3, 0
73, 0.8147940906882, 0.3, 0
74, 0.7694296242914, 0.3, 0
75, 0.73170411475436, 0.3, 0
76, 0.70119323567586, 0.3, 0
77, 0.67559502089499, 0.3, 0
78, 0.65364829561136, 0.3, 0
79, 0.63447109643806, 0.3, 0
80, 0.61680242182851, 0.3, 0
81, 0.59988375280402, 0.3, 0
82, 0.58327954518637, 0.3, 0
83, 0.94679520135744, 0.3, 0
84, 0.89243329401607, 0.3, 0
85, 0.83918990597229, 0.3, 0
86, 0.79039827540412, 0.3, 0
87, 0.74846097317869, 0.3, 0
88, 0.71494725633004, 0.3, 0
89, 0.68743921502167, 0.3, 0
90, 0.66375082676831, 0.3, 0
91, 0.64354576445441, 0.3, 0
92, 0.62539642842172, 0.3, 0
93, 0.6082084152353, 0.3, 0
94, 0.59155909037274, 0.3, 0
95, 0.56737926737536, 0.3, 0
96, 0.55249674312854, 0.3, 0
97, 0.53837132559327, 0.3, 0
98, 0.52468174954921, 0.3, 0
99, 0.51100550350917, 0.3, 0
100, 0.49745334848834, 0.3, 0
101, 0.48424963586451, 0.3, 0
102, 0.47134356148929, 0.3, 0
103, 0.45849906313937, 0.3, 0
104, 0.44545883810726, 0.3, 0
105, 0.43192944528097, 0.3, 0
106, 0.55975853475072, 0.3, 0
107, 0.54523495150636, 0.3, 0
108, 0.53150769968017, 0.3, 0
109, 0.51785579941826, 0.3, 0
110, 0.50415520760009, 0.3, 0
111, 0.49075148937659, 0.3, 0
112, 0.47774778235242, 0.3, 0
113, 0.46493934062616, 0.3, 0
114, 0.45205878565258, 0.3, 0
115, 0.43885889056194, 0.3, 0
116, 0.41719896627106, 0.3, 0
117, 0.40092892560571, 0.3, 0
118, 0.38308974301982, 0.3, 0
119, 0.36280626261567, 0.3, 0
120, 0.33875377620161, 0.3, 0
121, 0.3094115929906, 0.3, 0
122, 0.27315245041552, 0.3, 0
123, 0.22967151773543, 0.3, 0
124, 0.18116476417116, 0.3, 0
125, 0.12996468215679, 0.3, 0
126, 0.077538351003221, 0.3, 0
127, 0.025615069978189, 0.3, 0
128, 0.40939793254212, 0.3, 0
129, 0.39245991866931, 0.3, 0
130, 0.37371956737033, 0.3, 0
131, 0.351892957861, 0.3, 0
132, 0.32561459454223, 0.3, 0
133, 0.29320859143898, 0.3, 0
134, 0.25309630939205, 0.3, 0
135, 0.20624672607881, 0.3, 0
136, 0.15608280226351, 0.3, 0
137, 0.10384656205006, 0.3, 0
138, 0.051230139956378, 0.3, 0
139, 0, 0.27332271980896, 0
140, 0, 0.21892300550174, 0
141, 0, 0.1636507032727, 0
142, 0, 0.10871005480511, 0
143, 0, 0.053816672247624, 0
144, 0, -0.00028169681899587, 0
145, 0, -0.053371309411515, 0
146, 0, -0.10749591294683, 0
147, 0, -0.16330540666461, 0
148, 0, -0.21907388429672, 0
149, 0, -0.27333181300886, 0
150, 0, 0.24664543961791, 0
151, 0, 0.19120057138556, 0
152, 0, 0.13610083515983, 0
153, 0, 0.081319274450387, 0
154, 0, 0.026314070044861, 0
155, 0, -0.026877463682853, 0
156, 0, -0.079865155140177, 0
157, 0, -0.13512667075349, 0
158, 0, -0.19148414257573, 0
159, 0, -0.24666362601772, 0
160, 0.72855300131029, 0.058721092169244, 0
161, 0.72740585500264, 0.043177283129387, 0
162, 0.7265020661977, 0.035630991919261, 0
163, 0.72538479686348, 0.028126716523076, 0
164, 0.72404953487307, 0.020575402397945, 0
165, 0.72248386436605, 0.01287880119657, 0
166, 0.72073332184626, 0.0052035834134791, 0
167, 0.71885404293379, -0.0023140975750522, 0
168, 0.71683779628687, -0.0098082467493105, 0
169, 0.71472167474784, -0.017220818064206, 0
170, 0.71253084963819, -0.024534680950512, 0
171, 0.71024833868739, -0.03185304200103, 0
172, 0.70786695259558, -0.039217345482369, 0
173, 0.70537975449832, -0.046643229939023, 0
174, 0.70285598387905, -0.053906918179183, 0
175, 0.70026559521905, -0.061067089642606, 0
176, 0.6974484665557, -0.068492472889393, 0
177, 0.69447703814266, -0.075891814937437, 0
178, 0.69140583283901, -0.083056246527147, 0
179, 0.68813107655595, -0.090153070921147, 0
180, 0.68466945457907, -0.097064674095667, 0
181, 0.68097749445512, -0.10380694369021, 0
182, 0.67696403862163, -0.11045975361183, 0
183, 0.67260208343665, -0.11697089303384, 0
184, 0.66787563984537, -0.12327654933366, 0
185, 0.66283923509607, -0.12924301459047, 0
186, 0.65755089092183, -0.13477798450575, 0
187, 0.65200659040613, -0.13987965955166, 0
188, 0.64619867088684, -0.1445497817867, 0
189, 0.64002353223252, -0.14885052212461, 0
190, 0.63341639278182, -0.15278391974857, 0
191, 0.62654062686661, -0.15622893184307, 0
192, 0.61942589950437, -0.15917601056386, 0
193, 0.61204702886257, -0.16164143521443, 0
194, 0.60452948955178, -0.16360070481165, 0
195, 0.59683712611269, -0.16509022913154, 0
196, 0.58896498258582, -0.16613443175351, 0
197, 0.58103716246154, -0.16675307414062, 0
198, 0.57313762950858, -0.16699423090515, 0
199, 0.56531617432607, -0.16692062431335, 0
200, 0.55754456126701, -0.16659785832752, 0
201, 0.54985827018776, -0.16609444298908, 0
202, 0.54226184700786, -0.16547994534386, 0
203, 0.53463657891303, -0.16481265453646, 0
204, 0.52696889941752, -0.16415973451555, 0
205, 0.51920495932625, -0.1635861063613, 0
206, 0.51141549986059, -0.16316101140714, 0
207, 0.5037629806767, -0.16293520402759, 0
208, 0.49616977755224, -0.16292166025777, 0
209, 0.4885451334771, -0.16311667205422, 0
210, 0.48091118377539, -0.16349409102019, 0
211, 0.47324105370818, -0.1640079423034, 0
212, 0.46552957499887, -0.16459559089732, 0
213, 0.45768337639093, -0.16519023925388, 0
214, 0.44939167191906, -0.16572606822446, 0
215, 0.44095598750525, -0.16607856181012, 0
216, 0.43290861789273, -0.16614741659602, 0
217, 0.42524029936638, -0.16589674610014, 0
218, 0.4177444852595, -0.16528826683546, 0
219, 0.41026568784723, -0.1642595252644, 0
220, 0.40287094526707, -0.16276299943259, 0
221, 0.39568931737721, -0.16078575882819, 0
222, 0.38868883796732, -0.15828932622585, 0
223, 0.3818597532057, -0.15523259188955, 0
224, 0.37526183851787, -0.15160626069191, 0
225, 0.3687922748166, -0.14730233735268, 0
226, 0.3624362093143, -0.14222361963766, 0
227, 0.3563894742992, -0.13645816674592, 0
228, 0.35081124882435, -0.13016694585154, 0
229, 0.34573877956092, -0.12347034660351, 0
230, 0.3412691125115, -0.11665387792241, 0
231, 0.33738403881965, -0.10992477957423, 0
232, 0.33388119695484, -0.1031530631004, 0
233, 0.33064047492821, -0.096280531370949, 0
234, 0.32760936957984, -0.089372453263041, 0
235, 0.32473426628134, -0.082503521612227, 0
236, 0.32194422594024, -0.075708636552907, 0
237, 0.31910186542053, -0.068854881905509, 0
238, 0.31603152925234, -0.061737859025017, 0
239, 0.31269750756927, -0.054508165118866, 0
240, 0.30917045181844, -0.047478991348646, 0
241, 0.30551807225065, -0.040814954189463, 0
242, 0.30171162426866, -0.034412091135953, 0
243, 0.2976523077021, -0.028036430345823, 0
244, 0.29342038764626, -0.021721345724342, 0
245, 0.28912955310824, -0.015507851944214, 0
246, 0.28476458267889, -0.0092360840436511, 0
247, 0.28038756364035, -0.00285309563417, 0
248, 0.27612305934086, 0.0036041972896088, 0
249, 0.27201968868742, 0.010205353052642, 0
250, 0.26815057185292, 0.016979810287869, 0
251, 0.26462125649156, 0.023884342789293, 0
252, 0.26150221334785, 0.030911071895921, 0
253, 0.25882822115603, 0.038126582475137, 0
254, 0.25664724234194, 0.045605844167372, 0
255, 0.2550454687884, 0.053337633370101, 0
256, 0.2541145519195, 0.061213341923205, 0
257, 0.2539078058294, 0.069046440280214, 0
258, 0.25442184787222, 0.07674301949772, 0
259, 0.25565647052635, 0.08438373685088, 0
260, 0.25762409464243, 0.091980923878615, 0
261, 0.26031763673182, 0.099480425820022, 0
262, 0.26366222866645, 0.10673529511721, 0
263, 0.26749901029236, 0.11356149730069, 0
264, 0.27175983665385, 0.12001150929863, 0
265, 0.27640286858706, 0.1261518591701, 0
266, 0.28134301200086, 0.13198176828419, 0
267, 0.28653966957445, 0.13755642133882, 0
268, 0.29191747252379, 0.14289179211046, 0
269, 0.29744099075188, 0.14804712685783, 0
270, 0.30315254658167, 0.15314944242011, 0
271, 0.30897691552013, 0.15822299302798, 0
272, 0.31479920783313, 0.16327057038696, 0
273, 0.32051753059312, 0.16830959744565, 0
274, 0.32614422404477, 0.17345272815648, 0
275, 0.33170975297655, 0.17882733156748, 0
276, 0.33702035605515, 0.18431727113616, 0
277, 0.34204019848757, 0.18989798692962, 0
278, 0.34688089947929, 0.19566477627892, 0
279, 0.35158638626146, 0.20160464023639, 0
280, 0.35626961872414, 0.20775604491517, 0
281, 0.36094445802044, 0.2139970057181, 0
282, 0.36561559699562, 0.22017248178717, 0
283, 0.37040626401179, 0.22628697553855, 0
284, 0.37537783853981, 0.23226972995209, 0
285, 0.38057080594089, 0.23803799696247, 0
286, 0.38596206289782, 0.24346550479641, 0
287, 0.39157888647881, 0.24850968575945, 0
288, 0.39752861915797, 0.25320004768478, 0
289, 0.40379380672629, 0.25746041865159, 0
290, 0.41037816002194, 0.26124810084752, 0
291, 0.41732421551805, 0.26454661605187, 0
292, 0.42467582663462, 0.26733262431727, 0
293, 0.43239766792055, 0.26955642014575, 0
294, 0.44029619097481, 0.27116408752798, 0
295, 0.44814314169143, 0.2721658507108, 0
296, 0.45591269340525, 0.27264033766866, 0
297, 0.46373519864365, 0.27266404473847, 0
298, 0.47154945454372, 0.27230008532475, 0
299, 0.4793560752728, 0.27161978819167, 0
300, 0.48727335663508, 0.27068271225836, 0
301, 0.49531028816508, 0.26956029170416, 0
302, 0.50345710089869, 0.26833537420404, 0
303, 0.51145887047992, 0.26713112637873, 0
304, 0.51905242977078, 0.26605385701939, 0
305, 0.52639587443498, 0.26511807530435, 0
306, 0.53369938125975, 0.26431576462298, 0
307, 0.54100265647981, 0.2636467172554, 0
308, 0.54832262687247, 0.26309632514892, 0
309, 0.55569364224436, 0.26263398475883, 0
310, 0.56312338283773, 0.26221913692639, 0
311, 0.57058716460661, 0.26180396819846, 0
312, 0.57804541186784, 0.26133698395862, 0
313, 0.58549588662036, 0.26076433717843, 0
314, 0.5929591810092, 0.26003118533428, 0
315, 0.600438858495, 0.25908442089334, 0
316, 0.60797520104238, 0.25786441338358, 0
317, 0.61559660903899, 0.25630642090394, 0
318, 0.62327282582686, 0.25435243366269, 0
319, 0.6308031981964, 0.25200322732635, 0
320, 0.63799628604781, 0.24930239184221, 0
321, 0.64496241657133, 0.24620287888186, 0
322, 0.65183372910113, 0.24261510090918, 0
323, 0.65851283963551, 0.23855124051283, 0
324, 0.6648566823707, 0.23408728140223, 0
325, 0.6709403739521, 0.22916772264292, 0
326, 0.67684425370905, 0.22369745329607, 0
327, 0.68238022700341, 0.21783630426226, 0
328, 0.68745472703165, 0.21172742633111, 0
329, 0.69207515653451, 0.20543711024438, 0
330, 0.69620717435713, 0.19911226590815, 0
331, 0.69997993413164, 0.19265080397906, 0
332, 0.7035579737552, 0.18580048897012, 0
333, 0.70687304975769, 0.17870145021777, 0
334, 0.7098279073626, 0.17164011622273, 0
335, 0.71248921310552, 0.1645669083939, 0
336, 0.71492237511086, 0.15738470211677, 0
337, 0.71714858067603, 0.15008321387515, 0
338, 0.71917142631366, 0.14269915319409, 0
339, 0.72098201190841, 0.13532296136051, 0
340, 0.72259047619129, 0.12797601435155, 0
341, 0.72401461287508, 0.12062138191825, 0
342, 0.72525517589883, 0.11327935825301, 0
343, 0.72631387790174, 0.1059504382429, 0
344, 0.72720143312982, 0.098524068843452, 0
345, 0.72791244623905, 0.090919194928691, 0
346, 0.72842897094579, 0.083082140587661, 0
347, 0.7287243774169, 0.074969860244632, 0
348, 0.72876723477413, 0.066769571265866, 0
349, 0.72809348095033, 0.050860116841107, 0
350, 0.72869079970632, 0.062692509695137, 0
351, 0.7287785305313, 0.070847331923801, 0
352, 0.72860524263478, 0.079091019491261, 0
353, 0.72819400462359, 0.087070233742539, 0
354, 0.72757837945161, 0.094763952178922, 0
355, 0.72677620094509, 0.10227902934545, 0
356, 0.72580687086896, 0.10961594221977, 0
357, 0.72465981086342, 0.11693593039294, 0
358, 0.72332540775811, 0.12429885815749, 0
359, 0.72181112259259, 0.13164401360245, 0
360, 0.72010684953295, 0.13899122867911, 0
361, 0.71818653209249, 0.14639424824963, 0
362, 0.7160579493035, 0.15375695444675, 0
363, 0.71373132022581, 0.16099462148437, 0
364, 0.71118803130815, 0.16811811216966, 0
365, 0.70840435928027, 0.1751369759205, 0
366, 0.70526969751692, 0.18223411756697, 0
367, 0.70176606153922, 0.18932726796694, 0
368, 0.69811651021083, 0.19593164144255, 0
369, 0.69421964505633, 0.20224463847137, 0
370, 0.6898438244742, 0.20856951891449, 0
371, 0.6849719697051, 0.21481226339081, 0
372, 0.67969392070284, 0.22077668422265, 0
373, 0.67389763113887, 0.22652039637987, 0
374, 0.66789562758026, 0.23171394837877, 0
375, 0.66174082800991, 0.23635870177864, 0
376, 0.65521342620591, 0.24063474505787, 0
377, 0.64839068487536, 0.24448313485234, 0
378, 0.64148217282093, 0.24781481942568, 0
379, 0.63446811112054, 0.25068663886656, 0
380, 0.62710232483023, 0.25321499269934, 0
381, 0.61941415032721, 0.25538649627173, 0
382, 0.61175826433689, 0.25713517353559, 0
383, 0.60417796436825, 0.25851572378397, 0
384, 0.59669052378902, 0.25958859236511, 0
385, 0.58922202257652, 0.26042149983286, 0
386, 0.58176633190058, 0.26106759262121, 0
387, 0.57432268417131, 0.26158000282459, 0
388, 0.56685089121135, 0.26201491429884, 0
389, 0.55939589816808, 0.26242379409104, 0
390, 0.55199213220766, 0.26285697989183, 0
391, 0.54465468625017, 0.26335862016297, 0
392, 0.53735312206646, 0.26396490544656, 0
393, 0.53004900291916, 0.26470004430329, 0
394, 0.52274654236211, 0.26556802931171, 0
395, 0.51536186415789, 0.26656589904138, 0
396, 0.50755837007817, 0.26771327462362, 0
397, 0.49935582157621, 0.26895740710196, 0
398, 0.49126163038894, 0.27014189289443, 0
399, 0.48327959864117, 0.27118157302202, 0
400, 0.47542622105493, 0.27199730165268, 0
401, 0.46766736271471, 0.2725250182086, 0
402, 0.45980075371353, 0.27270491347537, 0
403, 0.45202809105644, 0.27246332520519, 0
404, 0.44426999847099, 0.27174113742933, 0
405, 0.43634653027082, 0.27043976792588, 0
406, 0.42848734672333, 0.26851551826531, 0
407, 0.42091616544443, 0.26599396150284, 0
408, 0.41379366866859, 0.26295534010563, 0
409, 0.4070324173255, 0.25940792083527, 0
410, 0.40063046598437, 0.25539294549979, 0
411, 0.39450627340037, 0.2508988677059, 0
412, 0.38872973462062, 0.24602777881229, 0
413, 0.38326816315896, 0.24082582594892, 0
414, 0.37794330552977, 0.23518428310676, 0
415, 0.37287063591419, 0.22930495018553, 0
416, 0.3679856953408, 0.22323379052309, 0
417, 0.36327161588718, 0.21709115073134, 0
418, 0.35862461686928, 0.2108973771884, 0
419, 0.35390212243605, 0.20462411096748, 0
420, 0.34924154288305, 0.19860769734978, 0
421, 0.34447836783506, 0.19275592945358, 0
422, 0.33955294456847, 0.18708264354889, 0
423, 0.33443799438428, 0.18159831812975, 0
424, 0.32893378966274, 0.17610417072045, 0
425, 0.32331838872786, 0.17084000018689, 0
426, 0.31769396142675, 0.16580458264162, 0
427, 0.31189413971557, 0.16074840024901, 0
428, 0.30606268095689, 0.15569413343611, 0
429, 0.30025854811107, 0.15058640035682, 0
430, 0.2946513319357, 0.14547721215261, 0
431, 0.28922316561774, 0.14026515011979, 0
432, 0.28390971532762, 0.13479564227534, 0
433, 0.27884348686915, 0.12910801578478, 0
434, 0.27404522731685, 0.12312906755343, 0
435, 0.26957503255617, 0.11682260351262, 0
436, 0.26554045846573, 0.11022846722134, 0
437, 0.26192561958974, 0.10316954790384, 0
438, 0.25887338184531, 0.095724139770171, 0
439, 0.25654707184237, 0.088184529480096, 0
440, 0.25494467079265, 0.080545417473343, 0
441, 0.25407631292099, 0.072920425119476, 0
442, 0.25391924650006, 0.06516882422446, 0
443, 0.25449107877844, 0.057271016917062, 0
444, 0.25577055070816, 0.049432157546115, 0
445, 0.25767549079413, 0.041817490428759, 0
446, 0.26011132592353, 0.034478993347607, 0
447, 0.26300402295217, 0.027388446034045, 0
448, 0.26633386472604, 0.02042589475346, 0
449, 0.27004692122678, 0.013576941907332, 0
450, 0.27405512232726, 0.0068712549740376, 0
451, 0.27823560399984, 0.00036583037361844, 0
452, 0.28256751169911, -0.0060531158843987, 0
453, 0.28697268740157, -0.012411400405598, 0
454, 0.29128074973131, -0.018608248281492, 0
455, 0.29553821574481, -0.024849334290882, 0
456, 0.29972825595505, -0.031248523053597, 0
457, 0.30364620070155, -0.037605748665828, 0
458, 0.30733396887616, -0.044056170600713, 0
459, 0.31094392688815, -0.050934872856637, 0
460, 0.31439126201035, -0.05811017969302, 0
461, 0.31762598839249, -0.065385881027578, 0
462, 0.32055342366183, -0.072334116223096, 0
463, 0.32332920287215, -0.079085549056404, 0
464, 0.32615090095904, -0.085916720296297, 0
465, 0.32909729728984, -0.09281561958366, 0
466, 0.33223062182824, -0.099724163565241, 0
467, 0.33559451076506, -0.10655107834641, 0
468, 0.33925047010316, -0.11325658710035, 0
469, 0.34338261028658, -0.11999303153028, 0
470, 0.34821335168001, -0.12686449031813, 0
471, 0.35353468379719, -0.13336673407232, 0
472, 0.35937188063335, -0.13942674183236, 0
473, 0.36562067582761, -0.1448829545034, 0
474, 0.37206663800956, -0.14958072881921, 0
475, 0.37853898796523, -0.15349632031525, 0
476, 0.38524868059072, -0.15683171989576, 0
477, 0.39218353955505, -0.1596107720025, 0
478, 0.39923583589801, -0.16183126191406, 0
479, 0.40653604650045, -0.16356856184186, 0
480, 0.41401531578238, -0.16483195320581, 0
481, 0.42148486289912, -0.165640780424, 0
482, 0.42900076347901, -0.16606260566754, 0
483, 0.43681735978168, -0.16615178789244, 0
484, 0.44509277513296, -0.16593596655956, 0
485, 0.45368779751826, -0.16546595726865, 0
486, 0.46167739488705, -0.16489290123819, 0
487, 0.46938170645596, -0.16429765413832, 0
488, 0.47710171552265, -0.16373620887661, 0
489, 0.48472264472706, -0.1632854752793, 0
490, 0.49236938525329, -0.16299380037591, 0
491, 0.49997080675206, -0.16290166326772, 0
492, 0.5075543233665, -0.16302123535868, 0
493, 0.51527459859001, -0.16334941540238, 0
494, 0.5231328026947, -0.16386125155837, 0
495, 0.53080325821919, -0.16447967684347, 0
496, 0.53846950417491, -0.16515013436885, 0
497, 0.54605525997994, -0.16579726642244, 0
498, 0.55366344479527, -0.16636263310874, 0
499, 0.5614282361321, -0.16678651311054, 0
500, 0.56920578130253, -0.16699245811891, 0
501, 0.57706875167123, -0.16691744540125, 0
502, 0.58500057772412, -0.16649450296187, 0
503, 0.59291821681369, -0.16566717633023, 0
504, 0.60073710312961, -0.16439660473076, 0
505, 0.60829481933338, -0.16268521966348, 0
506, 0.61576177674685, -0.16047124418963, 0
507, 0.62304199374862, -0.15775214038457, 0
508, 0.62998280658362, -0.15458209429685, 0
509, 0.63678199673616, -0.15086150715928, 0
510, 0.64319101207089, -0.14672481481388, 0
511, 0.64913022357932, -0.14227322875393, 0
512, 0.65480164876843, -0.13739164531096, 0
513, 0.66021469630724, -0.13207732419613, 0
514, 0.6653753426378, -0.12632933872028, 0
515, 0.67028597427607, -0.12015227248972, 0
516, 0.67483298047392, -0.1137292179149, 0
517, 0.67901695884877, -0.10714069211081, 0
518, 0.68286784670371, -0.10043292339426, 0
519, 0.68640955908327, -0.093664259161039, 0
520, 0.68979583944397, -0.086614634976671, 0
521, 0.69296704210594, -0.079476197161511, 0
522, 0.69594609906571, -0.072290470356751, 0
523, 0.69891333391836, -0.06467986235928, 0
524, 0.70159019877468, -0.057444088953101, 0
525, 0.70409966741439, -0.05036191809733, 0
526, 0.70663876232021, -0.042917353442455, 0
527, 0.70907592307522, -0.035511013067961, 0
528, 0.71140186072343, -0.028189068520016, 0
529, 0.71363930788274, -0.020874012600786, 0
530, 0.71578057935102, -0.013560752046032, 0
531, 0.71786614955293, -0.0060477259303212, 0
532, 0.71980869732481, 0.0014281715995898, 0
533, 0.72161899804277, 0.00898832619745, 0
534, 0.72330219478942, 0.01677933532804, 0
535, 0.72474815423651, 0.024380741749196, 0
536, 0.72597049463599, 0.031880997684293, 0
537, 0.72698003704679, 0.039388197344292, 0
538, 0.72777505207715, 0.046972306728806, 0
539, 0.42908758529315, -0.24697169012875, 0
540, 0.42492257088296, 0.27875584767186, 0
541, 0.0959627126255, -0.25031763097095, 0
542, 0.047438332483422, -0.24821402931602, 0
543, 0.14545745420189, -0.25302175116344, 0
544, 0.24731934163773, -0.2584676391341, 0
545, 0.19610062374375, -0.25591877834603, 0
546, 0.73984706190603, 0.063370358546372, 0
547, 0.60052191527817, 0.26405361297072, 0
548, 0.5550051751604, -0.17081361311133, 0
549, 0.046775784062797, 0.19483246365609, 0
550, 0.096020257093765, 0.24902790778509, 0
551, 0.14274148132518, 0.24954370910552, 0
552, 0.048268296863618, 0.24764538776935, 0
553, 0.18846691719888, 0.24918347599772, 0
554, 0.35053783027505, 0.26742102764215, 0
555, 0.26323329699929, 0.25405575437518, 0
556, 0.26975040283966, 0.27978597383184, 0
557, 0.36529078417976, 0.25883333987505, 0
558, 0.37412513036825, 0.28250759915601, 0
559, 0.48563367982732, 0.27919525061316, 0
560, 0.47726273989008, 0.28999789743262, 0
561, 0.40996341630839, 0.26556548400058, 0
562, 0.40512261849364, 0.27825800815624, 0
563, 0.38414596356609, 0.28544761116605, 0
564, 0.47166087278196, 0.27659600303957, 0
565, 0.38635611314994, 0.27885012482059, 0
566, 0.04676871093056, 0.1409610804983, 0
567, 0.046873777038944, 0.086986910127901, 0
568, 0.047849360017414, 0.030690570764696, 0
569, 0.046149809944262, -0.19492089415511, 0
570, 0.045272867382651, -0.13981965422459, 0
571, 0.045188325782325, -0.083425086752542, 0
572, 0.045548660288555, -0.027138120843132, 0
573, 0.46335374559226, -0.24012913254351, 0
574, 0.39712585337814, -0.24832948893379, 0
575, 0.35681721252023, -0.24530508409656, 0
576, 0.29919536111152, -0.25887143555859, 0
577, 0.95204673061357, 0.19211910984339, 0
578, 0.84363819008502, 0.24857561456341, 0
579, 0.89725015983897, 0.2466306047342, 0
580, 0.94907724966353, 0.24656686530459, 0
581, 0.72289005811622, 0.26654283642175, 0
582, 0.7046008977651, 0.21976792168733, 0
583, 0.64642743368203, 0.24824174242835, 0
584, 0.74986427197259, 0.26204317868084, 0
585, 0.68131546056829, 0.27504639658138, 0
586, 0.6482745371999, 0.26549516529442, 0
587, 0.57714958826758, 0.28236834985693, 0
588, 0.48297492897514, 0.2894611161013, 0
589, 0.52904132208171, 0.27490005088698, 0
590, 0.55832657263267, 0.29097990140858, 0
591, 0.65754999591509, 0.25250625632136, 0
592, 0.59991548252628, 0.27509096415516, 0
593, 0.54223345355817, 0.29119469068873, 0
594, 0.72227318812037, 0.1614290936236, 0
595, 0.75096693942654, 0.11086390453729, 0
596, 0.7412032200392, 0.094130840147847, 0
597, 0.77409594662716, 0.073511274508848, 0
598, 0.75078403270089, 0.14960365500455, 0
599, 0.76589832317423, 0.059806528553787, 0
600, 0.7390514645242, 0.0600890172951, 0
601, 0.74089160309969, 0.066939562505457, 0
602, 0.74946275217667, 0.050288800711231, 0
603, 0.95487976600917, 0.13712745733352, 0
604, 0.95678133230763, 0.082378225786854, 0
605, 0.95821576162397, 0.027951253370826, 0
606, 0.95775071200457, -0.025524625091753, 0
607, 0.95757749226091, -0.07982650472294, 0
608, 0.54019182646402, -0.26448788932211, 0
609, 0.5206402903987, -0.20804672439577, 0
610, 0.57566614809223, -0.26485629511753, 0
611, 0.68550639033666, -0.26890164609891, 0
612, 0.79584449908297, -0.19136520264479, 0
613, 0.95663929644324, -0.1350199915307, 0
614, 0.85140481207838, -0.23856535259964, 0
615, 0.90112002996741, -0.24240058400551, 0
616, 0.9543479318064, -0.19026219243804, 0
617, 0.95059809945762, -0.24517360590795, 0
618, 0.27473772765646, 0.15066356720032, 0
619, 0.24706723187244, 0.20317644068231, 0
620, 0.24685127296368, 0.16695859261538, 0
621, 0.17376223444196, 0.16150048016524, 0
622, 0.13574983955433, 0.202071250259, 0
623, 0.092584932075427, 0.19901770599722, 0
624, 0.34178208683151, 0.21627585147698, 0
625, 0.34344994617392, 0.28232035361715, 0
626, 0.37566090551159, 0.24219589441279, 0
627, 0.35490913950635, 0.25272590064621, 0
628, 0.32653467032076, 0.21395324899452, 0
629, 0.35223493582301, 0.24065125930242, 0
630, 0.3164347852352, 0.27663298427268, 0
631, 0.37879235753367, 0.24504258782984, 0
632, 0.3705523204422, 0.24654629869525, 0
633, 0.3577520634813, 0.26962978571844, 0
634, 0.32810193882719, 0.20701379775585, 0
635, 0.35607469424179, 0.21970873219563, 0
636, 0.35672718088964, 0.23312743922037, 0
637, 0.3235938967393, 0.20350979009742, 0
638, 0.38156464349172, 0.25498511770931, 0
639, 0.37856204017864, 0.2672762694254, 0
640, 0.49225616598984, 0.27333666775611, 0
641, 0.50548710567213, 0.28196387627923, 0
642, 0.4763804616071, 0.28063779706914, 0
643, 0.46741699912263, 0.27682434400892, 0
644, 0.41724261713668, 0.28414117548867, 0
645, 0.40554623263008, 0.26848235635721, 0
646, 0.41761172386734, 0.26830695087607, 0
647, 0.39717411816959, 0.26475677677912, 0
648, 0.40979436064611, 0.26995995132627, 0
649, 0.39293949222991, 0.2809406336519, 0
650, 0.40036950677316, 0.27170242642515, 0
651, 0.38327879723311, 0.27033407053459, 0
652, 0.38914917831104, 0.26016024698088, 0
653, 0.29992009070193, 0.20376575140871, 0
654, 0.31708550939948, 0.18925329047069, 0
655, 0.27995478939343, 0.18860561632705, 0
656, 0.17907398856545, 0.19849476428239, 0
657, 0.34382092720188, 0.24442977523961, 0
658, 0.31213551829648, 0.28787709035241, 0
659, 0.30304676619041, 0.22450966427058, 0
660, 0.34017490109147, 0.20946882714279, 0
661, 0.37414836716827, 0.24947629175299, 0
662, 0.35549486671846, 0.27616543843013, 0
663, 0.31282417430743, 0.19180241981798, 0
664, 0.3342600185218, 0.20388231526693, 0
665, 0.29546303546661, 0.1868409790191, 0
666, 0.28872989180999, 0.18299053297197, 0
667, 0.29890250199586, 0.19578611813516, 0
668, 0.28976969069586, 0.19353761048828, 0
669, 0.32376752793643, 0.19407613413194, 0
670, 0.28714561996577, 0.15812291980832, 0
671, 0.2754229269818, 0.13681460396523, 0
672, 0.3067078405516, 0.19648145824726, 0
673, 0.26569821591338, 0.18564639571678, 0
674, 0.23511897337588, 0.17028916937554, 0
675, 0.27261625755293, 0.13413981944087, 0
676, 0.20121693336663, 0.19111033604995, 0
677, 0.29357908455246, 0.15545172892524, 0
678, 0.28876929880735, 0.14972612884036, 0
679, 0.28123304455324, 0.17311261592938, 0
680, 0.28616841205652, 0.15236265761512, 0
681, 0.22745385455491, 0.13397065543741, 0
682, 0.23192033467125, 0.18266373361822, 0
683, 0.2829349139009, 0.14440596959623, 0
684, 0.20620080555303, 0.12319232981641, 0
685, 0.25283450540164, 0.15265529838751, 0
686, 0.19022245240136, 0.10531333718378, 0
687, 0.23508228397324, 0.10618843029556, 0
688, 0.21406273422415, 0.076535788526084, 0
689, 0.19894778992098, 0.063061207061944, 0
690, 0.26416963994375, 0.16078941942268, 0
691, 0.24546775753349, 0.0837330580098, 0
692, 0.26543981862129, 0.12827590220777, 0
693, 0.13485033628494, 0.13400715301446, 0
694, 0.1896903067043, 0.11438519292078, 0
695, 0.2341381198568, 0.082663444655996, 0
696, 0.18942322341132, 0.12371285485328, 0
697, 0.2322623534538, 0.091129677871945, 0
698, 0.1892423366932, 0.13341778160155, 0
699, 0.22528456806556, 0.077826467413972, 0
700, 0.2166593812921, 0.062933072051503, 0
701, 0.24812132785913, 0.065721370018411, 0
702, 0.25078000741802, 0.11102077166168, 0
703, 0.24911748023669, 0.031335178602725, 0
704, 0.25998613535412, 0.0076715916866061, 0
705, 0.24550345038936, 0.044447050267949, 0
706, 0.2585283982011, 0.015261743951039, 0
707, 0.22730308687472, 0.038719618351831, 0
708, 0.22807875038124, -0.034986745545423, 0
709, 0.21096374763357, 0.028059238460559, 0
710, 0.24636546377922, 0.040071225849648, 0
711, 0.25090979832074, -0.016868942097671, 0
712, 0.21999476020547, 0.037596890330183, 0
713, 0.18650255227186, 0.074571348585674, 0
714, 0.17683039994016, 0.090950874446165, 0
715, 0.1926844811394, 0.088003870514772, 0
716, 0.2420721873204, 0.065919139874057, 0
717, 0.24746683647026, 0.069173386384717, 0
718, 0.23584753738484, 0.079031362682238, 0
719, 0.24410589204456, 0.060119152258174, 0
720, 0.24578826850421, 0.079967634851542, 0
721, 0.18366185714018, 0.059238204837903, 0
722, 0.13700992902098, -0.0020837966101169, 0
723, 0.14324426272165, 0.020732981045129, 0
724, 0.27796244248106, 0.14653691280009, 0
725, 0.2648755294972, 0.13812995041216, 0
726, 0.17430505773269, 0.014649962209954, 0
727, 0.09706830232065, 0.070104038464026, 0
728, 0.098382944500795, 0.14637405000424, 0
729, 0.13504915680911, 0.16336996489405, 0
730, 0.1997164772799, 0.050381445809824, 0
731, 0.15528829616566, 0.10836519763051, 0
732, 0.16665948853983, 0.034049703136494, 0
733, 0.34533590126249, -0.13816952902879, 0
734, 0.1909055481714, -0.21025323200928, 0
735, 0.25361094998896, -0.1751698346452, 0
736, 0.23453835945608, -0.13377892004406, 0
737, 0.14062070715629, -0.20428338063185, 0
738, 0.13769689251171, -0.15102805771838, 0
739, 0.09082774077685, -0.14493516874431, 0
740, 0.092678514744886, -0.19923980688537, 0
741, 0.19448571557464, 0.039973478491083, 0
742, 0.091336299057358, -0.08631871453039, 0
743, 0.26849739397919, -0.032975352962376, 0
744, 0.22852644459006, 0.024673330889043, 0
745, 0.25232469062831, 0.014028092406124, 0
746, 0.2840018870729, -0.042462875445847, 0
747, 0.25650358606938, -0.033259226419923, 0
748, 0.27895862179085, -0.011116491461607, 0
749, 0.23431765830446, 0.034361702157992, 0
750, 0.17160831962831, -0.021534917805739, 0
751, 0.19049274330801, 0.028082394694171, 0
752, 0.180250977419, -0.060996718156586, 0
753, 0.17544698677077, 0.065727215849362, 0
754, 0.26502382554739, -0.0090709778501441, 0
755, 0.23469583229768, 0.01143989582609, 0
756, 0.27057721321496, 0.0093640613932294, 0
757, 0.246106713009, -0.041763634184969, 0
758, 0.23099027910932, -0.093941825003286, 0
759, 0.14177481798664, -0.08937819175918, 0
760, 0.17350964937957, -0.11471545679452, 0
761, 0.2396537728013, -0.1108741219208, 0
762, 0.195778649561, -0.097119586440123, 0
763, 0.21211697917535, -0.17091375185855, 0
764, 0.50476071232766, -0.21236617853826, 0
765, 0.34216050710028, -0.12731246574661, 0
766, 0.42660251257079, -0.17354850358716, 0
767, 0.44723012210993, -0.18127044651702, 0
768, 0.44814119106507, -0.19202254754565, 0
769, 0.34697032911622, -0.14552434692069, 0
770, 0.35234003119652, -0.1824683832576, 0
771, 0.37423853020318, -0.1660001029554, 0
772, 0.26986273625682, -0.1958552360454, 0
773, 0.34112338081018, -0.19396717246487, 0
774, 0.39944563327196, -0.20646538309449, 0
775, 0.33034902983553, -0.13997901823769, 0
776, 0.35885348828463, -0.19776995634182, 0
777, 0.38470696309576, -0.18595851415986, 0
778, 0.33440719733395, -0.15887026909855, 0
779, 0.27105290519985, -0.16924688247297, 0
780, 0.2948535616817, -0.15433068962133, 0
781, 0.36613087111938, -0.18442442370254, 0
782, 0.30669737129491, -0.1916911701966, 0
783, 0.31276848944841, -0.14018036996793, 0
784, 0.36757565956739, -0.16984141564241, 0
785, 0.36094339667371, -0.14465895894363, 0
786, 0.37068615005251, -0.19005167385165, 0
787, 0.33460434623747, -0.13552788767531, 0
788, 0.33166143410297, -0.16597896207488, 0
789, 0.34099167667645, -0.16814825443997, 0
790, 0.34209989292465, -0.16134505902099, 0
791, 0.3913886972524, -0.16770753160924, 0
792, 0.32660058979789, -0.13556523515365, 0
793, 0.33537955535124, -0.12765351664631, 0
794, 0.32683401622281, -0.18358288233175, 0
795, 0.39581496030264, -0.1792953450004, 0
796, 0.40856711623795, -0.17266981027826, 0
797, 0.41065040534207, -0.19389274187861, 0
798, 0.43541367584305, -0.17246237243259, 0
799, 0.38303262983996, -0.20010313922626, 0
800, 0.42636866144753, -0.20556919850817, 0
801, 0.41764098419447, -0.19375478244432, 0
802, 0.35565604571567, -0.15758585309039, 0
803, 0.43852827600108, -0.17860125840689, 0
804, 0.44365283859244, -0.17042455743625, 0
805, 0.33995033941536, -0.14737394606324, 0
806, 0.51839655136882, -0.17549978240988, 0
807, 0.46851254954715, -0.18496338201996, 0
808, 0.46353931556645, -0.1764249977844, 0
809, 0.44261215457559, -0.18497807625164, 0
810, 0.46917106622605, -0.17061658504595, 0
811, 0.5026491948794, -0.17728460519993, 0
812, 0.50583631673248, -0.19346059579874, 0
813, 0.28479161091533, -0.11860961435106, 0
814, 0.26016515781082, -0.12238886224777, 0
815, 0.27840569547957, -0.13289056382267, 0
816, 0.2535633140736, -0.14149937265017, 0
817, 0.31298709990068, -0.1176971474896, 0
818, 0.29186406287362, -0.051109553751792, 0
819, 0.299260667614, -0.072078201977315, 0
820, 0.32731515494997, -0.11597110745613, 0
821, 0.28500035090748, -0.087510739369804, 0
822, 0.30066411864555, -0.055345067555736, 0
823, 0.32194121880502, -0.11924884925376, 0
824, 0.29143649982581, -0.099191627322264, 0
825, 0.31977449214353, -0.12763801777118, 0
826, 0.32982011826917, -0.12000204525536, 0
827, 0.31527168279818, -0.068686011134038, 0
828, 0.31314951119268, -0.065553918442004, 0
829, 0.31633344667936, -0.074115376814458, 0
830, 0.32024835990786, -0.082178595934417, 0
831, 0.28731192421854, -0.068757827585634, 0
832, 0.29643652579502, -0.05940626492523, 0
833, 0.28036257238179, -0.05095688357376, 0
834, 0.28262946398107, -0.074507750789635, 0
835, 0.31948136631136, -0.078583416284499, 0
836, 0.309000301269, -0.073460805978028, 0
837, 0.3223482309841, -0.089800081979329, 0
838, 0.28128076450776, -0.057136701991855, 0
839, 0.32284418344134, -0.10753293472303, 0
840, 0.31901840964356, -0.075335733158398, 0
841, 0.27135858377141, -0.024104032770844, 0
842, 0.2618650424393, -0.039815275173103, 0
843, 0.29538528037422, -0.068239138826207, 0
844, 0.3065531088237, -0.082944831130771, 0
845, 0.26903366214816, -0.043343601369481, 0
846, 0.26413633825937, -0.003923842242769, 0
847, 0.29047489758797, -0.037653774188838, 0
848, 0.26142172797368, -0.022032418649448, 0
849, 0.24899908335346, 0.008372608356616, 0
850, 0.27501233794111, -0.0037254702127426, 0
851, 0.22289714966381, 0.012462130669646, 0
852, 0.24457383064624, 0.012614956576148, 0
853, 0.78525528618072, 0.04910319210087, 0
854, 0.74594606483584, 0.18237407910287, 0
855, 0.72566243567864, 0.2133060323808, 0
856, 0.71982202631348, 0.16960604823894, 0
857, 0.73693740550038, 0.18588354376925, 0
858, 0.74908836867117, 0.1921616948293, 0
859, 0.71697126160634, 0.17108026330499, 0
860, 0.71289632457281, 0.17498491285506, 0
861, 0.72889270976141, 0.18720928114841, 0
862, 0.76672936672975, 0.11965559426784, 0
863, 0.77761323793967, 0.12913133210763, 0
864, 0.90280650186017, 0.19189474019985, 0
865, 0.75424325765254, 0.10557094877972, 0
866, 0.70595073741819, 0.20963697924177, 0
867, 0.67924568532724, 0.23717865524953, 0
868, 0.68697387992115, 0.23013125123769, 0
869, 0.7008978450183, 0.20109414378116, 0
870, 0.73131203519675, 0.25173893308647, 0
871, 0.67494470330844, 0.24022172037544, 0
872, 0.69577359901603, 0.22852885766903, 0
873, 0.65857898271888, 0.28238380834644, 0
874, 0.6830913111098, 0.25029275578441, 0
875, 0.62523781091935, 0.26613857737168, 0
876, 0.69683124612241, 0.26335220666496, 0
877, 0.70004190213098, 0.20932363044712, 0
878, 0.64570930872495, 0.25922627840581, 0
879, 0.64275832989536, 0.28773715196694, 0
880, 0.65265186724792, 0.24593111383141, 0
881, 0.62287376970941, 0.29076614087323, 0
882, 0.63425890350715, 0.27881701419653, 0
883, 0.64751837284347, 0.24995113795842, 0
884, 0.66387290135328, 0.24058671197069, 0
885, 0.60685868204085, 0.29108824445891, 0
886, 0.66315041372458, 0.2622279239275, 0
887, 0.64109948485176, 0.25197065148995, 0
888, 0.64931583401096, 0.25267629563096, 0
889, 0.66249826782502, 0.26839666882176, 0
890, 0.61021103757431, 0.26918699770407, 0
891, 0.51569257646514, 0.2767488433856, 0
892, 0.48722291923024, 0.28355521299372, 0
893, 0.49555791813727, 0.27249625675053, 0
894, 0.54536559501295, 0.26826228712115, 0
895, 0.55884948209731, 0.27696665923358, 0
896, 0.54755261141754, 0.26914282115821, 0
897, 0.52754520765352, 0.28684235124225, 0
898, 0.59249310159465, 0.2639547750444, 0
899, 0.59918371950041, 0.28190740896102, 0
900, 0.5882736291634, 0.26675564458057, 0
901, 0.54345857115949, 0.26955030413037, 0
902, 0.57715572212641, 0.27005175363362, 0
903, 0.58891748418646, 0.26370031575254, 0
904, 0.65653358977426, 0.26204677802359, 0
905, 0.57557978215936, 0.26579195971227, 0
906, 0.58602385730739, 0.26581194371909, 0
907, 0.60522846328059, 0.26943274311178, 0
908, 0.70862258285558, 0.21371272555642, 0
909, 0.75080209624564, 0.20430310418189, 0
910, 0.7021052192221, 0.24444945169667, 0
911, 0.71097348038633, 0.24719721737007, 0
912, 0.6897818854912, 0.21683037473325, 0
913, 0.71767054108095, 0.23187403950493, 0
914, 0.72123210594144, 0.27415568111518, 0
915, 0.71998901706815, 0.16463643100083, 0
916, 0.73758207221906, 0.16871101152868, 0
917, 0.71692384886691, 0.17840297108855, 0
918, 0.72507851595462, 0.17097370524143, 0
919, 0.73863149543672, 0.21967489058756, 0
920, 0.73791250419472, 0.1314488214672, 0
921, 0.74172238595574, 0.075487378618634, 0
922, 0.76071019381391, 0.055049483414432, 0
923, 0.76449963634106, 0.16753041260164, 0
924, 0.73016928149178, 0.14498375963279, 0
925, 0.76005875372416, 0.065554249837821, 0
926, 0.73298636224035, 0.10250601466032, 0
927, 0.75688235366561, 0.060480983713827, 0
928, 0.73210778948573, 0.13612298094545, 0
929, 0.77578766282552, 0.0431904217443, 0
930, 0.81243318168314, 0.058044449740438, 0
931, 0.73508382569169, 0.073164314167966, 0
932, 0.73638167485714, 0.12375367535549, 0
933, 0.82499266091933, 0.094825945455473, 0
934, 0.74645123148446, 0.027518484923325, 0
935, 0.73758710205536, 0.029103636273048, 0
936, 0.73664056835325, 0.021083661619902, 0
937, 0.74922673921329, 0.019841197051176, 0
938, 0.76459640525948, 0.029350852226051, 0
939, 0.78013981739669, 0.011041183091469, 0
940, 0.75031636315127, 0.034403917193382, 0
941, 0.7704316284909, 0.066013628711288, 0
942, 0.73859935727197, 0.037123555378304, 0
943, 0.74555083881318, 0.064587961503359, 0
944, 0.79766468302769, 0.13293536768904, 0
945, 0.73876497267819, 0.049599389705816, 0
946, 0.74262089491887, 0.056955139617232, 0
947, 0.74460510262572, 0.04513549370552, 0
948, 0.87207327934044, 0.029132806099033, 0
949, 0.82343445958465, 0.041906998209184, 0
950, 0.76130984796171, 0.18644941269258, 0
951, 0.77206105439097, 0.051898666884078, 0
952, 0.82937353449929, 0.022006922532842, 0
953, 0.86298001100279, 0.13740998223943, 0
954, 0.90917285455569, 0.13722782764844, 0
955, 0.91284917438899, 0.083241724248658, 0
956, 0.91546729913925, 0.029160214578888, 0
957, 0.73963624813215, 0.12195147195641, 0
958, 0.91472076000956, -0.075385676952022, 0
959, 0.91536868394322, -0.022622374280886, 0
960, 0.74293188075988, -0.089223877964773, 0
961, 0.80717448343748, -0.043458125163832, 0
962, 0.69417701546315, -0.10620372273691, 0
963, 0.76752808791016, -0.068083496243498, 0
964, 0.77400212294926, -0.044500307846129, 0
965, 0.76041468734119, -0.057946718113181, 0
966, 0.80218041464942, -0.056745300243555, 0
967, 0.7475544860172, -0.019748615993424, 0
968, 0.80627288565093, -0.1224568548153, 0
969, 0.73240871313257, 0.0040397395550497, 0
970, 0.84726324933532, -0.06154496421923, 0
971, 0.72395661666937, -0.015528869501641, 0
972, 0.72550977202033, -0.018751561399442, 0
973, 0.77756294661807, -0.081997763339622, 0
974, 0.87285910342336, -0.019142008220811, 0
975, 0.74710866477772, 0.11543638086157, 0
976, 0.72824854432315, -0.02683964199373, 0
977, 0.74426814700725, -0.028683273331301, 0
978, 0.72268677117623, -0.027811928377711, 0
979, 0.72223984139069, -0.023754064726242, 0
980, 0.74045605347154, -0.022932212180555, 0
981, 0.81189461363071, -0.013946613672846, 0
982, 0.86813405561612, 0.057152808004742, 0
983, 0.71809999851444, -0.017212335138393, 0
984, 0.74876061282208, 0.0092147386387419, 0
985, 0.76734967594304, 0.0095921446006883, 0
986, 0.7269833148048, -0.022617772908206, 0
987, 0.7350778004279, 0.012622191795538, 0
988, 0.73582568044815, -0.003189925354069, 0
989, 0.73811295016904, -0.035818143829195, 0
990, 0.73178526070123, -0.020689764315873, 0
991, 0.74007862421426, -0.047621713450733, 0
992, 0.72249847148219, -0.045545312484866, 0
993, 0.7123092517284, -0.052506564556127, 0
994, 0.7318586592202, -0.10813207728584, 0
995, 0.7399609333156, -0.097862615496827, 0
996, 0.71420673001997, -0.10628980356787, 0
997, 0.68475493665665, -0.14317457036818, 0
998, 0.70152718793032, -0.095875997183429, 0
999, 0.71132959907761, -0.076079872949621, 0
1000, 0.67985631912553, -0.13705745643934, 0
1001, 0.6791226358533, -0.12892680728497, 0
1002, 0.69832262172192, -0.082681839821537, 0
1003, 0.70621359730662, -0.083086440420912, 0
1004, 0.6719306521455, -0.13453727299933, 0
1005, 0.69309447875779, -0.092655938764118, 0
1006, 0.73363889042824, -0.12818356591477, 0
1007, 0.70651103396452, -0.0683822837923, 0
1008, 0.7901355832657, -0.037747119893447, 0
1009, 0.69421262761325, -0.13637676979984, 0
1010, 0.53361583456756, -0.18169887856245, 0
1011, 0.60529107352258, -0.19821190309663, 0
1012, 0.54882866303609, -0.16877871326817, 0
1013, 0.51341046051647, -0.18393315835157, 0
1014, 0.61779576279319, -0.18231436173445, 0
1015, 0.59890635892938, -0.17520162349422, 0
1016, 0.51615702369695, -0.17960420235204, 0
1017, 0.60804359569536, -0.17329692454682, 0
1018, 0.51763923163922, -0.16715755612465, 0
1019, 0.57290958316921, -0.18474938915513, 0
1020, 0.51090403132872, -0.1774627313495, 0
1021, 0.59580541206032, -0.18676039172472, 0
1022, 0.55899399665311, -0.17869424134696, 0
1023, 0.61254202377823, -0.18383606163678, 0
1024, 0.56890336064321, -0.1955086566427, 0
1025, 0.5026069434605, -0.16669048629016, 0
1026, 0.49853369831787, -0.17305577325176, 0
1027, 0.46884141642228, -0.17729119722898, 0
1028, 0.56312145527939, -0.18091628335921, 0
1029, 0.49112003076832, -0.16901794089414, 0
1030, 0.58003244884836, -0.17597104312795, 0
1031, 0.54432550796792, -0.21830051286859, 0
1032, 0.48642248082815, -0.19445574302728, 0
1033, 0.57593911836695, -0.19787852588747, 0
1034, 0.47367147120968, -0.17061183158585, 0
1035, 0.58952637524564, -0.24710202203832, 0
1036, 0.60646066289055, -0.2456763423914, 0
1037, 0.53428375915807, -0.16871177480044, 0
1038, 0.54586428657725, -0.17146293459389, 0
1039, 0.64421682576181, -0.21149799921467, 0
1040, 0.69240966306472, -0.18657535344468, 0
1041, 0.75947482348453, -0.064868215176976, 0
1042, 0.70469132180421, -0.072190058680221, 0
1043, 0.6619226844146, -0.15178752462131, 0
1044, 0.68837662791611, -0.10337078657122, 0
1045, 0.69048765689355, -0.11433382150939, 0
1046, 0.68979316373517, -0.14015504038158, 0
1047, 0.70168946992064, -0.12733940317418, 0
1048, 0.6625471002881, -0.13522742941012, 0
1049, 0.65456750377545, -0.15369449641542, 0
1050, 0.69148837506894, -0.09608435776412, 0
1051, 0.55538190759808, -0.17645612773661, 0
1052, 0.69020064611882, -0.16218405924257, 0
1053, 0.66651249948529, -0.17300385107875, 0
1054, 0.67426000059414, -0.16447089051526, 0
1055, 0.64971674191998, -0.1609522214383, 0
1056, 0.63596146674848, -0.17315256796138, 0
1057, 0.6432928723767, -0.16731982895939, 0
1058, 0.65221515259245, -0.18758359553542, 0
1059, 0.65949159316528, -0.18038833979124, 0
1060, 0.6273120433497, -0.178003993371, 0
1061, 0.56300234908672, -0.19169962693759, 0
1062, 0.64363117081009, -0.19490863256343, 0
1063, 0.7240247825257, -0.21794591975927, 0
1064, 0.67479016229849, -0.18103016152172, 0
1065, 0.67907122624622, -0.19844933368828, 0
1066, 0.66405273258562, -0.18982365119865, 0
1067, 0.70646215467279, -0.18544702914248, 0
1068, 0.77032754205898, -0.094586108259876, 0
1069, 0.71971848864748, -0.059336125208057, 0
1070, 0.73211082925053, -0.16588777391315, 0
1071, 0.68459475641557, -0.11071645500356, 0
1072, 0.77216933529696, -0.23059366369722, 0
1073, 0.63303092760311, -0.20254722710926, 0
1074, 0.66752066109525, -0.18673001496636, 0
1075, 0.67964987660932, -0.19252434103583, 0
1076, 0.6687021156068, -0.19735305219753, 0
1077, 0.66632677706945, -0.2007056113439, 0
1078, 0.91306903849058, -0.13050559166469, 0
1079, 0.90942399134892, -0.18622799413562, 0
1080, 0.71388737872097, -0.072204001958766, 0
1081, 0.75754126787956, -0.10362714569495, 0
1082, 0.82316827150674, -0.17244550727647, 0
1083, 0.78695535884222, -0.15776009746227, 0
1084, 0.86490539371966, -0.18080705406838, 0
1085, 0.76686003967618, -0.20372529015063, 0
1086, 0.66769908343182, -0.14748647505271, 0
1087, 0.69826130159467, -0.13210930435671, 0
1088, 0.6963400459439, -0.085966127493706, 0
1089, 0.68063337084639, -0.20162331217987, 0
1090, 0.66216871513734, -0.14718215064878, 0
1091, 0.59253814051456, 0.27970112678845, 0
1092, 0.58712197319505, 0.2759320719716, 0
1093, 0.59640411533232, 0.26410019970006, 0
1094, 0.41378273493361, 0.26705017970183, 0
1095, 0.39310877848226, 0.2625522892846, 0
1096, 0.64395797768279, 0.24999475979953, 0
1097, 0.76587477979904, -0.077483031523515, 0
1098, 0.79050388804219, -0.12202962770878, 0
1099, 0.34976369241161, -0.16866172918909, 0
1100, 0.36409302076123, -0.1528373263824, 0
1101, 0.37484905340277, -0.17853495352483, 0
1102, 0.32415350876693, -0.22098872628539, 0
1103, 0.57307462011754, 0.29125049838549, 0
1104, 0.59578310979958, 0.26873819605011, 0
1105, 0.58067720518732, 0.29025941705517, 0
1106, 0.7102543319919, 0.21892098569423, 0
1107, 0.71953099066291, 0.2824648914328, 0
1108, 0.73441080238617, 0.26319122896779, 0
1109, 0.82485189476789, -0.12227350744654, 0
1110, 0.75818255647969, -0.071113727302825, 0
1111, 0.78705221275133, -0.076436920262668, 0
1112, 0.75672863206782, 0.093604339284777, 0
1113, 0.78264949125951, 0.19055886322073, 0
1114, 0.79051646088685, 0.088727272095169, 0
1115, 0.7091313882809, 0.27369112109687, 0
1116, 0.7290894035652, 0.16802697350725, 0
1117, 0.70201564693436, 0.2302752187031, 0
1118, 0.25465303934187, 0.13336884094349, 0
1119, 0.27497499538102, 0.14452564248595, 0
1120, 0.24586147739402, 0.1278137496665, 0
1121, 0.20985409675265, 0.14784480618191, 0
1122, 0.21800825036193, 0.072477467317902, 0
1123, 0.2054592248932, 0.059057242704154, 0
1124, 0.26076767703128, 0.20199284674995, 0
1125, 0.22544263424429, 0.12805960315644, 0
1126, 0.43365914323584, -0.1803508225353, 0
1127, 0.31203693488241, -0.18013667195096, 0
1128, 0.7614142322929, -0.042612122193259, 0
1129, 0.76399625844177, -0.072302666116971, 0
1130, 0.83983870545023, -0.08947107508102, 0
1131, 0.68121465481347, 0.2670227054445, 0
1132, 0.82276112341396, 0.1154550370196, 0
1133, 0.79871466358064, 0.17603176516883, 0
1134, 0.37069785801032, 0.26854416631546, 0
1135, 0.37974763463894, 0.27592113024931, 0
1136, 0.30357602685456, 0.25869869840387, 0
1137, 0.23786333772292, 0.022976986659407, 0
1138, 0.66945455050136, -0.25793900967138, 0
1139, 0.67795564642412, -0.24538682543918, 0
1140, 0.55173365261226, -0.169694758072, 0
1141, 0.31520808467668, 0.21453120976492, 0
1142, 0.36370194003545, 0.22978645798566, 0
1143, 0.2344644050888, 0.25114844141538, 0
1144, 0.64790997738414, 0.25583237734979, 0
1145, 0.6202850501065, 0.26755473936136, 0
1146, 0.24584255353779, -0.15920139153076, 0
1147, 0.23038110404472, -0.16044960744339, 0
1148, 0.22332427236679, -0.14196783466166, 0
1149, 0.09407693755122, 0.0023906435164299, 0
1150, 0.13973421049868, 0.04891143988939, 0
1151, 0.77421408455747, 0.17679399487938, 0
1152, 0.74292581308085, 0.14779886785827, 0
1153, 0.74629884369561, 0.10403975296487, 0
1154, 0.67030217100461, -0.16903503644521, 0
1155, 0.65128094394585, -0.22299863289502, 0
1156, 0.67299030982815, -0.20506140968499, 0
1157, 0.58340777824913, 0.27220846351738, 0
1158, 0.61478835817033, 0.29116954778944, 0
1159, 0.74180818982186, 0.084807475916874, 0
1160, 0.74895846224079, 0.088610072637284, 0
1161, 0.82160398200071, 0.07432678583828, 0
1162, 0.69483780643393, 0.27347337596214, 0
1163, 0.64631573930624, 0.25181156297842, 0
1164, 0.64029041078339, 0.27480679855955, 0
1165, 0.8297564698201, -0.033490995437416, 0
1166, 0.79154782599486, -0.025382024890255, 0
1167, 0.29701429477, 0.27069602625432, 0
1168, 0.351337911273, 0.22554569843097, 0
1169, 0.34889484003687, 0.23629551271982, 0
1170, 0.595642729096, -0.26440380994924, 0
1171, 0.56777038672923, -0.18299446048006, 0
1172, 0.406312785222, 0.28887353218642, 0
1173, 0.45520364467515, 0.29031984618828, 0
1174, 0.46622039045836, 0.2904475721184, 0
1175, 0.3683047597866, -0.15934534454429, 0
1176, 0.35541911725844, -0.15319497728151, 0
1177, 0.73830588967659, -0.18158645692367, 0
1178, 0.42776790748161, 0.28204719043197, 0
1179, 0.47685065280626, 0.2852135975988, 0
1180, 0.42135970412437, 0.26929524042764, 0
1181, 0.27705048966841, 0.24570695720434, 0
1182, 0.35374460687195, 0.21638010605781, 0
1183, 0.78271059938494, -0.092771350611881, 0
1184, 0.80685293567501, -0.080157432528824, 0
1185, 0.68417089501619, -0.15289280477553, 0
1186, 0.70809885016421, -0.064471151503697, 0
1187, 0.65966727825687, -0.13730696928676, 0
1188, 0.26928900553754, 0.13131568331758, 0
1189, 0.15306842934167, 0.062743395636674, 0
1190, 0.21615145602789, -0.15384567590826, 0
1191, 0.24685212845792, -0.12744155820947, 0
1192, 0.23258489504837, -0.17604612395743, 0
1193, 0.45265953795213, -0.18604350736989, 0
1194, 0.47426901206824, -0.17765410554957, 0
1195, 0.50762063297319, -0.18097215054521, 0
1196, 0.46470884762488, -0.17043574202893, 0
1197, 0.49517863074528, -0.16832632149595, 0
1198, 0.6755967417055, -0.13190185855062, 0
1199, 0.72323328942954, -0.15445399700128, 0
1200, 0.73810309898894, -0.15600320359542, 0
1201, 0.31707747068146, 0.2308066380845, 0
1202, 0.38178621547116, -0.17230737714334, 0
1203, 0.37089794153652, -0.17419985452538, 0
1204, 0.77328380970056, -0.034057147749298, 0
1205, 0.74649745114404, -0.074734913958624, 0
1206, 0.7578773271524, -0.093802827850267, 0
1207, 0.81885415009325, -0.068324426081629, 0
1208, 0.67168830351799, -0.12741480616629, 0
1209, 0.69891326359089, -0.091622529848993, 0
1210, 0.63897175375936, 0.26621340351627, 0
1211, 0.60605582629402, 0.28285488610212, 0
1212, 0.539638229455, 0.27682255123654, 0
1213, 0.71701297573342, -0.16115450426746, 0
1214, 0.65849953741353, -0.14310203117896, 0
1215, 0.78620875124359, 0.1150119598932, 0
1216, 0.74410031017182, 0.10866420167582, 0
1217, 0.34036325888029, -0.17575950439204, 0
1218, 0.31100841502338, -0.062168424963642, 0
1219, 0.31028682276272, -0.12744357553236, 0
1220, 0.30613502944071, -0.12121159479889, 0
1221, 0.11682611858157, 0.13533083914835, 0
1222, 0.11664221202374, 0.15989829748568, 0
1223, 0.13516987273147, 0.14783651844582, 0
1224, 0.73882829551943, 0.045553397449323, 0
1225, 0.75699962488406, 0.045927746714139, 0
1226, 0.717932709966, 0.16715670705029, 0
1227, 0.72141111556346, 0.17291145624496, 0
1228, 0.63861575272589, -0.1986819734037, 0
1229, 0.6846040082078, -0.21929976054052, 0
1230, 0.58417486318939, -0.18678293228751, 0
1231, 0.51408530521769, -0.19756163951973, 0
1232, 0.53868809434951, -0.17651887385949, 0
1233, 0.65777661005264, -0.19759501280863, 0
1234, 0.20552076844739, 0.11551543478492, 0
1235, 0.70955708610497, 0.20678344815539, 0
1236, 0.70527921164878, 0.2035891598276, 0
1237, 0.75557122416585, 0.075339129474051, 0
1238, 0.73253212537177, 0.1318586286872, 0
1239, 0.45398005547979, -0.17348677724754, 0
1240, 0.43972659828964, -0.21847152858618, 0
1241, 0.68571029000298, -0.1952017047774, 0
1242, 0.54318405565228, -0.17556954056932, 0
1243, 0.68969875976, -0.19755372683823, 0
1244, 0.21847671830941, 0.091188665387646, 0
1245, 0.2328794537532, 0.09620179964971, 0
1246, 0.70251377325436, -0.075816247505192, 0
1247, 0.68287151844561, -0.16385955439722, 0
1248, 0.65336325893723, -0.14450813528266, 0
1249, 0.22044333059745, 0.021028451426425, 0
1250, 0.25828150573524, -0.0030717650959201, 0
1251, 0.25167127645817, 0.042900684218562, 0
1252, 0.74576474088234, -0.12242386223496, 0
1253, 0.73630671465499, -0.071047938003043, 0
1254, 0.7550476102305, -0.15533902080909, 0
1255, 0.30889878737951, -0.058641089866907, 0
1256, 0.31625970951119, -0.12295049079349, 0
1257, 0.54617688902358, -0.18352447031793, 0
1258, 0.24571533562026, 0.0015749496032087, 0
1259, 0.27115024847054, -0.0084546121257341, 0
1260, 0.26858213106782, 0.00015151976796405, 0
1261, 0.75518422857995, 0.16131588180679, 0
1262, 0.77635312928975, 0.10152447962492, 0
1263, 0.28239485898059, 0.21753915856734, 0
1264, 0.33040201442387, 0.24007074334295, 0
1265, 0.33037582315195, 0.22135392294167, 0
1266, 0.58523004741367, -0.2303915095302, 0
1267, 0.22213001194598, 0.11609544678656, 0
1268, 0.26405546530444, 0.17629181034028, 0
1269, 0.24394365303065, 0.17424977501717, 0
1270, 0.48015465631891, 0.27576845473809, 0
1271, 0.49660030664474, 0.28648272922599, 0
1272, 0.48103226577526, 0.28005615210643, 0
1273, 0.307480653801, 0.20265655911758, 0
1274, 0.36121495021392, 0.26393321280805, 0
1275, 0.34695246597661, 0.2182392524878, 0
1276, 0.52517617721255, -0.19303273445047, 0
1277, 0.58304309656935, -0.2140225850491, 0
1278, 0.51719217175534, -0.21752380422465, 0
1279, 0.58338716819922, -0.19916493147424, 0
1280, 0.67075954763344, -0.21711503420076, 0
1281, 0.63764872795245, -0.21636439326631, 0
1282, 0.67489313232865, 0.23304841208464, 0
1283, 0.71840648865648, 0.22414236733926, 0
1284, 0.32132383987601, -0.13918977229077, 0
1285, 0.31528828083517, -0.13221838065025, 0
1286, 0.32353713328468, -0.13131416175785, 0
1287, 0.54323098856538, 0.28163298194485, 0
1288, 0.5431795857094, 0.27440969568206, 0
1289, 0.55212564337612, 0.28125647400314, 0
1290, 0.6290898554208, 0.27206768243846, 0
1291, 0.66760528354343, 0.23830626424177, 0
1292, 0.34660492639889, 0.27444369906431, 0
1293, 0.33138782648586, 0.28014611098114, 0
1294, 0.30297889341556, -0.059129917932292, 0
1295, 0.27748597413102, -0.021005715536791, 0
1296, 0.28814764797572, -0.034592614580457, 0
1297, 0.2531492236454, 0.022777945620621, 0
1298, 0.21198469873906, 0.037185345962595, 0
1299, 0.21740844741749, 0.053250242692737, 0
1300, 0.31433130245106, 0.20131709332445, 0
1301, 0.32137557184814, 0.19078929736134, 0
1302, 0.28247663380146, 0.15384014290797, 0
1303, 0.24028751056231, 0.1199412527707, 0
1304, 0.36321430551585, 0.27681570804428, 0
1305, 0.35841929507418, 0.22309354990158, 0
1306, 0.36987445632918, 0.26154442365438, 0
1307, 0.48908039126595, 0.28851137261884, 0
1308, 0.4899834545385, 0.2779526182157, 0
1309, 0.50645582407002, 0.27700005315591, 0
1310, 0.66062586781471, -0.21012526766092, 0
1311, 0.67029020502476, -0.19375869571633, 0
1312, 0.68303342358314, -0.23073366452306, 0
1313, 0.16191681189365, 0.084026197632741, 0
1314, 0.15552608309891, -0.0028523823448648, 0
1315, 0.25271487060408, -0.025337213442296, 0
1316, 0.28571832922407, -0.021627496523804, 0
1317, 0.24083688348629, 0.01758592993412, 0
1318, 0.51594651764636, 0.28212122426123, 0
1319, 0.5945630892418, 0.27377827036339, 0
1320, 0.5251606604, -0.24648923617516, 0
1321, 0.5424417495078, -0.17209356394485, 0
1322, 0.68971599768718, 0.24615855869131, 0
1323, 0.74406422803756, 0.27841474225269, 0
1324, 0.60351875795731, -0.17433975891908, 0
1325, 0.58473267026819, -0.17611544510322, 0
1326, 0.50569046211021, -0.16574020119074, 0
1327, 0.27525634895185, -0.044987366894567, 0
1328, 0.55130913515488, -0.18033276100867, 0
1329, 0.63433986631469, -0.23668883092365, 0
1330, 0.22634986257362, 0.058006614775224, 0
1331, 0.15959400219156, 0.016717781944734, 0
1332, 0.23388476193921, 0.10127367489496, 0
1333, 0.97835002923805, -0.13708764328978, 0
1334, 0.95759655564055, -0.10748762701483, 0
1335, 0.97877895428675, -0.081638638126582, 0
1336, 0.97871285547778, -0.1093617524089, 0
1337, 0.023058891126867, -0.19308774172749, 0
1338, 0.02262862132953, -0.13749875566885, 0
1339, 0.045729057952632, -0.16752099613207, 0
1340, 0.022844944392622, -0.16538017890546, 0
1341, 0.53882248162103, -0.28195957235186, 0
1342, 0.50204422953054, -0.27936073625335, 0
1343, 0.5129540399247, -0.22877291437412, 0
1344, 0.52053203821424, -0.28105205249847, 0
1345, 0.97739830478162, 0.1371956053351, 0
1346, 0.95342651410124, 0.16467183091287, 0
1347, 0.97602140750253, 0.19257912435522, 0
1348, 0.97671871068108, 0.16492591307706, 0
1349, 0.589940755906, 0.27178132277847, 0
1350, 0.5839961763513, 0.26711519104229, 0
1351, 0.7374738934822, -0.010645674777091, 0
1352, 0.71709261305798, -0.028152008756466, 0
1353, 0.72425048768188, -0.010510752720617, 0
1354, 0.72218094754969, -0.013038024282235, 0
1355, 0.41458686588631, 0.27531404857394, 0
1356, 0.47755408479351, 0.29495328799356, 0
1357, 0.43182238339336, 0.28530511504297, 0
1358, 0.97887978226487, -0.026808552906585, 0
1359, 0.95796465416357, 0.0012348465873915, 0
1360, 0.97904662996252, 0.027416430354941, 0
1361, 0.97897433893048, 0.00031750267946179, 0
1362, 0.84186793225986, -0.26906346416081, 0
1363, 0.87608308610807, -0.24061248904314, 0
1364, 0.89561063755448, -0.27100027233595, 0
1365, 0.868894906471, -0.27008637477725, 0
1366, 0.29921295151391, -0.063438288062406, 0
1367, 0.27351213626359, -0.12021843181512, 0
1368, 0.29430503962337, -0.11675690912424, 0
1369, 0.95757954544027, 0.055086010730265, 0
1370, 0.97848303912718, 0.082018074608512, 0
1371, 0.97879092200442, 0.054675787571018, 0
1372, 0.57933322153481, 0.26505342109303, 0
1373, 0.57941841548467, 0.27459711833384, 0
1374, 0.58276576547472, 0.26423203085838, 0
1375, 0.12058634669627, -0.2516014321442, 0
1376, 0.14783328302725, -0.27670760663125, 0
1377, 0.097518327407481, -0.27525354379401, 0
1378, 0.12261451760388, -0.27592537255526, 0
1379, 0.45009982143534, -0.17150133970704, 0
1380, 0.29918526106346, 0.17211948959481, 0
1381, 0.31226671113773, 0.17264932059822, 0
1382, 0.30783121775214, 0.16972071280255, 0
1383, 0.29885335402581, 0.16139683922874, 0
1384, 0.26369989704207, 0.16823783564742, 0
1385, 0.56378055242858, 0.27191135497574, 0
1386, 0.55936349283726, 0.2669596731142, 0
1387, 0.56344661298965, 0.26693782598598, 0
1388, 0.42452470533568, -0.19277184818126, 0
1389, 0.4603362226013, -0.17006772373534, 0
1390, 0.049730577356488, 0.27386235292795, 0
1391, 0.024175759399231, 0.24700773801639, 0
1392, 0.024859691134379, 0.27355421621836, 0
1393, 0.72117466417914, -0.05483608359637, 0
1394, 0.72241634215621, -0.10716163568093, 0
1395, 0.71495214896044, -0.092440154485426, 0
1396, 0.48209050882985, -0.18536161054755, 0
1397, 0.52183287033394, -0.18105603145685, 0
1398, 0.53288439293809, -0.20028919439905, 0
1399, 0.55443119917209, -0.18387320472398, 0
1400, 0.50404565056997, 0.293764847193, 0
1401, 0.51698822762825, 0.29381812324108, 0
1402, 0.5105063589448, 0.28788359995369, 0
1403, 0.51063505118535, 0.29387314286752, 0
1404, 0.34156939474634, 0.22310969899643, 0
1405, 0.29510402196725, 0.23067986770654, 0
1406, 0.3665283199925, 0.23304281793212, 0
1407, 0.55082422180342, 0.27018703691103, 0
1408, 0.54507875255861, 0.2660914321757, 0
1409, 0.53885769869698, 0.26764734496677, 0
1410, 0.54214727947339, 0.26677509608231, 0
1411, 0.46389809992126, -0.27367429340945, 0
1412, 0.48556942770957, -0.25361875815553, 0
1413, 0.48317224927567, -0.27676841401004, 0
1414, 0.95760841050069, -0.052505965054263, 0
1415, 0.97881218549009, -0.054130431906123, 0
1416, 0.60155902104708, -0.18623633694444, 0
1417, 0.023381437136453, 0.13856679927389, 0
1418, 0.046780305745267, 0.11399550212512, 0
1419, 0.023443632036162, 0.084026300937904, 0
1420, 0.023390307587425, 0.11133622302619, 0
1421, 0.79172964643513, 0.1497516154908, 0
1422, 0.81762901428839, 0.13584982227227, 0
1423, 0.45102092444404, -0.17740058959222, 0
1424, 0.73391264697993, 0.0082815723358075, 0
1425, 0.72059308756674, -0.014716611500338, 0
1426, 0.72905077959128, 0.014699489825329, 0
1427, 0.72807272225123, 0.010652142281066, 0
1428, 0.29497065991405, -0.034491078116177, 0
1429, 0.27417365228297, -0.052081654475468, 0
1430, 0.29046234577864, -0.028143737561774, 0
1431, 0.29277499937405, -0.031316102189125, 0
1432, 0.95579984727984, 0.10978112620838, 0
1433, 0.97792240531633, 0.1095998644923, 0
1434, 0.25384806752427, -0.054654314183632, 0
1435, 0.23109220897145, 0.018043119500081, 0
1436, 0.2880617843397, -0.024936955638537, 0
1437, 0.58579998787455, 0.26356134410943, 0
1438, 0.5675522586218, 0.26674192306575, 0
1439, 0.58639009897072, 0.26950713351545, 0
1440, 0.17063093208127, -0.25449246374268, 0
1441, 0.19881796556467, -0.27807512221199, 0
1442, 0.17319135850926, -0.27748851606561, 0
1443, 0.73486533732677, 0.11474951374062, 0
1444, 0.72852896628398, 0.14945879495841, 0
1445, 0.76281237076738, 0.10803750894987, 0
1446, 0.58286013523381, 0.27992561269165, 0
1447, 0.58929656582087, 0.28804251019287, 0
1448, 0.39529970579908, 0.25776786335579, 0
1449, 0.46073370371741, 0.2904571577448, 0
1450, 0.42883356561233, 0.27362487752334, 0
1451, 0.047562004626152, 0.059409209342584, 0
1452, 0.02355782871553, 0.028401491505446, 0
1453, 0.023573206522708, 0.056390289412369, 0
1454, 0.73719697309076, 0.025099928410962, 0
1455, 0.73058515615732, 0.022688134724772, 0
1456, 0.73174040549187, 0.030498518796086, 0
1457, 0.73119736560038, 0.026605380362238, 0
1458, 0.29169005698688, -0.07357797149098, 0
1459, 0.31638131519655, -0.085511956793386, 0
1460, 0.3304225440559, -0.10913866576254, 0
1461, 0.32851537572003, -0.10533752187785, 0
1462, 0.54576803708434, -0.16868411967442, 0
1463, 0.62676974537649, -0.20638694012513, 0
1464, 0.73813427403949, 0.033050160436076, 0
1465, 0.73271796079609, 0.03828706072525, 0
1466, 0.73225615344931, 0.034382477000458, 0
1467, 0.42728858128762, -0.27362215582578, 0
1468, 0.39073774944895, -0.27405569996372, 0
1469, 0.41330595860601, -0.24824495742362, 0
1470, 0.40928832294646, -0.2739572282244, 0
1471, 0.51549584930379, 0.27161547433735, 0
1472, 0.52023817036711, 0.27631024067588, 0
1473, 0.52364279675463, 0.27058738177057, 0
1474, 0.51960082970672, 0.27113290534526, 0
1475, 0.5515769546012, 0.26654729405221, 0
1476, 0.54810652516624, 0.26622996788921, 0
1477, 0.71521194509349, 0.18719781102589, 0
1478, 0.73319770107393, 0.16406851455372, 0
1479, 0.75227108135542, -0.0049141780880396, 0
1480, 0.72115317360319, -0.016960760686461, 0
1481, 0.73684112723804, -0.018086319237912, 0
1482, 0.73060172770046, -1.4530008371922e-05, 0
1483, 0.73406718446343, -0.025217625242936, 0
1484, 0.72687730001502, -0.013267325273542, 0
1485, 0.23269920106674, -0.050499723969207, 0
1486, 0.2419227464011, -0.029607961703602, 0
1487, 0.25924833969285, 0.023278981763277, 0
1488, 0.68546118637788, -0.12210447931395, 0
1489, 0.70868237638917, -0.079696222549574, 0
1490, 0.69692649222201, -0.11806114249781, 0
1491, 0.65536164947406, -0.14171630299478, 0
1492, 0.95584741260783, -0.16272976073416, 0
1493, 0.97711817049571, -0.19225732261915, 0
1494, 0.97792942386393, -0.16476253795584, 0
1495, 0.023431575146497, 0.19301313625528, 0
1496, 0.046638493638739, 0.16805807489966, 0
1497, 0.023356279266243, 0.16584140691446, 0
1498, 0.34172142379453, 0.25387715272189, 0
1499, 0.36307723427765, 0.24029662498955, 0
1500, 0.36105160257216, 0.22644397725617, 0
1501, 0.33826694455162, 0.23310240521821, 0
1502, 0.50781571368433, -0.16470471247902, 0
1503, 0.46189526563815, -0.18301119092177, 0
1504, 0.50707712983253, 0.27234274897711, 0
1505, 0.50426508834663, 0.2875761312687, 0
1506, 0.49353618057784, 0.27633566154652, 0
1507, 0.61846473228121, -0.19486529788611, 0
1508, 0.59775172197406, -0.22943884164514, 0
1509, 0.25557357207825, 0.030898734129626, 0
1510, 0.25407646949689, 0.034881444247092, 0
1511, 0.23399458042252, -0.0027515486139122, 0
1512, 0.53080105654854, 0.28009293561043, 0
1513, 0.53150689036745, 0.26928657143472, 0
1514, 0.52761491551732, 0.26997611798931, 0
1515, 0.77366570341909, 0.11122666068384, 0
1516, 0.25841019960104, -0.0092164519644633, 0
1517, 0.23576825836941, 0.028709732116898, 0
1518, 0.26398545899008, 0.005546466003966, 0
1519, 0.30602140804092, -0.088325613034559, 0
1520, 0.29827514314414, -0.1252269832499, 0
1521, 0.30149786226124, -0.080662278158328, 0
1522, 0.31938455353319, -0.09869437397267, 0
1523, 0.099606194332547, 0.27449729672698, 0
1524, 0.07222910514198, 0.2483588869188, 0
1525, 0.074701911413491, 0.27419948078846, 0
1526, 0.34881319552025, 0.25804050779265, 0
1527, 0.32272287530025, 0.266913524633, 0
1528, 0.33545462895623, 0.1951971315014, 0
1529, 0.33039832300933, 0.20077689598714, 0
1530, 0.34092322331196, 0.2010857913809, 0
1531, 0.3384340156879, 0.19818529838255, 0
1532, 0.31682055636906, -0.10973100341618, 0
1533, 0.29224968519019, -0.091073381285869, 0
1534, 0.78435664895712, 0.16469448688897, 0
1535, 0.72804907999975, 0.12436873538577, 0
1536, 0.30003516953932, -0.086632361620002, 0
1537, 0.32511622129336, -0.097603775053856, 0
1538, 0.48200415884595, 0.28458892485326, 0
1539, 0.49578504871003, 0.27489418374027, 0
1540, 0.72205970123605, 0.18225141100344, 0
1541, 0.72454313676974, 0.15773550655823, 0
1542, 0.731897346821, 0.15593306538623, 0
1543, 0.2007283407223, 0.0023370268921939, 0
1544, 0.27514933611517, -0.016986381740938, 0
1545, 0.54062013139675, 0.27110492513712, 0
1546, 0.55537592844133, 0.26681933687398, 0
1547, 0.49235520179298, 0.28178405080552, 0
1548, 0.50024019487462, 0.28102195014011, 0
1549, 0.73013080957366, -0.03627991978394, 0
1550, 0.72171908283293, -0.020068660844739, 0
1551, 0.2784564239132, 0.15219069613885, 0
1552, 0.27887159604629, 0.16764981686763, 0
1553, 0.72665415649034, 0.15371469259596, 0
1554, 0.73943653491264, 0.10300587898659, 0
1555, 0.023691468179508, -0.24727405780937, 0
1556, 0.048185589334964, -0.27416618014251, 0
1557, 0.024019958928011, -0.27371734357384, 0
1558, 0.67810399285596, 0.29157298710857, 0
1559, 0.23935555836741, 0.16008549155585, 0
1560, 0.27703767534777, 0.16190736873566, 0
1561, 0.20676981024528, 0.13092909813437, 0
1562, 0.24613371270082, 0.022647315208954, 0
1563, 0.23967851218667, 0.0058092651205538, 0
1564, 0.5352779870019, 0.26850785812579, 0
1565, 0.26445498577943, -0.027944399626591, 0
1566, 0.26789816204187, 0.0078051384353917, 0
1567, 0.35978621219805, 0.23680382448342, 0
1568, 0.35537215838373, 0.26128020378153, 0
1569, 0.29398961211603, 0.21508622427279, 0
1570, 0.55770627336476, -0.26487207734545, 0
1571, 0.57621922755173, -0.28236536249023, 0
1572, 0.55721550645073, -0.2823061412992, 0
1573, 0.70693568408206, -0.11082860420128, 0
1574, 0.761177844355, -0.050515579454995, 0
1575, 0.66464060969902, -0.13862691382249, 0
1576, 0.70046716850667, -0.079330925039749, 0
1577, 0.721190455066, -0.0082024458500854, 0
1578, 0.72273382197391, -0.0047448660342251, 0
1579, 0.74756427864776, -0.035128214956606, 0
1580, 0.51729871225544, -0.19147018013397, 0
1581, 0.28418813049726, 0.15076015856072, 0
1582, 0.23120180758432, 0.16460281071834, 0
1583, 0.97460560856828, 0.24696965414539, 0
1584, 0.94783468054378, 0.2733585445125, 0
1585, 0.9739622202099, 0.27356035832595, 0
1586, 0.4901176317628, 0.29417417612067, 0
1587, 0.50288440758221, 0.27251008883742, 0
1588, 0.48369667144816, 0.29465052537055, 0
1589, 0.24280965321005, 0.18575595990242, 0
1590, 0.27008202833528, 0.16092909649087, 0
1591, 0.50844378139042, -0.24261145196763, 0
1592, 0.49114211435837, -0.23441040425285, 0
1593, 0.72807381366922, 0.22225489800746, 0
1594, 0.71935045690348, 0.20718153152616, 0
1595, 0.045174348022647, -0.055296182450869, 0
1596, 0.022456529559911, -0.081829634498791, 0
1597, 0.022772367196725, -0.026982327150542, 0
1598, 0.022599917592158, -0.054348023173973, 0
1599, 0.25873002630098, 0.12209663015541, 0
1600, 0.28521695997317, 0.15455829287919, 0
1601, 0.41758540607848, -0.18287295067722, 0
1602, 0.43964357041345, -0.17155383696487, 0
1603, 0.55808735015817, -0.23094613770974, 0
1604, 0.3428159361691, 0.21216090397286, 0
1605, 0.34672973081382, 0.20701644040843, 0
1606, 0.34917050702007, 0.21002581197643, 0
1607, 0.63044173147594, 0.25768235561035, 0
1608, 0.66589543340604, 0.24507537416695, 0
1609, 0.67603399375741, 0.25334623919693, 0
1610, 0.61341881706959, 0.26265394694271, 0
1611, 0.33748592534643, 0.20675626864224, 0
1612, 0.34404550230881, 0.20406260339235, 0
1613, 0.41760113826799, -0.17364503936496, 0
1614, 0.37630009679309, -0.19537125923286, 0
1615, 0.19110531683759, 0.096429130173475, 0
1616, 0.17320897414158, 0.11208551552757, 0
1617, 0.19625699253856, 0.081097064879951, 0
1618, 0.11945757623188, 0.24944791866555, 0
1619, 0.14882510244189, 0.27473082037541, 0
1620, 0.12430819766236, 0.27467977961113, 0
1621, 0.44533306874566, -0.2443694700444, 0
1622, 0.44530313610149, -0.2732593179076, 0
1623, 0.22161806701823, -0.25733948558912, 0
1624, 0.2494868139436, -0.27928137971409, 0
1625, 0.22420063908438, -0.2787216921961, 0
1626, 0.47815522619375, -0.1704316547542, 0
1627, 0.48257402666337, -0.17009303334912, 0
1628, 0.54121266027514, -0.1915091632037, 0
1629, 0.046396140730284, 0.0013715181872576, 0
1630, 0.023126736656927, 0.00056472704028632, 0
1631, 0.73329914281417, 0.046187881134344, 0
1632, 0.73880312373121, 0.041348537077415, 0
1633, 0.7331228137227, 0.04219871565228, 0
1634, 0.73489686623353, 0.069035332348787, 0
1635, 0.7655342933358, 0.039880642082507, 0
1636, 0.80994930033362, 0.15639756858817, 0
1637, 0.54983888367738, -0.17238483174192, 0
1638, 0.52793626115055, -0.23200232612709, 0
1639, 0.59165121995402, 0.26783262454325, 0
1640, 0.60475795258089, 0.26379782920094, 0
1641, 0.59871251584864, 0.2903309705125, 0
1642, 0.65310006439601, 0.25288781415589, 0
1643, 0.67129509691188, 0.2357991409725, 0
1644, 0.61777996131057, 0.26175995287683, 0
1645, 0.72290310880011, -0.040964381064928, 0
1646, 0.71440134602732, -0.044300199875482, 0
1647, 0.7152446355914, -0.040193208584333, 0
1648, 0.66819964429318, -0.22587648698145, 0
1649, 0.55826374670742, -0.18768654441707, 0
1650, 0.72197401203494, -0.050196542733781, 0
1651, 0.70141466397021, -0.099647694327266, 0
1652, 0.71344031201547, -0.048418222190491, 0
1653, 0.49896750405807, 0.27249927442718, 0
1654, 0.49706094218389, 0.29359117819173, 0
1655, 0.77554499213364, 0.14476005358252, 0
1656, 0.80055641068157, 0.06913510225783, 0
1657, 0.73129745883217, 0.14054628242337, 0
1658, 0.31968921176494, 0.17810171606179, 0
1659, 0.31305277337281, 0.19641891270098, 0
1660, 0.32510935332788, 0.18345404292784, 0
1661, 0.32253201238827, 0.18073438203492, 0
1662, 0.56475825825621, 0.28386753108814, 0
1663, 0.56580801358841, 0.29149151895816, 0
1664, 0.32038855642396, 0.19960196520793, 0
1665, 0.32935156559115, 0.18910543221784, 0
1666, 0.32732112005747, 0.1862406379416, 0
1667, 0.27819593261821, 0.13947422541689, 0
1668, 0.73412132123551, 0.061341335733918, 0
1669, 0.74189307601354, 0.059468448788669, 0
1670, 0.73371390781242, 0.053868728038322, 0
1671, 0.7338365472694, 0.057644802204468, 0
1672, 0.41952749079059, 0.28892725248406, 0
1673, 0.43598960128601, 0.28208598966605, 0
1674, 0.46671178732257, 0.28578475655897, 0
1675, 0.48819332495578, -0.18400633201772, 0
1676, 0.40105801896038, -0.18090702748937, 0
1677, 0.40369387366375, -0.19312594316701, 0
1678, 0.2864957111579, -0.18306784174375, 0
1679, 0.69642725088624, -0.09818105856944, 0
1680, 0.68826622104735, -0.11838788330399, 0
1681, 0.70391353869279, -0.091704019710465, 0
1682, 0.52023206302392, -0.17157248752833, 0
1683, 0.62026181211818, -0.22453712405966, 0
1684, 0.5232529550069, -0.1999402890625, 0
1685, 0.60713116167318, -0.18516445986035, 0
1686, 0.5484376617532, -0.18833357115794, 0
1687, 0.58999405344343, -0.18695908628721, 0
1688, 0.71069904388436, 0.18267298918041, 0
1689, 0.73493353164124, 0.17862813241722, 0
1690, 0.72691384647508, 0.17557752401383, 0
1691, 0.69417383788171, 0.21031478269456, 0
1692, 0.04502933511019, -0.11178849244603, 0
1693, 0.022436084270476, -0.10968882229489, 0
1694, 0.52941713357729, -0.17262935973408, 0
1695, 0.56246770726146, -0.17307115121913, 0
1696, 0.47590319845094, 0.27624910247974, 0
1697, 0.50201515302869, 0.27663724060081, 0
1698, 0.29903134613375, -0.040994089532802, 0
1699, 0.25623240835339, -0.071197028408312, 0
1700, 0.31808783370733, -0.094230596576126, 0
1701, 0.73781302856734, 0.19480698361169, 0
1702, 0.71349324640708, 0.20309559767752, 0
1703, 0.69820371054881, 0.22398897520924, 0
1704, 0.78445596446085, 0.066527391753499, 0
1705, 0.72863907884811, 0.12079356739227, 0
1706, 0.77670836479414, 0.082082707290052, 0
1707, 0.67113781893729, 0.2682990288593, 0
1708, 0.6630845800823, 0.25661172999051, 0
1709, 0.5929827958117, -0.21390919875809, 0
1710, 0.24758817306131, 0.035709630637921, 0
1711, 0.22745639147665, 0.031862701855557, 0
1712, 0.24197700743751, 0.032309088259674, 0
1713, 0.23868886709546, -0.066183007882581, 0
1714, 0.74399460994404, 0.049607049350842, 0
1715, 0.73349364392481, 0.050085566293387, 0
1716, 0.70324585546821, 0.19775080559474, 0
1717, 0.7310077308254, 0.27382306699723, 0
1718, 0.68160995484915, 0.22690804665676, 0
1719, 0.70075503159241, 0.21590180222586, 0
1720, 0.66006531426575, 0.24262773463457, 0
1721, 0.61295332161414, 0.28296458946237, 0
1722, 0.60907143649752, 0.26333119902137, 0
1723, 0.77999583350205, -0.06804073319167, 0
1724, 0.64867212620991, -0.15036052897842, 0
1725, 0.75912390051627, -0.12786698326271, 0
1726, 0.68238553569361, -0.11429675660097, 0
1727, 0.33463994544716, -0.11656409081215, 0
1728, 0.31923353154875, -0.11460415271482, 0
1729, 0.33245680263219, -0.11288672003731, 0
1730, 0.64296814740587, -0.15596679490181, 0
1731, 0.64661802103473, -0.16420850662876, 0
1732, 0.63634148222621, -0.16098659620091, 0
1733, 0.63982292227534, -0.1586132671387, 0
1734, 0.70921866395602, 0.18661595516594, 0
1735, 0.71744716035664, 0.1984001595775, 0
1736, 0.69607497710895, -0.14720416628685, 0
1737, 0.6707465608654, -0.14134238703791, 0
1738, 0.75871282944486, -0.11523515782126, 0
1739, 0.67533969584969, -0.13947050507653, 0
1740, 0.6705391663044, 0.27559756057857, 0
1741, 0.6498230299414, 0.24982303819111, 0
1742, 0.64488525691118, 0.27016817698116, 0
1743, 0.4565960982447, 0.28571502708796, 0
1744, 0.43778027730993, 0.27427641071482, 0
1745, 0.43395438355443, 0.27305873956774, 0
1746, 0.47171031827159, 0.29030291233596, 0
1747, 0.82614299473308, -0.23589982453383, 0
1748, 0.78688102741005, -0.26844309661148, 0
1749, 0.81479353920594, -0.26828663472764, 0
1750, 0.21966818260597, 0.029613512049348, 0
1751, 0.25316576190998, 0.18606071427772, 0
1752, 0.72231940031168, -0.076847266737265, 0
1753, 0.72961286035667, -0.057019101588193, 0
1754, 0.39182572483308, 0.2554330541259, 0
1755, 0.42486454571659, 0.26999365032462, 0
1756, 0.44189209155948, 0.27526523487646, 0
1757, 0.70607987854489, -0.11654880521913, 0
1758, 0.62329055481463, 0.2739079484804, 0
1759, 0.63169283725655, 0.28981109012606, 0
1760, 0.7529580525257, 0.056860059117099, 0
1761, 0.73448651551904, 0.065122371807878, 0
1762, 0.38531672706942, 0.25762121520119, 0
1763, 0.38518916265353, 0.25042388950497, 0
1764, 0.3884762058148, 0.25297634581998, 0
1765, 0.28681423617731, -0.05425098988393, 0
1766, 0.29704634416098, -0.03770250779302, 0
1767, 0.72565490448431, 0.0027135434685121, 0
1768, 0.78811192269378, -0.049396948618168, 0
1769, 0.7105723855112, -0.087193207483864, 0
1770, 0.70074226973509, -0.088827065396033, 0
1771, 0.42833471015873, -0.22294712708884, 0
1772, 0.41748059725388, -0.20729357366911, 0
1773, 0.70111558646796, -0.10404038029393, 0
1774, 0.73456935436167, -0.076999730934869, 0
1775, 0.58946551303416, -0.17602041531094, 0
1776, 0.63972133453375, -0.17027804282004, 0
1777, 0.62897177370251, -0.16532755704214, 0
1778, 0.6327361164044, -0.16323806383713, 0
1779, 0.36940476095093, 0.23622295903121, 0
1780, 0.33619276178396, 0.27156184629733, 0
1781, 0.35392487875454, 0.22934123197615, 0
1782, 0.21966254590794, 0.10373082416796, 0
1783, 0.27321809588651, -0.03676807233603, 0
1784, 0.25943067497767, -0.015658974615063, 0
1785, 0.2451342007863, 0.048925565214512, 0
1786, 0.22729540570154, 0.073754767543672, 0
1787, 0.25078082338392, 0.0469186329161, 0
1788, 0.25018573408041, 0.051009332496821, 0
1789, 0.42193828595045, 0.27243967757686, 0
1790, 0.40618531654793, 0.26387760903136, 0
1791, 0.39411293567063, 0.27519779827067, 0
1792, 0.45038205697402, 0.27648009974673, 0
1793, 0.16580627644757, 0.24937323572599, 0
1794, 0.19661843854136, 0.27481050355827, 0
1795, 0.17290343709543, 0.2747196789486, 0
1796, 0.73601219268151, 0.016875289145746, 0
1797, 0.72988622394393, 0.018710787003886, 0
1798, 0.51368705089863, -0.16646304764697, 0
1799, 0.68800489549754, -0.13066994753183, 0
1800, 0.65902568369245, -0.14075706384338, 0
1801, 0.69248744612635, -0.1102732275719, 0
1802, 0.70960124201603, -0.13258097503798, 0
1803, 0.65721608574174, -0.13924259879792, 0
1804, 0.77355775429445, -0.11894671586509, 0
1805, 0.21146807869718, 0.06626377640714, 0
1806, 0.24279158454802, 0.1527194401942, 0
1807, 0.22880496564317, 0.05080332182215, 0
1808, 0.43921208013428, 0.27871241623351, 0
1809, 0.39090645312889, 0.26759976362628, 0
1810, 0.45889617878237, 0.27692581983698, 0
1811, 0.39083041857886, -0.20388879172812, 0
1812, 0.41307177207302, -0.17328237592512, 0
1813, 0.35642465905376, -0.16239542392206, 0
1814, 0.071582676114285, -0.24919505363253, 0
1815, 0.07273466799001, -0.27467210518711, 0
1816, 0.37786530386328, 0.25227241082976, 0
1817, 0.38194453568828, 0.24778372231121, 0
1818, 0.68992974580331, 0.22623110228578, 0
1819, 0.71380605575026, 0.2110491585577, 0
1820, 0.95053543034503, 0.21945552881605, 0
1821, 0.97528976759071, 0.21990334069425, 0
1822, 0.29713967317906, -0.17248969051606, 0
1823, 0.31935323098538, -0.14912763921517, 0
1824, 0.38742939122954, -0.16589489259368, 0
1825, 0.3496954162203, -0.15715145803218, 0
1826, 0.72349227025604, -0.11527974141011, 0
1827, 0.71406715393792, -0.11977470269722, 0
1828, 0.39082501298004, -0.17728665581591, 0
1829, 0.36596937869585, -0.15601900214664, 0
1830, 0.28443534579205, -0.045435433305651, 0
1831, 0.31177975895818, -0.079993650260697, 0
1832, 0.17224794105456, 0.13497545268202, 0
1833, 0.62098463304018, -0.16902851495138, 0
1834, 0.62265644682584, -0.18021845318857, 0
1835, 0.61247577615812, -0.17207094719737, 0
1836, 0.6167922945556, -0.17064020209848, 0
1837, 0.30556054089939, -0.070580912243358, 0
1838, 0.32098706862841, -0.10313820915751, 0
1839, 0.29643864605654, -0.077612159176712, 0
1840, 0.6342845310956, 0.25589238320421, 0
1841, 0.64273690841572, 0.26274009984719, 0
1842, 0.76518880877675, 0.10068887915752, 0
1843, 0.74728408098469, 0.068361674558741, 0
1844, 0.65317807330958, 0.24929669750255, 0
1845, 0.62635222332829, 0.25926916366079, 0
1846, 0.89486825813798, 0.27346543815555, 0
1847, 0.87080805422024, 0.247210735141, 0
1848, 0.84144881334078, 0.2747640138806, 0
1849, 0.86825872013046, 0.27387838889475, 0
1850, 0.4468969564118, -0.1740919072909, 0
1851, 0.36106306455393, -0.15721805364552, 0
1852, 0.23804351996598, -0.19592092142309, 0
1853, 0.72947390144465, -0.27914349614672, 0
1854, 0.75820100904947, -0.27174261313299, 0
1855, 0.72884726744633, 0.1940348803792, 0
1856, 0.74293748646151, -0.14550844330322, 0
1857, 0.66286566035757, -0.2353666153453, 0
1858, 0.49833843291362, -0.22181593330064, 0
1859, 0.67633044711708, -0.28475988880746, 0
1860, 0.71196082166402, -0.26309862596055, 0
1861, 0.7026340411477, -0.28291742838178, 0
1862, 0.47965339729453, -0.17748866453348, 0
1863, 0.36794419650734, -0.15145702048672, 0
1864, 0.23635931329969, 0.065398831621474, 0
1865, 0.92583444604791, -0.24383728122432, 0
1866, 0.94831327578813, -0.27254357576178, 0
1867, 0.9220341062031, -0.27180209097406, 0
1868, 0.31224531948804, -0.094385351400147, 0
1869, 0.27336728441794, -0.25893181243829, 0
1870, 0.29943140799831, -0.27914293008024, 0
1871, 0.27458819974164, -0.27941988217134, 0
1872, 0.32551822048124, 0.19731361180088, 0
1873, 0.33244567125663, 0.1921648088857, 0
1874, 0.24625209961053, 0.076282628597407, 0
1875, 0.23086986325653, 0.056406945826226, 0
1876, 0.63177396683603, -0.17568254811311, 0
1877, 0.62504855120105, -0.16725665667598, 0
1878, 0.26614966823706, 0.01335030808955, 0
1879, 0.97531239207676, -0.24652263737604, 0
1880, 0.97420024213006, -0.27327015394305, 0
1881, 0.42781960341401, 0.270500948831, 0
1882, 0.23569478480992, 0.055825163144034, 0
1883, 0.21492228526033, 0.16737027069372, 0
1884, 0.24024095158499, 0.055893398582387, 0
1885, 0.67885146923109, 0.25968533678969, 0
1886, 0.61524917273408, 0.26856190719971, 0
1887, 0.45853316176666, -0.17513702694559, 0
1888, 0.68891143990545, 0.2375754001405, 0
1889, 0.42858744061799, 0.27734504023072, 0
1890, 0.44370636672815, 0.28933185092454, 0
1891, 0.5548057835976, 0.27110703833275, 0
1892, 0.53541270415136, 0.27871298650676, 0
1893, 0.54687415600529, 0.27780795504118, 0
1894, 0.36201983797083, -0.14786184494663, 0
1895, 0.65240628688735, -0.15744308023556, 0
1896, 0.6459369264548, -0.15322014922215, 0
1897, 0.72192202113162, 0.17735974160084, 0
1898, 0.7226917475879, 0.16737345283789, 0
1899, 0.25538183003806, 0.11840943699737, 0
1900, 0.39549995497263, -0.16930234895436, 0
1901, 0.35496927197331, -0.19011400613964, 0
1902, 0.46166457863578, 0.28582977994384, 0
1903, 0.39930009776698, 0.28244498613503, 0
1904, 0.42515234696471, 0.27247567660116, 0
1905, 0.32502856045256, -0.1944491563892, 0
1906, 0.33946920234667, -0.12377288176222, 0
1907, 0.33847937399037, -0.13131658402703, 0
1908, 0.92330503355264, 0.2464594610639, 0
1909, 0.92146504335794, 0.27331103579128, 0
1910, 0.3988497228129, 0.25996662296676, 0
1911, 0.45464201719036, 0.27678047328546, 0
1912, 0.39940641259721, 0.28819188143046, 0
1913, 0.30672491436943, 0.18439571957723, 0
1914, 0.31618103223797, 0.17540819037119, 0
1915, 0.39691935255187, -0.19140843802924, 0
1916, 0.54816884677919, -0.17086309510794, 0
1917, 0.6225801271256, -0.28205803898394, 0
1918, 0.65893485667006, -0.27028811567336, 0
1919, 0.65010717257744, -0.28438522589018, 0
1920, 0.71490185482301, 0.23961953907626, 0
1921, 0.70621163584859, 0.23796137830176, 0
1922, 0.33247359375412, -0.12391705955758, 0
1923, 0.33697023890641, -0.12020036608286, 0
1924, 0.26646636589897, -0.064401947771122, 0
1925, 0.50626269426802, -0.17469839893282, 0
1926, 0.44963362273971, -0.16774452970315, 0
1927, 0.86907231020238, -0.12522004160106, 0
1928, 0.32539576694483, -0.25617502033335, 0
1929, 0.34840480469137, -0.27497474887672, 0
1930, 0.32374241972102, -0.27787875564671, 0
1931, 0.51107586044404, 0.27699947064471, 0
1932, 0.51130047587125, 0.27202974801883, 0
1933, 0.59751790205578, -0.28225384756865, 0
1934, 0.4462722481036, 0.28482651521579, 0
1935, 0.4099263783792, 0.27448217143811, 0
1936, 0.43150809438804, 0.27541078570812, 0
1937, 0.30141693690804, -0.20602479135113, 0
1938, 0.92767671959818, 0.19191694504915, 0
1939, 0.93200760477235, 0.1371887553407, 0
1940, 0.90609511457677, 0.16444461087951, 0
1941, 0.93002912128889, 0.16447593782013, 0
1942, 0.047129305550654, 0.22127046138889, 0
1943, 0.023656229448028, 0.22008002028328, 0
1944, 0.21104282817844, 0.24964168775887, 0
1945, 0.22027350632635, 0.27540241637045, 0
1946, 0.3793390888021, -0.2473788728832, 0
1947, 0.37071268205742, -0.27410405645892, 0
1948, 0.81486164798082, 0.25138559410185, 0
1949, 0.78837737846613, 0.27932972755164, 0
1950, 0.81473763460385, 0.27639259030656, 0
1951, 0.9525457740741, -0.21771315857306, 0
1952, 0.97622874672515, -0.219448622971, 0
1953, 0.43504131823734, 0.27718518049834, 0
1954, 0.37362203576654, 0.29169577936172, 0
1955, 0.42053092021013, 0.2795243210968, 0
1956, 0.63816748343303, 0.25948908892318, 0
1957, 0.69285452264176, 0.28260396746121, 0
1958, 0.70900993177411, 0.23141192395517, 0
1959, 0.53043855504904, -0.21954445621331, 0
1960, 0.50929838895589, -0.17204640177621, 0
1961, 0.93676839898795, 0.028658399201557, 0
1962, 0.93658580199194, -0.024137621939144, 0
1963, 0.91547543353145, 0.0031752306548065, 0
1964, 0.9369025166239, 0.0021689802961615, 0
1965, 0.67319977309916, 0.24779937954414, 0
1966, 0.70398774739731, 0.29125438851849, 0
1967, 0.65490902249057, 0.26747496755389, 0
1968, 0.29453247852492, -0.044229669223154, 0
1969, 0.22372814870557, -0.077077326228673, 0
1970, 0.71762667362672, 0.29117418792547, 0
1971, 0.67055661101344, 0.26149584909802, 0
1972, 0.73924021941951, 0.1163686562259, 0
1973, 0.74183431265551, 0.080116731685017, 0
1974, 0.93485730368863, -0.1328417980018, 0
1975, 0.91368306721812, -0.10264147417974, 0
1976, 0.9360591314018, -0.077719627530621, 0
1977, 0.93556207184061, -0.10514864767821, 0
1978, 0.04682280447514, -0.22174510381668, 0
1979, 0.02338495408799, -0.22032760876406, 0
1980, 0.36352866628177, 0.2838730975806, 0
1981, 0.35262885018612, 0.29162811311656, 0
1982, 0.36315996593246, 0.29183986781741, 0
1983, 0.74463974465805, 0.035803282241948, 0
1984, 0.74838306140533, 0.030251232522733, 0
1985, 0.74309657020282, 0.027861323957715, 0
1986, 0.7436697332517, 0.031755660111271, 0
1987, 0.72294160360553, -0.036407144070111, 0
1988, 0.71782131947901, -0.020621958521702, 0
1989, 0.91405135593543, 0.056097778787908, 0
1990, 0.93506774937896, 0.082700352272585, 0
1991, 0.93586372323741, 0.055628614014484, 0
1992, 0.74696459745274, 0.28876496698424, 0
1993, 0.76550914977243, 0.28502827696416, 0
1994, 0.071391512539821, 0.14362461491286, 0
1995, 0.094073738755013, 0.11894333383314, 0
1996, 0.070671843395995, 0.090594661218765, 0
1997, 0.070244835689727, 0.11664739487843, 0
1998, 0.31662672616853, 0.19205506071717, 0
1999, 0.3180084264931, 0.18527630064399, 0
2000, 0.28999349243749, 0.20366337495272, 0
2001, 0.91513762988699, -0.048687333543529, 0
2002, 0.93634886534998, -0.05071044311148, 0
2003, 0.36686699997751, 0.24349387733798, 0
2004, 0.33660170949052, 0.2227367258929, 0
2005, 0.34087523292522, 0.29092247365274, 0
2006, 0.74150035687084, 0.071002760693815, 0
2007, 0.32176256092382, 0.21053683253252, 0
2008, 0.068038794846439, -0.084931004912127, 0
2009, 0.090796051886503, -0.11623280828737, 0
2010, 0.067995034026375, -0.14224628288624, 0
2011, 0.067652105882295, -0.11399875074281, 0
2012, 0.73296862893497, -0.0070324164704965, 0
2013, 0.71657972145076, -0.03209578889419, 0
2014, 0.71969260871579, -0.011372402742616, 0
2015, 0.77031255552123, -0.022439007849118, 0
2016, 0.068572734883742, -0.027210640542902, 0
2017, 0.090668874715138, -0.056591059711519, 0
2018, 0.067736621109039, -0.05616854314574, 0
2019, 0.69535224924823, -0.10206092900688, 0
2020, 0.66622477417432, -0.14261074782807, 0
2021, 0.73202424038622, 0.29065990533106, 0
2022, 0.11542389412691, -0.08770076091672, 0
2023, 0.11500160915921, 0.098958831483991, 0
2024, 0.13542428942067, -0.054240743845687, 0
2025, 0.11324332851025, -0.056440969861111, 0
2026, 0.76279818742195, 0.071464069166663, 0
2027, 0.7582153678248, 0.11438656906802, 0
2028, 0.49903574768569, -0.16754992109526, 0
2029, 0.43110768252186, -0.19092261886071, 0
2030, 0.91127965782846, 0.11029572884653, 0
2031, 0.93360033920217, 0.10998816004407, 0
2032, 0.55230572914977, -0.17431593614079, 0
2033, 0.52594982829241, -0.16817227721042, 0
2034, 0.31320194558207, -0.099571931894744, 0
2035, 0.31709580414466, -0.089811119202565, 0
2036, 0.37253720493398, 0.23925498570038, 0
2037, 0.34623150225692, 0.23173412734173, 0
2038, 0.33950062158979, 0.21472833269037, 0
2039, 0.30604365114792, -0.094044972024317, 0
2040, 0.31146277767694, -0.084582098356672, 0
2041, 0.28917960395719, -0.12900279240652, 0
2042, 0.32674835513992, -0.10148493712292, 0
2043, 0.274952739836, -0.060108941420341, 0
2044, 0.29197304204934, -0.10795629964946, 0
2045, 0.3009631938348, -0.044378474183319, 0
2046, 0.47542426470861, -0.18578128610388, 0
2047, 0.47360408914655, -0.21532345549306, 0
2048, 0.50231959310317, -0.17140840783388, 0
2049, 0.49432389239276, -0.17455670507098, 0
2050, 0.49844479906364, -0.17977413972229, 0
2051, 0.3136040493338, -0.072051975299673, 0
2052, 0.30757686916713, -0.077969903715608, 0
2053, 0.33721385014387, -0.15273134048664, 0
2054, 0.30398469024875, -0.14730581661149, 0
2055, 0.3641654571459, -0.20566934059325, 0
2056, 0.33105544004335, -0.14911510691278, 0
2057, 0.32900854350889, 0.2331152516161, 0
2058, 0.31633966573829, 0.20625966315671, 0
2059, 0.43472855331425, -0.20235098815573, 0
2060, 0.50828509033794, -0.16772910720768, 0
2061, 0.36273977140443, -0.15001085899927, 0
2062, 0.34035496206397, -0.18424183817682, 0
2063, 0.30227612286991, -0.067203291528688, 0
2064, 0.30272871210917, -0.11443414626056, 0
2065, 0.74787691088467, 0.024348109907885, 0
2066, 0.74292231753791, 0.019869567812714, 0
2067, 0.74283984880044, 0.024160688206248, 0
2068, 0.53838514630713, -0.17254137945978, 0
2069, 0.5099724325455, -0.20445779395095, 0
2070, 0.53398443859043, -0.17272509476793, 0
2071, 0.57229044232053, -0.21339717436444, 0
2072, 0.26794712897808, 0.0041801050938259, 0
2073, 0.28125457892229, -0.041294926840669, 0
2074, 0.277587300628, -0.039454461159656, 0
2075, 0.47818695497273, -0.19618989609855, 0
2076, 0.72135702662528, -0.13135795827212, 0
2077, 0.74421275442981, -0.11057419638994, 0
2078, 0.74591590302753, -0.13446640771412, 0
2079, 0.68422030799996, -0.13417381865668, 0
2080, 0.75548355166521, 0.051769287614144, 0
2081, 0.74182036418633, 0.12570044306417, 0
2082, 0.77875396427272, 0.05819804005465, 0
2083, 0.74380117513611, 0.061481929595, 0
2084, 0.73880933281952, 0.056830353593127, 0
2085, 0.75657254316343, 0.081206383558371, 0
2086, 0.74744210060999, 0.15675895794567, 0
2087, 0.76149727229387, 0.13341844656373, 0
2088, 0.74864607158334, 0.078092673225047, 0
2089, 0.79003979827957, 0.038360757136212, 0
2090, 0.76710204949042, 0.019044905928759, 0
2091, 0.84984526795, 0.027433130056372, 0
2092, 0.89410659788997, -0.020956566867022, 0
2093, 0.89325943533382, -0.072506708167054, 0
2094, 0.87284329956329, -0.043285531801032, 0
2095, 0.8940585320187, -0.046327310112621, 0
2096, 0.757433804748, 0.12532200457314, 0
2097, 0.73207266626766, 0.10642498948638, 0
2098, 0.71625532057367, 0.18273344497156, 0
2099, 0.76623189179191, 0.093002822704312, 0
2100, 0.55489551574801, -0.20120723927899, 0
2101, 0.79365852842352, 0.057706686803169, 0
2102, 0.75577731987064, 0.099752888554203, 0
2103, 0.65432412163872, -0.24487232634837, 0
2104, 0.21112080882431, 0.017933664420392, 0
2105, 0.24264132401962, -0.0068091408191446, 0
2106, 0.26378381108274, 0.00099639713561144, 0
2107, 0.71697719762047, 0.16260785524255, 0
2108, 0.72068291098166, 0.19282570132701, 0
2109, 0.70821265648185, 0.20010111682197, 0
2110, 0.88686149897981, -0.18370316592049, 0
2111, 0.9056780648361, -0.21411982211094, 0
2112, 0.85911561267031, -0.2089741688516, 0
2113, 0.88212859788853, -0.21179119219823, 0
2114, 0.073516529351528, 0.033726010529143, 0
2115, 0.17209693856122, -0.0023540456230866, 0
2116, 0.071931611000362, 0.063455646939768, 0
2117, 0.14287868999607, -0.22909231240053, 0
2118, 0.094263690339628, -0.22507099425987, 0
2119, 0.11672108999239, -0.20145601797501, 0
2120, 0.11843265671696, -0.22696583431339, 0
2121, 0.74380043061401, 0.13027607559586, 0
2122, 0.7485882681621, 0.09390678589133, 0
2123, 0.53376665736748, -0.17700435661719, 0
2124, 0.55963590099611, -0.21190293170555, 0
2125, 0.89063645958177, 0.083927077082555, 0
2126, 0.86605963777553, 0.1118934911281, 0
2127, 0.88590974040157, 0.13742615187276, 0
2128, 0.88880798617585, 0.11083354773973, 0
2129, 0.24462896042611, 0.056866401005789, 0
2130, 0.23800266764051, 0.11545737205166, 0
2131, 0.748970109946, 0.083303122201317, 0
2132, 0.74804410843684, 0.07308356140359, 0
2133, 0.727076737294, 0.13189049639572, 0
2134, 0.76399391090777, 0.048074418859089, 0
2135, 0.4114553586756, 0.28405956629703, 0
2136, 0.40247491825344, 0.26200839671796, 0
2137, 0.41903003369815, 0.27569690007964, 0
2138, 0.74161375652169, 0.11282667747648, 0
2139, 0.75075498490026, 0.039848641900104, 0
2140, 0.7448196882748, 0.040460901131716, 0
2141, 0.33233969772967, 0.21657654828055, 0
2142, 0.34480672625375, 0.2149851011037, 0
2143, 0.89394024307068, 0.029432926501887, 0
2144, 0.80166419436791, 0.046395447579236, 0
2145, 0.89168253040024, 0.056593010019321, 0
2146, 0.73104538307718, -0.046638936617574, 0
2147, 0.73974144711803, -0.053524465481711, 0
2148, 0.66138336110143, -0.13995706011937, 0
2149, 0.73053169981322, -0.051837307933731, 0
2150, 0.7025706223552, 0.20659441601166, 0
2151, 0.71210676064163, 0.26512086601388, 0
2152, 0.54012835393022, -0.18582501756768, 0
2153, 0.59419804325576, -0.17570922152235, 0
2154, 0.2338607542393, 0.14578362193875, 0
2155, 0.28032674008703, 0.14836723467927, 0
2156, 0.28230165524895, 0.15781644862049, 0
2157, 0.29638947618822, 0.15852621378677, 0
2158, 0.69480348524206, 0.21855893017605, 0
2159, 0.70542130041106, 0.25480091141431, 0
2160, 0.69847005670677, 0.20427800411641, 0
2161, 0.30683776060367, -0.055040344602386, 0
2162, 0.32499116000602, -0.11180404328635, 0
2163, 0.23220639836408, 0.086335642660545, 0
2164, 0.65629861636805, 0.24441746448606, 0
2165, 0.71418154308876, 0.16841791797185, 0
2166, 0.72168697516549, 0.18747512268009, 0
2167, 0.74201531350106, 0.17463023649203, 0
2168, 0.64390770872683, -0.22992971097393, 0
2169, 0.63502700286411, -0.18706331811973, 0
2170, 0.62988139395289, -0.18982176422981, 0
2171, 0.28555323189923, -0.031513610274017, 0
2172, 0.27441654636587, -0.028371671023627, 0
2173, 0.27768527231597, -0.082093774485764, 0
2174, 0.32360854056055, -0.093720547333122, 0
2175, 0.31083192207839, -0.069374222933021, 0
2176, 0.28378296469317, -0.063142042400467, 0
2177, 0.36533401783025, 0.25111364392879, 0
2178, 0.57090541787555, -0.17492180462093, 0
2179, 0.59086513547094, -0.1994415497954, 0
2180, 0.51019258834213, -0.16563105878505, 0
2181, 0.19950538961296, 0.074520078299979, 0
2182, 0.24076983688512, 0.061801785508561, 0
2183, 0.23880645178859, 0.063326957847171, 0
2184, 0.21163201745437, 0.055835783540739, 0
2185, 0.239866457845, 0.042157405673609, 0
2186, 0.25604028792568, 0.010505185436477, 0
2187, 0.71847516938239, -0.014187212772023, 0
2188, 0.72424630567056, -0.0010993423984311, 0
2189, 0.73622042168342, -0.030288455217667, 0
2190, 0.15423500674289, -0.024514969279069, 0
2191, 0.070286329826307, 0.0022305960740861, 0
2192, 0.26161354404234, 0.012213886245978, 0
2193, 0.2405397095162, 0.037095022241406, 0
2194, 0.24380510601848, 0.027428894181119, 0
2195, 0.6772360942849, -0.15413378132331, 0
2196, 0.68241120118183, -0.12563731890949, 0
2197, 0.74718894603657, 0.0035568907660651, 0
2198, 0.73821189815624, 0.001230114262026, 0
2199, 0.74159406653827, 0.010657018539854, 0
2200, 0.74025482067586, 0.0057829122584693, 0
2201, 0.45147447700286, 0.28540769530061, 0
2202, 0.24675881216132, 0.072648482612468, 0
2203, 0.22152443958876, 0.060123198395109, 0
2204, 0.21228517260453, 0.15712062849578, 0
2205, 0.87289196893418, 0.0044769949172903, 0
2206, 0.89412057862635, 0.0040125215197301, 0
2207, 0.71720093841843, 0.17439847030384, 0
2208, 0.70538152243538, 0.19425549317827, 0
2209, 0.44716991077482, -0.16911678906997, 0
2210, 0.35782423450598, -0.14254333274261, 0
2211, 0.31988760404962, 0.2242311800738, 0
2212, 0.72449727872835, 0.14385005618042, 0
2213, 0.76595257050202, 0.19951565333281, 0
2214, 0.17462079253799, 0.10129748036112, 0
2215, 0.41201805772482, -0.18271340529389, 0
2216, 0.39975116191651, -0.17067240377082, 0
2217, 0.23384319121668, 0.04570738217164, 0
2218, 0.23973906799565, 0.047140246974467, 0
2219, 0.34628317360275, -0.2156030930215, 0
2220, 0.74775598788132, -0.010584087971111, 0
2221, 0.74135617900838, -0.0066131636305015, 0
2222, 0.40441827371256, -0.22522745524552, 0
2223, 0.250965878265, 0.026998694895969, 0
2224, 0.28658133614715, -0.040480114015581, 0
2225, 0.28564554807301, -0.14409603886003, 0
2226, 0.31593354349121, -0.077545014623123, 0
2227, 0.29535125304306, -0.13880445279949, 0
2228, 0.30360060685757, 0.16674184072471, 0
2229, 0.30146207321666, 0.16418098141876, 0
2230, 0.29590337689585, 0.16896683971498, 0
2231, 0.22220456052544, 0.17663631361811, 0
2232, 0.31813181282977, 0.19572808379628, 0
2233, 0.3028973438879, 0.17507018812225, 0
2234, 0.3121999970348, 0.18063882761667, 0
2235, 0.31474588611628, 0.18799570190146, 0
2236, 0.20715107311393, 0.086688975514678, 0
2237, 0.20949915347004, 0.080877264129419, 0
2238, 0.30337267189042, -0.075330291876321, 0
2239, 0.31479472232822, -0.10468962788713, 0
2240, 0.66141865166146, 0.24690573343965, 0
2241, 0.66932916972474, 0.25539946833767, 0
2242, 0.75039187427722, 0.045285388651418, 0
2243, 0.70746640748592, 0.19050642085711, 0
2244, 0.73642413362141, 0.11114360551238, 0
2245, 0.76608762041481, 0.085377035780033, 0
2246, 0.74160398767336, 0.089498140873839, 0
2247, 0.52101630829214, 0.28172694678072, 0
2248, 0.52942292362235, 0.2931511050561, 0
2249, 0.53713757229855, 0.27260446602323, 0
2250, 0.53569256008823, 0.29241394377402, 0
2251, 0.72488014971356, -0.072205188123354, 0
2252, 0.70580458117209, -0.13815698055862, 0
2253, 0.71619403449792, -0.068091350548682, 0
2254, 0.65611283621052, -0.18411342502273, 0
2255, 0.64383620579719, -0.1807767057309, 0
2256, 0.65097708387842, -0.17370585236268, 0
2257, 0.64756867091048, -0.17730139277398, 0
2258, 0.38864574359478, 0.27298895192902, 0
2259, 0.72822957133814, 0.18101490403877, 0
2260, 0.72031200776019, 0.15555227965594, 0
2261, 0.71376666064821, 0.19162309364795, 0
2262, 0.27331833676662, -2.3541640462517e-05, 0
2263, 0.28840898926555, -0.043539425679977, 0
2264, 0.22737193790565, 0.0043857566711816, 0
2265, 0.20306628831982, 0.037534583372912, 0
2266, 0.79508364168687, 0.00032763588371394, 0
2267, 0.87096965313867, -0.06836255471546, 0
2268, 0.76563466283345, 0.00057875254988111, 0
2269, 0.77899943105272, -6.0148007660341e-05, 0
2270, 0.27107032330277, -0.2182174252886, 0
2271, 0.35122438062671, -0.13719219376422, 0
2272, 0.34306586258742, -0.20421881090345, 0
2273, 0.32485626512947, -0.1236174606045, 0
2274, 0.28230370895232, -0.10773216719481, 0
2275, 0.7524245896668, 0.13471316938567, 0
2276, 0.75215580387462, 0.065069725471599, 0
2277, 0.80732769958052, 0.098977279091004, 0
2278, 0.54222190955731, -0.16877116709334, 0
2279, 0.48975458974455, -0.17584270663037, 0
2280, 0.73961676830526, -0.041700648695097, 0
2281, 0.73074500513394, -0.041387737616694, 0
2282, 0.72693761276149, 0.006637189028724, 0
2283, 0.38363944275773, -0.16385664963518, 0
2284, 0.37350193092, -0.15675376347132, 0
2285, 0.33107401914481, -0.13167220961443, 0
2286, 0.31271815846291, -0.15565721758788, 0
2287, 0.29203677526588, -0.06376923768104, 0
2288, 0.27320662543743, -0.092407093324868, 0
2289, 0.27111647640472, -0.074328457829391, 0
2290, 0.69459432071138, -0.089253516752307, 0
2291, 0.66202521787485, -0.14321669536529, 0
2292, 0.70724293851255, -0.10534366750259, 0
2293, 0.67740168812596, -0.12116365117922, 0
2294, 0.70992035533231, -0.094210438201125, 0
2295, 0.72805486383316, -0.14646687386683, 0
2296, 0.65753100498905, -0.1462550040995, 0
2297, 0.70330933238559, -0.15592143509888, 0
2298, 0.25860309910698, 0.14521245962638, 0
2299, 0.26083293736026, 0.13573619104269, 0
2300, 0.30772776037364, 0.19085404236717, 0
2301, 0.3077604621264, 0.17800745485461, 0
2302, 0.29346206889452, 0.17796262164812, 0
2303, 0.311666984677, -0.089364842502258, 0
2304, 0.28914504212869, -0.059042733336801, 0
2305, 0.24490741131755, -0.082965096554812, 0
2306, 0.31483966281629, 0.23861213730794, 0
2307, 0.32267429710832, 0.21866354627093, 0
2308, 0.62967863741702, -0.22082618098075, 0
2309, 0.26967047459934, -0.0041063791820414, 0
2310, 0.24051324253372, -0.017622290297627, 0
2311, 0.52863238969397, -0.17700216253053, 0
2312, 0.5036715170088, -0.18454019785527, 0
2313, 0.53204206172731, -0.20903798173719, 0
2314, 0.65114156913209, -0.14743012032313, 0
2315, 0.73781137658637, -0.065219132008564, 0
2316, 0.68415887671986, 0.24158077958247, 0
2317, 0.69818619310814, 0.21189115166909, 0
2318, 0.27596284857482, 0.1559969528546, 0
2319, 0.28433468084266, 0.17829492164877, 0
2320, 0.29083311388932, 0.17468809054896, 0
2321, 0.46315763593958, 0.2769367858811, 0
2322, 0.42637005312766, 0.27486613722263, 0
2323, 0.20706693221349, 0.13890336074542, 0
2324, 0.26681701651433, 0.15450053355382, 0
2325, 0.28068440317896, 0.14198539695975, 0
2326, 0.23295514594871, 0.067530661816083, 0
2327, 0.21886060230214, 0.097433459537036, 0
2328, 0.24972908525818, 0.054984541348333, 0
2329, 0.24534329489186, 0.091436329298128, 0
2330, 0.24055950491912, 0.059328913958038, 0
2331, 0.74948568046539, 0.014710623538163, 0
2332, 0.74249262344101, 0.015371960692299, 0
2333, 0.28841461970214, 0.17095543095782, 0
2334, 0.28381425499046, 0.16238313102629, 0
2335, 0.44297924575195, -0.17648346622019, 0
2336, 0.41644989819389, -0.22509600773506, 0
2337, 0.71667257096069, 0.25713877870591, 0
2338, 0.71632714654581, 0.1688949269002, 0
2339, 0.81852085625718, -0.098426763976954, 0
2340, 0.78433950581014, -0.059486733368329, 0
2341, 0.75428274935174, -0.026414566699774, 0
2342, 0.65623072706487, -0.14986791103317, 0
2343, 0.73137427797687, -0.082447744993349, 0
2344, 0.71417563926304, -0.14540887096687, 0
2345, 0.32198743471612, -0.16205233936759, 0
2346, 0.43718990385663, -0.18826620430146, 0
2347, 0.33491833784186, -0.14395735075316, 0
2348, 0.72857206072062, -0.0038347352131061, 0
2349, 0.8102679224632, -0.02905308367003, 0
2350, 0.68668265133589, -0.10712933606927, 0
2351, 0.72688360436215, -0.087058880423471, 0
2352, 0.67460543858689, -0.1243685900051, 0
2353, 0.23442342862776, 0.050893657585704, 0
2354, 0.3420631461347, 0.26423249895288, 0
2355, 0.34945201142234, 0.24896186159973, 0
2356, 0.66298780550439, -0.17676602105234, 0
2357, 0.65715503043511, -0.16613136675553, 0
2358, 0.65419940563293, -0.17002578180632, 0
2359, 0.25726769828719, 0.16048417979202, 0
2360, 0.25214170058575, 0.11435733692285, 0
2361, 0.2211528734603, 0.044885002978074, 0
2362, 0.19989213239296, 0.01521669250186, 0
2363, 0.22757449760789, 0.044840824206903, 0
2364, 0.70696053043093, -0.089667735558652, 0
2365, 0.70326221461237, -0.086037893099694, 0
2366, 0.75885163805313, -0.034206860918199, 0
2367, 0.74497216294682, -0.081619685639084, 0
2368, 0.74479461296939, 0.13565445791472, 0
2369, 0.26874191900194, -0.019355394234338, 0
2370, 0.26372510076112, 0.016381896002731, 0
2371, 0.26140311544817, 0.019717425506286, 0
2372, 0.28334981378023, -0.018230075896713, 0
2373, 0.75707721052772, -0.084768597892445, 0
2374, 0.86773182703043, -0.095730103922184, 0
2375, 0.27181337294558, 0.15532272035526, 0
2376, 0.23646020972297, 0.11092317526283, 0
2377, 0.20504469785864, 0.1004887413466, 0
2378, 0.28032741679902, -0.045613385719201, 0
2379, 0.2854678610829, -0.049451455880359, 0
2380, 0.69155383724676, -0.12685781024104, 0
2381, 0.70151506801288, -0.093097783026762, 0
2382, 0.30668501022553, -0.10001739399873, 0
2383, 0.30046043806429, -0.10727788977487, 0
2384, 0.53834709232505, -0.16880353179595, 0
2385, 0.2984827517348, -0.05156412801679, 0
2386, 0.31246823110597, -0.07580976337743, 0
2387, 0.3048584253651, -0.051414407937909, 0
2388, 0.16563839201928, -0.20694719113542, 0
2389, 0.1933690762674, -0.23348349191894, 0
2390, 0.16811989787371, -0.23106112847453, 0
2391, 0.34502448136449, -0.13075960935725, 0
2392, 0.35280869961325, -0.14375422170175, 0
2393, 0.7391540555623, -0.059444193685364, 0
2394, 0.75805699194376, -0.14128315779892, 0
2395, 0.74777299882572, -0.06827083395008, 0
2396, 0.25202529099936, -0.0013677616546777, 0
2397, 0.29390872017962, -0.055305646432286, 0
2398, 0.65239873875625, 0.27341013335757, 0
2399, 0.64815705470354, -0.19123636029251, 0
2400, 0.63998880025132, -0.18440083712547, 0
2401, 0.24808693326127, 0.10361358672603, 0
2402, 0.25092908179644, -0.0086444684525671, 0
2403, 0.25571117943161, 0.018891445287594, 0
2404, 0.2730099407146, -0.01278060743057, 0
2405, 0.74600654984526, 0.058543593447388, 0
2406, 0.74787387406492, 0.054785371464817, 0
2407, 0.27690787358721, -0.007439933448317, 0
2408, 0.71972273296335, -0.099471177320371, 0
2409, 0.71853256223263, -0.13885491432732, 0
2410, 0.66133217508984, -0.15702770639088, 0
2411, 0.67999550382228, -0.11779487382299, 0
2412, 0.2712931133079, 0.16799964598715, 0
2413, 0.27526436232865, 0.18186064508189, 0
2414, 0.37781344397192, -0.16921423007503, 0
2415, 0.3290892332343, -0.1742181571325, 0
2416, 0.35066682397455, -0.17529741426183, 0
2417, 0.33162547605243, 0.25913069585081, 0
2418, 0.3603146404502, 0.25594752777228, 0
2419, 0.36963628529222, 0.25405971628922, 0
2420, 0.36253844536277, -0.17867061011599, 0
2421, 0.3384704761628, -0.13921591513653, 0
2422, 0.3564982875493, -0.14575973149732, 0
2423, 0.22975922831676, 0.063351993618413, 0
2424, 0.244885099977, 0.053087149098569, 0
2425, 0.24529476637094, 0.087554786223312, 0
2426, 0.65069792518989, 0.26100609065482, 0
2427, 0.66772428649061, 0.24996463975943, 0
2428, 0.67882195999701, 0.24501784890176, 0
2429, 0.63439551432358, 0.26941876684948, 0
2430, 0.20587964176927, 0.07013759336666, 0
2431, 0.24074840712331, 0.06898826588345, 0
2432, 0.23917629296446, 0.072181610574728, 0
2433, 0.72924170448578, 0.11738827685387, 0
2434, 0.73247164586823, 0.12429193336842, 0
2435, 0.27089686228698, 0.0068802346505041, 0
2436, 0.67934055885507, -0.17867206030712, 0
2437, 0.62181319559981, -0.24189831169198, 0
2438, 0.29010052083756, -0.047116368119544, 0
2439, 0.28278576767974, -0.028282347033497, 0
2440, 0.70409015391072, -0.12196725153446, 0
2441, 0.35142520940355, -0.14773129116554, 0
2442, 0.5683930231897, 0.27170918736871, 0
2443, 0.60037808138291, 0.26928648276447, 0
2444, 0.75803048317231, -0.18422695473045, 0
2445, 0.74433830326271, -0.22512626714535, 0
2446, 0.71214484714633, -0.12625889597448, 0
2447, 0.77163244692835, -0.1491948300554, 0
2448, 0.74305958554734, -0.20152686647856, 0
2449, 0.11473983764377, 0.20136864329177, 0
2450, 0.093791011129555, 0.22391927624807, 0
2451, 0.13853439870125, 0.2251447048154, 0
2452, 0.11636152232594, 0.224917613329, 0
2453, 0.32788383809473, -0.1277201340014, 0
2454, 0.32402006914012, -0.20689570360921, 0
2455, 0.30541744133902, -0.16354687146985, 0
2456, 0.84565402839193, 0.088447560649679, 0
2457, 0.73704492609548, 0.15926244419735, 0
2458, 0.73875898843081, 0.053357545794237, 0
2459, 0.79522353017089, 0.013330277219464, 0
2460, 0.069970712281808, 0.19682381321546, 0
2461, 0.070697528588712, 0.2226203373021, 0
2462, 0.52322236713199, 0.2935892900775, 0
2463, 0.68521245912917, -0.17706355054297, 0
2464, 0.5585978863408, -0.17196391391183, 0
2465, 0.67603930388426, -0.19411638665398, 0
2466, 0.64236094593504, -0.25387224118425, 0
2467, 0.24559347639068, 0.09533048785142, 0
2468, 0.45235975965783, -0.16872105738921, 0
2469, 0.23981565330558, 0.051677343454357, 0
2470, 0.69632435016547, 0.25072422857477, 0
2471, 0.69903844635205, 0.23577266846799, 0
2472, 0.89988373465777, 0.21938633929202, 0
2473, 0.92536471093944, 0.21931071529569, 0
2474, 0.73690023332651, 0.11934249658879, 0
2475, 0.77749789352667, 0.091622057137195, 0
2476, 0.75406847547919, 0.069909558330615, 0
2477, 0.2035334942643, -0.011603569231422, 0
2478, 0.26855418984236, 0.01085142798498, 0
2479, 0.72641335688259, 0.13582358045183, 0
2480, 0.87716240860314, 0.19199169139096, 0
2481, 0.88196385310149, 0.1642861994004, 0
2482, 0.20495524758402, 0.092833185197568, 0
2483, 0.23757018771004, 0.075551720988274, 0
2484, 0.24875079647323, 0.062294111525549, 0
2485, 0.22082738037288, 0.10999305021185, 0
2486, 0.31525972072585, 0.18292478204907, 0
2487, 0.86797653135705, 0.085342790460827, 0
2488, 0.7351148024068, 0.081697455506382, 0
2489, 0.7525967714155, 0.14203551353362, 0
2490, 0.24497590346553, -0.23771428744936, 0
2491, 0.21590303211596, -0.21437788939514, 0
2492, 0.21883713371756, -0.23594337903942, 0
2493, 0.69654327273056, 0.21501340723936, 0
2494, 0.72489290314565, 0.24084305154727, 0
2495, 0.69254251924022, 0.22234120971001, 0
2496, 0.84320874086905, -0.17702656833565, 0
2497, 0.73968947075156, -0.25223433848184, 0
2498, 0.83671233957151, -0.2052236982477, 0
2499, 0.74890259115238, -0.061914020086706, 0
2500, 0.71803027241186, -0.063757803048845, 0
2501, 0.52345631609351, -0.17650389592944, 0
2502, 0.65966535183704, -0.16186187823123, 0
2503, 0.09365080742053, 0.17410812487811, 0
2504, 0.069966854943714, 0.17056587360692, 0
2505, 0.84644498019196, 0.22104058738875, 0
2506, 0.87381383395741, 0.21979802154583, 0
2507, 0.71774669625337, 0.21678609001635, 0
2508, 0.82744557804428, -0.051892270873815, 0
2509, 0.79393100984974, -0.012760884796549, 0
2510, 0.72989348677592, -0.010371452077863, 0
2511, 0.77277371311951, -0.073885326045959, 0
2512, 0.72899667146787, 0.16031878804671, 0
2513, 0.73622473397244, 0.24237266432557, 0
2514, 0.70300096846321, 0.21173009033534, 0
2515, 0.72638724831602, 0.25952895439325, 0
2516, 0.3595294035347, -0.15004752613013, 0
2517, 0.34903555385151, -0.14117694593258, 0
2518, 0.36484343833418, -0.16552987044159, 0
2519, 0.22304916570733, 0.082039756901013, 0
2520, 0.18119397730578, 0.082187750079615, 0
2521, 0.24933976266015, 0.10739741313789, 0
2522, 0.36559543024308, -0.14882936043984, 0
2523, 0.24682553552271, 0.099585611556601, 0
2524, 0.23972746560235, 0.16545436259888, 0
2525, 0.57162060388036, 0.26636095113446, 0
2526, 0.61991604990814, 0.28240447478187, 0
2527, 0.65229454006154, 0.25679417933533, 0
2528, 0.79046090071855, -0.13928085939025, 0
2529, 0.77372979214088, -0.1335325732998, 0
2530, 0.15771983819411, 0.20158655117819, 0
2531, 0.18179017833315, 0.22323322797661, 0
2532, 0.16052862280253, 0.22456132185174, 0
2533, 0.68311514039998, -0.18699059183112, 0
2534, 0.54247963476506, -0.19836361807617, 0
2535, 0.67217845634368, -0.21030887123353, 0
2536, 0.74828126930318, -0.16863174591646, 0
2537, 0.68236325212278, -0.19354802072317, 0
2538, 0.72928644070897, -0.031406885929489, 0
2539, 0.76187944848754, -0.0078869971792118, 0
2540, 0.35391785177928, 0.28357503828664, 0
2541, 0.34060274724809, 0.23874142277309, 0
2542, 0.29900119784604, -0.23973249325251, 0
2543, 0.27219643357937, -0.23868198811114, 0
2544, 0.76487051199131, 0.078126320890492, 0
2545, 0.81247285256517, 0.016634311408388, 0
2546, 0.26202967892569, 0.12531968422475, 0
2547, 0.25390892984569, 0.17606929874799, 0
2548, 0.18877457029781, -0.18560078083746, 0
2549, 0.13918706480602, -0.17806405105793, 0
2550, 0.16120142494438, -0.15454311801474, 0
2551, 0.16339454266194, -0.18154105924462, 0
2552, 0.36000266079393, -0.15342649283346, 0
2553, 0.7233439184686, -0.12357199911182, 0
2554, 0.71454578219441, -0.11291427176093, 0
2555, 0.71283027018853, -0.10005227387642, 0
2556, 0.70960967703823, -0.060520371131225, 0
2557, 0.8911346767297, -0.12793135377765, 0
2558, 0.77322305763424, -0.053863185878988, 0
2559, 0.89156454796267, -0.099729934707883, 0
2560, 0.93163989802585, -0.18825012859801, 0
2561, 0.92897981174314, -0.21596760876163, 0
2562, 0.72049824985103, -0.090064791967792, 0
2563, 0.7945888523769, -0.087982664383986, 0
2564, 0.51175874213894, -0.16932073608798, 0
2565, 0.45956801169488, -0.19069838621838, 0
2566, 0.62701259737665, 0.28111707398242, 0
2567, 0.4041179057368, -0.17180802016207, 0
2568, 0.24205855498843, -0.21693182951519, 0
2569, 0.13454542568213, 0.18126452701744, 0
2570, 0.11461233858801, 0.17931301698862, 0
2571, 0.069365022582943, -0.19694353140939, 0
2572, 0.070484082344781, -0.22328556141473, 0
2573, 0.54584983030239, 0.2717841012911, 0
2574, 0.53348337183601, -0.1869850979275, 0
2575, 0.533285803437, -0.19307642244114, 0
2576, 0.60234085776855, -0.21296330699914, 0
2577, 0.27189115900557, 0.0035768100579551, 0
2578, 0.29938302054908, -0.10004470374498, 0
2579, 0.13466650031589, 0.11910075821358, 0
2580, 0.13529100049764, 0.10346662420461, 0
2581, 0.11477112458215, 0.11793770668964, 0
2582, 0.77967928357846, 0.022091819163069, 0
2583, 0.84155312829003, 0.057862039359394, 0
2584, 0.73820775609221, 0.13608957118804, 0
2585, 0.40841126998044, -0.20757253357002, 0
2586, 0.83130825402862, 0.0030073063902127, 0
2587, 0.81263895497116, 0.0013494375611477, 0
2588, 0.91169920482193, -0.15834759472493, 0
2589, 0.86784196532123, -0.15303706731631, 0
2590, 0.88982634552855, -0.15589067162847, 0
2591, 0.57540666257625, -0.17556687769966, 0
2592, 0.55129637336003, -0.1940363745264, 0
2593, 0.52479869209526, -0.17225709362534, 0
2594, 0.23717816764357, 0.060028546843723, 0
2595, 0.12757075281483, 0.062319508720218, 0
2596, 0.21757761639234, -0.0041188709214649, 0
2597, 0.12393507928337, 0.026849596748515, 0
2598, 0.48484686502595, -0.17685209229961, 0
2599, 0.43104585988199, -0.17313362972359, 0
2600, 0.69621338374934, 0.20731021885679, 0
2601, 0.69299519547365, 0.23319936482377, 0
2602, 0.26086699519724, -0.15498717606275, 0
2603, 0.20150320265754, -0.1404557886974, 0
2604, 0.24166470089472, -0.14571208113888, 0
2605, 0.36356282544362, -0.14646621074915, 0
2606, 0.31690253847504, -0.1708128289422, 0
2607, 0.38613725572793, -0.17493786043891, 0
2608, 0.79061496558448, 0.23127232245981, 0
2609, 0.81748297574427, 0.22437700600756, 0
2610, 0.35451765693015, -0.14003409398271, 0
2611, 0.091692053242525, -0.17243187791573, 0
2612, 0.11413125878666, -0.14780906151773, 0
2613, 0.11541158854392, -0.17499734531001, 0
2614, 0.17509919503739, -0.040713117320958, 0
2615, 0.18834718029128, -0.017001361551987, 0
2616, 0.21261721605546, -0.043366924124161, 0
2617, 0.19651280580029, -0.052070824434624, 0
2618, 0.19212344132058, -0.033928246314357, 0
2619, 0.93356374783624, -0.16054456361543, 0
2620, 0.17908924588661, 0.030294176774483, 0
2621, 0.094052670770045, 0.094869340405556, 0
2622, 0.17438186990548, 0.047649634345941, 0
2623, 0.17604270970308, 0.17805943148107, 0
2624, 0.19083615189439, 0.15570460726386, 0
2625, 0.19511423359047, 0.17034775527176, 0
2626, 0.52661279332583, -0.1870475176319, 0
2627, 0.24333420451019, 0.063083355596131, 0
2628, 0.22596733430783, 0.065910923280739, 0
2629, 0.17243393794721, 0.12326649744616, 0
2630, 0.24291971880688, 0.12410647549872, 0
2631, 0.21655195161507, 0.19754877719766, 0
2632, 0.27047803916059, 0.14901017461463, 0
2633, 0.38634859982817, 0.26511291498685, 0
2634, 0.39215057983871, 0.28709795990387, 0
2635, 0.42304248029167, 0.27555658414538, 0
2636, 0.40515917093414, 0.27326753674995, 0
2637, 0.55839110936239, 0.28319264144607, 0
2638, 0.84682441325261, -0.12277854982471, 0
2639, 0.76763086223284, -0.084877779703739, 0
2640, 0.3808724252568, -0.2196838422916, 0
2641, 0.39249206663143, -0.22350015156045, 0
2642, 0.70655615723683, 0.28246937753105, 0
2643, 0.73970438242466, 0.26966937284238, 0
2644, 0.36096719308179, 0.24794925027976, 0
2645, 0.20254913174073, 0.22259911529731, 0
2646, 0.17582086226081, -0.12996845288895, 0
2647, 0.18363859494351, -0.10661011530837, 0
2648, 0.20427677273193, -0.11307117894924, 0
2649, 0.19106430749795, -0.12238006472439, 0
2650, 0.4843731913986, 0.27513039726715, 0
2651, 0.61146535355773, 0.27566525093821, 0
2652, 0.66097634965972, 0.27509478765199, 0
2653, 0.62994793606662, 0.26425877851261, 0
2654, 0.06868210663799, -0.16983040772956, 0
2655, 0.34171419066545, 0.21922935633688, 0
2656, 0.30879125830473, 0.20901564044132, 0
2657, 0.27156251547235, 0.22122995846167, 0
2658, 0.66653122056829, 0.29139648939516, 0
2659, 0.6801363458126, 0.28325590858942, 0
2660, 0.13682089385971, -0.12318571510707, 0
2661, 0.11420320871683, -0.11894349679803, 0
2662, 0.7669026018833, -0.1659998342001, 0
2663, 0.19233663689863, 0.068087048530683, 0
2664, 0.20705854906907, 0.047468762371504, 0
2665, 0.19186915094323, 0.054221696650929, 0
2666, 0.63429350451585, 0.26200526534503, 0
2667, 0.23053617463958, 0.070669817416988, 0
2668, 0.25523234675696, 0.16782290763913, 0
2669, 0.66822657182806, -0.13679366626865, 0
2670, 0.7336371169126, -0.11816849599632, 0
2671, 0.6792742700365, -0.18782068652693, 0
2672, 0.61928338024056, -0.20906862183894, 0
2673, 0.54443400378151, -0.17933095007687, 0
2674, 0.33593553374785, 0.21258895793367, 0
2675, 0.34351071898009, -0.15541351999975, 0
2676, 0.3254365306903, -0.14459556903279, 0
2677, 0.34805181064428, -0.1340701834411, 0
2678, 0.14524725614007, 0.074688690010819, 0
2679, 0.74448712309736, 0.14158817744785, 0
2680, 0.75544145606869, 0.17628152603357, 0
2681, 0.16249320471554, -0.071945188791207, 0
2682, 0.15661453867785, -0.047367672879826, 0
2683, 0.60561717756653, 0.27569260539103, 0
2684, 0.74283677231848, 0.16330690665742, 0
2685, 0.73828288493761, 0.10705546000844, 0
2686, 0.3778672541053, 0.25965259202253, 0
2687, 0.37369945023312, 0.25689510010588, 0
2688, 0.83117015441981, -0.015362861386678, 0
2689, 0.85166963537967, -0.017202863849861, 0
2690, 0.85036246656711, -0.038680002717303, 0
2691, 0.29277210488068, 0.16556539096289, 0
2692, 0.73427309767322, 0.15129652742503, 0
2693, 0.21331752504366, -0.19248023506522, 0
2694, 0.74051631254752, 0.25559341609725, 0
2695, 0.68729742634322, 0.22021374316993, 0
2696, 0.72972838020396, 0.26786331401105, 0
2697, 0.75945879849118, 0.27188424953346, 0
2698, 0.74681296236294, 0.12316988999495, 0
2699, 0.73513614852483, 0.077420305027021, 0
2700, 0.66246380072199, 0.25152873281985, 0
2701, 0.6555727296182, 0.29054741502917, 0
2702, 0.69510925780564, 0.24119845729672, 0
2703, 0.70069600261463, 0.21316113123307, 0
2704, 0.69994061112592, 0.21967831634722, 0
2705, 0.18767974958238, 0.014176122461798, 0
2706, 0.13391437632408, -0.027384969892891, 0
2707, 0.44210940598431, -0.19769071294506, 0
2708, 0.3626674412155, -0.16135675772567, 0
2709, 0.34180214881593, -0.13484859966162, 0
2710, 0.38203252130745, 0.26241643918014, 0
2711, 0.82626350181888, -0.14715163478019, 0
2712, 0.84631140424682, -0.14997190551468, 0
2713, 0.85748215680745, 0.16371809122238, 0
2714, 0.53927478800048, -0.18089127177264, 0
2715, 0.25796832664074, 0.2246208252141, 0
2716, 0.22078472609615, 0.22408628514468, 0
2717, 0.39965032339839, 0.27693680023514, 0
2718, 0.39559747070332, 0.26980924754975, 0
2719, 0.54302670844266, -0.23249932720892, 0
2720, 0.7951789829574, -0.067864986979707, 0
2721, 0.77098818239054, -0.061836941313942, 0
2722, 0.75568502946655, -0.015000237657403, 0
2723, 0.62210633338533, 0.26063472108015, 0
2724, 0.73188055482479, 0.28173638697468, 0
2725, 0.65738139223085, 0.25706558559136, 0
2726, 0.68838181015856, 0.2562500442063, 0
2727, 0.22080659175615, 0.086525369766976, 0
2728, 0.16779348972284, 0.073892804701937, 0
2729, 0.30165922213792, 0.18926383545782, 0
2730, 0.27565467132379, 0.19931525403889, 0
2731, 0.79380656286527, 0.026115271832879, 0
2732, 0.85228905569486, 0.004116420278663, 0
2733, 0.80880423905889, 0.032092461663361, 0
2734, 0.72758087500179, 0.12806598284718, 0
2735, 0.73368361874996, 0.09851378188301, 0
2736, 0.61737634818768, 0.27507586290922, 0
2737, 0.35085384325661, -0.22887038271437, 0
2738, 0.32503174001025, -0.2371314798658, 0
2739, 0.84014088425588, 0.13705718839187, 0
2740, 0.33683899185515, 0.22772821025505, 0
2741, 0.31025625467031, 0.2191939494249, 0
2742, 0.30309320191825, 0.21202808804288, 0
2743, 0.28768175017833, 0.2379234734399, 0
2744, 0.37665898868332, -0.15926068018158, 0
2745, 0.72681181497477, -0.067244653413817, 0
2746, 0.72771783846754, -0.098459197176061, 0
2747, 0.8441118335989, 0.11339246449336, 0
2748, 0.72559362910653, 0.13980680047976, 0
2749, 0.75112970493465, 0.23195770323175, 0
2750, 0.7674151170205, 0.23258953121952, 0
2751, 0.69070337013106, -0.17529217026619, 0
2752, 0.70365119592873, -0.17082956078389, 0
2753, 0.71970426558257, -0.24112336225057, 0
2754, 0.17269143815927, 0.14752797269005, 0
2755, 0.19002444997491, 0.14399041486212, 0
2756, 0.18700510424098, -0.00081607017224075, 0
2757, 0.15346957057142, 0.040023015807961, 0
2758, 0.65373761270799, -0.20161276027061, 0
2759, 0.62442432121346, -0.1925469958772, 0
2760, 0.61210380002752, -0.19686552337172, 0
2761, 0.54374159009481, -0.20698501021491, 0
2762, 0.49396957705698, -0.20425026001831, 0
2763, 0.65668370419706, -0.21622292238046, 0
2764, 0.27078241170664, 0.14177767655795, 0
2765, 0.26619990082731, -0.13698975196374, 0
2766, 0.28427177037438, -0.16171738628877, 0
2767, 0.27415212198111, -0.14962763521145, 0
2768, 0.15467268424054, 0.16394893221461, 0
2769, 0.15556080602582, 0.18125462465817, 0
2770, 0.56949741397444, 0.27720552875679, 0
2771, 0.41563222773029, 0.27962401234435, 0
2772, 0.41046320607061, 0.27917016451293, 0
2773, 0.55919884135603, 0.27170546993079, 0
2774, 0.56417136972384, 0.27743518584112, 0
2775, 0.37106667463215, -0.16268640763316, 0
2776, 0.35569849493729, -0.1492564094757, 0
2777, 0.80413671513277, -0.16598699896803, 0
2778, 0.80720340702701, -0.14350705253722, 0
2779, 0.2827424193766, -0.096910408172093, 0
2780, 0.27779940788749, -0.032050869444617, 0
2781, 0.64427213448619, 0.25423364877551, 0
2782, 0.28818928585952, -0.079825038392636, 0
2783, 0.31015457118136, -0.11204304218583, 0
2784, 0.26349142967558, -0.084169300828952, 0
2785, 0.73862756979601, 0.23149541994505, 0
2786, 0.35636103023155, 0.24453207701766, 0
2787, 0.75025515066952, 0.12829115333162, 0
2788, 0.59819063750269, -0.19908617368753, 0
2789, 0.67776253126548, -0.19617161519341, 0
2790, 0.30289668453083, -0.047849365789475, 0
2791, 0.25581209829273, -0.10128180416903, 0
2792, 0.68727637756707, -0.18666047955622, 0
2793, 0.67112542327049, -0.18385187449473, 0
2794, 0.6492352539491, -0.20616082461246, 0
2795, 0.70124172494026, -0.143056930777, 0
2796, 0.30411399326417, -0.13304377991845, 0
2797, 0.31730730781737, -0.071302493570698, 0
2798, 0.25885464923437, 0.0025860049325699, 0
2799, 0.37058784747746, -0.15411352904896, 0
2800, 0.66095421537436, -0.19350101785385, 0
2801, 0.67348407010278, -0.20103964754815, 0
2802, 0.54156577065291, -0.24785063402372, 0
2803, 0.55776178830446, -0.24781307784781, 0
2804, 0.15390752214562, 0.13490430406262, 0
2805, 0.1540629493098, 0.12143405277498, 0
2806, 0.74988728836546, 0.061021903732995, 0
2807, 0.74943086782923, 0.16839925591309, 0
2808, 0.75003384661517, -0.048747744640222, 0
2809, 0.7159628783832, -0.036113585543328, 0
2810, 0.74961833329294, -0.0419355590361, 0
2811, 0.28013232561471, -0.024770560936568, 0
2812, 0.27099979243386, -0.10590246297446, 0
2813, 0.55376790425992, 0.27576340841546, 0
2814, 0.53300348819875, 0.28581251239216, 0
2815, 0.75739504417092, 0.008449066167317, 0
2816, 0.75567385849518, 0.022388819360617, 0
2817, 0.75752464317236, 0.015533434169141, 0
2818, 0.40648388746496, -0.18205484067541, 0
2819, 0.53013312663502, -0.16849645642208, 0
2820, 0.54697955310777, -0.17417320793831, 0
2821, 0.50561070260749, -0.16963556382911, 0
2822, 0.67382474918958, -0.19805461767722, 0
2823, 0.72416046135412, -0.17425884274045, 0
2824, 0.74034369785052, 0.15379290044108, 0
2825, 0.7353132179838, 0.12137714518844, 0
2826, 0.68995180851996, -0.099671419377453, 0
2827, 0.74965047613308, -0.055409136838354, 0
2828, 0.70429376644349, 0.21530233731176, 0
2829, 0.71043404944614, 0.22495486719237, 0
2830, 0.72834180577351, -0.062153020832235, 0
2831, 0.67354959229542, -0.14692497983076, 0
2832, 0.72640353177024, -0.0073495475736929, 0
2833, 0.7229063165591, -0.032024183602555, 0
2834, 0.71749825519613, -0.024304817528236, 0
2835, 0.449559917468, 0.28998619352145, 0
2836, 0.43058244846824, 0.27171636940761, 0
2837, 0.22345606110522, 0.05185672117276, 0
2838, 0.20525739905292, 0.10803427038207, 0
2839, 0.20953364456166, -0.087122701325338, 0
2840, 0.29643264941846, -0.047851130944449, 0
2841, 0.21734504832986, -0.10367196881425, 0
2842, 0.18490806569616, 0.043214496067598, 0
2843, 0.26597818886474, -0.053114526708983, 0
2844, 0.31393842092488, 0.24789875414522, 0
2845, 0.25277586329821, 0.038885439349603, 0
2846, 0.73217256202816, 0.17276785273472, 0
2847, 0.72725318239124, 0.2317773267543, 0
2848, 0.73468096506371, 0.090225052352263, 0
2849, 0.72323322104254, 0.14785770000207, 0
2850, 0.66560239139678, -0.13287680449182, 0
2851, 0.66958475084186, -0.15379604138328, 0
2852, 0.23020916726368, 0.15626161522066, 0
2853, 0.24851641573261, 0.15985327286556, 0
2854, 0.69753406083354, -0.09466251646494, 0
2855, 0.70687592862455, -0.10020192763235, 0
2856, 0.36635313859558, 0.26622083289644, 0
2857, 0.37468638899841, 0.27198286061358, 0
2858, 0.34262744945438, -0.14259284175588, 0
2859, 0.52597596499502, 0.28106671734962, 0
2860, 0.52469588663734, 0.27569925292411, 0
2861, 0.51634138233678, 0.28782113448225, 0
2862, 0.75698148150298, 0.087353776472284, 0
2863, 0.73430503140396, 0.094398107796188, 0
2864, 0.73493334594575, 0.085991989007515, 0
2865, 0.31124983832043, 0.18638310675118, 0
2866, 0.32120993880162, -0.085946583900452, 0
2867, 0.30542312661458, -0.062839787855128, 0
2868, 0.64851016575032, 0.27988666923982, 0
2869, 0.23053680333407, 0.13991516342892, 0
2870, 0.71118914555782, 0.19605361690783, 0
2871, 0.73557225179034, 0.20670308065154, 0
2872, 0.71191758362148, 0.17876745575993, 0
2873, 0.75964668832551, 0.1527742866538, 0
2874, 0.21388342269768, 0.045318708090192, 0
2875, 0.4961280690451, 0.27888151527669, 0
2876, 0.58093624501477, 0.26865495033861, 0
2877, 0.51076563589193, 0.28223618184568, 0
2878, 0.72936379371444, -0.016671396024649, 0
2879, 0.74467120423358, -0.0018069819019011, 0
2880, 0.26661261340353, -0.014287353215132, 0
2881, 0.70891333139005, -0.15108265495745, 0
2882, 0.78848508364089, 0.076859127137133, 0
2883, 0.75577744323806, 0.032683387123413, 0
2884, 0.75721152414927, 0.039441588941965, 0
2885, 0.49327124020227, -0.19150830189277, 0
2886, 0.56657882158569, -0.17407463682877, 0
2887, 0.32658146098528, -0.15508067187163, 0
2888, 0.48537044795022, -0.20994858544742, 0
2889, 0.28596230908477, 0.16681886209363, 0
2890, 0.28496276170471, 0.14678858599066, 0
2891, 0.75547942616008, 0.0016341371847042, 0
2892, 0.68458341132946, 0.2235895598097, 0
2893, 0.69051386752233, -0.1505768978557, 0
2894, 0.28401657482194, -0.03792587149245, 0
2895, 0.29257889914133, -0.040831632946841, 0
2896, 0.74050761423713, 0.098654684649312, 0
2897, 0.2501717967047, 0.14408567025052, 0
2898, 0.68231161203979, -0.20587937507801, 0
2899, 0.20848799583052, -0.026573365635522, 0
2900, 0.47176321421389, 0.28558825930519, 0
2901, 0.11891071858037, 0.080097531006438, 0
2902, 0.15749776268771, 0.09555814508684, 0
2903, 0.65713751725439, 0.24832204462849, 0
2904, 0.46872928097864, -0.19502443078138, 0
2905, 0.51582487713353, -0.17060119983212, 0
2906, 0.70380908061174, 0.22485409107968, 0
2907, 0.67835833691242, 0.23008371713731, 0
2908, 0.72529161143419, 0.20135025512972, 0
2909, 0.29937056481631, -0.22208623856908, 0
2910, 0.54931638570373, 0.27389682412079, 0
2911, 0.53322263084798, 0.27387818915514, 0
2912, 0.32781476974327, 0.28976542719067, 0
2913, 0.29407342715151, -0.083842729441555, 0
2914, 0.3080408069807, -0.066301808307962, 0
2915, 0.16030341562707, -0.10791880023267, 0
2916, 0.15720792880129, -0.12933008114661, 0
2917, 0.45627084049692, -0.2005804707204, 0
2918, 0.54969849097015, 0.28902527121357, 0
2919, 0.40131689571862, 0.26674435973709, 0
2920, 0.40547811533054, 0.28347298886756, 0
2921, 0.26064255180548, 0.15353659494734, 0
2922, 0.50465740543521, -0.25975309936658, 0
2923, 0.44951891984885, -0.21081438216272, 0
2924, 0.26477256777155, 0.0096587631401454, 0
2925, 0.18770653039766, -0.080062913414207, 0
2926, 0.17302278714682, -0.092085226466154, 0
2927, 0.62548677485659, -0.26311033166396, 0
2928, 0.57842993707297, -0.18601087644346, 0
2929, 0.50059762095759, -0.19871193166377, 0
2930, 0.78052413692121, -0.17850530699312, 0
2931, 0.81534212960794, -0.19982090334174, 0
2932, 0.1133631131061, -0.027716255223341, 0
2933, 0.5217732744545, -0.1677232401098, 0
2934, 0.48690711494774, -0.16961298297042, 0
2935, 0.091093614826161, -0.027545333828506, 0
2936, 0.3322158279702, 0.21001434147917, 0
2937, 0.15415199722075, 0.14877872428887, 0
2938, 0.35978886828827, -0.17302064265329, 0
2939, 0.80038061232805, -0.23295486265716, 0
2940, 0.69698505068638, -0.17344857120325, 0
2941, 0.57290362143399, 0.27109000955035, 0
2942, 0.53831277699436, 0.284187671411, 0
2943, 0.38004364107271, -0.16163197002665, 0
2944, 0.63785862967104, 0.25396545919115, 0
2945, 0.41296940264987, 0.28915293907846, 0
2946, 0.68332597490463, 0.23380295357152, 0
2947, 0.20274333617443, -0.069791676001521, 0
2948, 0.54883005029294, -0.17711698357412, 0
2949, 0.37945839507159, -0.18247424428018, 0
2950, 0.39055180279976, -0.18898528192727, 0
2951, 0.33466172773814, 0.24737395588355, 0
2952, 0.71869903424986, 0.15914203543447, 0
2953, 0.29025296649707, 0.16206269187467, 0
2954, 0.26518523055569, 0.14710775156858, 0
2955, 0.32005653640679, 0.18782630988608, 0
2956, 0.23389317713662, 0.040291139156779, 0
2957, 0.27799385597391, -0.067821271429119, 0
2958, 0.75216116688633, 0.21795694158159, 0
2959, 0.49894819423323, -0.18809370061012, 0
2960, 0.69891439823518, -0.11343065684262, 0
2961, 0.29926056266775, -0.093116417863057, 0
2962, 0.73334306941836, -0.013932218611733, 0
2963, 0.74219446561885, -0.014773148227417, 0
2964, 0.75202715444479, 0.02736371784425, 0
2965, 0.77808370477539, 0.032870734019531, 0
2966, 0.30802038143522, -0.10609280018248, 0
2967, 0.74331700050913, 0.053590841833423, 0
2968, 0.37132772150692, -0.21334916759147, 0
2969, 0.70546391191367, -0.095408616192273, 0
2970, 0.69721517627598, -0.15968237147423, 0
2971, 0.4318042350135, 0.27982813649987, 0
2972, 0.77597355947155, -0.011185398189167, 0
2973, 0.34515900942717, -0.1501646219111, 0
2974, 0.57465773071155, 0.27627487955442, 0
2975, 0.7609265102449, 0.2493223670683, 0
2976, 0.7874170728434, -0.10621941275811, 0
2977, 0.76203807666974, 0.14318335698599, 0
2978, 0.23136280764302, 0.2012631633864, 0
2979, 0.22366587161674, 0.12211046309738, 0
2980, 0.22199815518719, 0.068919737605009, 0
2981, 0.45613329955102, -0.1695006065376, 0
2982, 0.75230255806779, 0.1195337406199, 0
2983, 0.3741609422131, 0.2642845810205, 0
2984, 0.28112829212773, -0.014722073090335, 0
2985, 0.67289522015588, -0.1911442521173, 0
2986, 0.64927019748441, 0.24715942275582, 0
2987, 0.23198374105466, -0.14915925178784, 0
2988, 0.24472184713277, 0.27682978817015, 0
2989, 0.23357662239032, 0.061427365352845, 0
2990, 0.76863803266458, 0.21522157291637, 0
2991, 0.66372674416778, -0.20494228409931, 0
2992, 0.67039351856721, 0.24283725472928, 0
2993, 0.69041482052117, 0.29136758278533, 0
2994, 0.77197347073244, -0.10581816341724, 0
2995, 0.35139896796819, 0.21314273439357, 0
2996, 0.57365732834833, -0.2475826632198, 0
2997, 0.44611853232031, 0.27599125463368, 0
2998, 0.34950209574306, -0.16252779942043, 0
2999, 0.57214699399619, -0.23060645261892, 0
3000, 0.41401382420255, 0.27114503464001, 0
3001, 0.33765488058594, 0.2183560781175, 0
3002, 0.75742361789936, -0.077428378385642, 0
3003, 0.71102503601425, -0.05653753803851, 0
3004, 0.11674299878837, 0.00012793350769147, 0
3005, 0.22612697029641, -0.11948743853662, 0
3006, 0.42211375398267, -0.17371863768403, 0
3007, 0.67925823217351, -0.14543777797033, 0
3008, 0.2938163130467, 0.28507864831043, 0
3009, 0.35036623221787, -0.15218738413576, 0
3010, 0.71439392394724, -0.08422171427027, 0
3011, 0.66866451550022, -0.13026179150259, 0
3012, 0.71841485881601, -0.080790099969014, 0
3013, 0.6415112027654, 0.25684782653574, 0
3014, 0.52199617726224, 0.28747898973476, 0
3015, 0.700477291839, -0.10881190305836, 0
3016, 0.35974820333396, -0.14715814841189, 0
3017, 0.12282010682194, 0.1478028038321, 0
3018, 0.73754699013023, 0.14112187232746, 0
3019, 0.72578069363218, 0.16428589333534, 0
3020, 0.6838269663709, -0.21153252407304, 0
3021, 0.60957623559885, -0.22758260204498, 0
3022, 0.49363151707634, -0.18207138711039, 0
3023, 0.69877839930342, -0.18641769726086, 0
3024, 0.69462137385628, -0.12268034359528, 0
3025, 0.24898429978393, 0.018121154698653, 0
3026, 0.73161005724854, -0.13763673091809, 0
3027, 0.31903858435458, -0.072946980978438, 0
3028, 0.42848753609924, -0.18167336515048, 0
3029, 0.21321423647646, 0.0073207694065563, 0
3030, 0.78998372487777, 0.10157419383304, 0
3031, 0.34382801614216, 0.22729128772973, 0
3032, 0.24928310931054, 0.1309156764071, 0
3033, 0.48847930272787, 0.27430751790903, 0
3034, 0.32919443023911, 0.22685267440042, 0
3035, 0.61118125673076, -0.21147073076085, 0
3036, 0.42309819243788, -0.18251703190987, 0
3037, 0.52772592955022, -0.18175440154921, 0
3038, 0.69203343704847, 0.21350540621879, 0
3039, 0.31988213756428, -0.13435098959861, 0
3040, 0.66890397322687, 0.28328230729193, 0
3041, 0.34893045398111, 0.22183010367191, 0
3042, 0.31598857016844, -0.081381021746002, 0
3043, 0.20077645918832, 0.026963066787886, 0
3044, 0.24927200635147, 0.058738101031298, 0
3045, 0.30104798080465, 0.18182682938542, 0
3046, 0.29080309213942, 0.15238300149987, 0
3047, 0.36365892284068, 0.27107980972353, 0
3048, 0.2538417547721, 0.0049947825592784, 0
3049, 0.49826444621328, 0.27581570104181, 0
3050, 0.67622382613352, -0.18933773272854, 0
3051, 0.13812647550967, 0.08812784044675, 0
3052, 0.28092998280873, -0.035219518840531, 0
3053, 0.57102551975821, 0.28359223185092, 0
3054, 0.52264136831139, -0.26299531269667, 0
3055, 0.71542684930429, 0.16562818695367, 0
3056, 0.5100293441406, -0.18853544042147, 0
3057, 0.21774969960574, -0.060143967471814, 0
3058, 0.51981416795701, -0.18605049786402, 0
3059, 0.1641207495927, 0.054326961511239, 0
3060, 0.36981107822821, 0.27586605517767, 0
3061, 0.36807028203151, 0.27175157212849, 0
3062, 0.71362848899593, 0.17148043788145, 0
3063, 0.72159761527146, 0.24929921049882, 0
3064, 0.45603900212516, -0.18041090871341, 0
3065, 0.35777295020155, -0.16759660877054, 0
3066, 0.74702423720382, 0.2449910615173, 0
3067, 0.78292501154008, 0.25636248612551, 0
3068, 0.24078294620486, 0.22588259991044, 0
3069, 0.73726395325057, 0.12725099779267, 0
3070, 0.80634966463382, 0.082926584378513, 0
3071, 0.21304904640435, -0.1292428741701, 0
3072, 0.18747809406536, -0.15651997841254, 0
3073, 0.80176225348437, -0.1034641594178, 0
3074, 0.10337718503618, 0.039021224760677, 0
3075, 0.78952350868628, 0.20875347318413, 0
3076, 0.84984990254453, 0.19219218356069, 0
3077, 0.8319605650375, 0.16234880523254, 0
3078, 0.73106301764343, 0.11023539537216, 0
3079, 0.73345355559184, 0.11806847579345, 0
3080, 0.81746734791227, 0.19266901397165, 0
3081, 0.27285728677424, 0.1748667248352, 0
3082, 0.69407378173951, -0.20059141036018, 0
3083, 0.69909678819585, -0.20441054715523, 0
3084, 0.71018132836556, -0.16664394708782, 0
3085, 0.71516872087387, -0.18163857059106, 0
3086, 0.69426752351321, -0.2520136345809, 0
3087, 0.70081506119573, -0.23270901205198, 0
3088, 0.72479484529715, -0.19451327272234, 0
3089, 0.51361491617446, -0.17401014070067, 0
3090, 0.67378350567827, -0.19549808295636, 0
3091, 0.67738500833262, -0.19209077711155, 0
3092, 0.70461895585134, -0.20912154787705, 0
3093, 0.42282017466196, 0.28355132351322, 0
3094, 0.42623810436994, 0.28787439741418, 0
3095, 0.38328701358091, 0.29270526834989, 0
3096, 0.39201765457401, 0.29352986340034, 0
3097, 0.39997365234307, 0.29409167251185, 0
3098, 0.40762185597375, 0.2944110840778, 0
3099, 0.41499181807971, 0.29446161435394, 0
3100, 0.42258878479781, 0.29411880293127, 0
3101, 0.44096198137109, 0.28380408440915, 0
3102, 0.43732062053481, 0.2880035749743, 0
3103, 0.4484782078279, 0.28058040970913, 0
3104, 0.45316643045745, 0.28102455944482, 0
3105, 0.45782818530748, 0.28125587261892, 0
3106, 0.4624716543821, 0.28132127177392, 0
3107, 0.46710615352808, 0.28124062649769, 0
3108, 0.47173820353947, 0.28101822479059, 0
3109, 0.47156425641692, 0.29512650630644, 0
3110, 0.46562791905833, 0.29520063327686, 0
3111, 0.45967845012763, 0.29519117930559, 0
3112, 0.45366791475906, 0.2950829016696, 0
3113, 0.44744837430131, 0.2948314651853, 0
3114, 0.44073357713542, 0.29429426485253, 0
3115, 0.42727042449475, 0.27219627777145, 0
3116, 0.41811785524639, 0.27199091568412, 0
3117, 0.44377469139305, 0.27984567676937, 0
3118, 0.43177083935518, 0.29278678847964, 0
3119, 0.73647641338159, 0.14610230027421, 0
3120, 0.73249491553826, 0.12791954290676, 0
3121, 0.74765937028469, 0.099099601048808, 0
3122, 0.80361989572116, 0.11604826192791, 0
3123, 0.77111477436402, 0.15725659756114, 0
3124, 0.73009731078409, 0.11388127903018, 0
3125, 0.74327249273458, 0.11912864564762, 0
3126, 0.72182401031665, 0.15178146156818, 0
3127, 0.73267266107501, 0.12103531548381, 0
3128, 0.25725499019948, 0.02693791126039, 0
3129, 0.22567387654529, -0.01730547230431, 0
******* E L E M E N T S *************
*ELEMENT, type=T3D2, ELSET=Line1
1, 1, 10
2, 10, 19
3, 19, 11
4, 11, 20
5, 20, 12
6, 12, 21
7, 21, 13
8, 13, 22
9, 22, 14
10, 14, 23
11, 23, 15
12, 15, 24
13, 24, 16
14, 16, 25
15, 25, 17
16, 17, 26
17, 26, 18
18, 18, 2
*ELEMENT, type=T3D2, ELSET=Line2
19, 2, 27
20, 27, 31
21, 31, 28
22, 28, 32
23, 32, 29
24, 29, 33
25, 33, 30
26, 30, 3
*ELEMENT, type=T3D2, ELSET=Line3
27, 3, 34
28, 34, 42
29, 42, 35
30, 35, 43
31, 43, 36
32, 36, 44
33, 44, 37
34, 37, 45
35, 45, 38
36, 38, 46
37, 46, 39
38, 39, 47
39, 47, 40
40, 40, 48
41, 48, 41
42, 41, 4
*ELEMENT, type=T3D2, ELSET=Line4
43, 4, 49
44, 49, 60
45, 60, 50
46, 50, 61
47, 61, 51
48, 51, 62
49, 62, 52
50, 52, 63
51, 63, 53
52, 53, 64
53, 64, 54
54, 54, 65
55, 65, 55
56, 55, 66
57, 66, 56
58, 56, 67
59, 67, 57
60, 57, 68
61, 68, 58
62, 58, 69
63, 69, 59
64, 59, 5
*ELEMENT, type=T3D2, ELSET=Line5
65, 5, 70
66, 70, 83
67, 83, 71
68, 71, 84
69, 84, 72
70, 72, 85
71, 85, 73
72, 73, 86
73, 86, 74
74, 74, 87
75, 87, 75
76, 75, 88
77, 88, 76
78, 76, 89
79, 89, 77
80, 77, 90
81, 90, 78
82, 78, 91
83, 91, 79
84, 79, 92
85, 92, 80
86, 80, 93
87, 93, 81
88, 81, 94
89, 94, 82
90, 82, 6
*ELEMENT, type=T3D2, ELSET=Line6
91, 6, 95
92, 95, 106
93, 106, 96
94, 96, 107
95, 107, 97
96, 97, 108
97, 108, 98
98, 98, 109
99, 109, 99
100, 99, 110
101, 110, 100
102, 100, 111
103, 111, 101
104, 101, 112
105, 112, 102
106, 102, 113
107, 113, 103
108, 103, 114
109, 114, 104
110, 104, 115
111, 115, 105
112, 105, 7
*ELEMENT, type=T3D2, ELSET=Line7
113, 7, 116
114, 116, 128
115, 128, 117
116, 117, 129
117, 129, 118
118, 118, 130
119, 130, 119
120, 119, 131
121, 131, 120
122, 120, 132
123, 132, 121
124, 121, 133
125, 133, 122
126, 122, 134
127, 134, 123
128, 123, 135
129, 135, 124
130, 124, 136
131, 136, 125
132, 125, 137
133, 137, 126
134, 126, 138
135, 138, 127
136, 127, 8
*ELEMENT, type=T3D2, ELSET=Line8
137, 8, 139
138, 139, 150
139, 150, 140
140, 140, 151
141, 151, 141
142, 141, 152
143, 152, 142
144, 142, 153
145, 153, 143
146, 143, 154
147, 154, 144
148, 144, 155
149, 155, 145
150, 145, 156
151, 156, 146
152, 146, 157
153, 157, 147
154, 147, 158
155, 158, 148
156, 148, 159
157, 159, 149
158, 149, 1
*ELEMENT, type=T3D2, ELSET=Line9
159, 9, 160
160, 160, 350
161, 350, 348
162, 348, 351
163, 351, 347
164, 347, 352
165, 352, 346
166, 346, 353
167, 353, 345
168, 345, 354
169, 354, 344
170, 344, 355
171, 355, 343
172, 343, 356
173, 356, 342
174, 342, 357
175, 357, 341
176, 341, 358
177, 358, 340
178, 340, 359
179, 359, 339
180, 339, 360
181, 360, 338
182, 338, 361
183, 361, 337
184, 337, 362
185, 362, 336
186, 336, 363
187, 363, 335
188, 335, 364
189, 364, 334
190, 334, 365
191, 365, 333
192, 333, 366
193, 366, 332
194, 332, 367
195, 367, 331
196, 331, 368
197, 368, 330
198, 330, 369
199, 369, 329
200, 329, 370
201, 370, 328
202, 328, 371
203, 371, 327
204, 327, 372
205, 372, 326
206, 326, 373
207, 373, 325
208, 325, 374
209, 374, 324
210, 324, 375
211, 375, 323
212, 323, 376
213, 376, 322
214, 322, 377
215, 377, 321
216, 321, 378
217, 378, 320
218, 320, 379
219, 379, 319
220, 319, 380
221, 380, 318
222, 318, 381
223, 381, 317
224, 317, 382
225, 382, 316
226, 316, 383
227, 383, 315
228, 315, 384
229, 384, 314
230, 314, 385
231, 385, 313
232, 313, 386
233, 386, 312
234, 312, 387
235, 387, 311
236, 311, 388
237, 388, 310
238, 310, 389
239, 389, 309
240, 309, 390
241, 390, 308
242, 308, 391
243, 391, 307
244, 307, 392
245, 392, 306
246, 306, 393
247, 393, 305
248, 305, 394
249, 394, 304
250, 304, 395
251, 395, 303
252, 303, 396
253, 396, 302
254, 302, 397
255, 397, 301
256, 301, 398
257, 398, 300
258, 300, 399
259, 399, 299
260, 299, 400
261, 400, 298
262, 298, 401
263, 401, 297
264, 297, 402
265, 402, 296
266, 296, 403
267, 403, 295
268, 295, 404
269, 404, 294
270, 294, 405
271, 405, 293
272, 293, 406
273, 406, 292
274, 292, 407
275, 407, 291
276, 291, 408
277, 408, 290
278, 290, 409
279, 409, 289
280, 289, 410
281, 410, 288
282, 288, 411
283, 411, 287
284, 287, 412
285, 412, 286
286, 286, 413
287, 413, 285
288, 285, 414
289, 414, 284
290, 284, 415
291, 415, 283
292, 283, 416
293, 416, 282
294, 282, 417
295, 417, 281
296, 281, 418
297, 418, 280
298, 280, 419
299, 419, 279
300, 279, 420
301, 420, 278
302, 278, 421
303, 421, 277
304, 277, 422
305, 422, 276
306, 276, 423
307, 423, 275
308, 275, 424
309, 424, 274
310, 274, 425
311, 425, 273
312, 273, 426
313, 426, 272
314, 272, 427
315, 427, 271
316, 271, 428
317, 428, 270
318, 270, 429
319, 429, 269
320, 269, 430
321, 430, 268
322, 268, 431
323, 431, 267
324, 267, 432
325, 432, 266
326, 266, 433
327, 433, 265
328, 265, 434
329, 434, 264
330, 264, 435
331, 435, 263
332, 263, 436
333, 436, 262
334, 262, 437
335, 437, 261
336, 261, 438
337, 438, 260
338, 260, 439
339, 439, 259
340, 259, 440
341, 440, 258
342, 258, 441
343, 441, 257
344, 257, 442
345, 442, 256
346, 256, 443
347, 443, 255
348, 255, 444
349, 444, 254
350, 254, 445
351, 445, 253
352, 253, 446
353, 446, 252
354, 252, 447
355, 447, 251
356, 251, 448
357, 448, 250
358, 250, 449
359, 449, 249
360, 249, 450
361, 450, 248
362, 248, 451
363, 451, 247
364, 247, 452
365, 452, 246
366, 246, 453
367, 453, 245
368, 245, 454
369, 454, 244
370, 244, 455
371, 455, 243
372, 243, 456
373, 456, 242
374, 242, 457
375, 457, 241
376, 241, 458
377, 458, 240
378, 240, 459
379, 459, 239
380, 239, 460
381, 460, 238
382, 238, 461
383, 461, 237
384, 237, 462
385, 462, 236
386, 236, 463
387, 463, 235
388, 235, 464
389, 464, 234
390, 234, 465
391, 465, 233
392, 233, 466
393, 466, 232
394, 232, 467
395, 467, 231
396, 231, 468
397, 468, 230
398, 230, 469
399, 469, 229
400, 229, 470
401, 470, 228
402, 228, 471
403, 471, 227
404, 227, 472
405, 472, 226
406, 226, 473
407, 473, 225
408, 225, 474
409, 474, 224
410, 224, 475
411, 475, 223
412, 223, 476
413, 476, 222
414, 222, 477
415, 477, 221
416, 221, 478
417, 478, 220
418, 220, 479
419, 479, 219
420, 219, 480
421, 480, 218
422, 218, 481
423, 481, 217
424, 217, 482
425, 482, 216
426, 216, 483
427, 483, 215
428, 215, 484
429, 484, 214
430, 214, 485
431, 485, 213
432, 213, 486
433, 486, 212
434, 212, 487
435, 487, 211
436, 211, 488
437, 488, 210
438, 210, 489
439, 489, 209
440, 209, 490
441, 490, 208
442, 208, 491
443, 491, 207
444, 207, 492
445, 492, 206
446, 206, 493
447, 493, 205
448, 205, 494
449, 494, 204
450, 204, 495
451, 495, 203
452, 203, 496
453, 496, 202
454, 202, 497
455, 497, 201
456, 201, 498
457, 498, 200
458, 200, 499
459, 499, 199
460, 199, 500
461, 500, 198
462, 198, 501
463, 501, 197
464, 197, 502
465, 502, 196
466, 196, 503
467, 503, 195
468, 195, 504
469, 504, 194
470, 194, 505
471, 505, 193
472, 193, 506
473, 506, 192
474, 192, 507
475, 507, 191
476, 191, 508
477, 508, 190
478, 190, 509
479, 509, 189
480, 189, 510
481, 510, 188
482, 188, 511
483, 511, 187
484, 187, 512
485, 512, 186
486, 186, 513
487, 513, 185
488, 185, 514
489, 514, 184
490, 184, 515
491, 515, 183
492, 183, 516
493, 516, 182
494, 182, 517
495, 517, 181
496, 181, 518
497, 518, 180
498, 180, 519
499, 519, 179
500, 179, 520
501, 520, 178
502, 178, 521
503, 521, 177
504, 177, 522
505, 522, 176
506, 176, 523
507, 523, 175
508, 175, 524
509, 524, 174
510, 174, 525
511, 525, 173
512, 173, 526
513, 526, 172
514, 172, 527
515, 527, 171
516, 171, 528
517, 528, 170
518, 170, 529
519, 529, 169
520, 169, 530
521, 530, 168
522, 168, 531
523, 531, 167
524, 167, 532
525, 532, 166
526, 166, 533
527, 533, 165
528, 165, 534
529, 534, 164
530, 164, 535
531, 535, 163
532, 163, 536
533, 536, 162
534, 162, 537
535, 537, 161
536, 161, 538
537, 538, 349
538, 349, 9
*ELEMENT, type=CPS4, ELSET=Surface1
539, 62, 52, 1336, 1333
540, 1333, 1336, 1334, 613
541, 1336, 1335, 607, 1334
542, 52, 63, 1335, 1336
543, 569, 1339, 1340, 1337
544, 1337, 1340, 147, 158
545, 1340, 1338, 157, 147
546, 1339, 570, 1338, 1340
547, 2592, 1649, 1399, 1686
548, 1341, 1344, 29, 33
549, 1344, 1342, 32, 29
550, 1507, 2759, 1014, 1023
551, 67, 57, 1348, 1345
552, 1345, 1348, 1346, 603
553, 1348, 1347, 577, 1346
554, 57, 68, 1347, 1348
555, 902, 905, 1372, 2876
556, 903, 1437, 313, 385
557, 1091, 1319, 592, 899
558, 905, 387, 312, 1372
559, 1130, 1207, 1184, 2339
560, 976, 978, 2833, 2538
561, 1354, 2014, 2187, 1425
562, 971, 1354, 1425, 1480
563, 1180, 407, 292, 1755
564, 2258, 651, 2633, 1809
565, 649, 565, 2258, 1791
566, 3098, 128, 117, 3097
567, 64, 54, 1361, 1358
568, 1358, 1361, 1359, 606
569, 1361, 1360, 605, 1359
570, 54, 65, 1360, 1361
571, 46, 39, 1365, 1362
572, 1362, 1365, 1363, 614
573, 1365, 1364, 615, 1363
574, 39, 47, 1364, 1365
575, 2063, 1837, 2914, 2867
576, 822, 1294, 2161, 2387
577, 840, 236, 462, 3027
578, 1969, 3057, 2947, 2839
579, 66, 1370, 1371, 55
580, 55, 1371, 1360, 65
581, 1371, 1369, 605, 1360
582, 1370, 604, 1369, 1371
583, 2876, 1372, 1374, 1350
584, 1091, 1092, 1349, 1319
585, 2525, 311, 387, 905
586, 898, 903, 385, 314
587, 541, 1377, 1378, 1375
588, 1375, 1378, 1376, 543
589, 1378, 12, 21, 1376
590, 1377, 20, 12, 1378
591, 1343, 1858, 1592, 1591
592, 803, 2335, 1602, 798
593, 2576, 3021, 1683, 3035
594, 1194, 1862, 1626, 1034
595, 1382, 273, 425, 1381
596, 683, 2890, 2155, 724
597, 1188, 266, 432, 675
598, 2954, 2632, 2324, 2921
599, 2334, 2156, 670, 2953
600, 1560, 2334, 2889, 1552
601, 2918, 1287, 1893, 1289
602, 1103, 1663, 1662, 3053
603, 3053, 1662, 2774, 2770
604, 1386, 389, 310, 1387
605, 2346, 1126, 3028, 2029
606, 3064, 1887, 1239, 1423
607, 1683, 1329, 2168, 2308
608, 138, 127, 1392, 1390
609, 1390, 1392, 1391, 552
610, 1392, 139, 150, 1391
611, 127, 8, 139, 1392
612, 2499, 2827, 2147, 2393
613, 1069, 3003, 2556, 2500
614, 1278, 764, 1858, 1343
615, 2124, 2100, 2761, 1031
616, 808, 1196, 1389, 1887
617, 1798, 493, 206, 2180
618, 1959, 2313, 609, 1278
619, 1548, 1697, 1309, 641
620, 1400, 1403, 99, 110
621, 1403, 1401, 109, 99
622, 1201, 2211, 3034, 2057
623, 2306, 1201, 2057, 1264
624, 1293, 2912, 658, 630
625, 628, 2007, 634, 2936
626, 2248, 897, 2814, 2250
627, 1385, 2773, 1386, 1387
628, 1410, 307, 391, 1408
629, 1409, 392, 307, 1410
630, 32, 1342, 1413, 28
631, 28, 1413, 1411, 31
632, 1413, 1412, 573, 1411
633, 1626, 1627, 210, 488
634, 63, 53, 1415, 1335
635, 1335, 1415, 1414, 607
636, 1415, 1358, 606, 1414
637, 53, 64, 1358, 1415
638, 1835, 505, 194, 1017
639, 1061, 1171, 1028, 1649
640, 764, 2069, 2929, 2762
641, 1276, 2626, 3058, 1580
642, 153, 1419, 1420, 142
643, 142, 1420, 1417, 152
644, 1420, 1418, 566, 1417
645, 1419, 567, 1418, 1420
646, 2872, 333, 365, 860
647, 3062, 334, 364, 2165
648, 2212, 338, 360, 2748
649, 1030, 197, 501, 2591
650, 987, 1426, 1427, 1424
651, 2972, 2269, 2268, 2539
652, 1484, 1353, 1354, 971
653, 1426, 534, 165, 1427
654, 456, 243, 1431, 1428
655, 848, 1565, 841, 2369
656, 243, 455, 1430, 1431
657, 604, 1370, 1433, 1432
658, 1432, 1433, 1345, 603
659, 1433, 56, 67, 1345
660, 1370, 66, 56, 1433
661, 455, 244, 1436, 1430
662, 1839, 1521, 2238, 819
663, 1563, 1258, 849, 852
664, 1710, 2845, 1251, 710
665, 1092, 1157, 1439, 1349
666, 2941, 2525, 905, 902
667, 2442, 1438, 2525, 2941
668, 547, 1093, 384, 315
669, 21, 13, 1442, 1376
670, 1376, 1442, 1440, 543
671, 1442, 1441, 545, 1440
672, 13, 22, 1441, 1442
673, 2873, 1261, 2086, 598
674, 853, 929, 2965, 2089
675, 3121, 1153, 1554, 2896
676, 1704, 2082, 853, 2101
677, 1447, 1105, 587, 1446
678, 1446, 587, 2974, 1373
679, 1373, 2974, 2941, 902
680, 1385, 1387, 1438, 2442
681, 1955, 2771, 1355, 2137
682, 2135, 2920, 562, 2772
683, 2836, 1881, 406, 293
684, 1744, 1745, 405, 294
685, 153, 143, 1453, 1419
686, 1419, 1453, 1451, 567
687, 1453, 1452, 568, 1451
688, 143, 154, 1452, 1453
689, 935, 1456, 1457, 1454
690, 1454, 1457, 1455, 936
691, 1457, 163, 535, 1455
692, 1456, 536, 163, 1457
693, 820, 1729, 1460, 2162
694, 1532, 1728, 2162, 839
695, 2064, 1220, 817, 2783
696, 1686, 1257, 2152, 1628
697, 2033, 2819, 495, 204
698, 3058, 1397, 1016, 1013
699, 942, 1465, 1466, 1464
700, 1464, 1466, 1456, 935
701, 1466, 162, 536, 1456
702, 1465, 537, 162, 1466
703, 539, 1469, 1470, 1467
704, 1467, 1470, 18, 2
705, 1470, 1468, 26, 18
706, 1469, 574, 1468, 1470
707, 395, 304, 1474, 1471
708, 1407, 896, 1476, 1475
709, 304, 394, 1473, 1474
710, 2249, 1564, 1409, 1545
711, 895, 2773, 1385, 2774
712, 1476, 308, 390, 1475
713, 1408, 391, 308, 1476
714, 857, 861, 2259, 1689
715, 860, 365, 334, 3062
716, 916, 1478, 2457, 2684
717, 2189, 2538, 1549, 989
718, 979, 1550, 1988, 2834
719, 2510, 2832, 1353, 1484
720, 2198, 2200, 1424, 969
721, 978, 979, 2834, 1352
722, 2014, 168, 530, 2187
723, 1579, 989, 2280, 2810
724, 2012, 988, 1482, 2348
725, 1516, 754, 846, 1250
726, 2372, 245, 453, 2984
727, 2435, 450, 249, 756
728, 2378, 1830, 746, 2073
729, 962, 2019, 2826, 1044
730, 1802, 1047, 1087, 2252
731, 1393, 993, 3003, 1069
732, 1774, 1253, 2745, 2251
733, 616, 1493, 1494, 1492
734, 1492, 1494, 1333, 613
735, 1494, 51, 62, 1333
736, 1493, 61, 51, 1494
737, 151, 141, 1497, 1495
738, 1495, 1497, 1496, 549
739, 1497, 1417, 566, 1496
740, 141, 152, 1417, 1497
741, 1664, 2232, 669, 1872
742, 2655, 624, 2142, 1275
743, 2306, 1405, 659, 1201
744, 2004, 3001, 2655, 1404
745, 1389, 1196, 212, 486
746, 812, 3056, 2312, 2959
747, 1024, 1019, 1171, 1061
748, 2060, 2180, 1502, 1326
749, 1505, 1402, 1403, 1400
750, 1587, 1653, 397, 302
751, 1309, 1697, 1587, 1504
752, 1272, 1270, 2650, 559
753, 1685, 1324, 1015, 1416
754, 2501, 2593, 1682, 806
755, 1011, 2760, 1685, 1416
756, 2100, 2592, 2534, 2761
757, 2396, 1250, 2798, 3048
758, 1249, 744, 1711, 1750
759, 1765, 818, 2438, 2379
760, 3048, 2798, 704, 2186
761, 2573, 901, 894, 896
762, 1514, 305, 393, 1513
763, 1473, 394, 305, 1514
764, 2698, 2081, 957, 3125
765, 3126, 337, 361, 2849
766, 3123, 923, 1261, 2873
767, 758, 2841, 3005, 761
768, 1750, 1711, 707, 712
769, 1750, 712, 1298, 709
770, 2239, 1532, 839, 1838
771, 2273, 826, 820, 823
772, 838, 1765, 2379, 833
773, 2174, 465, 234, 837
774, 137, 126, 1525, 1523
775, 1523, 1525, 1524, 550
776, 1525, 1390, 552, 1524
777, 126, 138, 1390, 1525
778, 2142, 2995, 1182, 1275
779, 1167, 3008, 556, 555
780, 1136, 1167, 555, 1181
781, 1292, 662, 2540, 625
782, 421, 278, 1531, 1528
783, 1301, 2955, 1666, 1665
784, 1531, 1530, 664, 1529
785, 278, 420, 1530, 1531
786, 814, 2765, 815, 1367
787, 830, 235, 463, 835
788, 1838, 2042, 1537, 1522
789, 1434, 757, 1485, 1713
790, 2699, 2488, 346, 352
791, 1218, 828, 238, 460
792, 2383, 2064, 2783, 2966
793, 2040, 1459, 3042, 1831
794, 2914, 2175, 828, 1218
795, 1307, 1586, 1588, 588
796, 588, 1588, 1356, 560
797, 559, 2650, 3033, 1308
798, 640, 398, 301, 893
799, 1236, 869, 1716, 2109
800, 2166, 1477, 2098, 1540
801, 918, 1227, 856, 1898
802, 2692, 1444, 924, 3119
803, 2870, 2208, 2243, 2261
804, 932, 2434, 3127, 2825
805, 849, 3048, 2186, 745
806, 2186, 704, 2192, 706
807, 2309, 850, 2262, 1260
808, 590, 2637, 1662, 1663
809, 1893, 1288, 2573, 2910
810, 1546, 309, 389, 1386
811, 1475, 390, 309, 1546
812, 1504, 1587, 302, 396
813, 642, 1696, 1270, 1272
814, 1547, 892, 559, 1308
815, 1271, 1505, 1400, 1654
816, 2879, 2197, 2200, 2198
817, 2341, 967, 980, 977
818, 2994, 1068, 1206, 1081
819, 977, 2189, 989, 1579
820, 1125, 1561, 684, 2979
821, 1380, 2230, 2228, 1382
822, 724, 2155, 1551, 618
823, 681, 1125, 2630, 1120
824, 922, 2080, 1225, 2134
825, 2082, 951, 929, 853
826, 1112, 2122, 1160, 2862
827, 1445, 865, 2102, 1842
828, 1655, 1421, 1534, 3123
829, 601, 2006, 931, 1634
830, 159, 149, 1557, 1555
831, 1555, 1557, 1556, 542
832, 1557, 10, 19, 1556
833, 149, 1, 10, 1557
834, 904, 2725, 1708, 886
835, 880, 2986, 377, 322
836, 1303, 2130, 2360, 1899
837, 1582, 1559, 2524, 674
838, 1551, 2155, 1581, 1302
839, 1712, 1710, 710, 2193
840, 852, 3025, 1562, 1317
841, 1435, 1137, 1517, 744
842, 1288, 1545, 901, 2573
843, 1564, 306, 392, 1409
844, 1513, 393, 306, 1564
845, 711, 1784, 1516, 2402
846, 2845, 1510, 253, 445
847, 1250, 846, 2106, 2798
848, 2104, 1249, 1750, 709
849, 625, 2540, 1981, 2005
850, 2844, 2951, 1498, 2417
851, 1527, 630, 1167, 1136
852, 2844, 2306, 1264, 2951
853, 3, 1571, 1572, 30
854, 30, 1572, 1341, 33
855, 1572, 1570, 608, 1341
856, 2969, 1681, 2381, 998
857, 1752, 1080, 999, 3012
858, 2314, 1248, 511, 188
859, 1550, 1480, 983, 1988
860, 1351, 2221, 988, 2012
861, 1645, 1987, 2809, 1647
862, 2070, 2068, 2384, 1037
863, 1281, 1155, 2763, 1039
864, 2204, 2625, 2624, 1121
865, 2154, 1118, 2299, 2897
866, 69, 59, 1585, 1583
867, 1583, 1585, 1584, 580
868, 1585, 70, 83, 1584
869, 59, 5, 70, 1585
870, 1271, 1547, 2875, 1548
871, 1356, 1588, 101, 112
872, 1588, 1586, 111, 101
873, 641, 1309, 1931, 2877
874, 682, 674, 1269, 1589
875, 725, 2764, 2954, 2298
876, 2323, 2755, 698, 1561
877, 1029, 1197, 490, 209
878, 1591, 2922, 3054, 1320
879, 1027, 810, 1196, 808
880, 2180, 206, 492, 1502
881, 858, 854, 2680, 950
882, 2871, 1701, 858, 909
883, 859, 3062, 2165, 2338
884, 855, 1593, 1283, 2507
885, 572, 1597, 1598, 1595
886, 1595, 1598, 1596, 571
887, 1598, 145, 156, 1596
888, 1597, 155, 145, 1598
889, 1667, 2325, 1119, 2764
890, 1899, 2360, 435, 264
891, 1822, 1127, 2606, 2455
892, 1013, 1016, 1020, 1195
893, 2029, 3028, 3036, 1388
894, 1379, 2468, 1926, 2209
895, 660, 1605, 1606, 1604
896, 628, 2936, 2674, 2141
897, 2657, 2715, 619, 1124
898, 1605, 419, 280, 1606
899, 2723, 381, 318, 1845
900, 1708, 2700, 2427, 2241
901, 1607, 380, 319, 1840
902, 2566, 2526, 2736, 1758
903, 664, 1530, 1612, 1611
904, 1611, 1612, 1605, 660
905, 1612, 279, 419, 1605
906, 1530, 420, 279, 1612
907, 1423, 1239, 1379, 1850
908, 1824, 477, 222, 2283
909, 1616, 731, 2902, 2214
910, 694, 696, 2629, 1616
911, 700, 2184, 1299, 2203
912, 2423, 2989, 1864, 2326
913, 551, 1619, 1620, 1618
914, 1618, 1620, 1523, 550
915, 1620, 125, 137, 1523
916, 1619, 136, 125, 1620
917, 573, 1621, 1622, 1411
918, 1411, 1622, 27, 31
919, 1622, 1467, 2, 27
920, 1621, 539, 1467, 1622
921, 22, 14, 1625, 1441
922, 1441, 1625, 1623, 545
923, 1625, 1624, 544, 1623
924, 14, 23, 1624, 1625
925, 2905, 1682, 2933, 1018
926, 2598, 2279, 2934, 1627
927, 1675, 3022, 2279, 2598
928, 154, 144, 1630, 1452
929, 1452, 1630, 1629, 568
930, 1630, 1597, 572, 1629
931, 144, 155, 1597, 1630
932, 538, 161, 1633, 1631
933, 2584, 928, 1238, 920
934, 1633, 1465, 942, 1632
935, 161, 537, 1465, 1633
936, 2734, 340, 358, 1535
937, 1760, 2806, 2405, 2406
938, 2026, 1237, 2476, 925
939, 1637, 1140, 1012, 1916
940, 1039, 2763, 1310, 2794
941, 2069, 1231, 812, 2929
942, 1242, 2820, 1038, 1321
943, 1319, 1349, 1639, 1104
944, 1105, 1103, 3053, 587
945, 1447, 94, 82, 1105
946, 1447, 1641, 81, 94
947, 904, 2426, 2527, 2725
948, 2701, 873, 3040, 2658
949, 1144, 2781, 1163, 888
950, 2221, 2879, 2198, 988
951, 1645, 1647, 1646, 992
952, 1647, 172, 526, 1646
953, 1424, 1427, 2282, 969
954, 1028, 2886, 1695, 1022
955, 1463, 1073, 2759, 1507
956, 2123, 2070, 1694, 2311
957, 1140, 498, 201, 1012
958, 526, 173, 1652, 1646
959, 1646, 1652, 1650, 992
960, 1130, 2638, 1927, 2374
961, 2650, 399, 300, 3033
962, 1586, 1654, 100, 111
963, 1654, 1400, 110, 100
964, 588, 560, 1179, 1538
965, 599, 922, 2134, 951
966, 3122, 2277, 933, 1132
967, 2806, 2276, 1843, 943
968, 424, 275, 1661, 1658
969, 2486, 1661, 1660, 1999
970, 1529, 1872, 1528, 1531
971, 275, 423, 1660, 1661
972, 2637, 895, 2774, 1662
973, 2813, 1891, 2773, 895
974, 1104, 1639, 898, 1093
975, 1273, 1300, 2058, 2656
976, 1300, 1664, 637, 2058
977, 1666, 276, 422, 1665
978, 1660, 423, 276, 1666
979, 1560, 2318, 2156, 2334
980, 684, 696, 694, 1234
981, 2154, 2869, 3032, 1118
982, 670, 1600, 677, 2157
983, 350, 160, 1671, 1668
984, 1225, 2242, 2139, 2884
985, 2006, 921, 2699, 931
986, 160, 9, 1670, 1671
987, 3099, 3098, 1172, 2945
988, 1696, 564, 298, 400
989, 1357, 1178, 2971, 1673
990, 1448, 288, 410, 1910
991, 1901, 781, 2420, 770
992, 2454, 1102, 2219, 2272
993, 1087, 2380, 1799, 1009
994, 970, 2690, 1165, 2508
995, 1927, 2589, 2590, 2557
996, 1090, 2291, 1214, 2296
997, 1397, 2501, 806, 1016
998, 1684, 1276, 1580, 1231
999, 2071, 1277, 1279, 1033
1000, 2565, 1503, 3064, 1193
1001, 2178, 198, 500, 2886
1002, 2933, 2033, 204, 494
1003, 2946, 2907, 1718, 868
1004, 1593, 2847, 913, 1283
1005, 571, 1596, 1693, 1692
1006, 1692, 1693, 1338, 570
1007, 1693, 146, 157, 1338
1008, 1596, 156, 146, 1693
1009, 1649, 1028, 1022, 1399
1010, 2760, 1507, 1023, 1685
1011, 1931, 1309, 1504, 1932
1012, 1653, 893, 301, 397
1013, 3033, 300, 398, 640
1014, 1271, 1654, 1586, 1307
1015, 1831, 3042, 2226, 2386
1016, 3063, 2337, 2159, 911
1017, 1283, 2829, 1106, 2507
1018, 2515, 1108, 2696, 581
1019, 1478, 2512, 1542, 2457
1020, 1842, 2102, 1112, 2099
1021, 2101, 853, 2089, 2144
1022, 2479, 339, 359, 2133
1023, 856, 859, 2338, 1226
1024, 882, 2566, 1758, 1290
1025, 1722, 316, 382, 1610
1026, 1845, 318, 380, 1607
1027, 790, 2998, 1825, 2675
1028, 1771, 2336, 1469, 539
1029, 2336, 2222, 574, 1469
1030, 2415, 1217, 789, 788
1031, 3025, 745, 2403, 1297
1032, 1137, 2194, 1712, 1517
1033, 1258, 2396, 3048, 849
1034, 9, 349, 1715, 1670
1035, 946, 1669, 600, 2084
1036, 2544, 2085, 1237, 2026
1037, 349, 538, 1631, 1715
1038, 1688, 366, 333, 2872
1039, 870, 2694, 1108, 2515
1040, 1609, 1965, 2428, 874
1041, 2427, 1608, 2992, 1965
1042, 879, 882, 1164, 2868
1043, 1163, 1096, 583, 883
1044, 2553, 1827, 2446, 2076
1045, 2364, 2365, 1770, 1681
1046, 1856, 1200, 2536, 1254
1047, 2851, 1043, 2410, 1054
1048, 468, 231, 1729, 1727
1049, 1461, 232, 466, 2042
1050, 1219, 2796, 783, 1285
1051, 231, 467, 1460, 1729
1052, 509, 190, 1733, 1730
1053, 1730, 1733, 1731, 1055
1054, 1733, 1732, 1057, 1731
1055, 190, 508, 1732, 1733
1056, 2906, 1117, 872, 1703
1057, 866, 2514, 877, 2150
1058, 1773, 1651, 1679, 2019
1059, 2252, 2795, 2881, 2344
1060, 2555, 2855, 2292, 996
1061, 887, 320, 378, 1096
1062, 1644, 317, 381, 2723
1063, 2781, 887, 1096, 1163
1064, 1910, 410, 289, 2136
1065, 645, 1790, 561, 648
1066, 3101, 1673, 1808, 3117
1067, 561, 290, 408, 1094
1068, 1072, 2497, 1853, 1854
1069, 1747, 1749, 1362, 614
1070, 1749, 38, 46, 1362
1071, 1748, 45, 38, 1749
1072, 2596, 2264, 851, 3029
1073, 1522, 1537, 2174, 1700
1074, 2370, 1878, 250, 448
1075, 2424, 2328, 3044, 2129
1076, 2214, 2902, 1313, 714
1077, 3081, 2412, 1552, 679
1078, 1119, 724, 618, 2632
1079, 1045, 1801, 2350, 1071
1080, 1002, 521, 178, 1088
1081, 2746, 2562, 1395, 2408
1082, 2393, 2147, 2149, 1753
1083, 2997, 1756, 404, 295
1084, 563, 558, 1135, 565
1085, 562, 2717, 650, 2636
1086, 1178, 540, 1889, 2971
1087, 2893, 997, 3007, 1185
1088, 1799, 2196, 1001, 2079
1089, 1008, 1166, 2015, 1204
1090, 1050, 1005, 179, 519
1091, 591, 1642, 1844, 2903
1092, 878, 3013, 2781, 1144
1093, 1967, 586, 2426, 904
1094, 351, 348, 1761, 1634
1095, 2405, 2083, 1669, 946
1096, 1132, 933, 2456, 2747
1097, 348, 350, 1668, 1761
1098, 638, 1763, 1764, 1762
1099, 1762, 1764, 1754, 652
1100, 1764, 287, 411, 1754
1101, 1763, 412, 287, 1764
1102, 2867, 2914, 1218, 1255
1103, 2894, 2224, 847, 1296
1104, 1766, 242, 456, 1428
1105, 1427, 165, 533, 2282
1106, 2833, 978, 1352, 2013
1107, 2587, 981, 2688, 2586
1108, 3007, 1739, 1737, 2831
1109, 1651, 998, 2854, 1679
1110, 1198, 1208, 3011, 1004
1111, 2746, 2408, 1394, 994
1112, 1813, 2708, 1851, 802
1113, 2607, 791, 1824, 1202
1114, 1679, 2854, 1005, 1050
1115, 1753, 1393, 1069, 2830
1116, 995, 960, 2343, 2351
1117, 1007, 523, 176, 1042
1118, 508, 191, 1778, 1732
1119, 1732, 1778, 1776, 1057
1120, 1778, 1777, 1056, 1776
1121, 191, 507, 1777, 1778
1122, 1781, 1168, 1305, 1500
1123, 2743, 2657, 1263, 1405
1124, 2300, 2865, 2235, 663
1125, 630, 658, 3008, 1167
1126, 2546, 1599, 434, 265
1127, 1299, 2874, 2361, 2837
1128, 2326, 1864, 2431, 2432
1129, 2425, 691, 439, 260
1130, 1509, 3128, 252, 446
1131, 1295, 2811, 1316, 2372
1132, 2880, 2369, 1544, 2404
1133, 3043, 751, 2705, 2362
1134, 717, 701, 257, 441
1135, 1787, 444, 255, 1788
1136, 3095, 1954, 558, 563
1137, 2322, 1904, 3115, 1450
1138, 3100, 7, 116, 3099
1139, 1808, 1953, 1744, 1756
1140, 553, 1794, 1795, 1793
1141, 1793, 1795, 1619, 551
1142, 1795, 124, 136, 1619
1143, 1794, 135, 124, 1795
1144, 936, 1455, 1797, 1796
1145, 1796, 1797, 1426, 987
1146, 1797, 164, 534, 1426
1147, 1455, 535, 164, 1797
1148, 1019, 2591, 2178, 1171
1149, 1416, 1015, 2153, 1021
1150, 2917, 2565, 1193, 768
1151, 2050, 811, 1026, 2049
1152, 1187, 186, 512, 1803
1153, 2294, 2364, 1681, 2969
1154, 1049, 2342, 2314, 1724
1155, 1724, 2314, 188, 510
1156, 2669, 2850, 1048, 1575
1157, 2795, 1736, 2297, 2881
1158, 1207, 966, 2720, 1184
1159, 2430, 689, 1123, 1805
1160, 2218, 1785, 2424, 2469
1161, 1809, 2633, 652, 1095
1162, 652, 1754, 1448, 1095
1163, 3098, 3097, 1912, 1172
1164, 3102, 1357, 1673, 3101
1165, 2422, 3016, 785, 2210
1166, 542, 1556, 1815, 1814
1167, 1814, 1815, 1377, 541
1168, 1815, 11, 20, 1377
1169, 1556, 19, 11, 1815
1170, 657, 2541, 1169, 629
1171, 1265, 2141, 3001, 2004
1172, 1817, 1763, 638, 1816
1173, 286, 412, 1763, 1817
1174, 1701, 857, 854, 858
1175, 869, 2160, 369, 330
1176, 68, 58, 1821, 1347
1177, 1347, 1821, 1820, 577
1178, 1821, 1583, 580, 1820
1179, 58, 69, 1583, 1821
1180, 2708, 1175, 1829, 1851
1181, 3009, 1176, 2776, 2441
1182, 1202, 1824, 2283, 2414
1183, 998, 2381, 1209, 2854
1184, 1130, 2374, 2267, 970
1185, 1130, 2339, 1109, 2638
1186, 2272, 776, 1901, 773
1187, 1829, 2799, 1863, 1100
1188, 2055, 2968, 799, 1614
1189, 768, 1193, 767, 809
1190, 2289, 2173, 834, 2957
1191, 2289, 2957, 2043, 1924
1192, 813, 2041, 1520, 1368
1193, 689, 2665, 730, 1123
1194, 714, 1313, 2728, 2520
1195, 2353, 2217, 2218, 2469
1196, 1122, 2980, 1786, 699
1197, 506, 193, 1836, 1833
1198, 1833, 1836, 1834, 1060
1199, 1230, 1325, 1030, 2928
1200, 193, 505, 1835, 1836
1201, 1519, 2303, 2040, 844
1202, 832, 1366, 1294, 822
1203, 2044, 1368, 2064, 2383
1204, 2944, 379, 320, 887
1205, 1741, 883, 583, 2986
1206, 890, 1722, 1610, 1886
1207, 881, 1158, 1721, 2526
1208, 2849, 361, 338, 2212
1209, 601, 1634, 1761, 546
1210, 1973, 1159, 2864, 2488
1211, 1759, 79, 92, 881
1212, 2868, 2398, 2652, 873
1213, 2659, 585, 1162, 1957
1214, 879, 91, 79, 1759
1215, 84, 72, 1849, 1846
1216, 1846, 1849, 1847, 579
1217, 1849, 1848, 578, 1847
1218, 72, 85, 1848, 1849
1219, 774, 1811, 2640, 2641
1220, 2676, 775, 792, 1284
1221, 1177, 2536, 1200, 1070
1222, 2931, 1082, 2777, 612
1223, 1854, 37, 45, 1748
1224, 1853, 44, 37, 1854
1225, 3055, 2165, 364, 335
1226, 2107, 3055, 335, 363
1227, 2960, 3015, 962, 1801
1228, 2394, 1254, 2662, 2447
1229, 2032, 548, 1140, 1637
1230, 1682, 2593, 2033, 2933
1231, 44, 1853, 1861, 36
1232, 36, 1861, 1859, 43
1233, 1861, 1860, 611, 1859
1234, 1072, 1085, 2445, 2497
1235, 2585, 774, 2641, 2222
1236, 1915, 1676, 795, 2950
1237, 2469, 2424, 2129, 1884
1238, 1884, 2129, 719, 2330
1239, 1785, 1788, 2328, 2424
1240, 47, 40, 1867, 1364
1241, 1364, 1867, 1865, 615
1242, 1867, 1866, 617, 1865
1243, 40, 48, 1866, 1867
1244, 1699, 1924, 2843, 1434
1245, 835, 463, 236, 840
1246, 747, 1565, 848, 1315
1247, 23, 15, 1871, 1624
1248, 1624, 1871, 1869, 544
1249, 1871, 1870, 576, 1869
1250, 15, 24, 1870, 1871
1251, 2865, 2486, 1999, 2235
1252, 2000, 653, 2742, 1569
1253, 1873, 277, 421, 1528
1254, 1665, 422, 277, 1873
1255, 2183, 2182, 2627, 716
1256, 1125, 2979, 1303, 2630
1257, 1616, 2629, 2805, 731
1258, 1056, 1777, 1877, 1876
1259, 1876, 1877, 1833, 1060
1260, 1877, 192, 506, 1833
1261, 1777, 507, 192, 1877
1262, 2218, 2185, 705, 1785
1263, 1511, 2105, 1258, 1563
1264, 711, 1315, 848, 1784
1265, 744, 1517, 749, 1711
1266, 48, 41, 1880, 1866
1267, 1866, 1880, 1879, 617
1268, 1880, 49, 60, 1879
1269, 41, 4, 49, 1880
1270, 2718, 1809, 1095, 647
1271, 1450, 3115, 1881, 2836
1272, 1889, 2322, 1450, 1936
1273, 1791, 2258, 1809, 2718
1274, 1882, 2353, 2469, 1884
1275, 2519, 699, 695, 2163
1276, 691, 720, 259, 439
1277, 873, 2652, 1740, 3040
1278, 2398, 1967, 889, 2652
1279, 1558, 2659, 1957, 2993
1280, 2981, 213, 485, 2468
1281, 1822, 2455, 780, 2766
1282, 871, 1643, 1282, 867
1283, 2975, 3067, 2697, 584
1284, 1819, 908, 866, 1235
1285, 1955, 2137, 2635, 540
1286, 1953, 1936, 1745, 1744
1287, 2636, 650, 2919, 645
1288, 643, 2321, 297, 401
1289, 593, 107, 97, 2250
1290, 1212, 2249, 1545, 1288
1291, 1892, 1512, 589, 2911
1292, 1677, 2818, 1676, 1915
1293, 2392, 2422, 2210, 2610
1294, 2744, 223, 475, 2284
1295, 1049, 1724, 1896, 1895
1296, 1895, 1896, 1730, 1055
1297, 1896, 189, 509, 1730
1298, 1724, 510, 189, 1896
1299, 1108, 2643, 1717, 2696
1300, 854, 2167, 2807, 2680
1301, 3038, 328, 370, 1691
1302, 2325, 683, 724, 1119
1303, 2520, 2728, 753, 713
1304, 1332, 1245, 2523, 2401
1305, 1589, 1269, 2547, 1751
1306, 2454, 2272, 773, 1905
1307, 1825, 802, 1176, 3009
1308, 2709, 733, 2677, 2391
1309, 2321, 1810, 402, 297
1310, 2945, 1172, 2920, 2135
1311, 1789, 1180, 1755, 1904
1312, 1754, 411, 288, 1448
1313, 2455, 2286, 2054, 780
1314, 1905, 773, 2062, 794
1315, 2420, 1203, 784, 2938
1316, 2973, 3009, 2441, 769
1317, 84, 1846, 1909, 71
1318, 71, 1909, 1584, 83
1319, 1909, 1908, 580, 1584
1320, 1846, 579, 1908, 1909
1321, 3106, 3105, 1810, 2321
1322, 1903, 649, 1791, 2717
1323, 3093, 1955, 540, 1178
1324, 1094, 408, 291, 646
1325, 1999, 1660, 1666, 2955
1326, 1914, 274, 424, 1658
1327, 1381, 425, 274, 1914
1328, 1823, 2887, 2056, 2676
1329, 809, 767, 2335, 803
1330, 1126, 2599, 766, 3028
1331, 1601, 1613, 1812, 2215
1332, 43, 1859, 1919, 35
1333, 35, 1919, 1917, 42
1334, 2576, 3035, 1011, 2788
1335, 1859, 611, 1918, 1919
1336, 1235, 866, 2150, 1236
1337, 1897, 917, 2207, 1227
1338, 1735, 1702, 2109, 2870
1339, 2428, 871, 867, 2316
1340, 469, 230, 1923, 1906
1341, 1906, 1923, 1922, 793
1342, 1923, 1727, 826, 1922
1343, 230, 468, 1727, 1923
1344, 1459, 2866, 830, 3042
1345, 2957, 834, 831, 2176
1346, 839, 2162, 1460, 1461
1347, 2791, 761, 1191, 814
1348, 3089, 2905, 2564, 1960
1349, 2672, 1463, 1507, 2760
1350, 1197, 2028, 208, 490
1351, 804, 2209, 484, 215
1352, 1489, 1246, 1576, 1003
1353, 2293, 183, 515, 2352
1354, 995, 2746, 994, 2077
1355, 1770, 1088, 2290, 1209
1356, 24, 16, 1930, 1870
1357, 1870, 1930, 1928, 576
1358, 1930, 1929, 575, 1928
1359, 16, 25, 1929, 1930
1360, 1271, 1548, 641, 1505
1361, 1547, 1308, 1506, 2875
1362, 303, 395, 1471, 1932
1363, 42, 1917, 1933, 34
1364, 34, 1933, 1571, 3
1365, 1075, 2671, 3050, 3091
1366, 2927, 1036, 1035, 1170
1367, 2137, 1355, 3000, 3116
1368, 1936, 1450, 2836, 1745
1369, 1355, 1935, 648, 3000
1370, 2137, 3116, 1789, 2635
1371, 1852, 2693, 2491, 2568
1372, 1127, 794, 2415, 2606
1373, 775, 2347, 2421, 787
1374, 786, 1614, 777, 2949
1375, 864, 1940, 1941, 1938
1376, 1938, 1941, 1346, 577
1377, 1941, 1939, 603, 1346
1378, 1940, 954, 1939, 1941
1379, 552, 1391, 1943, 1942
1380, 1942, 1943, 1495, 549
1381, 1943, 140, 151, 1495
1382, 1391, 150, 140, 1943
1383, 1944, 1945, 1794, 553
1384, 1945, 123, 135, 1794
1385, 574, 1946, 1947, 1468
1386, 1468, 1947, 17, 26
1387, 1947, 1929, 25, 17
1388, 1946, 575, 1929, 1947
1389, 85, 73, 1950, 1848
1390, 1848, 1950, 1948, 578
1391, 917, 2872, 860, 2207
1392, 73, 86, 1949, 1950
1393, 617, 1879, 1952, 1951
1394, 1951, 1952, 1493, 616
1395, 1952, 50, 61, 1493
1396, 1879, 60, 50, 1952
1397, 1904, 1755, 1881, 3115
1398, 1672, 2945, 2135, 644
1399, 3107, 3106, 2321, 643
1400, 2971, 1889, 1936, 1953
1401, 1558, 2993, 89, 77
1402, 875, 2723, 1845, 2653
1403, 1463, 1281, 1039, 1073
1404, 956, 1963, 1964, 1961
1405, 1961, 1964, 1359, 605
1406, 1964, 1962, 606, 1359
1407, 1963, 959, 1962, 1964
1408, 884, 1720, 323, 375
1409, 1145, 1644, 2723, 875
1410, 881, 92, 80, 1158
1411, 2439, 2171, 1430, 1436
1412, 2790, 2387, 240, 458
1413, 2736, 2651, 890, 1886
1414, 871, 2992, 1291, 1643
1415, 2652, 889, 1707, 1740
1416, 1971, 2241, 1609, 1885
1417, 1656, 2101, 2144, 930
1418, 3030, 1262, 2475, 1114
1419, 2489, 598, 1152, 2679
1420, 607, 1976, 1977, 1334
1421, 1334, 1977, 1974, 613
1422, 1977, 1975, 1078, 1974
1423, 1976, 958, 1975, 1977
1424, 158, 148, 1979, 1337
1425, 1337, 1979, 1978, 569
1426, 1979, 1555, 542, 1978
1427, 148, 159, 1555, 1979
1428, 558, 1954, 1982, 1980
1429, 1982, 119, 131, 1981
1430, 1954, 130, 119, 1982
1431, 942, 1464, 1986, 1983
1432, 1983, 1986, 1984, 940
1433, 1986, 1985, 934, 1984
1434, 1464, 935, 1985, 1986
1435, 2013, 1352, 528, 171
1436, 980, 1483, 2189, 977
1437, 1351, 2012, 2510, 2962
1438, 1353, 1577, 2014, 1354
1439, 604, 1990, 1991, 1369
1440, 1369, 1991, 1961, 605
1441, 1991, 1989, 956, 1961
1442, 1990, 955, 1989, 1991
1443, 86, 74, 1993, 1949
1444, 2337, 2515, 581, 2151
1445, 2697, 1993, 1992, 1323
1446, 74, 87, 1992, 1993
1447, 567, 1996, 1997, 1418
1448, 1418, 1997, 1994, 566
1449, 1997, 1995, 728, 1994
1450, 722, 2706, 2190, 1314
1451, 668, 665, 2729, 667
1452, 2233, 1381, 1914, 2301
1453, 2730, 673, 2413, 655
1454, 2730, 1124, 1751, 673
1455, 959, 2001, 2002, 1962
1456, 1962, 2002, 1414, 606
1457, 2002, 1976, 607, 1414
1458, 2001, 958, 1976, 2002
1459, 2354, 554, 1292, 1780
1460, 1404, 2655, 1275, 3041
1461, 2644, 2786, 1499, 2003
1462, 1981, 131, 120, 2005
1463, 2307, 628, 2141, 1265
1464, 2786, 629, 1567, 1499
1465, 2122, 3121, 2896, 596
1466, 1215, 3030, 2277, 3122
1467, 2368, 2584, 920, 2121
1468, 3068, 2716, 2631, 2978
1469, 555, 556, 2988, 1143
1470, 661, 632, 626, 631
1471, 2141, 2674, 2038, 3001
1472, 570, 2010, 2011, 1692
1473, 1692, 2011, 2008, 571
1474, 2011, 2009, 742, 2008
1475, 2010, 739, 2009, 2011
1476, 976, 986, 979, 978
1477, 2963, 2220, 2221, 1351
1478, 2012, 2348, 2832, 2510
1479, 571, 2008, 2018, 1595
1480, 1595, 2018, 2016, 572
1481, 2620, 751, 741, 2842
1482, 2008, 742, 2017, 2018
1483, 2638, 1109, 2711, 2712
1484, 1650, 1652, 993, 1393
1485, 1248, 1491, 187, 511
1486, 3067, 1948, 1950, 1949
1487, 1970, 2021, 75, 88
1488, 2021, 1992, 87, 75
1489, 581, 2696, 1717, 914
1490, 759, 2024, 2025, 2022
1491, 2022, 2025, 2017, 742
1492, 2597, 3004, 722, 723
1493, 2580, 731, 2805, 2579
1494, 1843, 2132, 921, 2006
1495, 1972, 2474, 3079, 1443
1496, 2278, 1462, 497, 202
1497, 1580, 3058, 1013, 3056
1498, 2819, 1037, 203, 495
1499, 603, 1939, 2031, 1432
1500, 1432, 2031, 1990, 604
1501, 2031, 2030, 955, 1990
1502, 1939, 954, 2030, 2031
1503, 2308, 2168, 1155, 1281
1504, 1031, 2761, 2313, 1959
1505, 1638, 1343, 1591, 1320
1506, 2397, 2385, 2840, 818
1507, 1868, 1700, 2035, 2303
1508, 1520, 2041, 2227, 2796
1509, 2812, 2274, 2779, 2288
1510, 2177, 2644, 2003, 632
1511, 1169, 2037, 1781, 636
1512, 1568, 1274, 633, 554
1513, 2797, 3027, 462, 237
1514, 818, 2840, 1968, 2438
1515, 1255, 1218, 460, 239
1516, 2274, 2044, 824, 2779
1517, 843, 819, 2063, 1366
1518, 823, 820, 2162, 1728
1519, 1277, 1266, 1508, 1709
1520, 764, 2762, 2888, 1858
1521, 2124, 2071, 1033, 1024
1522, 3056, 1013, 1195, 2312
1523, 1025, 1326, 207, 491
1524, 1368, 1520, 1220, 2064
1525, 2783, 817, 1728, 1532
1526, 2051, 829, 2797, 827
1527, 772, 1852, 2568, 2270
1528, 1907, 2709, 2391, 765
1529, 771, 2943, 2744, 2775
1530, 1176, 2552, 2516, 2776
1531, 2301, 1914, 1658, 2234
1532, 1780, 1293, 630, 1527
1533, 1306, 557, 2419, 2687
1534, 2844, 1136, 1181, 2743
1535, 3036, 3006, 1613, 1601
1536, 2917, 768, 2707, 2923
1537, 2059, 2029, 1388, 800
1538, 2061, 2522, 2605, 1894
1539, 2209, 1926, 214, 484
1540, 2039, 1868, 2303, 1519
1541, 2161, 1255, 239, 459
1542, 935, 1454, 2067, 1985
1543, 1985, 2067, 2065, 934
1544, 2067, 2066, 937, 2065
1545, 1454, 936, 2066, 2067
1546, 2103, 2466, 1138, 1139
1547, 2068, 1321, 2278, 2384
1548, 2438, 1968, 2895, 2263
1549, 3025, 1297, 2223, 1562
1550, 703, 1510, 2845, 1710
1551, 1434, 842, 747, 757
1552, 1887, 1389, 2981, 1239
1553, 3022, 2050, 2049, 2279
1554, 1396, 1675, 2598, 1862
1555, 1000, 1198, 1004, 1739
1556, 968, 1098, 2528, 2778
1557, 2562, 3010, 1769, 1395
1558, 1726, 1071, 517, 182
1559, 947, 1714, 945, 1224
1560, 928, 2479, 2133, 1238
1561, 1632, 1224, 1631, 1633
1562, 2821, 2060, 1326, 1025
1563, 1613, 3006, 481, 218
1564, 1240, 2059, 800, 1771
1565, 1714, 2967, 2458, 945
1566, 957, 932, 2825, 2474
1567, 2967, 946, 2084, 2458
1568, 602, 2406, 2967, 1714
1569, 3078, 3124, 342, 356
1570, 596, 2896, 2735, 2863
1571, 920, 1238, 3120, 3069
1572, 939, 2582, 2090, 985
1573, 2733, 2731, 2459, 2545
1574, 949, 930, 2144, 2733
1575, 2545, 2459, 2266, 2587
1576, 974, 2094, 2095, 2092
1577, 2092, 2095, 2001, 959
1578, 2095, 2093, 958, 2001
1579, 3119, 924, 1657, 3018
1580, 2099, 1112, 2862, 2245
1581, 1023, 1017, 1324, 1685
1582, 2534, 1628, 2575, 1398
1583, 862, 2027, 1445, 1515
1584, 594, 915, 2107, 2952
1585, 929, 1635, 938, 2965
1586, 921, 1973, 2488, 2699
1587, 1015, 195, 503, 2153
1588, 1695, 199, 499, 2464
1589, 1686, 1399, 1328, 1257
1590, 852, 849, 745, 3025
1591, 2924, 1566, 2478, 1878
1592, 850, 247, 451, 2262
1593, 2846, 1116, 1478, 916
1594, 1477, 1734, 1688, 2098
1595, 1116, 918, 1898, 3019
1596, 1227, 2207, 859, 856
1597, 1084, 2112, 2113, 2110
1598, 2110, 2113, 2111, 1079
1599, 2113, 1363, 615, 2111
1600, 2112, 614, 1363, 2113
1601, 732, 2620, 2842, 2622
1602, 2114, 2116, 1451, 568
1603, 2116, 1996, 567, 1451
1604, 737, 2119, 2120, 2117
1605, 2117, 2120, 1375, 543
1606, 2120, 2118, 541, 1375
1607, 2119, 740, 2118, 2120
1608, 2896, 1554, 926, 2735
1609, 2433, 1705, 341, 357
1610, 1022, 1695, 2464, 1051
1611, 1328, 1051, 2032, 2948
1612, 1277, 1709, 2179, 1279
1613, 2592, 1686, 1628, 2534
1614, 954, 2127, 2128, 2030
1615, 2030, 2128, 2125, 955
1616, 949, 2733, 2545, 952
1617, 3070, 1656, 930, 1161
1618, 688, 2430, 1805, 1122
1619, 1244, 2727, 697, 1245
1620, 2594, 2330, 2182, 2183
1621, 1123, 730, 2664, 2184
1622, 2081, 3069, 932, 957
1623, 1706, 597, 1704, 2882
1624, 2735, 926, 355, 344
1625, 2121, 920, 3069, 2081
1626, 3105, 3104, 1911, 1810
1627, 1755, 292, 406, 1881
1628, 3095, 118, 130, 1954
1629, 644, 2135, 2772, 2771
1630, 2882, 1704, 2101, 1656
1631, 2140, 1983, 940, 2139
1632, 1632, 942, 1983, 2140
1633, 1606, 280, 418, 2995
1634, 1406, 1142, 283, 415
1635, 1142, 1500, 416, 283
1636, 631, 626, 285, 413
1637, 955, 2125, 2145, 1989
1638, 1989, 2145, 2143, 956
1639, 2091, 2732, 2205, 948
1640, 992, 1650, 2149, 2146
1641, 2146, 2149, 2147, 991
1642, 3012, 999, 1489, 3010
1643, 1723, 2721, 963, 2511
1644, 2600, 1691, 370, 329
1645, 919, 2958, 2749, 2785
1646, 1162, 1115, 2642, 1957
1647, 1039, 2794, 1228, 1073
1648, 2788, 1011, 1416, 1021
1649, 1325, 502, 197, 1030
1650, 2691, 2953, 1383, 2229
1651, 2157, 677, 428, 271
1652, 2333, 2230, 1380, 2320
1653, 2847, 2494, 1920, 913
1654, 1106, 582, 2828, 908
1655, 2337, 2151, 876, 2159
1656, 2259, 1540, 1897, 1690
1657, 1837, 836, 2175, 2914
1658, 2303, 2035, 1459, 2040
1659, 837, 234, 464, 2866
1660, 2482, 715, 1617, 2236
1661, 1874, 2202, 258, 440
1662, 694, 1616, 2214, 686
1663, 1807, 2363, 2217, 2353
1664, 1157, 2876, 1350, 1439
1665, 857, 1689, 2167, 854
1666, 2243, 367, 332, 1734
1667, 2261, 2243, 1734, 1477
1668, 1062, 2169, 2170, 1228
1669, 1032, 1396, 2046, 2075
1670, 2574, 1010, 3037, 2626
1671, 2169, 1060, 1834, 2170
1672, 1969, 2839, 2841, 758
1673, 2074, 2073, 2894, 3052
1674, 1327, 2378, 2073, 2074
1675, 1429, 833, 2378, 1327
1676, 2287, 843, 1366, 832
1677, 1367, 815, 2041, 813
1678, 757, 747, 1315, 1486
1679, 1533, 2961, 1536, 2913
1680, 633, 3047, 1304, 662
1681, 3031, 1404, 3041, 1168
1682, 2355, 2786, 2644, 627
1683, 1816, 661, 631, 1817
1684, 2179, 2788, 1021, 1687
1685, 2028, 1025, 491, 208
1686, 2431, 716, 717, 2202
1687, 2203, 1299, 2837, 1330
1688, 2194, 703, 1710, 1712
1689, 1543, 2756, 2615, 2477
1690, 749, 2193, 2185, 2956
1691, 748, 246, 452, 2407
1692, 1481, 2962, 2878, 990
1693, 2188, 532, 167, 1578
1694, 2348, 2188, 1578, 2832
1695, 1080, 1007, 1042, 999
1696, 2016, 2191, 1629, 572
1697, 2191, 2114, 568, 1629
1698, 2980, 700, 2203, 2628
1699, 2072, 2577, 2435, 1566
1700, 704, 1518, 2924, 2192
1701, 2374, 2559, 2093, 2267
1702, 1488, 2411, 2293, 2196
1703, 984, 2199, 2200, 2197
1704, 2282, 533, 166, 1767
1705, 969, 2282, 1767, 1482
1706, 2199, 987, 1424, 2200
1707, 1673, 2971, 1953, 1808
1708, 3097, 3096, 2634, 1912
1709, 3103, 3117, 2997, 1792
1710, 647, 1910, 2136, 2919
1711, 2376, 687, 2521, 702
1712, 2731, 2089, 2965, 2582
1713, 2143, 2206, 1963, 956
1714, 2206, 2092, 959, 1963
1715, 2205, 974, 2092, 2206
1716, 1541, 594, 2952, 2260
1717, 2109, 1716, 2208, 2870
1718, 915, 1226, 3055, 2107
1719, 855, 2507, 1819, 1594
1720, 2416, 2938, 3065, 1099
1721, 1027, 1194, 1034, 810
1722, 2307, 1141, 2007, 628
1723, 2007, 2058, 637, 634
1724, 2743, 1181, 2715, 2657
1725, 944, 3122, 1132, 1422
1726, 1657, 2748, 2479, 928
1727, 2989, 1875, 1882, 2594
1728, 1203, 2414, 771, 784
1729, 791, 221, 477, 1824
1730, 2989, 2594, 2183, 1864
1731, 2938, 784, 2518, 3065
1732, 1823, 2676, 1284, 783
1733, 1812, 480, 219, 796
1734, 2963, 1351, 2962, 1481
1735, 2220, 1479, 2879, 2221
1736, 2834, 1988, 529, 170
1737, 1193, 3064, 1423, 767
1738, 772, 2270, 2909, 1937
1739, 2404, 1544, 2984, 748
1740, 2984, 453, 246, 748
1741, 1711, 749, 2956, 707
1742, 780, 2054, 2227, 2225
1743, 2225, 2227, 2041, 815
1744, 2042, 466, 233, 1537
1745, 834, 2782, 1458, 831
1746, 2156, 1302, 1600, 670
1747, 2334, 2953, 2691, 2889
1748, 1302, 1581, 680, 1600
1749, 2730, 655, 668, 2000
1750, 655, 2413, 2319, 666
1751, 653, 1273, 2656, 2742
1752, 1300, 1659, 2232, 1664
1753, 2375, 2318, 1560, 1590
1754, 2853, 2359, 2668, 620
1755, 2401, 2523, 437, 262
1756, 824, 2578, 2961, 1533
1757, 826, 1727, 1729, 820
1758, 2175, 2051, 827, 828
1759, 1256, 825, 2273, 823
1760, 2700, 2240, 1608, 2427
1761, 1641, 885, 93, 81
1762, 2992, 1608, 884, 1291
1763, 1640, 547, 315, 383
1764, 2406, 2405, 946, 2967
1765, 1261, 2807, 2684, 2086
1766, 2140, 947, 1224, 1632
1767, 2871, 919, 1593, 855
1768, 2871, 2908, 1855, 1701
1769, 1422, 2739, 3077, 1636
1770, 941, 599, 951, 2082
1771, 2474, 2825, 3127, 3079
1772, 897, 2859, 1512, 2814
1773, 1287, 1212, 1288, 1893
1774, 2250, 97, 108, 2248
1775, 2918, 1289, 2637, 590
1776, 2352, 515, 184, 1208
1777, 1726, 182, 516, 2411
1778, 1003, 1576, 1002, 2365
1779, 1059, 2256, 2257, 2254
1780, 2254, 2257, 2255, 1058
1781, 2257, 1776, 1056, 2255
1782, 2256, 1057, 1776, 2257
1783, 565, 1135, 651, 2258
1784, 3118, 105, 7, 3100
1785, 3118, 3100, 1672, 3094
1786, 2772, 562, 2636, 1935
1787, 2512, 1541, 1553, 1542
1788, 867, 1282, 2907, 2946
1789, 1888, 2946, 868, 2601
1790, 1689, 2846, 916, 2167
1791, 1298, 2874, 2664, 2265
1792, 2362, 2705, 2756, 1543
1793, 842, 743, 1565, 747
1794, 712, 707, 2363, 2361
1795, 2217, 2956, 2185, 2218
1796, 2368, 2679, 3018, 2584
1797, 2509, 981, 2587, 2266
1798, 800, 1388, 801, 1772
1799, 1678, 1822, 2766, 779
1800, 2284, 475, 224, 2799
1801, 765, 2391, 470, 229
1802, 2219, 2737, 2968, 2055
1803, 3042, 830, 835, 2226
1804, 2397, 832, 822, 2385
1805, 2132, 2088, 1973, 921
1806, 923, 1151, 950, 2680
1807, 1159, 2246, 2848, 2864
1808, 2279, 2049, 1029, 2934
1809, 2999, 2996, 1035, 1266
1810, 2047, 2917, 2923, 573
1811, 2280, 2281, 2146, 991
1812, 2281, 1645, 992, 2146
1813, 989, 1549, 2281, 2280
1814, 1647, 2809, 527, 172
1815, 1482, 1767, 2188, 2348
1816, 1483, 976, 2538, 2189
1817, 1102, 2738, 2737, 2219
1818, 2053, 2675, 2973, 805
1819, 1678, 782, 1127, 1822
1820, 2286, 1823, 783, 2054
1821, 2304, 2397, 818, 1765
1822, 2961, 2039, 1519, 1536
1823, 2791, 2812, 2288, 2784
1824, 1769, 1003, 2365, 2364
1825, 2292, 1773, 3015, 1573
1826, 1009, 1799, 2079, 1046
1827, 2267, 2093, 2095, 2094
1828, 2296, 1214, 1491, 1248
1829, 1088, 178, 520, 2290
1830, 2252, 1087, 1009, 2795
1831, 2380, 1488, 2196, 1799
1832, 2885, 2959, 3022, 1675
1833, 1576, 177, 521, 1002
1834, 2351, 3012, 3010, 2562
1835, 2547, 2668, 1384, 1268
1836, 2730, 1263, 2657, 1124
1837, 2730, 2000, 1569, 1263
1838, 2235, 1999, 2955, 654
1839, 2234, 1658, 1661, 2486
1840, 2176, 831, 2287, 2304
1841, 1700, 2174, 837, 2035
1842, 2037, 3031, 1168, 1781
1843, 2057, 3034, 2740, 1501
1844, 2419, 2177, 632, 661
1845, 2046, 1396, 1862, 1194
1846, 2564, 1798, 2180, 2060
1847, 2193, 710, 705, 2185
1848, 1485, 708, 2616, 3057
1849, 1294, 2867, 1255, 2161
1850, 3035, 2672, 2760, 1011
1851, 2049, 1026, 1197, 1029
1852, 1016, 806, 3089, 1020
1853, 1266, 1035, 1036, 1508
1854, 2763, 1280, 2535, 1310
1855, 2384, 2278, 202, 496
1856, 2855, 2969, 998, 1651
1857, 1044, 2826, 180, 518
1858, 1802, 2252, 2344, 2409
1859, 994, 1394, 1826, 2670
1860, 3126, 2260, 362, 337
1861, 2260, 2952, 336, 362
1862, 2695, 327, 371, 912
1863, 2514, 2703, 2317, 877
1864, 1872, 669, 1873, 1528
1865, 2232, 1998, 1301, 669
1866, 1783, 2074, 3052, 2780
1867, 3043, 2265, 741, 751
1868, 2310, 711, 2402, 2105
1869, 1912, 2634, 649, 1903
1870, 2634, 563, 565, 649
1871, 1121, 2624, 2755, 2323
1872, 1582, 674, 682, 2231
1873, 2485, 1782, 687, 2376
1874, 687, 1332, 2401, 2521
1875, 719, 2484, 701, 2627
1876, 671, 1667, 2764, 725
1877, 937, 2066, 2332, 2331
1878, 2331, 2332, 2199, 984
1879, 2332, 1796, 987, 2199
1880, 2066, 936, 1796, 2332
1881, 1600, 680, 3046, 677
1882, 1382, 2228, 426, 273
1883, 2953, 670, 2157, 1383
1884, 1812, 1613, 218, 480
1885, 809, 803, 1126, 2346
1886, 1323, 1992, 2021, 2724
1887, 2167, 916, 2684, 2807
1888, 1958, 1921, 2471, 1117
1889, 1041, 2499, 2395, 1110
1890, 1725, 1738, 2077, 1252
1891, 1578, 167, 531, 1577
1892, 2344, 1199, 2295, 2409
1893, 2831, 1737, 2020, 1086
1894, 3003, 174, 524, 2556
1895, 2078, 1006, 3026, 1856
1896, 1614, 799, 2950, 777
1897, 733, 2517, 2271, 2677
1898, 2283, 222, 476, 2943
1899, 2517, 2392, 2610, 2271
1900, 983, 2187, 530, 169
1901, 972, 971, 1480, 1550
1902, 2878, 1484, 971, 972
1903, 1549, 1987, 1645, 2281
1904, 1736, 2893, 2970, 2297
1905, 2556, 524, 175, 1186
1906, 2079, 1001, 1198, 1000
1907, 1573, 3015, 2960, 1757
1908, 2630, 1303, 1899, 1599
1909, 2483, 2432, 1874, 720
1910, 2741, 2742, 2656, 1141
1911, 665, 3045, 1913, 2729
1912, 1201, 659, 2741, 2211
1913, 2951, 657, 2355, 1498
1914, 1053, 2357, 2358, 2356
1915, 2356, 2358, 2256, 1059
1916, 2358, 1731, 1057, 2256
1917, 2357, 1055, 1731, 2358
1918, 2484, 442, 257, 701
1919, 2838, 686, 1615, 2377
1920, 2628, 2423, 2326, 2667
1921, 2478, 756, 249, 449
1922, 702, 2521, 436, 263
1923, 2403, 706, 2371, 1487
1924, 3035, 1683, 2308, 2672
1925, 2564, 2905, 1018, 1798
1926, 1257, 2673, 2714, 2152
1927, 2408, 2555, 996, 1394
1928, 1394, 996, 2554, 1826
1929, 2078, 1856, 1254, 2394
1930, 1827, 1757, 2440, 2446
1931, 1421, 1636, 1133, 1534
1932, 941, 2026, 925, 599
1933, 1553, 3126, 2849, 1444
1934, 3029, 851, 1249, 2104
1935, 2577, 248, 450, 2435
1936, 2192, 2924, 1878, 2370
1937, 1838, 839, 1461, 2042
1938, 1883, 2231, 2631, 676
1939, 2889, 2691, 2230, 2333
1940, 2229, 1383, 427, 272
1941, 2264, 755, 1435, 851
1942, 3128, 1487, 447, 252
1943, 3029, 2104, 2362, 1543
1944, 3073, 2976, 1098, 968
1945, 2722, 2539, 1479, 2220
1946, 2253, 1186, 1007, 1080
1947, 1913, 2234, 2486, 2865
1948, 681, 2323, 1561, 1125
1949, 2482, 2236, 1244, 2327
1950, 2330, 719, 2627, 2182
1951, 2298, 2954, 2921, 685
1952, 2265, 2664, 730, 741
1953, 1785, 705, 1787, 1788
1954, 3129, 708, 1486, 2310
1955, 1001, 2352, 1208, 1198
1956, 2195, 2831, 1086, 2851
1957, 961, 2349, 1166, 1008
1958, 1768, 1008, 1204, 964
1959, 2202, 717, 441, 258
1960, 685, 2921, 2359, 2853
1961, 718, 2483, 720, 691
1962, 1196, 810, 487, 212
1963, 1592, 1412, 2922, 1591
1964, 2387, 2161, 459, 240
1965, 2171, 1296, 1431, 1430
1966, 2288, 2779, 821, 2173
1967, 743, 1783, 2780, 2172
1968, 796, 219, 479, 2567
1969, 768, 809, 2346, 2707
1970, 1925, 1960, 2821, 2048
1971, 1388, 3036, 1601, 801
1972, 3065, 2518, 2708, 1813
1973, 1602, 804, 215, 483
1974, 819, 2238, 1837, 2063
1975, 2578, 2382, 2039, 2961
1976, 2073, 746, 2224, 2894
1977, 2034, 1522, 1700, 1868
1978, 543, 1440, 2390, 2117
1979, 2117, 2390, 2388, 737
1980, 2390, 2389, 734, 2388
1981, 1440, 545, 2389, 2390
1982, 2062, 770, 2416, 1217
1983, 2216, 220, 478, 1900
1984, 777, 2950, 795, 1828
1985, 964, 1128, 1574, 2558
1986, 1130, 970, 2508, 1207
1987, 2343, 1774, 2251, 1752
1988, 2148, 1187, 1803, 1800
1989, 2639, 1097, 3002, 2373
1990, 1252, 2670, 1006, 2078
1991, 2386, 2226, 829, 2051
1992, 1518, 2072, 1566, 2924
1993, 1317, 1562, 2194, 1137
1994, 2811, 2439, 1436, 1316
1995, 2239, 1838, 1522, 2034
1996, 2913, 1536, 1521, 1839
1997, 2791, 814, 1367, 2812
1998, 836, 2386, 2051, 2175
1999, 1642, 888, 1741, 1844
2000, 1438, 388, 311, 2525
2001, 1058, 2255, 2400, 2399
2002, 2399, 2400, 2169, 1062
2003, 2400, 1876, 1060, 2169
2004, 2255, 1056, 1876, 2400
2005, 2629, 1832, 2804, 2805
2006, 2236, 2237, 2727, 1244
2007, 2104, 709, 3043, 2362
2008, 2105, 2402, 2396, 1258
2009, 1316, 454, 245, 2372
2010, 1297, 3128, 1509, 2223
2011, 2080, 1760, 2406, 602
2012, 1224, 945, 1715, 1631
2013, 2084, 600, 1668, 1671
2014, 945, 2458, 1670, 1715
2015, 2310, 1486, 1315, 711
2016, 2404, 748, 2407, 1259
2017, 2880, 2404, 1259, 754
2018, 3024, 1490, 1045, 1680
2019, 2196, 2293, 2352, 1001
2020, 3024, 1680, 1488, 2380
2021, 3015, 1773, 2019, 962
2022, 1004, 3011, 2850, 2669
2023, 3011, 514, 185, 2850
2024, 997, 1000, 1739, 3007
2025, 699, 1786, 718, 695
2026, 2869, 681, 1120, 3032
2027, 2204, 1883, 676, 2625
2028, 2270, 2568, 2490, 2543
2029, 2568, 2491, 2492, 2490
2030, 2995, 418, 281, 1182
2031, 3041, 635, 1305, 1168
2032, 651, 639, 2710, 2633
2033, 2003, 1499, 1779, 2036
2034, 3082, 1243, 2898, 3020
2035, 1736, 1046, 997, 2893
2036, 2411, 516, 183, 2293
2037, 787, 2421, 2709, 1907
2038, 2522, 225, 473, 2605
2039, 2327, 1244, 1245, 1332
2040, 2129, 3044, 2484, 719
2041, 2838, 2377, 1782, 2485
2042, 1290, 1758, 1145, 875
2043, 586, 1841, 878, 2426
2044, 1965, 2992, 871, 2428
2045, 2181, 2663, 689, 2430
2046, 1782, 2327, 1332, 687
2047, 2980, 2628, 2667, 1786
2048, 1635, 2884, 2883, 938
2049, 2459, 2731, 2582, 939
2050, 602, 1714, 947, 2242
2051, 745, 2186, 706, 2403
2052, 707, 2956, 2217, 2363
2053, 1297, 2403, 1487, 3128
2054, 2533, 2436, 1064, 2671
2055, 3084, 2297, 2970, 2752
2056, 1243, 1241, 1089, 2898
2057, 1155, 1648, 1280, 2763
2058, 2274, 813, 1368, 2044
2059, 2369, 841, 1295, 1544
2060, 2780, 3052, 2171, 2439
2061, 2176, 2304, 1765, 838
2062, 1109, 968, 2778, 2711
2063, 1086, 2020, 2291, 1090
2064, 2893, 1185, 1052, 2970
2065, 2455, 2606, 2345, 2286
2066, 2567, 479, 220, 2216
2067, 1093, 898, 314, 384
2068, 1319, 1104, 2443, 592
2069, 1447, 1446, 1092, 1091
2070, 1085, 2444, 2448, 2445
2071, 1709, 2576, 2788, 2179
2072, 1252, 2078, 2394, 1725
2073, 2351, 2343, 1752, 3012
2074, 622, 2451, 2452, 2449
2075, 2449, 2452, 2450, 623
2076, 2452, 1618, 550, 2450
2077, 2451, 551, 1618, 2452
2078, 793, 1922, 2453, 2285
2079, 2285, 2453, 1286, 792
2080, 2453, 2273, 825, 1286
2081, 1922, 826, 2273, 2453
2082, 2421, 2858, 733, 2709
2083, 1852, 1192, 763, 2693
2084, 2934, 1029, 209, 489
2085, 3125, 957, 2474, 1972
2086, 925, 2476, 2276, 927
2087, 2246, 596, 2863, 2848
2088, 2085, 2862, 1160, 2131
2089, 550, 1524, 2461, 2450
2090, 2450, 2461, 2460, 623
2091, 2461, 1942, 549, 2460
2092, 1524, 552, 1942, 2461
2093, 109, 1401, 2462, 98
2094, 98, 2462, 2248, 108
2095, 1931, 1932, 1471, 891
2096, 2860, 1473, 1514, 589
2097, 1075, 3091, 2465, 2789
2098, 2463, 1054, 1154, 2436
2099, 806, 1682, 2905, 3089
2100, 1243, 1040, 2792, 1241
2101, 1805, 1123, 2184, 700
2102, 2324, 2375, 1590, 690
2103, 788, 789, 790, 778
2104, 2237, 688, 2519, 2727
2105, 268, 430, 683, 2325
2106, 1245, 697, 2467, 2523
2107, 1615, 714, 2520, 715
2108, 2846, 1690, 918, 1116
2109, 869, 330, 368, 1716
2110, 2828, 1719, 2703, 2514
2111, 1226, 2338, 2165, 3055
2112, 579, 2472, 2473, 1908
2113, 1908, 2473, 1820, 580
2114, 2473, 1938, 577, 1820
2115, 2472, 864, 1938, 2473
2116, 863, 944, 1421, 1655
2117, 931, 2699, 352, 347
2118, 2091, 952, 2586, 2732
2119, 2899, 2477, 2615, 2618
2120, 864, 2480, 2481, 1940
2121, 1940, 2481, 2127, 954
2122, 2086, 2684, 2457, 2824
2123, 1566, 2435, 756, 2478
2124, 1510, 1509, 446, 253
2125, 2231, 682, 2978, 2631
2126, 1590, 1560, 1552, 2412
2127, 688, 1122, 699, 2519
2128, 1998, 654, 2955, 1301
2129, 1380, 1382, 1381, 2233
2130, 663, 2235, 654, 1998
2131, 2000, 668, 667, 653
2132, 2138, 1972, 1443, 2244
2133, 948, 2205, 2206, 2143
2134, 982, 2145, 2125, 2487
2135, 862, 2096, 2982, 2027
2136, 1101, 1202, 2414, 1203
2137, 2490, 2492, 1623, 544
2138, 2492, 2389, 545, 1623
2139, 2491, 734, 2389, 2492
2140, 2098, 1688, 2872, 917
2141, 582, 2704, 1719, 2828
2142, 2939, 1748, 1749, 1747
2143, 2496, 2498, 2112, 1084
2144, 2498, 1747, 614, 2112
2145, 2497, 1860, 1861, 1853
2146, 1071, 2350, 181, 517
2147, 2830, 1069, 2500, 2745
2148, 2019, 1679, 1050, 2826
2149, 1311, 1066, 2800, 1076
2150, 1156, 2991, 1310, 2535
2151, 1021, 2153, 1775, 1687
2152, 2752, 2970, 1052, 2940
2153, 1054, 2410, 2502, 1154
2154, 1154, 2502, 2357, 1053
2155, 2502, 1895, 1055, 2357
2156, 2410, 1049, 1895, 2502
2157, 566, 1994, 2504, 1496
2158, 1496, 2504, 2460, 549
2159, 2504, 2503, 623, 2460
2160, 1994, 728, 2503, 2504
2161, 579, 1847, 2506, 2472
2162, 2472, 2506, 2480, 864
2163, 2685, 2244, 3078, 2097
2164, 1847, 578, 2505, 2506
2165, 2493, 3038, 1691, 2317
2166, 2871, 909, 2958, 919
2167, 910, 2470, 1322, 2702
2168, 2829, 1958, 1117, 2906
2169, 1988, 983, 169, 529
2170, 2015, 1166, 2509, 2972
2171, 1352, 2834, 170, 528
2172, 1322, 874, 2428, 2316
2173, 2907, 373, 326, 1718
2174, 1643, 374, 325, 1282
2175, 772, 735, 1192, 1852
2176, 1937, 2909, 1102, 2454
2177, 2270, 2543, 2542, 2909
2178, 715, 2520, 713, 1617
2179, 2184, 2664, 2874, 1299
2180, 2776, 2516, 3016, 2422
2181, 2799, 224, 474, 1863
2182, 1786, 2667, 2483, 718
2183, 1864, 2183, 716, 2431
2184, 2237, 2181, 2430, 688
2185, 1158, 80, 93, 885
2186, 1886, 1610, 1644, 1145
2187, 1967, 904, 886, 889
2188, 2339, 1184, 2563, 3073
2189, 1111, 1723, 2511, 973
2190, 2529, 2447, 1083, 2528
2191, 2500, 2556, 1186, 2253
2192, 2468, 485, 214, 1926
2193, 766, 2599, 482, 217
2194, 2154, 2852, 1883, 2204
2195, 2530, 2532, 2451, 622
2196, 2532, 1793, 551, 2451
2197, 2531, 553, 1793, 2532
2198, 1085, 2930, 2662, 2444
2199, 1066, 2254, 1058, 2800
2200, 2356, 1059, 1074, 2793
2201, 1479, 2891, 2197, 2879
2202, 2529, 1804, 1738, 1725
2203, 1767, 166, 532, 2188
2204, 2912, 2005, 120, 132
2205, 557, 2418, 2177, 2419
2206, 2540, 1980, 1982, 1981
2207, 805, 2973, 769, 2858
2208, 2542, 2543, 1869, 576
2209, 2543, 2490, 544, 1869
2210, 1175, 2284, 2799, 1829
2211, 2475, 2099, 2245, 1706
2212, 1655, 3123, 2873, 2977
2213, 952, 2545, 2587, 2586
2214, 2154, 2897, 1806, 2852
2215, 431, 268, 2325, 1667
2216, 2852, 1806, 1559, 1582
2217, 656, 2530, 2769, 2623
2218, 2676, 2056, 2347, 775
2219, 2548, 2551, 2388, 734
2220, 2551, 2549, 737, 2388
2221, 2550, 738, 2549, 2551
2222, 785, 2605, 473, 226
2223, 773, 1901, 770, 2062
2224, 2675, 1825, 3009, 2973
2225, 2251, 2253, 1080, 1752
2226, 2855, 1651, 1773, 2292
2227, 1490, 2960, 1801, 1045
2228, 958, 2093, 2559, 1975
2229, 1975, 2559, 2557, 1078
2230, 2539, 2268, 2891, 1479
2231, 615, 1865, 2561, 2111
2232, 2111, 2561, 2560, 1079
2233, 2561, 1951, 616, 2560
2234, 1865, 617, 1951, 2561
2235, 966, 961, 1008, 1768
2236, 1207, 2508, 961, 966
2237, 1246, 522, 177, 1576
2238, 2367, 1205, 1253, 1774
2239, 1242, 1321, 2068, 1232
2240, 1956, 1840, 2944, 3013
2241, 1759, 881, 2526, 2566
2242, 1099, 3065, 1813, 2998
2243, 1811, 1915, 2950, 799
2244, 729, 2569, 2570, 1222
2245, 1222, 2570, 2503, 728
2246, 2570, 2449, 623, 2503
2247, 2569, 622, 2449, 2570
2248, 569, 1978, 2572, 2571
2249, 2571, 2572, 2118, 740
2250, 2572, 1814, 541, 2118
2251, 1978, 542, 1814, 2572
2252, 2861, 1318, 2247, 3014
2253, 2918, 593, 2942, 1287
2254, 2942, 2814, 1512, 1892
2255, 1321, 1038, 1462, 2278
2256, 2047, 573, 1412, 1592
2257, 3037, 2311, 2501, 1397
2258, 2385, 2790, 2045, 2840
2259, 2379, 2438, 2263, 1830
2260, 1995, 2581, 1221, 728
2261, 2581, 2579, 693, 1221
2262, 3051, 2902, 731, 2580
2263, 1690, 1897, 1227, 918
2264, 2277, 3070, 1161, 933
2265, 2583, 2091, 948, 982
2266, 1389, 486, 213, 2981
2267, 2677, 2271, 471, 228
2268, 2606, 2415, 788, 2345
2269, 786, 2949, 1101, 781
2270, 2245, 2862, 2085, 2544
2271, 2972, 2509, 2266, 2269
2272, 1068, 2639, 2373, 1206
2273, 2275, 2368, 2121, 2787
2274, 1078, 2557, 2590, 2588
2275, 2588, 2590, 2110, 1079
2276, 2590, 2589, 1084, 2110
2277, 2976, 2994, 1804, 1098
2278, 1231, 1580, 3056, 812
2279, 2047, 2904, 2565, 2917
2280, 1603, 2803, 2996, 2999
2281, 2904, 807, 1503, 2565
2282, 1330, 2837, 1807, 1875
2283, 2667, 2326, 2432, 2483
2284, 2842, 741, 730, 2665
2285, 775, 787, 2285, 792
2286, 2702, 1322, 2316, 1888
2287, 2601, 868, 1818, 872
2288, 2785, 2749, 3066, 2513
2289, 3072, 2646, 2916, 2550
2290, 2286, 2345, 2887, 1823
2291, 2648, 3071, 3005, 2841
2292, 1192, 735, 1146, 1147
2293, 802, 1851, 2552, 1176
2294, 784, 771, 2775, 2518
2295, 578, 1948, 2609, 2505
2296, 1216, 2138, 2244, 2685
2297, 1701, 1855, 861, 857
2298, 2707, 2346, 2029, 2059
2299, 776, 2055, 1614, 786
2300, 737, 2549, 2613, 2119
2301, 2119, 2613, 2611, 740
2302, 2613, 2612, 739, 2611
2303, 2549, 738, 2612, 2613
2304, 752, 2617, 2618, 2614
2305, 2614, 2618, 2615, 750
2306, 2263, 2895, 847, 2224
2307, 1079, 2560, 2619, 2588
2308, 2588, 2619, 1974, 1078
2309, 2619, 1492, 613, 1974
2310, 2560, 616, 1492, 2619
2311, 727, 2901, 2023, 2621
2312, 2935, 2016, 2018, 2017
2313, 2757, 732, 2622, 3059
2314, 621, 2624, 2625, 2623
2315, 2359, 690, 1384, 2668
2316, 1581, 678, 3046, 680
2317, 1118, 1188, 675, 2299
2318, 1033, 1279, 1230, 2928
2319, 1100, 1863, 2522, 2061
2320, 767, 1423, 1850, 2335
2321, 2130, 2376, 702, 2360
2322, 2377, 1615, 715, 2482
2323, 3044, 256, 442, 2484
2324, 720, 1874, 440, 259
2325, 432, 267, 671, 675
2326, 619, 1589, 1751, 1124
2327, 2920, 1903, 2717, 562
2328, 3108, 3107, 643, 564
2329, 3117, 1808, 1756, 2997
2330, 1792, 2997, 295, 403
2331, 1034, 1626, 488, 211
2332, 3085, 3084, 2752, 1067
2333, 2923, 2707, 2059, 1240
2334, 1318, 891, 1472, 2247
2335, 1403, 1402, 2861, 1401
2336, 891, 1471, 1474, 1472
2337, 3026, 2076, 2409, 2295
2338, 1204, 2366, 1128, 964
2339, 2511, 963, 1129, 1097
2340, 2745, 2500, 2253, 2251
2341, 2222, 2641, 1946, 574
2342, 2641, 2640, 575, 1946
2343, 1283, 913, 1958, 2829
2344, 3067, 1949, 1993, 2697
2345, 2892, 372, 327, 2695
2346, 3067, 2608, 2609, 1948
2347, 553, 2531, 2645, 1944
2348, 2897, 2298, 685, 1806
2349, 1780, 1292, 625, 1293
2350, 1146, 2602, 816, 2604
2351, 3005, 736, 1191, 761
2352, 2649, 2647, 760, 2646
2353, 2648, 762, 2647, 2649
2354, 2875, 1506, 1539, 3049
2355, 1270, 299, 399, 2650
2356, 1307, 588, 1538, 892
2357, 886, 1708, 2241, 1971
2358, 2653, 1845, 1607, 2666
2359, 1840, 319, 379, 2944
2360, 740, 2611, 2654, 2571
2361, 2571, 2654, 1339, 569
2362, 2654, 2010, 570, 1339
2363, 2611, 739, 2010, 2654
2364, 1143, 1944, 2645, 2716
2365, 555, 3068, 2715, 1181
2366, 1526, 627, 2418, 1568
2367, 555, 1143, 2716, 3068
2368, 2526, 1721, 2651, 2736
2369, 889, 886, 1971, 1707
2370, 1096, 378, 321, 583
2371, 2164, 880, 322, 376
2372, 738, 2660, 2661, 2612
2373, 2612, 2661, 2009, 739
2374, 2661, 2022, 742, 2009
2375, 2660, 759, 2022, 2661
2376, 2498, 2496, 1082, 2931
2377, 2939, 1747, 2498, 2931
2378, 2792, 2463, 2436, 2533
2379, 695, 718, 691, 2425
2380, 1968, 1698, 1766, 2895
2381, 726, 2705, 751, 2620
2382, 723, 1331, 732, 2757
2383, 907, 2443, 547, 1640
2384, 2658, 3040, 2659, 1558
2385, 2360, 702, 263, 435
2386, 2979, 1267, 2130, 1303
2387, 1559, 2853, 620, 2524
2388, 1680, 1045, 1071, 1726
2389, 1205, 2395, 2315, 1253
2390, 2365, 1002, 1088, 1770
2391, 1324, 504, 195, 1015
2392, 3050, 2985, 2465, 3091
2393, 2038, 1604, 2142, 624
2394, 632, 2003, 2036, 626
2395, 1182, 281, 417, 635
2396, 1900, 478, 221, 791
2397, 1937, 2454, 1905, 782
2398, 736, 2604, 816, 1191
2399, 3072, 2548, 2693, 763
2400, 723, 722, 1314, 1331
2401, 713, 753, 721, 2663
2402, 3074, 2114, 2191, 1149
2403, 3030, 1114, 3070, 2277
2404, 2276, 2476, 2132, 1843
2405, 3077, 2739, 953, 2713
2406, 2848, 2863, 354, 345
2407, 752, 2614, 2682, 2681
2408, 2681, 2682, 2024, 759
2409, 1149, 2191, 2016, 2935
2410, 2727, 2519, 2163, 697
2411, 1608, 2240, 1720, 884
2412, 2398, 1742, 586, 1967
2413, 2713, 953, 2127, 2481
2414, 863, 862, 1515, 1215
2415, 3080, 3077, 2713, 3076
2416, 638, 2686, 2687, 1816
2417, 1264, 2057, 1501, 2541
2418, 3034, 1265, 2004, 2740
2419, 2686, 2983, 1306, 2687
2420, 974, 2689, 2690, 2094
2421, 981, 2349, 1165, 2688
2422, 2508, 1165, 2349, 961
2423, 597, 2544, 2026, 941
2424, 1238, 2133, 2734, 3120
2425, 1151, 1113, 2213, 950
2426, 2582, 2965, 938, 2090
2427, 3072, 2550, 2551, 2548
2428, 2345, 788, 778, 2887
2429, 2693, 2548, 734, 2491
2430, 2603, 1190, 1148, 3071
2431, 2159, 876, 2726, 2470
2432, 1957, 2642, 1966, 2993
2433, 598, 2086, 2824, 1152
2434, 975, 3125, 1972, 2138
2435, 1161, 930, 949, 2583
2436, 1210, 2666, 1956, 1841
2437, 2725, 591, 2700, 1708
2438, 2241, 2427, 1965, 1609
2439, 2495, 2695, 912, 2158
2440, 1553, 1541, 2260, 3126
2441, 1921, 910, 2702, 2471
2442, 2621, 2023, 2581, 1995
2443, 3059, 2622, 721, 753
2444, 2935, 2017, 2025, 2932
2445, 3004, 2932, 2706, 722
2446, 3006, 766, 217, 481
2447, 2909, 2542, 2738, 1102
2448, 770, 2420, 2938, 2416
2449, 2516, 2061, 1894, 3016
2450, 638, 1762, 2710, 2686
2451, 1568, 2418, 557, 1274
2452, 1980, 1304, 3060, 558
2453, 1762, 652, 2633, 2710
2454, 1206, 2373, 2367, 960
2455, 2712, 2496, 1084, 2589
2456, 2711, 1082, 2496, 2712
2457, 3018, 1657, 928, 2584
2458, 1152, 2824, 2692, 3119
2459, 1114, 2882, 1656, 3070
2460, 2787, 2121, 2081, 2698
2461, 1960, 2564, 2060, 2821
2462, 3054, 1344, 1341, 608
2463, 2922, 1412, 1413, 1342
2464, 676, 656, 2623, 2625
2465, 1267, 2485, 2376, 2130
2466, 3096, 3095, 563, 2634
2467, 3104, 3103, 1792, 1911
2468, 3097, 117, 129, 3096
2469, 1810, 1911, 296, 402
2470, 1228, 2170, 2759, 1073
2471, 2124, 1031, 2719, 1603
2472, 2948, 2032, 1637, 2820
2473, 965, 2827, 2499, 1041
2474, 1804, 2994, 1081, 1738
2475, 2638, 2712, 2589, 1927
2476, 2688, 1165, 2690, 2689
2477, 3002, 1110, 2395, 1205
2478, 2015, 2972, 2539, 2722
2479, 1290, 875, 2653, 2429
2480, 2651, 2683, 907, 890
2481, 2658, 1558, 77, 90
2482, 2993, 1966, 76, 89
2483, 1966, 1970, 88, 76
2484, 591, 2903, 2240, 2700
2485, 3040, 1740, 585, 2659
2486, 1844, 1741, 2986, 880
2487, 1164, 2429, 1210, 1742
2488, 2986, 583, 321, 377
2489, 1150, 2757, 3059, 1189
2490, 2678, 1189, 2728, 1313
2491, 727, 2621, 1996, 2116
2492, 2932, 2025, 2024, 2706
2493, 637, 1664, 1872, 1529
2494, 672, 2300, 663, 1659
2495, 666, 2302, 3045, 665
2496, 974, 2205, 2732, 2689
2497, 2373, 3002, 1205, 2367
2498, 2434, 1535, 1705, 3127
2499, 1542, 1553, 1444, 2692
2500, 2487, 2125, 2128, 2126
2501, 1534, 1133, 1113, 1151
2502, 2733, 2144, 2089, 2731
2503, 2642, 1107, 1970, 1966
2504, 2240, 2903, 2164, 1720
2505, 576, 1928, 2738, 2542
2506, 2391, 2677, 228, 470
2507, 2552, 1100, 2061, 2516
2508, 1928, 575, 2737, 2738
2509, 595, 1216, 1153, 865
2510, 1540, 2098, 917, 1897
2511, 3076, 2713, 2481, 2480
2512, 2936, 1611, 660, 2674
2513, 1817, 631, 413, 286
2514, 554, 633, 662, 1292
2515, 2354, 1526, 1568, 554
2516, 2417, 2354, 1780, 1527
2517, 1274, 2856, 3047, 633
2518, 1498, 2355, 627, 1526
2519, 1906, 765, 229, 469
2520, 2818, 796, 2567, 1676
2521, 2585, 797, 1677, 774
2522, 2342, 2296, 1248, 2314
2523, 3087, 1139, 1138, 3086
2524, 1575, 1048, 1187, 2148
2525, 1737, 2669, 1575, 2020
2526, 2208, 331, 367, 2243
2527, 2456, 2487, 2126, 2747
2528, 3079, 3127, 1705, 2433
2529, 1160, 2122, 596, 2246
2530, 3120, 2734, 1535, 2434
2531, 2583, 982, 2487, 2456
2532, 1237, 2085, 2131, 2088
2533, 2269, 939, 985, 2268
2534, 908, 2828, 2514, 866
2535, 2863, 2735, 344, 354
2536, 2739, 2747, 2126, 953
2537, 1155, 2168, 1857, 1648
2538, 1329, 2437, 2466, 2103
2539, 2313, 1398, 1684, 609
2540, 1241, 2537, 1065, 1089
2541, 2663, 721, 2665, 689
2542, 2628, 2203, 1330, 2423
2543, 2755, 2624, 621, 2754
2544, 1234, 2838, 2485, 1267
2545, 1599, 1899, 264, 434
2546, 1189, 3059, 753, 2728
2547, 1072, 612, 2930, 1085
2548, 612, 2777, 1083, 2930
2549, 2793, 1074, 2985, 3050
2550, 3090, 1311, 1076, 2822
2551, 1648, 1229, 3020, 1280
2552, 2537, 1075, 2789, 1065
2553, 1257, 1328, 2948, 2673
2554, 2928, 1030, 2591, 1019
2555, 3092, 3083, 1229, 1312
2556, 2929, 812, 2959, 2885
2557, 1399, 1022, 1051, 1328
2558, 430, 269, 2890, 683
2559, 2978, 682, 1589, 619
2560, 1268, 1384, 2412, 3081
2561, 1552, 2889, 2333, 679
2562, 816, 2602, 2767, 2765
2563, 2765, 2767, 2225, 815
2564, 2767, 2766, 780, 2225
2565, 2602, 779, 2766, 2767
2566, 622, 2569, 2769, 2530
2567, 3008, 658, 121, 133
2568, 2769, 2768, 621, 2623
2569, 2569, 729, 2768, 2769
2570, 1372, 312, 386, 1374
2571, 899, 592, 2683, 1211
2572, 1095, 1448, 1910, 647
2573, 1911, 1792, 403, 296
2574, 3109, 1356, 112, 102
2575, 3099, 116, 128, 3098
2576, 2911, 1513, 1564, 2249
2577, 900, 906, 1437, 903
2578, 2918, 96, 107, 593
2579, 2056, 2053, 805, 2347
2580, 2858, 769, 2517, 733
2581, 2414, 2283, 2943, 771
2582, 794, 2062, 1217, 2415
2583, 1083, 2777, 2778, 2528
2584, 1184, 2720, 1111, 2563
2585, 966, 1768, 2340, 2720
2586, 2777, 1082, 2711, 2778
2587, 1544, 1295, 2372, 2984
2588, 2843, 1429, 1327, 845
2589, 757, 1486, 708, 1485
2590, 844, 2040, 1831, 2052
2591, 1720, 2164, 376, 323
2592, 3013, 2944, 887, 2781
2593, 1158, 885, 1211, 1721
2594, 2903, 1844, 880, 2164
2595, 1698, 2045, 241, 457
2596, 2966, 2239, 2034, 2382
2597, 2791, 2305, 758, 761
2598, 2812, 1367, 813, 2274
2599, 1818, 2892, 2695, 2495
2600, 2150, 877, 2600, 2160
2601, 1236, 2150, 2160, 869
2602, 2687, 2419, 661, 1816
2603, 1779, 1406, 415, 284
2604, 1141, 2656, 2058, 2007
2605, 863, 2087, 2096, 862
2606, 933, 1161, 2583, 2456
2607, 1422, 1132, 2747, 2739
2608, 1443, 3079, 2433, 3124
2609, 1398, 2575, 1276, 1684
2610, 3083, 1067, 3023, 3082
2611, 2466, 2437, 1036, 2927
2612, 2801, 1077, 2991, 1156
2613, 2304, 2287, 832, 2397
2614, 1460, 467, 232, 1461
2615, 2779, 824, 1533, 821
2616, 2840, 2045, 1698, 1968
2617, 1241, 2792, 2533, 2537
2618, 2124, 1024, 1061, 2100
2619, 2464, 499, 200, 548
2620, 3082, 3023, 1040, 1243
2621, 1043, 2342, 1049, 2410
2622, 1680, 1726, 2411, 1488
2623, 1739, 1004, 2669, 1737
2624, 2318, 1551, 1302, 2156
2625, 2299, 725, 2298, 2897
2626, 2230, 2691, 2229, 2228
2627, 829, 840, 3027, 2797
2628, 817, 1256, 823, 1728
2629, 2383, 2966, 2382, 2578
2630, 1366, 2063, 2867, 1294
2631, 2796, 2227, 2054, 783
2632, 2784, 2289, 1924, 1699
2633, 1219, 1285, 825, 1256
2634, 1537, 233, 465, 2174
2635, 841, 2172, 2811, 1295
2636, 1563, 852, 1317, 755
2637, 846, 2309, 1260, 2106
2638, 1850, 1379, 2209, 804
2639, 2671, 1064, 2793, 3050
2640, 2673, 2948, 2820, 1242
2641, 2168, 1329, 2103, 1857
2642, 2898, 1089, 1156, 2535
2643, 1858, 2888, 2047, 1592
2644, 3092, 3085, 1067, 3083
2645, 2802, 608, 1570, 2803
2646, 2594, 1882, 1884, 2330
2647, 2597, 723, 2757, 1150
2648, 2805, 2804, 693, 2579
2649, 2521, 2401, 262, 436
2650, 2083, 546, 600, 1669
2651, 2080, 602, 2242, 1225
2652, 2806, 943, 2083, 2405
2653, 546, 1761, 1668, 600
2654, 2341, 977, 1579, 2366
2655, 2808, 2810, 2280, 991
2656, 1483, 990, 986, 976
2657, 2962, 2510, 1484, 2878
2658, 2305, 1699, 1434, 1713
2659, 2238, 2052, 836, 1837
2660, 1220, 1520, 2796, 1219
2661, 2305, 1713, 1969, 758
2662, 1402, 2877, 1318, 2861
2663, 2859, 2860, 589, 1512
2664, 901, 1410, 1408, 894
2665, 985, 2090, 2817, 2815
2666, 2815, 2817, 2331, 984
2667, 2817, 2816, 937, 2331
2668, 2090, 938, 2816, 2817
2669, 1830, 2263, 2224, 746
2670, 2596, 3029, 1543, 2477
2671, 2407, 452, 247, 850
2672, 1811, 799, 2968, 2640
2673, 1031, 1959, 1638, 2719
2674, 1010, 2123, 2311, 3037
2675, 1603, 2719, 2802, 2803
2676, 2959, 2312, 2050, 3022
2677, 1959, 1278, 1343, 1638
2678, 1067, 2752, 2940, 3023
2679, 1074, 1066, 1311, 2985
2680, 3083, 3082, 3020, 1229
2681, 1077, 1233, 2758, 2991
2682, 1515, 1445, 1842, 1262
2683, 2977, 2873, 598, 2489
2684, 2850, 185, 513, 1048
2685, 2147, 2827, 2808, 991
2686, 2350, 1044, 518, 181
2687, 1920, 911, 910, 1921
2688, 1702, 1235, 1236, 2109
2689, 877, 2317, 1691, 2600
2690, 2151, 581, 914, 1115
2691, 3010, 1489, 1003, 1769
2692, 2795, 1009, 1046, 1736
2693, 2851, 1086, 1090, 1043
2694, 1098, 1804, 2529, 2528
2695, 2340, 2558, 2721, 1723
2696, 980, 1481, 990, 1483
2697, 1577, 531, 168, 2014
2698, 1480, 1425, 2187, 983
2699, 3118, 3094, 1357, 3102
2700, 3094, 3093, 1178, 1357
2701, 1172, 1912, 1903, 2920
2702, 564, 643, 401, 298
2703, 1561, 698, 696, 684
2704, 1788, 255, 443, 2328
2705, 3016, 1894, 2605, 785
2706, 3072, 763, 1190, 2603
2707, 2841, 2839, 762, 2648
2708, 2045, 2790, 458, 241
2709, 750, 2615, 2756, 2115
2710, 2682, 2614, 750, 2190
2711, 716, 2627, 701, 717
2712, 2106, 1260, 2072, 1518
2713, 1251, 2845, 445, 254
2714, 1296, 847, 1428, 1431
2715, 627, 2644, 2177, 2418
2716, 1499, 1567, 1406, 1779
2717, 1274, 557, 1306, 2856
2718, 2844, 2417, 1527, 1136
2719, 1259, 2407, 850, 2309
2720, 1517, 1712, 2193, 749
2721, 1487, 2371, 251, 447
2722, 1562, 2223, 703, 2194
2723, 911, 2159, 2470, 910
2724, 1719, 2493, 2317, 2703
2725, 3019, 1898, 915, 594
2726, 3066, 2975, 584, 2694
2727, 863, 1655, 2977, 2087
2728, 1444, 2849, 2212, 924
2729, 927, 2276, 2806, 1760
2730, 999, 1042, 1246, 1489
2731, 2195, 2851, 1054, 1247
2732, 2670, 1826, 2553, 1006
2733, 2632, 618, 2375, 2324
2734, 1269, 620, 2668, 2547
2735, 1185, 3007, 2831, 2195
2736, 1826, 2554, 1827, 2553
2737, 1047, 3024, 2380, 1087
2738, 1134, 3061, 3047, 2856
2739, 1604, 1606, 2995, 2142
2740, 558, 3060, 2857, 1135
2741, 2983, 1134, 2856, 1306
2742, 1863, 474, 225, 2522
2743, 795, 2216, 1900, 1828
2744, 2210, 785, 226, 472
2745, 778, 790, 2675, 2053
2746, 2462, 3014, 897, 2248
2747, 2247, 1472, 2860, 2859
2748, 2131, 1160, 2246, 1159
2749, 2982, 2698, 3125, 975
2750, 2134, 1225, 2884, 1635
2751, 2467, 2329, 438, 261
2752, 697, 2163, 2329, 2467
2753, 1617, 713, 2663, 2181
2754, 1395, 1769, 2364, 2294
2755, 1166, 2349, 981, 2509
2756, 963, 1041, 1110, 1129
2757, 970, 2267, 2094, 2690
2758, 657, 629, 2786, 2355
2759, 659, 1569, 2742, 2741
2760, 1133, 3080, 3075, 1113
2761, 597, 941, 2082, 1704
2762, 2895, 1766, 1428, 847
2763, 2172, 2780, 2439, 2811
2764, 3052, 2894, 1296, 2171
2765, 907, 1640, 1722, 890
2766, 1758, 2736, 1886, 1145
2767, 1291, 884, 375, 324
2768, 1610, 382, 317, 1644
2769, 618, 1551, 2318, 2375
2770, 2328, 443, 256, 3044
2771, 666, 2319, 2320, 2302
2772, 919, 2785, 2847, 1593
2773, 2207, 860, 3062, 859
2774, 2908, 1594, 1702, 1735
2775, 2871, 855, 1594, 2908
2776, 1636, 3077, 3080, 1133
2777, 3124, 2433, 357, 342
2778, 2748, 360, 339, 2479
2779, 2133, 359, 340, 2734
2780, 2366, 1579, 2810, 1128
2781, 1183, 973, 2639, 1068
2782, 2339, 3073, 968, 1109
2783, 2720, 2340, 1723, 1111
2784, 2163, 695, 2425, 2329
2785, 1832, 2754, 2937, 2804
2786, 1932, 1504, 396, 303
2787, 1506, 640, 893, 1539
2788, 1271, 1307, 892, 1547
2789, 1387, 310, 388, 1438
2790, 1446, 1373, 1157, 1092
2791, 1373, 902, 2876, 1157
2792, 1289, 1893, 2910, 2813
2793, 1401, 2861, 3014, 2462
2794, 3049, 1539, 893, 1653
2795, 1505, 641, 2877, 1402
2796, 1738, 1081, 995, 2077
2797, 2809, 2013, 171, 527
2798, 990, 2878, 972, 986
2799, 2976, 1183, 1068, 2994
2800, 1037, 2384, 496, 203
2801, 772, 1937, 782, 1678
2802, 1434, 2843, 845, 842
2803, 2966, 2783, 1532, 2239
2804, 1924, 2043, 1429, 2843
2805, 1048, 513, 186, 1187
2806, 2440, 1490, 3024, 1047
2807, 2315, 2393, 1753, 2830
2808, 2719, 1638, 1320, 2802
2809, 2087, 2977, 2489, 2275
2810, 2242, 947, 2140, 2139
2811, 2139, 940, 2883, 2884
2812, 2523, 2467, 261, 437
2813, 692, 2546, 265, 433
2814, 807, 2046, 1194, 1027
2815, 2312, 1195, 811, 2050
2816, 1038, 1916, 1012, 1462
2817, 2998, 1813, 802, 1825
2818, 1217, 2416, 1099, 789
2819, 2347, 805, 2858, 2421
2820, 1694, 2070, 1037, 2819
2821, 2673, 1242, 1232, 2714
2822, 1233, 2399, 1062, 2758
2823, 2537, 2533, 2671, 1075
2824, 678, 429, 270, 3046
2825, 1751, 2547, 1268, 673
2826, 1383, 2157, 271, 427
2827, 677, 3046, 270, 428
2828, 2563, 1111, 973, 1183
2829, 2197, 2891, 2815, 984
2830, 2891, 2268, 985, 2815
2831, 3063, 870, 2515, 2337
2832, 2494, 2513, 870, 3063
2833, 868, 1718, 2892, 1818
2834, 3019, 594, 1541, 2512
2835, 1856, 3026, 2295, 1200
2836, 1254, 2536, 2444, 2662
2837, 993, 525, 174, 3003
2838, 2554, 1573, 1757, 1827
2839, 2160, 2600, 329, 369
2840, 2908, 1735, 2108, 1855
2841, 913, 1920, 1921, 1958
2842, 2385, 822, 2387, 2790
2843, 706, 2192, 2370, 2371
2844, 2266, 2459, 939, 2269
2845, 2244, 1443, 3124, 3078
2846, 1689, 2259, 1690, 2846
2847, 656, 2531, 2532, 2530
2848, 2541, 1501, 2037, 1169
2849, 676, 2645, 2531, 656
2850, 2979, 684, 1234, 1267
2851, 1076, 2800, 1233, 1077
2852, 1628, 2152, 2574, 2575
2853, 2436, 1154, 1053, 1064
2854, 1643, 1291, 324, 374
2855, 882, 1290, 2429, 1164
2856, 879, 2701, 78, 91
2857, 2701, 2658, 90, 78
2858, 1565, 743, 2172, 841
2859, 1784, 848, 2369, 2880
2860, 1935, 2636, 645, 648
2861, 3000, 1094, 646, 3116
2862, 2717, 1791, 2718, 650
2863, 3116, 646, 1180, 1789
2864, 2154, 2204, 1121, 2869
2865, 1806, 685, 2853, 1559
2866, 675, 671, 725, 2299
2867, 1234, 694, 686, 2838
2868, 1331, 1314, 2115, 726
2869, 2622, 2842, 2665, 721
2870, 2901, 3051, 2580, 2023
2871, 1841, 1956, 3013, 878
2872, 2666, 1607, 1840, 1956
2873, 1687, 1775, 1325, 1230
2874, 2152, 2714, 1010, 2574
2875, 2124, 1603, 2999, 2071
2876, 1115, 914, 1107, 2642
2877, 2643, 1323, 2724, 1717
2878, 2694, 584, 2643, 1108
2879, 1716, 368, 331, 2208
2880, 789, 1099, 2998, 790
2881, 1772, 801, 797, 2585
2882, 1676, 2567, 2216, 795
2883, 2335, 1850, 804, 1602
2884, 1545, 1409, 1410, 901
2885, 2813, 2910, 1407, 1891
2886, 1212, 1892, 2911, 2249
2887, 1120, 2630, 1599, 2546
2888, 2866, 464, 235, 830
2889, 2044, 2383, 2578, 824
2890, 1536, 1519, 844, 1521
2891, 2782, 2913, 1839, 1458
2892, 760, 2915, 2916, 2646
2893, 735, 779, 2602, 1146
2894, 2916, 2660, 738, 2550
2895, 2915, 759, 2660, 2916
2896, 2888, 2075, 2904, 2047
2897, 1232, 2068, 2070, 2123
2898, 1798, 1018, 205, 493
2899, 593, 2250, 2814, 2942
2900, 1891, 1407, 1475, 1546
2901, 2918, 590, 106, 96
2902, 1756, 1744, 294, 404
2903, 642, 3108, 564, 1696
2904, 2771, 2772, 1935, 1355
2905, 3093, 644, 2771, 1955
2906, 1188, 692, 433, 266
2907, 2329, 2425, 260, 438
2908, 2302, 2233, 2301, 3045
2909, 3074, 1149, 3004, 2597
2910, 2593, 1694, 2819, 2033
2911, 1627, 2934, 489, 210
2912, 1026, 2048, 2028, 1197
2913, 842, 845, 1783, 743
2914, 705, 710, 1251, 1787
2915, 3129, 2596, 2477, 2899
2916, 760, 2647, 2926, 2915
2917, 2915, 2926, 2681, 759
2918, 2926, 2925, 752, 2681
2919, 2647, 762, 2925, 2926
2920, 1933, 1170, 610, 1571
2921, 2927, 1170, 1933, 1917
2922, 1059, 2254, 1066, 1074
2923, 1171, 2178, 2886, 1028
2924, 1571, 610, 1570, 1572
2925, 1279, 2179, 1687, 1230
2926, 2170, 1834, 1014, 2759
2927, 2444, 2536, 1177, 2448
2928, 2930, 1083, 2447, 2662
2929, 1186, 175, 523, 1007
2930, 698, 2755, 2754, 1832
2931, 2371, 2370, 448, 251
2932, 1122, 1805, 700, 2980
2933, 2023, 2580, 2579, 2581
2934, 2075, 2046, 807, 2904
2935, 2761, 2534, 1398, 2313
2936, 1024, 1033, 2928, 1019
2937, 3028, 766, 3006, 3036
2938, 801, 1601, 2215, 797
2939, 2115, 2756, 2705, 726
2940, 2678, 1313, 2902, 3051
2941, 639, 2983, 2686, 2710
2942, 1135, 2857, 639, 651
2943, 1405, 1263, 1569, 659
2944, 634, 664, 1611, 2936
2945, 2804, 2937, 1223, 693
2946, 2937, 2768, 729, 1223
2947, 2754, 621, 2768, 2937
2948, 2518, 2775, 1175, 2708
2949, 2336, 1772, 2585, 2222
2950, 1072, 1854, 1748, 2939
2951, 1072, 2939, 2931, 612
2952, 2940, 1052, 1247, 2751
2953, 2789, 2465, 3090, 2822
2954, 2822, 1076, 1077, 2801
2955, 2800, 1058, 2399, 1233
2956, 1439, 1350, 906, 900
2957, 2770, 2774, 1385, 2442
2958, 2443, 1104, 1093, 547
2959, 2773, 1891, 1546, 1386
2960, 2877, 1931, 891, 1318
2961, 2271, 2610, 227, 471
2962, 2610, 2210, 472, 227
2963, 2949, 2607, 1202, 1101
2964, 2441, 2776, 2422, 2392
2965, 879, 2868, 873, 2701
2966, 879, 1759, 2566, 882
2967, 1107, 2724, 2021, 1970
2968, 589, 1514, 1513, 2911
2969, 2910, 2573, 896, 1407
2970, 896, 894, 1408, 1476
2971, 648, 561, 1094, 3000
2972, 1790, 409, 290, 561
2973, 3094, 1672, 644, 3093
2974, 3096, 129, 118, 3095
2975, 2494, 3063, 911, 1920
2976, 1594, 1819, 1235, 1702
2977, 2513, 3066, 2694, 870
2978, 2906, 1703, 2704, 582
2979, 2470, 2726, 874, 1322
2980, 754, 1259, 2309, 846
2981, 2947, 2925, 762, 2839
2982, 2617, 752, 2925, 2947
2983, 1170, 1035, 2996, 610
2984, 1018, 2933, 494, 205
2985, 2272, 2219, 2055, 776
2986, 793, 1907, 765, 1906
2987, 803, 798, 2599, 1126
2988, 772, 1678, 779, 735
2989, 2949, 777, 1828, 2607
2990, 3060, 3061, 1134, 2857
2991, 2857, 1134, 2983, 639
2992, 637, 1529, 664, 634
2993, 2158, 912, 3038, 2493
2994, 1116, 3019, 2512, 1478
2995, 584, 2697, 1323, 2643
2996, 2155, 2890, 678, 1581
2997, 679, 2333, 2320, 2319
2998, 2837, 2361, 2363, 1807
2999, 2423, 1330, 1875, 2989
3000, 653, 667, 672, 1273
3001, 1659, 663, 1998, 2232
3002, 667, 2729, 2300, 672
3003, 669, 1301, 1665, 1873
3004, 960, 2367, 1774, 2343
3005, 1681, 1770, 1209, 2381
3006, 2291, 2148, 1800, 1214
3007, 1878, 2478, 449, 250
3008, 2035, 837, 2866, 1459
3009, 755, 1317, 1137, 1435
3010, 2791, 2784, 1699, 2305
3011, 828, 827, 461, 238
3012, 821, 1533, 2913, 2782
3013, 2952, 2107, 363, 336
3014, 909, 858, 950, 2213
3015, 1898, 856, 1226, 915
3016, 807, 1027, 808, 1503
3017, 2714, 1232, 2123, 1010
3018, 1775, 196, 502, 1325
3019, 1014, 1835, 1017, 1023
3020, 1043, 1090, 2296, 2342
3021, 1042, 176, 522, 1246
3022, 1768, 964, 2558, 2340
3023, 1713, 1485, 3057, 1969
3024, 1458, 1839, 819, 843
3025, 845, 1327, 2074, 1783
3026, 2784, 2288, 2173, 2289
3027, 1851, 1829, 1100, 2552
3028, 2575, 2574, 2626, 1276
3029, 781, 1101, 1203, 2420
3030, 1987, 2833, 2013, 2809
3031, 2538, 2833, 1987, 1549
3032, 986, 972, 1550, 979
3033, 988, 2198, 969, 1482
3034, 2586, 2688, 2689, 2732
3035, 2832, 1578, 1577, 1353
3036, 934, 2065, 2964, 1984
3037, 1984, 2964, 2883, 940
3038, 2964, 2816, 938, 2883
3039, 2065, 937, 2816, 2964
3040, 1634, 931, 347, 351
3041, 3069, 3120, 2434, 932
3042, 2583, 949, 952, 2091
3043, 1771, 800, 1772, 2336
3044, 2599, 798, 216, 482
3045, 2957, 2176, 838, 2043
3046, 2173, 821, 2782, 834
3047, 1766, 1698, 457, 242
3048, 599, 925, 927, 922
3049, 2488, 2864, 353, 346
3050, 2820, 1637, 1916, 1038
3051, 1862, 2598, 1627, 1626
3052, 810, 1034, 211, 487
3053, 2071, 2999, 1266, 1277
3054, 943, 601, 546, 2083
3055, 1706, 2245, 2544, 597
3056, 951, 2134, 1635, 929
3057, 2458, 2084, 1671, 1670
3058, 2048, 2821, 1025, 2028
3059, 2153, 503, 196, 1775
3060, 1508, 1036, 2437, 3021
3061, 797, 2215, 2818, 1677
3062, 2968, 2737, 575, 2640
3063, 776, 786, 781, 1901
3064, 995, 2351, 2562, 2746
3065, 1005, 2290, 520, 179
3066, 2020, 1575, 2148, 2291
3067, 1006, 2553, 2076, 3026
3068, 2555, 2294, 2969, 2855
3069, 2374, 1927, 2557, 2559
3070, 1349, 1439, 900, 1639
3071, 2974, 2770, 2442, 2941
3072, 1447, 1091, 899, 1641
3073, 1745, 2836, 293, 405
3074, 3100, 3099, 2945, 1672
3075, 3110, 3109, 102, 113
3076, 1721, 1211, 2683, 2651
3077, 2829, 2906, 582, 1106
3078, 2558, 1574, 965, 2721
3079, 1253, 2315, 2830, 2745
3080, 798, 1602, 483, 216
3081, 782, 1905, 794, 1127
3082, 787, 1907, 793, 2285
3083, 1639, 900, 903, 898
3084, 1350, 1374, 1437, 906
3085, 587, 3053, 2770, 2974
3086, 1117, 2471, 2601, 872
3087, 909, 2213, 2990, 2958
3088, 1855, 2108, 2166, 861
3089, 2722, 2220, 2963, 967
3090, 1081, 1206, 960, 995
3091, 2096, 2787, 2698, 2982
3092, 1262, 1842, 2099, 2475
3093, 2507, 1106, 908, 1819
3094, 876, 2151, 1115, 1162
3095, 914, 1717, 2724, 1107
3096, 674, 2524, 620, 1269
3097, 1118, 3032, 692, 1188
3098, 2764, 1119, 2632, 2954
3099, 673, 1268, 3081, 2413
3100, 3001, 2038, 624, 2655
3101, 267, 431, 1667, 671
3102, 973, 2511, 1097, 2639
3103, 2015, 2341, 2366, 1204
3104, 1574, 2808, 2827, 965
3105, 2426, 878, 1144, 2527
3106, 1742, 1210, 1841, 586
3107, 1105, 82, 6, 1103
3108, 953, 2126, 2128, 2127
3109, 1113, 3075, 2990, 2213
3110, 2679, 1152, 3119, 3018
3111, 629, 1169, 636, 1567
3112, 2951, 1264, 2541, 657
3113, 2729, 1913, 2865, 2300
3114, 2262, 451, 248, 2577
3115, 1089, 1065, 2801, 1156
3116, 1032, 2885, 1675, 1396
3117, 2311, 1694, 2593, 2501
3118, 1293, 625, 2005, 2912
3119, 2320, 1380, 2233, 2302
3120, 556, 3008, 133, 122
3121, 585, 1131, 876, 1162
3122, 2527, 1144, 888, 1642
3123, 2052, 1831, 2386, 836
3124, 1147, 1146, 2604, 2987
3125, 763, 1192, 1147, 1190
3126, 1275, 1182, 635, 3041
3127, 662, 1304, 1980, 2540
3128, 696, 698, 1832, 2629
3129, 1314, 2190, 750, 2115
3130, 1149, 2935, 2932, 3004
3131, 2087, 2275, 2787, 2096
3132, 2824, 2457, 1542, 2692
3133, 1215, 1515, 1262, 3030
3134, 548, 200, 498, 1140
3135, 1065, 2789, 2822, 2801
3136, 2985, 1311, 3090, 2465
3137, 1707, 1971, 1885, 1131
3138, 1131, 1885, 2726, 876
3139, 1374, 386, 313, 1437
3140, 2097, 3078, 356, 343
3141, 863, 1215, 3122, 944
3142, 944, 1422, 1636, 1421
3143, 1740, 1707, 1131, 585
3144, 2725, 2527, 1642, 591
3145, 2868, 1164, 1742, 2398
3146, 1725, 2394, 2447, 2529
3147, 2015, 2722, 967, 2341
3148, 2721, 965, 1041, 963
3149, 626, 2036, 414, 285
3150, 2674, 660, 1604, 2038
3151, 1462, 1012, 201, 497
3152, 2762, 1032, 2075, 2888
3153, 610, 2996, 2803, 1570
3154, 646, 291, 407, 1180
3155, 540, 2635, 2322, 1889
3156, 650, 2718, 647, 2919
3157, 1240, 1771, 539, 1621
3158, 1828, 1900, 791, 2607
3159, 2927, 1917, 1919, 1918
3160, 1857, 2103, 1139, 1312
3161, 1051, 2464, 548, 2032
3162, 2672, 2308, 1281, 1463
3163, 2635, 1789, 1904, 2322
3164, 2919, 2136, 1790, 645
3165, 2136, 289, 409, 1790
3166, 1143, 2988, 1945, 1944
3167, 2716, 2645, 676, 2631
3168, 1097, 1129, 1110, 3002
3169, 3073, 2563, 1183, 2976
3170, 1801, 962, 1044, 2350
3171, 2295, 1199, 1070, 1200
3172, 2706, 2024, 2682, 2190
3173, 3071, 1148, 736, 3005
3174, 1148, 2987, 2604, 736
3175, 1190, 1147, 2987, 1148
3176, 1278, 609, 2069, 764
3177, 2923, 1240, 1621, 573
3178, 811, 1925, 2048, 1026
3179, 1320, 3054, 608, 2802
3180, 1064, 1053, 2356, 2793
3181, 1046, 2079, 1000, 997
3182, 1214, 1800, 1803, 1491
3183, 1273, 672, 1659, 1300
3184, 3068, 2978, 619, 2715
3185, 2211, 2307, 1265, 3034
3186, 2775, 2744, 2284, 1175
3187, 2854, 1209, 2290, 1005
3188, 2408, 1395, 2294, 2555
3189, 2446, 2440, 1047, 1802
3190, 2076, 2446, 1802, 2409
3191, 1652, 173, 525, 993
3192, 1208, 184, 514, 3011
3193, 1753, 2149, 1650, 1393
3194, 1885, 1609, 874, 2726
3195, 2826, 1050, 519, 180
3196, 967, 2963, 1481, 980
3197, 943, 1843, 2006, 601
3198, 982, 948, 2143, 2145
3199, 2943, 476, 223, 2744
3200, 769, 2441, 2392, 2517
3201, 2887, 778, 2053, 2056
3202, 2226, 835, 840, 829
3203, 814, 1191, 816, 2765
3204, 2043, 838, 833, 1429
3205, 693, 1223, 3017, 1221
3206, 1221, 3017, 1222, 728
3207, 1223, 729, 1222, 3017
3208, 2088, 2131, 1159, 1973
3209, 2476, 1237, 2088, 2132
3210, 1734, 332, 366, 1688
3211, 1735, 2870, 2261, 2108
3212, 2958, 2990, 2750, 2749
3213, 3092, 1312, 1139, 3087
3214, 1040, 2751, 2463, 2792
3215, 2751, 1247, 1054, 2463
3216, 3086, 1138, 1918, 611
3217, 609, 1684, 1231, 2069
3218, 1138, 2466, 2927, 1918
3219, 2921, 2324, 690, 2359
3220, 2432, 2431, 2202, 1874
3221, 690, 1590, 2412, 1384
3222, 912, 371, 328, 3038
3223, 2316, 867, 2946, 1888
3224, 2847, 2785, 2513, 2494
3225, 595, 975, 2138, 1216
3226, 2027, 2982, 975, 595
3227, 1554, 2685, 2097, 926
3228, 3023, 2940, 2751, 1040
3229, 2991, 2758, 2794, 1310
3230, 2758, 1062, 1228, 2794
3231, 1875, 1807, 2353, 1882
3232, 2377, 2482, 2327, 1782
3233, 1491, 1803, 512, 187
3234, 1757, 2960, 1490, 2440
3235, 1185, 2195, 1247, 1052
3236, 3129, 2310, 2105, 1511
3237, 2223, 1509, 1510, 703
3238, 2395, 2499, 2393, 2315
3239, 996, 2292, 1573, 2554
3240, 2077, 994, 2670, 1252
3241, 1220, 1219, 1256, 817
3242, 827, 2797, 237, 461
3243, 831, 1458, 843, 2287
3244, 2100, 1061, 1649, 2592
3245, 2402, 1516, 1250, 2396
3246, 1260, 2262, 2577, 2072
3247, 2864, 2848, 345, 353
3248, 922, 927, 1760, 2080
3249, 923, 2680, 2807, 1261
3250, 1501, 2740, 3031, 2037
3251, 2036, 1779, 284, 414
3252, 2417, 1498, 1526, 2354
3253, 1503, 808, 1887, 3064
3254, 2869, 1121, 2323, 681
3255, 2413, 3081, 679, 2319
3256, 1696, 400, 299, 1270
3257, 1308, 3033, 640, 1506
3258, 1548, 2875, 3049, 1697
3259, 2988, 134, 123, 1945
3260, 556, 122, 134, 2988
3261, 2591, 501, 198, 2178
3262, 2886, 500, 199, 1695
3263, 1017, 194, 504, 1324
3264, 2762, 2929, 2885, 1032
3265, 1239, 2981, 2468, 1379
3266, 774, 1677, 1915, 1811
3267, 1280, 3020, 2898, 2535
3268, 1834, 1836, 1835, 1014
3269, 1709, 1508, 3021, 2576
3270, 1718, 326, 372, 2892
3271, 872, 1818, 2495, 1703
3272, 792, 1286, 3039, 1284
3273, 1284, 3039, 1285, 783
3274, 1286, 825, 1285, 3039
3275, 1289, 2813, 895, 2637
3276, 590, 1663, 95, 106
3277, 1287, 2942, 1892, 1212
3278, 1640, 383, 316, 1722
3279, 2429, 2653, 2666, 1210
3280, 888, 1163, 883, 1741
3281, 1500, 1305, 282, 416
3282, 2211, 2741, 1141, 2307
3283, 833, 2379, 1830, 2378
3284, 1521, 844, 2052, 2238
3285, 1787, 1251, 254, 444
3286, 1784, 2880, 754, 1516
3287, 709, 1298, 2265, 3043
3288, 2236, 1617, 2181, 2237
3289, 686, 2214, 714, 1615
3290, 3045, 2301, 2234, 1913
3291, 655, 666, 665, 668
3292, 2228, 2229, 272, 426
3293, 2890, 269, 429, 678
3294, 2852, 1582, 2231, 1883
3295, 635, 417, 282, 1305
3296, 1304, 3047, 3061, 3060
3297, 2844, 2743, 1405, 2306
3298, 2382, 2034, 1868, 2039
3299, 1298, 712, 2361, 2874
3300, 892, 1538, 1272, 559
3301, 1697, 3049, 1653, 1587
3302, 1538, 1179, 642, 1272
3303, 1213, 1199, 2344, 2881
3304, 1195, 1020, 1925, 811
3305, 1648, 1857, 1312, 1229
3306, 3074, 2597, 1150, 2595
3307, 1331, 726, 2620, 732
3308, 2621, 1995, 1997, 1996
3309, 3129, 2899, 2616, 708
3310, 851, 1435, 744, 1249
3311, 1436, 244, 454, 1316
3312, 1472, 1474, 1473, 2860
3313, 3014, 2247, 2859, 897
3314, 592, 2443, 907, 2683
3315, 1641, 899, 1211, 885
3316, 1103, 6, 95, 1663
3317, 2922, 1342, 1344, 3054
3318, 2626, 3037, 1397, 3058
3319, 1282, 325, 373, 2907
3320, 1703, 2495, 2158, 2704
3321, 2704, 2158, 2493, 1719
3322, 3021, 2437, 1329, 1683
3323, 1326, 1502, 492, 207
3324, 3057, 2616, 2617, 2947
3325, 2616, 2899, 2618, 2617
3326, 1020, 3089, 1960, 1925
3327, 2798, 2106, 1518, 704
3328, 3074, 727, 2116, 2114
3329, 2595, 1150, 1189, 2678
3330, 1567, 636, 1142, 1406
3331, 861, 2166, 1540, 2259
3332, 2471, 2702, 1888, 2601
3333, 2215, 1812, 796, 2818
3334, 2975, 3066, 2749, 2750
3335, 3067, 2975, 2750, 2608
3336, 658, 2912, 132, 121
3337, 636, 1781, 1500, 1142
3338, 2275, 2489, 2679, 2368
3339, 865, 1153, 3121, 2102
3340, 2603, 3071, 2648, 2649
3341, 3072, 2603, 2649, 2646
3342, 1128, 2810, 2808, 1574
3343, 2595, 2678, 3051, 2901
3344, 3074, 2595, 2901, 727
3345, 2108, 2261, 1477, 2166
3346, 3075, 2608, 2750, 2990
3347, 3080, 2609, 2608, 3075
3348, 3076, 2480, 2506, 2505
3349, 3080, 3076, 2505, 2609
3350, 2740, 2004, 1404, 3031
3351, 3032, 1120, 2546, 692
3352, 3084, 1213, 2881, 2297
3353, 2823, 1070, 1199, 1213
3354, 3085, 2823, 1213, 3084
3355, 3088, 1177, 1070, 2823
3356, 3092, 3088, 2823, 3085
3357, 2753, 1860, 2497, 2445
3358, 1063, 2753, 2445, 2448
3359, 3088, 1063, 2448, 1177
3360, 3086, 611, 1860, 2753
3361, 3087, 3086, 2753, 1063
3362, 3092, 3087, 1063, 3088
3363, 3111, 3110, 113, 103
3364, 3112, 3111, 103, 114
3365, 3113, 3112, 114, 104
3366, 3114, 3113, 104, 115
3367, 3118, 3114, 115, 105
3368, 2900, 3108, 642, 1179
3369, 1746, 2900, 1179, 560
3370, 3109, 1746, 560, 1356
3371, 1674, 3107, 3108, 2900
3372, 1174, 1674, 2900, 1746
3373, 3110, 1174, 1746, 3109
3374, 1902, 3106, 3107, 1674
3375, 1449, 1902, 1674, 1174
3376, 3111, 1449, 1174, 3110
3377, 1743, 3105, 3106, 1902
3378, 1173, 1743, 1902, 1449
3379, 3112, 1173, 1449, 3111
3380, 2201, 3104, 3105, 1743
3381, 2835, 2201, 1743, 1173
3382, 3113, 2835, 1173, 3112
3383, 1934, 3103, 3104, 2201
3384, 1890, 1934, 2201, 2835
3385, 3114, 1890, 2835, 3113
3386, 3101, 3117, 3103, 1934
3387, 3102, 3101, 1934, 1890
3388, 3118, 3102, 1890, 3114
3389, 924, 2212, 2748, 1657
3390, 2102, 3121, 2122, 1112
3391, 3123, 1534, 1151, 923
3392, 1535, 358, 341, 1705
3393, 926, 2097, 343, 355
3394, 1153, 1216, 2685, 1554
3395, 1114, 2475, 1706, 2882
3396, 2027, 595, 865, 1445
3397, 1511, 1563, 755, 2264
3398, 3129, 1511, 2264, 2596
*ELSET,ELSET=contact_source
137, 138, 139, 140, 141, 142, 143, 144, 145, 146, 
147, 148, 149, 150, 151, 152, 153, 154, 155, 156, 
157, 158, 
*ELSET,ELSET=contact_drain
43, 44, 45, 46, 47, 48, 49, 50, 51, 52, 
53, 54, 55, 56, 57, 58, 59, 60, 61, 62, 
63, 64, 
*ELSET,ELSET=probe_A
91, 92, 93, 94, 95, 96, 97, 98, 99, 100, 
101, 102, 103, 104, 105, 106, 107, 108, 109, 110, 
111, 112, 
*ELSET,ELSET=probe_B
19, 20, 21, 22, 23, 24, 25, 26, 
*ELSET,ELSET=walls
1, 2, 3, 4, 5, 6, 7, 8, 9, 10, 
11, 12, 13, 14, 15, 16, 17, 18, 27, 28, 
29, 30, 31, 32, 33, 34, 35, 36, 37, 38, 
39, 40, 41, 42, 65, 66, 67, 68, 69, 70, 
71, 72, 73, 74, 75, 76, 77, 78, 79, 80, 
81, 82, 83, 84, 85, 86, 87, 88, 89, 90, 
113, 114, 115, 116, 117, 118, 119, 120, 121, 122, 
123, 124, 125, 126, 127, 128, 129, 130, 131, 132, 
133, 134, 135, 136, 159, 160, 161, 162, 163, 164, 
165, 166, 167, 168, 169, 170, 171, 172, 173, 174, 
175, 176, 177, 178, 179, 180, 181, 182, 183, 184, 
185, 186, 187, 188, 189, 190, 191, 192, 193, 194, 
195, 196, 197, 198, 199, 200, 201, 202, 203, 204, 
205, 206, 207, 208, 209, 210, 211, 212, 213, 214, 
215, 216, 217, 218, 219, 220, 221, 222, 223, 224, 
225, 226, 227, 228, 229, 230, 231, 232, 233, 234, 
235, 236, 237, 238, 239, 240, 241, 242, 243, 244, 
245, 246, 247, 248, 249, 250, 251, 252, 253, 254, 
255, 256, 257, 258, 259, 260, 261, 262, 263, 264, 
265, 266, 267, 268, 269, 270, 271, 272, 273, 274, 
275, 276, 277, 278, 279, 280, 281, 282, 283, 284, 
285, 286, 287, 288, 289, 290, 291, 292, 293, 294, 
295, 296, 297, 298, 299, 300, 301, 302, 303, 304, 
305, 306, 307, 308, 309, 310, 311, 312, 313, 314, 
315, 316, 317, 318, 319, 320, 321, 322, 323, 324, 
325, 326, 327, 328, 329, 330, 331, 332, 333, 334, 
335, 336, 337, 338, 339, 340, 341, 342, 343, 344, 
345, 346, 347, 348, 349, 350, 351, 352, 353, 354, 
355, 356, 357, 358, 359, 360, 361, 362, 363, 364, 
365, 366, 367, 368, 369, 370, 371, 372, 373, 374, 
375, 376, 377, 378, 379, 380, 381, 382, 383, 384, 
385, 386, 387, 388, 389, 390, 391, 392, 393, 394, 
395, 396, 397, 398, 399, 400, 401, 402, 403, 404, 
405, 406, 407, 408, 409, 410, 411, 412, 413, 414, 
415, 416, 417, 418, 419, 420, 421, 422, 423, 424, 
425, 426, 427, 428, 429, 430, 431, 432, 433, 434, 
435, 436, 437, 438, 439, 440, 441, 442, 443, 444, 
445, 446, 447, 448, 449, 450, 451, 452, 453, 454, 
455, 456, 457, 458, 459, 460, 461, 462, 463, 464, 
465, 466, 467, 468, 469, 470, 471, 472, 473, 474, 
475, 476, 477, 478, 479, 480, 481, 482, 483, 484, 
485, 486, 487, 488, 489, 490, 491, 492, 493, 494, 
495, 496, 497, 498, 499, 500, 501, 502, 503, 504, 
505, 506, 507, 508, 509, 510, 511, 512, 513, 514, 
515, 516, 517, 518, 519, 520, 521, 522, 523, 524, 
525, 526, 527, 528, 529, 530, 531, 532, 533, 534, 
535, 536, 537, 538, 
*ELSET,ELSET=domain
539, 540, 541, 542, 543, 544, 545, 546, 547, 548, 
549, 550, 551, 552, 553, 554, 555, 556, 557, 558, 
559, 560, 561, 562, 563, 564, 565, 566, 567, 568, 
569, 570, 571, 572, 573, 574, 575, 576, 577, 578, 
579, 580, 581, 582, 583, 584, 585, 586, 587, 588, 
589, 590, 591, 592, 593, 594, 595, 596, 597, 598, 
599, 600, 601, 602, 603, 604, 605, 606, 607, 608, 
609, 610, 611, 612, 613, 614, 615, 616, 617, 618, 
619, 620, 621, 622, 623, 624, 625, 626, 627, 628, 
629, 630, 631, 632, 633, 634, 635, 636, 637, 638, 
639, 640, 641, 642, 643, 644, 645, 646, 647, 648, 
649, 650, 651, 652, 653, 654, 655, 656, 657, 658, 
659, 660, 661, 662, 663, 664, 665, 666, 667, 668, 
669, 670, 671, 672, 673, 674, 675, 676, 677, 678, 
679, 680, 681, 682, 683, 684, 685, 686, 687, 688, 
689, 690, 691, 692, 693, 694, 695, 696, 697, 698, 
699, 700, 701, 702, 703, 704, 705, 706, 707, 708, 
709, 710, 711, 712, 713, 714, 715, 716, 717, 718, 
719, 720, 721, 722, 723, 724, 725, 726, 727, 728, 
729, 730, 731, 732, 733, 734, 735, 736, 737, 738, 
739, 740, 741, 742, 743, 744, 745, 746, 747, 748, 
749, 750, 751, 752, 753, 754, 755, 756, 757, 758, 
759, 760, 761, 762, 763, 764, 765, 766, 767, 768, 
769, 770, 771, 772, 773, 774, 775, 776, 777, 778, 
779, 780, 781, 782, 783, 784, 785, 786, 787, 788, 
789, 790, 791, 792, 793, 794, 795, 796, 797, 798, 
799, 800, 801, 802, 803, 804, 805, 806, 807, 808, 
809, 810, 811, 812, 813, 814, 815, 816, 817, 818, 
819, 820, 821, 822, 823, 824, 825, 826, 827, 828, 
829, 830, 831, 832, 833, 834, 835, 836, 837, 838, 
839, 840, 841, 842, 843, 844, 845, 846, 847, 848, 
849, 850, 851, 852, 853, 854, 855, 856, 857, 858, 
859, 860, 861, 862, 863, 864, 865, 866, 867, 868, 
869, 870, 871, 872, 873, 874, 875, 876, 877, 878, 
879, 880, 881, 882, 883, 884, 885, 886, 887, 888, 
889, 890, 891, 892, 893, 894, 895, 896, 897, 898, 
899, 900, 901, 902, 903, 904, 905, 906, 907, 908, 
909, 910, 911, 912, 913, 914, 915, 916, 917, 918, 
919, 920, 921, 922, 923, 924, 925, 926, 927, 928, 
929, 930, 931, 932, 933, 934, 935, 936, 937, 938, 
939, 940, 941, 942, 943, 944, 945, 946, 947, 948, 
949, 950, 951, 952, 953, 954, 955, 956, 957, 958, 
959, 960, 961, 962, 963, 964, 965, 966, 967, 968, 
969, 970, 971, 972, 973, 974, 975, 976, 977, 978, 
979, 980, 981, 982, 983, 984, 985, 986, 987, 988, 
989, 990, 991, 992, 993, 994, 995, 996, 997, 998, 
999, 1000, 1001, 1002, 1003, 1004, 1005, 1006, 1007, 1008, 
1009, 1010, 1011, 1012, 1013, 1014, 1015, 1016, 1017, 1018, 
1019, 1020, 1021, 1022, 1023, 1024, 1025, 1026, 1027, 1028, 
1029, 1030, 1031, 1032, 1033, 1034, 1035, 1036, 1037, 1038, 
1039, 1040, 1041, 1042, 1043, 1044, 1045, 1046, 1047, 1048, 
1049, 1050, 1051, 1052, 1053, 1054, 1055, 1056, 1057, 1058, 
1059, 1060, 1061, 1062, 1063, 1064, 1065, 1066, 1067, 1068, 
1069, 1070, 1071, 1072, 1073, 1074, 1075, 1076, 1077, 1078, 
1079, 1080, 1081, 1082, 1083, 1084, 1085, 1086, 1087, 1088, 
1089, 1090, 1091, 1092, 1093, 1094, 1095, 1096, 1097, 1098, 
1099, 1100, 1101, 1102, 1103, 1104, 1105, 1106, 1107, 1108, 
1109, 1110, 1111, 1112, 1113, 1114, 1115, 1116, 1117, 1118, 
1119, 1120, 1121, 1122, 1123, 1124, 1125, 1126, 1127, 1128, 
1129, 1130, 1131, 1132, 1133, 1134, 1135, 1136, 1137, 1138, 
1139, 1140, 1141, 1142, 1143, 1144, 1145, 1146, 1147, 1148, 
1149, 1150, 1151, 1152, 1153, 1154, 1155, 1156, 1157, 1158, 
1159, 1160, 1161, 1162, 1163, 1164, 1165, 1166, 1167, 1168, 
1169, 1170, 1171, 1172, 1173, 1174, 1175, 1176, 1177, 1178, 
1179, 1180, 1181, 1182, 1183, 1184, 1185, 1186, 1187, 1188, 
1189, 1190, 1191, 1192, 1193, 1194, 1195, 1196, 1197, 1198, 
1199, 1200, 1201, 1202, 1203, 1204, 1205, 1206, 1207, 1208, 
1209, 1210, 1211, 1212, 1213, 1214, 1215, 1216, 1217, 1218, 
1219, 1220, 1221, 1222, 1223, 1224, 1225, 1226, 1227, 1228, 
1229, 1230, 1231, 1232, 1233, 1234, 1235, 1236, 1237, 1238, 
1239, 1240, 1241, 1242, 1243, 1244, 1245, 1246, 1247, 1248, 
1249, 1250, 1251, 1252, 1253, 1254, 1255, 1256, 1257, 1258, 
1259, 1260, 1261, 1262, 1263, 1264, 1265, 1266, 1267, 1268, 
1269, 1270, 1271, 1272, 1273, 1274, 1275, 1276, 1277, 1278, 
1279, 1280, 1281, 1282, 1283, 1284, 1285, 1286, 1287, 1288, 
1289, 1290, 1291, 1292, 1293, 1294, 1295, 1296, 1297, 1298, 
1299, 1300, 1301, 1302, 1303, 1304, 1305, 1306, 1307, 1308, 
1309, 1310, 1311, 1312, 1313, 1314, 1315, 1316, 1317, 1318, 
1319, 1320, 1321, 1322, 1323, 1324, 1325, 1326, 1327, 1328, 
1329, 1330, 1331, 1332, 1333, 1334, 1335, 1336, 1337, 1338, 
1339, 1340, 1341, 1342, 1343, 1344, 1345, 1346, 1347, 1348, 
1349, 1350, 1351, 1352, 1353, 1354, 1355, 1356, 1357, 1358, 
1359, 1360, 1361, 1362, 1363, 1364, 1365, 1366, 1367, 1368, 
1369, 1370, 1371, 1372, 1373, 1374, 1375, 1376, 1377, 1378, 
1379, 1380, 1381, 1382, 1383, 1384, 1385, 1386, 1387, 1388, 
1389, 1390, 1391, 1392, 1393, 1394, 1395, 1396, 1397, 1398, 
1399, 1400, 1401, 1402, 1403, 1404, 1405, 1406, 1407, 1408, 
1409, 1410, 1411, 1412, 1413, 1414, 1415, 1416, 1417, 1418, 
1419, 1420, 1421, 1422, 1423, 1424, 1425, 1426, 1427, 1428, 
1429, 1430, 1431, 1432, 1433, 1434, 1435, 1436, 1437, 1438, 
1439, 1440, 1441, 1442, 1443, 1444, 1445, 1446, 1447, 1448, 
1449, 1450, 1451, 1452, 1453, 1454, 1455, 1456, 1457, 1458, 
1459, 1460, 1461, 1462, 1463, 1464, 1465, 1466, 1467, 1468, 
1469, 1470, 1471, 1472, 1473, 1474, 1475, 1476, 1477, 1478, 
1479, 1480, 1481, 1482, 1483, 1484, 1485, 1486, 1487, 1488, 
1489, 1490, 1491, 1492, 1493, 1494, 1495, 1496, 1497, 1498, 
1499, 1500, 1501, 1502, 1503, 1504, 1505, 1506, 1507, 1508, 
1509, 1510, 1511, 1512, 1513, 1514, 1515, 1516, 1517, 1518, 
1519, 1520, 1521, 1522, 1523, 1524, 1525, 1526, 1527, 1528, 
1529, 1530, 1531, 1532, 1533, 1534, 1535, 1536, 1537, 1538, 
1539, 1540, 1541, 1542, 1543, 1544, 1545, 1546, 1547, 1548, 
1549, 1550, 1551, 1552, 1553, 1554, 1555, 1556, 1557, 1558, 
1559, 1560, 1561, 1562, 1563, 1564, 1565, 1566, 1567, 1568, 
1569, 1570, 1571, 1572, 1573, 1574, 1575, 1576, 1577, 1578, 
1579, 1580, 1581, 1582, 1583, 1584, 1585, 1586, 1587, 1588, 
1589, 1590, 1591, 1592, 1593, 1594, 1595, 1596, 1597, 1598, 
1599, 1600, 1601, 1602, 1603, 1604, 1605, 1606, 1607, 1608, 
1609, 1610, 1611, 1612, 1613, 1614, 1615, 1616, 1617, 1618, 
1619, 1620, 1621, 1622, 1623, 1624, 1625, 1626, 1627, 1628, 
1629, 1630, 1631, 1632, 1633, 1634, 1635, 1636, 1637, 1638, 
1639, 1640, 1641, 1642, 1643, 1644, 1645, 1646, 1647, 1648, 
1649, 1650, 1651, 1652, 1653, 1654, 1655, 1656, 1657, 1658, 
1659, 1660, 1661, 1662, 1663, 1664, 1665, 1666, 1667, 1668, 
1669, 1670, 1671, 1672, 1673, 1674, 1675, 1676, 1677, 1678, 
1679, 1680, 1681, 1682, 1683, 1684, 1685, 1686, 1687, 1688, 
1689, 1690, 1691, 1692, 1693, 1694, 1695, 1696, 1697, 1698, 
1699, 1700, 1701, 1702, 1703, 1704, 1705, 1706, 1707, 1708, 
1709, 1710, 1711, 1712, 1713, 1714, 1715, 1716, 1717, 1718, 
1719, 1720, 1721, 1722, 1723, 1724, 1725, 1726, 1727, 1728, 
1729, 1730, 1731, 1732, 1733, 1734, 1735, 1736, 1737, 1738, 
1739, 1740, 1741, 1742, 1743, 1744, 1745, 1746, 1747, 1748, 
1749, 1750, 1751, 1752, 1753, 1754, 1755, 1756, 1757, 1758, 
1759, 1760, 1761, 1762, 1763, 1764, 1765, 1766, 1767, 1768, 
1769, 1770, 1771, 1772, 1773, 1774, 1775, 1776, 1777, 1778, 
1779, 1780, 1781, 1782, 1783, 1784, 1785, 1786, 1787, 1788, 
1789, 1790, 1791, 1792, 1793, 1794, 1795, 1796, 1797, 1798, 
1799, 1800, 1801, 1802, 1803, 1804, 1805, 1806, 1807, 1808, 
1809, 1810, 1811, 1812, 1813, 1814, 1815, 1816, 1817, 1818, 
1819, 1820, 1821, 1822, 1823, 1824, 1825, 1826, 1827, 1828, 
1829, 1830, 1831, 1832, 1833, 1834, 1835, 1836, 1837, 1838, 
1839, 1840, 1841, 1842, 1843, 1844, 1845, 1846, 1847, 1848, 
1849, 1850, 1851, 1852, 1853, 1854, 1855, 1856, 1857, 1858, 
1859, 1860, 1861, 1862, 1863, 1864, 1865, 1866, 1867, 1868, 
1869, 1870, 1871, 1872, 1873, 1874, 1875, 1876, 1877, 1878, 
1879, 1880, 1881, 1882, 1883, 1884, 1885, 1886, 1887, 1888, 
1889, 1890, 1891, 1892, 1893, 1894, 1895, 1896, 1897, 1898, 
1899, 1900, 1901, 1902, 1903, 1904, 1905, 1906, 1907, 1908, 
1909, 1910, 1911, 1912, 1913, 1914, 1915, 1916, 1917, 1918, 
1919, 1920, 1921, 1922, 1923, 1924, 1925, 1926, 1927, 1928, 
1929, 1930, 1931, 1932, 1933, 1934, 1935, 1936, 1937, 1938, 
1939, 1940, 1941, 1942, 1943, 1944, 1945, 1946, 1947, 1948, 
1949, 1950, 1951, 1952, 1953, 1954, 1955, 1956, 1957, 1958, 
1959, 1960, 1961, 1962, 1963, 1964, 1965, 1966, 1967, 1968, 
1969, 1970, 1971, 1972, 1973, 1974, 1975, 1976, 1977, 1978, 
1979, 1980, 1981, 1982, 1983, 1984, 1985, 1986, 1987, 1988, 
1989, 1990, 1991, 1992, 1993, 1994, 1995, 1996, 1997, 1998, 
1999, 2000, 2001, 2002, 2003, 2004, 2005, 2006, 2007, 2008, 
2009, 2010, 2011, 2012, 2013, 2014, 2015, 2016, 2017, 2018, 
2019, 2020, 2021, 2022, 2023, 2024, 2025, 2026, 2027, 2028, 
2029, 2030, 2031, 2032, 2033, 2034, 2035, 2036, 2037, 2038, 
2039, 2040, 2041, 2042, 2043, 2044, 2045, 2046, 2047, 2048, 
2049, 2050, 2051, 2052, 2053, 2054, 2055, 2056, 2057, 2058, 
2059, 2060, 2061, 2062, 2063, 2064, 2065, 2066, 2067, 2068, 
2069, 2070, 2071, 2072, 2073, 2074, 2075, 2076, 2077, 2078, 
2079, 2080, 2081, 2082, 2083, 2084, 2085, 2086, 2087, 2088, 
2089, 2090, 2091, 2092, 2093, 2094, 2095, 2096, 2097, 2098, 
2099, 2100, 2101, 2102, 2103, 2104, 2105, 2106, 2107, 2108, 
2109, 2110, 2111, 2112, 2113, 2114, 2115, 2116, 2117, 2118, 
2119, 2120, 2121, 2122, 2123, 2124, 2125, 2126, 2127, 2128, 
2129, 2130, 2131, 2132, 2133, 2134, 2135, 2136, 2137, 2138, 
2139, 2140, 2141, 2142, 2143, 2144, 2145, 2146, 2147, 2148, 
2149, 2150, 2151, 2152, 2153, 2154, 2155, 2156, 2157, 2158, 
2159, 2160, 2161, 2162, 2163, 2164, 2165, 2166, 2167, 2168, 
2169, 2170, 2171, 2172, 2173, 2174, 2175, 2176, 2177, 2178, 
2179, 2180, 2181, 2182, 2183, 2184, 2185, 2186, 2187, 2188, 
2189, 2190, 2191, 2192, 2193, 2194, 2195, 2196, 2197, 2198, 
2199, 2200, 2201, 2202, 2203, 2204, 2205, 2206, 2207, 2208, 
2209, 2210, 2211, 2212, 2213, 2214, 2215, 2216, 2217, 2218, 
2219, 2220, 2221, 2222, 2223, 2224, 2225, 2226, 2227, 2228, 
2229, 2230, 2231, 2232, 2233, 2234, 2235, 2236, 2237, 2238, 
2239, 2240, 2241, 2242, 2243, 2244, 2245, 2246, 2247, 2248, 
2249, 2250, 2251, 2252, 2253, 2254, 2255, 2256, 2257, 2258, 
2259, 2260, 2261, 2262, 2263, 2264, 2265, 2266, 2267, 2268, 
2269, 2270, 2271, 2272, 2273, 2274, 2275, 2276, 2277, 2278, 
2279, 2280, 2281, 2282, 2283, 2284, 2285, 2286, 2287, 2288, 
2289, 2290, 2291, 2292, 2293, 2294, 2295, 2296, 2297, 2298, 
2299, 2300, 2301, 2302, 2303, 2304, 2305, 2306, 2307, 2308, 
2309, 2310, 2311, 2312, 2313, 2314, 2315, 2316, 2317, 2318, 
2319, 2320, 2321, 2322, 2323, 2324, 2325, 2326, 2327, 2328, 
2329, 2330, 2331, 2332, 2333, 2334, 2335, 2336, 2337, 2338, 
2339, 2340, 2341, 2342, 2343, 2344, 2345, 2346, 2347, 2348, 
2349, 2350, 2351, 2352, 2353, 2354, 2355, 2356, 2357, 2358, 
2359, 2360, 2361, 2362, 2363, 2364, 2365, 2366, 2367, 2368, 
2369, 2370, 2371, 2372, 2373, 2374, 2375, 2376, 2377, 2378, 
2379, 2380, 2381, 2382, 2383, 2384, 2385, 2386, 2387, 2388, 
2389, 2390, 2391, 2392, 2393, 2394, 2395, 2396, 2397, 2398, 
2399, 2400, 2401, 2402, 2403, 2404, 2405, 2406, 2407, 2408, 
2409, 2410, 2411, 2412, 2413, 2414, 2415, 2416, 2417, 2418, 
2419, 2420, 2421, 2422, 2423, 2424, 2425, 2426, 2427, 2428, 
2429, 2430, 2431, 2432, 2433, 2434, 2435, 2436, 2437, 2438, 
2439, 2440, 2441, 2442, 2443, 2444, 2445, 2446, 2447, 2448, 
2449, 2450, 2451, 2452, 2453, 2454, 2455, 2456, 2457, 2458, 
2459, 2460, 2461, 2462, 2463, 2464, 2465, 2466, 2467, 2468, 
2469, 2470, 2471, 2472, 2473, 2474, 2475, 2476, 2477, 2478, 
2479, 2480, 2481, 2482, 2483, 2484, 2485, 2486, 2487, 2488, 
2489, 2490, 2491, 2492, 2493, 2494, 2495, 2496, 2497, 2498, 
2499, 2500, 2501, 2502, 2503, 2504, 2505, 2506, 2507, 2508, 
2509, 2510, 2511, 2512, 2513, 2514, 2515, 2516, 2517, 2518, 
2519, 2520, 2521, 2522, 2523, 2524, 2525, 2526, 2527, 2528, 
2529, 2530, 2531, 2532, 2533, 2534, 2535, 2536, 2537, 2538, 
2539, 2540, 2541, 2542, 2543, 2544, 2545, 2546, 2547, 2548, 
2549, 2550, 2551, 2552, 2553, 2554, 2555, 2556, 2557, 2558, 
2559, 2560, 2561, 2562, 2563, 2564, 2565, 2566, 2567, 2568, 
2569, 2570, 2571, 2572, 2573, 2574, 2575, 2576, 2577, 2578, 
2579, 2580, 2581, 2582, 2583, 2584, 2585, 2586, 2587, 2588, 
2589, 2590, 2591, 2592, 2593, 2594, 2595, 2596, 2597, 2598, 
2599, 2600, 2601, 2602, 2603, 2604, 2605, 2606, 2607, 2608, 
2609, 2610, 2611, 2612, 2613, 2614, 2615, 2616, 2617, 2618, 
2619, 2620, 2621, 2622, 2623, 2624, 2625, 2626, 2627, 2628, 
2629, 2630, 2631, 2632, 2633, 2634, 2635, 2636, 2637, 2638, 
2639, 2640, 2641, 2642, 2643, 2644, 2645, 2646, 2647, 2648, 
2649, 2650, 2651, 2652, 2653, 2654, 2655, 2656, 2657, 2658, 
2659, 2660, 2661, 2662, 2663, 2664, 2665, 2666, 2667, 2668, 
2669, 2670, 2671, 2672, 2673, 2674, 2675, 2676, 2677, 2678, 
2679, 2680, 2681, 2682, 2683, 2684, 2685, 2686, 2687, 2688, 
2689, 2690, 2691, 2692, 2693, 2694, 2695, 2696, 2697, 2698, 
2699, 2700, 2701, 2702, 2703, 2704, 2705, 2706, 2707, 2708, 
2709, 2710, 2711, 2712, 2713, 2714, 2715, 2716, 2717, 2718, 
2719, 2720, 2721, 2722, 2723, 2724, 2725, 2726, 2727, 2728, 
2729, 2730, 2731, 2732, 2733, 2734, 2735, 2736, 2737, 2738, 
2739, 2740, 2741, 2742, 2743, 2744, 2745, 2746, 2747, 2748, 
2749, 2750, 2751, 2752, 2753, 2754, 2755, 2756, 2757, 2758, 
2759, 2760, 2761, 2762, 2763, 2764, 2765, 2766, 2767, 2768, 
2769, 2770, 2771, 2772, 2773, 2774, 2775, 2776, 2777, 2778, 
2779, 2780, 2781, 2782, 2783, 2784, 2785, 2786, 2787, 2788, 
2789, 2790, 2791, 2792, 2793, 2794, 2795, 2796, 2797, 2798, 
2799, 2800, 2801, 2802, 2803, 2804, 2805, 2806, 2807, 2808, 
2809, 2810, 2811, 2812, 2813, 2814, 2815, 2816, 2817, 2818, 
2819, 2820, 2821, 2822, 2823, 2824, 2825, 2826, 2827, 2828, 
2829, 2830, 2831, 2832, 2833, 2834, 2835, 2836, 2837, 2838, 
2839, 2840, 2841, 2842, 2843, 2844, 2845, 2846, 2847, 2848, 
2849, 2850, 2851, 2852, 2853, 2854, 2855, 2856, 2857, 2858, 
2859, 2860, 2861, 2862, 2863, 2864, 2865, 2866, 2867, 2868, 
2869, 2870, 2871, 2872, 2873, 2874, 2875, 2876, 2877, 2878, 
2879, 2880, 2881, 2882, 2883, 2884, 2885, 2886, 2887, 2888, 
2889, 2890, 2891, 2892, 2893, 2894, 2895, 2896, 2897, 2898, 
2899, 2900, 2901, 2902, 2903, 2904, 2905, 2906, 2907, 2908, 
2909, 2910, 2911, 2912, 2913, 2914, 2915, 2916, 2917, 2918, 
2919, 2920, 2921, 2922, 2923, 2924, 2925, 2926, 2927, 2928, 
2929, 2930, 2931, 2932, 2933, 2934, 2935, 2936, 2937, 2938, 
2939, 2940, 2941, 2942, 2943, 2944, 2945, 2946, 2947, 2948, 
2949, 2950, 2951, 2952, 2953, 2954, 2955, 2956, 2957, 2958, 
2959, 2960, 2961, 2962, 2963, 2964, 2965, 2966, 2967, 2968, 
2969, 2970, 2971, 2972, 2973, 2974, 2975, 2976, 2977, 2978, 
2979, 2980, 2981, 2982, 2983, 2984, 2985, 2986, 2987, 2988, 
2989, 2990, 2991, 2992, 2993, 2994, 2995, 2996, 2997, 2998, 
2999, 3000, 3001, 3002, 3003, 3004, 3005, 3006, 3007, 3008, 
3009, 3010, 3011, 3012, 3013, 3014, 3015, 3016, 3017, 3018, 
3019, 3020, 3021, 3022, 3023, 3024, 3025, 3026, 3027, 3028, 
3029, 3030, 3031, 3032, 3033, 3034, 3035, 3036, 3037, 3038, 
3039, 3040, 3041, 3042, 3043, 3044, 3045, 3046, 3047, 3048, 
3049, 3050, 3051, 3052, 3053, 3054, 3055, 3056, 3057, 3058, 
3059, 3060, 3061, 3062, 3063, 3064, 3065, 3066, 3067, 3068, 
3069, 3070, 3071, 3072, 3073, 3074, 3075, 3076, 3077, 3078, 
3079, 3080, 3081, 3082, 3083, 3084, 3085, 3086, 3087, 3088, 
3089, 3090, 3091, 3092, 3093, 3094, 3095, 3096, 3097, 3098, 
3099, 3100, 3101, 3102, 3103, 3104, 3105, 3106, 3107, 3108, 
3109, 3110, 3111, 3112, 3113, 3114, 3115, 3116, 3117, 3118, 
3119, 3120, 3121, 3122, 3123, 3124, 3125, 3126, 3127, 3128, 
3129, 3130, 3131, 3132, 3133, 3134, 3135, 3136, 3137, 3138, 
3139, 3140, 3141, 3142, 3143, 3144, 3145, 3146, 3147, 3148, 
3149, 3150, 3151, 3152, 3153, 3154, 3155, 3156, 3157, 3158, 
3159, 3160, 3161, 3162, 3163, 3164, 3165, 3166, 3167, 3168, 
3169, 3170, 3171, 3172, 3173, 3174, 3175, 3176, 3177, 3178, 
3179, 3180, 3181, 3182, 3183, 3184, 3185, 3186, 3187, 3188, 
3189, 3190, 3191, 3192, 3193, 3194, 3195, 3196, 3197, 3198, 
3199, 3200, 3201, 3202, 3203, 3204, 3205, 3206, 3207, 3208, 
3209, 3210, 3211, 3212, 3213, 3214, 3215, 3216, 3217, 3218, 
3219, 3220, 3221, 3222, 3223, 3224, 3225, 3226, 3227, 3228, 
3229, 3230, 3231, 3232, 3233, 3234, 3235, 3236, 3237, 3238, 
3239, 3240, 3241, 3242, 3243, 3244, 3245, 3246, 3247, 3248, 
3249, 3250, 3251, 3252, 3253, 3254, 3255, 3256, 3257, 3258, 
3259, 3260, 3261, 3262, 3263, 3264, 3265, 3266, 3267, 3268, 
3269, 3270, 3271, 3272, 3273, 3274, 3275, 3276, 3277, 3278, 
3279, 3280, 3281, 3282, 3283, 3284, 3285, 3286, 3287, 3288, 
3289, 3290, 3291, 3292, 3293, 3294, 3295, 3296, 3297, 3298, 
3299, 3300, 3301, 3302, 3303, 3304, 3305, 3306, 3307, 3308, 
3309, 3310, 3311, 3312, 3313, 3314, 3315, 3316, 3317, 3318, 
3319, 3320, 3321, 3322, 3323, 3324, 3325, 3326, 3327, 3328, 
3329, 3330, 3331, 3332, 3333, 3334, 3335, 3336, 3337, 3338, 
3339, 3340, 3341, 3342, 3343, 3344, 3345, 3346, 3347, 3348, 
3349, 3350, 3351, 3352, 3353, 3354, 3355, 3356, 3357, 3358, 
3359, 3360, 3361, 3362, 3363, 3364, 3365, 3366, 3367, 3368, 
3369, 3370, 3371, 3372, 3373, 3374, 3375, 3376, 3377, 3378, 
3379, 3380, 3381, 3382, 3383, 3384, 3385, 3386, 3387, 3388, 
3389, 3390, 3391, 3392, 3393, 3394, 3395, 3396, 3397, 3398, 
*NSET,NSET=contact_source
1, 8, 139, 140, 141, 142, 143, 144, 145, 146, 
147, 148, 149, 150, 151, 152, 153, 154, 155, 156, 
157, 158, 159, 
*NSET,NSET=contact_drain
4, 5, 49, 50, 51, 52, 53, 54, 55, 56, 
57, 58, 59, 60, 61, 62, 63, 64, 65, 66, 
67, 68, 69, 
*NSET,NSET=probe_A
6, 7, 95, 96, 97, 98, 99, 100, 101, 102, 
103, 104, 105, 106, 107, 108, 109, 110, 111, 112, 
113, 114, 115, 
*NSET,NSET=probe_B
2, 3, 27, 28, 29, 30, 31, 32, 33, 
*NSET,NSET=walls
1, 2, 3, 4, 5, 6, 7, 8, 9, 10, 
11, 12, 13, 14, 15, 16, 17, 18, 19, 20, 
21, 22, 23, 24, 25, 26, 34, 35, 36, 37, 
38, 39, 40, 41, 42, 43, 44, 45, 46, 47, 
48, 70, 71, 72, 73, 74, 75, 76, 77, 78, 
79, 80, 81, 82, 83, 84, 85, 86, 87, 88, 
89, 90, 91, 92, 93, 94, 116, 117, 118, 119, 
120, 121, 122, 123, 124, 125, 126, 127, 128, 129, 
130, 131, 132, 133, 134, 135, 136, 137, 138, 160, 
161, 162, 163, 164, 165, 166, 167, 168, 169, 170, 
171, 172, 173, 174, 175, 176, 177, 178, 179, 180, 
181, 182, 183, 184, 185, 186, 187, 188, 189, 190, 
191, 192, 193, 194, 195, 196, 197, 198, 199, 200, 
201, 202, 203, 204, 205, 206, 207, 208, 209, 210, 
211, 212, 213, 214, 215, 216, 217, 218, 219, 220, 
221, 222, 223, 224, 225, 226, 227, 228, 229, 230, 
231, 232, 233, 234, 235, 236, 237, 238, 239, 240, 
241, 242, 243, 244, 245, 246, 247, 248, 249, 250, 
251, 252, 253, 254, 255, 256, 257, 258, 259, 260, 
261, 262, 263, 264, 265, 266, 267, 268, 269, 270, 
271, 272, 273, 274, 275, 276, 277, 278, 279, 280, 
281, 282, 283, 284, 285, 286, 287, 288, 289, 290, 
291, 292, 293, 294, 295, 296, 297, 298, 299, 300, 
301, 302, 303, 304, 305, 306, 307, 308, 309, 310, 
311, 312, 313, 314, 315, 316, 317, 318, 319, 320, 
321, 322, 323, 324, 325, 326, 327, 328, 329, 330, 
331, 332, 333, 334, 335, 336, 337, 338, 339, 340, 
341, 342, 343, 344, 345, 346, 347, 348, 349, 350, 
351, 352, 353, 354, 355, 356, 357, 358, 359, 360, 
361, 362, 363, 364, 365, 366, 367, 368, 369, 370, 
371, 372, 373, 374, 375, 376, 377, 378, 379, 380, 
381, 382, 383, 384, 385, 386, 387, 388, 389, 390, 
391, 392, 393, 394, 395, 396, 397, 398, 399, 400, 
401, 402, 403, 404, 405, 406, 407, 408, 409, 410, 
411, 412, 413, 414, 415, 416, 417, 418, 419, 420, 
421, 422, 423, 424, 425, 426, 427, 428, 429, 430, 
431, 432, 433, 434, 435, 436, 437, 438, 439, 440, 
441, 442, 443, 444, 445, 446, 447, 448, 449, 450, 
451, 452, 453, 454, 455, 456, 457, 458, 459, 460, 
461, 462, 463, 464, 465, 466, 467, 468, 469, 470, 
471, 472, 473, 474, 475, 476, 477, 478, 479, 480, 
481, 482, 483, 484, 485, 486, 487, 488, 489, 490, 
491, 492, 493, 494, 495, 496, 497, 498, 499, 500, 
501, 502, 503, 504, 505, 506, 507, 508, 509, 510, 
511, 512, 513, 514, 515, 516, 517, 518, 519, 520, 
521, 522, 523, 524, 525, 526, 527, 528, 529, 530, 
531, 532, 533, 534, 535, 536, 537, 538, 
*NSET,NSET=domain
1, 2, 3, 4, 5, 6, 7, 8, 9, 10, 
11, 12, 13, 14, 15, 16, 17, 18, 19, 20, 
21, 22, 23, 24, 25, 26, 27, 28, 29, 30, 
31, 32, 33, 34, 35, 36, 37, 38, 39, 40, 
41, 42, 43, 44, 45, 46, 47, 48, 49, 50, 
51, 52, 53, 54, 55, 56, 57, 58, 59, 60, 
61, 62, 63, 64, 65, 66, 67, 68, 69, 70, 
71, 72, 73, 74, 75, 76, 77, 78, 79, 80, 
81, 82, 83, 84, 85, 86, 87, 88, 89, 90, 
91, 92, 93, 94, 95, 96, 97, 98, 99, 100, 
101, 102, 103, 104, 105, 106, 107, 108, 109, 110, 
111, 112, 113, 114, 115, 116, 117, 118, 119, 120, 
121, 122, 123, 124, 125, 126, 127, 128, 129, 130, 
131, 132, 133, 134, 135, 136, 137, 138, 139, 140, 
141, 142, 143, 144, 145, 146, 147, 148, 149, 150, 
151, 152, 153, 154, 155, 156, 157, 158, 159, 160, 
161, 162, 163, 164, 165, 166, 167, 168, 169, 170, 
171, 172, 173, 174, 175, 176, 177, 178, 179, 180, 
181, 182, 183, 184, 185, 186, 187, 188, 189, 190, 
191, 192, 193, 194, 195, 196, 197, 198, 199, 200, 
201, 202, 203, 204, 205, 206, 207, 208, 209, 210, 
211, 212, 213, 214, 215, 216, 217, 218, 219, 220, 
221, 222, 223, 224, 225, 226, 227, 228, 229, 230, 
231, 232, 233, 234, 235, 236, 237, 238, 239, 240, 
241, 242, 243, 244, 245, 246, 247, 248, 249, 250, 
251, 252, 253, 254, 255, 256, 257, 258, 259, 260, 
261, 262, 263, 264, 265, 266, 267, 268, 269, 270, 
271, 272, 273, 274, 275, 276, 277, 278, 279, 280, 
281, 282, 283, 284, 285, 286, 287, 288, 289, 290, 
291, 292, 293, 294, 295, 296, 297, 298, 299, 300, 
301, 302, 303, 304, 305, 306, 307, 308, 309, 310, 
311, 312, 313, 314, 315, 316, 317, 318, 319, 320, 
321, 322, 323, 324, 325, 326, 327, 328, 329, 330, 
331, 332, 333, 334, 335, 336, 337, 338, 339, 340, 
341, 342, 343, 344, 345, 346, 347, 348, 349, 350, 
351, 352, 353, 354, 355, 356, 357, 358, 359, 360, 
361, 362, 363, 364, 365, 366, 367, 368, 369, 370, 
371, 372, 373, 374, 375, 376, 377, 378, 379, 380, 
381, 382, 383, 384, 385, 386, 387, 388, 389, 390, 
391, 392, 393, 394, 395, 396, 397, 398, 399, 400, 
401, 402, 403, 404, 405, 406, 407, 408, 409, 410, 
411, 412, 413, 414, 415, 416, 417, 418, 419, 420, 
421, 422, 423, 424, 425, 426, 427, 428, 429, 430, 
431, 432, 433, 434, 435, 436, 437, 438, 439, 440, 
441, 442, 443, 444, 445, 446, 447, 448, 449, 450, 
451, 452, 453, 454, 455, 456, 457, 458, 459, 460, 
461, 462, 463, 464, 465, 466, 467, 468, 469, 470, 
471, 472, 473, 474, 475, 476, 477, 478, 479, 480, 
481, 482, 483, 484, 485, 486, 487, 488, 489, 490, 
491, 492, 493, 494, 495, 496, 497, 498, 499, 500, 
501, 502, 503, 504, 505, 506, 507, 508, 509, 510, 
511, 512, 513, 514, 515, 516, 517, 518, 519, 520, 
521, 522, 523, 524, 525, 526, 527, 528, 529, 530, 
531, 532, 533, 534, 535, 536, 537, 538, 539, 540, 
541, 542, 543, 544, 545, 546, 547, 548, 549, 550, 
551, 552, 553, 554, 555, 556, 557, 558, 559, 560, 
561, 562, 563, 564, 565, 566, 567, 568, 569, 570, 
571, 572, 573, 574, 575, 576, 577, 578, 579, 580, 
581, 582, 583, 584, 585, 586, 587, 588, 589, 590, 
591, 592, 593, 594, 595, 596, 597, 598, 599, 600, 
601, 602, 603, 604, 605, 606, 607, 608, 609, 610, 
611, 612, 613, 614, 615, 616, 617, 618, 619, 620, 
621, 622, 623, 624, 625, 626, 627, 628, 629, 630, 
631, 632, 633, 634, 635, 636, 637, 638, 639, 640, 
641, 642, 643, 644, 645, 646, 647, 648, 649, 650, 
651, 652, 653, 654, 655, 656, 657, 658, 659, 660, 
661, 662, 663, 664, 665, 666, 667, 668, 669, 670, 
671, 672, 673, 674, 675, 676, 677, 678, 679, 680, 
681, 682, 683, 684, 685, 686, 687, 688, 689, 690, 
691, 692, 693, 694, 695, 696, 697, 698, 699, 700, 
701, 702, 703, 704, 705, 706, 707, 708, 709, 710, 
711, 712, 713, 714, 715, 716, 717, 718, 719, 720, 
721, 722, 723, 724, 725, 726, 727, 728, 729, 730, 
731, 732, 733, 734, 735, 736, 737, 738, 739, 740, 
741, 742, 743, 744, 745, 746, 747, 748, 749, 750, 
751, 752, 753, 754, 755, 756, 757, 758, 759, 760, 
761, 762, 763, 764, 765, 766, 767, 768, 769, 770, 
771, 772, 773, 774, 775, 776, 777, 778, 779, 780, 
781, 782, 783, 784, 785, 786, 787, 788, 789, 790, 
791, 792, 793, 794, 795, 796, 797, 798, 799, 800, 
801, 802, 803, 804, 805, 806, 807, 808, 809, 810, 
811, 812, 813, 814, 815, 816, 817, 818, 819, 820, 
821, 822, 823, 824, 825, 826, 827, 828, 829, 830, 
831, 832, 833, 834, 835, 836, 837, 838, 839, 840, 
841, 842, 843, 844, 845, 846, 847, 848, 849, 850, 
851, 852, 853, 854, 855, 856, 857, 858, 859, 860, 
861, 862, 863, 864, 865, 866, 867, 868, 869, 870, 
871, 872, 873, 874, 875, 876, 877, 878, 879, 880, 
881, 882, 883, 884, 885, 886, 887, 888, 889, 890, 
891, 892, 893, 894, 895, 896, 897, 898, 899, 900, 
901, 902, 903, 904, 905, 906, 907, 908, 909, 910, 
911, 912, 913, 914, 915, 916, 917, 918, 919, 920, 
921, 922, 923, 924, 925, 926, 927, 928, 929, 930, 
931, 932, 933, 934, 935, 936, 937, 938, 939, 940, 
941, 942, 943, 944, 945, 946, 947, 948, 949, 950, 
951, 952, 953, 954, 955, 956, 957, 958, 959, 960, 
961, 962, 963, 964, 965, 966, 967, 968, 969, 970, 
971, 972, 973, 974, 975, 976, 977, 978, 979, 980, 
981, 982, 983, 984, 985, 986, 987, 988, 989, 990, 
991, 992, 993, 994, 995, 996, 997, 998, 999, 1000, 
1001, 1002, 1003, 1004, 1005, 1006, 1007, 1008, 1009, 1010, 
1011, 1012, 1013, 1014, 1015, 1016, 1017, 1018, 1019, 1020, 
1021, 1022, 1023, 1024, 1025, 1026, 1027, 1028, 1029, 1030, 
1031, 1032, 1033, 1034, 1035, 1036, 1037, 1038, 1039, 1040, 
1041, 1042, 1043, 1044, 1045, 1046, 1047, 1048, 1049, 1050, 
1051, 1052, 1053, 1054, 1055, 1056, 1057, 1058, 1059, 1060, 
1061, 1062, 1063, 1064, 1065, 1066, 1067, 1068, 1069, 1070, 
1071, 1072, 1073, 1074, 1075, 1076, 1077, 1078, 1079, 1080, 
1081, 1082, 1083, 1084, 1085, 1086, 1087, 1088, 1089, 1090, 
1091, 1092, 1093, 1094, 1095, 1096, 1097, 1098, 1099, 1100, 
1101, 1102, 1103, 1104, 1105, 1106, 1107, 1108, 1109, 1110, 
1111, 1112, 1113, 1114, 1115, 1116, 1117, 1118, 1119, 1120, 
1121, 1122, 1123, 1124, 1125, 1126, 1127, 1128, 1129, 1130, 
1131, 1132, 1133, 1134, 1135, 1136, 1137, 1138, 1139, 1140, 
1141, 1142, 1143, 1144, 1145, 1146, 1147, 1148, 1149, 1150, 
1151, 1152, 1153, 1154, 1155, 1156, 1157, 1158, 1159, 1160, 
1161, 1162, 1163, 1164, 1165, 1166, 1167, 1168, 1169, 1170, 
1171, 1172, 1173, 1174, 1175, 1176, 1177, 1178, 1179, 1180, 
1181, 1182, 1183, 1184, 1185, 1186, 1187, 1188, 1189, 1190, 
1191, 1192, 1193, 1194, 1195, 1196, 1197, 1198, 1199, 1200, 
1201, 1202, 1203, 1204, 1205, 1206, 1207, 1208, 1209, 1210, 
1211, 1212, 1213, 1214, 1215, 1216, 1217, 1218, 1219, 1220, 
1221, 1222, 1223, 1224, 1225, 1226, 1227, 1228, 1229, 1230, 
1231, 1232, 1233, 1234, 1235, 1236, 1237, 1238, 1239, 1240, 
1241, 1242, 1243, 1244, 1245, 1246, 1247, 1248, 1249, 1250, 
1251, 1252, 1253, 1254, 1255, 1256, 1257, 1258, 1259, 1260, 
1261, 1262, 1263, 1264, 1265, 1266, 1267, 1268, 1269, 1270, 
1271, 1272, 1273, 1274, 1275, 1276, 1277, 1278, 1279, 1280, 
1281, 1282, 1283, 1284, 1285, 1286, 1287, 1288, 1289, 1290, 
1291, 1292, 1293, 1294, 1295, 1296, 1297, 1298, 1299, 1300, 
1301, 1302, 1303, 1304, 1305, 1306, 1307, 1308, 1309, 1310, 
1311, 1312, 1313, 1314, 1315, 1316, 1317, 1318, 1319, 1320, 
1321, 1322, 1323, 1324, 1325, 1326, 1327, 1328, 1329, 1330, 
1331, 1332, 1333, 1334, 1335, 1336, 1337, 1338, 1339, 1340, 
1341, 1342, 1343, 1344, 1345, 1346, 1347, 1348, 1349, 1350, 
1351, 1352, 1353, 1354, 1355, 1356, 1357, 1358, 1359, 1360, 
1361, 1362, 1363, 1364, 1365, 1366, 1367, 1368, 1369, 1370, 
1371, 1372, 1373, 1374, 1375, 1376, 1377, 1378, 1379, 1380, 
1381, 1382, 1383, 1384, 1385, 1386, 1387, 1388, 1389, 1390, 
1391, 1392, 1393, 1394, 1395, 1396, 1397, 1398, 1399, 1400, 
1401, 1402, 1403, 1404, 1405, 1406, 1407, 1408, 1409, 1410, 
1411, 1412, 1413, 1414, 1415, 1416, 1417, 1418, 1419, 1420, 
1421, 1422, 1423, 1424, 1425, 1426, 1427, 1428, 1429, 1430, 
1431, 1432, 1433, 1434, 1435, 1436, 1437, 1438, 1439, 1440, 
1441, 1442, 1443, 1444, 1445, 1446, 1447, 1448, 1449, 1450, 
1451, 1452, 1453, 1454, 1455, 1456, 1457, 1458, 1459, 1460, 
1461, 1462, 1463, 1464, 1465, 1466, 1467, 1468, 1469, 1470, 
1471, 1472, 1473, 1474, 1475, 1476, 1477, 1478, 1479, 1480, 
1481, 1482, 1483, 1484, 1485, 1486, 1487, 1488, 1489, 1490, 
1491, 1492, 1493, 1494, 1495, 1496, 1497, 1498, 1499, 1500, 
1501, 1502, 1503, 1504, 1505, 1506, 1507, 1508, 1509, 1510, 
1511, 1512, 1513, 1514, 1515, 1516, 1517, 1518, 1519, 1520, 
1521, 1522, 1523, 1524, 1525, 1526, 1527, 1528, 1529, 1530, 
1531, 1532, 1533, 1534, 1535, 1536, 1537, 1538, 1539, 1540, 
1541, 1542, 1543, 1544, 1545, 1546, 1547, 1548, 1549, 1550, 
1551, 1552, 1553, 1554, 1555, 1556, 1557, 1558, 1559, 1560, 
1561, 1562, 1563, 1564, 1565, 1566, 1567, 1568, 1569, 1570, 
1571, 1572, 1573, 1574, 1575, 1576, 1577, 1578, 1579, 1580, 
1581, 1582, 1583, 1584, 1585, 1586, 1587, 1588, 1589, 1590, 
1591, 1592, 1593, 1594, 1595, 1596, 1597, 1598, 1599, 1600, 
1601, 1602, 1603, 1604, 1605, 1606, 1607, 1608, 1609, 1610, 
1611, 1612, 1613, 1614, 1615, 1616, 1617, 1618, 1619, 1620, 
1621, 1622, 1623, 1624, 1625, 1626, 1627, 1628, 1629, 1630, 
1631, 1632, 1633, 1634, 1635, 1636, 1637, 1638, 1639, 1640, 
1641, 1642, 1643, 1644, 1645, 1646, 1647, 1648, 1649, 1650, 
1651, 1652, 1653, 1654, 1655, 1656, 1657, 1658, 1659, 1660, 
1661, 1662, 1663, 1664, 1665, 1666, 1667, 1668, 1669, 1670, 
1671, 1672, 1673, 1674, 1675, 1676, 1677, 1678, 1679, 1680, 
1681, 1682, 1683, 1684, 1685, 1686, 1687, 1688, 1689, 1690, 
1691, 1692, 1693, 1694, 1695, 1696, 1697, 1698, 1699, 1700, 
1701, 1702, 1703, 1704, 1705, 1706, 1707, 1708, 1709, 1710, 
1711, 1712, 1713, 1714, 1715, 1716, 1717, 1718, 1719, 1720, 
1721, 1722, 1723, 1724, 1725, 1726, 1727, 1728, 1729, 1730, 
1731, 1732, 1733, 1734, 1735, 1736, 1737, 1738, 1739, 1740, 
1741, 1742, 1743, 1744, 1745, 1746, 1747, 1748, 1749, 1750, 
1751, 1752, 1753, 1754, 1755, 1756, 1757, 1758, 1759, 1760, 
1761, 1762, 1763, 1764, 1765, 1766, 1767, 1768, 1769, 1770, 
1771, 1772, 1773, 1774, 1775, 1776, 1777, 1778, 1779, 1780, 
1781, 1782, 1783, 1784, 1785, 1786, 1787, 1788, 1789, 1790, 
1791, 1792, 1793, 1794, 1795, 1796, 1797, 1798, 1799, 1800, 
1801, 1802, 1803, 1804, 1805, 1806, 1807, 1808, 1809, 1810, 
1811, 1812, 1813, 1814, 1815, 1816, 1817, 1818, 1819, 1820, 
1821, 1822, 1823, 1824, 1825, 1826, 1827, 1828, 1829, 1830, 
1831, 1832, 1833, 1834, 1835, 1836, 1837, 1838, 1839, 1840, 
1841, 1842, 1843, 1844, 1845, 1846, 1847, 1848, 1849, 1850, 
1851, 1852, 1853, 1854, 1855, 1856, 1857, 1858, 1859, 1860, 
1861, 1862, 1863, 1864, 1865, 1866, 1867, 1868, 1869, 1870, 
1871, 1872, 1873, 1874, 1875, 1876, 1877, 1878, 1879, 1880, 
1881, 1882, 1883, 1884, 1885, 1886, 1887, 1888, 1889, 1890, 
1891, 1892, 1893, 1894, 1895, 1896, 1897, 1898, 1899, 1900, 
1901, 1902, 1903, 1904, 1905, 1906, 1907, 1908, 1909, 1910, 
1911, 1912, 1913, 1914, 1915, 1916, 1917, 1918, 1919, 1920, 
1921, 1922, 1923, 1924, 1925, 1926, 1927, 1928, 1929, 1930, 
1931, 1932, 1933, 1934, 1935, 1936, 1937, 1938, 1939, 1940, 
1941, 1942, 1943, 1944, 1945, 1946, 1947, 1948, 1949, 1950, 
1951, 1952, 1953, 1954, 1955, 1956, 1957, 1958, 1959, 1960, 
1961, 1962, 1963, 1964, 1965, 1966, 1967, 1968, 1969, 1970, 
1971, 1972, 1973, 1974, 1975, 1976, 1977, 1978, 1979, 1980, 
1981, 1982, 1983, 1984, 1985, 1986, 1987, 1988, 1989, 1990, 
1991, 1992, 1993, 1994, 1995, 1996, 1997, 1998, 1999, 2000, 
2001, 2002, 2003, 2004, 2005, 2006, 2007, 2008, 2009, 2010, 
2011, 2012, 2013, 2014, 2015, 2016, 2017, 2018, 2019, 2020, 
2021, 2022, 2023, 2024, 2025, 2026, 2027, 2028, 2029, 2030, 
2031, 2032, 2033, 2034, 2035, 2036, 2037, 2038, 2039, 2040, 
2041, 2042, 2043, 2044, 2045, 2046, 2047, 2048, 2049, 2050, 
2051, 2052, 2053, 2054, 2055, 2056, 2057, 2058, 2059, 2060, 
2061, 2062, 2063, 2064, 2065, 2066, 2067, 2068, 2069, 2070, 
2071, 2072, 2073, 2074, 2075, 2076, 2077, 2078, 2079, 2080, 
2081, 2082, 2083, 2084, 2085, 2086, 2087, 2088, 2089, 2090, 
2091, 2092, 2093, 2094, 2095, 2096, 2097, 2098, 2099, 2100, 
2101, 2102, 2103, 2104, 2105, 2106, 2107, 2108, 2109, 2110, 
2111, 2112, 2113, 2114, 2115, 2116, 2117, 2118, 2119, 2120, 
2121, 2122, 2123, 2124, 2125, 2126, 2127, 2128, 2129, 2130, 
2131, 2132, 2133, 2134, 2135, 2136, 2137, 2138, 2139, 2140, 
2141, 2142, 2143, 2144, 2145, 2146, 2147, 2148, 2149, 2150, 
2151, 2152, 2153, 2154, 2155, 2156, 2157, 2158, 2159, 2160, 
2161, 2162, 2163, 2164, 2165, 2166, 2167, 2168, 2169, 2170, 
2171, 2172, 2173, 2174, 2175, 2176, 2177, 2178, 2179, 2180, 
2181, 2182, 2183, 2184, 2185, 2186, 2187, 2188, 2189, 2190, 
2191, 2192, 2193, 2194, 2195, 2196, 2197, 2198, 2199, 2200, 
2201, 2202, 2203, 2204, 2205, 2206, 2207, 2208, 2209, 2210, 
2211, 2212, 2213, 2214, 2215, 2216, 2217, 2218, 2219, 2220, 
2221, 2222, 2223, 2224, 2225, 2226, 2227, 2228, 2229, 2230, 
2231, 2232, 2233, 2234, 2235, 2236, 2237, 2238, 2239, 2240, 
2241, 2242, 2243, 2244, 2245, 2246, 2247, 2248, 2249, 2250, 
2251, 2252, 2253, 2254, 2255, 2256, 2257, 2258, 2259, 2260, 
2261, 2262, 2263, 2264, 2265, 2266, 2267, 2268, 2269, 2270, 
2271, 2272, 2273, 2274, 2275, 2276, 2277, 2278, 2279, 2280, 
2281, 2282, 2283, 2284, 2285, 2286, 2287, 2288, 2289, 2290, 
2291, 2292, 2293, 2294, 2295, 2296, 2297, 2298, 2299, 2300, 
2301, 2302, 2303, 2304, 2305, 2306, 2307, 2308, 2309, 2310, 
2311, 2312, 2313, 2314, 2315, 2316, 2317, 2318, 2319, 2320, 
2321, 2322, 2323, 2324, 2325, 2326, 2327, 2328, 2329, 2330, 
2331, 2332, 2333, 2334, 2335, 2336, 2337, 2338, 2339, 2340, 
2341, 2342, 2343, 2344, 2345, 2346, 2347, 2348, 2349, 2350, 
2351, 2352, 2353, 2354, 2355, 2356, 2357, 2358, 2359, 2360, 
2361, 2362, 2363, 2364, 2365, 2366, 2367, 2368, 2369, 2370, 
2371, 2372, 2373, 2374, 2375, 2376, 2377, 2378, 2379, 2380, 
2381, 2382, 2383, 2384, 2385, 2386, 2387, 2388, 2389, 2390, 
2391, 2392, 2393, 2394, 2395, 2396, 2397, 2398, 2399, 2400, 
2401, 2402, 2403, 2404, 2405, 2406, 2407, 2408, 2409, 2410, 
2411, 2412, 2413, 2414, 2415, 2416, 2417, 2418, 2419, 2420, 
2421, 2422, 2423, 2424, 2425, 2426, 2427, 2428, 2429, 2430, 
2431, 2432, 2433, 2434, 2435, 2436, 2437, 2438, 2439, 2440, 
2441, 2442, 2443, 2444, 2445, 2446, 2447, 2448, 2449, 2450, 
2451, 2452, 2453, 2454, 2455, 2456, 2457, 2458, 2459, 2460, 
2461, 2462, 2463, 2464, 2465, 2466, 2467, 2468, 2469, 2470, 
2471, 2472, 2473, 2474, 2475, 2476, 2477, 2478, 2479, 2480, 
2481, 2482, 2483, 2484, 2485, 2486, 2487, 2488, 2489, 2490, 
2491, 2492, 2493, 2494, 2495, 2496, 2497, 2498, 2499, 2500, 
2501, 2502, 2503, 2504, 2505, 2506, 2507, 2508, 2509, 2510, 
2511, 2512, 2513, 2514, 2515, 2516, 2517, 2518, 2519, 2520, 
2521, 2522, 2523, 2524, 2525, 2526, 2527, 2528, 2529, 2530, 
2531, 2532, 2533, 2534, 2535, 2536, 2537, 2538, 2539, 2540, 
2541, 2542, 2543, 2544, 2545, 2546, 2547, 2548, 2549, 2550, 
2551, 2552, 2553, 2554, 2555, 2556, 2557, 2558, 2559, 2560, 
2561, 2562, 2563, 2564, 2565, 2566, 2567, 2568, 2569, 2570, 
2571, 2572, 2573, 2574, 2575, 2576, 2577, 2578, 2579, 2580, 
2581, 2582, 2583, 2584, 2585, 2586, 2587, 2588, 2589, 2590, 
2591, 2592, 2593, 2594, 2595, 2596, 2597, 2598, 2599, 2600, 
2601, 2602, 2603, 2604, 2605, 2606, 2607, 2608, 2609, 2610, 
2611, 2612, 2613, 2614, 2615, 2616, 2617, 2618, 2619, 2620, 
2621, 2622, 2623, 2624, 2625, 2626, 2627, 2628, 2629, 2630, 
2631, 2632, 2633, 2634, 2635, 2636, 2637, 2638, 2639, 2640, 
2641, 2642, 2643, 2644, 2645, 2646, 2647, 2648, 2649, 2650, 
2651, 2652, 2653, 2654, 2655, 2656, 2657, 2658, 2659, 2660, 
2661, 2662, 2663, 2664, 2665, 2666, 2667, 2668, 2669, 2670, 
2671, 2672, 2673, 2674, 2675, 2676, 2677, 2678, 2679, 2680, 
2681, 2682, 2683, 2684, 2685, 2686, 2687, 2688, 2689, 2690, 
2691, 2692, 2693, 2694, 2695, 2696, 2697, 2698, 2699, 2700, 
2701, 2702, 2703, 2704, 2705, 2706, 2707, 2708, 2709, 2710, 
2711, 2712, 2713, 2714, 2715, 2716, 2717, 2718, 2719, 2720, 
2721, 2722, 2723, 2724, 2725, 2726, 2727, 2728, 2729, 2730, 
2731, 2732, 2733, 2734, 2735, 2736, 2737, 2738, 2739, 2740, 
2741, 2742, 2743, 2744, 2745, 2746, 2747, 2748, 2749, 2750, 
2751, 2752, 2753, 2754, 2755, 2756, 2757, 2758, 2759, 2760, 
2761, 2762, 2763, 2764, 2765, 2766, 2767, 2768, 2769, 2770, 
2771, 2772, 2773, 2774, 2775, 2776, 2777, 2778, 2779, 2780, 
2781, 2782, 2783, 2784, 2785, 2786, 2787, 2788, 2789, 2790, 
2791, 2792, 2793, 2794, 2795, 2796, 2797, 2798, 2799, 2800, 
2801, 2802, 2803, 2804, 2805, 2806, 2807, 2808, 2809, 2810, 
2811, 2812, 2813, 2814, 2815, 2816, 2817, 2818, 2819, 2820, 
2821, 2822, 2823, 2824, 2825, 2826, 2827, 2828, 2829, 2830, 
2831, 2832, 2833, 2834, 2835, 2836, 2837, 2838, 2839, 2840, 
2841, 2842, 2843, 2844, 2845, 2846, 2847, 2848, 2849, 2850, 
2851, 2852, 2853, 2854, 2855, 2856, 2857, 2858, 2859, 2860, 
2861, 2862, 2863, 2864, 2865, 2866, 2867, 2868, 2869, 2870, 
2871, 2872, 2873, 2874, 2875, 2876, 2877, 2878, 2879, 2880, 
2881, 2882, 2883, 2884, 2885, 2886, 2887, 2888, 2889, 2890, 
2891, 2892, 2893, 2894, 2895, 2896, 2897, 2898, 2899, 2900, 
2901, 2902, 2903, 2904, 2905, 2906, 2907, 2908, 2909, 2910, 
2911, 2912, 2913, 2914, 2915, 2916, 2917, 2918, 2919, 2920, 
2921, 2922, 2923, 2924, 2925, 2926, 2927, 2928, 2929, 2930, 
2931, 2932, 2933, 2934, 2935, 2936, 2937, 2938, 2939, 2940, 
2941, 2942, 2943, 2944, 2945, 2946, 2947, 2948, 2949, 2950, 
2951, 2952, 2953, 2954, 2955, 2956, 2957, 2958, 2959, 2960, 
2961, 2962, 2963, 2964, 2965, 2966, 2967, 2968, 2969, 2970, 
2971, 2972, 2973, 2974, 2975, 2976, 2977, 2978, 2979, 2980, 
2981, 2982, 2983, 2984, 2985, 2986, 2987, 2988, 2989, 2990, 
2991, 2992, 2993, 2994, 2995, 2996, 2997, 2998, 2999, 3000, 
3001, 3002, 3003, 3004, 3005, 3006, 3007, 3008, 3009, 3010, 
3011, 3012, 3013, 3014, 3015, 3016, 3017, 3018, 3019, 3020, 
3021, 3022, 3023, 3024, 3025, 3026, 3027, 3028, 3029, 3030, 
3031, 3032, 3033, 3034, 3035, 3036, 3037, 3038, 3039, 3040, 
3041, 3042, 3043, 3044, 3045, 3046, 3047, 3048, 3049, 3050, 
3051, 3052, 3053, 3054, 3055, 3056, 3057, 3058, 3059, 3060, 
3061, 3062, 3063, 3064, 3065, 3066, 3067, 3068, 3069, 3070, 
3071, 3072, 3073, 3074, 3075, 3076, 3077, 3078, 3079, 3080, 
3081, 3082, 3083, 3084, 3085, 3086, 3087, 3088, 3089, 3090, 
3091, 3092, 3093, 3094, 3095, 3096, 3097, 3098, 3099, 3100, 
3101, 3102, 3103, 3104, 3105, 3106, 3107, 3108, 3109, 3110, 
3111, 3112, 3113, 3114, 3115, 3116, 3117, 3118, 3119, 3120, 
3121, 3122, 3123, 3124, 3125, 3126, 3127, 3128, 3129, 
