*Heading
 /Users/juliagao/geometry-optimization-net/scripts/../runs/fourier/shape_9.inp
*NODE
1, 0, -0.3, 0
2, 0.425, -0.3, 0
3, 0.575, -0.3, 0
4, 1, -0.3, 0
5, 1, 0.3, 0
6, 0.575, 0.3, 0
7, 0.425, 0.3, 0
8, 0, 0.3, 0
9, 0.7173325329, 0.0468104457, 0
10, 0.024491191300706, -0.3, 0
11, 0.074425768798398, -0.3, 0
12, 0.12617433337847, -0.3, 0
13, 0.17879908924782, -0.3, 0
14, 0.23102769918501, -0.3, 0
15, 0.28169826231132, -0.3, 0
16, 0.3288764724939, -0.3, 0
17, 0.3707063155538, -0.3, 0
18, 0.40755973955325, -0.3, 0
19, 0.048982382601412, -0.3, 0
20, 0.099869154995385, -0.3, 0
21, 0.15247951176155, -0.3, 0
22, 0.20511866673408, -0.3, 0
23, 0.25693673163593, -0.3, 0
24, 0.30645979298671, -0.3, 0
25, 0.35129315200109, -0.3, 0
26, 0.39011947910651, -0.3, 0
27, 0.44018423347328, -0.3, 0
28, 0.46951954971286, -0.3, 0
29, 0.49766893211124, -0.3, 0
30, 0.52661232456308, -0.3, 0
31, 0.55827870869141, -0.3, 0
32, 0.45536846694656, -0.3, 0
33, 0.48367063247915, -0.3, 0
34, 0.51166723174333, -0.3, 0
35, 0.54155741738282, -0.3, 0
36, 0.59730370348925, -0.3, 0
37, 0.64427916579688, -0.3, 0
38, 0.69499378505109, -0.3, 0
39, 0.74775208854576, -0.3, 0
40, 0.80213986984407, -0.3, 0
41, 0.85869106742306, -0.3, 0
42, 0.91637981294735, -0.3, 0
43, 0.97259484956606, -0.3, 0
44, 0.61960740697849, -0.3, 0
45, 0.66895092461526, -0.3, 0
46, 0.72103664548692, -0.3, 0
47, 0.77446753160461, -0.3, 0
48, 0.82981220808354, -0.3, 0
49, 0.88756992676258, -0.3, 0
50, 0.94518969913212, -0.3, 0
51, 1, -0.27357928630192, 0
52, 1, -0.22033321135824, 0
53, 1, -0.16586567586769, 0
54, 1, -0.11091027450034, 0
55, 1, -0.056413218951771, 0
56, 1, -0.0013678939971181, 0
57, 1, 0.05402908291944, 0
58, 1, 0.10901269025645, 0
59, 1, 0.16415046047603, 0
60, 1, 0.2190742561141, 0
61, 1, 0.27315420424076, 0
62, 1, -0.24715857260383, 0
63, 1, -0.19350785011265, 0
64, 1, -0.13822350162274, 0
65, 1, -0.083597047377944, 0
66, 1, -0.029229390525597, 0
67, 1, 0.026493602531361, 0
68, 1, 0.081564563307518, 0
69, 1, 0.13646081720537, 0
70, 1, 0.19184010374669, 0
71, 1, 0.24630840848151, 0
72, 0.97481521301523, 0.3, 0
73, 0.92376341118884, 0.3, 0
74, 0.87169711899578, 0.3, 0
75, 0.81980957501049, 0.3, 0
76, 0.77016019616991, 0.3, 0
77, 0.72486400649762, 0.3, 0
78, 0.68538303646087, 0.3, 0
79, 0.65248545292532, 0.3, 0
80, 0.62563614784841, 0.3, 0
81, 0.60327627238191, 0.3, 0
82, 0.58400700551399, 0.3, 0
83, 0.94963042603045, 0.3, 0
84, 0.89789639634724, 0.3, 0
85, 0.84549784164432, 0.3, 0
86, 0.79412130837667, 0.3, 0
87, 0.74619908396315, 0.3, 0
88, 0.70352892903208, 0.3, 0
89, 0.66723714388965, 0.3, 0
90, 0.637733761961, 0.3, 0
91, 0.61353853373583, 0.3, 0
92, 0.59301401102799, 0.3, 0
93, 0.56649268847743, 0.3, 0
94, 0.55057344120892, 0.3, 0
95, 0.53618783782273, 0.3, 0
96, 0.52242908852422, 0.3, 0
97, 0.50909916676664, 0.3, 0
98, 0.49616380492597, 0.3, 0
99, 0.48303299467679, 0.3, 0
100, 0.46875176744761, 0.3, 0
101, 0.45272979981767, 0.3, 0
102, 0.43462438545454, 0.3, 0
103, 0.55798537695487, 0.3, 0
104, 0.54316150546297, 0.3, 0
105, 0.52921417018249, 0.3, 0
106, 0.51564400686596, 0.3, 0
107, 0.50255432666732, 0.3, 0
108, 0.48977328318463, 0.3, 0
109, 0.47629270616895, 0.3, 0
110, 0.46121082872626, 0.3, 0
111, 0.44424877090909, 0.3, 0
112, 0.41506579465192, 0.3, 0
113, 0.39404001590711, 0.3, 0
114, 0.37016502644721, 0.3, 0
115, 0.34197198595082, 0.3, 0
116, 0.3079206487481, 0.3, 0
117, 0.26804306349139, 0.3, 0
118, 0.22341657346306, 0.3, 0
119, 0.17484444960784, 0.3, 0
120, 0.12406617493772, 0.3, 0
121, 0.073586411594293, 0.3, 0
122, 0.024351708303445, 0.3, 0
123, 0.40513158930384, 0.3, 0
124, 0.38294844251038, 0.3, 0
125, 0.35738161038404, 0.3, 0
126, 0.32656236151761, 0.3, 0
127, 0.2892789359786, 0.3, 0
128, 0.24680719100418, 0.3, 0
129, 0.20002595592194, 0.3, 0
130, 0.14966294329374, 0.3, 0
131, 0.098469406581696, 0.3, 0
132, 0.04870341660689, 0.3, 0
133, 0, 0.27461743044979, 0
134, 0, 0.22310050740458, 0
135, 0, 0.16974500520585, 0
136, 0, 0.11469376134391, 0
137, 0, 0.058448641848754, 0
138, 0, 0.0013509746825038, 0
139, 0, -0.055803294152696, 0
140, 0, -0.11239124730529, 0
141, 0, -0.16814430473264, 0
142, 0, -0.22233306855526, 0
143, 0, -0.27444255104861, 0
144, 0, 0.24923486089957, 0
145, 0, 0.19696615390959, 0
146, 0, 0.1425238565021, 0
147, 0, 0.08686366618571, 0
148, 0, 0.030033617511798, 0
149, 0, -0.02733166814679, 0
150, 0, -0.084274920158602, 0
151, 0, -0.14050757445199, 0
152, 0, -0.19578103501329, 0
153, 0, -0.24888510209723, 0
154, 0.71766819308343, 0.050665397479542, 0
155, 0.716120942834, 0.035369540280334, 0
156, 0.71521832812023, 0.027926635350894, 0
157, 0.71427859920771, 0.020556878567051, 0
158, 0.71330457169564, 0.0130896755009, 0
159, 0.71227823274609, 0.00530461061147, 0
160, 0.71121127948024, -0.0026785837383458, 0
161, 0.71011500350337, -0.01062579510991, 0
162, 0.70895698823728, -0.018531621356907, 0
163, 0.70769218427915, -0.026408296540245, 0
164, 0.70629615804656, -0.034122733746942, 0
165, 0.70472629281203, -0.041676683321647, 0
166, 0.70288803736813, -0.049280670377543, 0
167, 0.70070297074267, -0.056979490355416, 0
168, 0.69814261662642, -0.064633871903038, 0
169, 0.6952062134271, -0.072096683941254, 0
170, 0.6919387383779, -0.079202053190707, 0
171, 0.68836208493163, -0.085915218620336, 0
172, 0.68436914326041, -0.092426872265587, 0
173, 0.67982558229951, -0.098880651862278, 0
174, 0.67478602667587, -0.10512759515761, 0
175, 0.66945761113295, -0.11092431344309, 0
176, 0.66389720114933, -0.11627602746805, 0
177, 0.65810590872817, -0.12124512652311, 0
178, 0.65210785104787, -0.12586681993362, 0
179, 0.64585880190594, -0.1302219118983, 0
180, 0.63928749426582, -0.13439296012728, 0
181, 0.63248151293746, -0.13836073709891, 0
182, 0.62561819735085, -0.14207806861932, 0
183, 0.61858275111775, -0.14566420347185, 0
184, 0.61132989179292, -0.14918916643869, 0
185, 0.60405219535206, -0.15260812808005, 0
186, 0.59694817112018, -0.15587601194891, 0
187, 0.59001166872218, -0.15903107638752, 0
188, 0.58307582237554, -0.16216801900406, 0
189, 0.57613180053434, -0.16529553390722, 0
190, 0.56916948682293, -0.16841026375399, 0
191, 0.56208775148227, -0.17153688475487, 0
192, 0.55497002186474, -0.17460704187362, 0
193, 0.54794974488342, -0.17752808646642, 0
194, 0.54097866729326, -0.18028535929727, 0
195, 0.53392390662531, -0.18289188145199, 0
196, 0.52664062652289, -0.18535005878964, 0
197, 0.51914544111873, -0.18759490861591, 0
198, 0.51156438417466, -0.18953668714855, 0
199, 0.50399320168341, -0.19111583349773, 0
200, 0.49642956333221, -0.19230883998749, 0
201, 0.48863034730362, -0.19311416989171, 0
202, 0.48058342809818, -0.19347254093727, 0
203, 0.47269357288526, -0.19334055949688, 0
204, 0.46509338765681, -0.19274695955521, 0
205, 0.45759194010307, -0.1917009438924, 0
206, 0.45004272227926, -0.19017725870585, 0
207, 0.44245473404271, -0.1881618425144, 0
208, 0.43495608437413, -0.18568834450975, 0
209, 0.42749598066022, -0.18275052766343, 0
210, 0.4200987667754, -0.17937043127948, 0
211, 0.41299324065536, -0.17569364324014, 0
212, 0.40605103021442, -0.17170804491392, 0
213, 0.39926651599844, -0.16745668775024, 0
214, 0.39269240317124, -0.16302530813841, 0
215, 0.38615447679067, -0.15834245181551, 0
216, 0.37971879786301, -0.15349495491738, 0
217, 0.37351871733029, -0.14863055461806, 0
218, 0.36759017371572, -0.14382368749597, 0
219, 0.36180165489127, -0.13899886787758, 0
220, 0.35599112276997, -0.13403147366689, 0
221, 0.35017208237653, -0.12892759981411, 0
222, 0.34438621187815, -0.12370715441352, 0
223, 0.33880344781985, -0.11850199510681, 0
224, 0.33342731534308, -0.11329180462604, 0
225, 0.32809094084339, -0.1078728565142, 0
226, 0.32286866311869, -0.10225980693396, 0
227, 0.31787137935207, -0.096513322640759, 0
228, 0.31314616691815, -0.090636008070286, 0
229, 0.30870375695087, -0.084588916948124, 0
230, 0.30455478580058, -0.078326554271672, 0
231, 0.30074714350407, -0.071858869181712, 0
232, 0.29729268089643, -0.06513956911842, 0
233, 0.29423076876048, -0.058170583378425, 0
234, 0.29162605473418, -0.051048073452032, 0
235, 0.28948875624328, -0.043781785455206, 0
236, 0.28783300813929, -0.036431708265626, 0
237, 0.2866471002065, -0.02899669042371, 0
238, 0.28590240349343, -0.021237806067807, 0
239, 0.28562655709101, -0.013188730807353, 0
240, 0.28581236305679, -0.0052623333644062, 0
241, 0.28639230825589, 0.002455295867804, 0
242, 0.28732391455866, 0.010153496271049, 0
243, 0.28859067309628, 0.017992963978806, 0
244, 0.29014528205663, 0.025914856395269, 0
245, 0.29188228757606, 0.033686983174538, 0
246, 0.29374605465661, 0.041370621046537, 0
247, 0.29567631889412, 0.048985262495249, 0
248, 0.29756551113833, 0.056344462624899, 0
249, 0.29938630827739, 0.063525995625954, 0
250, 0.30115838100394, 0.070736185705948, 0
251, 0.30288543814244, 0.078072498042066, 0
252, 0.30460831180126, 0.085735504596274, 0
253, 0.3063475782733, 0.093749956059273, 0
254, 0.30808234430042, 0.10180144604946, 0
255, 0.30983538886684, 0.10967217512521, 0
256, 0.31169592335778, 0.11742507271244, 0
257, 0.31374803429758, 0.1250890136557, 0
258, 0.3160637173743, 0.1326491203586, 0
259, 0.31872425543795, 0.14012706120228, 0
260, 0.32174510895677, 0.1473888560461, 0
261, 0.32514915090052, 0.15438914438793, 0
262, 0.32899677896791, 0.16117803734166, 0
263, 0.3332566295203, 0.16765847303839, 0
264, 0.33784115427542, 0.17371949285439, 0
265, 0.34272107528705, 0.17937958473469, 0
266, 0.34795465503375, 0.1847520728624, 0
267, 0.35357614162629, 0.18990093441627, 0
268, 0.35945781981826, 0.19475671540937, 0
269, 0.36553035498301, 0.19933595516081, 0
270, 0.37182412466377, 0.20373721456826, 0
271, 0.37831243425265, 0.20801705819599, 0
272, 0.38495555763742, 0.21222955445865, 0
273, 0.3915708908404, 0.21634249473251, 0
274, 0.39803249953896, 0.22035129177482, 0
275, 0.40448408066277, 0.22439706031099, 0
276, 0.41096500846172, 0.22853522426916, 0
277, 0.41738814835022, 0.23271546034063, 0
278, 0.42375435649747, 0.23691685839563, 0
279, 0.43016874131679, 0.24116655309529, 0
280, 0.43661439182903, 0.24539427545036, 0
281, 0.44292223554049, 0.24942462722837, 0
282, 0.44916372917512, 0.2532448667101, 0
283, 0.45556477301558, 0.25692943898445, 0
284, 0.46221995625493, 0.26045367997298, 0
285, 0.4690707669149, 0.26370513090933, 0
286, 0.47607488069197, 0.26659268065842, 0
287, 0.48337489077126, 0.26909697616887, 0
288, 0.4910123086194, 0.27113439292436, 0
289, 0.49877779766096, 0.27256865682651, 0
290, 0.5065333645835, 0.2733362508165, 0
291, 0.51423478857597, 0.2734187526188, 0
292, 0.52188612446063, 0.27280701650124, 0
293, 0.5294881705426, 0.27148943464317, 0
294, 0.53690027164788, 0.2694967159946, 0
295, 0.54403682668154, 0.2668900911717, 0
296, 0.5509394094465, 0.26370028340751, 0
297, 0.55762288404076, 0.25996158051021, 0
298, 0.56404939699965, 0.25574574182324, 0
299, 0.57013616117901, 0.25118404938312, 0
300, 0.57590466752044, 0.2463567785225, 0
301, 0.58147224639583, 0.24125693469313, 0
302, 0.58691784411515, 0.23589760430342, 0
303, 0.5922848851319, 0.23033207573836, 0
304, 0.59758601082752, 0.22466363356077, 0
305, 0.60283629961694, 0.21900943241808, 0
306, 0.60801506156113, 0.21352537281631, 0
307, 0.61322683934946, 0.20821740334641, 0
308, 0.61867964504064, 0.20297903393921, 0
309, 0.62434023280918, 0.19792242180717, 0
310, 0.63012624231164, 0.19313991282773, 0
311, 0.63611510723594, 0.18853714191951, 0
312, 0.64232737605803, 0.1840377229086, 0
313, 0.64871426081722, 0.17958572341351, 0
314, 0.65526908197082, 0.17507219265356, 0
315, 0.66181695180644, 0.17049152881625, 0
316, 0.66804142534761, 0.16595267927023, 0
317, 0.6739938315443, 0.16133356434427, 0
318, 0.67986111924819, 0.15639701008498, 0
319, 0.68552731506418, 0.15113555220132, 0
320, 0.69086721712796, 0.1455776951076, 0
321, 0.69596943478872, 0.13952826808603, 0
322, 0.70074260304045, 0.13295667797561, 0
323, 0.70496825447476, 0.12607037594109, 0
324, 0.708609317195, 0.11890770730019, 0
325, 0.71164825777584, 0.11151421260259, 0
326, 0.71406294425548, 0.10402372801739, 0
327, 0.71589431241879, 0.096474922593863, 0
328, 0.71719617530461, 0.088871635641576, 0
329, 0.7180215240741, 0.081210922593156, 0
330, 0.71842153745069, 0.073513277906766, 0
331, 0.71845346649193, 0.065879775205841, 0
332, 0.71818466471555, 0.05830655030293, 0
333, 0.7169567047826, 0.042962853405489, 0
334, 0.71795619661424, 0.054524218051419, 0
335, 0.71835284333213, 0.06209206165552, 0
336, 0.71847928376126, 0.069668760974941, 0
337, 0.71827181735817, 0.077355341431845, 0
338, 0.71766412180491, 0.085058086062219, 0
339, 0.7166099952838, 0.092668842533388, 0
340, 0.7150486423502, 0.10025427917377, 0
341, 0.71293915884351, 0.10775436525542, 0
342, 0.71021110308725, 0.11522063875951, 0
343, 0.70686025542339, 0.12252723658445, 0
344, 0.70293624453865, 0.12953510287376, 0
345, 0.69841697766271, 0.13628991674161, 0
346, 0.69340468503437, 0.14267455845275, 0
347, 0.68823824223128, 0.14839818666211, 0
348, 0.68273948663405, 0.15379450737093, 0
349, 0.67691942380702, 0.15892765944759, 0
350, 0.67102142981204, 0.16368134778299, 0
351, 0.66502823957985, 0.16817976666192, 0
352, 0.65858275805851, 0.17277110099304, 0
353, 0.65194679846932, 0.17736082460257, 0
354, 0.64548819970888, 0.18182001370828, 0
355, 0.63918685088175, 0.18628411527887, 0
356, 0.63307591654599, 0.1908339273456, 0
357, 0.62721788787021, 0.19549782100133, 0
358, 0.62150973213112, 0.20040190894631, 0
359, 0.61589747512858, 0.20560779393465, 0
360, 0.61059454830027, 0.21086565764372, 0
361, 0.6054615074558, 0.21620997311783, 0
362, 0.60022311576991, 0.22182010761046, 0
363, 0.59494384415351, 0.22750246155585, 0
364, 0.58960416355955, 0.23314110070509, 0
365, 0.58419551044238, 0.23861857730453, 0
366, 0.57870208163628, 0.24384604510988, 0
367, 0.57305180197573, 0.24880436987103, 0
368, 0.56715803900486, 0.25348511229503, 0
369, 0.56087120651669, 0.25790757469131, 0
370, 0.55430393834318, 0.26189947975541, 0
371, 0.54750781619401, 0.26536983464228, 0
372, 0.54050600259434, 0.26826576920285, 0
373, 0.53324413097261, 0.27056881175901, 0
374, 0.52569400177538, 0.27223723693611, 0
375, 0.51805609452013, 0.27320127991623, 0
376, 0.51040758392839, 0.27346386594507, 0
377, 0.50266855701887, 0.2730381567937, 0
378, 0.49491024183817, 0.27193611154471, 0
379, 0.48714899282972, 0.27017990290561, 0
380, 0.47964111738563, 0.26788241029818, 0
381, 0.47254898878826, 0.2651965220786, 0
382, 0.46563253752139, 0.26212380044577, 0
383, 0.45884505286038, 0.2587087382752, 0
384, 0.45231639942556, 0.25509258127439, 0
385, 0.44603607880156, 0.25135513981767, 0
386, 0.43982703498833, 0.24746438462661, 0
387, 0.43341428347294, 0.2433048554066, 0
388, 0.42692809536727, 0.23902084276122, 0
389, 0.42057861566793, 0.23481589536982, 0
390, 0.41419086451605, 0.23062541233671, 0
391, 0.40772996479774, 0.22645928285604, 0
392, 0.40122966494239, 0.22234833026404, 0
393, 0.39483048697428, 0.21836203766051, 0
394, 0.38831212653211, 0.21432160896486, 0
395, 0.38160832361567, 0.21012258425474, 0
396, 0.375035625754, 0.20588193233479, 0
397, 0.36864204823999, 0.20154904150106, 0
398, 0.36245883828027, 0.19706739608722, 0
399, 0.35650812577898, 0.19238082351002, 0
400, 0.35070938579117, 0.18734588020024, 0
401, 0.34527508570046, 0.18208065881918, 0
402, 0.34024990434177, 0.17660250123272, 0
403, 0.33552569689262, 0.17076102567249, 0
404, 0.33109167620421, 0.16448239520631, 0
405, 0.32701283564374, 0.15780590753427, 0
406, 0.32339414907851, 0.150915326596, 0
407, 0.32019946614538, 0.14381588563575, 0
408, 0.31734697490789, 0.13640059876013, 0
409, 0.31486462130816, 0.12886993210793, 0
410, 0.31269873409295, 0.12128889925452, 0
411, 0.3107438588078, 0.11354845230587, 0
412, 0.30895845214712, 0.10578865621321, 0
413, 0.30722000813441, 0.097811240458092, 0
414, 0.30547168723494, 0.08968941552966, 0
415, 0.30372948524354, 0.081784996086706, 0
416, 0.30202245466087, 0.074364354952608, 0
417, 0.30027622655485, 0.067112371019442, 0
418, 0.29848306250425, 0.059942955423046, 0
419, 0.29664241661327, 0.0527473889709, 0
420, 0.29471571739732, 0.045221727272388, 0
421, 0.29279633471511, 0.037514541536103, 0
422, 0.2910025837984, 0.029851374295225, 0
423, 0.28933962037894, 0.021967428393233, 0
424, 0.28790934082353, 0.014006330251133, 0
425, 0.28681482364711, 0.0062898141492551, 0
426, 0.28605670733584, -0.0013878251862608, 0
427, 0.28566713758984, -0.0091418424263619, 0
428, 0.28570433753246, -0.017235099698812, 0
429, 0.28622494897602, -0.025232430557352, 0
430, 0.28718544885549, -0.032746109951451, 0
431, 0.28859634038022, -0.040095087293723, 0
432, 0.29050013967466, -0.047437637974258, 0
433, 0.29286776034608, -0.054620335011848, 0
434, 0.2957058851828, -0.061675724501934, 0
435, 0.29898480451706, -0.068553183453877, 0
436, 0.30260285289883, -0.075113039533547, 0
437, 0.30659137829172, -0.081487072188311, 0
438, 0.31089066519568, -0.087638650757241, 0
439, 0.31546627982363, -0.09358361434969, 0
440, 0.32033263097174, -0.099395997094145, 0
441, 0.32545244484022, -0.10508059182741, 0
442, 0.33076896468742, -0.110627216833, 0
443, 0.33611646345152, -0.11592529630289, 0
444, 0.34151480137806, -0.12105303130021, 0
445, 0.34727942712247, -0.12633748604169, 0
446, 0.35308270916785, -0.13149749864326, 0
447, 0.35891546472544, -0.13654704837008, 0
448, 0.36470299094836, -0.14143274620007, 0
449, 0.37049327185463, -0.14619528143148, 0
450, 0.37656353643753, -0.15104156703601, 0
451, 0.38289805162885, -0.15591718193304, 0
452, 0.3894399757145, -0.16072820383418, 0
453, 0.39597708940148, -0.16527606315798, 0
454, 0.40259149063739, -0.16958274045388, 0
455, 0.40955153155948, -0.17376521931507, 0
456, 0.41647566521762, -0.17754756760757, 0
457, 0.42376558944436, -0.18110371367404, 0
458, 0.43126952164787, -0.18429595923514, 0
459, 0.43868025213259, -0.18697682237041, 0
460, 0.44626274480788, -0.18923429462411, 0
461, 0.45384955241904, -0.19100522762312, 0
462, 0.4613536389114, -0.19228329922344, 0
463, 0.46884538421329, -0.19309797030777, 0
464, 0.47654736031849, -0.19346575834229, 0
465, 0.48461774991557, -0.19335401165677, 0
466, 0.49263409462114, -0.19275590431229, 0
467, 0.50021189367909, -0.19176174437656, 0
468, 0.50775751370675, -0.19037737840435, 0
469, 0.51535123469313, -0.18861005734004, 0
470, 0.5229183253448, -0.18650324355086, 0
471, 0.53034237319778, -0.18413255641519, 0
472, 0.53748752711209, -0.18160069051755, 0
473, 0.54445472659983, -0.17893070090582, 0
474, 0.55143226281128, -0.17609473502076, 0
475, 0.55849809284973, -0.17309652931906, 0
476, 0.56567071403441, -0.16996192528194, 0
477, 0.57266456243953, -0.16685029525878, 0
478, 0.57959716444231, -0.16373660064721, 0
479, 0.58655329313016, -0.16059680732891, 0
480, 0.5934684131171, -0.15746174692504, 0
481, 0.60042464144682, -0.15428307978945, 0
482, 0.60767303990888, -0.15091871384943, 0
483, 0.61497526720769, -0.14743554421749, 0
484, 0.62217313424899, -0.14385842954947, 0
485, 0.62904102499042, -0.14025529822171, 0
486, 0.63589178348381, -0.13641227469009, 0
487, 0.6426440995019, -0.132309250616, 0
488, 0.64902796275301, -0.1280660212255, 0
489, 0.65513441397501, -0.12359476011403, 0
490, 0.66101474125056, -0.11881832181577, 0
491, 0.66670565138071, -0.113652182384, 0
492, 0.67212522453606, -0.1081138865852, 0
493, 0.67734842650961, -0.10205643983238, 0
494, 0.68219620666741, -0.095624566645827, 0
495, 0.68644015689587, -0.089162249203952, 0
496, 0.69018580795505, -0.082612043566025, 0
497, 0.69359159573354, -0.075742467238875, 0
498, 0.69671689201186, -0.06840664300283, 0
499, 0.69946922730612, -0.060825144134219, 0
500, 0.70184696058763, -0.053106213499349, 0
501, 0.70385355610113, -0.045435383424461, 0
502, 0.7055386828468, -0.03790449658298, 0
503, 0.70700497963919, -0.030331563831247, 0
504, 0.70834016711677, -0.022478371745493, 0
505, 0.70954666611609, -0.01458073108985, 0
506, 0.71066698394078, -0.0066685462860962, 0
507, 0.71174740709797, 0.0013124834777176, 0
508, 0.71280582517741, 0.0092971661763694, 0
509, 0.71380106217421, 0.016882480898491, 0
510, 0.71475115009407, 0.024231921246616, 0
511, 0.71567436712835, 0.031622742611496, 0
512, 0.71654702902947, 0.039118727854192, 0
513, 0.43708221826298, -0.19008632585534, 0
514, 0.40977452240378, 0.26204323809721, 0
515, 0.092552216042013, -0.25273356162609, 0
516, 0.045971307361614, -0.25039975435134, 0
517, 0.13977509944237, -0.25513711391258, 0
518, 0.18714137634574, -0.25652129672576, 0
519, 0.73201752013827, 0.045401658398501, 0
520, 0.56504723813165, 0.2569920764788, 0
521, 0.60939241574941, -0.26159172302068, 0
522, 0.047723168233998, 0.19595129623206, 0
523, 0.1476813655825, 0.25046269186594, 0
524, 0.097334607130156, 0.24885347210095, 0
525, 0.048316005937585, 0.24848633735411, 0
526, 0.19852078478266, 0.25491402374694, 0
527, 0.29663219216462, 0.17713115100985, 0
528, 0.22518044798279, 0.23811691036102, 0
529, 0.34413417115158, 0.22086101920777, 0
530, 0.3788530237187, 0.21904671880459, 0
531, 0.36689499430949, 0.23260122778824, 0
532, 0.45421630108844, 0.27460448382994, 0
533, 0.49813148247056, 0.27871682468115, 0
534, 0.46198702875398, 0.26329548881186, 0
535, 0.44928201138833, 0.26873365967514, 0
536, 0.35918837964691, 0.21160264268385, 0
537, 0.047937859818909, 0.14158476465359, 0
538, 0.04915330770909, 0.084044407472161, 0
539, 0.047762898846001, 0.025361094219615, 0
540, 0.043725302987917, -0.19918250676305, 0
541, 0.04311001125243, -0.14540774264412, 0
542, 0.044373557906367, -0.088915926706982, 0
543, 0.045763337012405, -0.031817574694061, 0
544, 0.47825239674478, -0.22099163524602, 0
545, 0.46015945658449, -0.23446251766277, 0
546, 0.4520294472263, -0.20632113537065, 0
547, 0.29380581101478, -0.24605370482636, 0
548, 0.69521899914199, 0.14612681687413, 0
549, 0.7035126664316, 0.22876590086017, 0
550, 0.66512288719214, 0.2615400590161, 0
551, 0.73742530224797, 0.20259982949818, 0
552, 0.64293520364349, 0.20090531929048, 0
553, 0.67422754389081, 0.22887392452123, 0
554, 0.56650291792187, 0.27123265554173, 0
555, 0.51479369959151, 0.28356115845798, 0
556, 0.60636117758154, 0.27172472384396, 0
557, 0.6000590812387, 0.25724486080171, 0
558, 0.66161471702626, 0.21051929236393, 0
559, 0.67463796887249, 0.16897692954116, 0
560, 0.67537690980218, 0.1899455467489, 0
561, 0.76334043371505, 0.069576103024648, 0
562, 0.7284114170594, 0.12991042757877, 0
563, 0.66807261964911, 0.18509438647526, 0
564, 0.72319054794388, 0.091799761904702, 0
565, 0.79016758314584, 0.070166296437282, 0
566, 0.78349857022209, 0.1133442339605, 0
567, 0.73437243950584, 0.057695010071792, 0
568, 0.73351219688591, 0.053412107072826, 0
569, 0.94686422894005, 0.13855160898556, 0
570, 0.94873334819851, 0.083269042612555, 0
571, 0.95152532958812, 0.027617057704423, 0
572, 0.95415821903724, -0.027554287676662, 0
573, 0.95571102194998, -0.082288027417848, 0
574, 0.51139622925876, -0.27444508332953, 0
575, 0.60320496558698, -0.16969791406289, 0
576, 0.66774813085354, -0.1204684436173, 0
577, 0.73455956241092, -0.25684889153148, 0
578, 0.95509239349377, -0.13745417528777, 0
579, 0.95264869969798, -0.1929242962406, 0
580, 0.7403537744175, -0.13703161446731, 0
581, 0.75526051247302, -0.16827737594189, 0
582, 0.89677123406908, -0.24822203117065, 0
583, 0.94893707616443, -0.24710233003949, 0
584, 0.20565929395042, 0.20138463421765, 0
585, 0.31027989175671, 0.1807807866099, 0
586, 0.29671843984612, 0.14488614479959, 0
587, 0.18946810297895, 0.14824731304677, 0
588, 0.14268945005009, 0.14745543321998, 0
589, 0.095949976517683, 0.19668039040326, 0
590, 0.14605193179537, 0.19867791414902, 0
591, 0.26512409911606, 0.24952559441285, 0
592, 0.37228450964754, 0.21083147625324, 0
593, 0.35776122140606, 0.22815166563405, 0
594, 0.39483994691593, 0.24015737488623, 0
595, 0.40354701586703, 0.23091831730068, 0
596, 0.32983409008037, 0.27082049211483, 0
597, 0.33380686375771, 0.2010970459394, 0
598, 0.37825952181441, 0.2119652290908, 0
599, 0.37394267733864, 0.26361624135924, 0
600, 0.31500229163162, 0.19937776077798, 0
601, 0.45916728427449, 0.2700280360345, 0
602, 0.5089637049271, 0.29239807742429, 0
603, 0.46007515682683, 0.27448276938194, 0
604, 0.44187190959143, 0.26048945219419, 0
605, 0.45485677102615, 0.26103306839702, 0
606, 0.45852756562799, 0.26235812180581, 0
607, 0.48407494548289, 0.27657845943922, 0
608, 0.47918763238536, 0.27523332461589, 0
609, 0.41443855219582, 0.2519025212682, 0
610, 0.4146362717423, 0.25577575450698, 0
611, 0.33409781070636, 0.21004440959753, 0
612, 0.38057829942551, 0.23867489079254, 0
613, 0.37213921196564, 0.21371568166118, 0
614, 0.33970237709294, 0.19590660951736, 0
615, 0.35435919820811, 0.21019365954491, 0
616, 0.30184685582535, 0.2300612529768, 0
617, 0.28194571581588, 0.25338336153072, 0
618, 0.38239601845669, 0.23140556021766, 0
619, 0.38760956405054, 0.25991779618835, 0
620, 0.3636168847021, 0.22210622661463, 0
621, 0.43415547472445, 0.25606800701935, 0
622, 0.42733351259389, 0.25113573000473, 0
623, 0.43965247989535, 0.26545961683211, 0
624, 0.42122847495399, 0.24658634969314, 0
625, 0.3734162869015, 0.23038739061581, 0
626, 0.30961333190481, 0.11902791205514, 0
627, 0.3420287547604, 0.18867383769974, 0
628, 0.24428123644938, 0.26303815624943, 0
629, 0.33697974613485, 0.21937885492086, 0
630, 0.32350641875894, 0.24634441659693, 0
631, 0.37025333182014, 0.20675768979598, 0
632, 0.39513354281179, 0.26191725511406, 0
633, 0.29126450191849, 0.1850578607353, 0
634, 0.33126866184584, 0.18967728162183, 0
635, 0.26513811669285, 0.18105690860027, 0
636, 0.30714287069091, 0.15619328930876, 0
637, 0.27489694133495, 0.17572357045253, 0
638, 0.31386486165602, 0.1698795605324, 0
639, 0.28024596619884, 0.18220145960771, 0
640, 0.30023625439168, 0.18297932457888, 0
641, 0.30071978547269, 0.11691585400719, 0
642, 0.30664310262344, 0.17569624535214, 0
643, 0.23805967876459, 0.16293196014556, 0
644, 0.35916696466436, 0.2509252345155, 0
645, 0.38650887631564, 0.21944298044686, 0
646, 0.27392260255885, 0.12744019309343, 0
647, 0.2911923821233, 0.13189820177456, 0
648, 0.30572217015767, 0.12720425082001, 0
649, 0.287808029058, 0.12286861800544, 0
650, 0.24296770452394, 0.20139971173195, 0
651, 0.30356988681806, 0.11423603275856, 0
652, 0.29448369832595, 0.087658341555099, 0
653, 0.2621837156089, 0.096578212891702, 0
654, 0.2832553298167, 0.083053662424432, 0
655, 0.30011010475178, 0.12744239137924, 0
656, 0.32390584665615, 0.1689652868544, 0
657, 0.30151024522512, 0.095263243565081, 0
658, 0.28912049384621, 0.074854783550441, 0
659, 0.25912197739944, 0.12736105914439, 0
660, 0.2975568959079, 0.1548322957161, 0
661, 0.28407335274995, 0.17280316656928, 0
662, 0.31045090700694, 0.12347260987778, 0
663, 0.31027716907841, 0.13001671367013, 0
664, 0.26769347481483, 0.19886686352545, 0
665, 0.32338642887861, 0.18238061015201, 0
666, 0.25301715178307, 0.14881210134253, 0
667, 0.30658392063187, 0.11185244274643, 0
668, 0.26672700354651, 0.15044050806833, 0
669, 0.29172670968129, 0.065824452620441, 0
670, 0.27743052033389, 0.081893948320637, 0
671, 0.24436987728379, 0.061349494465068, 0
672, 0.27698828128261, 0.068115859415995, 0
673, 0.27891810394039, 0.076137439034547, 0
674, 0.28874402304348, 0.083406763396656, 0
675, 0.27793141731063, 0.060224552310676, 0
676, 0.29289371312997, 0.068651447890921, 0
677, 0.2888291806476, 0.067387245699962, 0
678, 0.28100442462752, 0.071384728546391, 0
679, 0.28580039296613, 0.051685900140186, 0
680, 0.25460744864706, 0.018053242813945, 0
681, 0.24801626116742, 0.037589942193744, 0
682, 0.26580141592406, 0.024384483208096, 0
683, 0.23833303634894, 0.036542955723448, 0
684, 0.2579608738246, -0.052278352523138, 0
685, 0.19608920542616, -0.037619635485863, 0
686, 0.26774046772229, 0.14197402009718, 0
687, 0.28339023547267, 0.10826139326455, 0
688, 0.14644902369088, 0.063125244970148, 0
689, 0.18463736777732, 0.10409733702505, 0
690, 0.26802808218746, 0.1595593071175, 0
691, 0.18598357931192, 0.064350315070088, 0
692, 0.30806610621707, 0.11564926182764, 0
693, 0.27355544241946, 0.073116684929369, 0
694, 0.26056097191817, 0.021278119487271, 0
695, 0.26083609617211, -0.056428483100737, 0
696, 0.26920840861641, 0.016105081455107, 0
697, 0.2869250619792, 0.034774483242054, 0
698, 0.28303515000411, 0.039448954848342, 0
699, 0.23281781530949, 0.063874458922019, 0
700, 0.28341630067871, 0.088606647798658, 0
701, 0.26858835003897, 0.039486749339994, 0
702, 0.28714310607846, 0.055639033651942, 0
703, 0.21901224127223, 0.065051518234241, 0
704, 0.23979127797623, -0.017295826260113, 0
705, 0.24561371343172, -0.039994409250343, 0
706, 0.17968853431686, -0.00092140873228078, 0
707, 0.27869536383185, 0.036227939523617, 0
708, 0.14422857357978, 0.10140770809979, 0
709, 0.096150671850072, 0.14337393752302, 0
710, 0.10397832809073, 0.081999650720753, 0
711, 0.097331931033161, 0.019814181709985, 0
712, 0.19609333760242, -0.21491113510968, 0
713, 0.18942315721589, -0.17490315266701, 0
714, 0.37657052348293, -0.16012629287679, 0
715, 0.22912969586402, -0.19606526280897, 0
716, 0.13140607922873, -0.20917815105629, 0
717, 0.13984677445886, -0.037442609883596, 0
718, 0.086895281706883, -0.1515001704623, 0
719, 0.087803957024959, -0.20372652342822, 0
720, 0.092512519687067, -0.035829030665431, 0
721, 0.090122924521511, -0.093730649164304, 0
722, 0.26246694719621, -0.036833720239668, 0
723, 0.24966196365911, -0.055151204307076, 0
724, 0.27484107364399, 0.035409221117248, 0
725, 0.13870512192089, -0.063612032344926, 0
726, 0.18994741670442, -0.1554326917033, 0
727, 0.28332236070164, 0.023958888898247, 0
728, 0.23063416303232, -0.02296692341123, 0
729, 0.22260614298636, -0.065213860703164, 0
730, 0.28603494009239, 0.031149930341253, 0
731, 0.21225948249959, -0.070087928565749, 0
732, 0.2422394999611, -0.029415332688325, 0
733, 0.2800496292235, 0.016502072900981, 0
734, 0.26492744113134, -0.15289771283065, 0
735, 0.24625150895947, -0.078223320253229, 0
736, 0.23308533042605, -0.092161841085864, 0
737, 0.15030062967257, -0.16604259270356, 0
738, 0.13005331580159, -0.16035669765859, 0
739, 0.2922641202491, -0.13367701366286, 0
740, 0.24747953150782, -0.19404334820395, 0
741, 0.20079955257988, -0.12019033818318, 0
742, 0.22437822359524, -0.23466565165126, 0
743, 0.22520879551628, -0.17881880163065, 0
744, 0.44450794676027, -0.2245049914706, 0
745, 0.44010443235959, -0.20680062261529, 0
746, 0.43854459248578, -0.2435492971167, 0
747, 0.40587706451213, -0.19864203900256, 0
748, 0.40220454511132, -0.19016791285919, 0
749, 0.42965387323072, -0.19417064045683, 0
750, 0.43085837705087, -0.19719738498906, 0
751, 0.4335900732068, -0.19553811131659, 0
752, 0.40459873997851, -0.18430149813339, 0
753, 0.42673076909476, -0.18668676400824, 0
754, 0.41098091080152, -0.18083480554794, 0
755, 0.4653761900035, -0.21477092148992, 0
756, 0.47913476446162, -0.2452558191686, 0
757, 0.4670763954595, -0.20370186581281, 0
758, 0.42293562449631, -0.2378808695029, 0
759, 0.48458862593638, -0.20475555102478, 0
760, 0.47576034845777, -0.20442727423601, 0
761, 0.4746673477686, -0.21527210633511, 0
762, 0.48392112329459, -0.21647409239221, 0
763, 0.49440973179788, -0.21721394173442, 0
764, 0.48394566777697, -0.23711479314707, 0
765, 0.47756792066532, -0.2334839316765, 0
766, 0.50066785239256, -0.22430444063094, 0
767, 0.49184749012939, -0.23970989472623, 0
768, 0.49862506728826, -0.26196051266835, 0
769, 0.48106871647213, -0.22790152524455, 0
770, 0.2995567847222, -0.16980394396723, 0
771, 0.38160280731801, -0.16678544090073, 0
772, 0.36496963328112, -0.22548798112294, 0
773, 0.3785547355835, -0.20492781438699, 0
774, 0.36068963899619, -0.17674324239439, 0
775, 0.36686583554491, -0.1745542238352, 0
776, 0.36255631613068, -0.14666377260319, 0
777, 0.35512485046429, -0.1874395171253, 0
778, 0.36433714175897, -0.16311172082054, 0
779, 0.26683273672241, -0.1632069363286, 0
780, 0.29930081573373, -0.18419208403476, 0
781, 0.25415622778797, -0.16390461110464, 0
782, 0.19165951651182, -0.19475849535475, 0
783, 0.3393091323666, -0.17061166271235, 0
784, 0.36594523683158, -0.14852011608688, 0
785, 0.38324465781807, -0.18654217989999, 0
786, 0.37521188787567, -0.17712524172059, 0
787, 0.29267665969465, -0.16394334808521, 0
788, 0.33518062367022, -0.19220023344888, 0
789, 0.37029162912191, -0.16721842925861, 0
790, 0.33549957099204, -0.16064275164398, 0
791, 0.35364030300291, -0.1786490048793, 0
792, 0.32261197866391, -0.15643307193469, 0
793, 0.30209572233507, -0.15723742443353, 0
794, 0.34397263529769, -0.14504146277775, 0
795, 0.33518699740017, -0.14055007425653, 0
796, 0.37975456052981, -0.15818217134778, 0
797, 0.40599527956595, -0.26864846636622, 0
798, 0.37317165195914, -0.1865942237375, 0
799, 0.43813020551238, -0.25679903704182, 0
800, 0.40476480288983, -0.2061419850844, 0
801, 0.44797122645624, -0.19429004238659, 0
802, 0.4518928993052, -0.19545687654912, 0
803, 0.43626512736522, -0.21123450639837, 0
804, 0.43544495252481, -0.19302930252253, 0
805, 0.44472991155225, -0.20951436348149, 0
806, 0.37301205448509, -0.16154031435436, 0
807, 0.36660474510328, -0.19145667993772, 0
808, 0.36514368702287, -0.16869031841812, 0
809, 0.37380041379591, -0.15510886960754, 0
810, 0.49369627731357, -0.2045423164839, 0
811, 0.45345179073525, -0.21944371924579, 0
812, 0.404624116352, -0.2254379311037, 0
813, 0.44744275007522, -0.20466078931361, 0
814, 0.29221968545615, -0.092938902892747, 0
815, 0.28146530905108, -0.081463864975253, 0
816, 0.20732967861877, -0.15948080298211, 0
817, 0.29641054132996, -0.080482085358159, 0
818, 0.28303761445101, -0.070227369380217, 0
819, 0.30159632522838, -0.11232001724452, 0
820, 0.28532587209761, -0.073196375481942, 0
821, 0.26870635424468, -0.082051025993075, 0
822, 0.28424936623989, -0.094195135915665, 0
823, 0.31075893150302, -0.12307929316941, 0
824, 0.28449783365181, -0.08993266563287, 0
825, 0.29183497455582, -0.14734522386735, 0
826, 0.2848621383644, -0.13785172511439, 0
827, 0.31826557534917, -0.1295517092786, 0
828, 0.32651832253024, -0.13538518757849, 0
829, 0.25917750439746, -0.10697914223273, 0
830, 0.28961196452517, -0.067525401475821, 0
831, 0.27291846519049, -0.077433534480894, 0
832, 0.26110069150069, -0.1232756437871, 0
833, 0.29139079767008, -0.11654801425327, 0
834, 0.28025951897973, -0.067147500328032, 0
835, 0.2795079460513, -0.085363609804361, 0
836, 0.22988704833958, -0.13029717891804, 0
837, 0.26838329902359, -0.099948732567558, 0
838, 0.28219208756566, -0.12042731414168, 0
839, 0.2704148851334, -0.13540908997133, 0
840, 0.24472194274889, -0.021832305781515, 0
841, 0.22435474570457, -0.030360350201274, 0
842, 0.23572448873476, 0.023513388419872, 0
843, 0.25983893203323, -0.068195827626979, 0
844, 0.27504859087854, -0.06045937901634, 0
845, 0.27016843470867, -0.053119385598722, 0
846, 0.17877416143382, -0.053803381756803, 0
847, 0.22734699000073, 0.035089728111177, 0
848, 0.25562669915103, -0.018976785807443, 0
849, 0.78918450685584, 0.16169522412205, 0
850, 0.63314745695057, 0.28619259662132, 0
851, 0.78385343125521, 0.24626705404713, 0
852, 0.70225753108694, 0.15128645587117, 0
853, 0.73683293033797, 0.1781113121267, 0
854, 0.7174971234497, 0.21030167558483, 0
855, 0.59642071449347, 0.23465678925497, 0
856, 0.71154237402906, 0.22011427666043, 0
857, 0.64713001333055, 0.24453781350254, 0
858, 0.56349828120642, 0.26598371665206, 0
859, 0.62998185282529, 0.23047753396395, 0
860, 0.62118090173566, 0.23421047230423, 0
861, 0.86040364633144, 0.17052712112066, 0
862, 0.4975190549119, 0.28541621410277, 0
863, 0.55372343240999, 0.27697440637039, 0
864, 0.59306664027894, 0.29168957218239, 0
865, 0.53082462860777, 0.27754345016351, 0
866, 0.58059045455132, 0.24867061026914, 0
867, 0.53978865305211, 0.27547065262951, 0
868, 0.58331436013743, 0.25891975933965, 0
869, 0.61436105748628, 0.24495702323344, 0
870, 0.58473930369858, 0.28442200289438, 0
871, 0.56713377602148, 0.29127433543727, 0
872, 0.57852172242523, 0.27162199887829, 0
873, 0.64326992714033, 0.1924154917878, 0
874, 0.61708755119655, 0.20689864187623, 0
875, 0.68687057013375, 0.15200902944205, 0
876, 0.62503204779388, 0.24440636298421, 0
877, 0.70368783626559, 0.1560744009265, 0
878, 0.65942101253787, 0.2811595660256, 0
879, 0.61817357307917, 0.21276219459492, 0
880, 0.71293909779259, 0.18039707176313, 0
881, 0.63254983881669, 0.1989109395181, 0
882, 0.60109194530847, 0.24783639428523, 0
883, 0.66487628787528, 0.23178034039578, 0
884, 0.62748078727059, 0.27398167889294, 0
885, 0.62507638376073, 0.22299028698824, 0
886, 0.67857765504865, 0.17484526185287, 0
887, 0.6983684777495, 0.212439904133, 0
888, 0.60514346843257, 0.25372676834733, 0
889, 0.69742390629919, 0.1682015685234, 0
890, 0.68145998240377, 0.21091438359321, 0
891, 0.64692669789625, 0.19012251879538, 0
892, 0.68348870825891, 0.19480943622691, 0
893, 0.6921196361899, 0.14877063794238, 0
894, 0.67101099846399, 0.19372726721471, 0
895, 0.7006806415534, 0.1867367939963, 0
896, 0.70433790088474, 0.17351468264519, 0
897, 0.72036240255171, 0.099572774657803, 0
898, 0.71093493242635, 0.13560246385252, 0
899, 0.72971179571868, 0.029603243648061, 0
900, 0.72820117917577, 0.02190952754575, 0
901, 0.72697262294207, 0.01404866790592, 0
902, 0.72591937141511, 0.0792427401902, 0
903, 0.71712756444777, 0.12115838122318, 0
904, 0.72224730081421, 0.12179236042963, 0
905, 0.74363670459134, 0.11629313547527, 0
906, 0.71368847333344, 0.13097824023539, 0
907, 0.74219980841292, 0.10410678265141, 0
908, 0.82020784606117, 0.14643134277797, 0
909, 0.77420951288662, 0.12578618953132, 0
910, 0.77168068804301, 0.041090474763721, 0
911, 0.75417551435729, 0.049800660194852, 0
912, 0.73602539351886, 0.12037250788788, 0
913, 0.74000154694072, 0.15203389579967, 0
914, 0.75402581543074, 0.022298372152436, 0
915, 0.73703290208869, 0.020764293663967, 0
916, 0.73925290724546, 0.013524997940633, 0
917, 0.85017587961572, 0.026159422976166, 0
918, 0.8206358431303, 0.04227190665504, 0
919, 0.74102801236915, 0.027302943804391, 0
920, 0.73096130703807, 0.037530780542971, 0
921, 0.74224329469018, 0.036731912731212, 0
922, 0.73744698227006, 0.10904676282947, 0
923, 0.7408110818817, 0.04388028042156, 0
924, 0.74574799581466, 0.049626685620124, 0
925, 0.71760886725192, 0.11019218914798, 0
926, 0.75370185711411, 0.039767515271082, 0
927, 0.7269409736718, 0.099282736266562, 0
928, 0.72665644730871, 0.062284105299532, 0
929, 0.70912897355539, 0.12842128210407, 0
930, 0.81024987497102, 0.097907481922122, 0
931, 0.89074109912858, 0.14137471766766, 0
932, 0.89500699250807, 0.085606055824075, 0
933, 0.76500095954726, 0.049349028415757, 0
934, 0.90155489510922, 0.028413927075245, 0
935, 0.91095439218453, -0.080420783982989, 0
936, 0.90682504028, -0.026193213204868, 0
937, 0.73011023374282, -0.19949477300083, 0
938, 0.72748273818587, -0.015561491841672, 0
939, 0.72388704167538, -0.21609809149437, 0
940, 0.81337635304149, -0.095564490867041, 0
941, 0.74558040084735, -0.12675545248577, 0
942, 0.76990370977809, -0.015502309842686, 0
943, 0.73209678152204, -0.018750223129167, 0
944, 0.71664100278111, -0.086252155934574, 0
945, 0.80783595189204, -0.054946430517848, 0
946, 0.7923560531357, -0.060337934935256, 0
947, 0.74358933292216, -0.026267380966001, 0
948, 0.75913035616608, -0.11573093612872, 0
949, 0.75943071239058, -0.12952471426581, 0
950, 0.85923390294325, -0.050622067942421, 0
951, 0.76519307010433, -0.10855117538562, 0
952, 0.76283364620758, 0.086512627649199, 0
953, 0.77020184578119, -0.092524592152585, 0
954, 0.80521388116428, -0.020465001214564, 0
955, 0.71195816515124, -0.018694503474262, 0
956, 0.72451882268361, -0.05370392451503, 0
957, 0.75490877368196, 0.0037071073014709, 0
958, 0.73630593025746, -0.048384459902037, 0
959, 0.73848742823798, 0.003224045382776, 0
960, 0.7189016542058, -0.031404572456711, 0
961, 0.7253637215286, 0.0056891431733209, 0
962, 0.75195771136889, -0.030866813650086, 0
963, 0.76487325232964, -0.050466276491299, 0
964, 0.76118670121282, -0.05717956073742, 0
965, 0.81353950036349, -0.11582594197884, 0
966, 0.77920472171054, -0.092908873844792, 0
967, 0.74357303119497, -0.10452292519628, 0
968, 0.78346383273638, -0.080722007283776, 0
969, 0.71246131411051, -0.057810106777377, 0
970, 0.72164567779506, -0.099010812257376, 0
971, 0.79414204296195, -0.12632629052219, 0
972, 0.72734437316635, -0.022484915878716, 0
973, 0.70772144092084, -0.098409357925956, 0
974, 0.70387702758193, -0.082566671527365, 0
975, 0.74535221759334, -0.11556955513708, 0
976, 0.71202907136127, -0.021848148406433, 0
977, 0.71426376887862, -0.018858250005963, 0
978, 0.71922639600302, -0.010478659592185, 0
979, 0.72990323079554, -0.13514963190856, 0
980, 0.73707605581893, -0.12047650837857, 0
981, 0.72706152520798, -0.10776130271238, 0
982, 0.71942792875109, -0.11613175721281, 0
983, 0.65898723261039, -0.13241883924157, 0
984, 0.71638950264852, -0.1520496752638, 0
985, 0.69626942353936, -0.13203618277261, 0
986, 0.70959397981569, -0.12508526117489, 0
987, 0.66227526645016, -0.13473206760548, 0
988, 0.6838098932561, -0.11842602260885, 0
989, 0.70037405446295, -0.10583725449044, 0
990, 0.69239558284828, -0.11262709333458, 0
991, 0.65282749886618, -0.13187504733682, 0
992, 0.6660182021876, -0.13177990990367, 0
993, 0.57313833398222, -0.21064916671431, 0
994, 0.6665368404973, -0.17365950273767, 0
995, 0.55660302460981, -0.20245932729933, 0
996, 0.65273245499676, -0.15962611757837, 0
997, 0.62552817626753, -0.20084117605834, 0
998, 0.64479655256728, -0.17566138016299, 0
999, 0.6156127772815, -0.1532990215363, 0
1000, 0.5925268642051, -0.19255639960438, 0
1001, 0.5795712047679, -0.16977920416258, 0
1002, 0.63774954696094, -0.15948853189216, 0
1003, 0.59601205209631, -0.15925484090278, 0
1004, 0.54210325394583, -0.19334395695763, 0
1005, 0.55723132607156, -0.19005211579446, 0
1006, 0.52069294680906, -0.22033477448387, 0
1007, 0.53661606764591, -0.20104073085275, 0
1008, 0.5058881071068, -0.21645105047468, 0
1009, 0.51094207027241, -0.26229432481451, 0
1010, 0.54131436304363, -0.18601884684469, 0
1011, 0.54463260666734, -0.18257007951924, 0
1012, 0.50732257546904, -0.22378673295827, 0
1013, 0.55724089467962, -0.19593964991475, 0
1014, 0.54028110637467, -0.18874089770066, 0
1015, 0.54400179683673, -0.21358973109595, 0
1016, 0.5520401088985, -0.2179648741841, 0
1017, 0.52131037782083, -0.24987404173906, 0
1018, 0.53839399880902, -0.18390620106278, 0
1019, 0.60610138666424, -0.1765248984526, 0
1020, 0.53775676850266, -0.23266163590209, 0
1021, 0.60265647411411, -0.18217656572564, 0
1022, 0.61549125937005, -0.16521613623943, 0
1023, 0.59239365891744, -0.18303711493806, 0
1024, 0.52197545770512, -0.19197073462422, 0
1025, 0.52702472712428, -0.21734303180519, 0
1026, 0.68243302444012, -0.17148560395384, 0
1027, 0.61149756325216, -0.15465864691374, 0
1028, 0.85837303822771, -0.16502846506503, 0
1029, 0.65664336687132, -0.13530759007475, 0
1030, 0.60729622683721, -0.22368098899799, 0
1031, 0.67139840610425, -0.12502556087028, 0
1032, 0.66063843868259, -0.13810322727577, 0
1033, 0.59839713390338, -0.1680833859924, 0
1034, 0.67194038279374, -0.16581768057096, 0
1035, 0.66758013823109, -0.126734572859, 0
1036, 0.67423339626311, -0.13009381116467, 0
1037, 0.59815300765787, -0.1876292517463, 0
1038, 0.59687479821139, -0.16314131145415, 0
1039, 0.62387163780111, -0.1501199925396, 0
1040, 0.58715711942055, -0.21838704673843, 0
1041, 0.68623851231222, -0.15176045966282, 0
1042, 0.63852244876804, -0.18889029967627, 0
1043, 0.5989685082569, -0.16023209718085, 0
1044, 0.56583997116558, -0.18222220490742, 0
1045, 0.58356459594022, -0.24930742050857, 0
1046, 0.65078935204178, -0.14153761655562, 0
1047, 0.69875708770608, -0.16461679257636, 0
1048, 0.6429193894537, -0.15666332414586, 0
1049, 0.91040871744245, -0.13617408803747, 0
1050, 0.90436126542595, -0.19346099321405, 0
1051, 0.86548775389982, -0.13297871388672, 0
1052, 0.77451125417945, -0.16288321664078, 0
1053, 0.77585442237109, -0.083138398704406, 0
1054, 0.76779920527296, -0.23651638901507, 0
1055, 0.69292806366663, 0.15208458621911, 0
1056, 0.43732364071024, -0.22087151721572, 0
1057, 0.42074966037355, -0.21306099156883, 0
1058, 0.42226489365017, -0.18996712693136, 0
1059, 0.51134582704996, 0.27802832700399, 0
1060, 0.51757697833314, 0.27779366499983, 0
1061, 0.29484211089245, -0.077207120693778, 0
1062, 0.22668529742292, -0.10143107598017, 0
1063, 0.25833226085453, -0.076467762840729, 0
1064, 0.7048636784083, 0.16724334018346, 0
1065, 0.63369919473882, 0.25028802075223, 0
1066, 0.71331116476495, 0.17264676511266, 0
1067, 0.30358396890966, 0.12069962211731, 0
1068, 0.30082815068996, 0.16522521917771, 0
1069, 0.29140298812991, 0.11085824167296, 0
1070, 0.26876596618865, 0.2334584983967, 0
1071, 0.3112029051326, 0.16536141392347, 0
1072, 0.77019289884425, 0.056588105468956, 0
1073, 0.72633317714517, 0.058152172794017, 0
1074, 0.51647793397785, -0.23048341715944, 0
1075, 0.52842578210349, -0.23697771616951, 0
1076, 0.53891044941891, -0.27252344820561, 0
1077, 0.73477268452457, 0.062131775795573, 0
1078, 0.73514491830555, 0.066792801475854, 0
1079, 0.8096459593668, 0.013853054289261, 0
1080, 0.48883915200948, 0.27755845624193, 0
1081, 0.52168004754412, 0.2922145635208, 0
1082, 0.57590204410664, 0.29200368301224, 0
1083, 0.57785046833279, 0.27779786286042, 0
1084, 0.59481014805283, 0.26020246883526, 0
1085, 0.54891321887229, 0.28015441993886, 0
1086, 0.58982810474726, 0.2486086828055, 0
1087, 0.63752660967395, 0.22428577698509, 0
1088, 0.76111054187175, -0.097868049128474, 0
1089, 0.76139449429113, -0.25721383173483, 0
1090, 0.74223523103938, 0.083265933367749, 0
1091, 0.79677297554755, 0.046869054903554, 0
1092, 0.73499282602127, 0.071532958144162, 0
1093, 0.72358828550588, 0.18971962578877, 0
1094, 0.69193865627256, 0.16389937569683, 0
1095, 0.62221608613762, 0.21286778883425, 0
1096, 0.41852141147887, 0.29044682498944, 0
1097, 0.40972612715491, 0.25636330913682, 0
1098, 0.43193500407372, 0.2683691112419, 0
1099, 0.51396668373845, -0.19466481293589, 0
1100, 0.61784928309983, -0.18780916305443, 0
1101, 0.55677214789612, -0.18464910332952, 0
1102, 0.74322191550594, -0.017311138123261, 0
1103, 0.72266859762568, -0.044241071462257, 0
1104, 0.77586988848068, -0.13015940586604, 0
1105, 0.44843556493492, 0.27395626550826, 0
1106, 0.46593870751339, 0.27325330898746, 0
1107, 0.27386544856403, 0.039917838917397, 0
1108, 0.27157508926134, -0.022152244395172, 0
1109, 0.2504686247805, -0.030111775990725, 0
1110, 0.72897683540162, 0.22923364731102, 0
1111, 0.72416615496198, 0.1798150136557, 0
1112, 0.48294200583267, -0.22220690675442, 0
1113, 0.47663205034865, -0.22556558037171, 0
1114, 0.49970229710464, -0.25082676159173, 0
1115, 0.68876986658434, -0.22773936239396, 0
1116, 0.81676372156889, -0.14820592842368, 0
1117, 0.73765415302971, -0.15674950711781, 0
1118, 0.30398850366856, 0.18874948570306, 0
1119, 0.22775875313611, 0.18665977605027, 0
1120, 0.62056548369697, -0.1580040763364, 0
1121, 0.61940593688998, -0.21339087533295, 0
1122, 0.61024287809969, -0.16537886797093, 0
1123, 0.58600610986839, 0.25126638324596, 0
1124, 0.60924204008365, 0.28035673123641, 0
1125, 0.56976308296912, 0.26259928619396, 0
1126, 0.66138959424816, -0.12481043716214, 0
1127, 0.57916365755909, -0.17653103608601, 0
1128, 0.56797312932455, -0.17518446077166, 0
1129, 0.58724112265117, -0.17161722450689, 0
1130, 0.7502949924187, -0.13461053446468, 0
1131, 0.38817359183379, -0.17344419415936, 0
1132, 0.28286715488157, -0.16938801100641, 0
1133, 0.25595355197054, -0.047866416897676, 0
1134, 0.24720166332494, 0.014538740320806, 0
1135, 0.76586639016019, 0.004798228854887, 0
1136, 0.80578212449595, 0.059790609694184, 0
1137, 0.50985445632301, -0.19577619271485, 0
1138, 0.51746141873907, -0.21343026226347, 0
1139, 0.51661185306485, -0.19990511279886, 0
1140, 0.43378369864561, -0.1887793448608, 0
1141, 0.43180208351978, -0.22809074580588, 0
1142, 0.40738674614436, -0.19207879255187, 0
1143, 0.51212136999813, -0.20133188490153, 0
1144, 0.53282582773888, -0.21358044887338, 0
1145, 0.18733868479193, -0.085469665072599, 0
1146, 0.22687219356045, -0.07283764224746, 0
1147, 0.1782809522087, -0.12881091447578, 0
1148, 0.64877481460654, 0.26146542852281, 0
1149, 0.63112985047421, 0.21178320281676, 0
1150, 0.63137074169206, 0.21761241439647, 0
1151, 0.62808584608369, 0.23743612341988, 0
1152, 0.85271044459711, -0.19671429615668, 0
1153, 0.75253018568973, -0.19991527668006, 0
1154, 0.46193868526425, 0.285636683654, 0
1155, 0.45441330179917, 0.26521560212448, 0
1156, 0.70846701921771, 0.19680083653633, 0
1157, 0.3890490316933, -0.26689295281354, 0
1158, 0.45136794919706, -0.24506080479882, 0
1159, 0.42707318678615, -0.21029725004154, 0
1160, 0.46259027487499, 0.26625047088379, 0
1161, 0.50293706665377, 0.2854007882065, 0
1162, 0.4920615805138, 0.28514451467099, 0
1163, 0.58734052900204, -0.18685057100413, 0
1164, 0.58916091784897, -0.26531274586925, 0
1165, 0.71607671584223, -0.16679386691358, 0
1166, 0.33689869722319, -0.18059575127847, 0
1167, 0.37812800909978, -0.23231333329699, 0
1168, 0.35648233392018, -0.24064188338105, 0
1169, 0.92119523909445, 0.24710525599398, 0
1170, 0.61469731969271, 0.22030656586213, 0
1171, 0.8268837801341, -0.04805826038795, 0
1172, 0.7354177788576, -0.030492381364676, 0
1173, 0.82357340731124, -0.075219875276506, 0
1174, 0.5825435825288, -0.20832456670343, 0
1175, 0.61992102544097, -0.17933428993152, 0
1176, 0.57294726356673, -0.18635168875442, 0
1177, 0.28461479453107, -0.086072069081847, 0
1178, 0.17452519574823, -0.21382052742403, 0
1179, 0.24670420200114, -0.23210721563262, 0
1180, 0.36606508618738, 0.27180173205455, 0
1181, 0.39048642043011, 0.23756259467687, 0
1182, 0.42795971420769, 0.27427398744277, 0
1183, 0.68916196132715, 0.15088907914806, 0
1184, 0.65059365206242, 0.18776002474831, 0
1185, 0.23155292961937, 0.2176382134242, 0
1186, 0.38446163891405, 0.22508210011818, 0
1187, 0.36330205770686, 0.21719667497935, 0
1188, 0.78831394787665, -0.25616983387145, 0
1189, 0.81538891098001, -0.25380152518498, 0
1190, 0.56375532067401, -0.20277321546511, 0
1191, 0.53912309642888, -0.18577829704849, 0
1192, 0.54449580807758, -0.18608751062481, 0
1193, 0.40273473573977, 0.26258475384345, 0
1194, 0.4306055023588, 0.25363241108233, 0
1195, 0.43436786076983, 0.27688203655499, 0
1196, 0.28806045529931, -0.19408550121823, 0
1197, 0.3162370274045, -0.15359317608928, 0
1198, 0.57245202678237, 0.27186073007775, 0
1199, 0.58212335542133, 0.25365470687215, 0
1200, 0.57390799662468, 0.25315301267332, 0
1201, 0.64722651848005, -0.14458301259947, 0
1202, 0.693536099231, -0.14251879392298, 0
1203, 0.45946062346599, -0.22030317300451, 0
1204, 0.46990504387262, -0.22012431518746, 0
1205, 0.71228496401532, -0.025346871362584, 0
1206, 0.73567879908911, -0.099477731345865, 0
1207, 0.76319334688326, -0.079484599338945, 0
1208, 0.39942611794602, 0.24234524634022, 0
1209, 0.37611051167982, 0.20981928473111, 0
1210, 0.39797416114731, 0.25520429948526, 0
1211, 0.27445247647249, -0.08393131923126, 0
1212, 0.26860886600923, -0.11255257793683, 0
1213, 0.26871789906138, -0.074743784452453, 0
1214, 0.41062839422056, 0.23500756260406, 0
1215, 0.28891818234002, 0.22514377640229, 0
1216, 0.33871055229154, 0.18577466001284, 0
1217, 0.55763880788203, 0.27329357214201, 0
1218, 0.59028220380166, 0.24065505724673, 0
1219, 0.58483337735787, 0.27727876782284, 0
1220, 0.36678898860314, 0.2050144055605, 0
1221, 0.42406432640303, 0.25477230698544, 0
1222, 0.34940694569302, 0.25461513687262, 0
1223, 0.25490037475673, 0.18965782908338, 0
1224, 0.28362411752492, 0.19313307178635, 0
1225, 0.74633814400133, 0.098375689234762, 0
1226, 0.7189149405946, 0.13394671517121, 0
1227, 0.72520916355665, 0.083489956082313, 0
1228, 0.4180266843166, 0.26547444272007, 0
1229, 0.3297717437489, 0.21729948175823, 0
1230, 0.28991068394849, -0.1773598392174, 0
1231, 0.31737852209814, -0.17810354340133, 0
1232, 0.22630766901768, -0.14564397047391, 0
1233, 0.28851563192114, -0.12948546074532, 0
1234, 0.2761335968772, -0.13870536541559, 0
1235, 0.7684926708692, 0.16960868710464, 0
1236, 0.77644181080344, 0.075651194491703, 0
1237, 0.44192928779323, -0.19665804978517, 0
1238, 0.41250514908145, -0.19345936710631, 0
1239, 0.65159419214171, 0.1963976699863, 0
1240, 0.71269777446625, 0.16544472194174, 0
1241, 0.30708698614973, -0.10096613945279, 0
1242, 0.16414966039136, -0.080133090912125, 0
1243, 0.16004996072947, -0.058130133175724, 0
1244, 0.7394465075625, -0.13033522169074, 0
1245, 0.76825600595769, -0.075098360854492, 0
1246, 0.74328304461601, -0.089948086239221, 0
1247, 0.14654748680971, 0.082326932549976, 0
1248, 0.1255593692081, 0.066511003485636, 0
1249, 0.12439991207996, 0.097011871857763, 0
1250, 0.38617095178662, 0.23467082949793, 0
1251, 0.38139847685124, 0.22209763513759, 0
1252, 0.2471978284783, -0.050216557700438, 0
1253, 0.20786849853927, -0.086949921746279, 0
1254, 0.22448004556363, 0.020370445726188, 0
1255, 0.30454842040049, 0.13463571493258, 0
1256, 0.27949298342396, 0.15949336036965, 0
1257, 0.31103263782152, 0.13751507385846, 0
1258, 0.27960551759751, 0.13841789670368, 0
1259, 0.34410990818674, 0.20631076104525, 0
1260, 0.35446354378891, 0.24340721213946, 0
1261, 0.36458626371291, 0.2272881536341, 0
1262, 0.72844835909598, 0.12176012774506, 0
1263, 0.72636434339121, 0.074953100677999, 0
1264, 0.26097401639043, -0.25231099500492, 0
1265, 0.21659895070966, -0.21502577657099, 0
1266, 0.77828375586684, 0.018848192889346, 0
1267, 0.79325018874512, 0.009440046647828, 0
1268, 0.72479312118307, -0.14316247414763, 0
1269, 0.74912425714002, -0.079751859822823, 0
1270, 0.73304872937144, -0.11264243603288, 0
1271, 0.72708935258087, -0.11974398985919, 0
1272, 0.72270319463251, -0.11161350132376, 0
1273, 0.67534739145498, 0.17839281839125, 0
1274, 0.72839125137386, 0.10724258383836, 0
1275, 0.76644480450975, 0.015234611759263, 0
1276, 0.30852148599461, -0.1616097494094, 0
1277, 0.28835242084708, -0.14230656374651, 0
1278, 0.37183233450343, -0.15794925521162, 0
1279, 0.35379086944206, -0.21513474387101, 0
1280, 0.38377093148732, -0.17763855638287, 0
1281, 0.18110064721303, 0.023729559748534, 0
1282, 0.24091352929402, -0.058122810580454, 0
1283, 0.2384996680222, -0.052258396411542, 0
1284, 0.31923471529873, 0.16132976206908, 0
1285, 0.25884816501622, 0.17161217722837, 0
1286, 0.30119040872479, -0.09066062724958, 0
1287, 0.13358447575843, -0.13303611115275, 0
1288, 0.27298983772604, 0.00016959551320539, 0
1289, 0.24471389805887, -0.0019480736823178, 0
1290, 0.27076578618314, -0.0087701508948618, 0
1291, 0.30601163712233, 0.15179089727609, 0
1292, 0.64336776510706, -0.14754040715987, 0
1293, 0.59239637017762, 0.25414622780964, 0
1294, 0.67117646329521, 0.24418304078664, 0
1295, 0.63918785638744, -0.150260498407, 0
1296, 0.59024815175481, -0.16357820126871, 0
1297, 0.31066245036074, -0.15005296162285, 0
1298, 0.3005541039961, -0.14210642518619, 0
1299, 0.29669876635848, -0.15231784859699, 0
1300, 0.71621078648977, -0.0046365206024359, 0
1301, 0.8653442859218, -0.077294234784134, 0
1302, 0.37485719325428, -0.16545214146211, 0
1303, 0.36838162196686, -0.15410699289196, 0
1304, 0.36089276079871, -0.15190897275104, 0
1305, 0.78188072499808, -0.043498067497272, 0
1306, 0.79927705988203, -0.093893978135982, 0
1307, 0.75115352566879, -0.020496072797435, 0
1308, 0.46115133671288, 0.27958828409261, 0
1309, 0.28075099134581, 0.053362705005981, 0
1310, 0.26397369659455, 0.075293163794557, 0
1311, 0.29815349875012, 0.078703652475658, 0
1312, 0.21903180302367, -0.047795752164161, 0
1313, 0.26570705091377, 0.032426493446093, 0
1314, 0.55160341524897, -0.19557822627549, 0
1315, 0.56280117162245, -0.22144769985095, 0
1316, 0.74804351012692, -0.21777410877545, 0
1317, 0.7310524458916, -0.10374116740028, 0
1318, 0.38025176536693, -0.17364652817866, 0
1319, 0.37795141721843, -0.19225439533184, 0
1320, 0.27247543130097, -0.026407585654762, 0
1321, 0.20929304944933, -0.038159607589643, 0
1322, 0.2849411351943, -0.12515713997127, 0
1323, 0.30288922657798, -0.094138502612393, 0
1324, 0.29081423697421, -0.085433279006949, 0
1325, 0.2875703577629, -0.064221332167318, 0
1326, 0.25492967804824, -0.091293219198364, 0
1327, 0.35907154809647, -0.14468250770556, 0
1328, 0.2514283621717, -0.034434247852776, 0
1329, 0.57578337172602, -0.17168051184362, 0
1330, 0.61260290956485, -0.17826763367991, 0
1331, 0.65546975657389, -0.14585181550653, 0
1332, 0.52859238528522, -0.20050882666544, 0
1333, 0.53183892947978, -0.22436114502668, 0
1334, 0.47917319188874, -0.21588810895265, 0
1335, 0.4592335850985, -0.22688859285906, 0
1336, 0.46549926053403, -0.2262150069943, 0
1337, 0.39528807871108, -0.21320948081752, 0
1338, 0.44978632877036, -0.20001230447713, 0
1339, 0.41894997344469, -0.18414812079906, 0
1340, 0.046704561946456, -0.0033338721180029, 0
1341, 0.022884848547643, -0.02955893109646, 0
1342, 0.023736035648691, 0.027704341114996, 0
1343, 0.023353845842416, -0.00096816768223473, 0
1344, 0.59264377013362, 0.2836522975977, 0
1345, 0.8905357225068, 0.16850031218565, 0
1346, 0.94767901789737, 0.24671392377735, 0
1347, 0.97361552765461, 0.13749161300034, 0
1348, 0.65918316569499, 0.24560122743061, 0
1349, 0.60396354861565, 0.23564292424504, 0
1350, 0.29305772455409, 0.057723466606235, 0
1351, 0.26408562362124, 0.061996417529244, 0
1352, 0.29636864394918, 0.067929932176848, 0
1353, 0.28681558848053, 0.064756170137906, 0
1354, 0.63188212942576, -0.14633496535541, 0
1355, 0.61975001806806, -0.15178198219068, 0
1356, 0.62536262943173, -0.1565510318402, 0
1357, 0.59128196654614, -0.20427812454511, 0
1358, 0.63012766266723, -0.15480175814251, 0
1359, 0.54648028310401, -0.22636803003894, 0
1360, 0.56128486973888, -0.18358565545027, 0
1361, 0.56238036998669, -0.18929409365018, 0
1362, 0.53976025328529, -0.19719115463325, 0
1363, 0.72767995311882, 0.018013850630461, 0
1364, 0.7205633856591, 0.015291230722347, 0
1365, 0.72177418698752, 0.02297672449071, 0
1366, 0.72112336990309, 0.019172902873526, 0
1367, 0.71276625128398, -0.015612954438256, 0
1368, 0.73958956509245, -0.05984809398289, 0
1369, 0.72147196502811, -0.039769714344411, 0
1370, 0.72390022173757, -0.01912753039485, 0
1371, 0.72104107269489, -0.0066919924017368, 0
1372, 0.95295249719231, -5.2738795178864e-05, 0
1373, 0.97591972949313, 0.027027255664067, 0
1374, 0.97719129214725, -0.028312498806465, 0
1375, 0.97652622579512, -0.00067848293375639, 0
1376, 0.6556919361553, -0.19838329623077, 0
1377, 0.58295456552676, -0.18154318210407, 0
1378, 0.60959782983703, -0.1852693789604, 0
1379, 0.59411290550772, -0.16605183478302, 0
1380, 0.64942230254809, -0.18593610934167, 0
1381, 0.1455515883589, -0.27770796723818, 0
1382, 0.16323972953056, -0.25611648174509, 0
1383, 0.19544437856802, -0.27818106000038, 0
1384, 0.17054892530793, -0.27806481715124, 0
1385, 0.3233716426292, 0.19415434328038, 0
1386, 0.32397740418272, 0.23548559933321, 0
1387, 0.34632476638978, 0.21421616881838, 0
1388, 0.39224063701, 0.26966238060076, 0
1389, 0.50284935565429, 0.29258378636883, 0
1390, 0.50269358428673, 0.27889672748461, 0
1391, 0.34841506220699, -0.13812374722765, 0
1392, 0.37233050991018, -0.1518269781836, 0
1393, 0.72302948626331, 0.030596547705995, 0
1394, 0.72908244194878, 0.025699200977994, 0
1395, 0.72239898630931, 0.026779743817175, 0
1396, 0.41803354187127, 0.24473568337446, 0
1397, 0.42399608951183, 0.24291195500222, 0
1398, 0.3743211785324, 0.24275380118369, 0
1399, 0.42080212747695, 0.24087587813647, 0
1400, 0.9477245867521, 0.11100040842433, 0
1401, 0.97457156776499, 0.082373278683006, 0
1402, 0.97400072901466, 0.10996876956864, 0
1403, 0.022067387056136, -0.086557989774275, 0
1404, 0.043639902986096, -0.11740177311788, 0
1405, 0.02158990175327, -0.14282173866245, 0
1406, 0.021836430861566, -0.114815600738, 0
1407, 0.95418445291878, -0.16526794241173, 0
1408, 0.97763236835377, -0.13790080534966, 0
1409, 0.97641334145063, -0.19307668837772, 0
1410, 0.97706669068851, -0.16553474121417, 0
1411, 0.044895284373858, -0.060335120458994, 0
1412, 0.022450463939031, -0.058067947369595, 0
1413, 0.51959612991106, -0.20535552219329, 0
1414, 0.5706596413065, -0.26795353812262, 0
1415, 0.37288536652531, 0.21700812668053, 0
1416, 0.37308670270548, 0.25233842679246, 0
1417, 0.35220971392122, 0.2156218643075, 0
1418, 0.39176728584006, 0.25333324182879, 0
1419, 0.35744318099097, 0.22216704330124, 0
1420, 0.33481167188576, 0.22744603298226, 0
1421, 0.3515702607459, 0.23582138561111, 0
1422, 0.30719715595804, -0.11968458330701, 0
1423, 0.27069674716649, -0.11884103600306, 0
1424, 0.32072353852689, -0.11700095573594, 0
1425, 0.31770230866057, -0.11394528828446, 0
1426, 0.14842660481367, 0.27543261299197, 0
1427, 0.12226284705585, 0.24944960297857, 0
1428, 0.09795577349773, 0.27450675317815, 0
1429, 0.12317169312551, 0.27485830605969, 0
1430, 0.048593940167442, 0.054449464384033, 0
1431, 0.024293129285633, 0.085325536941256, 0
1432, 0.024189536681284, 0.056492674453328, 0
1433, 0.3051827992827, 0.10785852935121, 0
1434, 0.30386651616141, 0.10373372534129, 0
1435, 0.29457482707418, 0.11563178821981, 0
1436, 0.28802401835403, 0.14774268523675, 0
1437, 0.28356588897952, 0.043429437530726, 0
1438, 0.2886393308591, 0.042427707076496, 0
1439, 0.57883002722552, 0.26593981546946, 0
1440, 0.64725678623042, 0.19874307864453, 0
1441, 0.64461700367258, 0.224191331616, 0
1442, 0.28434887050923, 0.23867370441555, 0
1443, 0.29665206412187, 0.21372927677816, 0
1444, 0.35606073329244, 0.26383762686764, 0
1445, 0.41752091654915, 0.238909994245, 0
1446, 0.42421827759234, 0.2487652000457, 0
1447, 0.43038649945661, 0.24727494045961, 0
1448, 0.42718924592237, 0.24504567036975, 0
1449, 0.25730582083438, 0.1105333078413, 0
1450, 0.30263078313917, 0.09952688093475, 0
1451, 0.54166065076315, -0.20431320659338, 0
1452, 0.52506612757956, -0.19625356453493, 0
1453, 0.61228422548577, 0.23569935596232, 0
1454, 0.37793483996184, 0.27635407733541, 0
1455, 0.38896847696233, 0.2786083583789, 0
1456, 0.33364936689531, 0.23648032123407, 0
1457, 0.11601418885148, -0.25400991949675, 0
1458, 0.096004501315087, -0.27652748661354, 0
1459, 0.12078117684234, -0.2771306838014, 0
1460, 0.28876562162617, 0.078872315488046, 0
1461, 0.27953324887725, 0.048857445511208, 0
1462, 0.26855991319169, 0.068463999195026, 0
1463, 0.71304270376491, -0.036908398749064, 0
1464, 0.72017491549267, -0.021973428424432, 0
1465, 0.7395405786132, -0.065384729114049, 0
1466, 0.95013183695496, 0.055419204282368, 0
1467, 0.97516482057469, 0.054709571262437, 0
1468, 0.5386553372772, -0.21951072056136, 0
1469, 0.55506996063366, -0.20979193928218, 0
1470, 0.68766464888591, 0.20566646564676, 0
1471, 0.71128535411821, 0.18856886988095, 0
1472, 0.62654450713017, 0.21251579193933, 0
1473, 0.35153557179495, -0.2596721900196, 0
1474, 0.34571605585794, -0.18003488051549, 0
1475, 0.36827767711721, -0.15813739583496, 0
1476, 0.37726212420911, -0.15554452147113, 0
1477, 0.29552911048344, 0.12352294264053, 0
1478, 0.27820275210018, 0.15211165624512, 0
1479, 0.73670758118301, -0.075899776769271, 0
1480, 0.7254732327587, -0.094781507415956, 0
1481, 0.712953143594, -0.053535328031816, 0
1482, 0.31022454128375, 0.12653860467158, 0
1483, 0.29313271979286, 0.071695905803086, 0
1484, 0.23730513844635, -0.046179671628508, 0
1485, 0.26286194818799, 0.038952459913713, 0
1486, 0.19624821834015, 0.0098319153664257, 0
1487, 0.33951544618515, -0.14290166662077, 0
1488, 0.3412490010591, -0.13329923859805, 0
1489, 0.34485195381429, -0.13574698708655, 0
1490, 0.25904687327991, -0.085002053460284, 0
1491, 0.28077315652714, -0.076042999177164, 0
1492, 0.27742607151396, -0.079658281327425, 0
1493, 0.6386621419874, 0.20288705225041, 0
1494, 0.83976253284366, 0.24838159981844, 0
1495, 0.34192765345267, -0.16193904370555, 0
1496, 0.34801597140777, -0.20223604684984, 0
1497, 0.34597015667139, -0.19037080153101, 0
1498, 0.34494642882956, -0.15414416568829, 0
1499, 0.95502234606012, -0.054906832483616, 0
1500, 0.97781110354672, -0.082978164602132, 0
1501, 0.97751567787851, -0.055656102429647, 0
1502, 0.5782091200945, 0.25574025883048, 0
1503, 0.56400697098014, 0.27610658535667, 0
1504, 0.53427059566668, 0.29186838147395, 0
1505, 0.57692128124571, 0.28457012724042, 0
1506, 0.38880623843533, -0.16664108713971, 0
1507, 0.33567756766885, -0.22812431549368, 0
1508, 0.37880002717303, -0.18201658625643, 0
1509, 0.048418336973047, 0.11328964999686, 0
1510, 0.02386321148457, 0.14181238558334, 0
1511, 0.024059815780762, 0.11380638631449, 0
1512, 0.56901571604377, 0.28385243323592, 0
1513, 0.5521829181857, 0.26957949861013, 0
1514, 0.54416677657459, 0.27390871135117, 0
1515, 0.44596541642044, 0.26236393004256, 0
1516, 0.44395743795458, 0.25583547192437, 0
1517, 0.44753010898045, 0.25771834869151, 0
1518, 0.2652232215667, 0.012168944738237, 0
1519, 0.28170651243523, 0.020258151351738, 0
1520, 0.72750890597189, -0.27807825427727, 0
1521, 0.78172939792359, -0.27819301065835, 0
1522, 0.75465949541522, -0.27848156704261, 0
1523, 0.21065436584177, -0.25637271469227, 0
1524, 0.24612832305808, -0.2770029972712, 0
1525, 0.22062294167789, -0.2778324432738, 0
1526, 0.68134218626898, -0.20173607132204, 0
1527, 0.67534306049522, -0.12308489402259, 0
1528, 0.67561663531307, -0.15789381341514, 0
1529, 0.61449365732902, -0.17157556473331, 0
1530, 0.28619519035937, 0.10013255661383, 0
1531, 0.28948051375609, 0.15966129984562, 0
1532, 0.28832157982304, 0.14193501495247, 0
1533, 0.72419565969421, 0.038322563673717, 0
1534, 0.73056081513238, 0.033530018915426, 0
1535, 0.72361568028034, 0.034447391166947, 0
1536, 0.73288692471835, 0.049347970656403, 0
1537, 0.72514430461133, 0.046155188700208, 0
1538, 0.72604555663554, 0.05410875752566, 0
1539, 0.72552423450087, 0.050104086859101, 0
1540, 0.41495274914355, -0.18258874830695, 0
1541, 0.4321664710738, -0.20703406792237, 0
1542, 0.45115897675371, -0.23485154370363, 0
1543, 0.45675122291169, -0.20760148125739, 0
1544, 0.72329259489651, -0.012819391753675, 0
1545, 0.73667934917858, -0.014326075537436, 0
1546, 0.65235587540887, -0.17152968373788, 0
1547, 0.56398495136471, -0.17677953696108, 0
1548, 0.72420246355949, 0.0014485561366924, 0
1549, 0.71918142052021, 0.007357677698777, 0
1550, 0.718261232683, 0.003352495132763, 0
1551, 0.28921043231203, -0.11212605728533, 0
1552, 0.25104583512704, -0.098634365856896, 0
1553, 0.2778143729749, -0.06386974285825, 0
1554, 0.24683990454818, -0.11769922854462, 0
1555, 0.725198829365, 0.13772292845538, 0
1556, 0.95572032260276, -0.10978705920617, 0
1557, 0.9778304982164, -0.11038818753329, 0
1558, 0.40018943887106, -0.18202428350256, 0
1559, 0.40316960625137, -0.17672974197345, 0
1560, 0.043216898210191, -0.17263591793137, 0
1561, 0.021801616263052, -0.19731455146227, 0
1562, 0.021636862385244, -0.17028367944761, 0
1563, 0.87000246842859, -0.24947365480879, 0
1564, 0.89233659783496, -0.2743517590215, 0
1565, 0.83672257014319, -0.2761070522434, 0
1566, 0.86455588721298, -0.27506626410485, 0
1567, 0.72144208862219, -0.077464626397987, 0
1568, 0.74901587521145, -0.041289742658373, 0
1569, 0.80695525815793, -0.076460607705742, 0
1570, 0.39571556944141, 0.24751594110691, 0
1571, 0.32793808609548, 0.20720109740245, 0
1572, 0.38071827593055, 0.21439868985908, 0
1573, 0.27795450488665, -0.089747565191933, 0
1574, 0.28480201996872, -0.098586045370808, 0
1575, 0.28001362487761, -0.11536459304583, 0
1576, 0.26539399798487, -0.087240282804536, 0
1577, 0.23299415095083, -0.11671735744613, 0
1578, 0.38255221761258, -0.16099593427997, 0
1579, 0.36417002008682, -0.20601930337747, 0
1580, 0.047585307609836, 0.16903162831468, 0
1581, 0.023783881976884, 0.19620489020523, 0
1582, 0.023782799130225, 0.16922022205356, 0
1583, 0.4220446047987, 0.27052793679584, 0
1584, 0.37420181457864, 0.22056730089355, 0
1585, 0.27000053558771, -0.094103780025337, 0
1586, 0.2835556138043, -0.078252464558201, 0
1587, 0.73162576413201, 0.041477507432413, 0
1588, 0.7245851006498, 0.042234293108579, 0
1589, 0.67750115213347, 0.16602782467674, 0
1590, 0.60220482460783, 0.2282885732564, 0
1591, 0.36895488597966, 0.20992099758184, 0
1592, 0.41584276569359, 0.24837042134044, 0
1593, 0.35966565861136, 0.20107540117868, 0
1594, 0.3964608992046, 0.22656694997095, 0
1595, 0.71924293298309, -0.081929732974451, 0
1596, 0.69668327895308, -0.093693432647999, 0
1597, 0.70601275514155, -0.078646573359302, 0
1598, 0.43702538537772, 0.25171920717174, 0
1599, 0.43791100883685, 0.25838892264041, 0
1600, 0.44045586712187, 0.25382768651638, 0
1601, 0.4520682195114, -0.22639229640582, 0
1602, 0.39008153830158, -0.25106965555184, 0
1603, 0.42270383681174, -0.19950132089784, 0
1604, 0.26547468301313, 0.12043044098033, 0
1605, 0.34276532134693, 0.22830581661945, 0
1606, 0.38346517815344, 0.21693523033621, 0
1607, 0.65121330497957, 0.20551789998499, 0
1608, 0.56381706867014, 0.25909074866407, 0
1609, 0.75325521053353, 0.071521839465654, 0
1610, 0.74966770233379, 0.092047690773576, 0
1611, 0.5152803445472, 0.29210872969339, 0
1612, 0.29010889546968, 0.093347212973677, 0
1613, 0.29698303368138, 0.071334899310661, 0
1614, 0.29181831045154, 0.054055288671552, 0
1615, 0.64109333437854, -0.16710555874091, 0
1616, 0.72271266889291, -0.0026845906507873, 0
1617, 0.77827792208145, -0.10326912087239, 0
1618, 0.72589434020334, -0.0089826422274779, 0
1619, 0.7150684340416, -0.0085034288202794, 0
1620, 0.66925206900382, -0.27534959986261, 0
1621, 0.70602929273889, -0.25444481573541, 0
1622, 0.69935182536783, -0.27681074378683, 0
1623, 0.63227270756586, -0.16175712372961, 0
1624, 0.60742649442797, -0.20575358023557, 0
1625, 0.57885168780534, -0.19990805930652, 0
1626, 0.55017345727349, -0.20125746242102, 0
1627, 0.53577244523667, -0.1853154656347, 0
1628, 0.5189731558808, -0.23960221176681, 0
1629, 0.27643626452183, 0.0085753577451107, 0
1630, 0.25419024365181, 0.003438074291322, 0
1631, 0.7606738746357, 0.11772229500465, 0
1632, 0.75229814479296, 0.06503465971501, 0
1633, 0.2103038718535, -0.014548785418791, 0
1634, 0.28477852960485, 0.027567915892787, 0
1635, 0.52889105113951, -0.19410180323386, 0
1636, 0.52579053090615, -0.19040143470835, 0
1637, 0.35249935076456, 0.19654624258175, 0
1638, 0.30442875082032, 0.13873814567525, 0
1639, 0.61967135827886, 0.22180922311823, 0
1640, 0.58415517259451, 0.26456329677937, 0
1641, 0.60515583499092, 0.24412601677929, 0
1642, 0.68285051913598, 0.18163782226858, 0
1643, 0.69052204003231, 0.16826223149779, 0
1644, 0.68015535867413, 0.16302357205095, 0
1645, 0.62641955759238, 0.20763839204159, 0
1646, 0.3307240744889, -0.13808792031483, 0
1647, 0.33419234839127, -0.12815980410888, 0
1648, 0.33766611683547, -0.13077593243752, 0
1649, 0.072639071098013, 0.24853187925264, 0
1650, 0.048578457431393, 0.27430518095137, 0
1651, 0.073124169311461, 0.27433034779321, 0
1652, 0.68773617593424, 0.18974312701811, 0
1653, 0.6614219928213, 0.20032378720507, 0
1654, 0.66636190844352, 0.19719762136562, 0
1655, 0.69666371769487, 0.14981407267922, 0
1656, 0.7237594207336, -0.048905430269523, 0
1657, 0.33540956268035, 0.18268906148203, 0
1658, 0.27844398651, 0.14515171581688, 0
1659, 0.29338444946127, 0.10339023733009, 0
1660, 0.59086088784577, -0.1688940217142, 0
1661, 0.65833920144627, -0.14186683976497, 0
1662, 0.4680075873012, -0.19832444567411, 0
1663, 0.46271876771046, -0.20313623130916, 0
1664, 0.42238931555214, -0.25453025499856, 0
1665, 0.46395141024168, -0.19784361092766, 0
1666, 0.53277375829697, -0.18699528626593, 0
1667, 0.56605843894393, -0.25229931151664, 0
1668, 0.50439463993021, -0.20969412121802, 0
1669, 0.75810199856746, 0.05530360646579, 0
1670, 0.74816325277267, 0.053950954859837, 0
1671, 0.72681692299287, 0.066482306990093, 0
1672, 0.74368790668738, 0.066483968133003, 0
1673, 0.92290798319727, -0.24744095887818, 0
1674, 0.94693800187841, -0.27364808471903, 0
1675, 0.9197799784808, -0.27388644783841, 0
1676, 0.33901048640393, 0.20390934431525, 0
1677, 0.25882553452496, -0.11504290594786, 0
1678, 0.25767491914409, -0.13906572793194, 0
1679, 0.28567325503718, -0.060823355971399, 0
1680, 0.31717095637465, 0.15735750960478, 0
1681, 0.3292377332141, 0.1760807836076, 0
1682, 0.32645695489372, 0.17258034017877, 0
1683, 0.31995748292838, 0.17841877970578, 0
1684, 0.66417235860327, -0.12832806694966, 0
1685, 0.62120034493814, 0.21725652300064, 0
1686, 0.75148191073584, 0.12576878643361, 0
1687, 0.71492305682807, 0.14913694166553, 0
1688, 0.72203234341909, 0.11635063962288, 0
1689, 0.71268720497458, 0.12012708346144, 0
1690, 0.71472332812084, 0.11234707617333, 0
1691, 0.76010454541592, 0.095025400861679, 0
1692, 0.46982462039692, 0.29197621994816, 0
1693, 0.27235208335717, -0.056890707052287, 0
1694, 0.2356701256696, -0.067822050284028, 0
1695, 0.28360448031426, -0.057355829538688, 0
1696, 0.28181430283172, -0.053783918870824, 0
1697, 0.20895856438605, -0.05988602218739, 0
1698, 0.2531265856117, 0.028413070170266, 0
1699, 0.65895254810393, -0.18057651460914, 0
1700, 0.58684537553224, -0.16571802046842, 0
1701, 0.43615031850084, -0.2037134823072, 0
1702, 0.6779670848634, -0.11296024403718, 0
1703, 0.71731083430538, -0.00068230190811053, 0
1704, 0.63950631749973, -0.14190898783511, 0
1705, 0.54369199802805, -0.18964756351881, 0
1706, 0.59529649465073, -0.17174228789955, 0
1707, 0.5502583924815, -0.25639939888604, 0
1708, 0.67749913824846, -0.1426169386359, 0
1709, 0.67085207301656, -0.13603381528724, 0
1710, 0.70103924997961, -0.21111422928851, 0
1711, 0.66969781624685, -0.13106608278028, 0
1712, 0.61527844966567, 0.25608021509154, 0
1713, 0.52629643260305, 0.27808077429839, 0
1714, 0.55884429535607, 0.26434879333596, 0
1715, 0.54833244958897, 0.27192127145684, 0
1716, 0.60066453977242, 0.23919630536531, 0
1717, 0.67907785272854, -0.1287200786051, 0
1718, 0.54077150058552, 0.29129519358109, 0
1719, 0.5704906717219, 0.2587100694894, 0
1720, 0.23731448329086, -0.10543331384396, 0
1721, 0.26824449952373, -0.10610085801975, 0
1722, 0.28600821438935, -0.079899967673254, 0
1723, 0.62609455001363, 0.21762858462973, 0
1724, 0.63751929993126, 0.26886668026162, 0
1725, 0.60218411312156, 0.29095688737637, 0
1726, 0.82792533385206, -0.12234376059358, 0
1727, 0.80914269470221, -0.27726839100588, 0
1728, 0.32243047259706, -0.13250918178752, 0
1729, 0.32727753864509, -0.12276801525221, 0
1730, 0.33071399405763, -0.12550058650809, 0
1731, 0.46458542192699, 0.26356771274922, 0
1732, 0.22031342586898, -0.038853691980683, 0
1733, 0.23909844733005, -0.034407776238146, 0
1734, 0.50153082998995, -0.19747728018785, 0
1735, 0.50954251412985, -0.20861605469818, 0
1736, 0.66453244346255, -0.12268322304356, 0
1737, 0.28244574242756, 0.26880814065913, 0
1738, 0.35611155385848, 0.19890514710357, 0
1739, 0.40592620248568, 0.25065334211938, 0
1740, 0.36837356049318, 0.21346132022432, 0
1741, 0.72188062077337, 0.095783811513357, 0
1742, 0.80893022600444, 0.22429516204932, 0
1743, 0.68884518108686, 0.15680600932061, 0
1744, 0.62347321585666, 0.22855813191129, 0
1745, 0.64290249295715, 0.21632226839398, 0
1746, 0.25441306693191, 0.13713689319284, 0
1747, 0.24670674074206, 0.11619324375678, 0
1748, 0.41749124525409, -0.19426069301869, 0
1749, 0.44731009678396, -0.2176349354142, 0
1750, 0.44145293904215, -0.21481514166224, 0
1751, 0.24860894067468, -0.10720040538811, 0
1752, 0.30499516122179, -0.097539671205155, 0
1753, 0.68422565762552, -0.12692272054365, 0
1754, 0.66766485845957, 0.20740860501019, 0
1755, 0.43365410681933, 0.24952197189416, 0
1756, 0.3142484920994, -0.12644344393057, 0
1757, 0.32388397500101, -0.11995560155815, 0
1758, 0.49077765897355, 0.2924715415315, 0
1759, 0.49684388249999, 0.29260000754161, 0
1760, 0.4542266689397, 0.26969064275598, 0
1761, 0.73537486114225, 0.099181570714119, 0
1762, 0.71544109838888, 0.13937078744108, 0
1763, 0.58444263125258, 0.29205453783497, 0
1764, 0.62242657855578, 0.20465706798568, 0
1765, 0.27683506990811, 0.031849222704326, 0
1766, 0.25014682202813, -0.0083602006782208, 0
1767, 0.23695372846366, -0.026483707300652, 0
1768, 0.27089929041246, -0.017793146090601, 0
1769, 0.27353296084747, -0.03055690896598, 0
1770, 0.66837057661969, 0.1746971245302, 0
1771, 0.71081803068199, -0.066313879390553, 0
1772, 0.069245828636376, -0.25148849334504, 0
1773, 0.04749936169169, -0.27532099933594, 0
1774, 0.071723199369966, -0.27587291547323, 0
1775, 0.52796296322213, 0.29216233343603, 0
1776, 0.5968216475589, 0.25118269263841, 0
1777, 0.48001713112517, 0.28390378096193, 0
1778, 0.4586185305164, 0.26604361191895, 0
1779, 0.47756984978077, 0.29199382514318, 0
1780, 0.48379567488268, -0.28662841502607, 0
1781, 0.4935107827983, -0.23157721229396, 0
1782, 0.51169168061876, -0.28709184774406, 0
1783, 0.49781082032051, -0.28700940729728, 0
1784, 0.71550565356854, 0.1091673732867, 0
1785, 0.61941831326649, 0.20612034068386, 0
1786, 0.59338796481571, 0.23771142110859, 0
1787, 0.61231662296871, 0.21523766734336, 0
1788, 0.17314261546007, 0.25211118671212, 0
1789, 0.19851463321, 0.27782923147944, 0
1790, 0.17367467847666, 0.27637305673102, 0
1791, 0.71831169797604, 0.15526195531479, 0
1792, 0.60987863669259, 0.22809744428704, 0
1793, 0.3539086931491, -0.16325996148286, 0
1794, 0.38779340277824, -0.18139075635621, 0
1795, 0.37179277474965, -0.19863450998958, 0
1796, 0.72627404559565, 0.0099127379643118, 0
1797, 0.71992088169611, 0.011349467477011, 0
1798, 0.49830774898858, -0.20409788771854, 0
1799, 0.49313058834903, -0.19852533782091, 0
1800, 0.49733672912865, -0.19806928467424, 0
1801, 0.69663657758522, -0.10936003028346, 0
1802, 0.68464532418559, -0.10707567019108, 0
1803, 0.69098660866621, -0.10060277311092, 0
1804, 0.68782241218919, -0.10389503299897, 0
1805, 0.61611725989103, 0.20918816575652, 0
1806, 0.44317376050482, -0.20257873449739, 0
1807, 0.43305027427654, -0.20042227961799, 0
1808, 0.28457808279597, 0.061461630960842, 0
1809, 0.29423520173349, 0.061235756658598, 0
1810, 0.72850101056211, -0.090317456463521, 0
1811, 0.74839446948777, -0.099490362602659, 0
1812, 0.024104826444298, 0.24869260745602, 0
1813, 0.024260490156976, 0.2744070947297, 0
1814, 0.35332060916566, -0.17059852310173, 0
1815, 0.28980992958903, 0.071523115690063, 0
1816, 0.34891572586062, 0.19404372121378, 0
1817, 0.5990586958167, 0.2742490852024, 0
1818, 0.584656200445, 0.27066785338513, 0
1819, 0.57873297425555, 0.26067587565094, 0
1820, 0.60997788123413, 0.24964116601147, 0
1821, 0.3507836082618, 0.22173636602914, 0
1822, 0.022921301025681, -0.24948284532519, 0
1823, 0.023710696659822, -0.27482529902217, 0
1824, 0.97451393884799, -0.24700416930747, 0
1825, 0.97356104567086, -0.27356487138559, 0
1826, 0.27683834438063, -0.042564077468827, 0
1827, 0.25741907275495, -0.023696275718675, 0
1828, 0.28244180330576, 0.035732717668099, 0
1829, 0.73375695449808, 0.021092321023549, 0
1830, 0.73844373336807, 0.017715090660106, 0
1831, 0.7333560437335, 0.013237023862004, 0
1832, 0.73343429618476, 0.017404162040263, 0
1833, 0.72037614750508, 0.14408649825945, 0
1834, 0.48463606325413, -0.19899136740516, 0
1835, 0.48014344795816, -0.2046722681328, 0
1836, 0.47621973615304, -0.19889763593257, 0
1837, 0.48040724250613, -0.19899210031806, 0
1838, 0.73811957807456, -0.1090006448555, 0
1839, 0.71067714030641, -0.094465952458466, 0
1840, 0.2477863425409, -0.026084172670423, 0
1841, 0.2744748973229, -0.034644901687929, 0
1842, 0.2785066068687, -0.046372774046265, 0
1843, 0.28389579504414, 0.07797782794648, 0
1844, 0.25396767767868, 0.057263599854491, 0
1845, 0.50716586131332, 0.27872119049014, 0
1846, 0.48441981432735, 0.29224220699996, 0
1847, 0.68825992135172, -0.1156849114804, 0
1848, 0.68133366888412, -0.11010114116607, 0
1849, 0.45315719864312, -0.25754461637685, 0
1850, 0.44572461205744, -0.19843584587193, 0
1851, 0.41302828896631, -0.21480643480421, 0
1852, 0.68460749892486, 0.15700727421187, 0
1853, 0.47141450992489, -0.20415264116974, 0
1854, 0.47209625059558, -0.19868073572664, 0
1855, 0.95092853176655, -0.22021831599989, 0
1856, 0.97549305078451, -0.22017031960787, 0
1857, 0.43610983728265, -0.19780966926538, 0
1858, 0.68615680260871, 0.1542200169455, 0
1859, 0.65788772463059, 0.18278884939208, 0
1860, 0.70418907135328, -0.1021956709183, 0
1861, 0.69398911563387, -0.097206060262584, 0
1862, 0.97340197034108, 0.16497451401134, 0
1863, 0.7819402220331, 0.22396822891963, 0
1864, 0.48911583544462, -0.20476533506077, 0
1865, 0.4888830849713, -0.19883020707272, 0
1866, 0.61553537236089, -0.28029358479839, 0
1867, 0.63315088174784, -0.25594705324318, 0
1868, 0.64044407734124, -0.27766066659274, 0
1869, 0.30053927698755, -0.27480057163507, 0
1870, 0.27271755396128, -0.27562276168405, 0
1871, 0.45443171836492, -0.28579965789491, 0
1872, 0.47010015336293, -0.25572761193272, 0
1873, 0.46930360254853, -0.28604166937453, 0
1874, 0.096483197793919, 0.22288762656628, 0
1875, 0.14682855472657, 0.22480016109834, 0
1876, 0.12049463991611, 0.19755640605078, 0
1877, 0.1213808937621, 0.22365271168642, 0
1878, 0.1965003202217, -0.0089330004148472, 0
1879, 0.38899568022747, -0.28338836100814, 0
1880, 0.44052866465186, -0.19152627525665, 0
1881, 0.42330318489894, -0.28495655506948, 0
1882, 0.4064563017746, -0.28433129480088, 0
1883, 0.40815471543183, 0.24580919444116, 0
1884, 0.42727955484204, 0.25767053023621, 0
1885, 0.31192456458854, 0.25773188923745, 0
1886, 0.42134914657866, 0.2520420550027, 0
1887, 0.31398283888037, 0.18551182379059, 0
1888, 0.24451559281455, 0.2816566057088, 0
1889, 0.22227824469644, 0.27973985485955, 0
1890, 0.77524432847502, 0.14724959761302, 0
1891, 0.6752166743437, 0.27995354090152, 0
1892, 0.94706555975036, 0.21994944743614, 0
1893, 0.91945960244671, 0.13979734265482, 0
1894, 0.91899040632347, 0.16703595311193, 0
1895, 0.53235306797537, -0.19183965166403, 0
1896, 0.52816481736268, -0.20819111817306, 0
1897, 0.53531548858002, -0.18953625131933, 0
1898, 0.54070473794354, -0.28613479819666, 0
1899, 0.52594018788048, -0.28678707362726, 0
1900, 0.58787967428611, 0.25672958885183, 0
1901, 0.56693198708708, 0.25932398974939, 0
1902, 0.56160854197829, 0.26166026099575, 0
1903, 0.53533184993539, 0.27667044303197, 0
1904, 0.07205049833187, 0.022768450216545, 0
1905, 0.094499543402588, -0.0081499809395048, 0
1906, 0.069170028544543, -0.033924125691046, 0
1907, 0.070548531256478, -0.0056947997006116, 0
1908, 0.46156626592, 0.29272708862323, 0
1909, 0.46851032334356, 0.27752325060185, 0
1910, 0.22238856510883, 0.25908620988655, 0
1911, 0.41058758982784, 0.26895253126366, 0
1912, 0.26520800095088, 0.28325341094941, 0
1913, 0.43889825391256, 0.28522171422579, 0
1914, 0.44529337090375, 0.29287723920532, 0
1915, 0.43680230085502, 0.29238438102514, 0
1916, 0.42212176772403, -0.1945833434511, 0
1917, 0.4390964214594, -0.28550845611858, 0
1918, 0.5655567890303, 0.26253852084385, 0
1919, 0.53236682652436, 0.28430499751068, 0
1920, 0.46395748586198, 0.26954693038251, 0
1921, 0.45340986601813, 0.29300246245207, 0
1922, 0.38826031877979, -0.19064506626553, 0
1923, 0.35014063625631, -0.27990087221695, 0
1924, 0.32708978139946, -0.277095377225, 0
1925, 0.60754446871026, 0.22173290288243, 0
1926, 0.69812219038775, 0.16307878440888, 0
1927, 0.67341298616702, 0.20371988380589, 0
1928, 0.29041112867732, 0.069187788043558, 0
1929, 0.28911078210979, 0.08830458857283, 0
1930, 0.089508758739813, -0.22859807842326, 0
1931, 0.10941466458223, -0.2064821669258, 0
1932, 0.1348830000864, -0.2323665302485, 0
1933, 0.1121655161494, -0.23050813263908, 0
1934, 0.56082745674447, 0.28162554112874, 0
1935, 0.60325516698497, 0.2640412859343, 0
1936, 0.69303058205484, 0.1997521396391, 0
1937, 0.61815559986009, 0.23976540327717, 0
1938, 0.97361401399196, 0.21944784347675, 0
1939, 0.30646343936428, 0.20579040761324, 0
1940, 0.33643436494638, 0.28462098140368, 0
1941, 0.36512181490565, 0.2086668886921, 0
1942, 0.79888511729678, 0.18064101084404, 0
1943, 0.72009119639291, 0.24112900118223, 0
1944, 0.57382995557048, -0.28384741721852, 0
1945, 0.59375254387953, -0.28232537339205, 0
1946, 0.29921067110337, 0.27047158910966, 0
1947, 0.34034391442125, 0.2123955160953, 0
1948, 0.37660962655651, 0.23468315408008, 0
1949, 0.066765692394348, -0.091365490283154, 0
1950, 0.090842817837183, -0.064213242186446, 0
1951, 0.067843174845989, -0.062427378973782, 0
1952, 0.37028740653165, -0.28196090598131, 0
1953, 0.31496548925483, 0.27120655106074, 0
1954, 0.35779641077931, 0.21658969071152, 0
1955, 0.40708059623037, 0.23299936232949, 0
1956, 0.61171364901664, 0.28985658159597, 0
1957, 0.55568909574485, 0.2670174614425, 0
1958, 0.61440054795523, 0.21210514011409, 0
1959, 0.69318329579288, 0.15571759055126, 0
1960, 0.6281502509771, 0.25808794639883, 0
1961, 0.89432631664307, 0.24757059826695, 0
1962, 0.53625717811007, -0.25952137852453, 0
1963, 0.55664368302041, -0.28510365111368, 0
1964, 0.047929385239267, 0.22237955685359, 0
1965, 0.023946195646379, 0.22260652534046, 0
1966, 0.65535326598428, 0.23327157586613, 0
1967, 0.69371804261456, 0.23570844137168, 0
1968, 0.71639900123531, -0.024070646904945, 0
1969, 0.72817720662022, -0.0047559559497404, 0
1970, 0.71736251728688, -0.013929055674992, 0
1971, 0.044556680024672, -0.22508890743034, 0
1972, 0.022255510480298, -0.22361129363266, 0
1973, 0.74332279310375, 0.046223652388173, 0
1974, 0.73770240862346, 0.044576984922683, 0
1975, 0.73996884192865, 0.052050306851317, 0
1976, 0.73868993930166, 0.048154770798465, 0
1977, 0.064937688233758, -0.14823491210485, 0
1978, 0.088037464908047, -0.12339359952924, 0
1979, 0.065870665578877, -0.12015212201133, 0
1980, 0.25992036642914, 0.030511546607746, 0
1981, 0.26116519575365, -0.032502697711605, 0
1982, 0.29155785329951, 0.098421009568475, 0
1983, 0.30897215529645, 0.16079697926126, 0
1984, 0.25439793631872, 0.16041112694384, 0
1985, 0.63697048960753, 0.2171888758857, 0
1986, 0.69403278711657, 0.17897571476837, 0
1987, 0.33537362085316, 0.1928924374046, 0
1988, 0.37635643907482, 0.22424185102728, 0
1989, 0.93076135933072, -0.02685632076251, 0
1990, 0.90463086973292, 0.00083884123621131, 0
1991, 0.92669501905855, 0.028143369574269, 0
1992, 0.92900398631298, 0.00048657267878024, 0
1993, 0.7157933300705, 0.1260798923012, 0
1994, 0.74161849798517, 0.056437721496821, 0
1995, 0.74301369117928, 0.061294445606752, 0
1996, 0.074983349578034, 0.082933826526908, 0
1997, 0.099055426069402, 0.048608937243648, 0
1998, 0.073395827964197, 0.052027162854293, 0
1999, 0.67942064952159, -0.12088256269943, 0
2000, 0.60132919546827, -0.24471899588354, 0
2001, 0.65192718780524, -0.14977735466062, 0
2002, 0.66330395314748, -0.13222293617385, 0
2003, 0.64906402517251, 0.21495082253087, 0
2004, 0.7132300798053, -0.045082932904214, 0
2005, 0.75257674265885, -0.12191563003302, 0
2006, 0.75838548850642, -0.063378642179538, 0
2007, 0.76177025388742, -0.024180134882929, 0
2008, 0.36567186816059, 0.25791376790005, 0
2009, 0.38774550940521, 0.22797222306214, 0
2010, 0.3791573518558, 0.22788458179807, 0
2011, 0.58332916398355, -0.17417789391824, 0
2012, 0.59899995991375, -0.19882947194577, 0
2013, 0.60259856908884, -0.16059147994679, 0
2014, 0.72916827545299, 0.095162249207702, 0
2015, 0.33963308257065, -0.15249307179941, 0
2016, 0.32891850970072, -0.15886322122106, 0
2017, 0.32900974626533, -0.14823444200566, 0
2018, 0.33425753164811, -0.15054442296637, 0
2019, 0.73205723828217, 0.10358837639123, 0
2020, 0.77597254379387, 0.086598379958682, 0
2021, 0.71870970375588, 0.10311283818421, 0
2022, 0.57797518522317, -0.23442252431801, 0
2023, 0.6357566931379, -0.14420056425635, 0
2024, 0.60084880805138, -0.16434766989763, 0
2025, 0.12350708422331, 0.016264967089112, 0
2026, 0.22837220281572, -0.046963245689844, 0
2027, 0.11654534839349, -0.037084346583595, 0
2028, 0.11940126908923, -0.01050671632975, 0
2029, 0.25391458433072, -0.043411222474042, 0
2030, 0.20135460427566, -0.025162424267895, 0
2031, 0.73452274088842, 0.076355788479806, 0
2032, 0.54493408819039, -0.24319475700717, 0
2033, 0.53773599379199, -0.20911247970648, 0
2034, 0.73583947754723, 0.028555953991248, 0
2035, 0.73914911635932, 0.023329843230857, 0
2036, 0.73454052776454, 0.024718503386039, 0
2037, 0.27345779223616, 0.044949247751404, 0
2038, 0.27322977162117, 0.063695175707557, 0
2039, 0.24537635496855, 0.026169576592305, 0
2040, 0.27859807299083, 0.044289695859231, 0
2041, 0.24168416033144, -0.17872693922861, 0
2042, 0.11431833424382, -0.096099951284013, 0
2043, 0.11474308008318, -0.065015415168433, 0
2044, 0.45385733749504, -0.27150915418963, 0
2045, 0.42915160595233, -0.20272828157619, 0
2046, 0.43273724173591, -0.19163314334874, 0
2047, 0.071923648576943, 0.1419855796946, 0
2048, 0.097884595705271, 0.11530681883407, 0
2049, 0.072936555613332, 0.11348553189015, 0
2050, 0.53765081282273, -0.18740830633156, 0
2051, 0.54652649413618, -0.19467686001866, 0
2052, 0.3800701868823, 0.25674972636475, 0
2053, 0.33792649120879, 0.25722793188687, 0
2054, 0.7912206346875, -0.15197938838541, 0
2055, 0.75713940715212, -0.1041607210381, 0
2056, 0.76410713528059, -0.03643464100124, 0
2057, 0.76350202784913, -0.08696726170944, 0
2058, 0.56324564196252, -0.19560808397483, 0
2059, 0.60859182081496, -0.17089228855387, 0
2060, 0.51464865800623, -0.20719469095732, 0
2061, 0.50755721684065, -0.20252350758816, 0
2062, 0.50294588571252, -0.2034561377447, 0
2063, 0.75061587565804, 0.14406993540024, 0
2064, 0.67470765236473, 0.215376761727, 0
2065, 0.69820051309739, 0.15825917123446, 0
2066, 0.61117458878033, -0.15999733388055, 0
2067, 0.64054871631553, -0.20238860866236, 0
2068, 0.66691530886442, -0.21368362792563, 0
2069, 0.14864458516027, 0.040388286299681, 0
2070, 0.12351459385794, 0.042681551930445, 0
2071, 0.92244866511477, 0.084299165286756, 0
2072, 0.89266641451388, 0.11376907929071, 0
2073, 0.92064941980472, 0.1122133071919, 0
2074, 0.74049179287676, 0.088834287902222, 0
2075, 0.73657070596335, -0.001944069327789, 0
2076, 0.73008602284125, -0.037962051171678, 0
2077, 0.73171206007853, 0.0042504134085375, 0
2078, 0.73008128041603, -0.00027300018935171, 0
2079, 0.77906879633926, 0.048508428284754, 0
2080, 0.75311989667455, 0.078335106660791, 0
2081, 0.70418122882025, 0.13621983488057, 0
2082, 0.89780529113172, 0.056891272341286, 0
2083, 0.92429662025967, 0.056165988507837, 0
2084, 0.75953332085188, 0.04373841140501, 0
2085, 0.77561646986854, -0.0050676115095594, 0
2086, 0.72063223880591, -0.016254068877071, 0
2087, 0.7523641458368, -0.0041901079208494, 0
2088, 0.76271896089688, -0.0047673456049745, 0
2089, 0.86656122270012, 0.087624493095888, 0
2090, 0.87606708582807, 0.028052022917328, 0
2091, 0.78958772611721, 0.099203818372735, 0
2092, 0.86981690899722, 0.057647028892274, 0
2093, 0.88276644581738, -0.025633376502433, 0
2094, 0.85514790499439, -7.1207167450654e-05, 0
2095, 0.87981096122218, 0.00079578117326365, 0
2096, 0.39224498127188, -0.18480303784985, 0
2097, 0.23305108446808, -0.012255852118023, 0
2098, 0.26177566737861, 0.054220559900148, 0
2099, 0.26840707079593, 0.051980353657544, 0
2100, 0.30047376992717, 0.09099557880575, 0
2101, 0.72449064672063, 0.10299074899026, 0
2102, 0.85968551781951, 0.14350476618335, 0
2103, 0.8631109909085, 0.11591781801253, 0
2104, 0.65533254365047, 0.21302472324152, 0
2105, 0.57356564659911, 0.26670969696368, 0
2106, 0.58710709546615, 0.24347319824055, 0
2107, 0.30078006634196, -0.12879398825906, 0
2108, 0.29740246443689, -0.12482336893784, 0
2109, 0.30669529310474, 0.12394649269288, 0
2110, 0.37077831507609, 0.22597541420174, 0
2111, 0.19565799262785, -0.064298389393895, 0
2112, 0.22931088337394, -0.039588499794356, 0
2113, 0.22328818748174, -0.0064454411707773, 0
2114, 0.30798148093516, 0.12118528686259, 0
2115, 0.31386004033866, 0.14932729124561, 0
2116, 0.27059402892386, 0.16795953337464, 0
2117, 0.29559094226793, 0.10817532118545, 0
2118, 0.28471264482827, 0.12745100779964, 0
2119, 0.27366812491972, 0.10414329297119, 0
2120, 0.72741609125076, -0.033414192693093, 0
2121, 0.71522247586443, -0.021036688476811, 0
2122, 0.74667869051562, -0.084914598700644, 0
2123, 0.7328066663283, -0.042868752356054, 0
2124, 0.71791325255997, -0.019050938478718, 0
2125, 0.45588354426712, -0.19642102098904, 0
2126, 0.39749569755212, -0.20430789801744, 0
2127, 0.39180746733925, -0.23640870668993, 0
2128, 0.41717526838521, 0.25211903662725, 0
2129, 0.34495369633033, 0.24541914313376, 0
2130, 0.39526693013587, 0.23315716369454, 0
2131, 0.34393482658571, 0.19860433364158, 0
2132, 0.93273184207193, -0.13691353505843, 0
2133, 0.91143767153629, -0.10801303548413, 0
2134, 0.93318191155503, -0.081439053277392, 0
2135, 0.93333692195302, -0.10900994967571, 0
2136, 0.6396442309444, 0.19464328264797, 0
2137, 0.64093559805789, 0.20931328002799, 0
2138, 0.6290795594958, 0.20094332422687, 0
2139, 0.44416941206718, -0.19296483673001, 0
2140, 0.39385656251351, -0.19407741691725, 0
2141, 0.35504605150815, -0.15661335225315, 0
2142, 0.39711922271643, -0.18772677325986, 0
2143, 0.30503111326845, 0.13082116703752, 0
2144, 0.30172477086552, 0.12387022812157, 0
2145, 0.24454138966074, 0.17738761650407, 0
2146, 0.4498005688868, -0.2117018523231, 0
2147, 0.40704487848947, -0.17888703941594, 0
2148, 0.30426120419352, -0.11605502397536, 0
2149, 0.29307673418756, -0.074005013224107, 0
2150, 0.26738705022332, -0.064034511370473, 0
2151, 0.26445426327349, -0.071652243755611, 0
2152, 0.27265098137196, 0.019811514305721, 0
2153, 0.26037959727572, 0.0079667522334919, 0
2154, 0.2914510526096, -0.089103051049229, 0
2155, 0.27723876481106, -0.094471890292574, 0
2156, 0.42430663177275, -0.20472147100114, 0
2157, 0.46614340296009, -0.2092257682776, 0
2158, 0.46033759276629, -0.21419708212457, 0
2159, 0.4393590631695, -0.2002218809214, 0
2160, 0.46147792798489, -0.20856024767322, 0
2161, 0.64764408443125, -0.15335151515778, 0
2162, 0.6906724382278, -0.18934977949286, 0
2163, 0.60015695191934, -0.15736884388925, 0
2164, 0.71952707316972, 0.10863032924415, 0
2165, 0.29881932302112, 0.24254142730643, 0
2166, 0.38540546046493, 0.25067593928264, 0
2167, 0.34938353252373, 0.20845664168068, 0
2168, 0.27784924989503, 0.11139659310001, 0
2169, 0.29803616398994, 0.1199984046607, 0
2170, 0.29539215865217, 0.092218592559848, 0
2171, 0.66615197199463, -0.13566331341645, 0
2172, 0.67449664691898, -0.1156304906583, 0
2173, 0.65744926329459, -0.15507756815659, 0
2174, 0.66526366760357, -0.14008304470495, 0
2175, 0.2755225397926, 0.023204768080124, 0
2176, 0.27049549641666, 0.034039274575992, 0
2177, 0.28008976163334, -0.050124063978481, 0
2178, 0.21389056451545, -0.027933420577383, 0
2179, 0.27050877586991, -0.013337384777447, 0
2180, 0.25281265625948, -0.0598309120553, 0
2181, 0.24587132396696, -0.0316723872061, 0
2182, 0.19923663767078, 0.0293208918929, 0
2183, 0.42252254920913, -0.26984639558567, 0
2184, 0.41358758830014, -0.18782747471517, 0
2185, 0.42623152451439, -0.19451899731258, 0
2186, 0.62791656772158, -0.1483063083806, 0
2187, 0.29492724841265, -0.10076047562762, 0
2188, 0.26221816833928, -0.093139158570026, 0
2189, 0.26387312146904, -0.04109437110637, 0
2190, 0.27466168974494, 0.0044424144937592, 0
2191, 0.62761105148574, -0.18931334979354, 0
2192, 0.58602851974786, -0.19673449764278, 0
2193, 0.74190506443192, 0.040873473578677, 0
2194, 0.73703540960303, 0.036886231638817, 0
2195, 0.7371590710163, 0.040893696034955, 0
2196, 0.76739068603176, -0.1222508386116, 0
2197, 0.76357181106787, -0.091845975566914, 0
2198, 0.7176815657986, -0.10308605315584, 0
2199, 0.37504067795666, -0.15332718162302, 0
2200, 0.37150822882701, -0.15478371376117, 0
2201, 0.65426651187413, 0.18531840161103, 0
2202, 0.66500332793551, 0.17746912138256, 0
2203, 0.68595336324199, 0.17722227485439, 0
2204, 0.74218924162201, 0.031996380507009, 0
2205, 0.73654598687659, 0.032710880705383, 0
2206, 0.29913315431827, 0.1601666179557, 0
2207, 0.74092605662299, -0.035356662299991, 0
2208, 0.72475953703288, -0.05855969921257, 0
2209, 0.7176374397375, -0.027579228329185, 0
2210, 0.38530533529513, 0.24217782275089, 0
2211, 0.31425659638651, 0.21065916273788, 0
2212, 0.38969070324591, 0.22190419380192, 0
2213, 0.69767981593053, -0.15274762621379, 0
2214, 0.70887553873852, -0.1957219963352, 0
2215, 0.2411611413013, -0.14810831529454, 0
2216, 0.24734712028415, -0.088472060862334, 0
2217, 0.26020097545073, -0.099685853395019, 0
2218, 0.26615512188359, 0.10682587444395, 0
2219, 0.29331319964986, 0.17120265540429, 0
2220, 0.25604381782819, -0.064234719865603, 0
2221, 0.26401531571861, -0.06035550539974, 0
2222, 0.35260848208684, -0.14884311490085, 0
2223, 0.35950435563956, -0.1698299298714, 0
2224, 0.27704014489681, 0.088431865229415, 0
2225, 0.29030138182283, 0.062755285092259, 0
2226, 0.2741319987764, 0.050253747279853, 0
2227, 0.24984166790168, 0.07845269085981, 0
2228, 0.25130683627055, 0.096935958634969, 0
2229, 0.51171171998816, -0.21521437139611, 0
2230, 0.50857505028119, -0.23179622742605, 0
2231, 0.79567291991089, -0.034189087964686, 0
2232, 0.72486660618941, -0.029211726544164, 0
2233, 0.15341455753198, -0.21166107905035, 0
2234, 0.1800679611777, -0.23509853905961, 0
2235, 0.15748338063443, -0.23400196073374, 0
2236, 0.9090304082938, -0.053194132266262, 0
2237, 0.93210716502877, -0.054091829775246, 0
2238, 0.54335334397872, 0.28215963026098, 0
2239, 0.71281796011402, -0.032938873043346, 0
2240, 0.36712738604592, 0.24690638734199, 0
2241, 0.4188532648296, 0.24979128383052, 0
2242, 0.43113119319883, 0.28376213094142, 0
2243, 0.61663539739654, 0.21647172184358, 0
2244, 0.28706365114787, -0.10768007999997, 0
2245, 0.28720043647034, -0.076072740807021, 0
2246, 0.25311738065525, -0.072814495096413, 0
2247, 0.75632863711359, -0.088890821253293, 0
2248, 0.52298951540739, -0.2110675887075, 0
2249, 0.53836752724677, -0.19162983983049, 0
2250, 0.77428627467123, 0.065443112907873, 0
2251, 0.24235371188469, -0.096126737130835, 0
2252, 0.28586376637445, -0.10308209821624, 0
2253, 0.31482608985171, -0.11080282451759, 0
2254, 0.24689890704093, -0.13182179267457, 0
2255, 0.57090059458752, 0.27750559085832, 0
2256, 0.56842080275176, 0.26676046565286, 0
2257, 0.6598226170759, 0.22162198314247, 0
2258, 0.57726253649259, 0.25101685826875, 0
2259, 0.68141822288257, 0.17122069751287, 0
2260, 0.70293306428095, 0.18007951353638, 0
2261, 0.38473748128742, -0.17015628533588, 0
2262, 0.78359032672713, -0.11904329342537, 0
2263, 0.8000010267654, -0.1104306046648, 0
2264, 0.79338085227763, -0.078371455496367, 0
2265, 0.61243572441396, 0.22420320052, 0
2266, 0.63037228467431, 0.20627955187947, 0
2267, 0.3922007517021, -0.16934259915826, 0
2268, 0.36955999162621, -0.18056312456163, 0
2269, 0.37887332018116, -0.16338838217511, 0
2270, 0.43720370870837, 0.27084285910964, 0
2271, 0.37684293522348, 0.21607210653191, 0
2272, 0.87908374792027, -0.19444973721716, 0
2273, 0.90056902537278, -0.22125446981946, 0
2274, 0.84466087105559, -0.12924501475451, 0
2275, 0.87477812716876, -0.22271651812619, 0
2276, 0.5565900269594, 0.28863835844248, 0
2277, 0.58387676061136, 0.24614858033236, 0
2278, 0.30938654710993, -0.10433989547839, 0
2279, 0.26528698050561, -0.13025180550552, 0
2280, 0.29889159707857, -0.10857772008498, 0
2281, 0.29691758366769, -0.1046478905173, 0
2282, 0.27734217931879, -0.073497473189562, 0
2283, 0.43839870217126, -0.27102591696686, 0
2284, 0.71781308846232, 0.11276627838846, 0
2285, 0.6912062584459, 0.1844344849495, 0
2286, 0.50007458158241, -0.21708161895208, 0
2287, 0.49417256600988, -0.21076934120941, 0
2288, 0.55240693894999, -0.18542255931354, 0
2289, 0.4992464087073, -0.21038747568823, 0
2290, 0.47133550176506, 0.2705339439366, 0
2291, 0.76271506019638, 0.13585824634597, 0
2292, 0.69769037054012, 0.15382873976148, 0
2293, 0.73028061649101, 0.15808921334459, 0
2294, 0.72552674702982, 0.15025663479312, 0
2295, 0.73102508460659, 0.090685440779062, 0
2296, 0.6773996374467, -0.15003538798973, 0
2297, 0.67613233443893, -0.1358663015426, 0
2298, 0.64313466206116, -0.13951358521439, 0
2299, 0.18059264947677, -0.037201397047827, 0
2300, 0.39677559920071, 0.28945489589008, 0
2301, 0.42328408267974, 0.26164120970898, 0
2302, 0.32869115962932, 0.19789932457149, 0
2303, 0.42276583570062, 0.28155786659942, 0
2304, 0.6139489595591, -0.19686859586469, 0
2305, 0.57037369870019, -0.18057605978051, 0
2306, 0.71464328379677, -0.12060449221176, 0
2307, 0.70077840977679, -0.11874043114803, 0
2308, 0.71017966272872, -0.11121241048594, 0
2309, 0.70545480504547, -0.1150549408424, 0
2310, 0.71401786598112, -0.1071506517175, 0
2311, 0.2976708988625, 0.13557648952701, 0
2312, 0.29804244240495, 0.11269900224002, 0
2313, 0.40408211328525, 0.25618681551192, 0
2314, 0.36397926889612, 0.21273237458279, 0
2315, 0.41051621429372, 0.25147502384491, 0
2316, 0.3051306047411, -0.14630698549389, 0
2317, 0.30899444471349, -0.13620162475723, 0
2318, 0.30490146835248, -0.13251118964911, 0
2319, 0.72464531748935, 0.11005214131156, 0
2320, 0.31657068817866, 0.22303954662133, 0
2321, 0.39144390625744, 0.23065257409512, 0
2322, 0.29869411111428, 0.13129138377382, 0
2323, 0.28864514098319, 0.059343008041186, 0
2324, 0.71387057689317, 0.11607255533862, 0
2325, 0.80401084799682, 0.11757929110826, 0
2326, 0.75059579200949, 0.059142175545038, 0
2327, 0.79132370401507, 0.024005540755255, 0
2328, 0.24624633515379, 0.24452758853874, 0
2329, 0.29805523253655, 0.10137282894797, 0
2330, 0.30347368030601, 0.17049405459637, 0
2331, 0.68895472594728, -0.13403123129121, 0
2332, 0.63440150674502, -0.16949094783515, 0
2333, 0.66773673565065, -0.15414847315684, 0
2334, 0.73219575203168, 0.11278571759348, 0
2335, 0.73995391207649, 0.13271550645141, 0
2336, 0.75192764637675, 0.085264407042466, 0
2337, 0.70680199800524, 0.13241359819654, 0
2338, 0.78102744785462, -0.065488336227762, 0
2339, 0.75888945633637, -0.083854388688129, 0
2340, 0.75234783196418, -0.074554907879324, 0
2341, 0.73096524539794, -0.011500245956294, 0
2342, 0.71379817988141, -0.09043098152527, 0
2343, 0.25869626681919, 0.21141754595093, 0
2344, 0.36925952602442, 0.2215741775969, 0
2345, 0.25590858861588, 0.038282019659896, 0
2346, 0.36835085284521, 0.21735095634813, 0
2347, 0.43095792846385, 0.26057352163878, 0
2348, 0.88765264666796, -0.13498865436671, 0
2349, 0.90741188619802, -0.1648341383135, 0
2350, 0.73381579105834, -0.18381994099247, 0
2351, 0.88320756678778, -0.16472939345267, 0
2352, 0.4752269031727, -0.20999764180239, 0
2353, 0.47014379101554, -0.21502899913611, 0
2354, 0.47072597507606, -0.20960248843402, 0
2355, 0.73370383577208, 0.081198404785431, 0
2356, 0.4843964350474, -0.21063924471914, 0
2357, 0.47975120136278, -0.2103048975748, 0
2358, 0.60939796344888, 0.26048930277412, 0
2359, 0.6344749503357, 0.20468298832622, 0
2360, 0.64606737264966, 0.20758782268138, 0
2361, 0.2851904264513, 0.073589267825382, 0
2362, 0.62265444778405, 0.20868590675533, 0
2363, 0.63607075307834, 0.19681013247777, 0
2364, 0.597190707487, 0.24255941675472, 0
2365, 0.68980694958543, -0.12469742879741, 0
2366, 0.67114370515967, -0.11813351892666, 0
2367, 0.2780402187003, 0.026405806853327, 0
2368, 0.25283502912332, -0.038837842213604, 0
2369, 0.24594493800846, -0.045077062879807, 0
2370, 0.30700029182842, 0.21923692453607, 0
2371, 0.27178276910736, 0.11524120894085, 0
2372, 0.31872002385979, 0.19013220859096, 0
2373, 0.36326034898361, 0.20312879218137, 0
2374, 0.75510998715039, -0.18336863297861, 0
2375, 0.7757755718801, -0.19652098961411, 0
2376, 0.77644364688237, -0.17849139225959, 0
2377, 0.82086806161971, -0.22922467468493, 0
2378, 0.74053183005744, -0.0090546068049519, 0
2379, 0.24086984814246, -0.073423246473113, 0
2380, 0.24874040603369, -0.068459174482293, 0
2381, 0.37532581614065, 0.21338591135456, 0
2382, 0.70304836109529, -0.1289192421524, 0
2383, 0.69533391953383, -0.12194632208231, 0
2384, 0.28139563532848, 0.16634649315553, 0
2385, 0.28853093405998, 0.10565250742998, 0
2386, 0.29687897706727, 0.14000669884377, 0
2387, 0.83154345683367, 0.11868117671243, 0
2388, 0.81116977245081, 0.077227578105809, 0
2389, 0.8377869341654, 0.05881525894485, 0
2390, 0.82879272265526, 0.019790056161986, 0
2391, 0.27786637763474, -0.11017858003263, 0
2392, 0.26659388665841, -0.14316040975786, 0
2393, 0.74626553037894, 0.1625908410079, 0
2394, 0.69134102594961, 0.21910700682815, 0
2395, 0.76791330959013, 0.1082365867491, 0
2396, 0.73418103065298, -0.080875478572979, 0
2397, 0.78803119129344, -0.10631589332592, 0
2398, 0.73817316745684, -0.070734274281224, 0
2399, 0.88824965634082, -0.079057930595906, 0
2400, 0.71318358819488, -0.040955070328066, 0
2401, 0.88532038332087, -0.052110844687363, 0
2402, 0.30570356569651, 0.11798875849829, 0
2403, 0.30451092365775, 0.14290083655284, 0
2404, 0.75262818525697, -0.094187773413452, 0
2405, 0.70951224791395, -0.070502148199742, 0
2406, 0.77415692672397, -0.1133293269333, 0
2407, 0.36892705301932, -0.16251386047129, 0
2408, 0.27841661138916, 0.039971153571563, 0
2409, 0.29960084521798, 0.086776181238272, 0
2410, 0.29752297378128, 0.074926976320762, 0
2411, 0.23461709882183, 0.081074203240199, 0
2412, 0.31855950095809, -0.14278464687891, 0
2413, 0.31376261982334, -0.13956753104406, 0
2414, 0.66131077993953, -0.13002920762037, 0
2415, 0.71342961462156, -0.180937662048, 0
2416, 0.58171758574289, -0.19009959334954, 0
2417, 0.71184196066657, -0.062074040297213, 0
2418, 0.45990612379856, -0.19722896896102, 0
2419, 0.4185136135798, -0.20616730142952, 0
2420, 0.40610616310497, -0.2383509927251, 0
2421, 0.43038689295483, -0.1877265618615, 0
2422, 0.4857412180644, -0.26025887635178, 0
2423, 0.28014562597487, 0.029443010690827, 0
2424, 0.6374533004511, 0.23215160498772, 0
2425, 0.32361465411678, -0.14570381535356, 0
2426, 0.68220802993629, -0.13524371783596, 0
2427, 0.67092466943744, -0.14161565280794, 0
2428, 0.61521742501603, 0.23113023010995, 0
2429, 0.61378061385955, 0.26838264254606, 0
2430, 0.82507921115754, -0.20193979860274, 0
2431, 0.3117203664838, 0.1414000702942, 0
2432, 0.57574200137412, -0.19271050602751, 0
2433, 0.60034623206614, -0.17430132327006, 0
2434, 0.57514959389401, -0.22127614757407, 0
2435, 0.57807350533164, -0.18416268136063, 0
2436, 0.58327024049349, -0.16779100884526, 0
2437, 0.21441765355839, 0.032820964937648, 0
2438, 0.54827376723324, -0.18173629993376, 0
2439, 0.54827609350281, -0.18590116612233, 0
2440, 0.37340748572296, 0.2083015978833, 0
2441, 0.32188641849817, 0.21437075101315, 0
2442, 0.35963655168613, 0.23445099919061, 0
2443, 0.86783366273623, -0.10444023083064, 0
2444, 0.88912296663073, -0.10653908887259, 0
2445, 0.73935875150906, -0.094808013320218, 0
2446, 0.92012138307101, 0.220597932338, 0
2447, 0.48901449495942, -0.21703747968317, 0
2448, 0.48920317306126, -0.21080715003182, 0
2449, 0.28960549964968, 0.046355253999644, 0
2450, 0.28260395408682, 0.057633121111788, 0
2451, 0.33418566081522, -0.20682151283196, 0
2452, 0.36291011827718, -0.18405346135469, 0
2453, 0.78534209700811, 0.058121194193414, 0
2454, 0.75525807419406, 0.032285000681096, 0
2455, 0.72418872922377, -0.068172067205622, 0
2456, 0.74826885871887, -0.011198329695453, 0
2457, 0.73398191797589, -0.006878668359833, 0
2458, 0.73920361943034, 0.0085980884047537, 0
2459, 0.73264248273364, 0.0088836111512948, 0
2460, 0.69285182791543, 0.15967898841987, 0
2461, 0.71131109361698, 0.14407362896089, 0
2462, 0.75036823034462, 0.11032312672448, 0
2463, 0.68602326004532, 0.16387007649306, 0
2464, 0.66415730028125, 0.18820402465783, 0
2465, 0.23773537932363, 0.010653873650665, 0
2466, 0.24466540005201, 0.048426203569071, 0
2467, 0.27089414625047, 0.096037421871696, 0
2468, 0.26121138629739, 0.046308695474347, 0
2469, 0.25369594842912, 0.047279845481776, 0
2470, 0.70686063864445, 0.14801137706864, 0
2471, 0.70044391109694, 0.14698493056865, 0
2472, 0.29379499069913, 0.083244996561514, 0
2473, 0.39982421560508, -0.19674371784275, 0
2474, 0.42290477813556, -0.18550490099937, 0
2475, 0.72688672451058, 0.11515769520163, 0
2476, 0.75601549262239, 0.10317914842316, 0
2477, 0.71701708668241, 0.10632155249626, 0
2478, 0.25333089951323, -0.013929937302409, 0
2479, 0.20044090263247, -0.076545848252384, 0
2480, 0.35840604014274, -0.19677357720633, 0
2481, 0.39571791541961, -0.17194205683228, 0
2482, 0.76356499087741, 0.035697785934272, 0
2483, 0.75536344550847, 0.012491775754788, 0
2484, 0.73260433697463, 0.086039163563286, 0
2485, 0.72470784813789, -0.063392505237141, 0
2486, 0.8301221148781, -0.02406195874275, 0
2487, 0.92863129665363, -0.19301055965988, 0
2488, 0.92585662050236, -0.22050334407065, 0
2489, 0.64601288531565, 0.23330777092657, 0
2490, 0.32736760180062, 0.18621966182389, 0
2491, 0.77506325682869, 0.18576274622092, 0
2492, 0.60494138833538, 0.22502203232172, 0
2493, 0.86717050988764, 0.24804876642595, 0
2494, 0.59083291779517, 0.26907776991992, 0
2495, 0.57430360263468, 0.25746086251192, 0
2496, 0.93091485501658, -0.16501899926315, 0
2497, 0.25288192346319, -0.081993355812754, 0
2498, 0.2852638766952, -0.082598361558098, 0
2499, 0.17287086437806, 0.19978087385487, 0
2500, 0.20056196272679, 0.23037739976033, 0
2501, 0.1734535583554, 0.22671623293909, 0
2502, 0.71876545243502, -0.13084187982033, 0
2503, 0.70347638163769, -0.14060758400774, 0
2504, 0.71212745940965, -0.13632909057175, 0
2505, 0.12985565953217, -0.18526962425554, 0
2506, 0.1424844258002, -0.098096532875949, 0
2507, 0.15081989222282, -0.18909300669812, 0
2508, 0.67935562612505, 0.18589402362563, 0
2509, 0.66007455746682, 0.19112886544306, 0
2510, 0.72156776496843, 0.19995841344256, 0
2511, 0.27003200852157, 0.027138322229349, 0
2512, 0.19712867921445, -0.097395615395154, 0
2513, 0.23194232935903, -0.032645019889373, 0
2514, 0.17150246962504, -0.19237318279611, 0
2515, 0.35979991705606, -0.15742021784318, 0
2516, 0.20987889174102, 0.00041868938291278, 0
2517, 0.27822523653125, 0.012573027653034, 0
2518, 0.31658780258492, 0.17415071923967, 0
2519, 0.23447044695523, 0.14625780719516, 0
2520, 0.2716035739507, -0.088811711972486, 0
2521, 0.7971257551778, -0.16746348520802, 0
2522, 0.73643086874882, -0.16964364293698, 0
2523, 0.72247170444282, -0.025390957394844, 0
2524, 0.77028287915073, -0.14957367351056, 0
2525, 0.53573148195728, -0.19465226895104, 0
2526, 0.55403468148734, -0.27048181121023, 0
2527, 0.26103678860298, 0.085048998805191, 0
2528, 0.28681547638171, 0.070034515586539, 0
2529, 0.25758623173558, 0.06774025765056, 0
2530, 0.53244171512823, -0.19765295445037, 0
2531, 0.52095377069433, -0.19821228487612, 0
2532, 0.52430903442993, -0.22800988005619, 0
2533, 0.26361374119893, -0.19023613593697, 0
2534, 0.25609609729856, -0.20996941324578, 0
2535, 0.21005836213054, -0.14221025626789, 0
2536, 0.72858858789249, 0.2709168063155, 0
2537, 0.69156260403868, 0.27805318654126, 0
2538, 0.46303116578689, -0.24367861584224, 0
2539, 0.41196785277923, -0.20666747746624, 0
2540, 0.47306693396528, -0.22912369096875, 0
2541, 0.86494391443651, 0.22235482874556, 0
2542, 0.8120442602113, 0.24816225599535, 0
2543, 0.48635222904045, 0.28464098002527, 0
2544, 0.44752865357677, 0.27970805233707, 0
2545, 0.4542175324203, 0.28010548980504, 0
2546, 0.25943570854532, -0.028153411589581, 0
2547, 0.27149913594108, -0.0042505487193092, 0
2548, 0.26403880397767, 0.26629876330581, 0
2549, 0.27010237525138, 0.13393226645769, 0
2550, 0.29374746824523, 0.19178805313287, 0
2551, 0.68253651576726, 0.16000048573021, 0
2552, 0.19427462678269, -0.13675646790143, 0
2553, 0.19393395733324, -0.051024512093256, 0
2554, 0.21083761940594, -0.19607948916755, 0
2555, 0.15359483778727, -0.14202133434684, 0
2556, 0.14304260360198, 0.12360416224909, 0
2557, 0.16638013578815, 0.14853559511451, 0
2558, 0.18662267067911, 0.12570577236244, 0
2559, 0.16435714671725, 0.10331192917941, 0
2560, 0.16461239257567, 0.12514790016861, 0
2561, 0.7737792858917, -0.070424858919407, 0
2562, 0.6848420479028, -0.14293365017545, 0
2563, 0.73993703220645, -0.14604422560077, 0
2564, 0.24545552108963, -0.035393547549927, 0
2565, 0.26773408449369, -0.049254102458079, 0
2566, 0.2443862971724, -0.063569985806261, 0
2567, 0.2250321470111, -0.086402840801816, 0
2568, 0.21127543398284, 0.016186447143636, 0
2569, 0.23980181415281, -0.1633809761776, 0
2570, 0.14414429122271, 0.1726336317642, 0
2571, 0.19494750838476, 0.17248788091297, 0
2572, 0.16924359030438, 0.17326504553708, 0
2573, 0.37726544490612, -0.16954247002421, 0
2574, 0.36923476701889, -0.15024513001674, 0
2575, 0.35928454128583, -0.16336971155949, 0
2576, 0.73814802115392, 0.18985265712217, 0
2577, 0.61767778723378, 0.226463027647, 0
2578, 0.67872309789774, 0.19949569105376, 0
2579, 0.69729739576418, 0.1933874800344, 0
2580, 0.68937470810298, 0.15363980152097, 0
2581, 0.61918283021116, 0.20927856944809, 0
2582, 0.70922491101408, 0.27513426829423, 0
2583, 0.62206881230101, 0.28827875314826, 0
2584, 0.60671943008678, -0.16048216976416, 0
2585, 0.77298833427017, -0.2163489606774, 0
2586, 0.7884349500591, -0.093181299329411, 0
2587, 0.8282240865068, 0.17376216912892, 0
2588, 0.30813489993073, -0.17451924446158, 0
2589, 0.27762332293327, -0.16115046323677, 0
2590, 0.30936479608888, -0.22507883312651, 0
2591, 0.44141841652101, -0.23286875568755, 0
2592, 0.41584790756424, -0.22456682461458, 0
2593, 0.40908846013454, -0.18623949216776, 0
2594, 0.53273454277417, -0.20477394454809, 0
2595, 0.071840399661531, 0.19613549717561, 0
2596, 0.072219743745436, 0.22249629539763, 0
2597, 0.36424804702598, -0.15793802006488, 0
2598, 0.38377353659115, -0.19724061727094, 0
2599, 0.27071312452516, -0.1740289284882, 0
2600, 0.27757682149949, -0.18459809927866, 0
2601, 0.27413878453143, -0.070613153323222, 0
2602, 0.34808987241454, -0.16279774161819, 0
2603, 0.29880316041682, 0.082660186622513, 0
2604, 0.30507108421902, 0.14730381990448, 0
2605, 0.29343484153032, 0.079046618400715, 0
2606, 0.29320215712229, 0.075179404565253, 0
2607, 0.80931970462228, -0.003797694770342, 0
2608, 0.76555548473273, 0.025774804326243, 0
2609, 0.79083593335156, -0.0047431116219062, 0
2610, 0.28367933800529, 0.20443817453953, 0
2611, 0.21254722818794, 0.14687355432973, 0
2612, 0.28188422804221, 0.13259932782115, 0
2613, 0.20399354186468, 0.1038130014895, 0
2614, 0.20873796580866, 0.12537775404443, 0
2615, 0.50963578262306, -0.24086829675722, 0
2616, 0.52941411320036, -0.18872898137274, 0
2617, 0.59673696310226, -0.17879478582128, 0
2618, 0.51801623273192, -0.19339362374315, 0
2619, 0.27378079764203, 0.18866260763046, 0
2620, 0.065775727333335, -0.20131379096147, 0
2621, 0.067093749441979, -0.22672314695857, 0
2622, 0.28760416016771, 0.17899632814944, 0
2623, 0.38298625128585, 0.2675237422932, 0
2624, 0.46758757584331, -0.23233752048354, 0
2625, 0.48914455307886, -0.2490142216831, 0
2626, 0.48430528421588, -0.27328283073547, 0
2627, 0.76862638311116, -0.1005502542331, 0
2628, 0.70790441038459, -0.074618588952285, 0
2629, 0.68308376867698, 0.22461897358796, 0
2630, 0.59936557199526, 0.2315100397154, 0
2631, 0.7345405117568, 0.21591791854434, 0
2632, 0.28363492464992, -0.15109460357018, 0
2633, 0.27818390319583, 0.12198932824671, 0
2634, 0.31102826938459, 0.12124365996498, 0
2635, 0.22263515155436, 0.10265456167491, 0
2636, 0.65213559568089, 0.22334847753125, 0
2637, 0.16128492572881, -0.037249258871576, 0
2638, 0.20228492822844, -0.23545897908519, 0
2639, 0.25419883834416, -0.15106872082615, 0
2640, 0.73269505407646, -0.12780371886282, 0
2641, 0.78557512856688, -0.0177853876889, 0
2642, 0.31163735013587, 0.24504762255671, 0
2643, 0.35072847156092, 0.22853977571986, 0
2644, 0.41843670414067, 0.25456251540849, 0
2645, 0.44275072319384, 0.27268609843767, 0
2646, 0.47488362940705, 0.27308175780645, 0
2647, 0.44440470689719, 0.26730212063328, 0
2648, 0.55600074866181, -0.17956495637549, 0
2649, 0.55230380220625, -0.19033177657559, 0
2650, 0.75991849390175, 0.1558609761615, 0
2651, 0.74379717695114, 0.07194747227667, 0
2652, 0.68270961557926, 0.24082736719599, 0
2653, 0.27345723074573, -0.20330857153562, 0
2654, 0.32724615672111, -0.18006519456649, 0
2655, 0.37387503891679, -0.24720184547713, 0
2656, 0.32355678816521, -0.16789368692581, 0
2657, 0.34836416566815, -0.14702286778785, 0
2658, 0.35555967692408, -0.14259623889532, 0
2659, 0.37250301419694, -0.21399135598698, 0
2660, 0.37238461376885, -0.17213433136784, 0
2661, 0.20321782633194, 0.065089749863659, 0
2662, 0.22171757128911, 0.048992256517486, 0
2663, 0.181278592127, -0.070480831056046, 0
2664, 0.19035230190171, 0.045767578354894, 0
2665, 0.20715755936803, 0.04788392342816, 0
2666, 0.55973547254205, -0.23556995301051, 0
2667, 0.51039115105963, -0.25099437619733, 0
2668, 0.82982335077527, -0.098213489327003, 0
2669, 0.84775302006521, -0.10150197278911, 0
2670, 0.73415723177382, 0.1674322650009, 0
2671, 0.72130866013624, 0.12790702190826, 0
2672, 0.72319661784171, 0.17071147021556, 0
2673, 0.60079170679279, 0.28230946606792, 0
2674, 0.27724292515017, -0.10476990435272, 0
2675, 0.28117480330805, -0.14529176154683, 0
2676, 0.17257439424788, -0.14953808919328, 0
2677, 0.61812210629326, 0.27765995306837, 0
2678, 0.62117225553206, 0.26396928151894, 0
2679, 0.49426987217142, -0.22411700504344, 0
2680, 0.48832330648159, -0.22344329489561, 0
2681, 0.64556962224803, 0.28358592043234, 0
2682, 0.7113357297163, 0.15885069588431, 0
2683, 0.67161587611817, 0.17186114445986, 0
2684, 0.97391385437173, 0.24642939923757, 0
2685, 0.29108647703542, 0.16547423259535, 0
2686, 0.28815087427608, 0.15348742144865, 0
2687, 0.32139887570177, 0.16516433858752, 0
2688, 0.33230156315816, 0.17948495572848, 0
2689, 0.72121710727104, 0.16242816002335, 0
2690, 0.68391491209481, 0.16754600270215, 0
2691, 0.55207918001057, -0.18073233219626, 0
2692, 0.27459479076923, -0.14507932257521, 0
2693, 0.28080479367, 0.064318212320365, 0
2694, 0.2895151391938, 0.13672182476196, 0
2695, 0.31985224326047, 0.28529851704349, 0
2696, 0.34406513429291, 0.26884158127617, 0
2697, 0.37942281392805, 0.24713036626488, 0
2698, 0.095576770928195, 0.1701917482178, 0
2699, 0.11950395238878, 0.1456327418602, 0
2700, 0.11977517766552, 0.17147690536258, 0
2701, 0.14499463782919, -0.012847776263505, 0
2702, 0.73822467258313, 0.094214136511131, 0
2703, 0.77860613121362, 0.0065763471797694, 0
2704, 0.29972913426901, 0.10583401770175, 0
2705, 0.28504450194954, 0.18663989684035, 0
2706, 0.70172277291881, -0.086385139623776, 0
2707, 0.21805562009257, 0.16740429760476, 0
2708, 0.16653280371129, 0.063168802405811, 0
2709, 0.17128696711456, 0.042833214664694, 0
2710, 0.46940259725627, -0.2716620469371, 0
2711, 0.46502702971833, -0.22033839990744, 0
2712, 0.47374095989623, -0.22346310780896, 0
2713, 0.68546348045519, -0.16138100676673, 0
2714, 0.48678649982254, -0.23002177261849, 0
2715, 0.56745486615345, 0.2563979669574, 0
2716, 0.57484223384859, -0.17867880779025, 0
2717, 0.41190844875381, -0.19965318513028, 0
2718, 0.40429673230028, -0.21486439109897, 0
2719, 0.43139299212557, -0.21583982516324, 0
2720, 0.22029274608806, -0.11279648529223, 0
2721, 0.2701899057727, -0.22643379797573, 0
2722, 0.70745473331613, 0.24963700911267, 0
2723, 0.41799975106244, -0.1890741233976, 0
2724, 0.071661589858838, 0.16936161028167, 0
2725, 0.086826579482286, -0.17814916539229, 0
2726, 0.065101887068548, -0.17518466804911, 0
2727, 0.41220271069912, 0.24714403640911, 0
2728, 0.2163802562952, -0.095314645111767, 0
2729, 0.83664508729159, 0.091485870390962, 0
2730, 0.78686973747996, 0.037421865897057, 0
2731, 0.38535698165869, 0.28882014723864, 0
2732, 0.41576455120807, 0.26033494061415, 0
2733, 0.44646570959146, 0.28604848719811, 0
2734, 0.7514987007448, 0.17480337856551, 0
2735, 0.71774034344297, 0.11659021217175, 0
2736, 0.52488404249245, -0.27388528857284, 0
2737, 0.46601191856764, 0.26557481569388, 0
2738, 0.83117550083767, -0.0021622391981571, 0
2739, 0.33151827216814, -0.16966826609345, 0
2740, 0.27453800637245, -0.15295431421665, 0
2741, 0.16773418984113, -0.01764344521695, 0
2742, 0.7981346877323, -0.21129942286875, 0
2743, 0.82932884369205, -0.16645881582084, 0
2744, 0.79178596158732, 0.13475525293437, 0
2745, 0.74333177780988, 0.077587376241713, 0
2746, 0.17023090973285, -0.17102064401892, 0
2747, 0.28146966047204, -0.13384273521086, 0
2748, 0.27383531321638, 0.029695322285916, 0
2749, 0.46836954249371, 0.26797765180758, 0
2750, 0.62756204771335, -0.17097938890823, 0
2751, 0.66994443517833, -0.14772505543456, 0
2752, 0.64981930533934, -0.13446047883242, 0
2753, 0.7459418051382, 0.002965994820745, 0
2754, 0.74559707467877, 0.015736702701039, 0
2755, 0.74651077308567, 0.0095286226995566, 0
2756, 0.10887729665819, -0.15541594467218, 0
2757, 0.10837861851239, -0.18155178480632, 0
2758, 0.76882706991254, -0.085203193256789, 0
2759, 0.75160689545939, -0.11011675250658, 0
2760, 0.72283836791016, -0.072873062646344, 0
2761, 0.3093388597144, 0.19448975017112, 0
2762, 0.76485327615601, -0.13849252102534, 0
2763, 0.77622621272797, -0.028462971367337, 0
2764, 0.25099864020881, 0.22686605879731, 0
2765, 0.28711028668149, 0.11397054779707, 0
2766, 0.28270644995303, 0.11765174469399, 0
2767, 0.54775920045982, -0.20733950202879, 0
2768, 0.35012428700055, -0.15551271431773, 0
2769, 0.38662267813908, -0.2097970239439, 0
2770, 0.39043115980611, -0.20127755512939, 0
2771, 0.42718906623592, -0.19853544634303, 0
2772, 0.40147390469579, 0.27024594917221, 0
2773, 0.32632178894161, 0.22579110160265, 0
2774, 0.23660884822012, -0.21359441396557, 0
2775, 0.29140153437431, -0.070782275774923, 0
2776, 0.28447061628636, 0.094375335970528, 0
2777, 0.2192548748597, 0.083011209064161, 0
2778, 0.27809428363975, 0.095279383520952, 0
2779, 0.29069723125345, 0.050251890895303, 0
2780, 0.29539667651921, 0.064621560285573, 0
2781, 0.28455598981939, 0.047569088366945, 0
2782, 0.72432382186822, 0.087701804975703, 0
2783, 0.28379615858187, 0.06760395498939, 0
2784, 0.23848956319773, 0.099517850691444, 0
2785, 0.54454130819375, -0.19941859683616, 0
2786, 0.22148348485166, -0.019101148548427, 0
2787, 0.31569504510572, -0.1652443651466, 0
2788, 0.35201589834854, -0.14040462260114, 0
2789, 0.32291258387215, -0.19205456583005, 0
2790, 0.56374755115021, -0.21116779258442, 0
2791, 0.51402804425682, -0.22242059739664, 0
2792, 0.47045458525009, -0.22489416681529, 0
2793, 0.62568840898319, 0.20288073387898, 0
2794, 0.17399801503792, -0.098251769256206, 0
2795, 0.28862231571609, -0.21536281039782, 0
2796, 0.18398819341687, 0.083679651751117, 0
2797, 0.16521741191011, 0.083081234000343, 0
2798, 0.84273801875772, -0.25135528249471, 0
2799, 0.71256921836334, -0.029083162473329, 0
2800, 0.71389138470454, -0.012193572983422, 0
2801, 0.73179399472495, -0.085701932964919, 0
2802, 0.79181813513248, 0.084260221791889, 0
2803, 0.28996424605197, -0.08203272334993, 0
2804, 0.28166342288905, 0.032399005844171, 0
2805, 0.75345236338587, -0.14411059075285, 0
2806, 0.58752614867055, -0.1785638928907, 0
2807, 0.64726967490463, -0.16374666330282, 0
2808, 0.59704412562929, 0.26687969769903, 0
2809, 0.3959409887987, -0.17942932565157, 0
2810, 0.31536954877766, 0.15334373329761, 0
2811, 0.4351319635618, 0.26319889443446, 0
2812, 0.36105317280743, 0.20713703619853, 0
2813, 0.77323577498975, 0.097781731987667, 0
2814, 0.59766478460997, -0.15741304037001, 0
2815, 0.74212283594466, -0.23685843295034, 0
2816, 0.54787724956371, 0.29033487809373, 0
2817, 0.59328761785593, -0.23049057279445, 0
2818, 0.25679885079003, -0.17722073714332, 0
2819, 0.80520666354207, 0.031490679293854, 0
2820, 0.11092024791465, -0.12732280719685, 0
2821, 0.66104986949503, -0.15006811691417, 0
2822, 0.65394514634717, -0.13841461702165, 0
2823, 0.63475089640397, -0.152690726351, 0
2824, 0.60532042549436, -0.16508054854225, 0
2825, 0.60513534394319, -0.19229196927601, 0
2826, 0.70416535271672, 0.14364423779327, 0
2827, 0.6558677774511, 0.19386006731312, 0
2828, 0.45400070219781, 0.28626583368613, 0
2829, 0.72356166030646, -0.12514754543845, 0
2830, 0.27702135755138, -0.12971694015848, 0
2831, 0.31306677471458, 0.23335690829968, 0
2832, 0.66364272389133, -0.14498615195675, 0
2833, 0.71563095597533, -0.016856905638392, 0
2834, 0.72106697350784, 0.1119205252991, 0
2835, 0.75775974594542, -0.013318852273029, 0
2836, 0.73112200959244, -0.026274098005758, 0
2837, 0.72021199615748, -0.035493500588091, 0
2838, 0.29687888274985, 0.14979520738975, 0
2839, 0.29117173183923, 0.11902358778535, 0
2840, 0.28783114460613, 0.038555404995409, 0
2841, 0.73726215445834, -0.022262891227667, 0
2842, 0.7504961949577, 0.045548363532928, 0
2843, 0.21811058474488, -0.07897530416212, 0
2844, 0.29359964924495, -0.096786452071281, 0
2845, 0.27342455435641, -0.12468339184536, 0
2846, 0.40608440208971, -0.25318593510914, 0
2847, 0.45835701329112, -0.20235264129029, 0
2848, 0.41758047569492, -0.1999064659764, 0
2849, 0.44092400526529, 0.27863379724043, 0
2850, 0.69612693665806, 0.17350799425088, 0
2851, 0.70932168425901, 0.15303078866609, 0
2852, 0.77628879081887, 0.030598290481925, 0
2853, 0.28894880485496, -0.078909237219035, 0
2854, 0.67665285796668, -0.18145594893121, 0
2855, 0.47185697760302, -0.23899152243614, 0
2856, 0.42620793977678, -0.19059791272499, 0
2857, 0.36995740799168, 0.23785573374878, 0
2858, 0.30270082730035, 0.28517580029754, 0
2859, 0.74390896839481, -0.0033606519404067, 0
2860, 0.39194687209684, -0.17653637503472, 0
2861, 0.23307650279005, 0.12521985219094, 0
2862, 0.27013233183592, 0.058189748355297, 0
2863, 0.23394248052206, 0.04908409600429, 0
2864, 0.23175491373361, -0.061395486870723, 0
2865, 0.61581806349879, -0.15916587888113, 0
2866, 0.26762086956558, 0.045559140031136, 0
2867, 0.23983706001606, -0.084496707855021, 0
2868, 0.29789903796724, -0.08383680018721, 0
2869, 0.65638900892979, 0.20310216387198, 0
2870, 0.73893576033543, -0.054144558939858, 0
2871, 0.23280855897705, -0.079288851337603, 0
2872, 0.27574925298716, 0.055460940354264, 0
2873, 0.35690985189083, 0.20538597480996, 0
2874, 0.31210468505547, -0.10758210327229, 0
2875, 0.66785756801083, -0.19074545351093, 0
2876, 0.74800222649231, 0.037533734498916, 0
2877, 0.74640943814232, 0.025336335206245, 0
2878, 0.74842028508464, 0.031535883361328, 0
2879, 0.6587828221077, -0.16629416050611, 0
2880, 0.3855972591276, -0.16383884991692, 0
2881, 0.38256027765534, -0.21991699982626, 0
2882, 0.42481700307536, -0.22066631957121, 0
2883, 0.12094143250991, 0.12042951744017, 0
2884, 0.45403439051762, -0.20129306552241, 0
2885, 0.3929961082035, 0.22428721262352, 0
2886, 0.70404371328087, 0.20490382984205, 0
2887, 0.20789348712923, -0.17748804838524, 0
2888, 0.16078052413502, -0.11734268392163, 0
2889, 0.60890933245955, 0.24006018546848, 0
2890, 0.63103489475223, 0.22384467150805, 0
2891, 0.6070477921674, 0.2319296617053, 0
2892, 0.5005161326618, -0.24084885133814, 0
2893, 0.36286269197683, 0.24077903572024, 0
2894, 0.64655231898891, -0.13698522369498, 0
2895, 0.37482860736908, -0.15722156739468, 0
2896, 0.22417448477585, -0.16198681685296, 0
2897, 0.62031932991215, -0.2370092875586, 0
2898, 0.33481080253509, 0.24647434050216, 0
2899, 0.34321165382073, 0.23656771509, 0
2900, 0.59188612540842, 0.27608350641888, 0
2901, 0.56085953797427, 0.26958818871948, 0
2902, 0.23787410750173, -0.040063798902673, 0
2903, 0.27051225868939, -0.067490810975143, 0
2904, 0.62085082729071, -0.17163311027837, 0
2905, 0.22471904809716, 0.006117739426572, 0
2906, 0.80556045706136, -0.13578132893933, 0
2907, 0.34655148486691, -0.17091220974451, 0
2908, 0.294407285673, -0.12071307030631, 0
2909, 0.2994607639112, -0.087240036884846, 0
2910, 0.20199529294699, 0.083721996098239, 0
2911, 0.6718338010491, 0.18181779542313, 0
2912, 0.408155655901, 0.28942269703761, 0
2913, 0.59356582234263, 0.245701137272, 0
2914, 0.71110690950846, 0.12429324084964, 0
2915, 0.61001597428218, 0.21845636698844, 0
2916, 0.5916558841584, -0.17526583695535, 0
2917, 0.27671677167294, -0.099553676800927, 0
2918, 0.63593268824601, 0.21071063992496, 0
2919, 0.39998467563535, 0.22877861133677, 0
2920, 0.57132889889427, -0.20195661501934, 0
2921, 0.26970108745533, 0.087511431568693, 0
2922, 0.89281330737907, 0.22140071987103, 0
2923, 0.28029543966144, 0.10199145435117, 0
2924, 0.27086119469949, 0.079599113676276, 0
2925, 0.7460872148131, 0.04255910480641, 0
2926, 0.74247655163472, 0.020445312086824, 0
2927, 0.18660375383025, -0.021794652206672, 0
2928, 0.71320955549828, -0.049285975674225, 0
2929, 0.7557202779642, -0.06914449181968, 0
2930, 0.41410888222917, 0.23697157761226, 0
2931, 0.43848944237685, -0.19478626242398, 0
2932, 0.51440250914914, 0.27657809511999, 0
2933, 0.75515843283426, 0.18870250555184, 0
2934, 0.31055299244941, 0.13370560615036, 0
2935, 0.29663411042347, 0.096812271239488, 0
2936, 0.70770026718997, 0.13985869916742, 0
2937, 0.76371868147283, 0.077810935225919, 0
2938, 0.50853139330033, 0.28494685038256, 0
2939, 0.53783576576296, 0.28347733053935, 0
2940, 0.52687081881795, 0.28470641606606, 0
2941, 0.69395063431446, 0.25562677724835, 0
2942, 0.7941901609772, -0.23404357529159, 0
2943, 0.72668043886408, 0.070700095519896, 0
2944, 0.39990732296754, 0.27928533398568, 0
2945, 0.50570069844005, -0.19669990446366, 0
2946, 0.85701672645164, -0.025028937262002, 0
2947, 0.45116607612084, 0.2594610235314, 0
2948, 0.21954817294495, -0.056799229952132, 0
2949, 0.49804529417106, -0.27420089702935, 0
2950, 0.71590543644736, -0.23429910634321, 0
2951, 0.35268352279431, 0.20339450706845, 0
2952, 0.62800492488895, -0.17949210414923, 0
2953, 0.5211814842926, 0.28460057865403, 0
2954, 0.69612909044503, -0.17679948958155, 0
2955, 0.32764519153832, -0.25290994951339, 0
2956, 0.42974778701628, -0.19105254502124, 0
2957, 0.62662244337325, -0.16342496297242, 0
2958, 0.20862388541076, -0.10635002421748, 0
2959, 0.63638849580889, 0.24086332335175, 0
2960, 0.450166824149, 0.2639488453295, 0
2961, 0.67977227901626, 0.25948899739656, 0
2962, 0.45507407539307, -0.2132709349055, 0
2963, 0.47187217343091, 0.28282542347575, 0
2964, 0.62097921105738, -0.16456275948643, 0
2965, 0.36478574613805, -0.15313252851701, 0
2966, 0.5694976048983, -0.19454662126609, 0
2967, 0.3903427990381, 0.24516534586962, 0
2968, 0.66148668589576, 0.18016927421055, 0
2969, 0.27506221040382, 0.21860176718787, 0
2970, 0.84794650834531, -0.22518746402369, 0
2971, 0.42797438096041, 0.29156014147262, 0
2972, 0.28075845456225, -0.1406075864985, 0
2973, 0.65841106011063, -0.126965685882, 0
2974, 0.50084441720723, -0.23211330232159, 0
2975, 0.78328057867697, -0.13970662271688, 0
2976, 0.28468785595368, 0.2844683868398, 0
2977, 0.28728539647882, -0.15758141842874, 0
2978, 0.32138865596576, 0.20362662916123, 0
2979, 0.5894967047708, 0.26264395358894, 0
2980, 0.34544416698861, 0.19143367663044, 0
2981, 0.30157651126923, 0.11014684770954, 0
2982, 0.72195485057843, 0.10616601381196, 0
2983, 0.3107018925161, -0.18919687929629, 0
2984, 0.26344681881772, -0.079552109193856, 0
2985, 0.23514954719685, -0.25507725237297, 0
2986, 0.68854271039516, 0.17272691823479, 0
2987, 0.18730856037863, -0.11108201093043, 0
2988, 0.80043822198132, -0.18778697684907, 0
2989, 0.13176199761441, 0.082042906550432, 0
2990, 0.32555449998076, 0.25815475905889, 0
2991, 0.26591518769225, -0.045199426737345, 0
2992, 0.29892427027963, 0.19938649278464, 0
2993, 0.31271076861553, 0.14538174378911, 0
2994, 0.29743105600683, 0.25612060757008, 0
2995, 0.73278591239907, 0.14334979102111, 0
2996, 0.75464641252943, -0.15522811393426, 0
2997, 0.72773446439382, -0.11472824925328, 0
2998, 0.62063730999938, 0.25072199565098, 0
2999, 0.31752717322648, -0.20675396887108, 0
3000, 0.35681340999294, -0.15047219291279, 0
3001, 0.27557437486563, -0.038646287648512, 0
3002, 0.29317148917567, 0.12741241431195, 0
3003, 0.21486857621588, -0.12642868782105, 0
3004, 0.60361416606698, -0.15677088602317, 0
3005, 0.52180860510749, 0.27821533733121, 0
3006, 0.29615494023696, -0.13791605967834, 0
3007, 0.84294388586963, -0.075256942677319, 0
3008, 0.3712092336331, -0.26406506335677, 0
3009, 0.52426986009975, -0.20309558941216, 0
3010, 0.69919661104736, -0.090085083976236, 0
3011, 0.39937767604522, -0.17440559984352, 0
3012, 0.20778015717933, -0.04903325539042, 0
3013, 0.30134992653294, -0.20208205400182, 0
3014, 0.60746177634122, -0.1558318916554, 0
3015, 0.59337063120059, -0.16139649612195, 0
3016, 0.47413474919597, -0.2200792582645, 0
3017, 0.43199359134568, -0.19378193372209, 0
3018, 0.70133571850286, 0.13979118579838, 0
3019, 0.69832419861498, 0.1431108286754, 0
3020, 0.66734912493097, 0.21894905601178, 0
3021, 0.27897288706015, 0.033470372482585, 0
3022, 0.15510572143343, 0.013303618620906, 0
3023, 0.94653646711899, 0.16590472654449, 0
3024, 0.83683795113071, 0.22339782314853, 0
3025, 0.66389042928063, -0.16035161440795, 0
3026, 0.63651037986803, -0.17838298955064, 0
3027, 0.75670472732976, 0.22123517244097, 0
3028, 0.75480549440122, 0.24056842483429, 0
3029, 0.77945717328724, 0.20391788705714, 0
3030, 0.8050273481735, 0.20180765771257, 0
3031, 0.83331132454283, 0.19877410449537, 0
3032, 0.8627439113014, 0.1966571204109, 0
3033, 0.89150059435359, 0.19511746023536, 0
3034, 0.91939047529157, 0.19394672160718, 0
3035, 0.94668596242285, 0.19303594435352, 0
3036, 0.97346626969325, 0.19232955510712, 0
3037, 0.97432254263488, 0.27323997575303, 0
3038, 0.94853643021201, 0.2733748696622, 0
3039, 0.9224212005637, 0.27355476312936, 0
3040, 0.89606172328135, 0.27375809904303, 0
3041, 0.8694668006222, 0.27393580060541, 0
3042, 0.84266813304203, 0.27397148368645, 0
3043, 0.81559183986759, 0.27355916412741, 0
3044, 0.78714199618286, 0.27179346406256, 0
3045, 0.70457119773337, 0.16143302323104, 0
3046, 0.68767881500762, 0.16026597633203, 0
3047, 0.7568143716379, 0.20419213371571, 0
3048, 0.75221530777799, 0.26495464582098, 0
3049, 0.64265729916551, -0.22213704685505, 0
3050, 0.59809584966427, -0.21311249578545, 0
3051, 0.56766751411664, -0.18806345064865, 0
3052, 0.65565416091116, -0.12934840239906, 0
3053, 0.66835432842801, -0.24757073097007, 0
3054, 0.40324440775659, 0.23754943795289, 0
3055, 0.40720801301606, 0.23947928413702, 0
3056, 0.41100437539663, 0.24128791368554, 0
3057, 0.41463864289458, 0.24300752259857, 0
3058, 0.42041445827753, 0.25791086118401, 0
3059, 0.40387645503879, 0.24422574508571, 0
3060, 0.40091582077574, 0.24935553128929, 0
3061, 0.37253073732012, 0.28712114628863, 0
3062, 0.37456522762098, 0.21133190822517, 0
3063, 0.34838720429663, 0.20115249146589, 0
3064, 0.39929391814537, 0.23543108235538, 0
3065, 0.35522782309627, 0.28234949551322, 0
3066, 0.76134158450022, 0.061961171348916, 0
3067, 0.57191469449262, -0.17348694075074, 0
3068, 0.54128648712995, -0.18324900767916, 0
3069, 0.22922107617713, -0.054355116741962, 0
3070, 0.57419050925366, 0.26193693292247, 0
3071, 0.57058077164831, 0.25500116175329, 0
3072, 0.52333407659262, -0.26146021836151, 0
3073, 0.54773893113136, -0.19017922343809, 0
3074, 0.559972346652, -0.17824186814426, 0
3075, 0.53267734913166, -0.24742763578213, 0
3076, 0.42714497365952, 0.26529341943226, 0
3077, 0.41260981183653, 0.27797712434902, 0
3078, 0.49352078931633, 0.27826418406888, 0
3079, 0.3934062876737, -0.22375761526788, 0
******* E L E M E N T S *************
*ELEMENT, type=T3D2, ELSET=Line1
1, 1, 10
2, 10, 19
3, 19, 11
4, 11, 20
5, 20, 12
6, 12, 21
7, 21, 13
8, 13, 22
9, 22, 14
10, 14, 23
11, 23, 15
12, 15, 24
13, 24, 16
14, 16, 25
15, 25, 17
16, 17, 26
17, 26, 18
18, 18, 2
*ELEMENT, type=T3D2, ELSET=Line2
19, 2, 27
20, 27, 32
21, 32, 28
22, 28, 33
23, 33, 29
24, 29, 34
25, 34, 30
26, 30, 35
27, 35, 31
28, 31, 3
*ELEMENT, type=T3D2, ELSET=Line3
29, 3, 36
30, 36, 44
31, 44, 37
32, 37, 45
33, 45, 38
34, 38, 46
35, 46, 39
36, 39, 47
37, 47, 40
38, 40, 48
39, 48, 41
40, 41, 49
41, 49, 42
42, 42, 50
43, 50, 43
44, 43, 4
*ELEMENT, type=T3D2, ELSET=Line4
45, 4, 51
46, 51, 62
47, 62, 52
48, 52, 63
49, 63, 53
50, 53, 64
51, 64, 54
52, 54, 65
53, 65, 55
54, 55, 66
55, 66, 56
56, 56, 67
57, 67, 57
58, 57, 68
59, 68, 58
60, 58, 69
61, 69, 59
62, 59, 70
63, 70, 60
64, 60, 71
65, 71, 61
66, 61, 5
*ELEMENT, type=T3D2, ELSET=Line5
67, 5, 72
68, 72, 83
69, 83, 73
70, 73, 84
71, 84, 74
72, 74, 85
73, 85, 75
74, 75, 86
75, 86, 76
76, 76, 87
77, 87, 77
78, 77, 88
79, 88, 78
80, 78, 89
81, 89, 79
82, 79, 90
83, 90, 80
84, 80, 91
85, 91, 81
86, 81, 92
87, 92, 82
88, 82, 6
*ELEMENT, type=T3D2, ELSET=Line6
89, 6, 93
90, 93, 103
91, 103, 94
92, 94, 104
93, 104, 95
94, 95, 105
95, 105, 96
96, 96, 106
97, 106, 97
98, 97, 107
99, 107, 98
100, 98, 108
101, 108, 99
102, 99, 109
103, 109, 100
104, 100, 110
105, 110, 101
106, 101, 111
107, 111, 102
108, 102, 7
*ELEMENT, type=T3D2, ELSET=Line7
109, 7, 112
110, 112, 123
111, 123, 113
112, 113, 124
113, 124, 114
114, 114, 125
115, 125, 115
116, 115, 126
117, 126, 116
118, 116, 127
119, 127, 117
120, 117, 128
121, 128, 118
122, 118, 129
123, 129, 119
124, 119, 130
125, 130, 120
126, 120, 131
127, 131, 121
128, 121, 132
129, 132, 122
130, 122, 8
*ELEMENT, type=T3D2, ELSET=Line8
131, 8, 133
132, 133, 144
133, 144, 134
134, 134, 145
135, 145, 135
136, 135, 146
137, 146, 136
138, 136, 147
139, 147, 137
140, 137, 148
141, 148, 138
142, 138, 149
143, 149, 139
144, 139, 150
145, 150, 140
146, 140, 151
147, 151, 141
148, 141, 152
149, 152, 142
150, 142, 153
151, 153, 143
152, 143, 1
*ELEMENT, type=T3D2, ELSET=Line9
153, 9, 154
154, 154, 334
155, 334, 332
156, 332, 335
157, 335, 331
158, 331, 336
159, 336, 330
160, 330, 337
161, 337, 329
162, 329, 338
163, 338, 328
164, 328, 339
165, 339, 327
166, 327, 340
167, 340, 326
168, 326, 341
169, 341, 325
170, 325, 342
171, 342, 324
172, 324, 343
173, 343, 323
174, 323, 344
175, 344, 322
176, 322, 345
177, 345, 321
178, 321, 346
179, 346, 320
180, 320, 347
181, 347, 319
182, 319, 348
183, 348, 318
184, 318, 349
185, 349, 317
186, 317, 350
187, 350, 316
188, 316, 351
189, 351, 315
190, 315, 352
191, 352, 314
192, 314, 353
193, 353, 313
194, 313, 354
195, 354, 312
196, 312, 355
197, 355, 311
198, 311, 356
199, 356, 310
200, 310, 357
201, 357, 309
202, 309, 358
203, 358, 308
204, 308, 359
205, 359, 307
206, 307, 360
207, 360, 306
208, 306, 361
209, 361, 305
210, 305, 362
211, 362, 304
212, 304, 363
213, 363, 303
214, 303, 364
215, 364, 302
216, 302, 365
217, 365, 301
218, 301, 366
219, 366, 300
220, 300, 367
221, 367, 299
222, 299, 368
223, 368, 298
224, 298, 369
225, 369, 297
226, 297, 370
227, 370, 296
228, 296, 371
229, 371, 295
230, 295, 372
231, 372, 294
232, 294, 373
233, 373, 293
234, 293, 374
235, 374, 292
236, 292, 375
237, 375, 291
238, 291, 376
239, 376, 290
240, 290, 377
241, 377, 289
242, 289, 378
243, 378, 288
244, 288, 379
245, 379, 287
246, 287, 380
247, 380, 286
248, 286, 381
249, 381, 285
250, 285, 382
251, 382, 284
252, 284, 383
253, 383, 283
254, 283, 384
255, 384, 282
256, 282, 385
257, 385, 281
258, 281, 386
259, 386, 280
260, 280, 387
261, 387, 279
262, 279, 388
263, 388, 278
264, 278, 389
265, 389, 277
266, 277, 390
267, 390, 276
268, 276, 391
269, 391, 275
270, 275, 392
271, 392, 274
272, 274, 393
273, 393, 273
274, 273, 394
275, 394, 272
276, 272, 395
277, 395, 271
278, 271, 396
279, 396, 270
280, 270, 397
281, 397, 269
282, 269, 398
283, 398, 268
284, 268, 399
285, 399, 267
286, 267, 400
287, 400, 266
288, 266, 401
289, 401, 265
290, 265, 402
291, 402, 264
292, 264, 403
293, 403, 263
294, 263, 404
295, 404, 262
296, 262, 405
297, 405, 261
298, 261, 406
299, 406, 260
300, 260, 407
301, 407, 259
302, 259, 408
303, 408, 258
304, 258, 409
305, 409, 257
306, 257, 410
307, 410, 256
308, 256, 411
309, 411, 255
310, 255, 412
311, 412, 254
312, 254, 413
313, 413, 253
314, 253, 414
315, 414, 252
316, 252, 415
317, 415, 251
318, 251, 416
319, 416, 250
320, 250, 417
321, 417, 249
322, 249, 418
323, 418, 248
324, 248, 419
325, 419, 247
326, 247, 420
327, 420, 246
328, 246, 421
329, 421, 245
330, 245, 422
331, 422, 244
332, 244, 423
333, 423, 243
334, 243, 424
335, 424, 242
336, 242, 425
337, 425, 241
338, 241, 426
339, 426, 240
340, 240, 427
341, 427, 239
342, 239, 428
343, 428, 238
344, 238, 429
345, 429, 237
346, 237, 430
347, 430, 236
348, 236, 431
349, 431, 235
350, 235, 432
351, 432, 234
352, 234, 433
353, 433, 233
354, 233, 434
355, 434, 232
356, 232, 435
357, 435, 231
358, 231, 436
359, 436, 230
360, 230, 437
361, 437, 229
362, 229, 438
363, 438, 228
364, 228, 439
365, 439, 227
366, 227, 440
367, 440, 226
368, 226, 441
369, 441, 225
370, 225, 442
371, 442, 224
372, 224, 443
373, 443, 223
374, 223, 444
375, 444, 222
376, 222, 445
377, 445, 221
378, 221, 446
379, 446, 220
380, 220, 447
381, 447, 219
382, 219, 448
383, 448, 218
384, 218, 449
385, 449, 217
386, 217, 450
387, 450, 216
388, 216, 451
389, 451, 215
390, 215, 452
391, 452, 214
392, 214, 453
393, 453, 213
394, 213, 454
395, 454, 212
396, 212, 455
397, 455, 211
398, 211, 456
399, 456, 210
400, 210, 457
401, 457, 209
402, 209, 458
403, 458, 208
404, 208, 459
405, 459, 207
406, 207, 460
407, 460, 206
408, 206, 461
409, 461, 205
410, 205, 462
411, 462, 204
412, 204, 463
413, 463, 203
414, 203, 464
415, 464, 202
416, 202, 465
417, 465, 201
418, 201, 466
419, 466, 200
420, 200, 467
421, 467, 199
422, 199, 468
423, 468, 198
424, 198, 469
425, 469, 197
426, 197, 470
427, 470, 196
428, 196, 471
429, 471, 195
430, 195, 472
431, 472, 194
432, 194, 473
433, 473, 193
434, 193, 474
435, 474, 192
436, 192, 475
437, 475, 191
438, 191, 476
439, 476, 190
440, 190, 477
441, 477, 189
442, 189, 478
443, 478, 188
444, 188, 479
445, 479, 187
446, 187, 480
447, 480, 186
448, 186, 481
449, 481, 185
450, 185, 482
451, 482, 184
452, 184, 483
453, 483, 183
454, 183, 484
455, 484, 182
456, 182, 485
457, 485, 181
458, 181, 486
459, 486, 180
460, 180, 487
461, 487, 179
462, 179, 488
463, 488, 178
464, 178, 489
465, 489, 177
466, 177, 490
467, 490, 176
468, 176, 491
469, 491, 175
470, 175, 492
471, 492, 174
472, 174, 493
473, 493, 173
474, 173, 494
475, 494, 172
476, 172, 495
477, 495, 171
478, 171, 496
479, 496, 170
480, 170, 497
481, 497, 169
482, 169, 498
483, 498, 168
484, 168, 499
485, 499, 167
486, 167, 500
487, 500, 166
488, 166, 501
489, 501, 165
490, 165, 502
491, 502, 164
492, 164, 503
493, 503, 163
494, 163, 504
495, 504, 162
496, 162, 505
497, 505, 161
498, 161, 506
499, 506, 160
500, 160, 507
501, 507, 159
502, 159, 508
503, 508, 158
504, 158, 509
505, 509, 157
506, 157, 510
507, 510, 156
508, 156, 511
509, 511, 155
510, 155, 512
511, 512, 333
512, 333, 9
*ELEMENT, type=CPS4, ELSET=Surface1
513, 539, 1342, 1343, 1340
514, 1340, 1343, 1341, 543
515, 1343, 138, 149, 1341
516, 1342, 148, 138, 1343
517, 2492, 362, 305, 1925
518, 3040, 3039, 73, 84
519, 3036, 3035, 3023, 1862
520, 1643, 1094, 1926, 889
521, 1652, 2285, 895, 2579
522, 1958, 360, 307, 1805
523, 2227, 2529, 1310, 2527
524, 2450, 702, 2323, 1808
525, 675, 2450, 1808, 2693
526, 658, 1815, 1483, 2606
527, 1100, 1175, 1330, 1378
528, 1377, 1127, 2716, 2435
529, 2854, 1026, 1034, 994
530, 1127, 2011, 1001, 1329
531, 1615, 2807, 1048, 1002
532, 1376, 2875, 1699, 1380
533, 1360, 3074, 2648, 1101
534, 2594, 1007, 2530, 1332
535, 1468, 1015, 2033, 1144
536, 2332, 1615, 1002, 1623
537, 900, 1365, 1366, 1363
538, 1363, 1366, 1364, 901
539, 1366, 157, 509, 1364
540, 1365, 510, 157, 1366
541, 1305, 945, 1171, 2231
542, 2523, 1464, 1968, 2209
543, 2121, 977, 955, 976
544, 963, 1305, 2056, 1568
545, 2120, 2232, 960, 2837
546, 2837, 960, 2239, 1463
547, 572, 1374, 1375, 1372
548, 1372, 1375, 1373, 571
549, 1375, 56, 67, 1373
550, 1374, 66, 56, 1375
551, 2067, 1042, 2191, 997
552, 3050, 1357, 1174, 1040
553, 1048, 2161, 1292, 1295
554, 21, 13, 1384, 1381
555, 1381, 1384, 1382, 517
556, 1384, 1383, 518, 1382
557, 13, 22, 1383, 1384
558, 2271, 2381, 598, 1572
559, 595, 2919, 275, 391
560, 1883, 3056, 3057, 2727
561, 1637, 399, 268, 1738
562, 100, 110, 1908, 1692
563, 1389, 602, 97, 107
564, 2657, 2222, 2658, 2788
565, 2480, 807, 2452, 777
566, 777, 2452, 774, 791
567, 2452, 2268, 775, 774
568, 511, 156, 1395, 1393
569, 1393, 1395, 1394, 899
570, 1395, 1365, 900, 1394
571, 156, 510, 1365, 1395
572, 2727, 3057, 1396, 1592
573, 1396, 1399, 1397, 624
574, 1399, 278, 388, 1397
575, 1939, 2992, 2761, 600
576, 570, 1401, 1402, 1400
577, 1400, 1402, 1347, 569
578, 1402, 58, 69, 1347
579, 1401, 68, 58, 1402
580, 150, 140, 1406, 1403
581, 1403, 1406, 1404, 542
582, 1406, 1405, 541, 1404
583, 140, 151, 1405, 1406
584, 579, 1409, 1410, 1407
585, 1407, 1410, 1408, 578
586, 1410, 53, 64, 1408
587, 1409, 63, 53, 1410
588, 149, 139, 1412, 1341
589, 1341, 1412, 1411, 543
590, 1412, 1403, 542, 1411
591, 139, 150, 1403, 1412
592, 1121, 1624, 3050, 1030
593, 1628, 1074, 2230, 2615
594, 1099, 2618, 469, 198
595, 1421, 2643, 593, 2442
596, 2696, 596, 2990, 2053
597, 616, 1215, 1443, 2370
598, 3065, 3061, 114, 125
599, 617, 591, 1070, 1442
600, 2165, 1442, 1215, 616
601, 629, 1229, 611, 1947
602, 2053, 2898, 2129, 1222
603, 2873, 1593, 2373, 2812
604, 2131, 1816, 1637, 3063
605, 1396, 3057, 1445, 1399
606, 593, 1419, 620, 1261
607, 823, 1424, 1425, 1422
608, 2279, 839, 2830, 2845
609, 1678, 2392, 839, 2279
610, 1424, 442, 225, 1425
611, 130, 120, 1429, 1426
612, 1426, 1429, 1427, 523
613, 1429, 1428, 524, 1427
614, 120, 131, 1428, 1429
615, 538, 1431, 1432, 1430
616, 1430, 1432, 1342, 539
617, 1432, 137, 148, 1342
618, 1431, 147, 137, 1432
619, 2993, 2431, 407, 260
620, 2040, 1437, 2781, 1461
621, 2935, 657, 1450, 2329
622, 2784, 1747, 2861, 2635
623, 2411, 2784, 2635, 2777
624, 1925, 305, 361, 2915
625, 1441, 1745, 2003, 2636
626, 1744, 2577, 1639, 885
627, 2257, 2104, 558, 3020
628, 2812, 2373, 1220, 1941
629, 1584, 1415, 2271, 530
630, 2129, 2899, 1421, 1260
631, 624, 1397, 1448, 1446
632, 1446, 1448, 1447, 622
633, 1448, 279, 387, 1447
634, 1397, 388, 279, 1448
635, 1983, 1284, 2687, 1071
636, 663, 1482, 409, 258
637, 2810, 2115, 406, 261
638, 2227, 2411, 699, 671
639, 1192, 1011, 3068, 1010
640, 1333, 1025, 1006, 2532
641, 574, 2949, 1783, 1782
642, 2289, 1668, 2062, 1798
643, 2136, 2363, 356, 311
644, 873, 2136, 311, 355
645, 1593, 398, 269, 2373
646, 1445, 2930, 277, 389
647, 1455, 1454, 2623, 1388
648, 515, 1458, 1459, 1457
649, 1457, 1459, 1381, 517
650, 1459, 12, 21, 1381
651, 1458, 20, 12, 1459
652, 2227, 671, 1844, 2529
653, 2529, 1844, 2098, 1351
654, 2862, 2099, 2226, 2872
655, 1613, 1352, 417, 250
656, 1205, 976, 504, 163
657, 954, 2607, 2609, 2641
658, 963, 964, 2338, 946
659, 67, 57, 1467, 1373
660, 1373, 1467, 1466, 571
661, 1467, 1401, 570, 1466
662, 57, 68, 1401, 1467
663, 2530, 2525, 1895, 1635
664, 1332, 2530, 1635, 1452
665, 1896, 3009, 1413, 2248
666, 2230, 1012, 766, 2974
667, 1787, 306, 360, 1958
668, 1279, 772, 2659, 1579
669, 788, 1166, 2654, 2789
670, 2602, 1793, 2141, 2768
671, 796, 451, 216, 1476
672, 2923, 1530, 2385, 687
673, 2145, 1285, 635, 1223
674, 1291, 2810, 1680, 636
675, 2841, 1102, 1545, 943
676, 2405, 2628, 1567, 2760
677, 2801, 1810, 2445, 1246
678, 2521, 2054, 1052, 2376
679, 2386, 2311, 1638, 2403
680, 667, 255, 411, 692
681, 2431, 1257, 259, 407
682, 2549, 646, 2612, 1258
683, 840, 1767, 732, 1840
684, 2176, 724, 1107, 701
685, 685, 2553, 3012, 1321
686, 794, 1391, 1489, 1487
687, 1487, 1489, 1488, 795
688, 1489, 221, 445, 1488
689, 1391, 446, 221, 1489
690, 1286, 438, 229, 2909
691, 1491, 1586, 2245, 820
692, 835, 1177, 2498, 815
693, 2266, 1645, 2793, 2138
694, 887, 2886, 854, 856
695, 882, 1776, 2913, 2364
696, 1472, 1095, 2362, 1645
697, 1278, 2895, 809, 2200
698, 1497, 777, 791, 1474
699, 1795, 1319, 798, 807
700, 573, 1500, 1501, 1499
701, 1499, 1501, 1374, 572
702, 1501, 55, 66, 1374
703, 1500, 65, 55, 1501
704, 1818, 872, 1439, 1640
705, 1081, 96, 106, 1611
706, 871, 1082, 6, 93
707, 555, 1060, 3005, 2953
708, 1498, 2657, 794, 2015
709, 2096, 2142, 1558, 2809
710, 2515, 2597, 2965, 1304
711, 537, 1510, 1511, 1509
712, 1509, 1511, 1431, 538
713, 1511, 136, 147, 1431
714, 1510, 146, 136, 1511
715, 1439, 2105, 3070, 1819
716, 2953, 3005, 1713, 2940
717, 1082, 1763, 82, 6
718, 872, 1083, 2255, 1198
719, 604, 1516, 1517, 1515
720, 1162, 862, 1759, 1758
721, 1516, 385, 282, 1517
722, 2437, 847, 2662, 2665
723, 1519, 243, 423, 727
724, 1313, 2176, 701, 1485
725, 47, 1521, 1522, 39
726, 39, 1522, 1520, 46
727, 1188, 2942, 1054, 1089
728, 2988, 2521, 2376, 2375
729, 22, 14, 1525, 1383
730, 1383, 1525, 1523, 518
731, 1230, 1132, 2599, 2600
732, 14, 23, 1524, 1525
733, 2192, 2416, 2432, 1625
734, 2012, 2825, 1037, 1000
735, 1035, 1736, 1126, 1684
736, 2227, 2527, 653, 2228
737, 1433, 412, 255, 667
738, 643, 2145, 1119, 2707
739, 2118, 649, 3002, 647
740, 512, 155, 1535, 1533
741, 1533, 1535, 1534, 920
742, 1535, 1393, 899, 1534
743, 155, 511, 1393, 1535
744, 568, 1538, 1539, 1536
745, 1536, 1539, 1537, 519
746, 1539, 154, 9, 1537
747, 1538, 334, 154, 1539
748, 2126, 2473, 2140, 2770
749, 747, 1142, 748, 2473
750, 2847, 2418, 2125, 2884
751, 978, 1619, 2800, 1970
752, 964, 2870, 1368, 2006
753, 1545, 2378, 2457, 2341
754, 1315, 2790, 1469, 1016
755, 1635, 1895, 2616, 1636
756, 1038, 1043, 1003, 3015
757, 961, 1549, 1550, 1548
758, 2124, 2833, 977, 2121
759, 1465, 2485, 2455, 2398
760, 1549, 508, 159, 1550
761, 2290, 2749, 381, 286
762, 2733, 1913, 2849, 2544
763, 1920, 1160, 2737, 2749
764, 824, 2154, 1324, 1177
765, 1678, 2639, 734, 2392
766, 1063, 2151, 843, 2246
767, 2251, 2216, 2867, 736
768, 2702, 2295, 2484, 2074
769, 561, 3066, 1072, 2250
770, 2477, 1784, 341, 326
771, 64, 54, 1557, 1408
772, 1408, 1557, 1556, 578
773, 1557, 1500, 573, 1556
774, 54, 65, 1500, 1557
775, 1542, 545, 1335, 1601
776, 1319, 785, 1508, 798
777, 1280, 1131, 2261, 1318
778, 1559, 2147, 455, 212
779, 151, 141, 1562, 1405
780, 1405, 1562, 1560, 541
781, 1562, 1561, 540, 1560
782, 141, 152, 1561, 1562
783, 1189, 1188, 1521, 1727
784, 1563, 1566, 1564, 582
785, 1566, 41, 49, 1564
786, 1565, 48, 41, 1566
787, 968, 1053, 966, 2586
788, 1726, 965, 2906, 1116
789, 1771, 168, 498, 2405
790, 598, 1209, 271, 395
791, 596, 1953, 1885, 2990
792, 3065, 2696, 1444, 1180
793, 1187, 2314, 1740, 2346
794, 1575, 838, 833, 1551
795, 2149, 1061, 436, 231
796, 819, 2874, 2278, 2280
797, 1575, 1551, 2244, 2391
798, 1322, 1233, 2108, 2908
799, 1695, 1679, 233, 433
800, 2868, 437, 230, 817
801, 1168, 1473, 3008, 2655
802, 522, 1581, 1582, 1580
803, 1580, 1582, 1510, 537
804, 1582, 135, 146, 1510
805, 1581, 145, 135, 1582
806, 1250, 618, 2009, 2321
807, 1098, 3076, 2347, 2811
808, 2885, 2212, 393, 274
809, 1552, 2217, 2188, 1326
810, 2188, 1585, 2520, 1576
811, 1679, 1325, 434, 233
812, 1492, 815, 1586, 1491
813, 9, 333, 1588, 1537
814, 1537, 1588, 1587, 519
815, 1588, 1533, 920, 1587
816, 333, 512, 1533, 1588
817, 1884, 1221, 622, 1194
818, 2302, 1385, 634, 1987
819, 2320, 2370, 2211, 2441
820, 1186, 1251, 645, 2212
821, 2858, 2976, 1737, 1946
822, 1911, 2772, 1193, 514
823, 1415, 613, 2381, 2271
824, 2455, 2485, 2417, 1771
825, 1810, 1480, 1206, 2445
826, 2209, 1968, 1205, 2799
827, 386, 281, 1600, 1598
828, 1598, 1600, 1599, 621
829, 1600, 1516, 604, 1599
830, 281, 385, 1516, 1600
831, 758, 2592, 812, 2420
832, 2142, 748, 752, 1558
833, 1141, 2591, 744, 1056
834, 637, 661, 2622, 639
835, 2527, 1310, 2924, 2921
836, 1195, 2270, 2645, 2849
837, 2715, 520, 298, 368
838, 2363, 881, 310, 356
839, 2326, 1632, 1672, 1995
840, 870, 1763, 1082, 1505
841, 1818, 1219, 1083, 872
842, 867, 294, 372, 1514
843, 2793, 1764, 358, 309
844, 700, 654, 674, 1929
845, 1612, 1929, 652, 2170
846, 2449, 420, 247, 2779
847, 1843, 2361, 658, 1460
848, 1045, 2022, 2666, 1667
849, 2825, 1378, 1021, 1037
850, 1526, 2162, 2854, 2875
851, 1371, 1300, 1619, 978
852, 946, 1569, 1173, 945
853, 1173, 1569, 940, 2668
854, 2239, 2799, 503, 164
855, 46, 1520, 1622, 38
856, 38, 1622, 1620, 45
857, 1043, 2163, 2814, 1003
858, 1520, 577, 1621, 1622
859, 1000, 1163, 2416, 2192
860, 1129, 1660, 1700, 2436
861, 998, 1546, 2807, 1615
862, 1329, 1001, 189, 477
863, 1138, 2060, 1735, 2229
864, 2161, 2001, 1201, 1292
865, 2666, 1315, 1016, 1359
866, 701, 1107, 2037, 2866
867, 2840, 1438, 1437, 698
868, 429, 1320, 1769, 237
869, 1518, 1629, 2517, 696
870, 1502, 2495, 1200, 2258
871, 1935, 2808, 1084, 557
872, 557, 1084, 1293, 1776
873, 1236, 2250, 2453, 565
874, 1761, 2014, 2295, 2702
875, 2475, 1688, 2834, 2319
876, 2782, 564, 328, 338
877, 1633, 2030, 2178, 2786
878, 1146, 2871, 2379, 1694
879, 683, 681, 2466, 2863
880, 2152, 2175, 2511, 682
881, 1039, 484, 183, 1355
882, 1452, 1635, 1636, 1024
883, 1355, 183, 483, 999
884, 2116, 2384, 661, 637
885, 665, 1683, 1681, 2688
886, 527, 642, 585, 640
887, 2604, 2403, 2993, 2115
888, 1778, 1155, 605, 606
889, 1308, 2545, 532, 603
890, 1106, 1920, 2749, 2290
891, 2105, 2256, 1125, 3070
892, 1293, 1900, 1123, 1086
893, 2677, 1124, 556, 2429
894, 2827, 1184, 2201, 2509
895, 1754, 1653, 1654, 1927
896, 2826, 3018, 2081, 2936
897, 1859, 2968, 563, 2464
898, 445, 222, 1648, 1488
899, 1488, 1648, 1646, 795
900, 1648, 1647, 828, 1646
901, 222, 444, 1647, 1648
902, 131, 121, 1651, 1428
903, 1428, 1651, 1649, 524
904, 1651, 1650, 525, 1649
905, 121, 132, 1650, 1651
906, 1149, 1472, 1645, 2266
907, 1055, 893, 548, 1655
908, 2394, 887, 856, 549
909, 2207, 1172, 2120, 2076
910, 2076, 2120, 2837, 1369
911, 972, 943, 938, 1370
912, 964, 2006, 2561, 2338
913, 1398, 2857, 1948, 612
914, 661, 2219, 527, 2622
915, 528, 1910, 526, 2500
916, 591, 2548, 628, 2328
917, 1526, 1710, 2214, 2162
918, 2897, 2000, 521, 1867
919, 3026, 998, 1615, 2332
920, 463, 204, 1665, 1662
921, 1662, 1665, 1663, 757
922, 2184, 2723, 1339, 1540
923, 2956, 2046, 1140, 2421
924, 1076, 1898, 1963, 2526
925, 2904, 2964, 1022, 1529
926, 2438, 193, 473, 1011
927, 1833, 1687, 2461, 1762
928, 3045, 877, 2851, 2682
929, 2355, 2484, 1227, 902
930, 2014, 927, 1741, 564
931, 1225, 2702, 2074, 1610
932, 49, 42, 1675, 1564
933, 1564, 1675, 1673, 582
934, 1675, 1674, 583, 1673
935, 42, 50, 1674, 1675
936, 1746, 686, 668, 666
937, 1450, 413, 254, 1434
938, 2912, 1096, 112, 123
939, 1948, 625, 2010, 618
940, 2254, 836, 1232, 2215
941, 1720, 2251, 736, 1062
942, 1751, 1552, 2251, 1720
943, 2984, 1213, 2151, 1063
944, 1223, 664, 2343, 650
945, 1681, 1682, 403, 264
946, 2992, 2550, 1118, 2761
947, 2861, 1747, 659, 1746
948, 1031, 576, 1736, 1035
949, 2024, 2013, 1043, 1038
950, 2364, 2913, 1218, 1786
951, 1957, 296, 370, 1714
952, 1786, 364, 303, 855
953, 566, 2091, 930, 2325
954, 1993, 2914, 1689, 903
955, 1762, 2461, 2936, 898
956, 1078, 1092, 2943, 1671
957, 2453, 1091, 1136, 565
958, 1106, 603, 601, 1920
959, 2960, 1515, 1517, 2947
960, 1161, 1390, 1845, 2938
961, 844, 1695, 1696, 1693
962, 848, 1827, 1108, 1768
963, 2368, 705, 2369, 2029
964, 1695, 433, 234, 1696
965, 706, 1486, 1281, 3022
966, 2189, 2029, 1133, 2991
967, 2566, 2380, 2220, 2180
968, 2966, 3051, 1361, 2058
969, 2432, 1176, 3051, 2966
970, 2332, 1623, 2957, 2750
971, 1237, 2139, 1880, 2931
972, 1602, 2655, 3008, 1157
973, 758, 1664, 799, 746
974, 1543, 2847, 2884, 546
975, 2172, 175, 491, 2366
976, 2298, 2894, 487, 180
977, 2954, 1047, 2713, 1026
978, 581, 2996, 1117, 2522
979, 2667, 1114, 768, 1009
980, 1101, 2648, 2691, 2288
981, 1143, 1139, 1099, 1137
982, 2618, 1024, 197, 469
983, 1126, 177, 489, 2973
984, 576, 176, 490, 1736
985, 2232, 2523, 2209, 960
986, 1919, 865, 1903, 2939
987, 860, 2428, 2577, 1744
988, 1725, 1956, 91, 81
989, 1902, 297, 369, 1608
990, 2673, 1725, 864, 1344
991, 1745, 2137, 2360, 2003
992, 2137, 2918, 2359, 1493
993, 2174, 2427, 1709, 2171
994, 1901, 1608, 520, 2715
995, 2238, 867, 1514, 1085
996, 2901, 1217, 1513, 1957
997, 2816, 94, 104, 1718
998, 1423, 2845, 838, 1575
999, 832, 1423, 1212, 1677
1000, 821, 1211, 1492, 831
1001, 2874, 226, 440, 2278
1002, 3071, 2715, 368, 299
1003, 1503, 1934, 863, 1217
1004, 1712, 2358, 888, 1820
1005, 2494, 2900, 1219, 1818
1006, 1569, 2264, 1306, 940
1007, 2340, 1269, 2339, 1207
1008, 1727, 40, 48, 1565
1009, 1521, 47, 40, 1727
1010, 444, 223, 1730, 1647
1011, 1647, 1730, 1728, 828
1012, 1730, 1729, 827, 1728
1013, 223, 443, 1729, 1730
1014, 605, 283, 383, 606
1015, 2543, 1162, 1758, 1846
1016, 1765, 3021, 707, 724
1017, 1288, 426, 241, 2190
1018, 3069, 2864, 1282, 1283
1019, 1451, 2785, 1362, 1007
1020, 1702, 492, 175, 2172
1021, 1019, 2059, 575, 2433
1022, 1202, 2503, 985, 2331
1023, 2752, 991, 488, 179
1024, 1982, 2935, 2329, 1659
1025, 1434, 254, 412, 1433
1026, 613, 592, 3062, 2381
1027, 2610, 664, 2619, 1224
1028, 2610, 2969, 2343, 664
1029, 2329, 1450, 1434, 2704
1030, 654, 1843, 1460, 674
1031, 1471, 880, 1111, 1093
1032, 1092, 2031, 1263, 2943
1033, 2021, 2477, 326, 340
1034, 1641, 882, 2364, 1716
1035, 2359, 2266, 2138, 881
1036, 700, 1929, 1612, 2776
1037, 2884, 2125, 802, 1338
1038, 1056, 744, 1749, 1750
1039, 745, 1806, 2159, 1701
1040, 1574, 2844, 814, 822
1041, 2984, 821, 831, 1213
1042, 1326, 2188, 1576, 1490
1043, 2775, 2149, 231, 435
1044, 2067, 1376, 1380, 1042
1045, 2821, 2333, 2751, 2832
1046, 2821, 2832, 1661, 1331
1047, 673, 678, 2361, 1843
1048, 652, 2472, 2603, 2409
1049, 1982, 1612, 2170, 2935
1050, 2693, 1808, 1353, 2783
1051, 348, 319, 875, 1858
1052, 2081, 3018, 345, 322
1053, 387, 280, 1755, 1447
1054, 1447, 1755, 1194, 622
1055, 1755, 1598, 621, 1194
1056, 280, 386, 1598, 1755
1057, 827, 1729, 1757, 1756
1058, 1756, 1757, 1424, 823
1059, 1757, 224, 442, 1424
1060, 1729, 443, 224, 1757
1061, 1105, 2645, 2647, 535
1062, 561, 1609, 1632, 3066
1063, 2063, 2650, 2393, 913
1064, 2937, 2080, 1609, 561
1065, 2671, 1226, 906, 1993
1066, 1718, 1504, 1919, 2939
1067, 872, 1198, 2105, 1439
1068, 1640, 1439, 1819, 868
1069, 2106, 2277, 301, 365
1070, 2345, 1485, 2468, 2469
1071, 3022, 1281, 2709, 2069
1072, 2986, 1643, 889, 2850
1073, 857, 2959, 2424, 2489
1074, 880, 1066, 2672, 1111
1075, 2201, 1859, 2464, 2509
1076, 2843, 2567, 2871, 1146
1077, 2987, 741, 2958, 2512
1078, 2179, 1768, 428, 239
1079, 1274, 2101, 927, 2019
1080, 2580, 1183, 893, 1055
1081, 550, 2961, 2537, 1891
1082, 1246, 2445, 1811, 2404
1083, 169, 497, 1597, 2628
1084, 2457, 2075, 2078, 1969
1085, 2870, 956, 2208, 1368
1086, 516, 1773, 1774, 1772
1087, 1772, 1774, 1458, 515
1088, 1774, 11, 20, 1458
1089, 1773, 19, 11, 1774
1090, 774, 775, 808, 2223
1091, 1507, 2955, 1473, 1168
1092, 1507, 1279, 1496, 2451
1093, 1218, 2106, 365, 302
1094, 1763, 864, 92, 82
1095, 1217, 863, 1715, 1513
1096, 1775, 105, 96, 1081
1097, 2963, 1692, 1908, 1154
1098, 1390, 377, 290, 1845
1099, 533, 289, 377, 1390
1100, 2544, 2849, 2645, 1105
1101, 1154, 2828, 2545, 1308
1102, 1760, 535, 2960, 1155
1103, 34, 1782, 1783, 29
1104, 29, 1783, 1780, 33
1105, 1058, 2856, 753, 2474
1106, 756, 2625, 767, 764
1107, 1631, 2395, 566, 909
1108, 2063, 2291, 1890, 2650
1109, 1723, 1685, 1095, 1472
1110, 1960, 2678, 1712, 2998
1111, 2889, 1641, 1716, 1349
1112, 2360, 552, 1440, 1607
1113, 526, 1789, 1790, 1788
1114, 1788, 1790, 1426, 523
1115, 1790, 119, 130, 1426
1116, 1789, 129, 119, 1790
1117, 904, 903, 2735, 1688
1118, 909, 566, 2325, 2744
1119, 1764, 1785, 308, 358
1120, 1349, 1716, 855, 2630
1121, 1590, 304, 362, 2492
1122, 550, 1348, 1294, 2961
1123, 1302, 2269, 714, 806
1124, 2965, 1303, 2574, 784
1125, 901, 1364, 1797, 1796
1126, 1796, 1797, 1549, 961
1127, 1797, 158, 508, 1549
1128, 1364, 509, 158, 1797
1129, 1358, 2186, 1039, 1356
1130, 1798, 1800, 1799, 810
1131, 1800, 200, 466, 1799
1132, 989, 1803, 1804, 1801
1133, 1801, 1804, 1802, 990
1134, 1804, 173, 493, 1802
1135, 1803, 494, 173, 1804
1136, 1792, 2492, 1925, 2265
1137, 2577, 2265, 1170, 1639
1138, 2636, 2003, 2104, 2257
1139, 2160, 1663, 2847, 1543
1140, 2539, 2419, 2848, 2717
1141, 1540, 1339, 210, 456
1142, 2882, 2719, 1159, 1057
1143, 671, 699, 2863, 2466
1144, 2633, 2766, 649, 2118
1145, 2323, 1350, 1809, 2225
1146, 1172, 2836, 2232, 2120
1147, 1306, 2586, 2397, 2263
1148, 1104, 2196, 949, 2762
1149, 2376, 1052, 581, 2374
1150, 132, 122, 1813, 1650
1151, 1650, 1813, 1812, 525
1152, 1813, 133, 144, 1812
1153, 122, 8, 133, 1813
1154, 2788, 2658, 447, 220
1155, 1559, 212, 454, 3011
1156, 3011, 454, 213, 2481
1157, 794, 2657, 2788, 1391
1158, 1221, 1886, 1446, 622
1159, 2330, 638, 2518, 642
1160, 2277, 866, 366, 301
1161, 2276, 103, 94, 2816
1162, 1937, 869, 2889, 1453
1163, 1512, 871, 2276, 1934
1164, 1504, 1775, 2940, 1919
1165, 2839, 1435, 2169, 1477
1166, 655, 2144, 648, 2143
1167, 586, 2386, 2403, 2604
1168, 153, 143, 1823, 1822
1169, 1822, 1823, 1773, 516
1170, 1823, 10, 19, 1773
1171, 143, 1, 10, 1823
1172, 50, 43, 1825, 1674
1173, 1674, 1825, 1824, 583
1174, 1825, 51, 62, 1824
1175, 43, 4, 51, 1825
1176, 2864, 1694, 2566, 1282
1177, 245, 421, 2840, 697
1178, 1768, 1108, 238, 428
1179, 3012, 1697, 2948, 1312
1180, 900, 1363, 1832, 1829
1181, 1829, 1832, 1830, 915
1182, 1832, 1831, 916, 1830
1183, 1363, 901, 1831, 1832
1184, 2334, 2475, 2319, 1274
1185, 2319, 2834, 2164, 2982
1186, 465, 202, 1837, 1834
1187, 1834, 1837, 1835, 759
1188, 1837, 1836, 760, 1835
1189, 202, 464, 1836, 1837
1190, 967, 1838, 975, 2759
1191, 1172, 947, 2841, 2836
1192, 1245, 1207, 2758, 1053
1193, 1878, 2927, 2030, 1633
1194, 2748, 1765, 724, 2176
1195, 677, 669, 676, 1928
1196, 2100, 2409, 252, 414
1197, 678, 2783, 2528, 2361
1198, 2924, 693, 673, 670
1199, 2938, 1845, 1059, 555
1200, 533, 3078, 378, 289
1201, 606, 383, 284, 534
1202, 2963, 1777, 1779, 1692
1203, 493, 174, 1848, 1802
1204, 1802, 1848, 1847, 990
1205, 1848, 1702, 988, 1847
1206, 174, 492, 1702, 1848
1207, 750, 751, 3017, 749
1208, 1849, 2044, 2710, 1872
1209, 2848, 1603, 1916, 1748
1210, 852, 2471, 2826, 2470
1211, 891, 312, 354, 1184
1212, 464, 203, 1854, 1836
1213, 1836, 1854, 1853, 760
1214, 1854, 1662, 757, 1853
1215, 203, 463, 1662, 1854
1216, 583, 1824, 1856, 1855
1217, 1855, 1856, 1409, 579
1218, 1856, 52, 63, 1409
1219, 1824, 62, 52, 1856
1220, 1851, 1057, 2419, 2539
1221, 748, 1142, 2593, 752
1222, 1057, 1159, 2156, 2419
1223, 1748, 1916, 1058, 2723
1224, 2104, 1607, 2869, 558
1225, 2429, 556, 1935, 2358
1226, 2851, 2470, 2461, 1687
1227, 1065, 1960, 2998, 876
1228, 1926, 2065, 877, 3045
1229, 973, 1596, 1861, 1860
1230, 1860, 1861, 1803, 989
1231, 1861, 172, 494, 1803
1232, 1596, 495, 172, 1861
1233, 1148, 1065, 2959, 857
1234, 558, 1754, 2064, 3020
1235, 810, 1799, 1865, 1864
1236, 1864, 1865, 1834, 759
1237, 1865, 201, 465, 1834
1238, 1799, 466, 201, 1865
1239, 45, 1620, 1868, 37
1240, 37, 1868, 1866, 44
1241, 2059, 1122, 2824, 575
1242, 23, 15, 1870, 1524
1243, 2774, 1179, 2721, 2534
1244, 1264, 1870, 1869, 547
1245, 15, 24, 1869, 1870
1246, 32, 28, 1873, 1871
1247, 2711, 1204, 2353, 755
1248, 764, 767, 1781, 2714
1249, 28, 33, 1780, 1873
1250, 589, 1876, 1877, 1874
1251, 1874, 1877, 1427, 524
1252, 1877, 1875, 523, 1427
1253, 1876, 590, 1875, 1877
1254, 1484, 1283, 1252, 2369
1255, 2663, 1145, 2479, 2111
1256, 684, 723, 2180, 695
1257, 26, 18, 1882, 1879
1258, 2846, 1602, 1157, 797
1259, 2962, 2158, 2160, 1543
1260, 18, 2, 1881, 1882
1261, 529, 1387, 1417, 1821
1262, 2732, 610, 2644, 3058
1263, 2645, 2270, 623, 2647
1264, 2919, 1594, 392, 275
1265, 1482, 662, 257, 409
1266, 1216, 401, 266, 627
1267, 1889, 118, 129, 1789
1268, 1888, 128, 118, 1889
1269, 3018, 3019, 321, 345
1270, 2324, 342, 325, 1690
1271, 59, 1862, 1347, 69
1272, 1493, 2359, 881, 2363
1273, 3029, 3047, 2933, 2491
1274, 2998, 1712, 1820, 869
1275, 1639, 1170, 2243, 1685
1276, 1004, 1705, 1014, 2249
1277, 1362, 1004, 2249, 2525
1278, 1899, 30, 35, 1898
1279, 1782, 34, 30, 1899
1280, 1344, 864, 1763, 870
1281, 868, 1819, 1502, 1199
1282, 1935, 556, 1817, 2808
1283, 1724, 2681, 850, 884
1284, 543, 1906, 1907, 1340
1285, 1340, 1907, 1904, 539
1286, 1907, 1905, 711, 1904
1287, 1906, 720, 1905, 1907
1288, 1517, 282, 384, 2947
1289, 2947, 384, 283, 605
1290, 2938, 555, 1611, 602
1291, 600, 2761, 2372, 1385
1292, 2548, 1912, 1888, 628
1293, 1912, 117, 128, 1888
1294, 2346, 1740, 613, 1415
1295, 1592, 1396, 624, 2241
1296, 1455, 2731, 3061, 1454
1297, 1914, 111, 102, 1915
1298, 2, 27, 1917, 1881
1299, 2156, 2045, 2771, 1603
1300, 2974, 766, 2679, 1781
1301, 27, 32, 1871, 1917
1302, 554, 2901, 858, 2256
1303, 1900, 868, 1199, 1123
1304, 2256, 858, 1918, 1125
1305, 1125, 1918, 1901, 1719
1306, 1080, 607, 379, 288
1307, 1155, 2960, 2947, 605
1308, 1921, 101, 111, 1914
1309, 1908, 110, 101, 1921
1310, 24, 16, 1924, 1869
1311, 1166, 783, 2739, 2654
1312, 1337, 2126, 2770, 2769
1313, 16, 25, 1923, 1924
1314, 2260, 896, 1066, 880
1315, 2508, 1642, 2285, 1652
1316, 1644, 2551, 3046, 2463
1317, 2578, 892, 1936, 1470
1318, 672, 2693, 2783, 678
1319, 669, 2780, 1352, 676
1320, 2872, 1309, 2450, 675
1321, 699, 703, 2662, 2863
1322, 515, 1457, 1933, 1930
1323, 1930, 1933, 1931, 719
1324, 1933, 1932, 716, 1931
1325, 1457, 517, 1932, 1933
1326, 876, 1937, 860, 1151
1327, 1083, 1505, 1512, 2255
1328, 1805, 307, 359, 874
1329, 2583, 80, 91, 1956
1330, 1959, 1055, 1655, 2292
1331, 2587, 1942, 849, 908
1332, 3057, 3056, 2930, 1445
1333, 2440, 396, 271, 1209
1334, 2052, 1416, 2697, 2166
1335, 536, 2812, 1941, 2314
1336, 878, 89, 79, 2681
1337, 3041, 3040, 84, 74
1338, 2536, 2582, 2941, 2722
1339, 2823, 1295, 2023, 1354
1340, 2000, 2817, 2022, 1045
1341, 1945, 36, 44, 1866
1342, 1944, 3, 36, 1945
1343, 627, 266, 400, 2980
1344, 615, 2873, 2812, 536
1345, 1386, 2831, 2320, 2773
1346, 1251, 530, 1606, 645
1347, 721, 1950, 1951, 1949
1348, 1949, 1951, 1411, 542
1349, 1951, 1906, 543, 1411
1350, 1950, 720, 1906, 1951
1351, 25, 17, 1952, 1923
1352, 1475, 1278, 2200, 1303
1353, 17, 26, 1879, 1952
1354, 2930, 1214, 390, 277
1355, 1224, 2619, 639, 2705
1356, 2303, 1182, 1195, 2242
1357, 531, 1261, 2110, 625
1358, 556, 1124, 2673, 1817
1359, 2901, 1957, 1714, 858
1360, 2276, 2816, 2238, 1085
1361, 314, 352, 2202, 2968
1362, 2890, 885, 1723, 1150
1363, 2850, 889, 1064, 896
1364, 1943, 549, 856, 1110
1365, 2683, 559, 2259, 886
1366, 1897, 2050, 1627, 1666
1367, 521, 1866, 1868, 1867
1368, 1963, 31, 3, 1944
1369, 1898, 35, 31, 1963
1370, 525, 1812, 1965, 1964
1371, 1964, 1965, 1581, 522
1372, 1965, 134, 145, 1581
1373, 1812, 144, 134, 1965
1374, 2677, 2583, 1956, 1124
1375, 2537, 88, 78, 1891
1376, 884, 2677, 2429, 2678
1377, 2400, 1463, 502, 165
1378, 2004, 2400, 165, 501
1379, 2086, 1970, 2833, 2124
1380, 2056, 2763, 2007, 962
1381, 152, 142, 1972, 1561
1382, 1561, 1972, 1971, 540
1383, 1972, 1822, 516, 1971
1384, 142, 153, 1822, 1972
1385, 924, 1975, 1976, 1973
1386, 1973, 1976, 1974, 923
1387, 1976, 1536, 519, 1974
1388, 1975, 568, 1536, 1976
1389, 718, 1978, 1979, 1977
1390, 1977, 1979, 1404, 541
1391, 1979, 1949, 542, 1404
1392, 1978, 721, 1949, 1979
1393, 2026, 3069, 1283, 1484
1394, 2117, 2704, 2981, 2312
1395, 2206, 1983, 1071, 1068
1396, 686, 1658, 1478, 668
1397, 1943, 2722, 1967, 549
1398, 3028, 1110, 2631, 3027
1399, 2891, 1349, 2630, 1590
1400, 1148, 878, 2681, 1724
1401, 1444, 1222, 644, 2008
1402, 2697, 1398, 612, 2210
1403, 1954, 536, 2314, 1187
1404, 2967, 2210, 1181, 594
1405, 571, 1991, 1992, 1372
1406, 1372, 1992, 1989, 572
1407, 1992, 1990, 936, 1989
1408, 1991, 934, 1990, 1992
1409, 1262, 904, 1688, 2475
1410, 2031, 2355, 902, 1263
1411, 539, 1904, 1998, 1430
1412, 1430, 1998, 1996, 538
1413, 1998, 1997, 710, 1996
1414, 1904, 711, 1997, 1998
1415, 1175, 2904, 1529, 1330
1416, 1708, 2562, 2426, 2297
1417, 1000, 1037, 1023, 1163
1418, 316, 350, 1589, 559
1419, 1367, 505, 162, 955
1420, 2833, 1367, 955, 977
1421, 2561, 968, 2264, 2338
1422, 1953, 1946, 2994, 1885
1423, 1987, 627, 2980, 614
1424, 2695, 126, 116, 2858
1425, 1174, 1625, 2920, 993
1426, 1042, 3026, 2952, 2191
1427, 933, 2084, 2482, 910
1428, 897, 2021, 340, 327
1429, 1610, 2074, 1090, 2336
1430, 794, 1487, 2018, 2015
1431, 2015, 2018, 2016, 790
1432, 2018, 2017, 792, 2016
1433, 1487, 795, 2017, 2018
1434, 2735, 2324, 1690, 2284
1435, 1691, 1610, 2336, 952
1436, 3049, 1121, 1030, 2897
1437, 1660, 1379, 1296, 1700
1438, 1380, 1699, 1546, 998
1439, 720, 2027, 2028, 1905
1440, 1905, 2028, 2025, 711
1441, 3022, 2701, 2741, 706
1442, 1281, 2182, 2664, 2709
1443, 1733, 2902, 705, 2564
1444, 706, 2741, 2927, 1878
1445, 698, 1437, 2040, 2408
1446, 2039, 1698, 681, 683
1447, 1669, 911, 2084, 933
1448, 2060, 1143, 2061, 1735
1449, 1024, 1636, 470, 197
1450, 575, 2824, 2024, 1033
1451, 899, 1394, 2036, 2034
1452, 2034, 2036, 2035, 919
1453, 2036, 1829, 915, 2035
1454, 1394, 900, 1829, 2036
1455, 1844, 2469, 2468, 2098
1456, 2472, 2605, 1311, 2603
1457, 721, 2042, 2043, 1950
1458, 1950, 2043, 2027, 720
1459, 2656, 2016, 792, 2787
1460, 1378, 1330, 1019, 1021
1461, 1547, 1128, 476, 191
1462, 800, 747, 2473, 2126
1463, 2856, 2956, 2421, 753
1464, 546, 2884, 1338, 813
1465, 538, 1996, 2049, 1509
1466, 1509, 2049, 2047, 537
1467, 2049, 2048, 709, 2047
1468, 1996, 710, 2048, 2049
1469, 1017, 2667, 1009, 3072
1470, 2666, 2032, 1707, 1667
1471, 3051, 1044, 1360, 1361
1472, 1572, 598, 395, 272
1473, 3055, 3054, 1955, 1214
1474, 1737, 2548, 591, 617
1475, 1940, 115, 126, 2695
1476, 951, 2055, 2759, 948
1477, 943, 1545, 2341, 938
1478, 1317, 981, 1270, 1838
1479, 1896, 2594, 1332, 3009
1480, 1010, 3068, 1018, 1191
1481, 995, 1013, 1314, 1626
1482, 2062, 2061, 2945, 1734
1483, 2791, 2229, 1008, 1012
1484, 1002, 1048, 1295, 2823
1485, 1128, 3067, 190, 476
1486, 2813, 2020, 2802, 2091
1487, 2470, 2826, 2936, 2461
1488, 1669, 2326, 1670, 911
1489, 907, 1761, 2702, 1225
1490, 1094, 2460, 2065, 1926
1491, 3026, 2332, 2750, 2952
1492, 2000, 1045, 1164, 521
1493, 1296, 3015, 187, 479
1494, 2875, 2854, 994, 1699
1495, 711, 2025, 2070, 1997
1496, 1997, 2070, 1248, 710
1497, 2070, 2069, 688, 1248
1498, 841, 1732, 2112, 2513
1499, 1671, 2943, 336, 331
1500, 564, 1741, 339, 328
1501, 2164, 925, 1784, 2477
1502, 569, 1893, 2073, 1400
1503, 1400, 2073, 2071, 570
1504, 2073, 2072, 932, 2071
1505, 1893, 931, 2072, 2073
1506, 927, 2101, 897, 1741
1507, 2690, 2463, 1094, 1643
1508, 2079, 910, 2852, 2730
1509, 959, 2077, 2078, 2075
1510, 1464, 2124, 2121, 1968
1511, 2077, 961, 1548, 2078
1512, 912, 1262, 2475, 2334
1513, 902, 1227, 329, 337
1514, 2395, 2813, 2091, 566
1515, 932, 2082, 2083, 2071
1516, 2071, 2083, 1466, 570
1517, 2083, 1991, 571, 1466
1518, 2082, 934, 1991, 2083
1519, 1670, 2326, 1995, 1994
1520, 2327, 1266, 2703, 1267
1521, 1969, 2078, 1548, 1616
1522, 1103, 1369, 2400, 2004
1523, 2294, 2293, 2689, 1791
1524, 2089, 2092, 2082, 932
1525, 2092, 2090, 934, 2082
1526, 934, 2090, 2095, 1990
1527, 1990, 2095, 2093, 936
1528, 2247, 2404, 1088, 2197
1529, 1077, 1078, 1671, 928
1530, 1473, 1923, 1952, 3008
1531, 808, 789, 2407, 778
1532, 2267, 453, 214, 1506
1533, 2880, 452, 215, 1578
1534, 1842, 2565, 845, 2177
1535, 1320, 2546, 1981, 1769
1536, 1732, 1312, 2026, 2112
1537, 2776, 1612, 1982, 1530
1538, 2603, 1311, 251, 415
1539, 2781, 2449, 2779, 679
1540, 931, 2102, 2103, 2072
1541, 2072, 2103, 2089, 932
1542, 1609, 2651, 1672, 1632
1543, 2293, 2670, 2672, 2689
1544, 1095, 879, 2581, 2362
1545, 2243, 1787, 1958, 879
1546, 2424, 859, 2890, 1087
1547, 787, 2977, 2589, 1132
1548, 820, 2245, 2149, 2775
1549, 2107, 823, 1422, 2108
1550, 1658, 1258, 1532, 1436
1551, 2442, 593, 1261, 531
1552, 1746, 659, 2549, 686
1553, 2384, 2685, 2219, 661
1554, 1827, 2546, 1320, 1108
1555, 704, 728, 1767, 840
1556, 2786, 2178, 841, 728
1557, 1253, 2728, 2567, 2843
1558, 2479, 1253, 2843, 731
1559, 431, 1826, 1842, 235
1560, 1697, 731, 729, 2948
1561, 657, 253, 413, 1450
1562, 636, 1680, 1284, 1983
1563, 1449, 2218, 2371, 1604
1564, 2385, 1659, 2117, 1069
1565, 2115, 2993, 260, 406
1566, 2861, 2519, 2611, 2614
1567, 635, 637, 639, 2619
1568, 958, 1656, 956, 2870
1569, 938, 2341, 1618, 1544
1570, 2836, 972, 2523, 2232
1571, 2378, 2859, 2075, 2457
1572, 1307, 2835, 2456, 1102
1573, 1595, 944, 1810, 2801
1574, 2929, 2340, 1207, 1245
1575, 1141, 1056, 2719, 2882
1576, 2771, 750, 749, 2185
1577, 1807, 1857, 751, 750
1578, 805, 813, 1806, 745
1579, 1940, 2695, 1953, 596
1580, 1261, 620, 2344, 2110
1581, 3065, 1940, 596, 2696
1582, 2009, 1186, 2212, 2885
1583, 578, 1556, 2135, 2132
1584, 2132, 2135, 2133, 1049
1585, 2135, 2134, 935, 2133
1586, 1556, 573, 2134, 2135
1587, 1087, 2890, 1150, 1985
1588, 1170, 2915, 1787, 2243
1589, 2137, 1493, 552, 2360
1590, 1685, 2243, 879, 1095
1591, 2592, 1851, 2718, 812
1592, 1601, 1335, 1203, 811
1593, 1476, 216, 450, 2199
1594, 2809, 3011, 2481, 2860
1595, 2119, 2923, 687, 2168
1596, 2528, 677, 1928, 1815
1597, 687, 2385, 1069, 2765
1598, 2765, 1069, 1435, 2839
1599, 1880, 207, 459, 513
1600, 2183, 797, 1882, 1881
1601, 2045, 1807, 750, 2771
1602, 2418, 462, 205, 2125
1603, 2216, 2497, 735, 2867
1604, 1211, 835, 815, 1492
1605, 836, 3003, 2535, 1232
1606, 1289, 2547, 1288, 1630
1607, 1980, 1313, 1485, 2345
1608, 2465, 1134, 842, 1254
1609, 2152, 733, 1519, 2175
1610, 2908, 2148, 819, 833
1611, 1553, 834, 1325, 1679
1612, 818, 820, 2775, 830
1613, 1749, 811, 2962, 2146
1614, 1558, 752, 2147, 1559
1615, 757, 1663, 2160, 2157
1616, 2157, 2160, 2158, 755
1617, 746, 1158, 1542, 2591
1618, 805, 2146, 546, 813
1619, 1354, 485, 182, 2186
1620, 1377, 2806, 2011, 1127
1621, 1121, 997, 2304, 1624
1622, 2294, 1791, 1687, 1833
1623, 562, 2671, 904, 1262
1624, 2441, 2211, 2978, 1571
1625, 2110, 2344, 1584, 1988
1626, 2242, 1195, 2849, 1913
1627, 2695, 2858, 1946, 1953
1628, 2685, 1068, 2330, 2219
1629, 2778, 2776, 1530, 2923
1630, 1257, 2934, 408, 259
1631, 2822, 1029, 991, 2752
1632, 1041, 2213, 1202, 2562
1633, 1711, 1035, 1684, 992
1634, 727, 423, 244, 1634
1635, 694, 682, 1980, 1698
1636, 1828, 698, 2408, 707
1637, 1242, 2794, 1145, 2663
1638, 2794, 2987, 2512, 1145
1639, 847, 683, 2863, 2662
1640, 1634, 244, 422, 730
1641, 430, 1841, 3001, 236
1642, 1339, 2474, 457, 210
1643, 2717, 1238, 1142, 747
1644, 1916, 2185, 2856, 1058
1645, 3067, 1329, 477, 190
1646, 2897, 1030, 2817, 2000
1647, 2217, 837, 1585, 2188
1648, 1577, 1720, 1062, 2720
1649, 822, 814, 2154, 824
1650, 2903, 2601, 834, 1553
1651, 2948, 729, 2864, 3069
1652, 2741, 2637, 2299, 2927
1653, 1698, 1980, 2345, 681
1654, 1630, 1288, 2190, 2153
1655, 2562, 1202, 2331, 2426
1656, 1122, 2066, 2584, 2824
1657, 1021, 1019, 2433, 2617
1658, 519, 1587, 2195, 1974
1659, 1974, 2195, 2193, 923
1660, 2195, 2194, 921, 2193
1661, 1587, 920, 2194, 2195
1662, 971, 2262, 1104, 2975
1663, 2668, 940, 965, 1726
1664, 966, 953, 2627, 1617
1665, 1548, 1550, 1703, 1616
1666, 2186, 182, 484, 1039
1667, 2248, 1413, 2060, 1138
1668, 1127, 1329, 3067, 2716
1669, 807, 798, 2268, 2452
1670, 2895, 1476, 2199, 809
1671, 714, 796, 1476, 2895
1672, 1508, 1280, 1318, 786
1673, 1927, 2578, 1470, 890
1674, 1936, 2579, 1156, 2886
1675, 890, 1470, 887, 2394
1676, 920, 1534, 2205, 2194
1677, 2194, 2205, 2204, 921
1678, 2205, 2034, 919, 2204
1679, 1534, 899, 2034, 2205
1680, 2109, 2114, 662, 1482
1681, 1703, 507, 160, 1300
1682, 1305, 2231, 2763, 2056
1683, 947, 1307, 1102, 2841
1684, 1970, 2800, 1367, 2833
1685, 1886, 2241, 624, 1446
1686, 1946, 1737, 617, 2994
1687, 2314, 1941, 1591, 1740
1688, 1816, 267, 399, 1637
1689, 988, 1702, 2172, 1999
1690, 1368, 2208, 2485, 1465
1691, 997, 2191, 1100, 2304
1692, 2601, 2282, 818, 834
1693, 2803, 817, 1061, 2853
1694, 1554, 1677, 829, 1751
1695, 2219, 2330, 642, 527
1696, 1683, 2518, 1682, 1681
1697, 1208, 3054, 3055, 3059
1698, 843, 2150, 2221, 2220
1699, 2175, 2367, 2748, 2511
1700, 2547, 1290, 427, 240
1701, 2150, 844, 1693, 2221
1702, 660, 636, 1983, 2206
1703, 2411, 2777, 703, 699
1704, 1579, 1795, 807, 2480
1705, 1392, 2199, 450, 217
1706, 1437, 1438, 2449, 2781
1707, 2527, 2921, 2467, 653
1708, 2783, 1353, 677, 2528
1709, 2616, 1666, 471, 196
1710, 942, 2085, 2088, 2835
1711, 2086, 1544, 978, 1970
1712, 2341, 2457, 1969, 1618
1713, 517, 1382, 2235, 1932
1714, 1932, 2235, 2233, 716
1715, 1179, 1264, 547, 2721
1716, 1382, 518, 2234, 2235
1717, 572, 1989, 2237, 1499
1718, 1499, 2237, 2134, 573
1719, 2237, 2236, 935, 2134
1720, 1989, 936, 2236, 2237
1721, 3005, 292, 374, 1713
1722, 1124, 1956, 1725, 2673
1723, 1550, 159, 507, 1703
1724, 976, 955, 162, 504
1725, 623, 2811, 1599, 604
1726, 2167, 2951, 2873, 615
1727, 1096, 2971, 7, 112
1728, 3059, 3055, 3056, 1883
1729, 558, 2869, 1653, 1754
1730, 1273, 886, 2203, 1642
1731, 837, 2917, 2155, 1585
1732, 2281, 1241, 1752, 2187
1733, 2278, 440, 227, 1241
1734, 1490, 2984, 1063, 2497
1735, 496, 171, 3010, 2706
1736, 958, 2123, 1103, 1656
1737, 2339, 2247, 2197, 2057
1738, 2340, 2398, 1479, 1269
1739, 1668, 1735, 2061, 2062
1740, 1075, 2532, 1074, 1628
1741, 2525, 2249, 1897, 1895
1742, 2484, 2295, 2782, 1227
1743, 1672, 2651, 1092, 1078
1744, 2336, 1090, 2745, 2080
1745, 1425, 225, 441, 2253
1746, 1213, 2601, 2903, 2151
1747, 817, 230, 436, 1061
1748, 1123, 1199, 866, 2277
1749, 1148, 857, 1348, 550
1750, 2362, 2581, 1785, 1764
1751, 2285, 1986, 2260, 895
1752, 1986, 2850, 896, 2260
1753, 1589, 1644, 2463, 2690
1754, 773, 2769, 2770, 2598
1755, 2575, 778, 2597, 2515
1756, 2407, 806, 1278, 1475
1757, 2223, 808, 778, 2575
1758, 2396, 2801, 1246, 2122
1759, 1053, 2758, 953, 966
1760, 1513, 371, 296, 1957
1761, 2291, 909, 2744, 1890
1762, 893, 1183, 347, 320
1763, 885, 1639, 1685, 1723
1764, 2658, 1327, 219, 447
1765, 806, 714, 2895, 1278
1766, 2381, 3062, 1209, 598
1767, 1442, 1070, 2969, 1215
1768, 2971, 1915, 102, 7
1769, 1606, 1572, 272, 394
1770, 2272, 2275, 2273, 1050
1771, 2275, 1563, 582, 2273
1772, 2305, 1128, 1547, 1044
1773, 1759, 1389, 107, 98
1774, 862, 533, 1390, 1161
1775, 1162, 3078, 533, 862
1776, 1060, 375, 292, 3005
1777, 1037, 1021, 2617, 1023
1778, 994, 1034, 3025, 2879
1779, 1624, 2304, 2825, 2012
1780, 2254, 1678, 2279, 832
1781, 838, 1322, 2908, 833
1782, 839, 1234, 2747, 2830
1783, 836, 1577, 2720, 3003
1784, 2498, 2803, 2853, 1722
1785, 1576, 2520, 1211, 821
1786, 2215, 2569, 781, 2639
1787, 2539, 2717, 747, 800
1788, 813, 1338, 1850, 1806
1789, 513, 459, 208, 1140
1790, 2146, 2962, 1543, 546
1791, 1072, 933, 910, 2079
1792, 2084, 926, 2454, 2482
1793, 2482, 2454, 914, 2608
1794, 2286, 2289, 2287, 763
1795, 2289, 1798, 810, 2287
1796, 2648, 192, 474, 2691
1797, 99, 109, 1779, 1846
1798, 1759, 98, 108, 1758
1799, 1845, 290, 376, 1059
1800, 1555, 1833, 1762, 1226
1801, 2295, 2014, 564, 2782
1802, 1741, 897, 327, 339
1803, 928, 1671, 331, 335
1804, 1661, 1032, 1029, 2822
1805, 2817, 1040, 2434, 2022
1806, 1201, 1046, 2894, 2298
1807, 2365, 988, 1999, 1753
1808, 2927, 2299, 685, 2030
1809, 1282, 2566, 2180, 723
1810, 1214, 1955, 276, 390
1811, 610, 609, 2128, 2644
1812, 2772, 1388, 632, 1193
1813, 3064, 2130, 2919, 595
1814, 2815, 577, 1089, 1054
1815, 991, 3052, 178, 488
1816, 2068, 1115, 1710, 1526
1817, 982, 2308, 2309, 2306
1818, 2306, 2309, 2307, 986
1819, 2309, 1801, 990, 2307
1820, 2308, 989, 1801, 2309
1821, 981, 2198, 2310, 1272
1822, 1272, 2310, 2308, 982
1823, 2310, 1860, 989, 2308
1824, 2198, 973, 1860, 2310
1825, 1260, 1421, 2442, 2893
1826, 1478, 2686, 1531, 1256
1827, 1180, 1444, 2008, 599
1828, 2921, 2224, 2778, 2467
1829, 645, 1606, 394, 273
1830, 1259, 1676, 2131, 3063
1831, 2412, 1297, 1197, 2425
1832, 825, 2632, 2977, 1299
1833, 2318, 1756, 823, 2107
1834, 2317, 827, 1756, 2318
1835, 2745, 1090, 2355, 2031
1836, 905, 922, 907, 2462
1837, 1263, 902, 337, 330
1838, 2914, 343, 324, 1689
1839, 1417, 615, 536, 1954
1840, 1821, 1417, 1954, 1419
1841, 641, 651, 2402, 1067
1842, 1988, 1584, 530, 1251
1843, 2969, 1070, 2764, 2343
1844, 2686, 660, 2206, 1531
1845, 906, 929, 2914, 1993
1846, 917, 2094, 2095, 2090
1847, 2453, 2079, 2730, 1091
1848, 2389, 2388, 1136, 918
1849, 1658, 1436, 2686, 1478
1850, 2211, 1939, 600, 2978
1851, 1068, 1071, 638, 2330
1852, 2174, 2171, 987, 1032
1853, 2751, 2296, 1708, 2427
1854, 1689, 324, 342, 2324
1855, 2335, 912, 905, 1686
1856, 2995, 2294, 1833, 1555
1857, 2020, 1236, 565, 2802
1858, 1073, 928, 335, 332
1859, 3066, 1669, 933, 1072
1860, 2397, 1617, 2406, 2262
1861, 1207, 2339, 2057, 2758
1862, 2122, 1246, 2404, 2247
1863, 1052, 2524, 2996, 581
1864, 948, 2759, 975, 2005
1865, 2762, 949, 1130, 2805
1866, 2218, 2119, 2168, 2371
1867, 3056, 3055, 1214, 2930
1868, 1284, 1680, 405, 262
1869, 1571, 2978, 2302, 597
1870, 2478, 704, 840, 848
1871, 2568, 1254, 2437, 2182
1872, 2210, 612, 1250, 1181
1873, 625, 2110, 1988, 2010
1874, 2212, 645, 273, 393
1875, 1456, 1386, 2773, 1420
1876, 1152, 2970, 2275, 2272
1877, 2348, 2351, 2349, 1049
1878, 2351, 2272, 1050, 2349
1879, 2406, 951, 948, 2196
1880, 760, 1853, 2354, 2352
1881, 2352, 2354, 2353, 761
1882, 2354, 2157, 755, 2353
1883, 1853, 757, 2157, 2354
1884, 1359, 1468, 1333, 1020
1885, 1090, 2074, 2484, 2355
1886, 2395, 2476, 1691, 2813
1887, 759, 1835, 2357, 2356
1888, 2356, 2357, 1334, 762
1889, 2357, 2352, 761, 1334
1890, 1835, 760, 2352, 2357
1891, 2622, 527, 640, 633
1892, 2994, 617, 1442, 2165
1893, 1348, 1966, 883, 1294
1894, 1184, 354, 313, 2201
1895, 1820, 888, 882, 1641
1896, 2099, 2866, 2037, 2226
1897, 1351, 2862, 2038, 1462
1898, 702, 1614, 1350, 2323
1899, 2428, 1792, 2265, 2577
1900, 1785, 874, 359, 308
1901, 2001, 1331, 1046, 1201
1902, 2163, 481, 186, 2814
1903, 2171, 1709, 1711, 992
1904, 1036, 1031, 1035, 1711
1905, 2153, 2190, 1629, 1518
1906, 2517, 242, 424, 733
1907, 1290, 2179, 239, 427
1908, 634, 1216, 627, 1987
1909, 1747, 1449, 1604, 659
1910, 2343, 2764, 1185, 650
1911, 1657, 265, 401, 1216
1912, 2773, 2320, 2441, 1229
1913, 631, 270, 396, 2440
1914, 1416, 2240, 1398, 2697
1915, 2485, 2208, 969, 2417
1916, 1522, 1089, 577, 1520
1917, 2970, 2798, 1563, 2275
1918, 2758, 2057, 2197, 953
1919, 735, 2246, 2380, 2379
1920, 1766, 2097, 704, 2478
1921, 1328, 2564, 705, 2368
1922, 2246, 843, 2220, 2380
1923, 2166, 2697, 2210, 2967
1924, 597, 2302, 1987, 614
1925, 1739, 1883, 2727, 2315
1926, 990, 1847, 2383, 2307
1927, 2307, 2383, 2382, 986
1928, 2383, 2365, 985, 2382
1929, 1847, 988, 2365, 2383
1930, 1605, 529, 1821, 2643
1931, 2688, 1681, 264, 402
1932, 668, 1478, 1256, 690
1933, 686, 2549, 1258, 1658
1934, 2671, 1993, 903, 904
1935, 2389, 917, 2090, 2092
1936, 2387, 2103, 2102, 908
1937, 2337, 344, 323, 929
1938, 1212, 2391, 2674, 1721
1939, 2917, 1574, 822, 2155
1940, 833, 819, 2280, 1551
1941, 1751, 829, 2217, 1552
1942, 2684, 1938, 60, 71
1943, 3044, 3043, 75, 86
1944, 497, 170, 974, 1597
1945, 963, 958, 2870, 964
1946, 974, 2706, 2342, 944
1947, 498, 169, 2628, 2405
1948, 936, 2093, 2401, 2236
1949, 2236, 2401, 2399, 935
1950, 1301, 2443, 2444, 2399
1951, 2635, 2613, 2910, 2777
1952, 2766, 2765, 2839, 649
1953, 2706, 3010, 1839, 2342
1954, 962, 2007, 1307, 947
1955, 2123, 2076, 1369, 1103
1956, 2659, 2881, 2769, 773
1957, 2269, 1578, 796, 714
1958, 791, 774, 2223, 1814
1959, 236, 3001, 1826, 431
1960, 2367, 727, 1634, 2423
1961, 681, 2345, 2469, 2466
1962, 2098, 2468, 2866, 2099
1963, 1309, 679, 702, 2450
1964, 2862, 2872, 675, 2038
1965, 679, 2779, 1614, 702
1966, 828, 1728, 2413, 2412
1967, 1297, 793, 1276, 1197
1968, 2318, 3006, 1298, 2317
1969, 1728, 827, 2317, 2413
1970, 2434, 993, 2790, 1315
1971, 1999, 2172, 2366, 1527
1972, 2426, 2331, 1753, 1717
1973, 2007, 942, 2835, 1307
1974, 1597, 974, 944, 1595
1975, 1113, 544, 3016, 2712
1976, 2185, 749, 2956, 2856
1977, 2127, 3079, 2881, 1167
1978, 758, 1141, 2882, 2592
1979, 766, 2286, 763, 2679
1980, 2540, 1113, 2712, 2792
1981, 1112, 762, 1334, 544
1982, 2538, 2855, 2624, 545
1983, 2178, 1321, 1732, 841
1984, 2513, 2112, 2902, 1733
1985, 2299, 846, 2553, 685
1986, 695, 2180, 2220, 2221
1987, 2808, 1817, 2900, 2494
1988, 2961, 1294, 2652, 2941
1989, 2678, 2429, 2358, 1712
1990, 795, 1646, 2425, 2017
1991, 2017, 2425, 1197, 792
1992, 1233, 2747, 826, 739
1993, 1646, 828, 2412, 2425
1994, 2213, 984, 2503, 1202
1995, 1753, 1999, 1527, 1717
1996, 2435, 2716, 2305, 1176
1997, 2427, 1708, 2297, 1709
1998, 1453, 2891, 1792, 2428
1999, 881, 2138, 357, 310
2000, 876, 2998, 869, 1937
2001, 855, 303, 363, 2630
2002, 960, 2209, 2799, 2239
2003, 1521, 1188, 1089, 1522
2004, 2950, 939, 1710, 1115
2005, 2742, 2585, 1054, 2942
2006, 646, 2633, 2118, 2612
2007, 1436, 2838, 660, 2686
2008, 2066, 1027, 3014, 2584
2009, 1164, 1945, 1866, 521
2010, 1145, 2512, 1253, 2479
2011, 842, 2039, 683, 847
2012, 1016, 1469, 2767, 1015
2013, 2615, 2230, 2974, 2892
2014, 1009, 768, 2949, 574
2015, 1015, 2767, 1451, 2033
2016, 1259, 3063, 2951, 2167
2017, 2951, 1738, 1593, 2873
2018, 2893, 2442, 531, 2857
2019, 2284, 1690, 1784, 925
2020, 2936, 2081, 2337, 898
2021, 2399, 2444, 2133, 935
2022, 2444, 2348, 1049, 2133
2023, 2231, 954, 2641, 2763
2024, 1369, 2837, 1463, 2400
2025, 1481, 2928, 166, 500
2026, 2586, 966, 1617, 2397
2027, 2906, 971, 2975, 2054
2028, 2650, 1235, 2734, 2393
2029, 2579, 895, 1471, 1156
2030, 861, 2587, 908, 2102
2031, 763, 2287, 2448, 2447
2032, 2447, 2448, 2356, 762
2033, 2448, 1864, 759, 2356
2034, 2287, 810, 1864, 2448
2035, 693, 672, 678, 673
2036, 1680, 2810, 261, 405
2037, 2371, 2168, 2766, 2633
2038, 1809, 418, 249, 2780
2039, 2660, 2573, 1302, 789
2040, 1279, 1579, 2480, 1496
2041, 1079, 1267, 2609, 2607
2042, 898, 2337, 929, 906
2043, 952, 2937, 1236, 2020
2044, 1266, 2852, 2608, 1275
2045, 1771, 2417, 499, 168
2046, 2455, 1771, 2405, 2760
2047, 1300, 160, 506, 1619
2048, 1479, 2396, 2122, 1269
2049, 916, 1831, 2459, 2458
2050, 2458, 2459, 2077, 959
2051, 2459, 1796, 961, 2077
2052, 1831, 901, 1796, 2459
2053, 2019, 927, 2014, 1761
2054, 2080, 2745, 2651, 1609
2055, 913, 2393, 2670, 2293
2056, 1440, 873, 891, 1239
2057, 2915, 361, 306, 1787
2058, 352, 315, 1770, 2202
2059, 559, 1589, 2690, 2259
2060, 2423, 2804, 3021, 1765
2061, 1350, 248, 418, 1809
2062, 2779, 247, 419, 1614
2063, 2335, 562, 1262, 912
2064, 318, 348, 1858, 1852
2065, 2227, 2228, 2784, 2411
2066, 1808, 2323, 2225, 1353
2067, 2409, 2603, 415, 252
2068, 1701, 2159, 1857, 1807
2069, 2283, 1917, 1871, 2044
2070, 2044, 1871, 1873, 2710
2071, 2476, 1225, 1610, 1691
2072, 2190, 241, 425, 1629
2073, 237, 1769, 1841, 430
2074, 1630, 2153, 1134, 2465
2075, 785, 1922, 2096, 1794
2076, 786, 1318, 2573, 2660
2077, 775, 2660, 789, 808
2078, 1168, 2655, 1167, 772
2079, 2819, 1091, 2730, 2327
2080, 1266, 1275, 1135, 2703
2081, 2729, 2089, 2103, 2387
2082, 1811, 967, 2759, 2055
2083, 2445, 1206, 967, 1811
2084, 3007, 1173, 2668, 2669
2085, 2208, 956, 1481, 969
2086, 579, 2487, 2488, 1855
2087, 1855, 2488, 1673, 583
2088, 2488, 2273, 582, 1673
2089, 2487, 1050, 2273, 2488
2090, 1148, 550, 1891, 878
2091, 1453, 2889, 1349, 2891
2092, 859, 1744, 885, 2890
2093, 1224, 2705, 633, 2550
2094, 2144, 1067, 2109, 648
2095, 551, 2510, 1093, 2576
2096, 892, 1652, 2579, 1936
2097, 2576, 1093, 1111, 853
2098, 1110, 856, 854, 2631
2099, 1081, 1611, 555, 2953
2100, 2939, 1903, 867, 2238
2101, 554, 1503, 1217, 2901
2102, 1050, 2487, 2496, 2349
2103, 2349, 2496, 2132, 1049
2104, 2496, 1407, 578, 2132
2105, 2487, 579, 1407, 2496
2106, 834, 818, 830, 1325
2107, 2282, 1491, 820, 818
2108, 1677, 1212, 1721, 829
2109, 584, 2500, 2501, 2499
2110, 2499, 2501, 1875, 590
2111, 2501, 1788, 523, 1875
2112, 2500, 526, 1788, 2501
2113, 986, 2382, 2504, 2502
2114, 2502, 2504, 1268, 979
2115, 2504, 2503, 984, 1268
2116, 2382, 985, 2503, 2504
2117, 716, 2233, 2507, 2505
2118, 1794, 2860, 1131, 1280
2119, 844, 1553, 1679, 1695
2120, 1745, 1985, 2918, 2137
2121, 1441, 1087, 1985, 1745
2122, 3048, 3044, 86, 76
2123, 1819, 3070, 2495, 1502
2124, 3037, 2684, 71, 61
2125, 1032, 987, 983, 1029
2126, 1736, 490, 177, 1126
2127, 1331, 1661, 2822, 1046
2128, 2902, 1484, 2369, 705
2129, 1840, 1109, 2546, 1827
2130, 1289, 2113, 2097, 1766
2131, 2177, 845, 1693, 1696
2132, 715, 2554, 1265, 2774
2133, 1579, 2659, 773, 1795
2134, 2638, 2234, 518, 1523
2135, 1769, 1981, 722, 1841
2136, 2153, 1518, 680, 1134
2137, 3054, 3064, 595, 1955
2138, 2344, 2346, 1415, 1584
2139, 1910, 1889, 1789, 526
2140, 1740, 1591, 592, 613
2141, 1422, 1425, 2253, 2148
2142, 2392, 734, 2740, 2692
2143, 2599, 779, 781, 2818
2144, 1567, 1595, 2801, 2396
2145, 1028, 2351, 2348, 1051
2146, 2430, 2377, 2970, 1152
2147, 1137, 1099, 198, 468
2148, 2531, 1452, 1024, 2618
2149, 2439, 2438, 1011, 1192
2150, 2228, 1449, 1747, 2784
2151, 2224, 700, 2776, 2778
2152, 2780, 249, 417, 1352
2153, 2226, 2037, 2040, 1461
2154, 1005, 1101, 2288, 2649
2155, 3075, 1075, 1628, 1017
2156, 1707, 2526, 1414, 1667
2157, 1012, 1008, 2286, 766
2158, 742, 2985, 1264, 1179
2159, 2888, 2555, 2676, 1147
2160, 776, 784, 218, 448
2161, 3019, 548, 346, 321
2162, 1937, 1453, 2428, 860
2163, 2259, 2690, 1643, 2986
2164, 1934, 2276, 1085, 863
2165, 2792, 2712, 3016, 1204
2166, 2710, 1873, 1780, 2626
2167, 804, 513, 1140, 2046
2168, 2422, 2626, 2949, 768
2169, 1724, 884, 2678, 1960
2170, 3048, 76, 87, 2536
2171, 1892, 3035, 3036, 1938
2172, 1161, 2938, 602, 1389
2173, 2646, 2290, 286, 380
2174, 534, 284, 382, 1731
2175, 1108, 1320, 429, 238
2176, 696, 2152, 682, 694
2177, 1694, 2379, 2380, 2566
2178, 2372, 1887, 665, 2490
2179, 2612, 2118, 647, 2694
2180, 2490, 665, 2688, 1657
2181, 1183, 875, 319, 347
2182, 1754, 1927, 890, 2064
2183, 2555, 737, 2746, 2676
2184, 708, 2559, 2560, 2556
2185, 2556, 2560, 2557, 588
2186, 2560, 2558, 587, 2557
2187, 2559, 689, 2558, 2560
2188, 1029, 983, 3052, 991
2189, 2750, 2957, 2964, 2904
2190, 987, 2002, 2414, 983
2191, 2743, 1116, 2521, 2988
2192, 2030, 685, 1321, 2178
2193, 1767, 2513, 1733, 732
2194, 731, 2843, 1146, 729
2195, 2506, 2888, 2794, 1242
2196, 788, 1497, 1474, 1166
2197, 2535, 2552, 726, 816
2198, 587, 2571, 2572, 2557
2199, 2557, 2572, 2570, 588
2200, 2572, 2499, 590, 2570
2201, 2571, 584, 2499, 2572
2202, 2261, 1506, 2880, 771
2203, 798, 1508, 786, 2268
2204, 1303, 2200, 1392, 2574
2205, 783, 1495, 790, 2739
2206, 70, 3036, 1862, 59
2207, 2722, 2941, 2652, 1967
2208, 2869, 1239, 2827, 1653
2209, 1493, 2363, 2136, 552
2210, 2911, 1273, 1642, 2508
2211, 563, 2911, 2508, 560
2212, 1150, 1723, 1472, 1149
2213, 3048, 2536, 2722, 1943
2214, 3038, 3037, 72, 83
2215, 1967, 2652, 553, 2629
2216, 2274, 1051, 2443, 2669
2217, 2524, 2762, 2805, 2996
2218, 1066, 1240, 2689, 2672
2219, 816, 726, 713, 2887
2220, 2148, 2253, 2874, 819
2221, 1721, 2674, 2917, 837
2222, 2139, 460, 207, 1880
2223, 801, 206, 460, 2139
2224, 1541, 1701, 1807, 2045
2225, 1895, 1897, 1666, 2616
2226, 1469, 995, 1626, 2767
2227, 1163, 1377, 2435, 2416
2228, 1017, 1628, 2615, 2667
2229, 524, 1649, 2596, 1874
2230, 1874, 2596, 2595, 589
2231, 2596, 1964, 522, 2595
2232, 1649, 525, 1964, 2596
2233, 771, 2880, 1578, 2269
2234, 2451, 788, 2789, 2999
2235, 2317, 1298, 2316, 2413
2236, 743, 2887, 2554, 715
2237, 725, 1243, 2637, 717
2238, 1062, 736, 2567, 2728
2239, 2872, 2226, 1461, 1309
2240, 1255, 2143, 2934, 1257
2241, 1067, 2402, 2114, 2109
2242, 2606, 1483, 1613, 2410
2243, 2946, 2093, 2095, 2094
2244, 1116, 2906, 2054, 2521
2245, 2937, 561, 2250, 1236
2246, 1984, 690, 2116, 1285
2247, 2328, 628, 1910, 528
2248, 1291, 2604, 2115, 2810
2249, 689, 2613, 2614, 2558
2250, 2558, 2614, 2611, 587
2251, 2838, 1291, 636, 660
2252, 1069, 2117, 2312, 1435
2253, 1025, 2248, 1138, 1006
2254, 1800, 1734, 467, 200
2255, 3073, 2439, 1192, 1705
2256, 618, 2010, 1186, 2009
2257, 2550, 633, 640, 1118
2258, 1443, 2610, 2992, 1939
2259, 540, 1971, 2621, 2620
2260, 2620, 2621, 1930, 719
2261, 2621, 1772, 515, 1930
2262, 1971, 516, 1772, 2621
2263, 620, 1187, 2346, 2344
2264, 2114, 626, 2634, 662
2265, 2934, 663, 258, 408
2266, 2714, 2680, 1112, 769
2267, 2945, 1137, 468, 199
2268, 1203, 2711, 755, 2158
2269, 2649, 2288, 2439, 3073
2270, 2375, 1153, 1316, 2585
2271, 2996, 2805, 2563, 1117
2272, 1051, 2348, 2444, 2443
2273, 3033, 3032, 861, 1345
2274, 3035, 3034, 1894, 3023
2275, 858, 1714, 1902, 1918
2276, 2896, 816, 2887, 743
2277, 3006, 1277, 825, 1298
2278, 1507, 2590, 547, 2955
2279, 1423, 1575, 2391, 1212
2280, 2981, 1433, 667, 651
2281, 2861, 2614, 2613, 2635
2282, 1532, 2694, 2386, 586
2283, 2224, 670, 654, 700
2284, 1714, 370, 297, 1902
2285, 1607, 1440, 1239, 2869
2286, 1776, 1293, 1086, 2913
2287, 733, 424, 243, 1519
2288, 2546, 1109, 1328, 1981
2289, 1752, 439, 228, 1323
2290, 2374, 581, 2522, 2350
2291, 2743, 2988, 2742, 2430
2292, 2988, 2375, 2585, 2742
2293, 2585, 1316, 2815, 1054
2294, 2373, 269, 397, 1220
2295, 1097, 2315, 609, 610
2296, 1222, 2129, 1260, 644
2297, 2644, 2128, 2241, 1886
2298, 3060, 3059, 1883, 1739
2299, 514, 1097, 610, 2732
2300, 2545, 2544, 1105, 532
2301, 535, 2647, 1515, 2960
2302, 2916, 1706, 1660, 1129
2303, 2785, 2051, 1004, 1362
2304, 1413, 1139, 1143, 2060
2305, 1414, 1944, 1945, 1164
2306, 2393, 2734, 853, 2670
2307, 2886, 1156, 2510, 854
2308, 2451, 1496, 1497, 788
2309, 2533, 2818, 2041, 740
2310, 1507, 2451, 2999, 2590
2311, 1496, 2480, 777, 1497
2312, 3048, 1943, 1110, 3028
2313, 1891, 78, 89, 878
2314, 877, 852, 2470, 2851
2315, 552, 2136, 873, 1440
2316, 2481, 213, 453, 2267
2317, 1159, 1541, 2045, 2156
2318, 784, 2574, 449, 218
2319, 2252, 2187, 2844, 1574
2320, 1299, 2977, 787, 793
2321, 789, 1302, 806, 2407
2322, 1578, 215, 451, 796
2323, 758, 746, 2591, 1141
2324, 2574, 1392, 217, 449
2325, 2375, 2376, 2374, 1153
2326, 1528, 2333, 3025, 1034
2327, 2957, 1356, 1120, 2964
2328, 691, 2664, 2665, 2661
2329, 2661, 2665, 2662, 703
2330, 3022, 2025, 2028, 2701
2331, 1190, 2058, 1013, 995
2332, 2767, 1626, 2785, 1451
2333, 2058, 1361, 1005, 1013
2334, 2456, 2087, 2859, 2378
2335, 171, 495, 1596, 3010
2336, 937, 2350, 2415, 2214
2337, 1838, 1270, 980, 975
2338, 317, 349, 2551, 1644
2339, 1111, 2672, 2670, 853
2340, 1690, 325, 341, 1784
2341, 1504, 95, 105, 1775
2342, 865, 293, 373, 1903
2343, 2940, 1713, 865, 1919
2344, 1265, 742, 1179, 2774
2345, 1177, 1324, 2803, 2498
2346, 3046, 1743, 1959, 2460
2347, 349, 318, 1852, 2551
2348, 1204, 3016, 761, 2353
2349, 1666, 1627, 195, 471
2350, 749, 3017, 2046, 2956
2351, 2358, 1935, 557, 888
2352, 2495, 1719, 3071, 1200
2353, 1894, 1345, 931, 1893
2354, 638, 1071, 2687, 656
2355, 1258, 2612, 2694, 1532
2356, 690, 1256, 2384, 2116
2357, 1918, 1902, 1608, 1901
2358, 1013, 1005, 2649, 1314
2359, 3072, 1009, 574, 2736
2360, 2532, 1006, 2791, 1074
2361, 1626, 1314, 2051, 2785
2362, 1490, 1576, 821, 2984
2363, 2787, 792, 1197, 1276
2364, 2639, 781, 779, 734
2365, 1311, 2410, 416, 251
2366, 662, 2634, 410, 257
2367, 2225, 1809, 2780, 669
2368, 651, 667, 692, 2402
2369, 2694, 647, 2311, 2386
2370, 2978, 600, 1385, 2302
2371, 1638, 1255, 1257, 2431
2372, 709, 2699, 2700, 2698
2373, 2698, 2700, 1876, 589
2374, 2700, 2570, 590, 1876
2375, 2699, 588, 2570, 2700
2376, 432, 2177, 1696, 234
2377, 3022, 2069, 2070, 2025
2378, 1289, 1766, 1290, 2547
2379, 1147, 2552, 741, 2987
2380, 918, 1136, 1091, 2819
2381, 1688, 2735, 2284, 2834
2382, 918, 2819, 1079, 2390
2383, 2389, 2729, 930, 2388
2384, 2168, 687, 2765, 2766
2385, 2687, 1284, 262, 404
2386, 1387, 2167, 615, 1417
2387, 1152, 2272, 2351, 1028
2388, 2377, 2942, 1188, 1189
2389, 1316, 939, 2950, 2815
2390, 587, 2611, 2707, 2571
2391, 2571, 2707, 1119, 584
2392, 649, 2839, 1477, 3002
2393, 3002, 1477, 655, 2322
2394, 688, 2069, 2709, 2708
2395, 2708, 2709, 2664, 691
2396, 2516, 2905, 2568, 1486
2397, 2855, 765, 2540, 2624
2398, 756, 764, 765, 2855
2399, 2625, 1114, 2892, 767
2400, 2159, 1237, 2931, 1857
2401, 996, 2173, 2001, 2161
2402, 1706, 1033, 1379, 1660
2403, 2626, 1780, 1783, 2949
2404, 545, 2624, 1336, 1335
2405, 2667, 2615, 2892, 1114
2406, 2723, 1058, 2474, 1339
2407, 1086, 1123, 2277, 2106
2408, 3070, 1125, 1719, 2495
2409, 1719, 1901, 2715, 3071
2410, 1027, 184, 482, 3014
2411, 1047, 2213, 1041, 2713
2412, 1120, 1355, 999, 2865
2413, 1008, 1668, 2289, 2286
2414, 752, 2593, 754, 2147
2415, 2473, 748, 2142, 2140
2416, 2420, 2127, 1602, 2846
2417, 2719, 803, 1541, 1159
2418, 2674, 2252, 1574, 2917
2419, 2253, 441, 226, 2874
2420, 315, 351, 2683, 1770
2421, 1862, 3023, 569, 1347
2422, 2717, 2848, 1748, 1238
2423, 2147, 754, 211, 455
2424, 811, 1203, 2158, 2962
2425, 2183, 1881, 1917, 2283
2426, 537, 2047, 2724, 1580
2427, 1580, 2724, 2595, 522
2428, 2724, 2698, 589, 2595
2429, 2047, 709, 2698, 2724
2430, 719, 2725, 2726, 2620
2431, 2620, 2726, 1560, 540
2432, 2726, 1977, 541, 1560
2433, 2725, 718, 1977, 2726
2434, 632, 619, 1418, 1210
2435, 2647, 623, 604, 1515
2436, 2313, 1210, 3060, 1739
2437, 514, 1193, 2313, 1097
2438, 737, 2507, 2514, 2746
2439, 1321, 3012, 1312, 1732
2440, 911, 2842, 926, 2084
2441, 565, 1136, 2388, 2802
2442, 2819, 2327, 1267, 1079
2443, 2811, 2347, 621, 1599
2444, 2270, 1098, 2811, 623
2445, 609, 1592, 2241, 2128
2446, 3058, 2644, 1886, 1221
2447, 1160, 534, 1731, 2737
2448, 532, 1105, 535, 1760
2449, 1227, 2782, 338, 329
2450, 3030, 3029, 2491, 1942
2451, 1942, 2491, 1235, 849
2452, 1003, 2814, 186, 480
2453, 2013, 3004, 2163, 1043
2454, 3078, 1080, 288, 378
2455, 1154, 1908, 1921, 2828
2456, 1909, 1308, 603, 1106
2457, 2835, 2088, 2087, 2456
2458, 1171, 950, 2946, 2486
2459, 1995, 1672, 1078, 1077
2460, 2327, 2730, 2852, 1266
2461, 2845, 2830, 1322, 838
2462, 814, 1286, 2909, 2154
2463, 2896, 743, 2041, 2569
2464, 742, 2638, 1523, 2985
2465, 1289, 2905, 2516, 2113
2466, 728, 841, 2513, 1767
2467, 2746, 2514, 782, 713
2468, 2798, 1565, 1566, 1563
2469, 2743, 2274, 1726, 1116
2470, 3010, 1596, 973, 1839
2471, 3066, 1632, 2326, 1669
2472, 2335, 1686, 2291, 2063
2473, 1691, 952, 2020, 2813
2474, 1826, 2991, 2565, 1842
2475, 1287, 738, 737, 2555
2476, 2888, 1147, 2987, 2794
2477, 715, 2774, 2534, 740
2478, 1777, 2543, 1846, 1779
2479, 1777, 607, 1080, 2543
2480, 602, 1611, 106, 97
2481, 2920, 2966, 2058, 1190
2482, 2171, 992, 2002, 987
2483, 1044, 1547, 3074, 1360
2484, 2350, 2522, 1165, 2415
2485, 957, 2483, 2755, 2753
2486, 2753, 2755, 2458, 959
2487, 2755, 2754, 916, 2458
2488, 2483, 914, 2754, 2755
2489, 718, 2725, 2757, 2756
2490, 2757, 1931, 716, 2505
2491, 2725, 719, 1931, 2757
2492, 2799, 1205, 163, 503
2493, 1656, 1103, 2004, 2928
2494, 2970, 2377, 1189, 2798
2495, 580, 1244, 2640, 979
2496, 1704, 486, 181, 2023
2497, 650, 1185, 584, 1119
2498, 639, 2622, 633, 2705
2499, 2761, 1118, 1887, 2372
2500, 628, 1888, 1889, 1910
2501, 2231, 1171, 2486, 954
2502, 1370, 2086, 2124, 1464
2503, 1839, 973, 2198, 970
2504, 1171, 945, 1173, 3007
2505, 614, 2980, 1816, 2131
2506, 2518, 638, 656, 1682
2507, 2704, 1434, 1433, 2981
2508, 3013, 1196, 2653, 2795
2509, 1304, 2965, 784, 776
2510, 2795, 2653, 2534, 2721
2511, 780, 2588, 770, 1230
2512, 1379, 1038, 3015, 1296
2513, 1139, 2531, 2618, 1099
2514, 2304, 1100, 1378, 2825
2515, 3075, 1017, 3072, 1962
2516, 1498, 2768, 2222, 2657
2517, 2860, 2481, 2267, 1131
2518, 758, 2420, 2846, 1664
2519, 799, 2283, 2044, 1849
2520, 754, 1540, 456, 211
2521, 744, 1601, 811, 1749
2522, 2931, 1880, 513, 804
2523, 803, 745, 1701, 1541
2524, 1215, 2969, 2610, 1443
2525, 2898, 1456, 2899, 2129
2526, 2980, 400, 267, 1816
2527, 2519, 666, 1984, 643
2528, 1436, 1532, 586, 2838
2529, 642, 2518, 1683, 585
2530, 1947, 611, 1676, 1259
2531, 2963, 608, 607, 1777
2532, 1909, 1106, 2290, 2646
2533, 2733, 1914, 1915, 1913
2534, 2514, 2507, 2233, 1178
2535, 2554, 782, 712, 1265
2536, 2467, 2778, 2923, 2119
2537, 1351, 2098, 2099, 2862
2538, 647, 3002, 2322, 2311
2539, 657, 2100, 414, 253
2540, 653, 2467, 2119, 2218
2541, 2334, 1274, 2019, 922
2542, 1267, 2703, 2085, 2609
2543, 2101, 2982, 2021, 897
2544, 2335, 2063, 913, 2995
2545, 1353, 2225, 669, 677
2546, 1483, 676, 1352, 1613
2547, 2605, 2606, 2410, 1311
2548, 3074, 475, 192, 2648
2549, 1962, 3072, 2736, 1076
2550, 1011, 473, 194, 3068
2551, 1840, 732, 2181, 1109
2552, 2367, 2423, 1765, 2748
2553, 2676, 2746, 713, 726
2554, 421, 246, 1438, 2840
2555, 2983, 1231, 2588, 780
2556, 780, 1230, 2600, 1196
2557, 2597, 1475, 1303, 2965
2558, 2632, 2675, 2692, 2740
2559, 1468, 1144, 1025, 1333
2560, 3049, 3053, 1115, 2068
2561, 2050, 1191, 1018, 1627
2562, 2679, 763, 2447, 2680
2563, 2420, 812, 3079, 2127
2564, 764, 2714, 769, 765
2565, 1361, 1360, 1101, 1005
2566, 1743, 2580, 1055, 1959
2567, 1470, 1936, 2886, 887
2568, 2630, 363, 304, 1590
2569, 922, 2019, 1761, 907
2570, 1495, 2602, 2768, 1498
2571, 2905, 2465, 1254, 2568
2572, 2747, 1234, 2972, 826
2573, 2107, 739, 3006, 2318
2574, 785, 1794, 1280, 1508
2575, 2600, 2599, 2818, 2533
2576, 688, 2708, 2797, 1247
2577, 1247, 2797, 2559, 708
2578, 2797, 2796, 689, 2559
2579, 2708, 691, 2796, 2797
2580, 2681, 79, 90, 850
2581, 2491, 2933, 2734, 1235
2582, 1200, 3071, 299, 367
2583, 949, 2005, 941, 1130
2584, 2743, 1028, 1051, 2274
2585, 1206, 1317, 1838, 967
2586, 1544, 1618, 1371, 978
2587, 2628, 1597, 1595, 1567
2588, 2054, 2975, 2524, 1052
2589, 972, 1370, 1464, 2523
2590, 940, 1306, 2263, 965
2591, 1014, 1010, 1191, 2050
2592, 2288, 2691, 2438, 2439
2593, 1144, 2033, 2594, 1896
2594, 1359, 1016, 1015, 1468
2595, 2627, 1088, 2055, 951
2596, 2006, 2929, 1245, 2561
2597, 965, 2263, 971, 2906
2598, 956, 1656, 2928, 1481
2599, 2292, 1655, 2471, 852
2600, 2682, 2851, 1687, 1791
2601, 725, 717, 2027, 2043
2602, 743, 715, 740, 2041
2603, 2254, 1554, 1577, 836
2604, 2316, 1299, 793, 1297
2605, 696, 2517, 733, 2152
2606, 2553, 2111, 1697, 3012
2607, 1486, 2568, 2182, 1281
2608, 2522, 1117, 984, 1165
2609, 2331, 985, 2365, 1753
2610, 2297, 2426, 1717, 1036
2611, 1022, 2865, 2066, 1122
2612, 2713, 1528, 1034, 1026
2613, 549, 1967, 2629, 2394
2614, 896, 1064, 1240, 1066
2615, 2968, 2202, 2911, 563
2616, 2955, 1924, 1923, 1473
2617, 778, 2407, 1475, 2597
2618, 1558, 1559, 3011, 2809
2619, 2610, 1224, 2550, 2992
2620, 2169, 641, 1067, 2144
2621, 1399, 1445, 389, 278
2622, 2321, 2009, 2885, 1594
2623, 1229, 2441, 1571, 611
2624, 1594, 2885, 274, 392
2625, 1538, 1073, 332, 334
2626, 562, 1555, 1226, 2671
2627, 1686, 1631, 909, 2291
2628, 912, 2334, 922, 905
2629, 1624, 2012, 1357, 3050
2630, 1115, 3053, 1621, 2950
2631, 2807, 996, 2161, 1048
2632, 1065, 876, 1151, 2959
2633, 864, 1725, 81, 92
2634, 1903, 373, 294, 867
2635, 1817, 2673, 1344, 2900
2636, 2879, 3025, 2173, 996
2637, 2952, 2750, 2904, 1175
2638, 770, 787, 1132, 1230
2639, 2977, 2632, 2740, 2589
2640, 2389, 2092, 2089, 2729
2641, 2943, 1263, 330, 336
2642, 2390, 1079, 2607, 2738
2643, 840, 1840, 1827, 848
2644, 2756, 2820, 1978, 718
2645, 2820, 2042, 721, 1978
2646, 2720, 1062, 2728, 2958
2647, 1040, 1174, 993, 2434
2648, 3014, 482, 185, 3004
2649, 2173, 3025, 2333, 2821
2650, 1684, 1126, 2973, 2414
2651, 1627, 1018, 472, 195
2652, 1144, 1896, 2248, 1025
2653, 2191, 2952, 1175, 1100
2654, 1042, 1380, 998, 3026
2655, 1176, 2305, 1044, 3051
2656, 1717, 1527, 1031, 1036
2657, 2643, 1821, 1419, 593
2658, 643, 1984, 1285, 2145
2659, 2053, 2990, 630, 2898
2660, 1385, 2372, 2490, 634
2661, 2959, 1151, 859, 2424
2662, 2489, 1441, 2636, 1966
2663, 2828, 1921, 1914, 2733
2664, 2749, 2737, 285, 381
2665, 608, 2646, 380, 287
2666, 979, 2640, 2829, 2502
2667, 2502, 2829, 2306, 986
2668, 2829, 1271, 982, 2306
2669, 2640, 980, 1271, 2829
2670, 2155, 822, 824, 1573
2671, 1552, 1326, 2216, 2251
2672, 1232, 2535, 816, 2896
2673, 2245, 2853, 1061, 2149
2674, 2370, 1443, 1939, 2211
2675, 2696, 2053, 1222, 1444
2676, 1046, 2822, 2752, 2894
2677, 2173, 2821, 1331, 2001
2678, 2012, 1000, 2192, 1357
2679, 889, 1926, 3045, 1064
2680, 2250, 1072, 2079, 2453
2681, 1617, 2627, 951, 2406
2682, 2207, 962, 947, 1172
2683, 2641, 2609, 2085, 942
2684, 963, 946, 945, 1305
2685, 1985, 1150, 1149, 2918
2686, 1716, 2364, 1786, 855
2687, 2138, 2793, 309, 357
2688, 739, 826, 1277, 3006
2689, 2887, 713, 782, 2554
2690, 2151, 2903, 2150, 843
2691, 1485, 701, 2866, 2468
2692, 1657, 2688, 402, 265
2693, 692, 411, 256, 626
2694, 1070, 591, 2328, 2764
2695, 2403, 1638, 2431, 2993
2696, 2402, 692, 626, 2114
2697, 2322, 655, 2143, 1255
2698, 648, 2109, 1482, 663
2699, 1243, 1242, 2663, 846
2700, 2112, 2026, 1484, 2902
2701, 1134, 680, 2039, 842
2702, 1245, 1053, 968, 2561
2703, 2398, 2455, 2760, 1479
2704, 944, 2342, 1480, 1810
2705, 2800, 161, 505, 1367
2706, 170, 496, 2706, 974
2707, 2763, 2641, 942, 2007
2708, 3007, 2669, 2443, 1301
2709, 2417, 969, 167, 499
2710, 2342, 1839, 970, 1480
2711, 1269, 2122, 2247, 2339
2712, 911, 1670, 924, 2842
2713, 2081, 322, 344, 2337
2714, 1975, 1994, 567, 568
2715, 3001, 2189, 2991, 1826
2716, 1133, 1252, 723, 684
2717, 2413, 2316, 1297, 2412
2718, 2391, 2244, 2252, 2674
2719, 1324, 2868, 817, 2803
2720, 2520, 1573, 835, 1211
2721, 1198, 2255, 1503, 554
2722, 2003, 2360, 1607, 2104
2723, 1198, 554, 2256, 2105
2724, 1199, 1502, 2258, 866
2725, 797, 1157, 1879, 1882
2726, 2592, 2882, 1057, 1851
2727, 751, 804, 2046, 3017
2728, 1664, 2183, 2283, 799
2729, 1806, 1850, 1237, 2159
2730, 1157, 3008, 1952, 1879
2731, 2419, 2156, 1603, 2848
2732, 2474, 753, 209, 457
2733, 1583, 1228, 2301, 3076
2734, 2300, 113, 124, 2731
2735, 1642, 2203, 1986, 2285
2736, 1294, 883, 553, 2652
2737, 1275, 2608, 914, 2483
2738, 2802, 2388, 930, 2091
2739, 568, 567, 1073, 1538
2740, 2729, 2387, 2325, 930
2741, 1298, 825, 1299, 2316
2742, 2244, 2281, 2187, 2252
2743, 2254, 2215, 2639, 1678
2744, 1326, 1490, 2497, 2216
2745, 1623, 1002, 2823, 1358
2746, 3074, 1547, 191, 475
2747, 3004, 185, 481, 2163
2748, 1699, 994, 2879, 1546
2749, 767, 2892, 2974, 1781
2750, 1781, 2679, 2680, 2714
2751, 1872, 2422, 2625, 756
2752, 1872, 2710, 2626, 2422
2753, 1220, 397, 270, 631
2754, 1456, 1420, 1605, 2899
2755, 2315, 2727, 1592, 609
2756, 2075, 2859, 2753, 959
2757, 2859, 2087, 957, 2753
2758, 969, 1481, 500, 167
2759, 1319, 2598, 1922, 785
2760, 1922, 2140, 2142, 2096
2761, 2653, 2533, 740, 2534
2762, 630, 2642, 2831, 1386
2763, 2861, 1746, 666, 2519
2764, 670, 673, 1843, 654
2765, 682, 2511, 1313, 1980
2766, 1460, 658, 2606, 2605
2767, 2547, 240, 426, 1288
2768, 1518, 696, 694, 680
2769, 422, 245, 697, 730
2770, 2526, 1963, 1944, 1414
2771, 1292, 1201, 2298, 1704
2772, 1023, 2617, 2916, 2806
2773, 671, 2466, 2469, 1844
2774, 2804, 1828, 707, 3021
2775, 724, 707, 2408, 1107
2776, 1438, 246, 420, 2449
2777, 830, 2775, 435, 232
2778, 1551, 2280, 2281, 2244
2779, 2830, 2747, 1233, 1322
2780, 2254, 832, 1677, 1554
2781, 2202, 1770, 1273, 2911
2782, 1171, 3007, 1301, 950
2783, 2430, 2742, 2942, 2377
2784, 953, 2197, 1088, 2627
2785, 235, 1842, 2177, 432
2786, 2379, 2871, 2867, 735
2787, 2871, 2567, 736, 2867
2788, 1841, 722, 2189, 3001
2789, 2460, 1959, 2292, 2065
2790, 2203, 2986, 2850, 1986
2791, 2311, 2322, 1255, 1638
2792, 2170, 652, 2409, 2100
2793, 674, 1460, 2605, 2472
2794, 1462, 2038, 672, 693
2795, 1160, 1778, 606, 534
2796, 2130, 2321, 1594, 2919
2797, 1911, 514, 2732, 1228
2798, 1941, 1220, 631, 1591
2799, 2831, 616, 2370, 2320
2800, 1241, 227, 439, 1752
2801, 2108, 1233, 739, 2107
2802, 1325, 830, 232, 434
2803, 3052, 2973, 489, 178
2804, 1165, 984, 2213, 1047
2805, 3049, 2068, 1376, 2067
2806, 1527, 2366, 576, 1031
2807, 1346, 1892, 1938, 2684
2808, 313, 353, 1859, 2201
2809, 2744, 908, 849, 1890
2810, 3027, 2631, 551, 3047
2811, 1858, 875, 1183, 2580
2812, 921, 2204, 2878, 2876
2813, 2876, 2878, 2454, 926
2814, 2878, 2877, 914, 2454
2815, 2204, 919, 2877, 2878
2816, 1636, 2616, 196, 470
2817, 1546, 2879, 996, 2807
2818, 1030, 3050, 1040, 2817
2819, 3009, 2531, 1139, 1413
2820, 1327, 776, 448, 219
2821, 1131, 2267, 1506, 2261
2822, 753, 2421, 458, 209
2823, 1142, 1238, 2184, 2593
2824, 2680, 2447, 762, 1112
2825, 1872, 756, 2855, 2538
2826, 1158, 1849, 1872, 2538
2827, 709, 2048, 2883, 2699
2828, 2699, 2883, 2556, 588
2829, 2883, 1249, 708, 2556
2830, 2048, 710, 1249, 2883
2831, 2593, 2184, 1540, 754
2832, 765, 769, 1113, 2540
2833, 1857, 2931, 804, 751
2834, 1663, 1665, 2418, 2847
2835, 2143, 648, 663, 2934
2836, 2145, 1223, 650, 1119
2837, 1285, 2116, 637, 635
2838, 1097, 2313, 1739, 2315
2839, 2471, 3019, 3018, 2826
2840, 1239, 891, 1184, 2827
2841, 2463, 3046, 2460, 1094
2842, 732, 1733, 2564, 2181
2843, 2478, 848, 1768, 2179
2844, 2242, 1913, 1915, 2971
2845, 530, 2271, 1572, 1606
2846, 3063, 1637, 1738, 2951
2847, 1218, 302, 364, 1786
2848, 1151, 860, 1744, 859
2849, 1148, 1724, 1960, 1065
2850, 2033, 1451, 1007, 2594
2851, 1336, 2792, 1204, 2711
2852, 1238, 1748, 2723, 2184
2853, 2718, 800, 2126, 1337
2854, 2944, 2300, 2731, 1455
2855, 1604, 2371, 2633, 646
2856, 2010, 1988, 1251, 1186
2857, 1947, 1259, 2167, 1387
2858, 2366, 491, 176, 576
2859, 941, 980, 2640, 1244
2860, 2433, 575, 1033, 1706
2861, 2955, 547, 1869, 1924
2862, 2222, 3000, 1327, 2658
2863, 1795, 773, 2598, 1319
2864, 2598, 2770, 2140, 1922
2865, 1766, 2478, 2179, 1290
2866, 1213, 831, 2282, 2601
2867, 712, 1178, 2234, 2638
2868, 2506, 1287, 2555, 2888
2869, 2032, 3075, 1962, 1707
2870, 2824, 2584, 2013, 2024
2871, 2162, 2954, 1026, 2854
2872, 2032, 1020, 1075, 3075
2873, 2899, 1605, 2643, 1421
2874, 1608, 369, 298, 520
2875, 1219, 870, 1505, 1083
2876, 1715, 295, 371, 1513
2877, 2258, 1200, 367, 300
2878, 2985, 1524, 1870, 1264
2879, 1586, 1722, 2853, 2245
2880, 738, 2756, 2757, 2505
2881, 717, 2637, 2741, 2701
2882, 2590, 2795, 2721, 547
2883, 1358, 2823, 1354, 2186
2884, 2162, 2214, 2415, 2954
2885, 2565, 684, 695, 845
2886, 2423, 1634, 730, 2804
2887, 2512, 2958, 2728, 1253
2888, 722, 2368, 2029, 2189
2889, 1568, 2207, 2076, 2123
2890, 2264, 968, 2586, 1306
2891, 1370, 938, 1544, 2086
2892, 1064, 3045, 2682, 1240
2893, 1654, 894, 2578, 1927
2894, 351, 316, 559, 2683
2895, 1166, 1474, 2907, 783
2896, 772, 1167, 2881, 2659
2897, 2789, 2654, 1231, 2983
2898, 1793, 2575, 2515, 2141
2899, 1287, 2820, 2756, 738
2900, 2818, 781, 2569, 2041
2901, 2909, 229, 437, 2868
2902, 2497, 1063, 2246, 735
2903, 1178, 2233, 2235, 2234
2904, 2985, 1523, 1525, 1524
2905, 2506, 725, 2043, 2042
2906, 832, 2279, 2845, 1423
2907, 2111, 2479, 731, 1697
2908, 1529, 1022, 1122, 2059
2909, 1625, 2432, 2966, 2920
2910, 2011, 1129, 2436, 1001
2911, 2529, 1351, 1462, 1310
2912, 2777, 2910, 2661, 703
2913, 2910, 2796, 691, 2661
2914, 2613, 689, 2796, 2910
2915, 3020, 2064, 2629, 553
2916, 2464, 563, 560, 894
2917, 2551, 1852, 1743, 3046
2918, 1182, 1098, 2270, 1195
2919, 629, 1947, 1387, 529
2920, 2731, 124, 114, 3061
2921, 2301, 3058, 1221, 1884
2922, 883, 2257, 3020, 553
2923, 2494, 1818, 1640, 2979
2924, 1966, 2636, 2257, 883
2925, 2961, 2941, 2582, 2537
2926, 560, 2508, 1652, 892
2927, 1226, 1762, 898, 906
2928, 888, 557, 1776, 882
2929, 2265, 1925, 2915, 1170
2930, 1645, 2362, 1764, 2793
2931, 782, 2514, 1178, 712
2932, 1295, 1292, 1704, 2023
2933, 2022, 2434, 1315, 2666
2934, 1130, 941, 1244, 580
2935, 831, 1492, 1491, 2282
2936, 829, 1721, 837, 2217
2937, 2187, 1752, 1323, 2844
2938, 2108, 1422, 2148, 2908
2939, 891, 873, 355, 312
2940, 857, 2489, 1966, 1348
2941, 1156, 1471, 1093, 2510
2942, 1852, 1858, 2580, 1743
2943, 2509, 2464, 894, 1654
2944, 1507, 1168, 772, 1279
2945, 2200, 809, 2199, 1392
2946, 1132, 2589, 779, 2599
2947, 2898, 630, 1386, 1456
2948, 1885, 2994, 2165, 2642
2949, 644, 1260, 2893, 2240
2950, 592, 2440, 1209, 3062
2951, 2832, 2174, 1032, 1661
2952, 1700, 1296, 479, 188
2953, 3049, 2067, 997, 1121
2954, 1709, 2297, 1036, 1711
2955, 2038, 675, 2693, 672
2956, 2361, 2528, 1815, 658
2957, 1929, 674, 2472, 652
2958, 1310, 1462, 693, 2924
2959, 1890, 849, 1235, 2650
2960, 3037, 61, 5, 72
2961, 3042, 3041, 74, 85
2962, 3032, 3031, 2587, 861
2963, 1256, 1531, 2685, 2384
2964, 2410, 1613, 250, 416
2965, 1614, 419, 248, 1350
2966, 1815, 1928, 676, 1483
2967, 2935, 2170, 2100, 657
2968, 2228, 653, 2218, 1449
2969, 923, 2193, 2925, 1973
2970, 1973, 2925, 2842, 924
2971, 2925, 2876, 926, 2842
2972, 2193, 921, 2876, 2925
2973, 915, 1830, 2926, 2035
2974, 2035, 2926, 2877, 919
2975, 2926, 2754, 914, 2877
2976, 1830, 916, 2754, 2926
2977, 697, 2840, 698, 1828
2978, 2113, 2516, 1878, 1633
2979, 2511, 2748, 2176, 1313
2980, 1102, 2456, 2378, 1545
2981, 2262, 2406, 2196, 1104
2982, 1618, 1969, 1616, 1371
2983, 2928, 2004, 501, 166
2984, 1616, 1703, 1300, 1371
2985, 1463, 2239, 164, 502
2986, 3077, 2303, 1096, 2912
2987, 2764, 2328, 528, 1185
2988, 626, 256, 410, 2634
2989, 2891, 1590, 2492, 1792
2990, 2064, 890, 2394, 2629
2991, 2591, 1542, 1601, 744
2992, 1338, 802, 801, 1850
2993, 2127, 1167, 2655, 1602
2994, 375, 1060, 2932, 291
2995, 291, 2932, 1059, 376
2996, 1060, 555, 1059, 2932
2997, 1814, 2223, 2575, 1793
2998, 2588, 2787, 1276, 770
2999, 2581, 1805, 874, 1785
3000, 3023, 1894, 1893, 569
3001, 3043, 3042, 85, 75
3002, 1223, 635, 2619, 664
3003, 1682, 656, 263, 403
3004, 2240, 2893, 2857, 1398
3005, 1994, 1995, 1077, 567
3006, 2834, 2284, 925, 2164
3007, 1163, 1023, 2806, 1377
3008, 2249, 1014, 2050, 1897
3009, 2088, 1135, 957, 2087
3010, 108, 99, 1846, 1758
3011, 603, 532, 1760, 601
3012, 862, 1161, 1389, 1759
3013, 2900, 1344, 870, 1219
3014, 2816, 1718, 2939, 2238
3015, 1718, 104, 95, 1504
3016, 2913, 1086, 2106, 1218
3017, 1775, 1081, 2953, 2940
3018, 2582, 77, 88, 2537
3019, 2536, 87, 77, 2582
3020, 1153, 937, 939, 1316
3021, 2703, 1135, 2088, 2085
3022, 910, 2482, 2608, 2852
3023, 3047, 551, 2576, 2933
3024, 850, 90, 80, 2583
3025, 1228, 2732, 3058, 2301
3026, 2944, 1455, 1388, 2772
3027, 3077, 2912, 2300, 2944
3028, 3009, 1332, 1452, 2531
3029, 3068, 194, 472, 1018
3030, 2061, 1143, 1137, 2945
3031, 1480, 970, 1317, 1206
3032, 2486, 2946, 2094, 2738
3033, 950, 2401, 2093, 2946
3034, 109, 100, 1692, 1779
3035, 2828, 2733, 2544, 2545
3036, 2637, 1243, 846, 2299
3037, 2097, 2786, 728, 704
3038, 1283, 1282, 723, 1252
3039, 869, 1820, 1641, 2889
3040, 1345, 861, 2102, 931
3041, 1664, 2846, 797, 2183
3042, 544, 1334, 761, 3016
3043, 2023, 181, 485, 1354
3044, 2950, 1621, 577, 2815
3045, 1185, 528, 2500, 584
3046, 1887, 585, 1683, 665
3047, 2806, 2916, 1129, 2011
3048, 3015, 1003, 480, 187
3049, 863, 1085, 1514, 1715
3050, 1505, 1082, 871, 1512
3051, 1084, 2979, 1900, 1293
3052, 2865, 999, 1027, 2066
3053, 1041, 2296, 1528, 2713
3054, 2894, 2752, 179, 487
3055, 1153, 2374, 2350, 937
3056, 970, 2198, 981, 1317
3057, 1033, 2024, 1038, 1379
3058, 2983, 780, 1196, 3013
3059, 2150, 2903, 1553, 844
3060, 2789, 2983, 3013, 2999
3061, 1981, 1328, 2368, 722
3062, 680, 694, 1698, 2039
3063, 886, 2259, 2986, 2203
3064, 903, 1689, 2324, 2735
3065, 917, 2390, 2738, 2094
3066, 993, 2920, 1190, 2790
3067, 2790, 1190, 995, 1469
3068, 2584, 3014, 3004, 2013
3069, 1665, 204, 462, 2418
3070, 2421, 1140, 208, 458
3071, 2125, 205, 461, 802
3072, 999, 483, 184, 1027
3073, 1076, 2736, 1899, 1898
3074, 2416, 2435, 1176, 2432
3075, 2506, 1242, 1243, 725
3076, 884, 850, 2583, 2677
3077, 2489, 2424, 1087, 1441
3078, 2918, 1149, 2266, 2359
3079, 2798, 1189, 1727, 1565
3080, 2543, 1080, 3078, 1162
3081, 1653, 2827, 2509, 1654
3082, 548, 893, 320, 346
3083, 3079, 1337, 2769, 2881
3084, 1750, 805, 745, 803
3085, 812, 2718, 1337, 3079
3086, 2963, 1154, 1308, 1909
3087, 2963, 1909, 2646, 608
3088, 1920, 601, 1778, 1160
3089, 2964, 1120, 2865, 1022
3090, 2666, 1359, 1020, 2032
3091, 2436, 1700, 188, 478
3092, 2296, 2751, 2333, 1528
3093, 2768, 2141, 3000, 2222
3094, 1240, 2682, 1791, 2689
3095, 1938, 3036, 70, 60
3096, 894, 560, 892, 2578
3097, 1619, 506, 161, 2800
3098, 2929, 1465, 2398, 2340
3099, 2298, 180, 486, 1704
3100, 2415, 1165, 1047, 2954
3101, 2617, 2433, 1706, 2916
3102, 1474, 791, 1814, 2907
3103, 2215, 1232, 2896, 2569
3104, 2976, 127, 117, 1912
3105, 3065, 125, 115, 1940
3106, 2990, 1885, 2642, 630
3107, 1770, 2683, 886, 1273
3108, 350, 317, 1644, 1589
3109, 1118, 640, 585, 1887
3110, 1420, 2773, 1229, 629
3111, 2404, 1811, 2055, 1088
3112, 2196, 948, 2005, 949
3113, 963, 1568, 2123, 958
3114, 1330, 1529, 2059, 1019
3115, 1006, 1138, 2229, 2791
3116, 1962, 1076, 2526, 1707
3117, 1193, 632, 1210, 2313
3118, 2912, 123, 113, 2300
3119, 2347, 1884, 1194, 621
3120, 2739, 790, 2016, 2656
3121, 1231, 2656, 2787, 2588
3122, 2654, 2739, 2656, 1231
3123, 2979, 1640, 868, 1900
3124, 879, 1958, 1805, 2581
3125, 2832, 2751, 2427, 2174
3126, 992, 1684, 2414, 2002
3127, 1001, 2436, 478, 189
3128, 2422, 768, 1114, 2625
3129, 1603, 2771, 2185, 1916
3130, 1335, 1336, 2711, 1203
3131, 2338, 2264, 1569, 946
3132, 1568, 2056, 962, 2207
3133, 2005, 975, 980, 941
3134, 2008, 644, 2240, 1416
3135, 2976, 1912, 2548, 1737
3136, 3076, 2301, 1884, 2347
3137, 1323, 228, 438, 1286
3138, 2154, 2909, 2868, 1324
3139, 1573, 824, 1177, 835
3140, 2490, 1657, 1216, 634
3141, 1181, 1250, 2321, 2130
3142, 2642, 2165, 616, 2831
3143, 1713, 374, 293, 865
3144, 866, 2258, 300, 366
3145, 1591, 631, 2440, 592
3146, 1419, 1954, 1187, 620
3147, 1210, 1418, 1570, 3060
3148, 2921, 2924, 670, 2224
3149, 2519, 643, 2707, 2611
3150, 1659, 2329, 2704, 2117
3151, 2335, 2995, 1555, 562
3152, 2462, 907, 1225, 2476
3153, 1686, 905, 2462, 1631
3154, 612, 1948, 618, 1250
3155, 599, 2008, 1416, 2052
3156, 1676, 597, 614, 2131
3157, 2651, 2745, 2031, 1092
3158, 1631, 2462, 2476, 2395
3159, 2999, 3013, 2795, 2590
3160, 2907, 1814, 1793, 2602
3161, 2844, 1323, 1286, 814
3162, 1585, 2155, 1573, 2520
3163, 793, 787, 770, 1276
3164, 2631, 854, 2510, 551
3165, 3034, 3033, 1345, 1894
3166, 1158, 2538, 545, 1542
3167, 746, 799, 1849, 1158
3168, 2982, 2164, 2477, 2021
3169, 353, 314, 2968, 1859
3170, 1495, 1498, 2015, 790
3171, 2506, 2042, 2820, 1287
3172, 1147, 2676, 726, 2552
3173, 2563, 580, 979, 1268
3174, 2805, 1130, 580, 2563
3175, 708, 1249, 2989, 1247
3176, 1247, 2989, 1248, 688
3177, 1249, 710, 1248, 2989
3178, 2857, 531, 625, 1948
3179, 1420, 629, 529, 1605
3180, 2858, 116, 127, 2976
3181, 1109, 2181, 2564, 1328
3182, 1312, 2948, 3069, 2026
3183, 594, 1181, 2130, 3064
3184, 1530, 1982, 1659, 2385
3185, 1955, 595, 391, 276
3186, 2838, 586, 2604, 1291
3187, 659, 1604, 646, 2549
3188, 1531, 2206, 1068, 2685
3189, 611, 1571, 597, 1676
3190, 1738, 268, 398, 1593
3191, 2065, 2292, 852, 877
3192, 1265, 712, 2638, 742
3193, 1135, 1275, 2483, 957
3194, 2389, 918, 2390, 917
3195, 567, 1077, 928, 1073
3196, 2006, 1368, 1465, 2929
3197, 2743, 2430, 1152, 1028
3198, 1117, 2563, 1268, 984
3199, 981, 1272, 2997, 1270
3200, 1270, 2997, 1271, 980
3201, 1272, 982, 1271, 2997
3202, 1655, 548, 3019, 2471
3203, 895, 2260, 880, 1471
3204, 952, 2336, 2080, 2937
3205, 1274, 2319, 2982, 2101
3206, 2387, 908, 2744, 2325
3207, 2573, 771, 2269, 1302
3208, 1196, 2600, 2533, 2653
3209, 1318, 2261, 771, 2573
3210, 2141, 2515, 1304, 3000
3211, 2113, 1633, 2786, 2097
3212, 1878, 2516, 1486, 706
3213, 1435, 2312, 641, 2169
3214, 666, 668, 690, 1984
3215, 2312, 2981, 651, 641
3216, 717, 2701, 2028, 2027
3217, 734, 779, 2589, 2740
3218, 846, 2663, 2111, 2553
3219, 1254, 842, 847, 2437
3220, 1629, 425, 242, 2517
3221, 656, 2687, 404, 263
3222, 1477, 2169, 2144, 655
3223, 1314, 2649, 3073, 2051
3224, 2255, 1512, 1934, 1503
3225, 2276, 871, 93, 103
3226, 2716, 3067, 1128, 2305
3227, 1357, 2192, 1625, 1174
3228, 2675, 2972, 1234, 2692
3229, 1277, 2675, 2632, 825
3230, 826, 2972, 2675, 1277
3231, 2975, 1104, 2762, 2524
3232, 950, 1301, 2399, 2401
3233, 3000, 1304, 776, 1327
3234, 1506, 214, 452, 2880
3235, 2263, 2397, 2262, 971
3236, 954, 2486, 2738, 2607
3237, 2836, 2841, 943, 972
3238, 601, 1760, 1155, 1778
3239, 1461, 2781, 679, 1309
3240, 2175, 1519, 727, 2367
3241, 730, 697, 1828, 2804
3242, 1705, 1192, 1010, 1014
3243, 1734, 2945, 199, 467
3244, 2051, 3073, 1705, 1004
3245, 2274, 2669, 2668, 1726
3246, 1968, 2121, 976, 1205
3247, 939, 937, 2214, 1710
3248, 2268, 786, 2660, 775
3249, 1794, 2096, 2809, 2860
3250, 783, 2907, 2602, 1495
3251, 845, 695, 2221, 1693
3252, 2991, 1133, 684, 2565
3253, 2182, 2437, 2665, 2664
3254, 815, 2498, 1722, 1586
3255, 1554, 1751, 1720, 1577
3256, 2280, 2278, 1241, 2281
3257, 3003, 2720, 2958, 741
3258, 2392, 2692, 1234, 839
3259, 1391, 2788, 220, 446
3260, 2029, 2369, 1252, 1133
3261, 729, 1146, 1694, 2864
3262, 2535, 3003, 741, 2552
3263, 983, 2414, 2973, 3052
3264, 1623, 1358, 1356, 2957
3265, 2296, 1041, 2562, 1708
3266, 1020, 1333, 2532, 1075
3267, 1007, 1362, 2525, 2530
3268, 769, 1112, 544, 1113
3269, 2624, 2540, 2792, 1336
3270, 1851, 2539, 800, 2718
3271, 1056, 1750, 803, 2719
3272, 1850, 801, 2139, 1237
3273, 802, 461, 206, 801
3274, 929, 323, 343, 2914
3275, 2995, 913, 2293, 2294
3276, 3039, 3038, 83, 73
3277, 1107, 2408, 2040, 2037
3278, 1289, 1630, 2465, 2905
3279, 3031, 3030, 1942, 2587
3280, 2933, 2576, 853, 2734
3281, 1045, 1667, 1414, 1164
3282, 2760, 1567, 2396, 1479
3283, 3038, 1346, 2684, 3037
3284, 2446, 3034, 3035, 1892
3285, 1169, 2446, 1892, 1346
3286, 3039, 1169, 1346, 3038
3287, 2922, 3033, 3034, 2446
3288, 1961, 2922, 2446, 1169
3289, 3040, 1961, 1169, 3039
3290, 2541, 3032, 3033, 2922
3291, 2493, 2541, 2922, 1961
3292, 3041, 2493, 1961, 3040
3293, 3024, 3031, 3032, 2541
3294, 1494, 3024, 2541, 2493
3295, 3042, 1494, 2493, 3041
3296, 1742, 3030, 3031, 3024
3297, 2542, 1742, 3024, 1494
3298, 3043, 2542, 1494, 3042
3299, 1863, 3029, 3030, 1742
3300, 851, 1863, 1742, 2542
3301, 3044, 851, 2542, 3043
3302, 3027, 3047, 3029, 1863
3303, 3028, 3027, 1863, 851
3304, 3048, 3028, 851, 3044
3305, 3053, 1620, 1622, 1621
3306, 3053, 1867, 1868, 1620
3307, 2068, 1526, 2875, 1376
3308, 1356, 1039, 1355, 1120
3309, 3049, 2897, 1867, 3053
3310, 3077, 1911, 1228, 1583
3311, 3077, 2944, 2772, 1911
3312, 1570, 1208, 3059, 3060
3313, 1388, 2623, 619, 632
3314, 2303, 2242, 2971, 1096
3315, 594, 3064, 3054, 1208
3316, 2967, 594, 1208, 1570
3317, 2166, 2967, 1570, 1418
3318, 2052, 2166, 1418, 619
3319, 599, 2052, 619, 2623
3320, 1180, 599, 2623, 1454
3321, 3065, 1180, 1454, 3061
3322, 924, 1670, 1994, 1975
3323, 2691, 474, 193, 2438
3324, 738, 2505, 2507, 737
3325, 1514, 372, 295, 1715
3326, 2808, 2494, 2979, 1084
3327, 2736, 574, 1782, 1899
3328, 2229, 1735, 1668, 1008
3329, 1074, 2791, 1012, 2230
3330, 1798, 2062, 1734, 1800
3331, 1583, 3076, 1098, 1182
3332, 3077, 1583, 1182, 2303
3333, 607, 608, 287, 379
3334, 2737, 1731, 382, 285
3335, 1750, 1749, 2146, 805
*ELSET,ELSET=contact_source
131, 132, 133, 134, 135, 136, 137, 138, 139, 140, 
141, 142, 143, 144, 145, 146, 147, 148, 149, 150, 
151, 152, 
*ELSET,ELSET=contact_drain
45, 46, 47, 48, 49, 50, 51, 52, 53, 54, 
55, 56, 57, 58, 59, 60, 61, 62, 63, 64, 
65, 66, 
*ELSET,ELSET=probe_A
89, 90, 91, 92, 93, 94, 95, 96, 97, 98, 
99, 100, 101, 102, 103, 104, 105, 106, 107, 108, 
*ELSET,ELSET=probe_B
19, 20, 21, 22, 23, 24, 25, 26, 27, 28, 
*ELSET,ELSET=walls
1, 2, 3, 4, 5, 6, 7, 8, 9, 10, 
11, 12, 13, 14, 15, 16, 17, 18, 29, 30, 
31, 32, 33, 34, 35, 36, 37, 38, 39, 40, 
41, 42, 43, 44, 67, 68, 69, 70, 71, 72, 
73, 74, 75, 76, 77, 78, 79, 80, 81, 82, 
83, 84, 85, 86, 87, 88, 109, 110, 111, 112, 
113, 114, 115, 116, 117, 118, 119, 120, 121, 122, 
123, 124, 125, 126, 127, 128, 129, 130, 153, 154, 
155, 156, 157, 158, 159, 160, 161, 162, 163, 164, 
165, 166, 167, 168, 169, 170, 171, 172, 173, 174, 
175, 176, 177, 178, 179, 180, 181, 182, 183, 184, 
185, 186, 187, 188, 189, 190, 191, 192, 193, 194, 
195, 196, 197, 198, 199, 200, 201, 202, 203, 204, 
205, 206, 207, 208, 209, 210, 211, 212, 213, 214, 
215, 216, 217, 218, 219, 220, 221, 222, 223, 224, 
225, 226, 227, 228, 229, 230, 231, 232, 233, 234, 
235, 236, 237, 238, 239, 240, 241, 242, 243, 244, 
245, 246, 247, 248, 249, 250, 251, 252, 253, 254, 
255, 256, 257, 258, 259, 260, 261, 262, 263, 264, 
265, 266, 267, 268, 269, 270, 271, 272, 273, 274, 
275, 276, 277, 278, 279, 280, 281, 282, 283, 284, 
285, 286, 287, 288, 289, 290, 291, 292, 293, 294, 
295, 296, 297, 298, 299, 300, 301, 302, 303, 304, 
305, 306, 307, 308, 309, 310, 311, 312, 313, 314, 
315, 316, 317, 318, 319, 320, 321, 322, 323, 324, 
325, 326, 327, 328, 329, 330, 331, 332, 333, 334, 
335, 336, 337, 338, 339, 340, 341, 342, 343, 344, 
345, 346, 347, 348, 349, 350, 351, 352, 353, 354, 
355, 356, 357, 358, 359, 360, 361, 362, 363, 364, 
365, 366, 367, 368, 369, 370, 371, 372, 373, 374, 
375, 376, 377, 378, 379, 380, 381, 382, 383, 384, 
385, 386, 387, 388, 389, 390, 391, 392, 393, 394, 
395, 396, 397, 398, 399, 400, 401, 402, 403, 404, 
405, 406, 407, 408, 409, 410, 411, 412, 413, 414, 
415, 416, 417, 418, 419, 420, 421, 422, 423, 424, 
425, 426, 427, 428, 429, 430, 431, 432, 433, 434, 
435, 436, 437, 438, 439, 440, 441, 442, 443, 444, 
445, 446, 447, 448, 449, 450, 451, 452, 453, 454, 
455, 456, 457, 458, 459, 460, 461, 462, 463, 464, 
465, 466, 467, 468, 469, 470, 471, 472, 473, 474, 
475, 476, 477, 478, 479, 480, 481, 482, 483, 484, 
485, 486, 487, 488, 489, 490, 491, 492, 493, 494, 
495, 496, 497, 498, 499, 500, 501, 502, 503, 504, 
505, 506, 507, 508, 509, 510, 511, 512, 
*ELSET,ELSET=domain
513, 514, 515, 516, 517, 518, 519, 520, 521, 522, 
523, 524, 525, 526, 527, 528, 529, 530, 531, 532, 
533, 534, 535, 536, 537, 538, 539, 540, 541, 542, 
543, 544, 545, 546, 547, 548, 549, 550, 551, 552, 
553, 554, 555, 556, 557, 558, 559, 560, 561, 562, 
563, 564, 565, 566, 567, 568, 569, 570, 571, 572, 
573, 574, 575, 576, 577, 578, 579, 580, 581, 582, 
583, 584, 585, 586, 587, 588, 589, 590, 591, 592, 
593, 594, 595, 596, 597, 598, 599, 600, 601, 602, 
603, 604, 605, 606, 607, 608, 609, 610, 611, 612, 
613, 614, 615, 616, 617, 618, 619, 620, 621, 622, 
623, 624, 625, 626, 627, 628, 629, 630, 631, 632, 
633, 634, 635, 636, 637, 638, 639, 640, 641, 642, 
643, 644, 645, 646, 647, 648, 649, 650, 651, 652, 
653, 654, 655, 656, 657, 658, 659, 660, 661, 662, 
663, 664, 665, 666, 667, 668, 669, 670, 671, 672, 
673, 674, 675, 676, 677, 678, 679, 680, 681, 682, 
683, 684, 685, 686, 687, 688, 689, 690, 691, 692, 
693, 694, 695, 696, 697, 698, 699, 700, 701, 702, 
703, 704, 705, 706, 707, 708, 709, 710, 711, 712, 
713, 714, 715, 716, 717, 718, 719, 720, 721, 722, 
723, 724, 725, 726, 727, 728, 729, 730, 731, 732, 
733, 734, 735, 736, 737, 738, 739, 740, 741, 742, 
743, 744, 745, 746, 747, 748, 749, 750, 751, 752, 
753, 754, 755, 756, 757, 758, 759, 760, 761, 762, 
763, 764, 765, 766, 767, 768, 769, 770, 771, 772, 
773, 774, 775, 776, 777, 778, 779, 780, 781, 782, 
783, 784, 785, 786, 787, 788, 789, 790, 791, 792, 
793, 794, 795, 796, 797, 798, 799, 800, 801, 802, 
803, 804, 805, 806, 807, 808, 809, 810, 811, 812, 
813, 814, 815, 816, 817, 818, 819, 820, 821, 822, 
823, 824, 825, 826, 827, 828, 829, 830, 831, 832, 
833, 834, 835, 836, 837, 838, 839, 840, 841, 842, 
843, 844, 845, 846, 847, 848, 849, 850, 851, 852, 
853, 854, 855, 856, 857, 858, 859, 860, 861, 862, 
863, 864, 865, 866, 867, 868, 869, 870, 871, 872, 
873, 874, 875, 876, 877, 878, 879, 880, 881, 882, 
883, 884, 885, 886, 887, 888, 889, 890, 891, 892, 
893, 894, 895, 896, 897, 898, 899, 900, 901, 902, 
903, 904, 905, 906, 907, 908, 909, 910, 911, 912, 
913, 914, 915, 916, 917, 918, 919, 920, 921, 922, 
923, 924, 925, 926, 927, 928, 929, 930, 931, 932, 
933, 934, 935, 936, 937, 938, 939, 940, 941, 942, 
943, 944, 945, 946, 947, 948, 949, 950, 951, 952, 
953, 954, 955, 956, 957, 958, 959, 960, 961, 962, 
963, 964, 965, 966, 967, 968, 969, 970, 971, 972, 
973, 974, 975, 976, 977, 978, 979, 980, 981, 982, 
983, 984, 985, 986, 987, 988, 989, 990, 991, 992, 
993, 994, 995, 996, 997, 998, 999, 1000, 1001, 1002, 
1003, 1004, 1005, 1006, 1007, 1008, 1009, 1010, 1011, 1012, 
1013, 1014, 1015, 1016, 1017, 1018, 1019, 1020, 1021, 1022, 
1023, 1024, 1025, 1026, 1027, 1028, 1029, 1030, 1031, 1032, 
1033, 1034, 1035, 1036, 1037, 1038, 1039, 1040, 1041, 1042, 
1043, 1044, 1045, 1046, 1047, 1048, 1049, 1050, 1051, 1052, 
1053, 1054, 1055, 1056, 1057, 1058, 1059, 1060, 1061, 1062, 
1063, 1064, 1065, 1066, 1067, 1068, 1069, 1070, 1071, 1072, 
1073, 1074, 1075, 1076, 1077, 1078, 1079, 1080, 1081, 1082, 
1083, 1084, 1085, 1086, 1087, 1088, 1089, 1090, 1091, 1092, 
1093, 1094, 1095, 1096, 1097, 1098, 1099, 1100, 1101, 1102, 
1103, 1104, 1105, 1106, 1107, 1108, 1109, 1110, 1111, 1112, 
1113, 1114, 1115, 1116, 1117, 1118, 1119, 1120, 1121, 1122, 
1123, 1124, 1125, 1126, 1127, 1128, 1129, 1130, 1131, 1132, 
1133, 1134, 1135, 1136, 1137, 1138, 1139, 1140, 1141, 1142, 
1143, 1144, 1145, 1146, 1147, 1148, 1149, 1150, 1151, 1152, 
1153, 1154, 1155, 1156, 1157, 1158, 1159, 1160, 1161, 1162, 
1163, 1164, 1165, 1166, 1167, 1168, 1169, 1170, 1171, 1172, 
1173, 1174, 1175, 1176, 1177, 1178, 1179, 1180, 1181, 1182, 
1183, 1184, 1185, 1186, 1187, 1188, 1189, 1190, 1191, 1192, 
1193, 1194, 1195, 1196, 1197, 1198, 1199, 1200, 1201, 1202, 
1203, 1204, 1205, 1206, 1207, 1208, 1209, 1210, 1211, 1212, 
1213, 1214, 1215, 1216, 1217, 1218, 1219, 1220, 1221, 1222, 
1223, 1224, 1225, 1226, 1227, 1228, 1229, 1230, 1231, 1232, 
1233, 1234, 1235, 1236, 1237, 1238, 1239, 1240, 1241, 1242, 
1243, 1244, 1245, 1246, 1247, 1248, 1249, 1250, 1251, 1252, 
1253, 1254, 1255, 1256, 1257, 1258, 1259, 1260, 1261, 1262, 
1263, 1264, 1265, 1266, 1267, 1268, 1269, 1270, 1271, 1272, 
1273, 1274, 1275, 1276, 1277, 1278, 1279, 1280, 1281, 1282, 
1283, 1284, 1285, 1286, 1287, 1288, 1289, 1290, 1291, 1292, 
1293, 1294, 1295, 1296, 1297, 1298, 1299, 1300, 1301, 1302, 
1303, 1304, 1305, 1306, 1307, 1308, 1309, 1310, 1311, 1312, 
1313, 1314, 1315, 1316, 1317, 1318, 1319, 1320, 1321, 1322, 
1323, 1324, 1325, 1326, 1327, 1328, 1329, 1330, 1331, 1332, 
1333, 1334, 1335, 1336, 1337, 1338, 1339, 1340, 1341, 1342, 
1343, 1344, 1345, 1346, 1347, 1348, 1349, 1350, 1351, 1352, 
1353, 1354, 1355, 1356, 1357, 1358, 1359, 1360, 1361, 1362, 
1363, 1364, 1365, 1366, 1367, 1368, 1369, 1370, 1371, 1372, 
1373, 1374, 1375, 1376, 1377, 1378, 1379, 1380, 1381, 1382, 
1383, 1384, 1385, 1386, 1387, 1388, 1389, 1390, 1391, 1392, 
1393, 1394, 1395, 1396, 1397, 1398, 1399, 1400, 1401, 1402, 
1403, 1404, 1405, 1406, 1407, 1408, 1409, 1410, 1411, 1412, 
1413, 1414, 1415, 1416, 1417, 1418, 1419, 1420, 1421, 1422, 
1423, 1424, 1425, 1426, 1427, 1428, 1429, 1430, 1431, 1432, 
1433, 1434, 1435, 1436, 1437, 1438, 1439, 1440, 1441, 1442, 
1443, 1444, 1445, 1446, 1447, 1448, 1449, 1450, 1451, 1452, 
1453, 1454, 1455, 1456, 1457, 1458, 1459, 1460, 1461, 1462, 
1463, 1464, 1465, 1466, 1467, 1468, 1469, 1470, 1471, 1472, 
1473, 1474, 1475, 1476, 1477, 1478, 1479, 1480, 1481, 1482, 
1483, 1484, 1485, 1486, 1487, 1488, 1489, 1490, 1491, 1492, 
1493, 1494, 1495, 1496, 1497, 1498, 1499, 1500, 1501, 1502, 
1503, 1504, 1505, 1506, 1507, 1508, 1509, 1510, 1511, 1512, 
1513, 1514, 1515, 1516, 1517, 1518, 1519, 1520, 1521, 1522, 
1523, 1524, 1525, 1526, 1527, 1528, 1529, 1530, 1531, 1532, 
1533, 1534, 1535, 1536, 1537, 1538, 1539, 1540, 1541, 1542, 
1543, 1544, 1545, 1546, 1547, 1548, 1549, 1550, 1551, 1552, 
1553, 1554, 1555, 1556, 1557, 1558, 1559, 1560, 1561, 1562, 
1563, 1564, 1565, 1566, 1567, 1568, 1569, 1570, 1571, 1572, 
1573, 1574, 1575, 1576, 1577, 1578, 1579, 1580, 1581, 1582, 
1583, 1584, 1585, 1586, 1587, 1588, 1589, 1590, 1591, 1592, 
1593, 1594, 1595, 1596, 1597, 1598, 1599, 1600, 1601, 1602, 
1603, 1604, 1605, 1606, 1607, 1608, 1609, 1610, 1611, 1612, 
1613, 1614, 1615, 1616, 1617, 1618, 1619, 1620, 1621, 1622, 
1623, 1624, 1625, 1626, 1627, 1628, 1629, 1630, 1631, 1632, 
1633, 1634, 1635, 1636, 1637, 1638, 1639, 1640, 1641, 1642, 
1643, 1644, 1645, 1646, 1647, 1648, 1649, 1650, 1651, 1652, 
1653, 1654, 1655, 1656, 1657, 1658, 1659, 1660, 1661, 1662, 
1663, 1664, 1665, 1666, 1667, 1668, 1669, 1670, 1671, 1672, 
1673, 1674, 1675, 1676, 1677, 1678, 1679, 1680, 1681, 1682, 
1683, 1684, 1685, 1686, 1687, 1688, 1689, 1690, 1691, 1692, 
1693, 1694, 1695, 1696, 1697, 1698, 1699, 1700, 1701, 1702, 
1703, 1704, 1705, 1706, 1707, 1708, 1709, 1710, 1711, 1712, 
1713, 1714, 1715, 1716, 1717, 1718, 1719, 1720, 1721, 1722, 
1723, 1724, 1725, 1726, 1727, 1728, 1729, 1730, 1731, 1732, 
1733, 1734, 1735, 1736, 1737, 1738, 1739, 1740, 1741, 1742, 
1743, 1744, 1745, 1746, 1747, 1748, 1749, 1750, 1751, 1752, 
1753, 1754, 1755, 1756, 1757, 1758, 1759, 1760, 1761, 1762, 
1763, 1764, 1765, 1766, 1767, 1768, 1769, 1770, 1771, 1772, 
1773, 1774, 1775, 1776, 1777, 1778, 1779, 1780, 1781, 1782, 
1783, 1784, 1785, 1786, 1787, 1788, 1789, 1790, 1791, 1792, 
1793, 1794, 1795, 1796, 1797, 1798, 1799, 1800, 1801, 1802, 
1803, 1804, 1805, 1806, 1807, 1808, 1809, 1810, 1811, 1812, 
1813, 1814, 1815, 1816, 1817, 1818, 1819, 1820, 1821, 1822, 
1823, 1824, 1825, 1826, 1827, 1828, 1829, 1830, 1831, 1832, 
1833, 1834, 1835, 1836, 1837, 1838, 1839, 1840, 1841, 1842, 
1843, 1844, 1845, 1846, 1847, 1848, 1849, 1850, 1851, 1852, 
1853, 1854, 1855, 1856, 1857, 1858, 1859, 1860, 1861, 1862, 
1863, 1864, 1865, 1866, 1867, 1868, 1869, 1870, 1871, 1872, 
1873, 1874, 1875, 1876, 1877, 1878, 1879, 1880, 1881, 1882, 
1883, 1884, 1885, 1886, 1887, 1888, 1889, 1890, 1891, 1892, 
1893, 1894, 1895, 1896, 1897, 1898, 1899, 1900, 1901, 1902, 
1903, 1904, 1905, 1906, 1907, 1908, 1909, 1910, 1911, 1912, 
1913, 1914, 1915, 1916, 1917, 1918, 1919, 1920, 1921, 1922, 
1923, 1924, 1925, 1926, 1927, 1928, 1929, 1930, 1931, 1932, 
1933, 1934, 1935, 1936, 1937, 1938, 1939, 1940, 1941, 1942, 
1943, 1944, 1945, 1946, 1947, 1948, 1949, 1950, 1951, 1952, 
1953, 1954, 1955, 1956, 1957, 1958, 1959, 1960, 1961, 1962, 
1963, 1964, 1965, 1966, 1967, 1968, 1969, 1970, 1971, 1972, 
1973, 1974, 1975, 1976, 1977, 1978, 1979, 1980, 1981, 1982, 
1983, 1984, 1985, 1986, 1987, 1988, 1989, 1990, 1991, 1992, 
1993, 1994, 1995, 1996, 1997, 1998, 1999, 2000, 2001, 2002, 
2003, 2004, 2005, 2006, 2007, 2008, 2009, 2010, 2011, 2012, 
2013, 2014, 2015, 2016, 2017, 2018, 2019, 2020, 2021, 2022, 
2023, 2024, 2025, 2026, 2027, 2028, 2029, 2030, 2031, 2032, 
2033, 2034, 2035, 2036, 2037, 2038, 2039, 2040, 2041, 2042, 
2043, 2044, 2045, 2046, 2047, 2048, 2049, 2050, 2051, 2052, 
2053, 2054, 2055, 2056, 2057, 2058, 2059, 2060, 2061, 2062, 
2063, 2064, 2065, 2066, 2067, 2068, 2069, 2070, 2071, 2072, 
2073, 2074, 2075, 2076, 2077, 2078, 2079, 2080, 2081, 2082, 
2083, 2084, 2085, 2086, 2087, 2088, 2089, 2090, 2091, 2092, 
2093, 2094, 2095, 2096, 2097, 2098, 2099, 2100, 2101, 2102, 
2103, 2104, 2105, 2106, 2107, 2108, 2109, 2110, 2111, 2112, 
2113, 2114, 2115, 2116, 2117, 2118, 2119, 2120, 2121, 2122, 
2123, 2124, 2125, 2126, 2127, 2128, 2129, 2130, 2131, 2132, 
2133, 2134, 2135, 2136, 2137, 2138, 2139, 2140, 2141, 2142, 
2143, 2144, 2145, 2146, 2147, 2148, 2149, 2150, 2151, 2152, 
2153, 2154, 2155, 2156, 2157, 2158, 2159, 2160, 2161, 2162, 
2163, 2164, 2165, 2166, 2167, 2168, 2169, 2170, 2171, 2172, 
2173, 2174, 2175, 2176, 2177, 2178, 2179, 2180, 2181, 2182, 
2183, 2184, 2185, 2186, 2187, 2188, 2189, 2190, 2191, 2192, 
2193, 2194, 2195, 2196, 2197, 2198, 2199, 2200, 2201, 2202, 
2203, 2204, 2205, 2206, 2207, 2208, 2209, 2210, 2211, 2212, 
2213, 2214, 2215, 2216, 2217, 2218, 2219, 2220, 2221, 2222, 
2223, 2224, 2225, 2226, 2227, 2228, 2229, 2230, 2231, 2232, 
2233, 2234, 2235, 2236, 2237, 2238, 2239, 2240, 2241, 2242, 
2243, 2244, 2245, 2246, 2247, 2248, 2249, 2250, 2251, 2252, 
2253, 2254, 2255, 2256, 2257, 2258, 2259, 2260, 2261, 2262, 
2263, 2264, 2265, 2266, 2267, 2268, 2269, 2270, 2271, 2272, 
2273, 2274, 2275, 2276, 2277, 2278, 2279, 2280, 2281, 2282, 
2283, 2284, 2285, 2286, 2287, 2288, 2289, 2290, 2291, 2292, 
2293, 2294, 2295, 2296, 2297, 2298, 2299, 2300, 2301, 2302, 
2303, 2304, 2305, 2306, 2307, 2308, 2309, 2310, 2311, 2312, 
2313, 2314, 2315, 2316, 2317, 2318, 2319, 2320, 2321, 2322, 
2323, 2324, 2325, 2326, 2327, 2328, 2329, 2330, 2331, 2332, 
2333, 2334, 2335, 2336, 2337, 2338, 2339, 2340, 2341, 2342, 
2343, 2344, 2345, 2346, 2347, 2348, 2349, 2350, 2351, 2352, 
2353, 2354, 2355, 2356, 2357, 2358, 2359, 2360, 2361, 2362, 
2363, 2364, 2365, 2366, 2367, 2368, 2369, 2370, 2371, 2372, 
2373, 2374, 2375, 2376, 2377, 2378, 2379, 2380, 2381, 2382, 
2383, 2384, 2385, 2386, 2387, 2388, 2389, 2390, 2391, 2392, 
2393, 2394, 2395, 2396, 2397, 2398, 2399, 2400, 2401, 2402, 
2403, 2404, 2405, 2406, 2407, 2408, 2409, 2410, 2411, 2412, 
2413, 2414, 2415, 2416, 2417, 2418, 2419, 2420, 2421, 2422, 
2423, 2424, 2425, 2426, 2427, 2428, 2429, 2430, 2431, 2432, 
2433, 2434, 2435, 2436, 2437, 2438, 2439, 2440, 2441, 2442, 
2443, 2444, 2445, 2446, 2447, 2448, 2449, 2450, 2451, 2452, 
2453, 2454, 2455, 2456, 2457, 2458, 2459, 2460, 2461, 2462, 
2463, 2464, 2465, 2466, 2467, 2468, 2469, 2470, 2471, 2472, 
2473, 2474, 2475, 2476, 2477, 2478, 2479, 2480, 2481, 2482, 
2483, 2484, 2485, 2486, 2487, 2488, 2489, 2490, 2491, 2492, 
2493, 2494, 2495, 2496, 2497, 2498, 2499, 2500, 2501, 2502, 
2503, 2504, 2505, 2506, 2507, 2508, 2509, 2510, 2511, 2512, 
2513, 2514, 2515, 2516, 2517, 2518, 2519, 2520, 2521, 2522, 
2523, 2524, 2525, 2526, 2527, 2528, 2529, 2530, 2531, 2532, 
2533, 2534, 2535, 2536, 2537, 2538, 2539, 2540, 2541, 2542, 
2543, 2544, 2545, 2546, 2547, 2548, 2549, 2550, 2551, 2552, 
2553, 2554, 2555, 2556, 2557, 2558, 2559, 2560, 2561, 2562, 
2563, 2564, 2565, 2566, 2567, 2568, 2569, 2570, 2571, 2572, 
2573, 2574, 2575, 2576, 2577, 2578, 2579, 2580, 2581, 2582, 
2583, 2584, 2585, 2586, 2587, 2588, 2589, 2590, 2591, 2592, 
2593, 2594, 2595, 2596, 2597, 2598, 2599, 2600, 2601, 2602, 
2603, 2604, 2605, 2606, 2607, 2608, 2609, 2610, 2611, 2612, 
2613, 2614, 2615, 2616, 2617, 2618, 2619, 2620, 2621, 2622, 
2623, 2624, 2625, 2626, 2627, 2628, 2629, 2630, 2631, 2632, 
2633, 2634, 2635, 2636, 2637, 2638, 2639, 2640, 2641, 2642, 
2643, 2644, 2645, 2646, 2647, 2648, 2649, 2650, 2651, 2652, 
2653, 2654, 2655, 2656, 2657, 2658, 2659, 2660, 2661, 2662, 
2663, 2664, 2665, 2666, 2667, 2668, 2669, 2670, 2671, 2672, 
2673, 2674, 2675, 2676, 2677, 2678, 2679, 2680, 2681, 2682, 
2683, 2684, 2685, 2686, 2687, 2688, 2689, 2690, 2691, 2692, 
2693, 2694, 2695, 2696, 2697, 2698, 2699, 2700, 2701, 2702, 
2703, 2704, 2705, 2706, 2707, 2708, 2709, 2710, 2711, 2712, 
2713, 2714, 2715, 2716, 2717, 2718, 2719, 2720, 2721, 2722, 
2723, 2724, 2725, 2726, 2727, 2728, 2729, 2730, 2731, 2732, 
2733, 2734, 2735, 2736, 2737, 2738, 2739, 2740, 2741, 2742, 
2743, 2744, 2745, 2746, 2747, 2748, 2749, 2750, 2751, 2752, 
2753, 2754, 2755, 2756, 2757, 2758, 2759, 2760, 2761, 2762, 
2763, 2764, 2765, 2766, 2767, 2768, 2769, 2770, 2771, 2772, 
2773, 2774, 2775, 2776, 2777, 2778, 2779, 2780, 2781, 2782, 
2783, 2784, 2785, 2786, 2787, 2788, 2789, 2790, 2791, 2792, 
2793, 2794, 2795, 2796, 2797, 2798, 2799, 2800, 2801, 2802, 
2803, 2804, 2805, 2806, 2807, 2808, 2809, 2810, 2811, 2812, 
2813, 2814, 2815, 2816, 2817, 2818, 2819, 2820, 2821, 2822, 
2823, 2824, 2825, 2826, 2827, 2828, 2829, 2830, 2831, 2832, 
2833, 2834, 2835, 2836, 2837, 2838, 2839, 2840, 2841, 2842, 
2843, 2844, 2845, 2846, 2847, 2848, 2849, 2850, 2851, 2852, 
2853, 2854, 2855, 2856, 2857, 2858, 2859, 2860, 2861, 2862, 
2863, 2864, 2865, 2866, 2867, 2868, 2869, 2870, 2871, 2872, 
2873, 2874, 2875, 2876, 2877, 2878, 2879, 2880, 2881, 2882, 
2883, 2884, 2885, 2886, 2887, 2888, 2889, 2890, 2891, 2892, 
2893, 2894, 2895, 2896, 2897, 2898, 2899, 2900, 2901, 2902, 
2903, 2904, 2905, 2906, 2907, 2908, 2909, 2910, 2911, 2912, 
2913, 2914, 2915, 2916, 2917, 2918, 2919, 2920, 2921, 2922, 
2923, 2924, 2925, 2926, 2927, 2928, 2929, 2930, 2931, 2932, 
2933, 2934, 2935, 2936, 2937, 2938, 2939, 2940, 2941, 2942, 
2943, 2944, 2945, 2946, 2947, 2948, 2949, 2950, 2951, 2952, 
2953, 2954, 2955, 2956, 2957, 2958, 2959, 2960, 2961, 2962, 
2963, 2964, 2965, 2966, 2967, 2968, 2969, 2970, 2971, 2972, 
2973, 2974, 2975, 2976, 2977, 2978, 2979, 2980, 2981, 2982, 
2983, 2984, 2985, 2986, 2987, 2988, 2989, 2990, 2991, 2992, 
2993, 2994, 2995, 2996, 2997, 2998, 2999, 3000, 3001, 3002, 
3003, 3004, 3005, 3006, 3007, 3008, 3009, 3010, 3011, 3012, 
3013, 3014, 3015, 3016, 3017, 3018, 3019, 3020, 3021, 3022, 
3023, 3024, 3025, 3026, 3027, 3028, 3029, 3030, 3031, 3032, 
3033, 3034, 3035, 3036, 3037, 3038, 3039, 3040, 3041, 3042, 
3043, 3044, 3045, 3046, 3047, 3048, 3049, 3050, 3051, 3052, 
3053, 3054, 3055, 3056, 3057, 3058, 3059, 3060, 3061, 3062, 
3063, 3064, 3065, 3066, 3067, 3068, 3069, 3070, 3071, 3072, 
3073, 3074, 3075, 3076, 3077, 3078, 3079, 3080, 3081, 3082, 
3083, 3084, 3085, 3086, 3087, 3088, 3089, 3090, 3091, 3092, 
3093, 3094, 3095, 3096, 3097, 3098, 3099, 3100, 3101, 3102, 
3103, 3104, 3105, 3106, 3107, 3108, 3109, 3110, 3111, 3112, 
3113, 3114, 3115, 3116, 3117, 3118, 3119, 3120, 3121, 3122, 
3123, 3124, 3125, 3126, 3127, 3128, 3129, 3130, 3131, 3132, 
3133, 3134, 3135, 3136, 3137, 3138, 3139, 3140, 3141, 3142, 
3143, 3144, 3145, 3146, 3147, 3148, 3149, 3150, 3151, 3152, 
3153, 3154, 3155, 3156, 3157, 3158, 3159, 3160, 3161, 3162, 
3163, 3164, 3165, 3166, 3167, 3168, 3169, 3170, 3171, 3172, 
3173, 3174, 3175, 3176, 3177, 3178, 3179, 3180, 3181, 3182, 
3183, 3184, 3185, 3186, 3187, 3188, 3189, 3190, 3191, 3192, 
3193, 3194, 3195, 3196, 3197, 3198, 3199, 3200, 3201, 3202, 
3203, 3204, 3205, 3206, 3207, 3208, 3209, 3210, 3211, 3212, 
3213, 3214, 3215, 3216, 3217, 3218, 3219, 3220, 3221, 3222, 
3223, 3224, 3225, 3226, 3227, 3228, 3229, 3230, 3231, 3232, 
3233, 3234, 3235, 3236, 3237, 3238, 3239, 3240, 3241, 3242, 
3243, 3244, 3245, 3246, 3247, 3248, 3249, 3250, 3251, 3252, 
3253, 3254, 3255, 3256, 3257, 3258, 3259, 3260, 3261, 3262, 
3263, 3264, 3265, 3266, 3267, 3268, 3269, 3270, 3271, 3272, 
3273, 3274, 3275, 3276, 3277, 3278, 3279, 3280, 3281, 3282, 
3283, 3284, 3285, 3286, 3287, 3288, 3289, 3290, 3291, 3292, 
3293, 3294, 3295, 3296, 3297, 3298, 3299, 3300, 3301, 3302, 
3303, 3304, 3305, 3306, 3307, 3308, 3309, 3310, 3311, 3312, 
3313, 3314, 3315, 3316, 3317, 3318, 3319, 3320, 3321, 3322, 
3323, 3324, 3325, 3326, 3327, 3328, 3329, 3330, 3331, 3332, 
3333, 3334, 3335, 
*NSET,NSET=contact_source
1, 8, 133, 134, 135, 136, 137, 138, 139, 140, 
141, 142, 143, 144, 145, 146, 147, 148, 149, 150, 
151, 152, 153, 
*NSET,NSET=contact_drain
4, 5, 51, 52, 53, 54, 55, 56, 57, 58, 
59, 60, 61, 62, 63, 64, 65, 66, 67, 68, 
69, 70, 71, 
*NSET,NSET=probe_A
6, 7, 93, 94, 95, 96, 97, 98, 99, 100, 
101, 102, 103, 104, 105, 106, 107, 108, 109, 110, 
111, 
*NSET,NSET=probe_B
2, 3, 27, 28, 29, 30, 31, 32, 33, 34, 
35, 
*NSET,NSET=walls
1, 2, 3, 4, 5, 6, 7, 8, 9, 10, 
11, 12, 13, 14, 15, 16, 17, 18, 19, 20, 
21, 22, 23, 24, 25, 26, 36, 37, 38, 39, 
40, 41, 42, 43, 44, 45, 46, 47, 48, 49, 
50, 72, 73, 74, 75, 76, 77, 78, 79, 80, 
81, 82, 83, 84, 85, 86, 87, 88, 89, 90, 
91, 92, 112, 113, 114, 115, 116, 117, 118, 119, 
120, 121, 122, 123, 124, 125, 126, 127, 128, 129, 
130, 131, 132, 154, 155, 156, 157, 158, 159, 160, 
161, 162, 163, 164, 165, 166, 167, 168, 169, 170, 
171, 172, 173, 174, 175, 176, 177, 178, 179, 180, 
181, 182, 183, 184, 185, 186, 187, 188, 189, 190, 
191, 192, 193, 194, 195, 196, 197, 198, 199, 200, 
201, 202, 203, 204, 205, 206, 207, 208, 209, 210, 
211, 212, 213, 214, 215, 216, 217, 218, 219, 220, 
221, 222, 223, 224, 225, 226, 227, 228, 229, 230, 
231, 232, 233, 234, 235, 236, 237, 238, 239, 240, 
241, 242, 243, 244, 245, 246, 247, 248, 249, 250, 
251, 252, 253, 254, 255, 256, 257, 258, 259, 260, 
261, 262, 263, 264, 265, 266, 267, 268, 269, 270, 
271, 272, 273, 274, 275, 276, 277, 278, 279, 280, 
281, 282, 283, 284, 285, 286, 287, 288, 289, 290, 
291, 292, 293, 294, 295, 296, 297, 298, 299, 300, 
301, 302, 303, 304, 305, 306, 307, 308, 309, 310, 
311, 312, 313, 314, 315, 316, 317, 318, 319, 320, 
321, 322, 323, 324, 325, 326, 327, 328, 329, 330, 
331, 332, 333, 334, 335, 336, 337, 338, 339, 340, 
341, 342, 343, 344, 345, 346, 347, 348, 349, 350, 
351, 352, 353, 354, 355, 356, 357, 358, 359, 360, 
361, 362, 363, 364, 365, 366, 367, 368, 369, 370, 
371, 372, 373, 374, 375, 376, 377, 378, 379, 380, 
381, 382, 383, 384, 385, 386, 387, 388, 389, 390, 
391, 392, 393, 394, 395, 396, 397, 398, 399, 400, 
401, 402, 403, 404, 405, 406, 407, 408, 409, 410, 
411, 412, 413, 414, 415, 416, 417, 418, 419, 420, 
421, 422, 423, 424, 425, 426, 427, 428, 429, 430, 
431, 432, 433, 434, 435, 436, 437, 438, 439, 440, 
441, 442, 443, 444, 445, 446, 447, 448, 449, 450, 
451, 452, 453, 454, 455, 456, 457, 458, 459, 460, 
461, 462, 463, 464, 465, 466, 467, 468, 469, 470, 
471, 472, 473, 474, 475, 476, 477, 478, 479, 480, 
481, 482, 483, 484, 485, 486, 487, 488, 489, 490, 
491, 492, 493, 494, 495, 496, 497, 498, 499, 500, 
501, 502, 503, 504, 505, 506, 507, 508, 509, 510, 
511, 512, 
*NSET,NSET=domain
1, 2, 3, 4, 5, 6, 7, 8, 9, 10, 
11, 12, 13, 14, 15, 16, 17, 18, 19, 20, 
21, 22, 23, 24, 25, 26, 27, 28, 29, 30, 
31, 32, 33, 34, 35, 36, 37, 38, 39, 40, 
41, 42, 43, 44, 45, 46, 47, 48, 49, 50, 
51, 52, 53, 54, 55, 56, 57, 58, 59, 60, 
61, 62, 63, 64, 65, 66, 67, 68, 69, 70, 
71, 72, 73, 74, 75, 76, 77, 78, 79, 80, 
81, 82, 83, 84, 85, 86, 87, 88, 89, 90, 
91, 92, 93, 94, 95, 96, 97, 98, 99, 100, 
101, 102, 103, 104, 105, 106, 107, 108, 109, 110, 
111, 112, 113, 114, 115, 116, 117, 118, 119, 120, 
121, 122, 123, 124, 125, 126, 127, 128, 129, 130, 
131, 132, 133, 134, 135, 136, 137, 138, 139, 140, 
141, 142, 143, 144, 145, 146, 147, 148, 149, 150, 
151, 152, 153, 154, 155, 156, 157, 158, 159, 160, 
161, 162, 163, 164, 165, 166, 167, 168, 169, 170, 
171, 172, 173, 174, 175, 176, 177, 178, 179, 180, 
181, 182, 183, 184, 185, 186, 187, 188, 189, 190, 
191, 192, 193, 194, 195, 196, 197, 198, 199, 200, 
201, 202, 203, 204, 205, 206, 207, 208, 209, 210, 
211, 212, 213, 214, 215, 216, 217, 218, 219, 220, 
221, 222, 223, 224, 225, 226, 227, 228, 229, 230, 
231, 232, 233, 234, 235, 236, 237, 238, 239, 240, 
241, 242, 243, 244, 245, 246, 247, 248, 249, 250, 
251, 252, 253, 254, 255, 256, 257, 258, 259, 260, 
261, 262, 263, 264, 265, 266, 267, 268, 269, 270, 
271, 272, 273, 274, 275, 276, 277, 278, 279, 280, 
281, 282, 283, 284, 285, 286, 287, 288, 289, 290, 
291, 292, 293, 294, 295, 296, 297, 298, 299, 300, 
301, 302, 303, 304, 305, 306, 307, 308, 309, 310, 
311, 312, 313, 314, 315, 316, 317, 318, 319, 320, 
321, 322, 323, 324, 325, 326, 327, 328, 329, 330, 
331, 332, 333, 334, 335, 336, 337, 338, 339, 340, 
341, 342, 343, 344, 345, 346, 347, 348, 349, 350, 
351, 352, 353, 354, 355, 356, 357, 358, 359, 360, 
361, 362, 363, 364, 365, 366, 367, 368, 369, 370, 
371, 372, 373, 374, 375, 376, 377, 378, 379, 380, 
381, 382, 383, 384, 385, 386, 387, 388, 389, 390, 
391, 392, 393, 394, 395, 396, 397, 398, 399, 400, 
401, 402, 403, 404, 405, 406, 407, 408, 409, 410, 
411, 412, 413, 414, 415, 416, 417, 418, 419, 420, 
421, 422, 423, 424, 425, 426, 427, 428, 429, 430, 
431, 432, 433, 434, 435, 436, 437, 438, 439, 440, 
441, 442, 443, 444, 445, 446, 447, 448, 449, 450, 
451, 452, 453, 454, 455, 456, 457, 458, 459, 460, 
461, 462, 463, 464, 465, 466, 467, 468, 469, 470, 
471, 472, 473, 474, 475, 476, 477, 478, 479, 480, 
481, 482, 483, 484, 485, 486, 487, 488, 489, 490, 
491, 492, 493, 494, 495, 496, 497, 498, 499, 500, 
501, 502, 503, 504, 505, 506, 507, 508, 509, 510, 
511, 512, 513, 514, 515, 516, 517, 518, 519, 520, 
521, 522, 523, 524, 525, 526, 527, 528, 529, 530, 
531, 532, 533, 534, 535, 536, 537, 538, 539, 540, 
541, 542, 543, 544, 545, 546, 547, 548, 549, 550, 
551, 552, 553, 554, 555, 556, 557, 558, 559, 560, 
561, 562, 563, 564, 565, 566, 567, 568, 569, 570, 
571, 572, 573, 574, 575, 576, 577, 578, 579, 580, 
581, 582, 583, 584, 585, 586, 587, 588, 589, 590, 
591, 592, 593, 594, 595, 596, 597, 598, 599, 600, 
601, 602, 603, 604, 605, 606, 607, 608, 609, 610, 
611, 612, 613, 614, 615, 616, 617, 618, 619, 620, 
621, 622, 623, 624, 625, 626, 627, 628, 629, 630, 
631, 632, 633, 634, 635, 636, 637, 638, 639, 640, 
641, 642, 643, 644, 645, 646, 647, 648, 649, 650, 
651, 652, 653, 654, 655, 656, 657, 658, 659, 660, 
661, 662, 663, 664, 665, 666, 667, 668, 669, 670, 
671, 672, 673, 674, 675, 676, 677, 678, 679, 680, 
681, 682, 683, 684, 685, 686, 687, 688, 689, 690, 
691, 692, 693, 694, 695, 696, 697, 698, 699, 700, 
701, 702, 703, 704, 705, 706, 707, 708, 709, 710, 
711, 712, 713, 714, 715, 716, 717, 718, 719, 720, 
721, 722, 723, 724, 725, 726, 727, 728, 729, 730, 
731, 732, 733, 734, 735, 736, 737, 738, 739, 740, 
741, 742, 743, 744, 745, 746, 747, 748, 749, 750, 
751, 752, 753, 754, 755, 756, 757, 758, 759, 760, 
761, 762, 763, 764, 765, 766, 767, 768, 769, 770, 
771, 772, 773, 774, 775, 776, 777, 778, 779, 780, 
781, 782, 783, 784, 785, 786, 787, 788, 789, 790, 
791, 792, 793, 794, 795, 796, 797, 798, 799, 800, 
801, 802, 803, 804, 805, 806, 807, 808, 809, 810, 
811, 812, 813, 814, 815, 816, 817, 818, 819, 820, 
821, 822, 823, 824, 825, 826, 827, 828, 829, 830, 
831, 832, 833, 834, 835, 836, 837, 838, 839, 840, 
841, 842, 843, 844, 845, 846, 847, 848, 849, 850, 
851, 852, 853, 854, 855, 856, 857, 858, 859, 860, 
861, 862, 863, 864, 865, 866, 867, 868, 869, 870, 
871, 872, 873, 874, 875, 876, 877, 878, 879, 880, 
881, 882, 883, 884, 885, 886, 887, 888, 889, 890, 
891, 892, 893, 894, 895, 896, 897, 898, 899, 900, 
901, 902, 903, 904, 905, 906, 907, 908, 909, 910, 
911, 912, 913, 914, 915, 916, 917, 918, 919, 920, 
921, 922, 923, 924, 925, 926, 927, 928, 929, 930, 
931, 932, 933, 934, 935, 936, 937, 938, 939, 940, 
941, 942, 943, 944, 945, 946, 947, 948, 949, 950, 
951, 952, 953, 954, 955, 956, 957, 958, 959, 960, 
961, 962, 963, 964, 965, 966, 967, 968, 969, 970, 
971, 972, 973, 974, 975, 976, 977, 978, 979, 980, 
981, 982, 983, 984, 985, 986, 987, 988, 989, 990, 
991, 992, 993, 994, 995, 996, 997, 998, 999, 1000, 
1001, 1002, 1003, 1004, 1005, 1006, 1007, 1008, 1009, 1010, 
1011, 1012, 1013, 1014, 1015, 1016, 1017, 1018, 1019, 1020, 
1021, 1022, 1023, 1024, 1025, 1026, 1027, 1028, 1029, 1030, 
1031, 1032, 1033, 1034, 1035, 1036, 1037, 1038, 1039, 1040, 
1041, 1042, 1043, 1044, 1045, 1046, 1047, 1048, 1049, 1050, 
1051, 1052, 1053, 1054, 1055, 1056, 1057, 1058, 1059, 1060, 
1061, 1062, 1063, 1064, 1065, 1066, 1067, 1068, 1069, 1070, 
1071, 1072, 1073, 1074, 1075, 1076, 1077, 1078, 1079, 1080, 
1081, 1082, 1083, 1084, 1085, 1086, 1087, 1088, 1089, 1090, 
1091, 1092, 1093, 1094, 1095, 1096, 1097, 1098, 1099, 1100, 
1101, 1102, 1103, 1104, 1105, 1106, 1107, 1108, 1109, 1110, 
1111, 1112, 1113, 1114, 1115, 1116, 1117, 1118, 1119, 1120, 
1121, 1122, 1123, 1124, 1125, 1126, 1127, 1128, 1129, 1130, 
1131, 1132, 1133, 1134, 1135, 1136, 1137, 1138, 1139, 1140, 
1141, 1142, 1143, 1144, 1145, 1146, 1147, 1148, 1149, 1150, 
1151, 1152, 1153, 1154, 1155, 1156, 1157, 1158, 1159, 1160, 
1161, 1162, 1163, 1164, 1165, 1166, 1167, 1168, 1169, 1170, 
1171, 1172, 1173, 1174, 1175, 1176, 1177, 1178, 1179, 1180, 
1181, 1182, 1183, 1184, 1185, 1186, 1187, 1188, 1189, 1190, 
1191, 1192, 1193, 1194, 1195, 1196, 1197, 1198, 1199, 1200, 
1201, 1202, 1203, 1204, 1205, 1206, 1207, 1208, 1209, 1210, 
1211, 1212, 1213, 1214, 1215, 1216, 1217, 1218, 1219, 1220, 
1221, 1222, 1223, 1224, 1225, 1226, 1227, 1228, 1229, 1230, 
1231, 1232, 1233, 1234, 1235, 1236, 1237, 1238, 1239, 1240, 
1241, 1242, 1243, 1244, 1245, 1246, 1247, 1248, 1249, 1250, 
1251, 1252, 1253, 1254, 1255, 1256, 1257, 1258, 1259, 1260, 
1261, 1262, 1263, 1264, 1265, 1266, 1267, 1268, 1269, 1270, 
1271, 1272, 1273, 1274, 1275, 1276, 1277, 1278, 1279, 1280, 
1281, 1282, 1283, 1284, 1285, 1286, 1287, 1288, 1289, 1290, 
1291, 1292, 1293, 1294, 1295, 1296, 1297, 1298, 1299, 1300, 
1301, 1302, 1303, 1304, 1305, 1306, 1307, 1308, 1309, 1310, 
1311, 1312, 1313, 1314, 1315, 1316, 1317, 1318, 1319, 1320, 
1321, 1322, 1323, 1324, 1325, 1326, 1327, 1328, 1329, 1330, 
1331, 1332, 1333, 1334, 1335, 1336, 1337, 1338, 1339, 1340, 
1341, 1342, 1343, 1344, 1345, 1346, 1347, 1348, 1349, 1350, 
1351, 1352, 1353, 1354, 1355, 1356, 1357, 1358, 1359, 1360, 
1361, 1362, 1363, 1364, 1365, 1366, 1367, 1368, 1369, 1370, 
1371, 1372, 1373, 1374, 1375, 1376, 1377, 1378, 1379, 1380, 
1381, 1382, 1383, 1384, 1385, 1386, 1387, 1388, 1389, 1390, 
1391, 1392, 1393, 1394, 1395, 1396, 1397, 1398, 1399, 1400, 
1401, 1402, 1403, 1404, 1405, 1406, 1407, 1408, 1409, 1410, 
1411, 1412, 1413, 1414, 1415, 1416, 1417, 1418, 1419, 1420, 
1421, 1422, 1423, 1424, 1425, 1426, 1427, 1428, 1429, 1430, 
1431, 1432, 1433, 1434, 1435, 1436, 1437, 1438, 1439, 1440, 
1441, 1442, 1443, 1444, 1445, 1446, 1447, 1448, 1449, 1450, 
1451, 1452, 1453, 1454, 1455, 1456, 1457, 1458, 1459, 1460, 
1461, 1462, 1463, 1464, 1465, 1466, 1467, 1468, 1469, 1470, 
1471, 1472, 1473, 1474, 1475, 1476, 1477, 1478, 1479, 1480, 
1481, 1482, 1483, 1484, 1485, 1486, 1487, 1488, 1489, 1490, 
1491, 1492, 1493, 1494, 1495, 1496, 1497, 1498, 1499, 1500, 
1501, 1502, 1503, 1504, 1505, 1506, 1507, 1508, 1509, 1510, 
1511, 1512, 1513, 1514, 1515, 1516, 1517, 1518, 1519, 1520, 
1521, 1522, 1523, 1524, 1525, 1526, 1527, 1528, 1529, 1530, 
1531, 1532, 1533, 1534, 1535, 1536, 1537, 1538, 1539, 1540, 
1541, 1542, 1543, 1544, 1545, 1546, 1547, 1548, 1549, 1550, 
1551, 1552, 1553, 1554, 1555, 1556, 1557, 1558, 1559, 1560, 
1561, 1562, 1563, 1564, 1565, 1566, 1567, 1568, 1569, 1570, 
1571, 1572, 1573, 1574, 1575, 1576, 1577, 1578, 1579, 1580, 
1581, 1582, 1583, 1584, 1585, 1586, 1587, 1588, 1589, 1590, 
1591, 1592, 1593, 1594, 1595, 1596, 1597, 1598, 1599, 1600, 
1601, 1602, 1603, 1604, 1605, 1606, 1607, 1608, 1609, 1610, 
1611, 1612, 1613, 1614, 1615, 1616, 1617, 1618, 1619, 1620, 
1621, 1622, 1623, 1624, 1625, 1626, 1627, 1628, 1629, 1630, 
1631, 1632, 1633, 1634, 1635, 1636, 1637, 1638, 1639, 1640, 
1641, 1642, 1643, 1644, 1645, 1646, 1647, 1648, 1649, 1650, 
1651, 1652, 1653, 1654, 1655, 1656, 1657, 1658, 1659, 1660, 
1661, 1662, 1663, 1664, 1665, 1666, 1667, 1668, 1669, 1670, 
1671, 1672, 1673, 1674, 1675, 1676, 1677, 1678, 1679, 1680, 
1681, 1682, 1683, 1684, 1685, 1686, 1687, 1688, 1689, 1690, 
1691, 1692, 1693, 1694, 1695, 1696, 1697, 1698, 1699, 1700, 
1701, 1702, 1703, 1704, 1705, 1706, 1707, 1708, 1709, 1710, 
1711, 1712, 1713, 1714, 1715, 1716, 1717, 1718, 1719, 1720, 
1721, 1722, 1723, 1724, 1725, 1726, 1727, 1728, 1729, 1730, 
1731, 1732, 1733, 1734, 1735, 1736, 1737, 1738, 1739, 1740, 
1741, 1742, 1743, 1744, 1745, 1746, 1747, 1748, 1749, 1750, 
1751, 1752, 1753, 1754, 1755, 1756, 1757, 1758, 1759, 1760, 
1761, 1762, 1763, 1764, 1765, 1766, 1767, 1768, 1769, 1770, 
1771, 1772, 1773, 1774, 1775, 1776, 1777, 1778, 1779, 1780, 
1781, 1782, 1783, 1784, 1785, 1786, 1787, 1788, 1789, 1790, 
1791, 1792, 1793, 1794, 1795, 1796, 1797, 1798, 1799, 1800, 
1801, 1802, 1803, 1804, 1805, 1806, 1807, 1808, 1809, 1810, 
1811, 1812, 1813, 1814, 1815, 1816, 1817, 1818, 1819, 1820, 
1821, 1822, 1823, 1824, 1825, 1826, 1827, 1828, 1829, 1830, 
1831, 1832, 1833, 1834, 1835, 1836, 1837, 1838, 1839, 1840, 
1841, 1842, 1843, 1844, 1845, 1846, 1847, 1848, 1849, 1850, 
1851, 1852, 1853, 1854, 1855, 1856, 1857, 1858, 1859, 1860, 
1861, 1862, 1863, 1864, 1865, 1866, 1867, 1868, 1869, 1870, 
1871, 1872, 1873, 1874, 1875, 1876, 1877, 1878, 1879, 1880, 
1881, 1882, 1883, 1884, 1885, 1886, 1887, 1888, 1889, 1890, 
1891, 1892, 1893, 1894, 1895, 1896, 1897, 1898, 1899, 1900, 
1901, 1902, 1903, 1904, 1905, 1906, 1907, 1908, 1909, 1910, 
1911, 1912, 1913, 1914, 1915, 1916, 1917, 1918, 1919, 1920, 
1921, 1922, 1923, 1924, 1925, 1926, 1927, 1928, 1929, 1930, 
1931, 1932, 1933, 1934, 1935, 1936, 1937, 1938, 1939, 1940, 
1941, 1942, 1943, 1944, 1945, 1946, 1947, 1948, 1949, 1950, 
1951, 1952, 1953, 1954, 1955, 1956, 1957, 1958, 1959, 1960, 
1961, 1962, 1963, 1964, 1965, 1966, 1967, 1968, 1969, 1970, 
1971, 1972, 1973, 1974, 1975, 1976, 1977, 1978, 1979, 1980, 
1981, 1982, 1983, 1984, 1985, 1986, 1987, 1988, 1989, 1990, 
1991, 1992, 1993, 1994, 1995, 1996, 1997, 1998, 1999, 2000, 
2001, 2002, 2003, 2004, 2005, 2006, 2007, 2008, 2009, 2010, 
2011, 2012, 2013, 2014, 2015, 2016, 2017, 2018, 2019, 2020, 
2021, 2022, 2023, 2024, 2025, 2026, 2027, 2028, 2029, 2030, 
2031, 2032, 2033, 2034, 2035, 2036, 2037, 2038, 2039, 2040, 
2041, 2042, 2043, 2044, 2045, 2046, 2047, 2048, 2049, 2050, 
2051, 2052, 2053, 2054, 2055, 2056, 2057, 2058, 2059, 2060, 
2061, 2062, 2063, 2064, 2065, 2066, 2067, 2068, 2069, 2070, 
2071, 2072, 2073, 2074, 2075, 2076, 2077, 2078, 2079, 2080, 
2081, 2082, 2083, 2084, 2085, 2086, 2087, 2088, 2089, 2090, 
2091, 2092, 2093, 2094, 2095, 2096, 2097, 2098, 2099, 2100, 
2101, 2102, 2103, 2104, 2105, 2106, 2107, 2108, 2109, 2110, 
2111, 2112, 2113, 2114, 2115, 2116, 2117, 2118, 2119, 2120, 
2121, 2122, 2123, 2124, 2125, 2126, 2127, 2128, 2129, 2130, 
2131, 2132, 2133, 2134, 2135, 2136, 2137, 2138, 2139, 2140, 
2141, 2142, 2143, 2144, 2145, 2146, 2147, 2148, 2149, 2150, 
2151, 2152, 2153, 2154, 2155, 2156, 2157, 2158, 2159, 2160, 
2161, 2162, 2163, 2164, 2165, 2166, 2167, 2168, 2169, 2170, 
2171, 2172, 2173, 2174, 2175, 2176, 2177, 2178, 2179, 2180, 
2181, 2182, 2183, 2184, 2185, 2186, 2187, 2188, 2189, 2190, 
2191, 2192, 2193, 2194, 2195, 2196, 2197, 2198, 2199, 2200, 
2201, 2202, 2203, 2204, 2205, 2206, 2207, 2208, 2209, 2210, 
2211, 2212, 2213, 2214, 2215, 2216, 2217, 2218, 2219, 2220, 
2221, 2222, 2223, 2224, 2225, 2226, 2227, 2228, 2229, 2230, 
2231, 2232, 2233, 2234, 2235, 2236, 2237, 2238, 2239, 2240, 
2241, 2242, 2243, 2244, 2245, 2246, 2247, 2248, 2249, 2250, 
2251, 2252, 2253, 2254, 2255, 2256, 2257, 2258, 2259, 2260, 
2261, 2262, 2263, 2264, 2265, 2266, 2267, 2268, 2269, 2270, 
2271, 2272, 2273, 2274, 2275, 2276, 2277, 2278, 2279, 2280, 
2281, 2282, 2283, 2284, 2285, 2286, 2287, 2288, 2289, 2290, 
2291, 2292, 2293, 2294, 2295, 2296, 2297, 2298, 2299, 2300, 
2301, 2302, 2303, 2304, 2305, 2306, 2307, 2308, 2309, 2310, 
2311, 2312, 2313, 2314, 2315, 2316, 2317, 2318, 2319, 2320, 
2321, 2322, 2323, 2324, 2325, 2326, 2327, 2328, 2329, 2330, 
2331, 2332, 2333, 2334, 2335, 2336, 2337, 2338, 2339, 2340, 
2341, 2342, 2343, 2344, 2345, 2346, 2347, 2348, 2349, 2350, 
2351, 2352, 2353, 2354, 2355, 2356, 2357, 2358, 2359, 2360, 
2361, 2362, 2363, 2364, 2365, 2366, 2367, 2368, 2369, 2370, 
2371, 2372, 2373, 2374, 2375, 2376, 2377, 2378, 2379, 2380, 
2381, 2382, 2383, 2384, 2385, 2386, 2387, 2388, 2389, 2390, 
2391, 2392, 2393, 2394, 2395, 2396, 2397, 2398, 2399, 2400, 
2401, 2402, 2403, 2404, 2405, 2406, 2407, 2408, 2409, 2410, 
2411, 2412, 2413, 2414, 2415, 2416, 2417, 2418, 2419, 2420, 
2421, 2422, 2423, 2424, 2425, 2426, 2427, 2428, 2429, 2430, 
2431, 2432, 2433, 2434, 2435, 2436, 2437, 2438, 2439, 2440, 
2441, 2442, 2443, 2444, 2445, 2446, 2447, 2448, 2449, 2450, 
2451, 2452, 2453, 2454, 2455, 2456, 2457, 2458, 2459, 2460, 
2461, 2462, 2463, 2464, 2465, 2466, 2467, 2468, 2469, 2470, 
2471, 2472, 2473, 2474, 2475, 2476, 2477, 2478, 2479, 2480, 
2481, 2482, 2483, 2484, 2485, 2486, 2487, 2488, 2489, 2490, 
2491, 2492, 2493, 2494, 2495, 2496, 2497, 2498, 2499, 2500, 
2501, 2502, 2503, 2504, 2505, 2506, 2507, 2508, 2509, 2510, 
2511, 2512, 2513, 2514, 2515, 2516, 2517, 2518, 2519, 2520, 
2521, 2522, 2523, 2524, 2525, 2526, 2527, 2528, 2529, 2530, 
2531, 2532, 2533, 2534, 2535, 2536, 2537, 2538, 2539, 2540, 
2541, 2542, 2543, 2544, 2545, 2546, 2547, 2548, 2549, 2550, 
2551, 2552, 2553, 2554, 2555, 2556, 2557, 2558, 2559, 2560, 
2561, 2562, 2563, 2564, 2565, 2566, 2567, 2568, 2569, 2570, 
2571, 2572, 2573, 2574, 2575, 2576, 2577, 2578, 2579, 2580, 
2581, 2582, 2583, 2584, 2585, 2586, 2587, 2588, 2589, 2590, 
2591, 2592, 2593, 2594, 2595, 2596, 2597, 2598, 2599, 2600, 
2601, 2602, 2603, 2604, 2605, 2606, 2607, 2608, 2609, 2610, 
2611, 2612, 2613, 2614, 2615, 2616, 2617, 2618, 2619, 2620, 
2621, 2622, 2623, 2624, 2625, 2626, 2627, 2628, 2629, 2630, 
2631, 2632, 2633, 2634, 2635, 2636, 2637, 2638, 2639, 2640, 
2641, 2642, 2643, 2644, 2645, 2646, 2647, 2648, 2649, 2650, 
2651, 2652, 2653, 2654, 2655, 2656, 2657, 2658, 2659, 2660, 
2661, 2662, 2663, 2664, 2665, 2666, 2667, 2668, 2669, 2670, 
2671, 2672, 2673, 2674, 2675, 2676, 2677, 2678, 2679, 2680, 
2681, 2682, 2683, 2684, 2685, 2686, 2687, 2688, 2689, 2690, 
2691, 2692, 2693, 2694, 2695, 2696, 2697, 2698, 2699, 2700, 
2701, 2702, 2703, 2704, 2705, 2706, 2707, 2708, 2709, 2710, 
2711, 2712, 2713, 2714, 2715, 2716, 2717, 2718, 2719, 2720, 
2721, 2722, 2723, 2724, 2725, 2726, 2727, 2728, 2729, 2730, 
2731, 2732, 2733, 2734, 2735, 2736, 2737, 2738, 2739, 2740, 
2741, 2742, 2743, 2744, 2745, 2746, 2747, 2748, 2749, 2750, 
2751, 2752, 2753, 2754, 2755, 2756, 2757, 2758, 2759, 2760, 
2761, 2762, 2763, 2764, 2765, 2766, 2767, 2768, 2769, 2770, 
2771, 2772, 2773, 2774, 2775, 2776, 2777, 2778, 2779, 2780, 
2781, 2782, 2783, 2784, 2785, 2786, 2787, 2788, 2789, 2790, 
2791, 2792, 2793, 2794, 2795, 2796, 2797, 2798, 2799, 2800, 
2801, 2802, 2803, 2804, 2805, 2806, 2807, 2808, 2809, 2810, 
2811, 2812, 2813, 2814, 2815, 2816, 2817, 2818, 2819, 2820, 
2821, 2822, 2823, 2824, 2825, 2826, 2827, 2828, 2829, 2830, 
2831, 2832, 2833, 2834, 2835, 2836, 2837, 2838, 2839, 2840, 
2841, 2842, 2843, 2844, 2845, 2846, 2847, 2848, 2849, 2850, 
2851, 2852, 2853, 2854, 2855, 2856, 2857, 2858, 2859, 2860, 
2861, 2862, 2863, 2864, 2865, 2866, 2867, 2868, 2869, 2870, 
2871, 2872, 2873, 2874, 2875, 2876, 2877, 2878, 2879, 2880, 
2881, 2882, 2883, 2884, 2885, 2886, 2887, 2888, 2889, 2890, 
2891, 2892, 2893, 2894, 2895, 2896, 2897, 2898, 2899, 2900, 
2901, 2902, 2903, 2904, 2905, 2906, 2907, 2908, 2909, 2910, 
2911, 2912, 2913, 2914, 2915, 2916, 2917, 2918, 2919, 2920, 
2921, 2922, 2923, 2924, 2925, 2926, 2927, 2928, 2929, 2930, 
2931, 2932, 2933, 2934, 2935, 2936, 2937, 2938, 2939, 2940, 
2941, 2942, 2943, 2944, 2945, 2946, 2947, 2948, 2949, 2950, 
2951, 2952, 2953, 2954, 2955, 2956, 2957, 2958, 2959, 2960, 
2961, 2962, 2963, 2964, 2965, 2966, 2967, 2968, 2969, 2970, 
2971, 2972, 2973, 2974, 2975, 2976, 2977, 2978, 2979, 2980, 
2981, 2982, 2983, 2984, 2985, 2986, 2987, 2988, 2989, 2990, 
2991, 2992, 2993, 2994, 2995, 2996, 2997, 2998, 2999, 3000, 
3001, 3002, 3003, 3004, 3005, 3006, 3007, 3008, 3009, 3010, 
3011, 3012, 3013, 3014, 3015, 3016, 3017, 3018, 3019, 3020, 
3021, 3022, 3023, 3024, 3025, 3026, 3027, 3028, 3029, 3030, 
3031, 3032, 3033, 3034, 3035, 3036, 3037, 3038, 3039, 3040, 
3041, 3042, 3043, 3044, 3045, 3046, 3047, 3048, 3049, 3050, 
3051, 3052, 3053, 3054, 3055, 3056, 3057, 3058, 3059, 3060, 
3061, 3062, 3063, 3064, 3065, 3066, 3067, 3068, 3069, 3070, 
3071, 3072, 3073, 3074, 3075, 3076, 3077, 3078, 3079, 
