*Heading
 /Users/juliagao/geometry-optimization-net/scripts/../runs/fourier/shape_22.inp
*NODE
1, 0, -0.3, 0
2, 0.425, -0.3, 0
3, 0.575, -0.3, 0
4, 1, -0.3, 0
5, 1, 0.3, 0
6, 0.575, 0.3, 0
7, 0.425, 0.3, 0
8, 0, 0.3, 0
9, 0.7115965314, 0.0537115861, 0
10, 0.023645085939259, -0.3, 0
11, 0.071182654678195, -0.3, 0
12, 0.1192825720163, -0.3, 0
13, 0.16844779236692, -0.3, 0
14, 0.21860359365768, -0.3, 0
15, 0.2684032853953, -0.3, 0
16, 0.31657953554679, -0.3, 0
17, 0.36204921859285, -0.3, 0
18, 0.40447216387323, -0.3, 0
19, 0.047290171878518, -0.3, 0
20, 0.095075137477871, -0.3, 0
21, 0.14349000655474, -0.3, 0
22, 0.19340557817909, -0.3, 0
23, 0.24380160913627, -0.3, 0
24, 0.29300496165434, -0.3, 0
25, 0.34015410943924, -0.3, 0
26, 0.38394432774646, -0.3, 0
27, 0.44457360977717, -0.3, 0
28, 0.48296139695193, -0.3, 0
29, 0.51995961652463, -0.3, 0
30, 0.55657182934987, -0.3, 0
31, 0.46414721955435, -0.3, 0
32, 0.50177557434951, -0.3, 0
33, 0.53814365869974, -0.3, 0
34, 0.59467255730269, -0.3, 0
35, 0.63524574943736, -0.3, 0
36, 0.67864650781012, -0.3, 0
37, 0.72496929821732, -0.3, 0
38, 0.77394496828759, -0.3, 0
39, 0.82496549265083, -0.3, 0
40, 0.87643170929259, -0.3, 0
41, 0.92683995617057, -0.3, 0
42, 0.97582475378309, -0.3, 0
43, 0.61434511460538, -0.3, 0
44, 0.65614638426933, -0.3, 0
45, 0.7011466313509, -0.3, 0
46, 0.74879196508373, -0.3, 0
47, 0.79909797149145, -0.3, 0
48, 0.8508330138102, -0.3, 0
49, 0.90203040477497, -0.3, 0
50, 0.95164950756617, -0.3, 0
51, 1, -0.2736666518059, 0
52, 1, -0.21980890090368, 0
53, 1, -0.16389666727728, 0
54, 1, -0.10722433540004, 0
55, 1, -0.051071584626199, 0
56, 1, 0.0044314551660761, 0
57, 1, 0.059682738679627, 0
58, 1, 0.1147744029109, 0
59, 1, 0.16947698155052, 0
60, 1, 0.22305413130364, 0
61, 1, 0.27470193655612, 0
62, 1, -0.24733330361181, 0
63, 1, -0.19228449819556, 0
64, 1, -0.13550883635899, 0
65, 1, -0.078939834441094, 0
66, 1, -0.023203334811304, 0
67, 1, 0.032066245143456, 0
68, 1, 0.087299232215798, 0
69, 1, 0.14224957360601, 0
70, 1, 0.19670438949503, 0
71, 1, 0.24940387311225, 0
72, 0.974571548613, 0.3, 0
73, 0.92259184807653, 0.3, 0
74, 0.86850151012871, 0.3, 0
75, 0.81494232496664, 0.3, 0
76, 0.76591000002505, 0.3, 0
77, 0.72308317624714, 0.3, 0
78, 0.68633030021791, 0.3, 0
79, 0.65496550597458, 0.3, 0
80, 0.62828870327019, 0.3, 0
81, 0.60540220188073, 0.3, 0
82, 0.58488299489077, 0.3, 0
83, 0.94914309722599, 0.3, 0
84, 0.89604059892707, 0.3, 0
85, 0.84096242133034, 0.3, 0
86, 0.78892222860294, 0.3, 0
87, 0.74289777144716, 0.3, 0
88, 0.70326858104712, 0.3, 0
89, 0.6693920193887, 0.3, 0
90, 0.64053899256046, 0.3, 0
91, 0.61603841397992, 0.3, 0
92, 0.59476598978155, 0.3, 0
93, 0.56646653748322, 0.3, 0
94, 0.54973179063152, 0.3, 0
95, 0.53357944322531, 0.3, 0
96, 0.51781282308024, 0.3, 0
97, 0.5019473611688, 0.3, 0
98, 0.48558653768416, 0.3, 0
99, 0.46890126409382, 0.3, 0
100, 0.45193136801103, 0.3, 0
101, 0.4341679134358, 0.3, 0
102, 0.55793307496644, 0.3, 0
103, 0.5415305062966, 0.3, 0
104, 0.52562838015402, 0.3, 0
105, 0.50999726600647, 0.3, 0
106, 0.49389745633114, 0.3, 0
107, 0.47727561903717, 0.3, 0
108, 0.46052690915046, 0.3, 0
109, 0.44333582687159, 0.3, 0
110, 0.41493771304131, 0.3, 0
111, 0.39440435642421, 0.3, 0
112, 0.37294083269192, 0.3, 0
113, 0.35035597172271, 0.3, 0
114, 0.32598836120216, 0.3, 0
115, 0.29817496022662, 0.3, 0
116, 0.26457994847513, 0.3, 0
117, 0.22396495621095, 0.3, 0
118, 0.17739563923431, 0.3, 0
119, 0.12714396040651, 0.3, 0
120, 0.075857961949163, 0.3, 0
121, 0.025156251602995, 0.3, 0
122, 0.40487542608261, 0.3, 0
123, 0.3839332867658, 0.3, 0
124, 0.36194837861804, 0.3, 0
125, 0.33876356482738, 0.3, 0
126, 0.31321315757693, 0.3, 0
127, 0.2831367628763, 0.3, 0
128, 0.24602313407395, 0.3, 0
129, 0.20190677834794, 0.3, 0
130, 0.15288450012068, 0.3, 0
131, 0.10140342069234, 0.3, 0
132, 0.050312503205989, 0.3, 0
133, 0, 0.2736405579248, 0
134, 0, 0.22019471794809, 0
135, 0, 0.16588528593105, 0
136, 0, 0.11221153546279, 0
137, 0, 0.058774425947308, 0
138, 0, 0.0032666137097546, 0
139, 0, -0.054416134368919, 0
140, 0, -0.11249031049615, 0
141, 0, -0.16920286045629, 0
142, 0, -0.22309736559391, 0
143, 0, -0.27459608394737, 0
144, 0, 0.2472811158496, 0
145, 0, 0.19310832004658, 0
146, 0, 0.13866225181552, 0
147, 0, 0.085760819110066, 0
148, 0, 0.031788032784551, 0
149, 0, -0.025254805365042, 0
150, 0, -0.083577463372795, 0
151, 0, -0.14140315761951, 0
152, 0, -0.19700256329307, 0
153, 0, -0.24919216789475, 0
154, 0.71171444048017, 0.058000733265233, 0
155, 0.71135140080623, 0.041549699516195, 0
156, 0.7112949848761, 0.033735382637936, 0
157, 0.71132257185916, 0.025932243478243, 0
158, 0.71141690129803, 0.01824447709721, 0
159, 0.71154750361391, 0.010616847937424, 0
160, 0.71167612479063, 0.0029952917640684, 0
161, 0.71175754024242, -0.0045840819626598, 0
162, 0.71174536104738, -0.012119428742022, 0
163, 0.71159026735463, -0.019724034892726, 0
164, 0.71123979652138, -0.027380714786833, 0
165, 0.71065009537797, -0.034984741498772, 0
166, 0.70978211729245, -0.042508956401086, 0
167, 0.70859210027265, -0.049986070379058, 0
168, 0.70704738072372, -0.057376027796746, 0
169, 0.70513413831108, -0.064600376520413, 0
170, 0.70276661816828, -0.071830847444103, 0
171, 0.6998256166847, -0.079196000794908, 0
172, 0.69638385859886, -0.086349899818308, 0
173, 0.6925511397149, -0.09306158226358, 0
174, 0.68827268823083, -0.0994513900797, 0
175, 0.68357717516998, -0.10548169296972, 0
176, 0.67857335884812, -0.11105003355212, 0
177, 0.67326150067349, -0.11620568526612, 0
178, 0.6675975033636, -0.12101885514091, 0
179, 0.6615467772356, -0.12552672060531, 0
180, 0.65514540291785, -0.12970888061866, 0
181, 0.64853469210113, -0.13350064555406, 0
182, 0.64167072684244, -0.13696205101481, 0
183, 0.63449822097517, -0.14014260644514, 0
184, 0.62724111399706, -0.14297750825189, 0
185, 0.61993963654351, -0.14550205694741, 0
186, 0.61253809576614, -0.14778002859351, 0
187, 0.60518228264429, -0.14981100007735, 0
188, 0.5978429343927, -0.1516477906813, 0
189, 0.59033423052618, -0.15336919086091, 0
190, 0.58274505905676, -0.15498129753598, 0
191, 0.57526253673448, -0.15647340006531, 0
192, 0.5677530230881, -0.15789561097029, 0
193, 0.5601294183426, -0.15927736142013, 0
194, 0.55259670739775, -0.16058819154243, 0
195, 0.54512678066975, -0.1618334900707, 0
196, 0.53753852628803, -0.16303389807061, 0
197, 0.52983241142779, -0.16416998166831, 0
198, 0.52212703347905, -0.1652001311958, 0
199, 0.5145030797568, -0.16608961102394, 0
200, 0.50693437289668, -0.16681803595191, 0
201, 0.49928923232347, -0.16736999143909, 0
202, 0.49151018345983, -0.16771444133528, 0
203, 0.48382436485695, -0.16781397773975, 0
204, 0.47618726914417, -0.16765274953242, 0
205, 0.46846730724972, -0.16720522303263, 0
206, 0.46069204078271, -0.16644610739997, 0
207, 0.45279274274575, -0.16533998009728, 0
208, 0.44475485437038, -0.16385076493952, 0
209, 0.4367551812583, -0.16198810934273, 0
210, 0.4291110627385, -0.15983888615429, 0
211, 0.42180831111156, -0.15743512912525, 0
212, 0.41465559893099, -0.15473543671669, 0
213, 0.40761799178605, -0.151731301965, 0
214, 0.4006773685417, -0.14841410271689, 0
215, 0.39386730837695, -0.14479761841949, 0
216, 0.38722562504649, -0.14090203210517, 0
217, 0.3806831145123, -0.13667984768396, 0
218, 0.37424234917419, -0.13211381598884, 0
219, 0.36804789200779, -0.12729443710518, 0
220, 0.36215881918034, -0.12227057714746, 0
221, 0.35658659826001, -0.11705855854998, 0
222, 0.35130390323853, -0.11163349470919, 0
223, 0.34620030044256, -0.10585638352557, 0
224, 0.34131215949362, -0.099717931316504, 0
225, 0.33677708195487, -0.093357643719999, 0
226, 0.33268264866317, -0.086907922533738, 0
227, 0.32895644886022, -0.080269541231076, 0
228, 0.32554618241948, -0.073323578230995, 0
229, 0.32253873533694, -0.066229523817569, 0
230, 0.31994184295056, -0.059038757758398, 0
231, 0.31770849946368, -0.051651677857781, 0
232, 0.31583441093651, -0.044073342199215, 0
233, 0.31434610403215, -0.036523616198784, 0
234, 0.31318902668784, -0.028944719328581, 0
235, 0.31229752623506, -0.021098146137884, 0
236, 0.31166773723469, -0.013336544270198, 0
237, 0.31123721836999, -0.0057810873647787, 0
238, 0.31091380025451, 0.0020304263726636, 0
239, 0.31062976016662, 0.010066480836106, 0
240, 0.31031257769644, 0.017962769474097, 0
241, 0.30988850449972, 0.025608396002701, 0
242, 0.30929805157017, 0.03304939184725, 0
243, 0.30848235589424, 0.040497167909612, 0
244, 0.30739567605472, 0.048078386936717, 0
245, 0.30606143757374, 0.055625822865227, 0
246, 0.30450637888358, 0.063189035322505, 0
247, 0.30274710158975, 0.070943232662166, 0
248, 0.30091931677586, 0.078616098626135, 0
249, 0.29915385268533, 0.086009946073099, 0
250, 0.29745708279841, 0.093407287119558, 0
251, 0.29584053402138, 0.1010909415068, 0
252, 0.2944196475594, 0.10889672258637, 0
253, 0.29329736785134, 0.11660561314075, 0
254, 0.29251210259365, 0.12429081634805, 0
255, 0.2921129425577, 0.13192643491093, 0
256, 0.2921414486072, 0.13949968352036, 0
257, 0.29264798238527, 0.14712043398419, 0
258, 0.29369906542425, 0.15479266104085, 0
259, 0.29536844185378, 0.16250001163208, 0
260, 0.29774847438987, 0.17024721212462, 0
261, 0.30082171913025, 0.17774628342535, 0
262, 0.30447684773638, 0.18473121794509, 0
263, 0.30868501346819, 0.19122589455607, 0
264, 0.31347390534259, 0.19730889675052, 0
265, 0.31886896156791, 0.20300962519605, 0
266, 0.32484193616308, 0.20829114160999, 0
267, 0.3313286556753, 0.213107948159, 0
268, 0.3381061145492, 0.21735053641385, 0
269, 0.34502497344246, 0.22102087617933, 0
270, 0.3519749847542, 0.2241631739241, 0
271, 0.35891064748966, 0.22685188135078, 0
272, 0.36617721498951, 0.22927397847301, 0
273, 0.37396252972035, 0.23150378314292, 0
274, 0.38183031282619, 0.23345326358195, 0
275, 0.38954180975474, 0.23514004832343, 0
276, 0.39736010907179, 0.23669299579751, 0
277, 0.40529880818133, 0.23817614254198, 0
278, 0.41311526460047, 0.23960782874399, 0
279, 0.42070438764179, 0.24102452378469, 0
280, 0.42811224415169, 0.24247341302182, 0
281, 0.43538555984032, 0.24398480482956, 0
282, 0.44264720920591, 0.24559000305435, 0
283, 0.44999516870552, 0.24730187009972, 0
284, 0.45746602700196, 0.24910244774145, 0
285, 0.46502050870438, 0.25093622530477, 0
286, 0.4725073827473, 0.25270678851646, 0
287, 0.47998969552591, 0.25436585971957, 0
288, 0.48759729134071, 0.25587566736482, 0
289, 0.49527953240519, 0.25715958034785, 0
290, 0.50299142071169, 0.25815337893039, 0
291, 0.51071085179356, 0.25880975803833, 0
292, 0.51839312438833, 0.25909429887804, 0
293, 0.52597719765071, 0.25899111992359, 0
294, 0.53359735698846, 0.25848735907144, 0
295, 0.54137557516186, 0.25755033963786, 0
296, 0.5491225358786, 0.25619012853499, 0
297, 0.55679101628252, 0.2544285408069, 0
298, 0.56452367871293, 0.2522455518532, 0
299, 0.5722013541064, 0.24969264630406, 0
300, 0.57938246599572, 0.24697952552241, 0
301, 0.58609827228223, 0.24418028942766, 0
302, 0.59275400853236, 0.24117913252807, 0
303, 0.5994048737199, 0.23797680873538, 0
304, 0.60602729247136, 0.2346062338851, 0
305, 0.61262086654762, 0.23108527108107, 0
306, 0.61915002265635, 0.22744458144834, 0
307, 0.62560902732427, 0.22369148923825, 0
308, 0.63201640134547, 0.21980912396891, 0
309, 0.63836521416424, 0.21578513376253, 0
310, 0.64468103340682, 0.21157565457156, 0
311, 0.65103368950344, 0.20708984147879, 0
312, 0.65732489594112, 0.202340651791, 0
313, 0.66337987452536, 0.19741108957581, 0
314, 0.66908850432636, 0.19236088889801, 0
315, 0.67446479761481, 0.1871568823587, 0
316, 0.6796331004561, 0.1816372023897, 0
317, 0.6845877831842, 0.17573624406285, 0
318, 0.68924140940911, 0.16948280471536, 0
319, 0.69350585103929, 0.16293955734894, 0
320, 0.69729924477136, 0.15621462341147, 0
321, 0.70062170009576, 0.14932273868399, 0
322, 0.7035190550948, 0.14217239803957, 0
323, 0.70598659472961, 0.13476183351024, 0
324, 0.70800067833746, 0.12718916945424, 0
325, 0.70955418373123, 0.1196233027352, 0
326, 0.71069442079865, 0.11210821059692, 0
327, 0.71148687293267, 0.1045509916577, 0
328, 0.71197838596852, 0.096932229422477, 0
329, 0.7122157493523, 0.089281870011732, 0
330, 0.71225314259127, 0.081688589407179, 0
331, 0.71214971293083, 0.074103589696675, 0
332, 0.71195528045021, 0.066288604478397, 0
333, 0.71149548917802, 0.049570372813214, 0
334, 0.71183975157825, 0.062289667925983, 0
335, 0.71206225958773, 0.070287781404031, 0
336, 0.71221581889732, 0.077919834187433, 0
337, 0.71225573700036, 0.085457539193938, 0
338, 0.7121257250051, 0.093105365618256, 0
339, 0.71176693842559, 0.10075610550435, 0
340, 0.711130800387, 0.10833952245984, 0
341, 0.71017131134028, 0.11586586382317, 0
342, 0.70884023235655, 0.12336357426691, 0
343, 0.70705083455369, 0.13098890544816, 0
344, 0.70480658772421, 0.13850018951544, 0
345, 0.70211513696284, 0.14580171541167, 0
346, 0.69901638964361, 0.15279418703822, 0
347, 0.69547322051263, 0.15957818924354, 0
348, 0.69143144681114, 0.16623593575077, 0
349, 0.68695100727009, 0.17265965474782, 0
350, 0.68213514991573, 0.17874202176449, 0
351, 0.67705349658755, 0.18446347879409, 0
352, 0.67181116145224, 0.18978630821922, 0
353, 0.66630922157614, 0.19487421250948, 0
354, 0.66039890248179, 0.19988707348997, 0
355, 0.6542063039424, 0.20473728035239, 0
356, 0.64782381707685, 0.20939128641747, 0
357, 0.64150931151035, 0.21371777306934, 0
358, 0.6351977551553, 0.21781651024844, 0
359, 0.62881520945135, 0.2217697013836, 0
360, 0.62238540400407, 0.22558387123634, 0
361, 0.61589835854298, 0.22927668739922, 0
362, 0.60932707414664, 0.23286399817827, 0
363, 0.60271052413722, 0.23631591691104, 0
364, 0.59608113723161, 0.239601216391, 0
365, 0.58940727509982, 0.24271504690252, 0
366, 0.58276873712246, 0.24559827838682, 0
367, 0.57597394527466, 0.24830494571725, 0
368, 0.56840112381614, 0.25100281543177, 0
369, 0.5606184412548, 0.25339804634663, 0
370, 0.55293934096497, 0.25536439208796, 0
371, 0.54528564719456, 0.25691691363848, 0
372, 0.53744968270219, 0.25807695143658, 0
373, 0.52973534342331, 0.25879348214878, 0
374, 0.5222151919072, 0.25909114595182, 0
375, 0.5145722173993, 0.25900044987968, 0
376, 0.50685518443623, 0.25852652257095, 0
377, 0.49913668211593, 0.25769648328558, 0
378, 0.49143315073511, 0.25655043172589, 0
379, 0.48377215108146, 0.25514267272529, 0
380, 0.47621615408589, 0.25354690863467, 0
381, 0.46880454682632, 0.25184092210871, 0
382, 0.46123918307553, 0.25002027412464, 0
383, 0.45369208104596, 0.24818787046361, 0
384, 0.44629486370683, 0.24643013422147, 0
385, 0.43899480609641, 0.24477075251891, 0
386, 0.43177139093198, 0.24322181482949, 0
387, 0.42444872734066, 0.24174671746319, 0
388, 0.41695692296083, 0.24031874308448, 0
389, 0.40927234999762, 0.2389037471495, 0
390, 0.40132653048271, 0.23744165547567, 0
391, 0.39339803631434, 0.23592161186207, 0
392, 0.38569322746713, 0.23432161292614, 0
393, 0.37797954854747, 0.23253245092556, 0
394, 0.3699651551716, 0.23040114005497, 0
395, 0.36241440091362, 0.22806549626571, 0
396, 0.35543655095855, 0.22555574028317, 0
397, 0.34855241992641, 0.22267726137903, 0
398, 0.34155194411587, 0.21925315557507, 0
399, 0.33473014282661, 0.21532647221155, 0
400, 0.32801887837605, 0.21075471197708, 0
401, 0.32177313926374, 0.20569403554205, 0
402, 0.31608691506734, 0.20019879617199, 0
403, 0.31099496791643, 0.19430318165745, 0
404, 0.30651838662795, 0.18804606350957, 0
405, 0.30259110425648, 0.18132533822353, 0
406, 0.2992209725242, 0.17408871027201, 0
407, 0.29645476783288, 0.16634190600207, 0
408, 0.29444553677878, 0.15861565856179, 0
409, 0.2931000502289, 0.15094384167802, 0
410, 0.29232972395575, 0.1432836071595, 0
411, 0.29207127486936, 0.13571176066195, 0
412, 0.29226007938979, 0.12814376925159, 0
413, 0.29286008839761, 0.12044537130693, 0
414, 0.29381634040346, 0.112776066662, 0
415, 0.29509173428929, 0.10502872514768, 0
416, 0.29664387782597, 0.097163943668538, 0
417, 0.29830404046187, 0.089658109122713, 0
418, 0.30001978298453, 0.082365581399121, 0
419, 0.30181811571127, 0.074866439315926, 0
420, 0.30365457530975, 0.067014984105598, 0
421, 0.30531885338133, 0.059354525815594, 0
422, 0.30675231664942, 0.051887178628058, 0
423, 0.30797585805916, 0.044259450429976, 0
424, 0.30892556601952, 0.036726906726157, 0
425, 0.30961578892701, 0.029366752192742, 0
426, 0.31011630581263, 0.021847064290151, 0
427, 0.31047890165242, 0.014077089598479, 0
428, 0.3107707957221, 0.0060555192900766, 0
429, 0.31106949352492, -0.0019942015797519, 0
430, 0.31143425191528, -0.0095665723837882, 0
431, 0.3119457811075, -0.017103506742092, 0
432, 0.31271497650331, -0.025086475665305, 0
433, 0.31373713183405, -0.032793159742019, 0
434, 0.31503416948203, -0.040240312877146, 0
435, 0.31672698417644, -0.047885943649245, 0
436, 0.31878636836501, -0.055390984137643, 0
437, 0.32119326485676, -0.062654745834686, 0
438, 0.32398059587053, -0.069766527425285, 0
439, 0.32721049256989, -0.076835522574777, 0
440, 0.33079675843418, -0.083653932066237, 0
441, 0.33465479146893, -0.090110369675282, 0
442, 0.33898631267214, -0.096546399722251, 0
443, 0.34372171953903, -0.10282632995979, 0
444, 0.3487559383356, -0.10882172426484, 0
445, 0.35391885808918, -0.11438306591323, 0
446, 0.35931568673458, -0.11967143684499, 0
447, 0.3650607543242, -0.12480388844373, 0
448, 0.37109027203522, -0.12971718646859, 0
449, 0.37744724677245, -0.13443933245131, 0
450, 0.38396720549304, -0.13884905888203, 0
451, 0.39052682756407, -0.14288547641806, 0
452, 0.39724741789812, -0.1466388023475, 0
453, 0.40414422299274, -0.15011621252659, 0
454, 0.41112516084984, -0.15327252087615, 0
455, 0.41821633735356, -0.15612297580183, 0
456, 0.42542755623464, -0.15867007560713, 0
457, 0.43281908564753, -0.16092742108767, 0
458, 0.44071451587269, -0.16295845683328, 0
459, 0.4488146587424, -0.16464983940554, 0
460, 0.45678506539064, -0.1659422891359, 0
461, 0.46460866960026, -0.16686832457374, 0
462, 0.4723318126509, -0.16746624627752, 0
463, 0.48004550707609, -0.16776794337147, 0
464, 0.48760345481294, -0.1677964572375, 0
465, 0.49541511520511, -0.16757058232774, 0
466, 0.50316016105252, -0.16711529861363, 0
467, 0.51070479529362, -0.1664761231503, 0
468, 0.51829726263193, -0.16566477305621, 0
469, 0.52595277548107, -0.16470344477454, 0
470, 0.53370834337315, -0.16361026625583, 0
471, 0.54136563014948, -0.16243744064978, 0
472, 0.54888541438782, -0.1612140750329, 0
473, 0.55630580405556, -0.15994942235146, 0
474, 0.56395066880123, -0.15859198660202, 0
475, 0.5715526239201, -0.15718436104252, 0
476, 0.57896903079763, -0.15574481794283, 0
477, 0.58651626219133, -0.1541942756476, 0
478, 0.59414539156296, -0.1525131888021, 0
479, 0.60153174882645, -0.15074588387718, 0
480, 0.60882137816342, -0.14883250495637, 0
481, 0.61623901747804, -0.14667324784565, 0
482, 0.62361954949554, -0.1442673019591, 0
483, 0.63083675462955, -0.14161707184675, 0
484, 0.63812530033966, -0.13858541861865, 0
485, 0.64517454343991, -0.13525067848683, 0
486, 0.65184712850052, -0.13166186380277, 0
487, 0.65838545033396, -0.1276607091569, 0
488, 0.66464058041567, -0.12329593064222, 0
489, 0.67048023372121, -0.11864852967839, 0
490, 0.67596063866263, -0.11367237448096, 0
491, 0.6810954566426, -0.1083404108181, 0
492, 0.68595647300292, -0.10253717588368, 0
493, 0.69047625314083, -0.096284179529003, 0
494, 0.69451074431566, -0.089767622065742, 0
495, 0.69813591877301, -0.082868585682858, 0
496, 0.70138596756388, -0.075466645271711, 0
497, 0.70403104849584, -0.068153037014864, 0
498, 0.70613597092451, -0.061017862979424, 0
499, 0.70786230071937, -0.05371141464784, 0
500, 0.70923142356508, -0.046244158040101, 0
501, 0.7102525830931, -0.038762822868539, 0
502, 0.7109767458536, -0.031199892084712, 0
503, 0.71144224977365, -0.023557861838285, 0
504, 0.71168946458771, -0.015888647370086, 0
505, 0.71176604542486, -0.0083498617692157, 0
506, 0.7117258350862, -0.00081843209416362, 0
507, 0.71161473150267, 0.0068088424327774, 0
508, 0.7114799528377, 0.014424847650761, 0
509, 0.71136325217228, 0.022064252078674, 0
510, 0.7112989368754, 0.029800378992272, 0
511, 0.71131252117431, 0.037670350182162, 0
512, 0.71141096002186, 0.045428785613457, 0
513, 0.42536120888627, -0.26383930999806, 0
514, 0.43766142435023, 0.25376828060083, 0
515, 0.16931826581422, -0.24187618734615, 0
516, 0.048542458065246, -0.24933075189451, 0
517, 0.16567790153788, -0.13278277280913, 0
518, 0.24019776444913, -0.25685313739106, 0
519, 0.14966802199416, -0.16179427783881, 0
520, 0.71804932528877, 0.083073039280589, 0
521, 0.58178480608931, -0.26272862441501, 0
522, 0.047596948447992, 0.19178780159734, 0
523, 0.14493729135367, 0.2511840707993, 0
524, 0.097165515575513, 0.24740657242545, 0
525, 0.048584747583338, 0.24658508836751, 0
526, 0.19107470678451, 0.25915985695388, 0
527, 0.23662292713662, 0.27117727195871, 0
528, 0.38103791606491, 0.24839929777182, 0
529, 0.35359746944903, 0.23195830812809, 0
530, 0.34164917907974, 0.23108847456889, 0
531, 0.29213116879413, 0.2238519190834, 0
532, 0.51341505788125, 0.26784635070317, 0
533, 0.47403649600074, 0.27512432463396, 0
534, 0.46033984422865, 0.27713543230117, 0
535, 0.44833101752264, 0.25209182686801, 0
536, 0.047217310639146, 0.13658810226816, 0
537, 0.046664450642556, 0.082690799493421, 0
538, 0.046513043896919, 0.028273809402734, 0
539, 0.04882736885166, -0.19641467998447, 0
540, 0.047145801169668, -0.14121462178062, 0
541, 0.045714338299657, -0.085343860317366, 0
542, 0.046041213691543, -0.028557441686488, 0
543, 0.46958768485615, -0.19277508366304, 0
544, 0.35299961362933, -0.15664988955151, 0
545, 0.37493548836324, -0.2441419425316, 0
546, 0.34731050441649, -0.12713846607787, 0
547, 0.83536332882865, 0.17402862757713, 0
548, 0.77005652512031, 0.13285385609211, 0
549, 0.96608449525003, 0.17539451483473, 0
550, 0.82438033188946, 0.14102530709256, 0
551, 0.95889523522648, 0.20654813277723, 0
552, 0.78907828019988, 0.16529982575579, 0
553, 0.66587372171265, 0.25286748574834, 0
554, 0.56061388207025, 0.25888789120063, 0
555, 0.62966799251141, 0.23801081330529, 0
556, 0.70488991985109, 0.15191926524786, 0
557, 0.71185766949554, 0.1788480304111, 0
558, 0.7523870251663, 0.16701866058634, 0
559, 0.77207352057946, 0.11472799660515, 0
560, 0.7169857995411, 0.11530481288079, 0
561, 0.73152352507818, 0.091542867625537, 0
562, 0.72063965453604, 0.13341860989312, 0
563, 0.74955361226832, 0.21043082325328, 0
564, 0.722513259061, 0.082004690995264, 0
565, 0.74661748563133, 0.08800260893901, 0
566, 0.77070824702332, 0.10548043432922, 0
567, 0.79231522287248, 0.011273337619641, 0
568, 0.72472953095694, 0.090801347488031, 0
569, 0.83514755117399, 0.11609872305302, 0
570, 0.73845999340565, 0.032934064330182, 0
571, 0.83987629599383, 0.072025778192965, 0
572, 0.95203257858977, -0.03835422952306, 0
573, 0.95133729845963, -0.089506726184336, 0
574, 0.52396116690424, -0.27476157738551, 0
575, 0.54238368887148, -0.27809520727248, 0
576, 0.63153033150972, -0.25598974792631, 0
577, 0.65152394429895, -0.16765118982011, 0
578, 0.95208598136811, -0.1429070865617, 0
579, 0.95274886394082, -0.19655761255909, 0
580, 0.7661286786487, -0.25933919016699, 0
581, 0.81082947776154, -0.25707999749725, 0
582, 0.85718595839079, -0.25418845556763, 0
583, 0.9046764684075, -0.25137432165114, 0
584, 0.95239661356165, -0.24892678518005, 0
585, 0.18582292622168, 0.20810958595929, 0
586, 0.2472866870104, 0.060476011351923, 0
587, 0.22509390696486, 0.14875120481254, 0
588, 0.25906266537374, 0.14397195991739, 0
589, 0.28533063980075, 0.10820197898226, 0
590, 0.28286577867993, 0.1800598500141, 0
591, 0.14476739697382, 0.19437139140686, 0
592, 0.095975327716511, 0.19127589968343, 0
593, 0.23111722987941, 0.22727269780901, 0
594, 0.26529765557832, 0.19750626412653, 0
595, 0.30463338590879, 0.22270945542854, 0
596, 0.31016704398422, 0.25099150658295, 0
597, 0.37077709231847, 0.24620480022488, 0
598, 0.31134216493032, 0.23814545006822, 0
599, 0.35749794930367, 0.23367187915764, 0
600, 0.34525298926095, 0.24341107581826, 0
601, 0.31651405143793, 0.20858481309867, 0
602, 0.33301546868878, 0.25509605878992, 0
603, 0.31507007367996, 0.21458978644775, 0
604, 0.2907021843403, 0.28174866172953, 0
605, 0.34446702807308, 0.23377928665949, 0
606, 0.326380693678, 0.23443724177195, 0
607, 0.29227688985097, 0.21527865695569, 0
608, 0.28548717099575, 0.21910797930748, 0
609, 0.27857778704613, 0.29030082280309, 0
610, 0.31910152732019, 0.24489910233066, 0
611, 0.37173222795889, 0.2721096253012, 0
612, 0.30083828354364, 0.24258905508626, 0
613, 0.31997961677176, 0.23385742065512, 0
614, 0.37991172696846, 0.27286379616045, 0
615, 0.30965846769295, 0.21834687082999, 0
616, 0.32941100876, 0.24973075863352, 0
617, 0.27215920130871, 0.25964186578257, 0
618, 0.3093004254532, 0.29098757148516, 0
619, 0.38517510681231, 0.29088788230364, 0
620, 0.49540649101652, 0.27402825815035, 0
621, 0.50089509740198, 0.27578047105504, 0
622, 0.49129735900522, 0.26298061035424, 0
623, 0.46567193152968, 0.26519512784513, 0
624, 0.4603083706197, 0.27081479058423, 0
625, 0.418291274333, 0.24510592458553, 0
626, 0.42274188309475, 0.25377519576539, 0
627, 0.47310420860429, 0.25640149687895, 0
628, 0.50649756417654, 0.27688151546718, 0
629, 0.48389134714751, 0.27782792473303, 0
630, 0.42120173881388, 0.26063372575204, 0
631, 0.44963749830021, 0.26355888145414, 0
632, 0.44802197175805, 0.26943162744613, 0
633, 0.42548177078034, 0.24473494114401, 0
634, 0.43899262304303, 0.27420129942067, 0
635, 0.41114572835291, 0.27185307960585, 0
636, 0.29990695909212, 0.22766264661392, 0
637, 0.45110960075131, 0.25818172294004, 0
638, 0.42680347021394, 0.2518385198482, 0
639, 0.44647347599584, 0.2569739116693, 0
640, 0.43020263117774, 0.24959617087844, 0
641, 0.40902707457125, 0.26417832805497, 0
642, 0.28815029879795, 0.18886211833004, 0
643, 0.29456118433181, 0.19736475612485, 0
644, 0.28506104824446, 0.18437627357336, 0
645, 0.27310038433904, 0.19034550554536, 0
646, 0.27825743877963, 0.19965143117426, 0
647, 0.26605183802957, 0.20560680908468, 0
648, 0.30225054174404, 0.20514899474143, 0
649, 0.28675792090817, 0.21052528456432, 0
650, 0.34063906756483, 0.22383678634778, 0
651, 0.26030936346569, 0.14921087344553, 0
652, 0.29263661899905, 0.18066084048434, 0
653, 0.26764156342413, 0.18034761233237, 0
654, 0.26913536663772, 0.16703758125829, 0
655, 0.26190536854257, 0.089174924286275, 0
656, 0.23040442818634, 0.1769167405829, 0
657, 0.28364885972011, 0.12708606229574, 0
658, 0.29300932430022, 0.10178810664736, 0
659, 0.27615484831363, 0.081502678672931, 0
660, 0.28457289095116, 0.096732720633065, 0
661, 0.25017977688697, 0.05082175824471, 0
662, 0.29291403280301, 0.098143953682433, 0
663, 0.2757520424863, 0.12225510012488, 0
664, 0.2863668183443, 0.061047772907914, 0
665, 0.29433310159549, 0.018593875668968, 0
666, 0.28007743309515, 0.058219558579873, 0
667, 0.2686081552232, 0.081394477915597, 0
668, 0.28786776742571, 0.10545868855825, 0
669, 0.28732968669778, 0.11587771486378, 0
670, 0.25869487205006, 0.072863283279011, 0
671, 0.27802886390219, 0.063709482480248, 0
672, 0.25938019185427, 0.064618305286243, 0
673, 0.29208041374349, 0.041164971874917, 0
674, 0.30559281609569, 0.03368879290349, 0
675, 0.29708368065172, 0.050994022028259, 0
676, 0.29486220239114, -0.013929408724854, 0
677, 0.30580142896741, 0.037075251266648, 0
678, 0.26307223720383, 0.037084735369281, 0
679, 0.30026812366714, 0.057258317826592, 0
680, 0.27005767200203, 0.043910624964666, 0
681, 0.28817608982925, 0.019174048084901, 0
682, 0.28050531326603, 0.044358317874321, 0
683, 0.30640169705164, -0.017959047176903, 0
684, 0.29046523015958, 0.0015654498880576, 0
685, 0.21328269303851, 0.1307731648287, 0
686, 0.29033936466432, 0.10913134843789, 0
687, 0.24670743744793, 0.070583027087378, 0
688, 0.28876288103223, 0.081698769203687, 0
689, 0.27130528060327, 0.13537903112904, 0
690, 0.1902143303634, 0.078265915292687, 0
691, 0.14289031156318, 0.07966538372515, 0
692, 0.27673189225104, 0.069504979047468, 0
693, 0.27689262284464, 0.087437790854053, 0
694, 0.30299959648438, 0.037644816164743, 0
695, 0.29108398640145, 0.029849392052667, 0
696, 0.18424785742461, 0.01465159331835, 0
697, 0.25617016103718, 0.028091392578619, 0
698, 0.30267998408558, 0.049727410788707, 0
699, 0.30212113283026, 0.034589387912654, 0
700, 0.25848311709655, 0.13840115711803, 0
701, 0.27001109627211, 0.10346275477921, 0
702, 0.1581582550407, -0.064547009523669, 0
703, 0.21074097436194, 0.16429598548432, 0
704, 0.096040904676613, 0.13340955239946, 0
705, 0.094254282390278, 0.080615820263874, 0
706, 0.11711142681199, -0.034162222599831, 0
707, 0.21094979647127, -0.23725886144475, 0
708, 0.23404224094511, -0.20823907948451, 0
709, 0.24638710791042, -0.16752613687146, 0
710, 0.20295594683225, -0.16909568743398, 0
711, 0.1600611221112, -0.18633190376334, 0
712, 0.10015781968272, -0.22568822095271, 0
713, 0.098172280957119, -0.25147669298047, 0
714, 0.072180954103973, -0.27524884511045, 0
715, 0.31079958314368, -0.052326237645899, 0
716, 0.091570379258163, -0.086953783795096, 0
717, 0.15697599471728, 0.00069570185304574, 0
718, 0.30068944706829, -0.023416050605032, 0
719, 0.24410573109913, -0.0064286497924372, 0
720, 0.21425399566753, -0.010038552955169, 0
721, 0.30523415491898, 0.026157569254732, 0
722, 0.14295906094199, 0.037197757617249, 0
723, 0.16254728964009, -0.02420838052491, 0
724, 0.14497829436008, -0.016552500438257, 0
725, 0.19731062580474, -0.043508762562007, 0
726, 0.25354049022335, -0.071001519971508, 0
727, 0.21392253404269, -0.1428757082497, 0
728, 0.13699940785767, -0.087541269298221, 0
729, 0.27483051419177, -0.080386737658243, 0
730, 0.29269728149396, -0.04359877035449, 0
731, 0.42621939879007, -0.23070666182461, 0
732, 0.38724529790171, -0.21407599869698, 0
733, 0.35844217154781, -0.12696183749151, 0
734, 0.36176914544681, -0.12922627235269, 0
735, 0.42199015347794, -0.16364819595255, 0
736, 0.41782116330424, -0.16936328261509, 0
737, 0.43202491114948, -0.16980691151528, 0
738, 0.46727289720659, -0.17275177072491, 0
739, 0.48095356546669, -0.17845121006747, 0
740, 0.51149749835874, -0.17502696187297, 0
741, 0.51664485788244, -0.245555265592, 0
742, 0.37119342153858, -0.13560992966605, 0
743, 0.35618303317694, -0.17167909585862, 0
744, 0.24714929854288, -0.18982295805212, 0
745, 0.36174341598487, -0.16126245838481, 0
746, 0.29480681039488, -0.23432443041762, 0
747, 0.36570410894239, -0.13705002100807, 0
748, 0.34768566893557, -0.25921409013923, 0
749, 0.2930703275776, -0.21326432160448, 0
750, 0.31636245135638, -0.17684419619383, 0
751, 0.27143505954006, -0.14171575062608, 0
752, 0.26160014024823, -0.16214404362654, 0
753, 0.27992124172134, -0.15556838047062, 0
754, 0.31800593451996, -0.14375960479106, 0
755, 0.26778375531859, -0.1767868858636, 0
756, 0.35533723330144, -0.23955969362782, 0
757, 0.38578774863792, -0.15616266552577, 0
758, 0.31993544276998, -0.21117680192515, 0
759, 0.37407341363149, -0.13792871501509, 0
760, 0.36760864786796, -0.14338044375687, 0
761, 0.37538988577426, -0.20962576173843, 0
762, 0.37313352615632, -0.14392476735738, 0
763, 0.37580927228234, -0.14693538193675, 0
764, 0.40141086248129, -0.15670146224072, 0
765, 0.32221461326197, -0.25616945722514, 0
766, 0.40208204049583, -0.20389713158507, 0
767, 0.42269779535895, -0.16991900063411, 0
768, 0.47100354578638, -0.17894446945343, 0
769, 0.40095998669251, -0.17324611805388, 0
770, 0.52117949390446, -0.17104870572676, 0
771, 0.44664594088333, -0.17289849587498, 0
772, 0.33386697966281, -0.16537928339722, 0
773, 0.37693763413065, -0.14045803266291, 0
774, 0.37340355342303, -0.19323347710341, 0
775, 0.4124416097003, -0.19347384908539, 0
776, 0.45575203556899, -0.17664806896206, 0
777, 0.49775724374559, -0.22389854997617, 0
778, 0.47034450479787, -0.22416244892483, 0
779, 0.55247196025911, -0.18398866051153, 0
780, 0.43982822043925, -0.16794871583105, 0
781, 0.43028029163388, -0.16499228478031, 0
782, 0.42923951383204, -0.1910221729321, 0
783, 0.49201669449125, -0.21430808145944, 0
784, 0.4919249033631, -0.18131944198775, 0
785, 0.45843822592602, -0.17151276428671, 0
786, 0.30154841657035, -0.089502668172442, 0
787, 0.24248871729516, -0.061832369023058, 0
788, 0.27283649501805, -0.10090673558919, 0
789, 0.31102582295894, -0.11149216095452, 0
790, 0.29975977292665, -0.12591920124987, 0
791, 0.33384864860328, -0.13496909917763, 0
792, 0.32557123842976, -0.12818747097072, 0
793, 0.33534050905744, -0.19002731067092, 0
794, 0.3437217365747, -0.12435149100615, 0
795, 0.33677958330814, -0.11824453125606, 0
796, 0.31761489313259, -0.12014640841105, 0
797, 0.33047821109139, -0.11137124704521, 0
798, 0.32492387993956, -0.10382821305978, 0
799, 0.31214820243645, -0.046532208864166, 0
800, 0.30820045134994, -0.068747743582868, 0
801, 0.2271596981088, -0.11993169697568, 0
802, 0.26894104486878, -0.053120946896133, 0
803, 0.31378620058872, -0.073797996506864, 0
804, 0.28343995922479, -0.042161318988621, 0
805, 0.29991902779391, -0.060131719540003, 0
806, 0.30277282753792, -0.048700358628448, 0
807, 0.31829017554373, -0.091394493988254, 0
808, 0.20779951807771, -0.12385410579945, 0
809, 0.29193817506803, -0.062027567374054, 0
810, 0.31541275910881, -0.082581764924642, 0
811, 0.28874088564959, -0.068022632095821, 0
812, 0.23169131337356, -0.13754584659101, 0
813, 0.301025006636, -0.083559426423849, 0
814, 0.3208150455905, -0.077667527805827, 0
815, 0.3067326364424, -0.045524075619774, 0
816, 0.32558327881216, -0.089238398390829, 0
817, 0.26364767563355, -0.045272659750017, 0
818, 0.23528870394478, -0.048838794803387, 0
819, 0.22499961937273, -0.10066700935295, 0
820, 0.26822737897584, -0.023105191933425, 0
821, 0.27883453031205, -0.012658847996352, 0
822, 0.27803730542448, -0.020913544546917, 0
823, 0.30553143338662, -0.052213560331906, 0
824, 0.28428925672254, -0.099522468165938, 0
825, 0.30181055352964, 0.001158233163756, 0
826, 0.28845337301299, 0.0072217088575829, 0
827, 0.2696597942834, -0.067236062967271, 0
828, 0.29417034996758, -0.019256533900416, 0
829, 0.93004260668006, 0.17251723181642, 0
830, 0.72163945164244, 0.28552002711646, 0
831, 0.70627039518656, 0.15842492779997, 0
832, 0.8585107929815, 0.17787186267967, 0
833, 0.66284741064661, 0.2253045726362, 0
834, 0.8308877614495, 0.12902411353012, 0
835, 0.73406547322199, 0.236880640208, 0
836, 0.85600593682454, 0.2220006763653, 0
837, 0.70735582756866, 0.24310016951844, 0
838, 0.62483181315194, 0.23699635084391, 0
839, 0.65569015392003, 0.25358014600924, 0
840, 0.68353520042397, 0.27427913723502, 0
841, 0.59386493621094, 0.25217929348391, 0
842, 0.59158855666344, 0.24731712409588, 0
843, 0.68112571111627, 0.22454735374226, 0
844, 0.65419719492263, 0.28640944747261, 0
845, 0.6548253816415, 0.21276575615246, 0
846, 0.58514891835587, 0.25450037599099, 0
847, 0.66876979452523, 0.27480331608186, 0
848, 0.62224020992839, 0.26054326396173, 0
849, 0.64461669982824, 0.26184851155841, 0
850, 0.64706204016179, 0.245294280285, 0
851, 0.64102917941956, 0.23250053658036, 0
852, 0.61418992351608, 0.24134512013875, 0
853, 0.51076665911222, 0.28837985094091, 0
854, 0.53908407105347, 0.27617467162151, 0
855, 0.48309965693727, 0.26497908863195, 0
856, 0.52308912916709, 0.27783257466233, 0
857, 0.55483515128232, 0.28277563688397, 0
858, 0.55697428717944, 0.26073351300893, 0
859, 0.57390233182678, 0.27493600912819, 0
860, 0.56463306032046, 0.2627693758037, 0
861, 0.57611976376738, 0.26383256485144, 0
862, 0.57338194492945, 0.25564183276455, 0
863, 0.54905407669062, 0.26393176519343, 0
864, 0.57689335512804, 0.25556654797402, 0
865, 0.62291962079782, 0.23249186605506, 0
866, 0.6109053226767, 0.25088785763065, 0
867, 0.60138171779891, 0.25575775889154, 0
868, 0.63233959979315, 0.22446945592007, 0
869, 0.63211341200533, 0.2289456722344, 0
870, 0.61514896344572, 0.24779875213212, 0
871, 0.69583947500891, 0.16462838799845, 0
872, 0.75452613393928, 0.18323329624305, 0
873, 0.6808152467459, 0.1898383727296, 0
874, 0.71714418834102, 0.15425594055534, 0
875, 0.69850914069138, 0.20095992208531, 0
876, 0.69398800923716, 0.16708581300439, 0
877, 0.70239844816595, 0.1674250977842, 0
878, 0.70233584344049, 0.21889394778248, 0
879, 0.71154620609017, 0.22693070832898, 0
880, 0.6784275103096, 0.2029717668057, 0
881, 0.70267586915493, 0.15545636443102, 0
882, 0.69138914197289, 0.20983361637748, 0
883, 0.63598019320553, 0.23318745294103, 0
884, 0.67138155692273, 0.20981584781264, 0
885, 0.64629381159708, 0.23137778075452, 0
886, 0.6133188061061, 0.23586556413356, 0
887, 0.69646453436996, 0.18966058596331, 0
888, 0.71617494060898, 0.20672432940559, 0
889, 0.71453717552564, 0.14688383680093, 0
890, 0.70138555547587, 0.1959100307915, 0
891, 0.77879050026439, 0.14406309455021, 0
892, 0.7106610694894, 0.14041362364461, 0
893, 0.69556944029088, 0.17320311316711, 0
894, 0.74025583885704, 0.092322648583631, 0
895, 0.72705813959495, 0.15320907867788, 0
896, 0.73670053925737, 0.13612609343764, 0
897, 0.76115994093643, 0.088587586805883, 0
898, 0.72314919827764, 0.068529796950871, 0
899, 0.71857093611964, 0.058790368942533, 0
900, 0.73890380742778, 0.062256251240684, 0
901, 0.79444834706123, 0.025374819901553, 0
902, 0.90543106480708, 0.22646269427689, 0
903, 0.73991118289026, 0.1177254719943, 0
904, 0.78248627450502, 0.13485373471502, 0
905, 0.73906122862579, 0.15111374226151, 0
906, 0.89243971288989, 0.13422427007826, 0
907, 0.86758122072575, 0.1364708809627, 0
908, 0.89851480317147, 0.1683160926563, 0
909, 0.79253542896569, 0.22155695550266, 0
910, 0.72127312022978, 0.02063402405511, 0
911, 0.77515985703072, 0.15269485302018, 0
912, 0.72857504577331, 0.080999764743549, 0
913, 0.73645089536716, 0.087883072589361, 0
914, 0.76730849199751, 0.096458536798348, 0
915, 0.71813094366688, 0.08704868271451, 0
916, 0.72676828856589, 0.094521002948514, 0
917, 0.7646665024309, 0.057568265012309, 0
918, 0.79297908000434, 0.05493926533019, 0
919, 0.73950182007122, 0.0022767629974711, 0
920, 0.84881077470518, -0.0084371415869514, 0
921, 0.83436053084701, 0.040579381945538, 0
922, 0.73111721071306, 0.019148212033696, 0
923, 0.78574152375029, 0.11513858495782, 0
924, 0.72856590402629, 0.041744339987879, 0
925, 0.746410379831, 0.078289170538543, 0
926, 0.7225708885293, 0.087568695353016, 0
927, 0.71727885977641, 0.10294129017601, 0
928, 0.72073148265164, 0.093237648171333, 0
929, 0.71578664071378, 0.12371955343568, 0
930, 0.81411509297194, 0.23325216331989, 0
931, 0.71654754674796, 0.095171237881685, 0
932, 0.74757280925949, 0.057726879932605, 0
933, 0.72075179302863, 0.033224258796964, 0
934, 0.73838289458281, 0.10600984047613, 0
935, 0.74046264298756, 0.057010695551691, 0
936, 0.72911974892463, 0.037347298629574, 0
937, 0.89980926685192, -0.096286611634856, 0
938, 0.90064589466618, -0.047569453021207, 0
939, 0.69132472603338, -0.11326046288493, 0
940, 0.73884517200003, -0.049808583290288, 0
941, 0.79248099427819, -0.14948570817523, 0
942, 0.71485930314021, -0.070686722291621, 0
943, 0.71229928851423, -0.059402374852385, 0
944, 0.72528429557735, -0.078907463953767, 0
945, 0.7654769358016, -0.095607551072688, 0
946, 0.71225371518695, -0.1119081890853, 0
947, 0.71695249929929, -0.027271846191865, 0
948, 0.6942262736921, -0.096962006365035, 0
949, 0.70847412233461, -0.07138307808877, 0
950, 0.68602581169825, -0.11083730537051, 0
951, 0.84009987213643, -0.045624551397729, 0
952, 0.74585759356953, 0.063735525542168, 0
953, 0.72633508782335, -0.007311024780831, 0
954, 0.71682777195992, -0.015019823300217, 0
955, 0.73040617455655, -0.015043047709459, 0
956, 0.86140688106345, 0.061119375917835, 0
957, 0.75849498996005, -0.012117749730269, 0
958, 0.71418444389998, -0.027527402651298, 0
959, 0.72769309248737, -0.018474945468205, 0
960, 0.72837730711085, -0.025635876643382, 0
961, 0.71589070804658, -0.018436437611887, 0
962, 0.71416098437423, -0.02449925407168, 0
963, 0.69846347356885, -0.091887368562659, 0
964, 0.71936857481427, -0.020929958385926, 0
965, 0.71123296533473, -0.063470686578336, 0
966, 0.7131442174998, -0.055276341409861, 0
967, 0.73091787207138, -0.084422836320059, 0
968, 0.73469035397693, -0.078511367703485, 0
969, 0.6969145608481, -0.1010609182435, 0
970, 0.7313960355092, -0.061506689051971, 0
971, 0.71946188156955, -0.043047529693372, 0
972, 0.71291583324553, -0.074913655386043, 0
973, 0.73705244667078, -0.042733991896067, 0
974, 0.69552110525044, -0.10506975586428, 0
975, 0.77533123087206, -0.020315200258377, 0
976, 0.79518339494592, -0.04862857672819, 0
977, 0.71212306311512, -0.10512851720046, 0
978, 0.68524504812048, -0.12084639628605, 0
979, 0.70547193775884, -0.085787469620326, 0
980, 0.69658517518694, -0.12982063455909, 0
981, 0.71872279871617, -0.057036771510735, 0
982, 0.74284350296408, -0.10008266615575, 0
983, 0.60625181089777, -0.15602470896385, 0
984, 0.57571192968353, -0.1581422951066, 0
985, 0.61013657239786, -0.1829163129331, 0
986, 0.53414066391412, -0.18579319999196, 0
987, 0.58238714278056, -0.16725556282026, 0
988, 0.56736460421191, -0.16854930384417, 0
989, 0.62906429679815, -0.17921295621084, 0
990, 0.60377312894559, -0.19093239535718, 0
991, 0.67646908963539, -0.17753155408065, 0
992, 0.58534666001228, -0.17353657421224, 0
993, 0.58721712615507, -0.16840128303014, 0
994, 0.64061424862579, -0.17463802860021, 0
995, 0.54881234154359, -0.19529953897412, 0
996, 0.60908962197508, -0.17577810492311, 0
997, 0.66600874884361, -0.22062704237725, 0
998, 0.56358723047955, -0.18991938195595, 0
999, 0.57374921103978, -0.15960509266463, 0
1000, 0.51265293681369, -0.20688121734153, 0
1001, 0.52968506272256, -0.17087477471596, 0
1002, 0.51514215995316, -0.18874238955571, 0
1003, 0.61648154990144, -0.20668173150452, 0
1004, 0.59588121079107, -0.21927206513042, 0
1005, 0.52835594929482, -0.18514161819273, 0
1006, 0.47604921452575, -0.17887273070882, 0
1007, 0.59786276701962, -0.16337862739297, 0
1008, 0.60721977725458, -0.16235771465158, 0
1009, 0.47029295709076, -0.18541750872292, 0
1010, 0.50224671597699, -0.18723648251066, 0
1011, 0.45700810637458, -0.21286862170507, 0
1012, 0.56902792030538, -0.18535069466202, 0
1013, 0.49656867210486, -0.17098241113652, 0
1014, 0.52422691082721, -0.20221206111898, 0
1015, 0.5770341184222, -0.17601350699063, 0
1016, 0.50565275652578, -0.23447949956395, 0
1017, 0.48505743257978, -0.1977182895705, 0
1018, 0.61408257235146, -0.22998580543174, 0
1019, 0.66601023545518, -0.16138150380111, 0
1020, 0.58204987766794, -0.23068974812188, 0
1021, 0.53841207046446, -0.17012315646018, 0
1022, 0.55901884302214, -0.17283034249493, 0
1023, 0.65663605264026, -0.13742964456625, 0
1024, 0.65455110977456, -0.18544900701612, 0
1025, 0.79313889500671, -0.23699091861111, 0
1026, 0.75808046454567, -0.14113757459402, 0
1027, 0.71999562724016, -0.074437633039885, 0
1028, 0.71415212500305, -0.14688447945806, 0
1029, 0.62109063402506, -0.15927130604851, 0
1030, 0.61338422050682, -0.16814273878481, 0
1031, 0.68287184583645, -0.15684696819865, 0
1032, 0.64186728002288, -0.1430290420305, 0
1033, 0.66929980984922, -0.14291510063565, 0
1034, 0.70260705391403, -0.16813245948743, 0
1035, 0.75193081285099, -0.23993710785395, 0
1036, 0.63333363201657, -0.1620410459836, 0
1037, 0.67459126811487, -0.14220911446235, 0
1038, 0.66836481697345, -0.1548234775579, 0
1039, 0.62146615225951, -0.19671209550754, 0
1040, 0.65988381347388, -0.15811275266348, 0
1041, 0.66456615734099, -0.14302670093274, 0
1042, 0.63481469344351, -0.17708575045595, 0
1043, 0.63720275695445, -0.20390427637573, 0
1044, 0.66809680094921, -0.13784193655363, 0
1045, 0.63061682051769, -0.1485716294846, 0
1046, 0.64848334783321, -0.13876504262403, 0
1047, 0.69161475450234, -0.15613070581837, 0
1048, 0.56730864398057, -0.16271755813156, 0
1049, 0.74457455876858, -0.26009657141982, 0
1050, 0.54018489771614, -0.18590171459444, 0
1051, 0.64039227518675, -0.19751465385443, 0
1052, 0.74412415520675, -0.14484514506925, 0
1053, 0.67410653043333, -0.12267186270112, 0
1054, 0.63828837383346, -0.15205463554152, 0
1055, 0.65937032110943, -0.13607394140701, 0
1056, 0.86006590260084, -0.20674858745527, 0
1057, 0.9058726839476, -0.20138196148193, 0
1058, 0.90371822625772, -0.14931099132498, 0
1059, 0.85634979372411, -0.15630476651952, 0
1060, 0.81506044943112, -0.16649372567093, 0
1061, 0.79645665249447, -0.17142366493569, 0
1062, 0.8169563935568, -0.21267757358445, 0
1063, 0.61678527716692, -0.18222325192176, 0
1064, 0.24175326763054, 0.2231178664556, 0
1065, 0.30546325192074, 0.28222789039981, 0
1066, 0.54922783200226, 0.28509811274413, 0
1067, 0.57301932503271, 0.28315628198624, 0
1068, 0.54482311938448, 0.26519052179403, 0
1069, 0.53987996109765, -0.22097439218349, 0
1070, 0.5142167642594, -0.22284355056636, 0
1071, 0.47732597860803, -0.25507478412676, 0
1072, 0.81518576530113, 0.24948713643136, 0
1073, 0.78615131430603, 0.15567450306178, 0
1074, 0.54418494225613, 0.2749410482803, 0
1075, 0.56735377862458, 0.25995671290607, 0
1076, 0.97541305253407, 0.09680129526164, 0
1077, 0.83842306555593, 0.056246109745918, 0
1078, 0.75276222974885, 0.045163469374937, 0
1079, 0.6688510644021, -0.17260757049894, 0
1080, 0.65291309054141, -0.14779258250251, 0
1081, 0.68092655508417, -0.25997176798692, 0
1082, 0.7309160033588, 0.14783655830778, 0
1083, 0.74239587333633, 0.16193597568929, 0
1084, 0.80678834603952, 0.1436707962612, 0
1085, 0.36572545763811, 0.24474290485676, 0
1086, 0.30357540914788, 0.23620827497143, 0
1087, 0.31042668075973, 0.22539442800332, 0
1088, 0.41420804082325, 0.24501588509633, 0
1089, 0.40332869846374, 0.27288674807633, 0
1090, 0.42990117790819, 0.24554689680233, 0
1091, 0.66266701669876, -0.13482533484436, 0
1092, 0.68007161185713, -0.1407006517424, 0
1093, 0.63982519921004, 0.24501557992174, 0
1094, 0.66932493935586, 0.28712363641241, 0
1095, 0.62053895442846, 0.25156705749621, 0
1096, 0.72900148164063, -0.037421650342248, 0
1097, 0.77485044755014, 0.03261150691015, 0
1098, 0.73786912500044, -0.0026432671051946, 0
1099, 0.71353790540627, 0.15829892074211, 0
1100, 0.70397714352148, 0.17106875261724, 0
1101, 0.688216629574, 0.20257074520779, 0
1102, 0.8116612262691, 0.1334660973305, 0
1103, 0.76726992058473, 0.14152513171008, 0
1104, 0.78595936135127, 0.042840718435575, 0
1105, 0.62106575898726, -0.24226994527114, 0
1106, 0.72563498357095, -0.20212398166746, 0
1107, 0.69983688440996, -0.18414643081074, 0
1108, 0.52018676021879, -0.21209445457357, 0
1109, 0.46900906370417, -0.2014480239048, 0
1110, 0.46031522508726, -0.25981240803925, 0
1111, 0.95258551682368, 0.081318249893913, 0
1112, 0.7361168167555, 0.04211505512653, 0
1113, 0.72494122525382, -0.021477217280375, 0
1114, 0.17986569571042, -0.027036548419166, 0
1115, 0.18431697022193, 0.029798027093625, 0
1116, 0.11483000863485, -0.061318755201785, 0
1117, 0.36313566529041, 0.27083917857718, 0
1118, 0.37511744937664, 0.29070462890131, 0
1119, 0.83878443568755, 0.10195538350995, 0
1120, 0.97664486705445, 0.071337612730237, 0
1121, 0.73102113964227, 0.023699216098754, 0
1122, 0.63699935869793, -0.16827616001988, 0
1123, 0.68651228303675, -0.12889366789672, 0
1124, 0.15433696361881, 0.15599106412228, 0
1125, 0.25955797825962, 0.081127509817644, 0
1126, 0.27065354473382, 0.17076933688643, 0
1127, 0.24749955939455, 0.18167763539106, 0
1128, 0.46222627647101, -0.19242699878228, 0
1129, 0.55225664642574, -0.22429162324214, 0
1130, 0.54691474759413, -0.25824755187222, 0
1131, 0.66827565039396, 0.22225974269336, 0
1132, 0.62738107214523, 0.24263026147812, 0
1133, 0.64064754267079, 0.22675039197062, 0
1134, 0.80795575279712, 0.18955123236107, 0
1135, 0.84795302235239, 0.16325754504143, 0
1136, 0.30234754422963, 0.27364840440949, 0
1137, 0.34971279647266, 0.24648232835638, 0
1138, 0.20507336962667, -0.21627784923376, 0
1139, 0.19380658673131, -0.19703823326733, 0
1140, 0.30834013160736, -0.083272000277923, 0
1141, 0.49888806111755, -0.18329203519428, 0
1142, 0.52538639977519, -0.17103375037207, 0
1143, 0.57200007486199, -0.19897356105011, 0
1144, 0.69647226013569, 0.23054787825989, 0
1145, 0.69328126276201, 0.21613064808435, 0
1146, 0.68813492155433, 0.21399654917575, 0
1147, 0.94016140180705, 0.15028028790747, 0
1148, 0.74089362456328, 0.018091458294371, 0
1149, 0.74116314814521, 0.012688733908386, 0
1150, 0.54906251336751, 0.27327369233578, 0
1151, 0.54046689468565, 0.26620327555928, 0
1152, 0.70061950472887, -0.085652492409007, 0
1153, 0.73933195872673, -0.11604099295442, 0
1154, 0.73206460225626, -0.24079561585742, 0
1155, 0.83235268714608, 0.21199340005715, 0
1156, 0.79023782592732, 0.28387559948399, 0
1157, 0.41356851900569, 0.28064415532782, 0
1158, 0.42407614654404, 0.24854612962765, 0
1159, 0.4443398193225, 0.26212638722166, 0
1160, 0.85126192714088, 0.12506108344296, 0
1161, 0.71909036333527, 0.27107667424034, 0
1162, 0.86768937509116, 0.19476758943628, 0
1163, 0.70814766580532, -0.08253353990795, 0
1164, 0.75735496746211, -0.21962679593181, 0
1165, 0.69836572189847, -0.094127965146889, 0
1166, 0.73605649062319, -0.019746001241968, 0
1167, 0.71737721640036, 0.10699907063011, 0
1168, 0.82002024149974, 0.09650232264116, 0
1169, 0.32834353925152, -0.14022830221327, 0
1170, 0.32061403376313, -0.13389061367869, 0
1171, 0.32971696857172, -0.13146723680993, 0
1172, 0.6025482400506, 0.27031463322579, 0
1173, 0.60660078739945, 0.24647379789542, 0
1174, 0.35188952256217, -0.21498344658751, 0
1175, 0.39367092532433, -0.1526960014956, 0
1176, 0.46082056884037, 0.25486300086733, 0
1177, 0.53383758467378, 0.2770350710756, 0
1178, 0.47933199654075, 0.25605452195268, 0
1179, 0.39251713044118, -0.24660071153976, 0
1180, 0.35192972341653, -0.12198072366375, 0
1181, 0.70845727991217, 0.16889790291425, 0
1182, 0.70038733140928, 0.15878066683572, 0
1183, 0.73074300546475, 0.18052058185824, 0
1184, 0.4597724485613, -0.20135037504272, 0
1185, 0.52922747578685, -0.21689611189867, 0
1186, 0.48566064287616, -0.17772676923198, 0
1187, 0.30467114577916, -0.11632053397089, 0
1188, 0.31438153988465, -0.11575367809469, 0
1189, 0.31092611627754, -0.1243471468706, 0
1190, 0.7415980720986, 0.26943235362072, 0
1191, 0.34275141042408, -0.13263565311923, 0
1192, 0.39748443685182, -0.15478226595216, 0
1193, 0.70974167756017, -0.093997954567872, 0
1194, 0.7145299316505, -0.042833330910778, 0
1195, 0.70279011500644, -0.082427702862908, 0
1196, 0.62701802672516, 0.25532227094462, 0
1197, 0.6193752199323, 0.2311863430219, 0
1198, 0.62819444278198, 0.22948679182606, 0
1199, 0.73049078740507, 0.065631034938077, 0
1200, 0.75525496431684, 0.057944363376906, 0
1201, 0.7598195021096, 0.12358025665041, 0
1202, 0.70033006528312, -0.090627749998404, 0
1203, 0.72208863381033, -0.069549349324986, 0
1204, 0.8356119116601, -0.066750913807369, 0
1205, 0.51140676668635, -0.19506305131575, 0
1206, 0.44284808553427, -0.17053217698885, 0
1207, 0.44195966614912, 0.25550541729384, 0
1208, 0.43053319049739, 0.26186874370843, 0
1209, 0.44427413307824, 0.25096933645595, 0
1210, 0.29107588912359, -0.052745869061791, 0
1211, 0.3223849175158, -0.09984635214762, 0
1212, 0.31331739964082, -0.065556271465618, 0
1213, 0.79854897394878, 0.12821517342768, 0
1214, 0.75102614292588, 0.072086216325268, 0
1215, 0.37137512025127, -0.16303585996183, 0
1216, 0.61598414800744, 0.25553840134985, 0
1217, 0.59545555384983, 0.27145004383817, 0
1218, 0.37014937619942, 0.23807882564474, 0
1219, 0.33887733548939, 0.23662010103419, 0
1220, 0.37523934029922, 0.26374545939612, 0
1221, 0.8095978638428, -0.14277922264375, 0
1222, 0.30209652493417, -0.032833391124464, 0
1223, 0.18327017233727, -0.10674188323533, 0
1224, 0.30260832264837, -0.055853074914699, 0
1225, 0.12301611962396, -0.25397107941266, 0
1226, 0.098249903512036, -0.16874213265575, 0
1227, 0.096582328078176, -0.27595124546936, 0
1228, 0.27561233583803, 0.1946246506318, 0
1229, 0.26792348761397, 0.19252743761485, 0
1230, 0.27124695171867, 0.19992971182792, 0
1231, 0.29440648087495, -0.097494634110777, 0
1232, 0.30513558714891, -0.10121163922147, 0
1233, 0.28154693943078, -0.003511607291687, 0
1234, 0.43387377358115, -0.1998492222215, 0
1235, 0.55136594592559, -0.16782530506928, 0
1236, 0.30082585131148, -0.014063687674358, 0
1237, 0.30146396164136, 0.053424709693553, 0
1238, 0.095742440615967, -0.0015806848615996, 0
1239, 0.18524081289627, 0.0015505003355289, 0
1240, 0.29228007757065, 0.063341275414065, 0
1241, 0.71764419719416, -0.023359618390968, 0
1242, 0.71456538645646, -0.034788567403516, 0
1243, 0.29614962731779, -0.0090969019159638, 0
1244, 0.30031585858347, 0.0092751326309858, 0
1245, 0.30587724720132, 0.0056395313720424, 0
1246, 0.73564169961827, -0.0071357883728356, 0
1247, 0.28350012536183, 0.15582774806208, 0
1248, 0.29413444770708, -0.25650003818492, 0
1249, 0.36938521323825, -0.26201275178516, 0
1250, 0.74391528320217, 0.22352757573095, 0
1251, 0.30873147205548, -0.049147188338008, 0
1252, 0.30028491167274, -0.044653731911417, 0
1253, 0.31720532898762, -0.062396364727061, 0
1254, 0.68174413668002, -0.12415978674452, 0
1255, 0.64212196687004, -0.14967955327498, 0
1256, 0.67411626236667, -0.19986597801419, 0
1257, 0.66238992156664, -0.17999934605688, 0
1258, 0.40667514320177, -0.17482730240201, 0
1259, 0.42335294524404, -0.2031683762987, 0
1260, 0.4274680477049, -0.17005909191714, 0
1261, 0.51747936021259, 0.28858046453707, 0
1262, 0.79454121214178, 0.16004062102127, 0
1263, 0.74857427418835, 0.10975255809953, 0
1264, 0.48874682605607, -0.17227363579462, 0
1265, 0.52924276461794, -0.17778468023152, 0
1266, 0.61357191271335, -0.19863147772691, 0
1267, 0.35562611982077, -0.19480610326908, 0
1268, 0.36405104973389, -0.14044692578345, 0
1269, 0.37396547022823, -0.17907159827199, 0
1270, 0.78832539049034, -0.00081981018134621, 0
1271, 0.72465493526556, -0.01110869218264, 0
1272, 0.7308014592601, 0.0098685550642715, 0
1273, 0.59230750138485, -0.16910847626569, 0
1274, 0.46587845210843, -0.17862426804696, 0
1275, 0.49431267678721, -0.18609442352555, 0
1276, 0.4689637172765, -0.21185845161281, 0
1277, 0.6779278578718, -0.1270679849272, 0
1278, 0.71227324864567, -0.24103957331725, 0
1279, 0.63799867444803, -0.15980751797967, 0
1280, 0.71707626324227, 0.071310466617382, 0
1281, 0.75857466264023, 0.1076598060906, 0
1282, 0.75389868075772, 0.065173808215797, 0
1283, 0.43784332979102, -0.16520854461188, 0
1284, 0.40323455427679, -0.16558718842091, 0
1285, 0.17883838455428, -0.064165523747525, 0
1286, 0.31862480748132, -0.069860040899652, 0
1287, 0.31662324624932, -0.087028938322014, 0
1288, 0.28599726181915, 0.10130698049305, 0
1289, 0.18856772792944, 0.17930128799488, 0
1290, 0.23772591661182, 0.16220289875687, 0
1291, 0.28852990588016, 0.24672335621, 0
1292, 0.31921124825952, 0.21708235714652, 0
1293, 0.34154317731145, 0.24010403236439, 0
1294, 0.25225899064275, 0.21956001388378, 0
1295, 0.2595282131552, 0.1912380295744, 0
1296, 0.27071138437163, 0.21546227960065, 0
1297, 0.7298286058517, 0.032860825900922, 0
1298, 0.72115166509886, -0.017993763002551, 0
1299, 0.2300910573106, 0.067084844938756, 0
1300, 0.29518411659419, 0.077787442573216, 0
1301, 0.29386280280071, 0.086046385986, 0
1302, 0.71954701388442, -0.047653680438143, 0
1303, 0.72463635932192, 0.078481892528583, 0
1304, 0.74139902053118, 0.08353483064181, 0
1305, 0.76126713666116, 0.025845556865569, 0
1306, 0.70394717245784, -0.13614037852678, 0
1307, 0.64527940312923, -0.14092199138469, 0
1308, 0.65428369425548, -0.13945821939135, 0
1309, 0.52405146124738, 0.28854149430209, 0
1310, 0.64687534417303, -0.16244088415927, 0
1311, 0.67261049910716, -0.1365390782826, 0
1312, 0.66036978761196, -0.14258601852794, 0
1313, 0.25591930685145, 0.1727880352932, 0
1314, 0.27233662890497, 0.17521944526814, 0
1315, 0.261303306886, 0.18065108575007, 0
1316, 0.30635533114476, -0.013798141784515, 0
1317, 0.26803383556575, -0.013893154446829, 0
1318, 0.30648264870914, -0.0021404925886362, 0
1319, 0.47229266858916, 0.26963087518176, 0
1320, 0.46635973191428, 0.27058451404959, 0
1321, 0.46913222815788, 0.25608408403317, 0
1322, 0.42613110136852, -0.18337918091318, 0
1323, 0.50626542592153, -0.21535670894285, 0
1324, 0.51708920274979, -0.17093736345819, 0
1325, 0.75406122229312, -0.12483193887575, 0
1326, 0.75756188596997, -0.10433393388733, 0
1327, 0.7247646334626, -0.043121335749227, 0
1328, 0.30388548963916, 0.046205663970531, 0
1329, 0.24174017118147, 0.1399197588655, 0
1330, 0.24812131348069, 0.080547478859289, 0
1331, 0.39187671425116, -0.17915977246788, 0
1332, 0.59824377118176, 0.27954962265985, 0
1333, 0.74416528960307, 0.038520980910285, 0
1334, 0.9040019052021, 0.097285715889337, 0
1335, 0.76751260378948, 0.23808439093132, 0
1336, 0.79664035737142, 0.067906043961998, 0
1337, 0.97631720909874, -0.031448119398983, 0
1338, 0.95286023662001, -0.01375621724693, 0
1339, 0.9766030817357, -0.0054067245894088, 0
1340, 0.7911237416273, 0.17221697133594, 0
1341, 0.91385946733698, 0.1900242388048, 0
1342, 0.79295212519107, 0.20734197455962, 0
1343, 0.73006581518356, 0.0053722956401129, 0
1344, 0.73161250779591, -0.030577758786336, 0
1345, 0.74985302676553, -0.0011597414345458, 0
1346, 0.49539486600947, 0.26454122898313, 0
1347, 0.46721028433355, 0.27660578352515, 0
1348, 0.045638981811123, -0.057105891895571, 0
1349, 0.022775437673893, -0.084477339636727, 0
1350, 0.022901087775395, -0.027041561735471, 0
1351, 0.02282898017786, -0.055770948717302, 0
1352, 0.85317503137648, 0.009067115433972, 0
1353, 0.74780937537976, 0.04699573026118, 0
1354, 0.74207733001229, 0.047057570817821, 0
1355, 0.83386585530125, -0.25568261976087, 0
1356, 0.85432675156653, -0.27726454961403, 0
1357, 0.80566228812214, -0.27874351669824, 0
1358, 0.82991401258121, -0.27803501869787, 0
1359, 0.81610333095932, 0.12194363251995, 0
1360, 0.97059123037717, 0.14815730954851, 0
1361, 0.84046347453535, 0.087154783830319, 0
1362, 0.58953067249249, -0.18124525531142, 0
1363, 0.60284384393139, -0.16934061823175, 0
1364, 0.65059094024044, -0.22006446803627, 0
1365, 0.57796133745211, -0.16569936938473, 0
1366, 0.51208634368775, 0.27752308194503, 0
1367, 0.46047496521349, 0.29185672179836, 0
1368, 0.72293063120857, 0.10102521467965, 0
1369, 0.75343754401776, 0.082530803287862, 0
1370, 0.72380781804522, 0.11912984497753, 0
1371, 0.78254671575596, 0.093217956500544, 0
1372, 0.60666337749593, 0.27847003213884, 0
1373, 0.63123484042736, 0.23343827999024, 0
1374, 0.47796476531369, 0.26779858338497, 0
1375, 0.51761888353831, 0.27782059423422, 0
1376, 0.50378806209862, 0.28791001377302, 0
1377, 0.47736552233209, 0.28992370420427, 0
1378, 0.60508320529696, 0.26153661193269, 0
1379, 0.45014260702813, -0.19909275196189, 0
1380, 0.50943895919481, -0.17037755059265, 0
1381, 0.44173206321516, -0.22858990408785, 0
1382, 0.14676778945414, -0.25744589479187, 0
1383, 0.21444899310628, -0.25820103234191, 0
1384, 0.24210144420838, -0.27856010757859, 0
1385, 0.11935534779161, -0.13964678172921, 0
1386, 0.95247469900793, -0.1698048494655, 0
1387, 0.9760433768323, -0.1393428845384, 0
1388, 0.97634053651915, -0.19431536237405, 0
1389, 0.9762080782781, -0.16688708458531, 0
1390, 0.95146777922976, -0.11598123504745, 0
1391, 0.97578622670173, -0.084611414607905, 0
1392, 0.97588151714875, -0.11187346323114, 0
1393, 0.5855313027018, -0.19589937147736, 0
1394, 0.59638314008661, -0.18260752785465, 0
1395, 0.58964820527661, -0.15845400967066, 0
1396, 0.57407588585101, -0.16371188382218, 0
1397, 0.27121471446638, 0.01389110457708, 0
1398, 0.28778291133857, 0.013256847636484, 0
1399, 0.29288768605547, 0.048106658274534, 0
1400, 0.28480588127307, 0.065977613383482, 0
1401, 0.62216925431838, 0.24074722194534, 0
1402, 0.68275027961229, 0.23724462755301, 0
1403, 0.65353819631801, 0.23692609181036, 0
1404, 0.40742200434978, 0.25723294052988, 0
1405, 0.41291111192042, 0.25652527611482, 0
1406, 0.43369369390204, 0.25178387785791, 0
1407, 0.67246367089114, 0.24106972446944, 0
1408, 0.58778944618501, 0.24871360007754, 0
1409, 0.95156863424448, -0.063620629603619, 0
1410, 0.97595627933099, -0.057824386313796, 0
1411, 0.13407777363026, -0.20003775276367, 0
1412, 0.074051967752629, -0.22403848169649, 0
1413, 0.047961351697693, -0.27482951805641, 0
1414, 0.095041718746237, -0.14093028255863, 0
1415, 0.48904551931862, -0.18857842039731, 0
1416, 0.46284748714463, -0.17224824830169, 0
1417, 0.58423058300869, -0.16299972254442, 0
1418, 0.65873416254456, 0.21878595725486, 0
1419, 0.64510630941545, 0.22518832072294, 0
1420, 0.2900228780309, 0.072417857300022, 0
1421, 0.2819264203309, 0.14336410537039, 0
1422, 0.49632112820178, 0.28709439600682, 0
1423, 0.46807810402106, 0.28347430616979, 0
1424, 0.47085789904351, 0.26477932214061, 0
1425, 0.88038100584361, 0.011867617385621, 0
1426, 0.80680468160629, 0.039884375341366, 0
1427, 0.61892660353531, 0.24438378583923, 0
1428, 0.60627385055594, 0.25355590645973, 0
1429, 0.91788943416826, 0.27541564416456, 0
1430, 0.83933722719544, 0.26354276284333, 0
1431, 0.8949989797991, 0.20327538582811, 0
1432, 0.43297669247322, 0.24701739234893, 0
1433, 0.42784960364635, 0.24416225617041, 0
1434, 0.40562559583453, 0.24443557573067, 0
1435, 0.5950061516178, -0.20801924958189, 0
1436, 0.58556939453199, -0.15871109310922, 0
1437, 0.57342711406285, -0.18062413192782, 0
1438, 0.76528588132344, -0.11851554371243, 0
1439, 0.75814380963595, -0.052771724591071, 0
1440, 0.60995520149018, 0.23809626721548, 0
1441, 0.64160381599432, 0.27153980289388, 0
1442, 0.12116242892981, 0.24879885131976, 0
1443, 0.098963653376434, 0.2739948607378, 0
1444, 0.14813546454846, 0.27624060259151, 0
1445, 0.12376032426819, 0.27485149950844, 0
1446, 0.45242529904874, -0.18199400424289, 0
1447, 0.52679851774255, -0.19322144681415, 0
1448, 0.23689651234222, 0.019221673363269, 0
1449, 0.29421471979449, 0.013520301894996, 0
1450, 0.29105232628199, 0.067825525097851, 0
1451, 0.7314860903924, 0.076892500266875, 0
1452, 0.76393825294761, 0.066698287689124, 0
1453, 0.75458438372608, 0.051145020883417, 0
1454, 0.71538175245963, 0.088202024307004, 0
1455, 0.73196530356281, 0.060935190755795, 0
1456, 0.71955838129234, -0.026000456220318, 0
1457, 0.76542686886198, 0.0023933392151191, 0
1458, 0.46521423401498, 0.26024456347219, 0
1459, 0.48025523303238, 0.26200653766145, 0
1460, 0.52253900863093, 0.26806877378912, 0
1461, 0.049383535615602, 0.27340207603081, 0
1462, 0.024252737434298, 0.24676427526818, 0
1463, 0.024694859819506, 0.2734558814734, 0
1464, 0.41115690025386, 0.25059329394367, 0
1465, 0.43652114487893, 0.24842821014729, 0
1466, 0.41898347116981, 0.26979888426583, 0
1467, 0.54320519706988, 0.28665651153392, 0
1468, 0.27129523945484, 0.11297467898069, 0
1469, 0.29311442928861, 0.034391742036248, 0
1470, 0.39631738305176, 0.25032466242827, 0
1471, 0.40419434290028, 0.28154701625167, 0
1472, 0.3261587655528, 0.26417102400696, 0
1473, 0.39677784748299, 0.24342961996935, 0
1474, 0.62434270297663, 0.24719856886227, 0
1475, 0.62880418833908, 0.22575826669216, 0
1476, 0.95198166267615, -0.27456564660728, 0
1477, 0.9762227069598, -0.24795505529604, 0
1478, 0.97600864511433, -0.27405775111713, 0
1479, 0.023705555657206, 0.19238477951428, 0
1480, 0.047296789247505, 0.16403403979636, 0
1481, 0.023458152434207, 0.13772750311911, 0
1482, 0.023621623477096, 0.16500439276033, 0
1483, 0.48462120583098, -0.1727127504007, 0
1484, 0.60926033078209, -0.21860288221711, 0
1485, 0.046832608088095, 0.10948800357183, 0
1486, 0.023217460205519, 0.084090089696735, 0
1487, 0.023386075759911, 0.11088199548128, 0
1488, 0.046165579101393, -0.1133868412549, 0
1489, 0.02345505109925, -0.14120037394057, 0
1490, 0.023090090741802, -0.11290639566252, 0
1491, 0.48708640391347, -0.1829729161335, 0
1492, 0.43621688672769, -0.16910983267919, 0
1493, 0.49012042451336, -0.17674613317794, 0
1494, 0.44041810530016, -0.16470175775038, 0
1495, 0.52063995721989, -0.19118776154612, 0
1496, 0.60210530876035, -0.15680147921837, 0
1497, 0.41580718408872, 0.25020059768434, 0
1498, 0.42551741819529, 0.26603191259252, 0
1499, 0.7106682594115, -0.078884923974195, 0
1500, 0.71123231769584, -0.086596109063101, 0
1501, 0.71847435000635, -0.10344592612497, 0
1502, 0.736800286495, -0.091334476664281, 0
1503, 0.4818168272327, -0.18427660889014, 0
1504, 0.41234368989374, -0.18419317685288, 0
1505, 0.45818536201865, -0.1839331816043, 0
1506, 0.40803218076597, -0.16720351832306, 0
1507, 0.17066462988871, -0.22784353707637, 0
1508, 0.19223061369176, -0.27964659971353, 0
1509, 0.16883807815805, -0.25982011608865, 0
1510, 0.25220886946462, 0.15826708636193, 0
1511, 0.47416078692796, 0.26000477775288, 0
1512, 0.49059271719751, 0.27123558764002, 0
1513, 0.71777491350345, -0.030516243931174, 0
1514, 0.71624257329695, -0.0250467389993, 0
1515, 0.45484977929688, -0.19078449206723, 0
1516, 0.4879230448178, -0.20555796566825, 0
1517, 0.49795983114142, -0.17422796264778, 0
1518, 0.40950303737368, -0.16003125808701, 0
1519, 0.07282925272116, 0.24674415366338, 0
1520, 0.07422980723593, 0.27355418797113, 0
1521, 0.32853888559134, -0.23138863785194, 0
1522, 0.39846407244343, -0.18157622672477, 0
1523, 0.72309397207213, 0.12391377269673, 0
1524, 0.73108223309776, 0.123897470143, 0
1525, 0.72864157710927, 0.087762655191022, 0
1526, 0.71940281479016, 0.050143027334239, 0
1527, 0.72671488116249, 0.074505213431176, 0
1528, 0.35393318084024, -0.16388423528212, 0
1529, 0.38030219355818, -0.18410518156072, 0
1530, 0.36235444170758, -0.1355001396663, 0
1531, 0.88073977854567, -0.25269531057223, 0
1532, 0.90334473728504, -0.27578543588838, 0
1533, 0.87876265255871, -0.27647592963911, 0
1534, 0.37458815029559, 0.23927036720091, 0
1535, 0.3237559108191, 0.21373965283295, 0
1536, 0.38346652472699, 0.24125024183733, 0
1537, 0.29123657736121, 0.23955636577461, 0
1538, 0.59379745894994, -0.15802547632842, 0
1539, 0.55960820679271, -0.16552471250899, 0
1540, 0.7445666981918, -0.042311720922148, 0
1541, 0.72220617482448, -0.024008464229554, 0
1542, 0.72388962085604, -0.038180528673194, 0
1543, 0.43585751429383, 0.26527658184657, 0
1544, 0.44032258834518, 0.24974872192233, 0
1545, 0.41248372500266, -0.1759756446055, 0
1546, 0.33355159851743, -0.1446719509101, 0
1547, 0.56951331227406, 0.25743567399642, 0
1548, 0.56709320191848, 0.25511179130947, 0
1549, 0.48409494282329, 0.25945942201137, 0
1550, 0.65568536459948, 0.26330067332809, 0
1551, 0.59634986244549, 0.25748264591909, 0
1552, 0.65729099941854, 0.22781413492595, 0
1553, 0.69607337451115, 0.2599457420297, 0
1554, 0.29788678564384, -0.0051153465879459, 0
1555, 0.280671295229, 0.035207872985171, 0
1556, 0.27316036577641, 0.054605193756894, 0
1557, 0.77426070111843, 0.19639022330056, 0
1558, 0.86604968789662, 0.27986906103244, 0
1559, 0.9251691450126, 0.11083658873794, 0
1560, 0.65179635987494, -0.14191894682485, 0
1561, 0.62557261643109, -0.1577934827828, 0
1562, 0.65706277381715, -0.14164281184188, 0
1563, 0.63165785510511, -0.17044497526415, 0
1564, 0.39001250894086, -0.1504206042644, 0
1565, 0.36504182833125, -0.13138009197616, 0
1566, 0.72474992768243, -0.027833782503861, 0
1567, 0.80487726254713, -0.034957186719566, 0
1568, 0.73312511924067, -0.011282965561378, 0
1569, 0.47807326714642, 0.25916966310203, 0
1570, 0.5597389937157, 0.27942929656708, 0
1571, 0.56684921675201, 0.27038849961629, 0
1572, 0.40997327085936, 0.24478721734398, 0
1573, 0.4249693536415, 0.27866665494571, 0
1574, 0.61501260130556, -0.17508966150326, 0
1575, 0.6707922730227, -0.12510520309989, 0
1576, 0.66738478573746, 0.21303881890795, 0
1577, 0.66561794361957, 0.20484102962429, 0
1578, 0.6621251533748, 0.2076018738555, 0
1579, 0.29010077251643, -0.038322151147946, 0
1580, 0.28811166532752, -0.032540946297586, 0
1581, 0.19408925597274, -0.1490547828487, 0
1582, 0.27647315351752, -0.04696701264767, 0
1583, 0.69902314244986, 0.16920299513988, 0
1584, 0.69186727337367, 0.18443103187919, 0
1585, 0.72989727190601, 0.20953424371644, 0
1586, 0.18457516389664, -0.2225239093266, 0
1587, 0.19084346829579, -0.25959071529875, 0
1588, 0.24409335604023, -0.10099103037661, 0
1589, 0.31080985835615, -0.042779526679208, 0
1590, 0.4558105829709, 0.25913553548878, 0
1591, 0.45662748095723, 0.25404428271789, 0
1592, 0.60461428164073, -0.19925902877077, 0
1593, 0.58167540404892, -0.15879584310207, 0
1594, 0.66315723193068, 0.21605592824532, 0
1595, 0.63064102082242, 0.24973219028126, 0
1596, 0.33711599224855, -0.10705483451527, 0
1597, 0.32752241973132, -0.10770571837628, 0
1598, 0.33191876498828, -0.10023042371061, 0
1599, 0.33443866767078, -0.10369837295409, 0
1600, 0.3364796134303, -0.15558048437717, 0
1601, 0.35114129308992, -0.12960193495246, 0
1602, 0.36910344417067, -0.14671761072511, 0
1603, 0.36668527659229, -0.1408751070643, 0
1604, 0.36459390100408, -0.1484591264542, 0
1605, 0.30500373338928, 0.042959811631906, 0
1606, 0.30552644967567, 0.0097278370911953, 0
1607, 0.26898252773602, -0.0043644406648576, 0
1608, 0.72993125753916, 0.10327228567712, 0
1609, 0.53603649832628, 0.26698059942033, 0
1610, 0.64804123114509, -0.1973771364435, 0
1611, 0.68574246642787, -0.13824362419045, 0
1612, 0.65730184645181, -0.15050075469486, 0
1613, 0.72161791027814, -0.093670676077802, 0
1614, 0.74860847698107, -0.11109490581083, 0
1615, 0.74229427995086, -0.12912419496014, 0
1616, 0.73977644128399, 0.12375704077337, 0
1617, 0.74909628779044, 0.12370448718272, 0
1618, 0.77630146610424, -0.1550790395556, 0
1619, 0.62540613834616, -0.1876194960714, 0
1620, 0.68113572235409, -0.16684479749474, 0
1621, 0.68045054889002, -0.11715209027506, 0
1622, 0.742837392476, -0.20102926074819, 0
1623, 0.2931119893045, -0.083336617082536, 0
1624, 0.32750482967018, -0.092978603702788, 0
1625, 0.31650229446208, 0.27337688637984, 0
1626, 0.34354754930992, 0.22592438639926, 0
1627, 0.26693592231192, -0.25673327605396, 0
1628, 0.29334708043917, -0.27839455422057, 0
1629, 0.26769135759358, -0.27842316412825, 0
1630, 0.533595077159, -0.19475664569292, 0
1631, 0.60331983713286, -0.18314925890593, 0
1632, 0.50007771790514, -0.20803657292858, 0
1633, 0.48172044439112, -0.27580654936624, 0
1634, 0.52426641108393, -0.23006979967217, 0
1635, 0.71891472953652, 0.13805307418836, 0
1636, 0.7136398590039, 0.13217294588846, 0
1637, 0.68794347482777, 0.17986205768814, 0
1638, 0.71222259179972, 0.13634647641711, 0
1639, 0.74845481260606, 0.029065313650692, 0
1640, 0.74653581832577, 0.10338236416459, 0
1641, 0.73156695180084, 0.11322535861816, 0
1642, 0.71942189811289, 0.089870730477237, 0
1643, 0.29601398151467, 0.073622026709432, 0
1644, 0.3066586865644, -0.022222992236353, 0
1645, 0.29419782302156, -0.0026147544439891, 0
1646, 0.42616489162008, 0.25792728996106, 0
1647, 0.404600305971, 0.29069407099947, 0
1648, 0.4247839623394, 0.28999713618531, 0
1649, 0.41446589672834, 0.2903213379016, 0
1650, 0.49531220372811, -0.20112438107461, 0
1651, 0.49625549426058, -0.17940448367731, 0
1652, 0.63161504500278, -0.20007529315244, 0
1653, 0.58013493902015, -0.16229891466449, 0
1654, 0.38314177520686, -0.14556807713336, 0
1655, 0.36033912931491, -0.13977488014125, 0
1656, 0.44170268307165, -0.21128340726045, 0
1657, 0.46252166756269, -0.27911523015225, 0
1658, 0.53102116075606, -0.25330204166355, 0
1659, 0.28248922116077, 0.10361972588204, 0
1660, 0.2828166433735, 0.11129606579468, 0
1661, 0.29306416630484, 0.094192487838986, 0
1662, 0.33364111784842, -0.1148576381645, 0
1663, 0.34277948212717, -0.11342627924444, 0
1664, 0.33993247302484, -0.11028706335446, 0
1665, 0.42502198308913, -0.28167129519453, 0
1666, 0.38610359664742, -0.28157289385099, 0
1667, 0.40744822624636, -0.26419706626948, 0
1668, 0.40582417473616, -0.28187727371931, 0
1669, 0.43903473162195, -0.17274715135075, 0
1670, 0.43242716965603, -0.18162639050465, 0
1671, 0.42616280407054, -0.16444487587087, 0
1672, 0.31083810075472, -0.093424047058947, 0
1673, 0.30284270336152, -0.067291082698689, 0
1674, 0.3049593854693, -0.041544845610834, 0
1675, 0.66623949419523, -0.13337794752827, 0
1676, 0.65927615234559, -0.14641649554752, 0
1677, 0.62816615781624, -0.19422781468323, 0
1678, 0.28944007337145, 0.099476062908592, 0
1679, 0.30787143776751, -0.078242499940679, 0
1680, 0.3098607280045, -0.060625145873378, 0
1681, 0.3196217373345, -0.073748507094638, 0
1682, 0.92858798908388, -0.25011610707545, 0
1683, 0.92772067125825, -0.27514614947811, 0
1684, 0.7097474450739, 0.16191140793219, 0
1685, 0.71991702329856, 0.19888926384651, 0
1686, 0.70525613342208, 0.18013763371308, 0
1687, 0.34737857186503, -0.13500127362228, 0
1688, 0.34877116551472, -0.11927808688842, 0
1689, 0.34479105406022, -0.1653864762134, 0
1690, 0.28927654217133, 0.077053554682319, 0
1691, 0.28596301151753, 0.11950489159595, 0
1692, 0.68945868758242, -0.14605666189349, 0
1693, 0.6908534258341, -0.16831965497962, 0
1694, 0.68230460967172, -0.14806175725817, 0
1695, 0.77510071594136, -0.071874213489965, 0
1696, 0.69554769952536, -0.093722564910332, 0
1697, 0.77390281579292, -0.057245592646863, 0
1698, 0.74606045497515, 0.034115590289539, 0
1699, 0.71775358468681, -0.011446851436988, 0
1700, 0.32133371684623, -0.16255079213006, 0
1701, 0.27243807257164, -0.039885626921375, 0
1702, 0.30234648841877, -0.002325785883777, 0
1703, 0.30337774572859, -0.037305281418855, 0
1704, 0.2948872149318, -0.030139612248552, 0
1705, 0.76508519453655, 0.17134382652405, 0
1706, 0.70045393212517, 0.16436194040495, 0
1707, 0.68982717872544, 0.18832542145286, 0
1708, 0.69146576160791, 0.17309104596967, 0
1709, 0.6424185235137, -0.15724732630193, 0
1710, 0.68384548589439, -0.22117811276901, 0
1711, 0.70695249101793, 0.14823910038379, 0
1712, 0.69416000026702, 0.19413722911508, 0
1713, 0.68158420193142, 0.19945000703599, 0
1714, 0.74260304972921, 0.17506999133826, 0
1715, 0.69970301096693, 0.17642197968035, 0
1716, 0.71040383418864, 0.17355588268954, 0
1717, 0.20133334356406, 0.15560106745456, 0
1718, 0.22019455186738, 0.17129178476746, 0
1719, 0.72656415776001, -0.089515183698304, 0
1720, 0.71809301746271, -0.087883287570199, 0
1721, 0.71462432234163, -0.038762305228783, 0
1722, 0.70061470315291, -0.10575089653957, 0
1723, 0.04635290482828, 1.3563934422839e-05, 0
1724, 0.023074361625523, 0.02968647706355, 0
1725, 0.023079317420662, 0.0015011068076083, 0
1726, 0.71227417104168, 0.18479031347562, 0
1727, 0.71799460586515, 0.16237459756501, 0
1728, 0.70640864427144, 0.20365679011151, 0
1729, 0.69511095974951, 0.20561317927501, 0
1730, 0.70215748029631, 0.20905229337494, 0
1731, 0.68741552353195, 0.19215253477896, 0
1732, 0.69134461217519, 0.1984502229186, 0
1733, 0.50922251383571, -0.17917702243243, 0
1734, 0.44721644972012, -0.17933476755921, 0
1735, 0.41291529684068, -0.16843754300579, 0
1736, 0.3051322977941, 0.02215329667005, 0
1737, 0.25618815827139, 0.043041677091709, 0
1738, 0.57296001695967, 0.25270325597059, 0
1739, 0.57134097640793, 0.26220404679386, 0
1740, 0.26687432791068, 0.17184201970991, 0
1741, 0.19448508314677, 0.093396846481586, 0
1742, 0.2762563413558, 0.1844098911956, 0
1743, 0.26701408322438, 0.1631483061092, 0
1744, 0.67506540137751, 0.20644075822652, 0
1745, 0.67215906415324, 0.19905454006778, 0
1746, 0.66896288083515, 0.20198542809129, 0
1747, 0.57905040720235, -0.28095631920359, 0
1748, 0.60215005710545, -0.2623642470087, 0
1749, 0.62184251806651, -0.27930102751139, 0
1750, 0.59901390416412, -0.28090613147921, 0
1751, 0.70125967641956, -0.093447581939642, 0
1752, 0.70782511545503, -0.089574924159637, 0
1753, 0.78446641338175, 0.12537407103796, 0
1754, 0.76534734694699, 0.037961305368486, 0
1755, 0.73052969005225, -0.04299935126445, 0
1756, 0.74794709861834, -0.068933995300374, 0
1757, 0.50794122313272, -0.17391521793659, 0
1758, 0.49743648486168, -0.19108014995046, 0
1759, 0.47169248449326, -0.17303106759099, 0
1760, 0.18741966974699, -0.1282799841968, 0
1761, 0.31629544040168, -0.056011103572558, 0
1762, 0.3083264158017, -0.055156325203923, 0
1763, 0.024209582009797, -0.24904494015538, 0
1764, 0.023954648724684, -0.27462328794318, 0
1765, 0.74758998818214, -0.032534052670164, 0
1766, 0.71650619888318, -0.066269817610539, 0
1767, 0.62469319116026, 0.22952389248328, 0
1768, 0.69993200212977, 0.2729201981462, 0
1769, 0.53053989416359, 0.28825122753709, 0
1770, 0.67515012347558, 0.19604710130215, 0
1771, 0.82785312422318, 0.19665502428595, 0
1772, 0.26134384934484, 0.21683136589245, 0
1773, 0.26420942387604, 0.15863803645212, 0
1774, 0.26100808999898, 0.17421551422083, 0
1775, 0.39531642472412, 0.28192434044945, 0
1776, 0.33123197549697, 0.22294914529573, 0
1777, 0.39489603278521, 0.29088762730964, 0
1778, 0.36082774168485, 0.24301662252927, 0
1779, 0.30954718763465, 0.20262818090159, 0
1780, 0.28895269450194, 0.03703241364354, 0
1781, 0.42402805218992, -0.17639994916502, 0
1782, 0.44247580819075, -0.18365072094083, 0
1783, 0.40542234063005, -0.1584521182734, 0
1784, 0.43799111420511, -0.17916142769486, 0
1785, 0.32963148009688, -0.096645076771553, 0
1786, 0.30962688724592, -0.038885188543197, 0
1787, 0.29742917128244, 0.18853107239749, 0
1788, 0.29097975291933, 0.19309746741693, 0
1789, 0.30305541492118, 0.19589427671444, 0
1790, 0.3002630612096, 0.19232467396848, 0
1791, 0.52291654893028, -0.18410036245154, 0
1792, 0.25501750931283, 0.11045338567963, 0
1793, 0.48750923090056, 0.26125500819752, 0
1794, 0.48122206544232, 0.25767377501257, 0
1795, 0.27079960315739, 0.13991692074487, 0
1796, 0.21760034672237, 0.19424055430104, 0
1797, 0.29482934954525, 0.18461408665187, 0
1798, 0.62268104349193, -0.15159421156718, 0
1799, 0.65729956532193, -0.20651741099251, 0
1800, 0.68664480647566, -0.18225805287397, 0
1801, 0.72210406809338, 0.1286598339219, 0
1802, 0.71480926932902, 0.12796450914312, 0
1803, 0.28722671359141, 0.25469841402608, 0
1804, 0.34663362964246, 0.22802517741643, 0
1805, 0.27829390080122, 0.22320270052117, 0
1806, 0.45271136837177, 0.2841008593712, 0
1807, 0.44377068967912, 0.29153455694667, 0
1808, 0.45223249165917, 0.29187891336371, 0
1809, 0.63392108420267, -0.19204345637295, 0
1810, 0.62858691308546, -0.16408022194091, 0
1811, 0.40631067062739, 0.25072270501969, 0
1812, 0.40175331094467, 0.25754575047092, 0
1813, 0.34010444855115, -0.12143022198154, 0
1814, 0.34569710579492, -0.11643530108538, 0
1815, 0.76232464011022, 0.049263242501933, 0
1816, 0.88465405875889, 0.04956148555886, 0
1817, 0.75227733359717, 0.011239846989725, 0
1818, 0.7883781449375, -0.25838353589104, 0
1819, 0.75845227340202, -0.27985553044159, 0
1820, 0.78184784570167, -0.27935240284598, 0
1821, 0.44295736167735, -0.26245516415608, 0
1822, 0.44378099023174, -0.280833935607, 0
1823, 0.28254307682897, 0.15153993037334, 0
1824, 0.32713653021578, 0.24440837148973, 0
1825, 0.35610616038556, 0.24107752657129, 0
1826, 0.38218344618115, 0.26456190383036, 0
1827, 0.55311362440212, 0.26243485563568, 0
1828, 0.31302713270455, 0.20571851768901, 0
1829, 0.27688530335997, 0.24182913285243, 0
1830, 0.30622970647343, -0.058606885587606, 0
1831, 0.24826687691305, -0.041855489001668, 0
1832, 0.33250799309902, 0.22722269409948, 0
1833, 0.2953325901385, 0.23323846156696, 0
1834, 0.33178472743329, 0.23430903755363, 0
1835, 0.046411966998875, 0.055688097320708, 0
1836, 0.023156578948451, 0.057080920144893, 0
1837, 0.30889909360109, -0.064454672804699, 0
1838, 0.29140404221079, -0.11744385208671, 0
1839, 0.2941710267486, 0.29092735731814, 0
1840, 0.32350580802829, 0.2193198351857, 0
1841, 0.33162585969909, 0.2710653570299, 0
1842, 0.71812652512609, 0.063076027096306, 0
1843, 0.80079951213435, 0.11739908785001, 0
1844, 0.048017714666024, -0.16898503308603, 0
1845, 0.024213916721868, -0.19641745135774, 0
1846, 0.023908592801997, -0.16898271232821, 0
1847, 0.63448818932578, -0.14687667007413, 0
1848, 0.68192310656424, -0.13212729602787, 0
1849, 0.33930990157688, 0.22848981010728, 0
1850, 0.34462911996455, 0.2651995202989, 0
1851, 0.33806698715584, 0.26032297650569, 0
1852, 0.36044333080544, 0.25148278294227, 0
1853, 0.30035156349536, 0.26525186443964, 0
1854, 0.28655272757718, 0.22899414834283, 0
1855, 0.28706286395979, -0.026296153864638, 0
1856, 0.29032153176147, -0.0072134564170784, 0
1857, 0.26983449551632, 0.0050641076196489, 0
1858, 0.63914099488407, -0.21612942116979, 0
1859, 0.71308255907573, -0.28027827214558, 0
1860, 0.73559300201376, -0.28015190619408, 0
1861, 0.28469106794658, 0.040341440341878, 0
1862, 0.30073360324528, 0.044197409631531, 0
1863, 0.56376209483875, -0.26122807487306, 0
1864, 0.56048724522706, -0.2799714702308, 0
1865, 0.34950982873543, -0.1850094293372, 0
1866, 0.34302963928692, -0.27956400778839, 0
1867, 0.31874112080517, -0.2785113347758, 0
1868, 0.86076936717741, 0.094174637311361, 0
1869, 0.92719501562133, -0.043926193087788, 0
1870, 0.9025520349706, -0.025300010998548, 0
1871, 0.92832076743844, -0.02047369953525, 0
1872, 0.30098833590697, 0.0050318977435573, 0
1873, 0.29776639495389, 0.0001202978096703, 0
1874, 0.74169192107845, -0.084880811416419, 0
1875, 0.71134007106653, -0.11949735087791, 0
1876, 0.25886444783358, 0.13271609278474, 0
1877, 0.62368035255214, -0.16580485378673, 0
1878, 0.66839787183281, -0.27978240739557, 0
1879, 0.69078877466272, -0.28011789902492, 0
1880, 0.39233294576678, 0.24279048303567, 0
1881, 0.38780809934213, 0.2732691273669, 0
1882, 0.29813357469956, 0.20135331535705, 0
1883, 0.30625987165556, 0.19936390353993, 0
1884, 0.46500426682949, 0.25555384663333, 0
1885, 0.30667257320914, 0.23047662511034, 0
1886, 0.28679995045512, 0.26342401059991, 0
1887, 0.56368264596073, 0.27492641062489, 0
1888, 0.56142741390937, 0.2656875646971, 0
1889, 0.79189218306868, 0.23647875913868, 0
1890, 0.82684750266002, 0.1616821670024, 0
1891, 0.50271451135679, -0.18029312880155, 0
1892, 0.57651503787047, 0.25192939543454, 0
1893, 0.58090592464848, 0.25519399581183, 0
1894, 0.58021770652944, 0.25102348509233, 0
1895, 0.77170357733812, 0.12392215093417, 0
1896, 0.16789752091615, 0.25467556469726, 0
1897, 0.19577019664493, 0.28062408270472, 0
1898, 0.1722034407586, 0.27816135287265, 0
1899, 0.26065842105948, -0.08842360590006, 0
1900, 0.24620398992018, -0.084758197574701, 0
1901, 0.28829036538787, 0.056384712294427, 0
1902, 0.17035598123207, 0.096861496740016, 0
1903, 0.26024647356818, 0.12678216137533, 0
1904, 0.068765842958174, -0.086144199239157, 0
1905, 0.069573979476623, -0.029937693882355, 0
1906, 0.11995139857614, 0.03043904684603, 0
1907, 0.068923043465889, -0.058267326461667, 0
1908, 0.27376718124065, 0.12636178053846, 0
1909, 0.1752259366784, 0.11422167473094, 0
1910, 0.74068997282885, -0.034675802216127, 0
1911, 0.44185419588136, 0.26776599161672, 0
1912, 0.43470161464976, 0.29084878894413, 0
1913, 0.65841890149839, -0.25869388791848, 0
1914, 0.64550574668351, -0.27920699807466, 0
1915, 0.36579403056295, 0.23674137090572, 0
1916, 0.9769733630026, 0.020305371687083, 0
1917, 0.8719837058864, -0.048707897878889, 0
1918, 0.84459682897171, -0.026562716578884, 0
1919, 0.87459004885945, -0.02756475656715, 0
1920, 0.6809112158123, 0.26220594208167, 0
1921, 0.70225945590319, 0.28635579458024, 0
1922, 0.58621619339283, 0.25946035287071, 0
1923, 0.62378216195287, 0.27224194573921, 0
1924, 0.87183349289603, 0.16535956297935, 0
1925, 0.72127516847401, 0.012220106939455, 0
1926, 0.36524260455943, -0.28076218977125, 0
1927, 0.55361577569785, 0.27112934322683, 0
1928, 0.57272259940748, 0.25872106321469, 0
1929, 0.89199550164647, 0.27770718794601, 0
1930, 0.9462795104208, 0.12756723554227, 0
1931, 0.047917883129885, 0.21935562679289, 0
1932, 0.02396875234941, 0.21968806952729, 0
1933, 0.21379560724202, 0.26469731121713, 0
1934, 0.24069599885728, 0.2865431251534, 0
1935, 0.2186962280382, 0.2834297589837, 0
1936, 0.8109560834571, 0.20301185680656, 0
1937, 0.88255243674341, 0.23427618310453, 0
1938, 0.72779576513657, 0.046227074141419, 0
1939, 0.27303848578227, 0.26990624097069, 0
1940, 0.28096755200794, 0.23484912855905, 0
1941, 0.26424735974947, 0.23363290167946, 0
1942, 0.71474737026877, 0.25678627933536, 0
1943, 0.58399263718386, 0.2499500411827, 0
1944, 0.83641698829162, 0.15097253043439, 0
1945, 0.81758919465894, 0.068728274555174, 0
1946, 0.67435642112351, 0.22914627414219, 0
1947, 0.61076163522668, 0.25890109371109, 0
1948, 0.61649062804187, 0.23354720292339, 0
1949, 0.58949120515765, 0.25349133956585, 0
1950, 0.74135799084176, 0.051908642750282, 0
1951, 0.72122116210523, 0.024808380373809, 0
1952, 0.49171115879341, -0.19463515995168, 0
1953, 0.47747420330409, -0.20009801240749, 0
1954, 0.50602986574087, -0.16999137986543, 0
1955, 0.9526625920539, -0.22290974127596, 0
1956, 0.97632560185788, -0.22129033972921, 0
1957, 0.30437723091361, 0.21527258762721, 0
1958, 0.39124213990994, 0.24985816823308, 0
1959, 0.30583303220005, 0.040075608357968, 0
1960, 0.28135381691602, 0.020204073798117, 0
1961, 0.30051771521242, 0.039232026286245, 0
1962, 0.29909805010434, 0.061224752466667, 0
1963, 0.74178312851801, -0.02548421891412, 0
1964, 0.7530074865988, -0.017517631324898, 0
1965, 0.048945155128021, -0.22321353979048, 0
1966, 0.024343923973189, -0.22296384800582, 0
1967, 0.28011741133781, 0.098601899382866, 0
1968, 0.34221295929207, 0.25121977540097, 0
1969, 0.31067135136479, 0.21174308798773, 0
1970, 0.9055099829653, -0.22656153291286, 0
1971, 0.85913185096021, -0.23068968141822, 0
1972, 0.88258409230466, -0.2039041281573, 0
1973, 0.88207022038234, -0.22852747739173, 0
1974, 0.072835861295656, -0.16895040252829, 0
1975, 0.1209225602708, -0.2771310607402, 0
1976, 0.18856057614791, -0.24040137636271, 0
1977, 0.92610025652038, -0.093436281536765, 0
1978, 0.92786846160722, -0.14615373389583, 0
1979, 0.90153490528939, -0.12265323318941, 0
1980, 0.92673624251449, -0.11956784034675, 0
1981, 0.77023389453569, 0.22360439026165, 0
1982, 0.79167643815801, 0.25197094867829, 0
1983, 0.71587526865685, 0.078879693933286, 0
1984, 0.72527932277361, -0.053674759167146, 0
1985, 0.72005125166653, -0.12022198952024, 0
1986, 0.71439710372678, -0.031004508548549, 0
1987, 0.70281029797099, -0.088529685517343, 0
1988, 0.73153284253924, 0.11854638975834, 0
1989, 0.8600160674026, 0.043843452663171, 0
1990, 0.73737709092997, 0.037511648851473, 0
1991, 0.070166618898285, 0.081459948541978, 0
1992, 0.071196592073555, 0.13516558087464, 0
1993, 0.094855532382327, 0.10644551148724, 0
1994, 0.070562375568618, 0.10803251742845, 0
1995, 0.66742182514489, -0.12731964811536, 0
1996, 0.61450262185305, -0.15405245657308, 0
1997, 0.6489476747489, -0.14454739047113, 0
1998, 0.74721291138195, -0.021864749060739, 0
1999, 0.74036672376044, 0.023239179956043, 0
2000, 0.70362493871499, -0.11775321887222, 0
2001, 0.72904712088889, 0.00098686515090754, 0
2002, 0.74708523776704, -0.006684606408804, 0
2003, 0.57517658267176, -0.16909728884107, 0
2004, 0.72006271474108, -2.9442262449164e-06, 0
2005, 0.72267560347935, -0.033587407268369, 0
2006, 0.70487447055059, -0.078913350896987, 0
2007, 0.75866498640251, -0.075186338112181, 0
2008, 0.72951679776483, -0.11907053354414, 0
2009, 0.26120196155398, -0.060908154689687, 0
2010, 0.92853455191572, 0.089810815645311, 0
2011, 0.72036405922983, 0.084926100860348, 0
2012, 0.74545303999267, -0.16264159117806, 0
2013, 0.6581731493801, -0.13945823865492, 0
2014, 0.70200001193297, -0.15343816717186, 0
2015, 0.89971847840809, -0.071207204951357, 0
2016, 0.92638615669441, -0.068216598302356, 0
2017, 0.29879452761758, 0.036124420199033, 0
2018, 0.29695177474375, 0.069437513484516, 0
2019, 0.18082911767534, -0.085011123119744, 0
2020, 0.5698639245127, 0.2535094501595, 0
2021, 0.53693610729256, 0.28765698322773, 0
2022, 0.27004030808006, 0.088242108648187, 0
2023, 0.2654594207259, 0.096672982406808, 0
2024, 0.27611735364688, 0.075482254287926, 0
2025, 0.29338983528437, 0.090132547298756, 0
2026, 0.76636018621144, 0.28439000245122, 0
2027, 0.85720216097109, 0.026410048130472, 0
2028, 0.74077683690018, 0.0073258344442701, 0
2029, 0.34671783169431, -0.14946596699175, 0
2030, 0.34372586705114, -0.14094728563305, 0
2031, 0.28370267609834, 0.071092677127389, 0
2032, 0.49998066716049, -0.17729328257398, 0
2033, 0.41934615416892, -0.18423813178325, 0
2034, 0.32726144908821, -0.15178454182628, 0
2035, 0.35924206949244, -0.14961710747312, 0
2036, 0.23707251069367, 0.11605058243562, 0
2037, 0.26963434737655, 0.18538396260348, 0
2038, 0.25526585728403, 0.18152946579285, 0
2039, 0.67348432110135, -0.24002135359435, 0
2040, 0.64695929680983, -0.18901706827573, 0
2041, 0.40387240899487, -0.19282998480303, 0
2042, 0.5030287292569, -0.16970817277334, 0
2043, 0.65106384990409, 0.2151233036833, 0
2044, 0.606444749493, 0.24021404897544, 0
2045, 0.70956728839289, 0.19754239379393, 0
2046, 0.80200679873777, 0.10572694610363, 0
2047, 0.79452624087889, 0.13839998778681, 0
2048, 0.27232405310433, 0.094751872382264, 0
2049, 0.12495788999138, -0.16723759736124, 0
2050, 0.15017178794848, -0.2370879695095, 0
2051, 0.17266651214217, -0.15539528508476, 0
2052, 0.20432343126613, -0.10347618911352, 0
2053, 0.30774467551049, -0.030736566779542, 0
2054, 0.18191624479885, -0.17730285223725, 0
2055, 0.09290664711775, -0.11375680911947, 0
2056, 0.069658926626306, -0.11363718609636, 0
2057, 0.42100897785855, -0.19293772940563, 0
2058, 0.41830983403066, -0.17648591181977, 0
2059, 0.26743726057724, 0.11691624704584, 0
2060, 0.23939113997651, 0.13239170570645, 0
2061, 0.60956940808258, 0.26817531938106, 0
2062, 0.63795896712613, 0.25182219490844, 0
2063, 0.62047801308077, 0.23551163210124, 0
2064, 0.29811226454723, -0.040156005685127, 0
2065, 0.3005988101011, -0.018657119468027, 0
2066, 0.2185522461803, -0.057218003868555, 0
2067, 0.58299574458201, -0.17900536503178, 0
2068, 0.57651770303496, -0.19137411619736, 0
2069, 0.60814130377984, -0.16891335759189, 0
2070, 0.64564956974379, -0.20654461867311, 0
2071, 0.50144096793566, -0.19623872534599, 0
2072, 0.4053316966978, -0.18325855792994, 0
2073, 0.71777547475232, -0.061695719386003, 0
2074, 0.70162522336854, -0.09700275556319, 0
2075, 0.69785442490213, -0.097326986722601, 0
2076, 0.72371665569006, -0.064399127668099, 0
2077, 0.69850582030905, -0.088479825520249, 0
2078, 0.28472423384825, 0.12324866103224, 0
2079, 0.19112338415049, 0.14429963472469, 0
2080, 0.76647706516723, 0.010461523323384, 0
2081, 0.79926616932572, 0.080834639630636, 0
2082, 0.74674489961468, 0.043433617131623, 0
2083, 0.7364535507673, 0.079827119250134, 0
2084, 0.83829747410812, -0.20978487532894, 0
2085, 0.81482354427175, -0.23513879626851, 0
2086, 0.83673204077165, -0.23294945838309, 0
2087, 0.65493698216576, 0.24482106912113, 0
2088, 0.60283160010182, 0.24220381473478, 0
2089, 0.44271969074005, -0.17619461935169, 0
2090, 0.44600174396895, -0.16785596401969, 0
2091, 0.51787845152882, -0.18268834593446, 0
2092, 0.4642312977885, -0.18505519214701, 0
2093, 0.48653258439969, 0.26808490067869, 0
2094, 0.45418911672727, 0.27042412011712, 0
2095, 0.41807252830793, 0.25536205186006, 0
2096, 0.45340124177928, 0.27692020224743, 0
2097, 0.7283568978807, 0.134687214902, 0
2098, 0.73864004860438, 0.12995716422691, 0
2099, 0.73660786688373, 0.10066697540281, 0
2100, 0.72991486511316, 0.12935106630957, 0
2101, 0.66767739612341, 0.26334132588994, 0
2102, 0.6163178146089, 0.26494534562303, 0
2103, 0.66335784646544, 0.24345931760893, 0
2104, 0.66735573793353, 0.23259981800319, 0
2105, 0.62686432424522, 0.23322316899829, 0
2106, 0.64080067462942, 0.238576392773, 0
2107, 0.74344787363804, 0.069551895720696, 0
2108, 0.31781836866513, -0.066059925798227, 0
2109, 0.28053751021993, -0.035735071425809, 0
2110, 0.2966836991493, -0.10456232939815, 0
2111, 0.28127914968237, -0.0530237590959, 0
2112, 0.30858368614628, -0.03487751106559, 0
2113, 0.29742979851564, -0.065074501300388, 0
2114, 0.30294894394367, -0.095442204667267, 0
2115, 0.72195326114657, -0.083731250047174, 0
2116, 0.70610895560557, -0.10583085835139, 0
2117, 0.68849818160682, -0.10744230484397, 0
2118, 0.72812421543096, -0.073532140394747, 0
2119, 0.7536862389805, -0.041881150851878, 0
2120, 0.23099775730236, -0.035251174587029, 0
2121, 0.27521878862454, -0.059465281269093, 0
2122, 0.60628529987701, -0.20847064655709, 0
2123, 0.55820772009231, -0.18180805641109, 0
2124, 0.56355454567155, -0.16417079912582, 0
2125, 0.56788820936992, -0.17582444366835, 0
2126, 0.50616424790706, -0.18323814391893, 0
2127, 0.30063016621099, 0.026955439653091, 0
2128, 0.22055693543744, 0.019906655460576, 0
2129, 0.28933450927608, 0.024746681215604, 0
2130, 0.70211242347421, -0.22174939304706, 0
2131, 0.67294937929491, -0.16433314534178, 0
2132, 0.65535863089034, -0.14459362140669, 0
2133, 0.77672290767167, -0.21781314345652, 0
2134, 0.75278571255025, 0.19728165887848, 0
2135, 0.72850013082639, 0.1627546027716, 0
2136, 0.69966603735981, 0.17253673292673, 0
2137, 0.70919115821959, 0.15485240008205, 0
2138, 0.5494646911554, -0.17598407733428, 0
2139, 0.57999772462016, -0.1715589190262, 0
2140, 0.60254448634571, -0.16298721988368, 0
2141, 0.54710312955357, -0.16875470580587, 0
2142, 0.73122479432255, 0.014438529604288, 0
2143, 0.81840136953908, -0.0059496780718293, 0
2144, 0.72095086133942, 0.0081179983232124, 0
2145, 0.25969943011731, -0.036175283517714, 0
2146, 0.31347175240918, -0.061873071422595, 0
2147, 0.29567329304933, -0.048333321194076, 0
2148, 0.30650557998361, -0.005900788384603, 0
2149, 0.28792995199874, -0.013260435940929, 0
2150, 0.73404798106316, 0.14214271233508, 0
2151, 0.72609777462648, 0.1399850864329, 0
2152, 0.53403991192596, -0.17057835338368, 0
2153, 0.76180484662664, -0.17908899495844, 0
2154, 0.65045156069148, -0.17794079012622, 0
2155, 0.47915679334588, -0.20929630982429, 0
2156, 0.51982445796692, -0.17682719845036, 0
2157, 0.47607539661883, -0.17310731250131, 0
2158, 0.32017150774911, 0.21127733446693, 0
2159, 0.38789724161089, 0.24207089356478, 0
2160, 0.33706948712503, 0.22621713461937, 0
2161, 0.3518149264415, 0.2388183918021, 0
2162, 0.74942039351293, -0.093278282845603, 0
2163, 0.71854511075274, -0.034382689674675, 0
2164, 0.72057644094721, 0.004022708060455, 0
2165, 0.60247648580324, 0.24866209429227, 0
2166, 0.33559141654339, 0.23024756962122, 0
2167, 0.29974537586128, 0.24959312783434, 0
2168, 0.35377564004962, 0.25833575954316, 0
2169, 0.6934937585632, 0.18054126940463, 0
2170, 0.703656966949, 0.19060786423415, 0
2171, 0.69281354647413, 0.16990993195754, 0
2172, 0.74848177815973, 0.15468874982485, 0
2173, 0.67497255739986, -0.15617982650688, 0
2174, 0.63759544035557, -0.18373720081395, 0
2175, 0.75567010243765, 0.10030045311808, 0
2176, 0.76384356208355, 0.14991250717675, 0
2177, 0.75842540722969, 0.13164496393915, 0
2178, 0.74937687318236, 0.11662316733124, 0
2179, 0.72063646169122, 0.076567342879176, 0
2180, 0.78498475991819, 0.10455142209, 0
2181, 0.73049758883601, 0.028308225683895, 0
2182, 0.72048979940549, 0.037416653340148, 0
2183, 0.29193349062619, 0.10630142708168, 0
2184, 0.30514796998821, 0.018045750521315, 0
2185, 0.26820282235076, 0.074400443011158, 0
2186, 0.24486298695322, 0.14690584948958, 0
2187, 0.25682444960241, 0.098820636270324, 0
2188, 0.28852684794615, 0.08630819115379, 0
2189, 0.30175479710817, -0.072345571561402, 0
2190, 0.31515100131074, -0.10308532415336, 0
2191, 0.77614879262963, 0.18393674995748, 0
2192, 0.94456284965525, 0.27363651753847, 0
2193, 0.14307591004814, 0.2242315927641, 0
2194, 0.12031866936667, 0.19187417098882, 0
2195, 0.095877611418523, 0.2198629176305, 0
2196, 0.11994155182285, 0.22133562192874, 0
2197, 0.87111620207356, -0.097451104593917, 0
2198, 0.73901529398541, -0.064645302752431, 0
2199, 0.87039690382643, -0.071712761998792, 0
2200, 0.58179432385264, 0.27807139068836, 0
2201, 0.58271981400973, 0.2876699611564, 0
2202, 0.21246195922703, 0.078351104647171, 0
2203, 0.28854049254647, 0.09084988121131, 0
2204, 0.26205236538295, 0.15408778164555, 0
2205, 0.47618870797544, -0.18513015352811, 0
2206, 0.52442497247045, -0.17742026423515, 0
2207, 0.39406561905644, -0.16142522298172, 0
2208, 0.34511589391682, -0.15693430927254, 0
2209, 0.88283821691472, 0.086408947406204, 0
2210, 0.71856805212669, -0.0077171064782935, 0
2211, 0.76272927725309, -0.0053440353671579, 0
2212, 0.25022398950156, 0.017279580785754, 0
2213, 0.22960399103162, 0.037865760303267, 0
2214, 0.30374784464518, 0.039755586052137, 0
2215, 0.28597233197766, 0.032165439864525, 0
2216, 0.73998647210579, -0.01602498466006, 0
2217, 0.72700239810395, -0.032318940217294, 0
2218, 0.31766729246557, -0.10759567034188, 0
2219, 0.32372688056355, -0.1158486437795, 0
2220, 0.32069759713286, -0.11176742630815, 0
2221, 0.55034762096055, -0.24063985796699, 0
2222, 0.28830786355499, 0.27250468549479, 0
2223, 0.35260823336472, 0.28988726842504, 0
2224, 0.31658800273308, 0.22754069217422, 0
2225, 0.7268588415843, 0.17325014543753, 0
2226, 0.70887235880858, 0.14440088694818, 0
2227, 0.38103144879389, -0.16188828970061, 0
2228, 0.37540144892084, -0.16771974564618, 0
2229, 0.390204399119, -0.1685213988134, 0
2230, 0.27442175937572, 0.17993283879002, 0
2231, 0.26413018776394, 0.18731995197435, 0
2232, 0.58329860828087, -0.20503864044218, 0
2233, 0.53422060164079, -0.17784925280447, 0
2234, 0.070146033224322, 0.027461335484121, 0
2235, 0.093333210367359, -0.031568090146233, 0
2236, 0.070183086872594, -0.0011041898159281, 0
2237, 0.69419374767153, -0.12044766005381, 0
2238, 0.62071918828174, -0.17387992796058, 0
2239, 0.63600801448587, 0.2229405007259, 0
2240, 0.63493166637506, 0.25890125069641, 0
2241, 0.62559025199471, 0.22668041450855, 0
2242, 0.6303952730836, 0.26601177580646, 0
2243, 0.36657771930137, -0.22311207998269, 0
2244, 0.70560042353468, -0.095895211240551, 0
2245, 0.69059460140749, -0.12495751747863, 0
2246, 0.70532908207679, -0.11161291533324, 0
2247, 0.73335378581268, 0.056116374494843, 0
2248, 0.29445374745378, 0.081937099606396, 0
2249, 0.23927268912752, 0.18017325848338, 0
2250, 0.36865846642043, -0.17349522694937, 0
2251, 0.29071483609793, 0.17664561642303, 0
2252, 0.28093641000288, 0.17571747225416, 0
2253, 0.25580332111029, 0.16245159949951, 0
2254, 0.44261309720133, -0.16625224109266, 0
2255, 0.44991737039609, -0.16930029562199, 0
2256, 0.77244407026555, 0.046366380942147, 0
2257, 0.3167482051149, -0.058989680004176, 0
2258, 0.24344709948542, -0.018520740385037, 0
2259, 0.25683350024149, -0.00528432409594, 0
2260, 0.30200821956298, -0.0058182634338921, 0
2261, 0.2562825702439, -0.015888893322814, 0
2262, 0.7278614756145, -0.0032971016785113, 0
2263, 0.69276512999, -0.2407930229952, 0
2264, 0.61155947087583, -0.19059735509421, 0
2265, 0.56336119630077, -0.17899700198472, 0
2266, 0.59107604557088, -0.17492854650538, 0
2267, 0.7212813707107, 0.19091617716468, 0
2268, 0.72355829166632, 0.14500521090795, 0
2269, 0.61853854577802, -0.16705086106852, 0
2270, 0.27269670635616, -0.090262287340126, 0
2271, 0.30100975794536, -0.077826400327651, 0
2272, 0.63324835229568, 0.24408191938454, 0
2273, 0.68503766801006, 0.20658881429069, 0
2274, 0.7168564707854, 0.14256251406272, 0
2275, 0.7101887755593, 0.21369126283524, 0
2276, 0.69809285256253, 0.18512961037452, 0
2277, 0.71648112436437, -0.09689165318134, 0
2278, 0.69711218344544, -0.11559132441935, 0
2279, 0.78622453607291, -0.099347742202778, 0
2280, 0.38902568031649, 0.26501598011678, 0
2281, 0.30628209894351, 0.20857586794316, 0
2282, 0.32875052772549, 0.22623923642063, 0
2283, 0.67793392033028, 0.21472025337584, 0
2284, 0.67344515912929, 0.21870605727744, 0
2285, 0.72527993798826, -0.048333335483248, 0
2286, 0.71400451020303, -0.091322645529669, 0
2287, 0.78583231939112, -0.1285853976954, 0
2288, 0.75988981936455, -0.064237797620653, 0
2289, 0.6906901966852, -0.10395160057141, 0
2290, 0.76555277582539, -0.026108766701826, 0
2291, 0.28873180388876, 0.044602987120192, 0
2292, 0.14491011144831, -0.2785954069776, 0
2293, 0.23754186157599, -0.23425554609637, 0
2294, 0.074124231390431, -0.19690292404999, 0
2295, 0.29478947355397, 0.0085182693429538, 0
2296, 0.29546293167082, 0.038327509552089, 0
2297, 0.2953578632134, 0.054877579195459, 0
2298, 0.29050900277455, 0.052051008955425, 0
2299, 0.73685317813514, 0.067401664610981, 0
2300, 0.72413673026538, 0.11440017408861, 0
2301, 0.72408999631032, 0.10977113233506, 0
2302, 0.59754504081138, -0.16941430544103, 0
2303, 0.60305317731685, -0.17596320269618, 0
2304, 0.71492736918412, 0.085232191760891, 0
2305, 0.74619377001908, 0.13762480288346, 0
2306, 0.7429797990735, 0.14454380789263, 0
2307, 0.093779726871402, 0.054653396184811, 0
2308, 0.06989364323008, 0.054776483766413, 0
2309, 0.37119884601173, -0.15044179337352, 0
2310, 0.37719839901065, -0.15814645763973, 0
2311, 0.36854746639381, -0.13869580502531, 0
2312, 0.31361035115399, -0.050047285415053, 0
2313, 0.31112372491985, -0.057382353010909, 0
2314, 0.71888841642434, -0.13125023323436, 0
2315, 0.76666172941324, -0.042333939419442, 0
2316, 0.73015264626105, -0.067674464931087, 0
2317, 0.70079357526118, -0.12397728011586, 0
2318, 0.6936805255003, -0.10918157845183, 0
2319, 0.79835914116255, -0.068369315080371, 0
2320, 0.7717079672354, -0.084787185493037, 0
2321, 0.70494076803969, 0.17535194604079, 0
2322, 0.69805577275515, 0.16186956200383, 0
2323, 0.51798817851796, 0.26805381943226, 0
2324, 0.47591226877721, 0.28166265508641, 0
2325, 0.28349458733011, -0.090737041247616, 0
2326, 0.19934046158196, -0.061780005162843, 0
2327, 0.28688257936104, -0.10848618519595, 0
2328, 0.19961844334483, 0.0026877685671893, 0
2329, 0.19830503894561, -0.011598228958018, 0
2330, 0.20712629483338, 0.049213821405356, 0
2331, 0.85822878619342, 0.15076853297762, 0
2332, 0.87484820521394, 0.12074707954437, 0
2333, 0.75163692544835, 0.017660798016831, 0
2334, 0.76028412627419, 0.075468563289931, 0
2335, 0.63423842125934, -0.15422810638735, 0
2336, 0.61862508441865, -0.1529137139822, 0
2337, 0.29305910976837, -0.090361211377369, 0
2338, 0.32379192561018, -0.085441875755202, 0
2339, 0.27801116547511, -0.071757740967608, 0
2340, 0.2952985389882, -0.070637477370423, 0
2341, 0.29900569875894, -0.052435934700953, 0
2342, 0.24510905767404, 0.032548758220021, 0
2343, 0.29986104693642, 0.018240620085257, 0
2344, 0.41363312306162, -0.16144908236348, 0
2345, 0.71625441821908, 0.1709129948918, 0
2346, 0.72295274504911, 0.21922340256374, 0
2347, 0.72246428867877, 0.16730085477523, 0
2348, 0.24605138979045, 0.0055283366109542, 0
2349, 0.27014301388287, 0.032540564459921, 0
2350, 0.29926668468684, -0.0024507596238901, 0
2351, 0.25850551979975, 0.005248583446562, 0
2352, 0.29914044865229, 0.25721731138821, 0
2353, 0.31974081308625, 0.22312563740531, 0
2354, 0.2941261018776, 0.20770426273802, 0
2355, 0.32739634331394, 0.22124196120528, 0
2356, 0.74022752253458, 0.074945707163417, 0
2357, 0.28263709736891, 0.053162240267023, 0
2358, 0.27374202523554, 0.021966552093065, 0
2359, 0.28145744809027, 0.20504575974582, 0
2360, 0.28615399102511, 0.19868144698408, 0
2361, 0.28979333786211, 0.20331213297034, 0
2362, 0.36382976536054, -0.14425165746864, 0
2363, 0.33859607120378, -0.12971677651879, 0
2364, 0.33993083380634, -0.14779656469728, 0
2365, 0.25956025543106, 0.16603364867849, 0
2366, 0.27168747966448, 0.14934817397929, 0
2367, 0.29890956793367, 0.047402526654993, 0
2368, 0.29799031974329, 0.041601786450846, 0
2369, 0.26528964111003, 0.049800737496754, 0
2370, 0.29798010622226, 0.065289858239333, 0
2371, 0.58766842027799, -0.18817136402282, 0
2372, 0.2751377020882, 0.1093944468768, 0
2373, 0.25153325827973, 0.090077732175941, 0
2374, 0.73952779994859, 0.11172520007903, 0
2375, 0.76523281260104, 0.018426021495884, 0
2376, 0.37876066981888, -0.1501129706585, 0
2377, 0.26539103514495, -0.21340983246633, 0
2378, 0.26609704447739, -0.23488674209859, 0
2379, 0.73376359469747, 0.18927475875307, 0
2380, 0.11822841301228, 0.079911251288878, 0
2381, 0.14160160767851, 0.058260814260733, 0
2382, 0.11822296183793, 0.055859320654311, 0
2383, 0.45410859289024, -0.17052910768768, 0
2384, 0.69474934377526, 0.17675025000158, 0
2385, 0.69782213083753, 0.1665520280339, 0
2386, 0.27266466776383, 0.15384562109852, 0
2387, 0.71648696588107, 0.075196928791147, 0
2388, 0.71760632669966, 0.067263849817229, 0
2389, 0.7527604855745, 0.03695650573142, 0
2390, 0.17416372102886, 0.0010401584653153, 0
2391, 0.18541668949042, 0.04603122625125, 0
2392, 0.31428789796763, -0.056548182820413, 0
2393, 0.30776279702361, -0.10666119163774, 0
2394, 0.63529089608055, -0.19655417451843, 0
2395, 0.66407476058822, -0.13870998463409, 0
2396, 0.64996633670218, -0.15113176030155, 0
2397, 0.24390816326678, 0.16688651472832, 0
2398, 0.20007395851497, 0.1073311668687, 0
2399, 0.36815014840309, 0.26253269300766, 0
2400, 0.2714256442028, 0.22782973153068, 0
2401, 0.27927950778464, 0.18914497976925, 0
2402, 0.28248057398225, 0.19384408751208, 0
2403, 0.28685132521312, -0.019817661284194, 0
2404, 0.25957297565581, -0.10138755259738, 0
2405, 0.31506873058525, -0.053229086388473, 0
2406, 0.72189995161685, 0.072694290840001, 0
2407, 0.71529167768828, 0.082257812662588, 0
2408, 0.84335802374083, 0.18831406779143, 0
2409, 0.97716582698443, 0.045824273358948, 0
2410, 0.65765724950145, -0.19470708123605, 0
2411, 0.66930574045524, -0.14855322871189, 0
2412, 0.29419755950266, -0.024731359876933, 0
2413, 0.27044735143918, 0.060774679466783, 0
2414, 0.27887558392972, 0.10632108451765, 0
2415, 0.63973945216286, 0.22122558462501, 0
2416, 0.68159407465244, 0.21057781853621, 0
2417, 0.33079597031918, -0.12325403236011, 0
2418, 0.33469823258106, -0.12652673171043, 0
2419, 0.27879898018907, -0.028576647377354, 0
2420, 0.290419963018, 0.10325438158112, 0
2421, 0.28276546358247, 0.13099009878274, 0
2422, 0.72560914932727, 0.084577984589987, 0
2423, 0.29385117188313, -0.076730930096494, 0
2424, 0.27912549684191, -0.12333877297823, 0
2425, 0.28200853883955, -0.064345565898056, 0
2426, 0.31344252153669, -0.069558263333419, 0
2427, 0.25715784725467, -0.026288592803774, 0
2428, 0.70876677785231, -0.12776665097379, 0
2429, 0.7763556678794, -0.11018549101662, 0
2430, 0.46075748713682, -0.17786810320796, 0
2431, 0.071472607439732, 0.1913217751243, 0
2432, 0.071920290479231, 0.21934529349467, 0
2433, 0.73191091353957, -0.055235929769569, 0
2434, 0.12159579505049, 0.13044780326767, 0
2435, 0.096289572759984, 0.16179095386926, 0
2436, 0.24450689212239, 0.1014436826571, 0
2437, 0.12302656436402, 0.16005722645709, 0
2438, 0.9192110882119, 0.13139358545157, 0
2439, 0.88276947183629, 0.15082015770039, 0
2440, 0.81848872568458, 0.10971614936667, 0
2441, 0.75634542943046, 0.13942590888111, 0
2442, 0.24869163996611, 0.15325456251523, 0
2443, 0.25010889632843, 0.170410979907, 0
2444, 0.16648846772214, 0.078700658744963, 0
2445, 0.18687043858662, 0.062174269525269, 0
2446, 0.16466224640044, 0.060578421743689, 0
2447, 0.36006433632259, -0.15519418000876, 0
2448, 0.38573038358726, -0.17599618901742, 0
2449, 0.28443774229838, 0.15993430130182, 0
2450, 0.2758412338085, 0.16279197894199, 0
2451, 0.27383109263505, 0.15815706069873, 0
2452, 0.72938145475328, -0.1832482871119, 0
2453, 0.76090448296764, -0.15952772832306, 0
2454, 0.95021716111549, 0.10456445583146, 0
2455, 0.69914225001863, 0.1806763443736, 0
2456, 0.68460868706262, 0.19585833310494, 0
2457, 0.33841985413012, -0.13835151120005, 0
2458, 0.35449286662814, -0.14392163326311, 0
2459, 0.33294089567255, -0.17725744360442, 0
2460, 0.14513850665839, 0.10133506091412, 0
2461, 0.11971362244992, 0.10437264380817, 0
2462, 0.71443124322477, -0.083030369845754, 0
2463, 0.70620545118044, -0.10056326361846, 0
2464, 0.11422896825702, -0.087556115814715, 0
2465, 0.13858163198864, -0.11218054959032, 0
2466, 0.14283173285011, -0.13682948314099, 0
2467, 0.11596059560465, -0.11337775580527, 0
2468, 0.32117558688468, -0.1245126834225, 0
2469, 0.32729382847906, -0.11961846530121, 0
2470, 0.85678112807215, 0.11011717033809, 0
2471, 0.6620874461761, -0.16774882586468, 0
2472, 0.83496457997571, -0.16126246892249, 0
2473, 0.85946395996199, -0.18212284392752, 0
2474, 0.81736129169279, -0.18986873050409, 0
2475, 0.83774768999551, -0.18588738340382, 0
2476, 0.34998236022365, 0.23005487434247, 0
2477, 0.7192839287439, -0.052327031832517, 0
2478, 0.2937189995229, 0.059011874447197, 0
2479, 0.30129400724608, 0.030959255791387, 0
2480, 0.73546479099559, -0.10531970010568, 0
2481, 0.69921213943409, -0.11062136922595, 0
2482, 0.18245492467321, 0.13090092047627, 0
2483, 0.27731956617176, 0.16697685349515, 0
2484, 0.70903614845468, -0.20255221548916, 0
2485, 0.69202943733944, -0.20179966871953, 0
2486, 0.72997613723778, -0.14691635614473, 0
2487, 0.071522899161554, 0.16303937269339, 0
2488, 0.8000894688778, 0.1676143768804, 0
2489, 0.71730788751767, 0.11111584130674, 0
2490, 0.79046202035997, 0.14745221612289, 0
2491, 0.97203239471505, 0.27327683916732, 0
2492, 0.7343054486629, 0.095803235889703, 0
2493, 0.75849125883188, 0.042109035468247, 0
2494, 0.93106671457307, 0.046592891165577, 0
2495, 0.43602440270792, 0.28189736239818, 0
2496, 0.40121457291259, 0.2439810760961, 0
2497, 0.42738482147019, 0.24724805656259, 0
2498, 0.42015980966395, 0.24952179446858, 0
2499, 0.29625677351983, -0.035302364154557, 0
2500, 0.24506127078175, -0.030326942479621, 0
2501, 0.29542362237915, -0.056840732554645, 0
2502, 0.30442472310722, -0.062663021674513, 0
2503, 0.28211421446432, 0.1474533862066, 0
2504, 0.17274751665004, 0.16917821696596, 0
2505, 0.27795922820514, 0.1182875505918, 0
2506, 0.28010849151991, 0.013166901539569, 0
2507, 0.72701559881604, 0.050730123423496, 0
2508, 0.95429046496781, 0.034143824075651, 0
2509, 0.36447653780072, -0.16760599425464, 0
2510, 0.35329435464084, -0.1499578441454, 0
2511, 0.31628604914449, -0.1932452046222, 0
2512, 0.2959682600557, 0.028150382980498, 0
2513, 0.27686419879513, 0.029089618626567, 0
2514, 0.27530946543427, 0.039082756284124, 0
2515, 0.37591717610948, 0.24739184384349, 0
2516, 0.29830656306008, 0.2193328434836, 0
2517, 0.82273508732401, 0.18275144521585, 0
2518, 0.75983032149623, 0.11556378875364, 0
2519, 0.16566541392696, 0.20065521479148, 0
2520, 0.18722698877499, 0.23506193562673, 0
2521, 0.165648786746, 0.22902038970785, 0
2522, 0.59798531907905, -0.23184173347851, 0
2523, 0.57818382249593, -0.15862979900712, 0
2524, 0.58863439581187, -0.16339896009169, 0
2525, 0.59795132135169, -0.15746869570711, 0
2526, 0.56591162659447, -0.20914857421167, 0
2527, 0.15803335190472, -0.21844039888484, 0
2528, 0.070951249908651, -0.14125908301527, 0
2529, 0.37997909971239, -0.14299657227984, 0
2530, 0.38898398580817, -0.2636338219136, 0
2531, 0.17394288063816, -0.20631541357878, 0
2532, 0.21497129669766, -0.18823113749038, 0
2533, 0.10147435244904, -0.19777184039373, 0
2534, 0.2750019090249, 0.28025988303653, 0
2535, 0.35483249592538, 0.24919533319938, 0
2536, 0.32374608061772, 0.29050487766699, 0
2537, 0.34783988712269, 0.23640663360791, 0
2538, 0.56651469139362, -0.22718647997355, 0
2539, 0.55677592144199, -0.19367040331051, 0
2540, 0.55436487708685, -0.17459442182476, 0
2541, 0.15878845634664, -0.08695772453915, 0
2542, 0.20148746464552, 0.0174382030496, 0
2543, 0.18286532431848, -0.011642121601278, 0
2544, 0.16922615829541, 0.010612712948675, 0
2545, 0.16850097627475, -0.0088693265990069, 0
2546, 0.28222242223604, 0.13509565473797, 0
2547, 0.28879088087038, 0.11237580943696, 0
2548, 0.21746554855918, 0.091672404287136, 0
2549, 0.20468310560356, 0.033325305272346, 0
2550, 0.1366189597537, -0.063483071658489, 0
2551, 0.67406150249762, -0.12956453586776, 0
2552, 0.30931282999633, -0.088368041558641, 0
2553, 0.3138416303879, -0.0587317089921, 0
2554, 0.23258832157273, -0.17700363312188, 0
2555, 0.2489675085138, -0.13284999952314, 0
2556, 0.66063650410015, -0.13921161545043, 0
2557, 0.67718711289978, -0.13465187485313, 0
2558, 0.72337887897528, -0.26051804629251, 0
2559, 0.23784393912411, 0.12441882584426, 0
2560, 0.92920819941168, -0.1989012144789, 0
2561, 0.92908243006464, -0.22469374550198, 0
2562, 0.95373173040913, 0.010351348415516, 0
2563, 0.64699945905836, 0.23805284676073, 0
2564, 0.92994136328859, 0.0021715900007027, 0
2565, 0.80913789407541, 0.16049308474146, 0
2566, 0.70602014397855, 0.16496038072486, 0
2567, 0.46980032785752, 0.26032792849866, 0
2568, 0.57674966191155, 0.25946155604863, 0
2569, 0.53155889337578, 0.26754026369507, 0
2570, 0.50882831753201, 0.26742789063915, 0
2571, 0.65418747058645, 0.22120243435819, 0
2572, 0.50300476159943, -0.17178863789696, 0
2573, 0.50099773053278, -0.17287767899819, 0
2574, 0.77861406462594, -0.17561619520199, 0
2575, 0.63979089011836, -0.19066284937576, 0
2576, 0.63821558132911, -0.14497998958879, 0
2577, 0.66241752168395, -0.15284608989745, 0
2578, 0.66063690605727, -0.13116650394551, 0
2579, 0.65457073172578, -0.15469514832374, 0
2580, 0.69696025863669, -0.14229480091584, 0
2581, 0.64636125132754, -0.17162334598064, 0
2582, 0.43029330892669, 0.2549426818624, 0
2583, 0.41540234384339, 0.2628063425066, 0
2584, 0.45245227268589, 0.25311672665494, 0
2585, 0.32021921916104, 0.25103103270349, 0
2586, 0.4447395442013, 0.2834017104294, 0
2587, 0.39576512456891, 0.2651566733514, 0
2588, 0.39557984533771, 0.27329489210954, 0
2589, 0.23328385939312, 0.25285393489787, 0
2590, 0.20594164046954, 0.21624171656874, 0
2591, 0.21004294968698, 0.24265333568804, 0
2592, 0.21668407590207, -0.27912784851072, 0
2593, 0.41116531706795, -0.2315225370932, 0
2594, 0.41262924441591, -0.20437166185473, 0
2595, 0.42595216475737, -0.21574103785609, 0
2596, 0.41244900188517, -0.21698499245067, 0
2597, 0.57511355216085, 0.26887636384464, 0
2598, 0.57092371182072, 0.25552183614655, 0
2599, 0.62836684196535, -0.22426036702228, 0
2600, 0.61188285331231, -0.16153494953533, 0
2601, 0.61649437712688, -0.16047236179528, 0
2602, 0.62666665382213, -0.15012400658559, 0
2603, 0.67546558284184, -0.14875471987709, 0
2604, 0.65096016839023, -0.15865543407131, 0
2605, 0.43921800969107, 0.26020548097997, 0
2606, 0.62296821569704, -0.18074231004002, 0
2607, 0.73060288971425, -0.16479955286547, 0
2608, 0.65605613770339, -0.16304046895525, 0
2609, 0.14922068583137, 0.1251904823818, 0
2610, 0.90679340776768, 0.07773977267386, 0
2611, 0.68984260416234, 0.1764471370066, 0
2612, 0.73889431678476, 0.25365608397054, 0
2613, 0.75901096478326, 0.15840104734153, 0
2614, 0.23871514267932, -0.15342176607591, 0
2615, 0.29599450706519, 0.0039012996133941, 0
2616, 0.32224024062087, -0.081564699465, 0
2617, 0.47578808371014, 0.26375049203417, 0
2618, 0.4604117369104, 0.28415681029122, 0
2619, 0.59917724606372, 0.2634353846271, 0
2620, 0.36026462420249, -0.1793123612767, 0
2621, 0.34123579703119, -0.2033368568236, 0
2622, 0.71198449871359, 0.15098074051337, 0
2623, 0.77112786194884, 0.16143878990894, 0
2624, 0.3144842172486, -0.078147396786733, 0
2625, 0.28443045717728, -0.082388554775138, 0
2626, 0.71590149559659, -0.16626120544978, 0
2627, 0.71982230966837, -0.11115002255406, 0
2628, 0.72492538925267, -0.10063069463506, 0
2629, 0.71914437488659, -0.038614229605682, 0
2630, 0.43651630483267, -0.18770246039532, 0
2631, 0.41780416661075, -0.16264991495294, 0
2632, 0.43447279109968, 0.25777707719876, 0
2633, 0.40134756094492, 0.25062292496652, 0
2634, 0.33790812044329, 0.24708575473377, 0
2635, 0.50002789192798, -0.17024899010997, 0
2636, 0.50294971135871, -0.17508845732798, 0
2637, 0.43424567509613, -0.16527177944641, 0
2638, 0.77228555852636, -0.23866278113358, 0
2639, 0.80022555489163, -0.11948690985019, 0
2640, 0.66816904354354, -0.18800542960515, 0
2641, 0.29914186910444, 0.21172460103915, 0
2642, 0.36450052952523, 0.29035368008831, 0
2643, 0.67736318230863, -0.12002051326485, 0
2644, 0.34582706850437, -0.17518985656675, 0
2645, 0.39633022835257, -0.23073934887993, 0
2646, 0.19699662115242, -0.026892743141287, 0
2647, 0.14707204513422, 0.016400561306289, 0
2648, 0.44222259167585, -0.24511270682151, 0
2649, 0.3327148764645, 0.23845728552857, 0
2650, 0.36154222820307, 0.23529698954183, 0
2651, 0.33436568621472, 0.22452392012809, 0
2652, 0.3099526820975, 0.24433854026799, 0
2653, 0.54277732456427, -0.16951274864887, 0
2654, 0.54441057817036, -0.17699155662146, 0
2655, 0.5718162957093, -0.17249420311385, 0
2656, 0.69028317143387, 0.24780266214832, 0
2657, 0.58150789460758, 0.26480834132521, 0
2658, 0.58157237189572, 0.27076656768594, 0
2659, 0.2785754679627, 0.2131266744188, 0
2660, 0.27398682682417, 0.20633839758937, 0
2661, 0.3190806167292, 0.23914598052999, 0
2662, 0.33491631679209, 0.2427184319194, 0
2663, 0.48771440085906, 0.28575538044097, 0
2664, 0.46052787086641, 0.25983100215428, 0
2665, 0.38149955166552, -0.22802703494472, 0
2666, 0.35500993298328, -0.13179870415917, 0
2667, 0.25494944476531, -0.14766611323392, 0
2668, 0.38538273244912, -0.16538770993875, 0
2669, 0.78266606425163, -0.011398909889667, 0
2670, 0.81237919198523, -0.020670260785548, 0
2671, 0.50640146662332, -0.19117633484764, 0
2672, 0.48039667244566, -0.17299552721059, 0
2673, 0.47671901164022, 0.25642647984641, 0
2674, 0.42211613213803, 0.24502787163099, 0
2675, 0.90521148854486, -0.17559302369589, 0
2676, 0.9288155701908, -0.17269801907528, 0
2677, 0.31489469367731, 0.22096983106684, 0
2678, 0.38614955905823, 0.24921520705494, 0
2679, 0.23085235929437, 0.15575739916944, 0
2680, 0.3002110958379, -0.11106478462403, 0
2681, 0.21346593191405, -0.024864334887466, 0
2682, 0.15920298001355, -0.04336199109137, 0
2683, 0.95393709098682, 0.057814342651689, 0
2684, 0.77218759505242, 0.2097092009652, 0
2685, 0.70330332340434, 0.16163649836728, 0
2686, 0.58725611629741, 0.26506724342666, 0
2687, 0.61522573378907, 0.27615805412289, 0
2688, 0.68523265505166, 0.28696762986537, 0
2689, 0.66401890931742, -0.12933451013998, 0
2690, 0.65440674237022, -0.13467193263837, 0
2691, 0.5173273313488, -0.19877196183631, 0
2692, 0.6420935082033, -0.16559710607651, 0
2693, 0.28298994341791, 0.076322859186198, 0
2694, 0.49426174962167, -0.17555970846713, 0
2695, 0.28629181657414, -0.13449004513109, 0
2696, 0.3954589794131, -0.17106066562887, 0
2697, 0.29242323635517, -0.171645986291, 0
2698, 0.2249545199997, 0.10413495483519, 0
2699, 0.58132668300786, 0.25971009672098, 0
2700, 0.29525147396209, -0.14586640140209, 0
2701, 0.25346083303082, -0.17806891843047, 0
2702, 0.36444480369331, -0.20332076230325, 0
2703, 0.38224558820184, -0.1981161040718, 0
2704, 0.29212351267208, -0.19310192159732, 0
2705, 0.16110304614323, -0.10988812201131, 0
2706, 0.58245818514059, -0.24609132565426, 0
2707, 0.60064948429806, -0.24608279056887, 0
2708, 0.24517686283244, -0.11724049357074, 0
2709, 0.28606094279733, -0.074837258014332, 0
2710, 0.39188521915096, -0.20176258073573, 0
2711, 0.38207440655972, -0.15325054911032, 0
2712, 0.54097720268542, -0.19556155654536, 0
2713, 0.73457897400882, -0.036290752270489, 0
2714, 0.63159820594057, -0.18578782612123, 0
2715, 0.25888874036761, 0.2413567749302, 0
2716, 0.33699001541456, 0.23324579668458, 0
2717, 0.27390522971178, 0.25006221962371, 0
2718, 0.62509420692704, -0.203666082793, 0
2719, 0.69150261895439, -0.13465538958287, 0
2720, 0.72014061681989, -0.22159356913573, 0
2721, 0.73161200922613, -0.049018175465547, 0
2722, 0.74850759811027, -0.059920996500547, 0
2723, 0.71380194344464, -0.051120155856799, 0
2724, 0.12671111205861, -0.22941201068184, 0
2725, 0.35180993856965, -0.13707006365751, 0
2726, 0.38760196314608, -0.18802890512986, 0
2727, 0.2676926281556, -0.19372235364445, 0
2728, 0.30527718289685, 0.013891190971564, 0
2729, 0.28552129109258, 0.048613570124769, 0
2730, 0.16435728262103, 0.042494236836546, 0
2731, 0.58994870498669, 0.27948810692352, 0
2732, 0.44631442151643, 0.27599636300129, 0
2733, 0.71122861834369, -0.099166235302727, 0
2734, 0.70677017495177, -0.075218941505266, 0
2735, 0.69260756216299, -0.10042250624407, 0
2736, 0.43454854931166, -0.17450827866696, 0
2737, 0.29992931891997, 0.01373168556021, 0
2738, 0.29542412273965, 0.044597221711203, 0
2739, 0.87982052958869, -0.15259951709965, 0
2740, 0.88194108465322, -0.17865940277927, 0
2741, 0.37903019281238, 0.24032123406507, 0
2742, 0.26055842635884, 0.28905275362342, 0
2743, 0.75539486195621, -0.029617222949101, 0
2744, 0.59820787993161, 0.25056452577518, 0
2745, 0.356314551977, -0.13857548383228, 0
2746, 0.77653906485035, 0.056707714467246, 0
2747, 0.22962834468376, -0.0081226232392238, 0
2748, 0.21603511170745, 0.0044439252994476, 0
2749, 0.29491611802601, 0.023512170891503, 0
2750, 0.23213362820785, 0.0054853747716533, 0
2751, 0.62120517730982, -0.21534883554332, 0
2752, 0.5103128141909, -0.18607429171456, 0
2753, 0.71897715076094, 0.054465492247646, 0
2754, 0.56574396813342, -0.24389567857724, 0
2755, 0.88297786314399, 0.030828673672753, 0
2756, 0.27998832466544, 0.0054032481458017, 0
2757, 0.48312323285124, -0.19063834557813, 0
2758, 0.49276363711591, -0.17168528380213, 0
2759, 0.42583341318908, -0.24683000289886, 0
2760, 0.40932553259467, -0.24731838317136, 0
2761, 0.84995767216752, -0.1285376004626, 0
2762, 0.87580133726383, -0.12541587763618, 0
2763, 0.5413487056411, -0.20735894862551, 0
2764, 0.57096252238783, -0.16617041273213, 0
2765, 0.55209128368019, -0.20873795105985, 0
2766, 0.48666636403819, -0.23204442877565, 0
2767, 0.45499978950702, 0.26454175355993, 0
2768, 0.52706041663196, 0.26789855547825, 0
2769, 0.46870901862949, 0.29134549760221, 0
2770, 0.52849775830113, 0.27757509295473, 0
2771, 0.72862111374352, 0.070222860653709, 0
2772, 0.26543262002361, 0.024575060556505, 0
2773, 0.28332411696832, 0.026545862708014, 0
2774, 0.46036164772373, 0.26509438566251, 0
2775, 0.230924354157, 0.19784485640683, 0
2776, 0.26372000066332, 0.10654544915716, 0
2777, 0.2711396565538, 0.14479941141178, 0
2778, 0.84501791342477, 0.13861921498043, 0
2779, 0.23719848243942, 0.09084114992486, 0
2780, 0.27217938260424, 0.13065566625397, 0
2781, 0.29345244896908, 0.10439338409183, 0
2782, 0.26070499310587, -0.11497781036646, 0
2783, 0.28694899056321, -0.047875886994614, 0
2784, 0.74517394858808, -0.18153389653048, 0
2785, 0.26459384300447, -0.07681607681109, 0
2786, 0.20238862278625, -0.082147389927744, 0
2787, 0.72772306586409, -0.10900341801518, 0
2788, 0.73222237260661, -0.022985497593906, 0
2789, 0.72119616976226, -0.029457907318175, 0
2790, 0.74365741526845, -0.011614124115065, 0
2791, 0.72293531832219, -0.014698223654895, 0
2792, 0.73430294792663, 0.15722578210391, 0
2793, 0.36599475107777, -0.18672679931433, 0
2794, 0.36830230375554, -0.15804569671873, 0
2795, 0.58842080647818, 0.27161577275928, 0
2796, 0.64634195571528, 0.25319593221562, 0
2797, 0.63878941075748, -0.23253356438947, 0
2798, 0.59702574776485, -0.17573225098636, 0
2799, 0.65394586780943, -0.23800277123369, 0
2800, 0.77864310175115, -0.19662276411801, 0
2801, 0.71649085203971, 0.11950679656363, 0
2802, 0.6959406749742, 0.17012784773258, 0
2803, 0.69594499553857, 0.16789964435919, 0
2804, 0.70446185756466, -0.091889686554473, 0
2805, 0.68335941053351, -0.11408448922207, 0
2806, 0.74248458108507, 0.042725668550854, 0
2807, 0.80462795513543, 0.17759410379286, 0
2808, 0.79177062757945, 0.1822139216297, 0
2809, 0.7023768187199, -0.260556467762, 0
2810, 0.77791920847124, 0.068305699681068, 0
2811, 0.28034774261919, 0.11467605731847, 0
2812, 0.22907968504469, 0.05352431205998, 0
2813, 0.57077692860557, -0.16117854487178, 0
2814, 0.53930182045501, -0.17761441670809, 0
2815, 0.57655440512274, -0.16120301146044, 0
2816, 0.59569447680407, -0.19014317374462, 0
2817, 0.26158599349137, 0.05677364476412, 0
2818, 0.30539534477697, 0.030025787417271, 0
2819, 0.55553907945734, -0.16675053942393, 0
2820, 0.53218971735811, -0.20515944553794, 0
2821, 0.20674076685454, 0.11967208991282, 0
2822, 0.82841423122412, -0.13538787356666, 0
2823, 0.25716014848766, 0.27742798557345, 0
2824, 0.87736264471934, -0.0074620628517385, 0
2825, 0.77949956520112, 0.17282097705322, 0
2826, 0.92955999949174, 0.21712729381638, 0
2827, 0.70483684411424, 0.18528480873724, 0
2828, 0.71318831121079, 0.16598667090808, 0
2829, 0.80172341189021, 0.093406165819361, 0
2830, 0.39598454580538, 0.25753013288348, 0
2831, 0.74563123513411, -0.077376304402107, 0
2832, 0.73740074850773, -0.071845764662559, 0
2833, 0.26879282377714, 0.067447570765511, 0
2834, 0.2765546955395, 0.049114044330567, 0
2835, 0.34905799420765, -0.14288380890798, 0
2836, 0.74811556091393, 0.13069243561477, 0
2837, 0.22199493724776, -0.16078014005945, 0
2838, 0.28584258578764, 0.16419312652667, 0
2839, 0.288638257, 0.17239527873158, 0
2840, 0.69723549407003, 0.2132815748337, 0
2841, 0.71159042023454, 0.19112264197039, 0
2842, 0.67715704225127, 0.25101194105289, 0
2843, 0.51549271359361, -0.17601784220151, 0
2844, 0.4732148778457, -0.23834576028579, 0
2845, 0.28883801953028, 0.095274435309479, 0
2846, 0.27822974438705, 0.093163961669739, 0
2847, 0.26693433525018, 0.17565093935663, 0
2848, 0.6939480879515, 0.22140266904337, 0
2849, 0.59320363286493, -0.16349772140931, 0
2850, 0.74916056417713, 0.040809932027246, 0
2851, 0.36611556597167, -0.153053576649, 0
2852, 0.74727009961836, -0.050838860093622, 0
2853, 0.23259711305639, 0.079406015367898, 0
2854, 0.094678543339726, 0.027806120745422, 0
2855, 0.593195187492, 0.26461169276353, 0
2856, 0.62176902727225, 0.22889052371898, 0
2857, 0.67011247364805, -0.13165281897153, 0
2858, 0.62631679506756, -0.17241042286253, 0
2859, 0.7208982971909, 0.18335867748994, 0
2860, 0.68575310274084, 0.1832564479738, 0
2861, 0.30623320176697, 0.0016799645475063, 0
2862, 0.31275940772132, -0.054889458899384, 0
2863, 0.27469165566135, -0.11208797857266, 0
2864, 0.264903739269, -0.12840333494614, 0
2865, 0.5577515151855, 0.26853673306223, 0
2866, 0.88758904642046, 0.25573770375583, 0
2867, 0.31302976847778, 0.26562281354659, 0
2868, 0.3263134144742, 0.23923704531318, 0
2869, 0.22950173612992, -0.021565385973028, 0
2870, 0.71598248499373, 0.091547476360012, 0
2871, 0.72477594912844, -0.059070220473809, 0
2872, 0.68849899241447, -0.11718527535476, 0
2873, 0.65498196934052, 0.27413907786905, 0
2874, 0.65852605602244, 0.21025458204496, 0
2875, 0.30713289948338, -0.13653883158124, 0
2876, 0.31492404101067, -0.12989137998771, 0
2877, 0.38647928965973, -0.14807232043928, 0
2878, 0.21492614616398, -0.040284141801354, 0
2879, 0.30639929061602, -0.0097829783062435, 0
2880, 0.67806246583385, 0.19298712210105, 0
2881, 0.34737594038169, 0.25512514793302, 0
2882, 0.3222411276483, 0.25753419999217, 0
2883, 0.20922241620621, 0.06419728686742, 0
2884, 0.77184706528366, -0.13572791277543, 0
2885, 0.7143086067942, -0.18422738800458, 0
2886, 0.36818726204742, -0.1334770239075, 0
2887, 0.50573897315035, -0.17717218310554, 0
2888, 0.35518497076372, -0.12452800247677, 0
2889, 0.30243319975375, 0.041548364144216, 0
2890, 0.26359899373748, 0.16933985970733, 0
2891, 0.2187991814242, 0.14005897696735, 0
2892, 0.50645496714803, -0.20157027502757, 0
2893, 0.25522321849525, 0.25202947237519, 0
2894, 0.31101647183757, 0.2581196538331, 0
2895, 0.49327217420254, -0.2468061299708, 0
2896, 0.37082214236785, -0.14105633434011, 0
2897, 0.79751993338068, -0.19345409797501, 0
2898, 0.24380356575201, 0.1991171559976, 0
2899, 0.81539029278881, -0.10802603958752, 0
2900, 0.30722878242679, -0.15586573508075, 0
2901, 0.73110897057584, -0.096597983954832, 0
2902, 0.37385116494757, -0.15437913626556, 0
2903, 0.66402824797325, -0.14778110600457, 0
2904, 0.72274455632803, 0.15806718329973, 0
2905, 0.73044264521723, -0.13139701833851, 0
2906, 0.25549565149071, 0.26505956431262, 0
2907, 0.33434485126024, 0.22004061395982, 0
2908, 0.38976663449301, -0.15897193370018, 0
2909, 0.30708060273329, -0.026517141415675, 0
2910, 0.79455893821439, -0.085662638118985, 0
2911, 0.64636947433421, -0.15426155018354, 0
2912, 0.54636075762852, -0.1853344734398, 0
2913, 0.30013249929339, 0.022685488805621, 0
2914, 0.29725290699853, 0.032385320559963, 0
2915, 0.74792721168427, 0.052051313486032, 0
2916, 0.71495493372165, -0.021621856469635, 0
2917, 0.26332728578251, 0.12137787354404, 0
2918, 0.56937309675626, 0.26610349982308, 0
2919, 0.482094756765, -0.21989881214605, 0
2920, 0.86193384340202, 0.077868264065406, 0
2921, 0.86356545822376, 0.26009152729237, 0
2922, 0.76048111301906, -0.19918346183422, 0
2923, 0.72059774113068, 0.14976086625167, 0
2924, 0.32194196404957, 0.22908477614496, 0
2925, 0.4024410259265, 0.26490936723296, 0
2926, 0.63081644743758, -0.21030616782102, 0
2927, 0.61052644034042, 0.24402397689286, 0
2928, 0.63629161213279, 0.22801176884716, 0
2929, 0.75696155355495, 0.031986575947953, 0
2930, 0.73483769673289, 0.16836321378872, 0
2931, 0.73870698891506, -0.22098159495784, 0
2932, 0.5816917971605, -0.216669089248, 0
2933, 0.7517401370034, 0.0048217978219894, 0
2934, 0.13931918173115, -0.03942172014243, 0
2935, 0.31367238616799, 0.23253561619556, 0
2936, 0.83530131588529, 0.22844758931251, 0
2937, 0.58009431058181, -0.18487977144732, 0
2938, 0.27878610750003, 0.17117397814604, 0
2939, 0.53643301371808, -0.23607956630318, 0
2940, 0.64728710555958, 0.2173157610034, 0
2941, 0.83788211494075, 0.24574716784828, 0
2942, 0.32730969025294, 0.23007642019172, 0
2943, 0.073159667466088, -0.25009498094994, 0
2944, 0.44811280558519, -0.18771227421106, 0
2945, 0.6854731876457, 0.21905017049743, 0
2946, 0.71971563324774, 0.045882940686453, 0
2947, 0.7142469483144, -0.046955333297696, 0
2948, 0.81538459419826, 0.2661211766008, 0
2949, 0.75500720679879, -0.084977283277331, 0
2950, 0.32601672718989, -0.13541705460688, 0
2951, 0.59125929049765, 0.25871476199161, 0
2952, 0.5639987261499, 0.2569784408713, 0
2953, 0.35869731164206, -0.13380310731888, 0
2954, 0.73315899195462, 0.19933281103377, 0
2955, 0.50500338651039, -0.17277874882103, 0
2956, 0.30972988182659, -0.11899652159194, 0
2957, 0.97368585892804, 0.12224507111304, 0
2958, 0.59537817228524, 0.24575995962218, 0
2959, 0.74362929125929, 0.09755984289087, 0
2960, 0.71737233463644, -0.078948385449025, 0
2961, 0.45100327056033, -0.17496745417094, 0
2962, 0.43151429321842, 0.27106778571997, 0
2963, 0.32011324092561, -0.095705838439058, 0
2964, 0.72192482165602, 0.096987897269751, 0
2965, 0.3593966275441, -0.14441932311639, 0
2966, 0.64964048143755, 0.22334313835164, 0
2967, 0.33168720063346, 0.23051917132367, 0
2968, 0.33098044000264, 0.21810852725603, 0
2969, 0.79642179848814, -0.21539784647084, 0
2970, 0.16850948993729, -0.2796459696159, 0
2971, 0.27190637564461, 0.19576416682012, 0
2972, 0.30790510695801, -0.073354155989984, 0
2973, 0.56336694907774, -0.17078391085522, 0
2974, 0.2266831475945, -0.07744208046057, 0
2975, 0.09184761275817, -0.059711500659969, 0
2976, 0.30138673172221, -0.0097338795969339, 0
2977, 0.73432283078976, 0.051370250396391, 0
2978, 0.28199505458117, 0.13928432834705, 0
2979, 0.39965084215372, -0.2164001814171, 0
2980, 0.25372604381474, -0.052362100486765, 0
2981, 0.64409466315446, -0.18147057142125, 0
2982, 0.70143885410555, -0.10116041685245, 0
2983, 0.42949590702334, -0.17574452157486, 0
2984, 0.50425601075588, 0.26676770464082, 0
2985, 0.63499080559374, 0.23854330951517, 0
2986, 0.59510653239313, -0.19837873309019, 0
2987, 0.3802547352408, -0.17199953224029, 0
2988, 0.73650258203998, -0.028297007759329, 0
2989, 0.47660632645391, -0.19210378179258, 0
2990, 0.51329506158529, -0.18102000645279, 0
2991, 0.6567303087747, -0.17340635889517, 0
2992, 0.71697125236612, 0.098999233210519, 0
2993, 0.39552308325551, -0.19099004563946, 0
2994, 0.17883849090367, -0.044529748454439, 0
2995, 0.20345293682871, 0.18760956635329, 0
2996, 0.61753000521849, 0.23848704063285, 0
2997, 0.32745189269266, 0.21602715177788, 0
2998, 0.2555539541194, 0.19872196760933, 0
2999, 0.72629074320766, 0.055215722910251, 0
3000, 0.28355085311923, 0.091853568427175, 0
3001, 0.75146569225743, 0.093690982588645, 0
3002, 0.49974469270285, 0.26582262728984, 0
3003, 0.61037596933508, -0.15509598062926, 0
3004, 0.28713439787294, 0.16828209145945, 0
3005, 0.26975125393825, -0.031822106041488, 0
3006, 0.48066245740477, 0.27234752556838, 0
3007, 0.4568411524931, -0.22695290423356, 0
3008, 0.70995795350196, -0.067465287885402, 0
3009, 0.27533071090286, 0.10083762902992, 0
3010, 0.39855116494471, -0.16369544435357, 0
3011, 0.33759479531892, 0.22191041646851, 0
3012, 0.6299385621669, -0.15608104847511, 0
3013, 0.65146640849487, -0.13663362541423, 0
3014, 0.65744159002472, -0.132902836026, 0
3015, 0.86053409608495, 0.24072869166022, 0
3016, 0.28294484662173, 0.086779170094578, 0
3017, 0.2827339773857, 0.081577250116313, 0
3018, 0.83352000133485, -0.093614835375745, 0
3019, 0.16531302441885, 0.025060712353857, 0
3020, 0.12521215965959, -0.0010746029820316, 0
3021, 0.79221932758552, 0.19411572981444, 0
3022, 0.68335463626021, 0.18658960845415, 0
3023, 0.82005641595786, 0.082638438030189, 0
3024, 0.93082652351205, 0.024536708197447, 0
3025, 0.8152545909735, 0.28300489748513, 0
3026, 0.72134037601862, 0.016416574414801, 0
3027, 0.91251171961112, 0.25090210077386, 0
3028, 0.80106236840992, 0.15260156107805, 0
3029, 0.72108176670172, 0.028988992722172, 0
3030, 0.81410175449721, 0.05420874131907, 0
3031, 0.72851091100954, 0.0987097233281, 0
3032, 0.73257083011748, 0.084093517916794, 0
3033, 0.75275637738712, 0.14722005226866, 0
3034, 0.74281516806349, 0.28478763630552, 0
3035, 0.85021478660103, 0.20439909053358, 0
3036, 0.8175177906259, 0.15147724095194, 0
3037, 0.76645294995899, 0.26878271947569, 0
3038, 0.87557621937149, 0.21369870533323, 0
3039, 0.71889515106258, 0.1766927880637, 0
3040, 0.91064663847516, 0.15094623402468, 0
3041, 0.93889436541139, 0.2463089531079, 0
3042, 0.65175089894075, 0.22983146904935, 0
3043, 0.76658775749069, 0.25327587979827, 0
3044, 0.66034183734286, 0.23512948831243, 0
3045, 0.96820204501403, 0.24449209602415, 0
3046, 0.88352454457132, 0.18287273957064, 0
3047, 0.81329977296774, 0.21769005375433, 0
3048, 0.81593273101566, 0.17068208302725, 0
3049, 0.89928569462648, 0.11622248851492, 0
3050, 0.82355402134234, 0.0092335839589013, 0
3051, 0.79099288983974, 0.26781442048921, 0
3052, 0.84036114038661, 0.28167751060523, 0
3053, 0.73104941229331, 0.10808975932428, 0
3054, 0.75029657077146, 0.023626884944355, 0
3055, 0.7342802805303, 0.072331408017737, 0
3056, 0.7193531154864, -0.0039039104974341, 0
3057, 0.930735399322, 0.068265466406193, 0
3058, 0.7354206668194, 0.046627468064617, 0
3059, 0.78223630371179, 0.16357203221217, 0
3060, 0.88018550340003, 0.10387394911879, 0
3061, 0.3205390699023, 0.28154892421716, 0
3062, 0.33883757000942, 0.28948964544347, 0
3063, 0.36081572018763, 0.26084624540373, 0
3064, 0.35341296688707, 0.26882055061539, 0
3065, 0.37232634229492, 0.25478341704429, 0
3066, 0.37833247274843, 0.25585583219252, 0
3067, 0.38426703262833, 0.25667549761311, 0
3068, 0.39015205077516, 0.25723241831544, 0
3069, 0.38650487154049, 0.28192352088238, 0
3070, 0.37744926449741, 0.28162715084491, 0
3071, 0.36783477731239, 0.28098849563355, 0
3072, 0.35671764313197, 0.27997022907885, 0
3073, 0.33504735918233, 0.22787335610678, 0
3074, 0.32441611403364, 0.22487923779992, 0
3075, 0.36634892576153, 0.25332022408949, 0
3076, 0.34008653400293, 0.27811004633332, 0
3077, 0.61882558036136, -0.18943504551791, 0
3078, 0.64576166963621, -0.14722001185446, 0
3079, 0.30116032187107, -0.028189024195949, 0
3080, 0.26144833700297, 0.015353641949316, 0
3081, 0.88451746059242, 0.068183032606507, 0
3082, 0.82916260192032, 0.024641098140317, 0
3083, 0.90467444274337, -0.0038977076997196, 0
3084, 0.90636310695597, 0.017034707660757, 0
3085, 0.90747793427582, 0.037600349517858, 0
3086, 0.7394910688598, 0.028195822737824, 0
3087, 0.72010241431805, 0.041644649920254, 0
3088, 0.90809151001472, 0.057735115773352, 0
3089, 0.44222404588972, -0.19385430215463, 0
3090, 0.45820990854195, -0.24248105669824, 0
3091, 0.5131584588802, -0.17071239781312, 0
3092, 0.50342051419101, -0.2686255553436, 0
3093, 0.69669603537516, -0.090916467393698, 0
3094, 0.73953563906019, -0.057206961668675, 0
3095, 0.31267234388684, -0.098391711744232, 0
3096, 0.28651039750108, -0.058031135597335, 0
3097, 0.59211934485788, 0.28907102497006, 0
3098, 0.60168390084376, 0.2891647466359, 0
3099, 0.61162321079632, 0.28839474891907, 0
3100, 0.62275832370584, 0.28667410120999, 0
3101, 0.62320058125724, 0.22696920527297, 0
3102, 0.64350570635592, 0.21935112452046, 0
3103, 0.59913372647269, 0.24405449288305, 0
3104, 0.63668514725193, 0.28332542824919, 0
3105, 0.72531854700452, 0.059743451049109, 0
3106, 0.71930749973019, 0.08010851247543, 0
3107, 0.7170446719751, 0.085107545408852, 0
3108, 0.72368397982434, 0.10529306107375, 0
3109, 0.72433364737192, 0.064178059048549, 0
3110, 0.77684668711713, 0.081173581713995, 0
******* E L E M E N T S *************
*ELEMENT, type=T3D2, ELSET=Line1
1, 1, 10
2, 10, 19
3, 19, 11
4, 11, 20
5, 20, 12
6, 12, 21
7, 21, 13
8, 13, 22
9, 22, 14
10, 14, 23
11, 23, 15
12, 15, 24
13, 24, 16
14, 16, 25
15, 25, 17
16, 17, 26
17, 26, 18
18, 18, 2
*ELEMENT, type=T3D2, ELSET=Line2
19, 2, 27
20, 27, 31
21, 31, 28
22, 28, 32
23, 32, 29
24, 29, 33
25, 33, 30
26, 30, 3
*ELEMENT, type=T3D2, ELSET=Line3
27, 3, 34
28, 34, 43
29, 43, 35
30, 35, 44
31, 44, 36
32, 36, 45
33, 45, 37
34, 37, 46
35, 46, 38
36, 38, 47
37, 47, 39
38, 39, 48
39, 48, 40
40, 40, 49
41, 49, 41
42, 41, 50
43, 50, 42
44, 42, 4
*ELEMENT, type=T3D2, ELSET=Line4
45, 4, 51
46, 51, 62
47, 62, 52
48, 52, 63
49, 63, 53
50, 53, 64
51, 64, 54
52, 54, 65
53, 65, 55
54, 55, 66
55, 66, 56
56, 56, 67
57, 67, 57
58, 57, 68
59, 68, 58
60, 58, 69
61, 69, 59
62, 59, 70
63, 70, 60
64, 60, 71
65, 71, 61
66, 61, 5
*ELEMENT, type=T3D2, ELSET=Line5
67, 5, 72
68, 72, 83
69, 83, 73
70, 73, 84
71, 84, 74
72, 74, 85
73, 85, 75
74, 75, 86
75, 86, 76
76, 76, 87
77, 87, 77
78, 77, 88
79, 88, 78
80, 78, 89
81, 89, 79
82, 79, 90
83, 90, 80
84, 80, 91
85, 91, 81
86, 81, 92
87, 92, 82
88, 82, 6
*ELEMENT, type=T3D2, ELSET=Line6
89, 6, 93
90, 93, 102
91, 102, 94
92, 94, 103
93, 103, 95
94, 95, 104
95, 104, 96
96, 96, 105
97, 105, 97
98, 97, 106
99, 106, 98
100, 98, 107
101, 107, 99
102, 99, 108
103, 108, 100
104, 100, 109
105, 109, 101
106, 101, 7
*ELEMENT, type=T3D2, ELSET=Line7
107, 7, 110
108, 110, 122
109, 122, 111
110, 111, 123
111, 123, 112
112, 112, 124
113, 124, 113
114, 113, 125
115, 125, 114
116, 114, 126
117, 126, 115
118, 115, 127
119, 127, 116
120, 116, 128
121, 128, 117
122, 117, 129
123, 129, 118
124, 118, 130
125, 130, 119
126, 119, 131
127, 131, 120
128, 120, 132
129, 132, 121
130, 121, 8
*ELEMENT, type=T3D2, ELSET=Line8
131, 8, 133
132, 133, 144
133, 144, 134
134, 134, 145
135, 145, 135
136, 135, 146
137, 146, 136
138, 136, 147
139, 147, 137
140, 137, 148
141, 148, 138
142, 138, 149
143, 149, 139
144, 139, 150
145, 150, 140
146, 140, 151
147, 151, 141
148, 141, 152
149, 152, 142
150, 142, 153
151, 153, 143
152, 143, 1
*ELEMENT, type=T3D2, ELSET=Line9
153, 9, 154
154, 154, 334
155, 334, 332
156, 332, 335
157, 335, 331
158, 331, 336
159, 336, 330
160, 330, 337
161, 337, 329
162, 329, 338
163, 338, 328
164, 328, 339
165, 339, 327
166, 327, 340
167, 340, 326
168, 326, 341
169, 341, 325
170, 325, 342
171, 342, 324
172, 324, 343
173, 343, 323
174, 323, 344
175, 344, 322
176, 322, 345
177, 345, 321
178, 321, 346
179, 346, 320
180, 320, 347
181, 347, 319
182, 319, 348
183, 348, 318
184, 318, 349
185, 349, 317
186, 317, 350
187, 350, 316
188, 316, 351
189, 351, 315
190, 315, 352
191, 352, 314
192, 314, 353
193, 353, 313
194, 313, 354
195, 354, 312
196, 312, 355
197, 355, 311
198, 311, 356
199, 356, 310
200, 310, 357
201, 357, 309
202, 309, 358
203, 358, 308
204, 308, 359
205, 359, 307
206, 307, 360
207, 360, 306
208, 306, 361
209, 361, 305
210, 305, 362
211, 362, 304
212, 304, 363
213, 363, 303
214, 303, 364
215, 364, 302
216, 302, 365
217, 365, 301
218, 301, 366
219, 366, 300
220, 300, 367
221, 367, 299
222, 299, 368
223, 368, 298
224, 298, 369
225, 369, 297
226, 297, 370
227, 370, 296
228, 296, 371
229, 371, 295
230, 295, 372
231, 372, 294
232, 294, 373
233, 373, 293
234, 293, 374
235, 374, 292
236, 292, 375
237, 375, 291
238, 291, 376
239, 376, 290
240, 290, 377
241, 377, 289
242, 289, 378
243, 378, 288
244, 288, 379
245, 379, 287
246, 287, 380
247, 380, 286
248, 286, 381
249, 381, 285
250, 285, 382
251, 382, 284
252, 284, 383
253, 383, 283
254, 283, 384
255, 384, 282
256, 282, 385
257, 385, 281
258, 281, 386
259, 386, 280
260, 280, 387
261, 387, 279
262, 279, 388
263, 388, 278
264, 278, 389
265, 389, 277
266, 277, 390
267, 390, 276
268, 276, 391
269, 391, 275
270, 275, 392
271, 392, 274
272, 274, 393
273, 393, 273
274, 273, 394
275, 394, 272
276, 272, 395
277, 395, 271
278, 271, 396
279, 396, 270
280, 270, 397
281, 397, 269
282, 269, 398
283, 398, 268
284, 268, 399
285, 399, 267
286, 267, 400
287, 400, 266
288, 266, 401
289, 401, 265
290, 265, 402
291, 402, 264
292, 264, 403
293, 403, 263
294, 263, 404
295, 404, 262
296, 262, 405
297, 405, 261
298, 261, 406
299, 406, 260
300, 260, 407
301, 407, 259
302, 259, 408
303, 408, 258
304, 258, 409
305, 409, 257
306, 257, 410
307, 410, 256
308, 256, 411
309, 411, 255
310, 255, 412
311, 412, 254
312, 254, 413
313, 413, 253
314, 253, 414
315, 414, 252
316, 252, 415
317, 415, 251
318, 251, 416
319, 416, 250
320, 250, 417
321, 417, 249
322, 249, 418
323, 418, 248
324, 248, 419
325, 419, 247
326, 247, 420
327, 420, 246
328, 246, 421
329, 421, 245
330, 245, 422
331, 422, 244
332, 244, 423
333, 423, 243
334, 243, 424
335, 424, 242
336, 242, 425
337, 425, 241
338, 241, 426
339, 426, 240
340, 240, 427
341, 427, 239
342, 239, 428
343, 428, 238
344, 238, 429
345, 429, 237
346, 237, 430
347, 430, 236
348, 236, 431
349, 431, 235
350, 235, 432
351, 432, 234
352, 234, 433
353, 433, 233
354, 233, 434
355, 434, 232
356, 232, 435
357, 435, 231
358, 231, 436
359, 436, 230
360, 230, 437
361, 437, 229
362, 229, 438
363, 438, 228
364, 228, 439
365, 439, 227
366, 227, 440
367, 440, 226
368, 226, 441
369, 441, 225
370, 225, 442
371, 442, 224
372, 224, 443
373, 443, 223
374, 223, 444
375, 444, 222
376, 222, 445
377, 445, 221
378, 221, 446
379, 446, 220
380, 220, 447
381, 447, 219
382, 219, 448
383, 448, 218
384, 218, 449
385, 449, 217
386, 217, 450
387, 450, 216
388, 216, 451
389, 451, 215
390, 215, 452
391, 452, 214
392, 214, 453
393, 453, 213
394, 213, 454
395, 454, 212
396, 212, 455
397, 455, 211
398, 211, 456
399, 456, 210
400, 210, 457
401, 457, 209
402, 209, 458
403, 458, 208
404, 208, 459
405, 459, 207
406, 207, 460
407, 460, 206
408, 206, 461
409, 461, 205
410, 205, 462
411, 462, 204
412, 204, 463
413, 463, 203
414, 203, 464
415, 464, 202
416, 202, 465
417, 465, 201
418, 201, 466
419, 466, 200
420, 200, 467
421, 467, 199
422, 199, 468
423, 468, 198
424, 198, 469
425, 469, 197
426, 197, 470
427, 470, 196
428, 196, 471
429, 471, 195
430, 195, 472
431, 472, 194
432, 194, 473
433, 473, 193
434, 193, 474
435, 474, 192
436, 192, 475
437, 475, 191
438, 191, 476
439, 476, 190
440, 190, 477
441, 477, 189
442, 189, 478
443, 478, 188
444, 188, 479
445, 479, 187
446, 187, 480
447, 480, 186
448, 186, 481
449, 481, 185
450, 185, 482
451, 482, 184
452, 184, 483
453, 483, 183
454, 183, 484
455, 484, 182
456, 182, 485
457, 485, 181
458, 181, 486
459, 486, 180
460, 180, 487
461, 487, 179
462, 179, 488
463, 488, 178
464, 178, 489
465, 489, 177
466, 177, 490
467, 490, 176
468, 176, 491
469, 491, 175
470, 175, 492
471, 492, 174
472, 174, 493
473, 493, 173
474, 173, 494
475, 494, 172
476, 172, 495
477, 495, 171
478, 171, 496
479, 496, 170
480, 170, 497
481, 497, 169
482, 169, 498
483, 498, 168
484, 168, 499
485, 499, 167
486, 167, 500
487, 500, 166
488, 166, 501
489, 501, 165
490, 165, 502
491, 502, 164
492, 164, 503
493, 503, 163
494, 163, 504
495, 504, 162
496, 162, 505
497, 505, 161
498, 161, 506
499, 506, 160
500, 160, 507
501, 507, 159
502, 159, 508
503, 508, 158
504, 158, 509
505, 509, 157
506, 157, 510
507, 510, 156
508, 156, 511
509, 511, 155
510, 155, 512
511, 512, 333
512, 333, 9
*ELEMENT, type=CPS4, ELSET=Surface1
513, 3084, 3083, 2564, 3024
514, 2408, 1771, 2517, 547
515, 3088, 3057, 2010, 2610
516, 1360, 59, 70, 549
517, 66, 56, 1339, 1337
518, 1337, 1339, 1338, 572
519, 1147, 549, 551, 829
520, 561, 916, 568, 1525
521, 907, 2331, 2778, 1160
522, 550, 1944, 1890, 3036
523, 3045, 2491, 2192, 3041
524, 1936, 1342, 3021, 1134
525, 1343, 2001, 1098, 919
526, 932, 935, 1950, 2915
527, 910, 1951, 157, 509
528, 1352, 920, 2824, 1425
529, 2324, 1423, 1347, 533
530, 1459, 1569, 1794, 1549
531, 542, 1350, 1351, 1348
532, 1348, 1351, 1349, 541
533, 1351, 139, 150, 1349
534, 1350, 149, 139, 1351
535, 2107, 2299, 900, 952
536, 1999, 3086, 2181, 1121
537, 2002, 2790, 1964, 957
538, 1984, 2477, 981, 2871
539, 2216, 1166, 1963, 1998
540, 2262, 2004, 3056, 953
541, 581, 1357, 1358, 1355
542, 1355, 1358, 1356, 582
543, 1358, 39, 48, 1356
544, 1357, 47, 39, 1358
545, 2778, 1944, 550, 834
546, 1263, 2178, 903, 2374
547, 2136, 893, 2802, 1583
548, 1076, 58, 69, 2957
549, 2540, 1022, 2819, 1235
550, 1436, 477, 190, 1593
551, 995, 2912, 1050, 2712
552, 1319, 1320, 623, 1424
553, 2770, 1177, 2021, 1769
554, 1347, 534, 624, 1320
555, 925, 1304, 2083, 2356
556, 3053, 1641, 2300, 2301
557, 929, 342, 325, 2801
558, 915, 1454, 2304, 3107
559, 555, 838, 2105, 1373
560, 1921, 1768, 1161, 830
561, 2796, 850, 2087, 839
562, 2571, 2043, 845, 1418
563, 2567, 1458, 1884, 1321
564, 3006, 533, 1319, 1374
565, 629, 3006, 2093, 1512
566, 1198, 1767, 2241, 1475
567, 1372, 1332, 1217, 1172
568, 2105, 865, 1767, 1198
569, 1264, 2758, 202, 464
570, 2071, 2671, 1010, 1758
571, 992, 2266, 1273, 993
572, 1411, 2533, 712, 2724
573, 2527, 2050, 515, 1507
574, 2527, 1507, 1586, 2531
575, 13, 22, 1508, 2970
576, 579, 1388, 1389, 1386
577, 1386, 1389, 1387, 578
578, 1389, 53, 64, 1387
579, 1388, 63, 53, 1389
580, 64, 54, 1392, 1387
581, 1387, 1392, 1390, 578
582, 1392, 1391, 573, 1390
583, 54, 65, 1391, 1392
584, 2539, 779, 2912, 995
585, 2813, 999, 475, 192
586, 1653, 1593, 2523, 2815
587, 990, 2264, 985, 1631
588, 1737, 678, 680, 2369
589, 695, 2512, 2914, 1469
590, 3080, 2351, 1857, 1397
591, 868, 1475, 359, 308
592, 3100, 80, 91, 3099
593, 844, 2873, 847, 1094
594, 2583, 641, 1404, 1405
595, 1573, 2962, 634, 2495
596, 1591, 2584, 383, 284
597, 2497, 633, 1433, 1090
598, 2958, 302, 364, 3103
599, 1594, 2874, 1578, 1576
600, 1131, 1594, 1576, 2284
601, 65, 55, 1410, 1391
602, 1391, 1410, 1409, 573
603, 1410, 1337, 572, 1409
604, 55, 66, 1337, 1410
605, 1225, 713, 1227, 1975
606, 1976, 707, 1138, 1586
607, 519, 2051, 517, 2466
608, 2049, 519, 2466, 1385
609, 2849, 1007, 2525, 1538
610, 1013, 2635, 201, 465
611, 2694, 1517, 1013, 2758
612, 988, 2764, 1048, 2124
613, 2101, 553, 2842, 1920
614, 3044, 1552, 833, 2104
615, 1552, 2571, 1418, 833
616, 589, 668, 686, 2547
617, 2248, 418, 249, 1301
618, 658, 251, 415, 2781
619, 2048, 2846, 1967, 3009
620, 854, 1609, 1151, 1074
621, 1309, 1769, 95, 104
622, 1512, 2093, 622, 1346
623, 2933, 1817, 1149, 2028
624, 2299, 1199, 1455, 900
625, 2211, 1457, 2933, 1345
626, 1098, 1246, 2790, 2002
627, 1332, 2731, 2795, 1217
628, 3103, 364, 303, 2088
629, 2688, 1921, 88, 78
630, 911, 891, 2490, 1073
631, 893, 1708, 2171, 2802
632, 2409, 1916, 67, 57
633, 2240, 1196, 1595, 2062
634, 626, 2498, 1158, 638
635, 1089, 2588, 2587, 2925
636, 1090, 1433, 280, 386
637, 1432, 1090, 386, 281
638, 2526, 2539, 995, 2765
639, 2140, 1008, 983, 1496
640, 1015, 2139, 2003, 2655
641, 1986, 958, 164, 502
642, 958, 962, 503, 164
643, 961, 504, 163, 2916
644, 848, 1216, 1095, 1196
645, 1407, 2104, 1946, 1402
646, 1440, 304, 362, 886
647, 523, 1444, 1445, 1442
648, 1442, 1445, 1443, 524
649, 1445, 119, 131, 1443
650, 1444, 130, 119, 1445
651, 2653, 2141, 195, 471
652, 1021, 2653, 471, 196
653, 1273, 2302, 1007, 2849
654, 2155, 2919, 783, 1516
655, 682, 1861, 2291, 2729
656, 2413, 1556, 666, 671
657, 2128, 2748, 2750, 1448
658, 2772, 3080, 1397, 2358
659, 923, 1843, 1213, 1753
660, 1753, 1213, 2047, 904
661, 1280, 2387, 331, 335
662, 1641, 1988, 1370, 2300
663, 3081, 2610, 1334, 2209
664, 1113, 1298, 964, 1541
665, 1755, 1096, 1542, 1327
666, 2789, 1456, 947, 1513
667, 2323, 532, 375, 292
668, 853, 1366, 1375, 1261
669, 2663, 620, 621, 1422
670, 1511, 2567, 1321, 627
671, 620, 1512, 1346, 3002
672, 132, 121, 1463, 1461
673, 1461, 1463, 1462, 525
674, 1463, 133, 144, 1462
675, 121, 8, 133, 1463
676, 1158, 2674, 633, 2497
677, 2605, 1207, 639, 1159
678, 1088, 278, 388, 625
679, 1405, 1464, 1497, 2095
680, 1548, 298, 368, 2020
681, 1927, 863, 1827, 2865
682, 863, 371, 296, 1827
683, 1300, 248, 418, 2248
684, 2728, 427, 240, 2184
685, 2373, 2187, 2436, 2779
686, 1849, 2160, 650, 1626
687, 2632, 2582, 1406, 514
688, 639, 535, 2584, 637
689, 2661, 613, 606, 2868
690, 850, 2563, 1403, 2087
691, 1441, 849, 1550, 2873
692, 866, 1173, 2927, 870
693, 3098, 3097, 2731, 1332
694, 50, 42, 1478, 1476
695, 1476, 1478, 1477, 584
696, 1478, 51, 62, 1477
697, 42, 4, 51, 1478
698, 145, 135, 1482, 1479
699, 1479, 1482, 1480, 522
700, 1482, 1481, 536, 1480
701, 135, 146, 1481, 1482
702, 2819, 1539, 473, 194
703, 1952, 1758, 1275, 1415
704, 1417, 1436, 1593, 1653
705, 996, 1574, 1030, 2069
706, 146, 136, 1487, 1481
707, 1481, 1487, 1485, 536
708, 1487, 1486, 537, 1485
709, 136, 147, 1486, 1487
710, 150, 140, 1490, 1349
711, 1349, 1490, 1488, 541
712, 1490, 1489, 540, 1488
713, 140, 151, 1489, 1490
714, 2983, 2736, 737, 1260
715, 3091, 199, 467, 1380
716, 2648, 1821, 1110, 3090
717, 780, 2254, 1494, 1283
718, 1416, 738, 205, 461
719, 2892, 1000, 2691, 1205
720, 1415, 1275, 784, 1491
721, 1004, 1484, 2122, 1435
722, 1405, 1404, 1811, 1464
723, 2495, 634, 2732, 2586
724, 1544, 1465, 385, 282
725, 2498, 625, 2674, 1158
726, 1501, 2277, 2733, 977
727, 967, 944, 2115, 1719
728, 1163, 2006, 1195, 979
729, 970, 2871, 2076, 2316
730, 2071, 2892, 1205, 2671
731, 1656, 1234, 1259, 2595
732, 1782, 1734, 2089, 1784
733, 1671, 781, 210, 456
734, 1974, 2528, 540, 1844
735, 1411, 2049, 1226, 2533
736, 14, 23, 1384, 2592
737, 2592, 1384, 518, 1383
738, 2506, 2756, 826, 1398
739, 855, 1459, 1549, 1793
740, 1166, 2788, 2988, 1963
741, 1246, 1568, 2216, 2790
742, 1456, 1241, 1514, 947
743, 2672, 1483, 203, 463
744, 1505, 2430, 776, 1446
745, 1109, 1953, 2989, 543
746, 2851, 2309, 1602, 1604
747, 131, 120, 1520, 1443
748, 1443, 1520, 1519, 524
749, 1520, 1461, 525, 1519
750, 120, 132, 1461, 1520
751, 2058, 736, 1735, 1545
752, 2254, 208, 458, 1494
753, 2648, 2759, 513, 1821
754, 1801, 1802, 929, 1523
755, 2099, 934, 3053, 1608
756, 2406, 2179, 2387, 1280
757, 2489, 326, 340, 1167
758, 1371, 2829, 2046, 2180
759, 3055, 1451, 1527, 2771
760, 3109, 898, 2388, 1842
761, 758, 2621, 793, 2511
762, 1521, 746, 1248, 765
763, 774, 1529, 1269, 2793
764, 48, 40, 1533, 1356
765, 1356, 1533, 1531, 582
766, 1533, 1532, 583, 1531
767, 40, 49, 1532, 1533
768, 2515, 597, 1534, 2741
769, 2650, 599, 395, 272
770, 2585, 610, 1824, 616
771, 2654, 2653, 1021, 2814
772, 2912, 2654, 2814, 1050
773, 1298, 954, 961, 964
774, 1327, 1542, 2629, 971
775, 2116, 2463, 2982, 1722
776, 2481, 1722, 974, 2318
777, 1464, 1811, 1434, 1572
778, 535, 1209, 384, 283
779, 630, 2095, 626, 1646
780, 634, 1911, 632, 2732
781, 2953, 1530, 1565, 734
782, 2457, 2030, 1687, 1191
783, 2865, 1888, 1571, 1887
784, 1074, 1150, 857, 1066
785, 1066, 857, 93, 102
786, 1376, 628, 1366, 853
787, 1511, 627, 2673, 1569
788, 2663, 1422, 106, 98
789, 1920, 2842, 2656, 1553
790, 865, 1197, 2856, 1767
791, 867, 1551, 841, 2744
792, 553, 2103, 1407, 2842
793, 2018, 2370, 420, 247
794, 1244, 1872, 1245, 1606
795, 2358, 1960, 2773, 2513
796, 2342, 697, 678, 1737
797, 2374, 903, 1988, 1641
798, 1937, 2866, 2921, 3015
799, 2753, 9, 333, 1526
800, 3034, 87, 77, 830
801, 1618, 941, 2287, 2884
802, 1622, 2931, 1164, 2922
803, 997, 1364, 2797, 2799
804, 2809, 1879, 1859, 2558
805, 2457, 1191, 2363, 791
806, 2620, 2250, 2509, 743
807, 1327, 971, 1302, 2285
808, 959, 2791, 1298, 1113
809, 2119, 1765, 1910, 1540
810, 1113, 1541, 1566, 960
811, 1261, 1375, 856, 1309
812, 2617, 1511, 1569, 1459
813, 1827, 296, 370, 858
814, 1573, 1466, 1498, 2962
815, 635, 1089, 2925, 641
816, 1157, 1471, 1089, 635
817, 2719, 1123, 1848, 1611
818, 1254, 2643, 1053, 1277
819, 2484, 2130, 2720, 1106
820, 1255, 2576, 1847, 1054
821, 2415, 2239, 358, 309
822, 839, 2087, 2103, 553
823, 1578, 1577, 884, 1576
824, 312, 354, 1577, 1578
825, 827, 2339, 2425, 2121
826, 2114, 1232, 3095, 1672
827, 2405, 1761, 436, 231
828, 824, 2327, 2110, 1231
829, 2841, 2045, 890, 2170
830, 2384, 2611, 1708, 893
831, 905, 1082, 2150, 2306
832, 2923, 889, 2274, 2268
833, 1227, 714, 11, 20
834, 515, 1976, 1586, 1507
835, 1587, 1383, 707, 1976
836, 2531, 1586, 1138, 1139
837, 2502, 1837, 1680, 1830
838, 2680, 1187, 789, 2393
839, 1856, 2149, 676, 1243
840, 1838, 790, 1187, 2680
841, 1434, 277, 389, 1572
842, 1346, 622, 289, 377
843, 621, 2984, 2570, 628
844, 1573, 2495, 1912, 1648
845, 1630, 986, 1005, 1447
846, 1362, 1394, 2798, 2266
847, 1484, 1018, 2599, 2751
848, 1475, 2241, 307, 359
849, 3104, 1923, 2242, 1441
850, 2874, 845, 311, 355
851, 2856, 306, 360, 3101
852, 443, 224, 1599, 1596
853, 1596, 1599, 1597, 797
854, 1599, 1598, 798, 1597
855, 224, 442, 1598, 1599
856, 1423, 2618, 534, 1347
857, 1367, 1808, 1806, 2618
858, 750, 2459, 772, 1700
859, 1521, 758, 749, 746
860, 1601, 2666, 733, 2888
861, 1528, 745, 2447, 544
862, 1700, 772, 1600, 2034
863, 2034, 1546, 1169, 754
864, 1529, 2448, 2987, 1269
865, 2888, 733, 220, 446
866, 2419, 3005, 1701, 2109
867, 684, 2615, 2295, 826
868, 1607, 1857, 2351, 2259
869, 679, 1237, 245, 421
870, 901, 2375, 2080, 567
871, 1272, 2142, 3026, 1925
872, 1569, 2673, 1178, 1794
873, 1591, 284, 382, 1176
874, 2770, 856, 1460, 2768
875, 1308, 1023, 2690, 3013
876, 3013, 2690, 486, 181
877, 1031, 1694, 2603, 2173
878, 2154, 2581, 994, 2981
879, 2713, 1344, 2217, 1096
880, 2318, 974, 2289, 2117
881, 2244, 2804, 1751, 2074
882, 1567, 951, 1918, 2670
883, 1753, 904, 548, 1895
884, 1988, 1524, 1523, 1370
885, 1843, 1359, 1102, 1213
886, 931, 328, 338, 2870
887, 2141, 1235, 472, 195
888, 2604, 2911, 1709, 1310
889, 1042, 1563, 2858, 989
890, 1677, 1809, 2714, 1619
891, 1019, 1040, 2608, 2471
892, 2551, 1575, 1995, 2857
893, 1837, 1212, 2146, 1680
894, 2066, 2878, 725, 2326
895, 823, 1762, 715, 1251
896, 2552, 1672, 807, 1287
897, 2355, 2968, 2907, 1776
898, 618, 126, 115, 1839
899, 1472, 2867, 2894, 2882
900, 2651, 3011, 650, 2160
901, 23, 15, 1629, 1384
902, 1384, 1629, 1627, 518
903, 2208, 544, 2510, 2029
904, 15, 24, 1628, 1629
905, 1652, 2394, 1809, 1677
906, 2003, 1365, 1396, 2764
907, 993, 2524, 1417, 987
908, 994, 1122, 1563, 1042
909, 2691, 1014, 1447, 1495
910, 1003, 2718, 1039, 1266
911, 1184, 1109, 543, 1128
912, 1715, 2384, 893, 2136
913, 1635, 1638, 1636, 562
914, 1638, 323, 343, 1636
915, 3039, 557, 1716, 2345
916, 2959, 2099, 2492, 894
917, 1527, 1303, 2179, 2406
918, 564, 2011, 520, 3106
919, 3108, 1167, 927, 1368
920, 1902, 2444, 690, 1741
921, 670, 1125, 1330, 687
922, 2413, 671, 692, 2833
923, 2403, 1855, 2412, 828
924, 1605, 1959, 243, 423
925, 1872, 825, 2861, 1245
926, 2095, 1497, 2498, 626
927, 1207, 1209, 535, 639
928, 1649, 110, 122, 1647
929, 1648, 7, 110, 1649
930, 1275, 1141, 1651, 784
931, 2206, 1142, 770, 2156
932, 738, 1759, 462, 205
933, 2887, 1757, 2955, 2636
934, 2266, 2798, 2302, 1273
935, 1539, 2124, 193, 473
936, 2371, 2816, 1394, 1362
937, 1174, 2702, 1267, 2621
938, 2703, 2710, 2993, 2726
939, 756, 748, 1249, 545
940, 1174, 2243, 761, 2702
941, 2221, 2754, 2538, 1129
942, 1446, 776, 2961, 1734
943, 1633, 1657, 31, 28
944, 1495, 1447, 1005, 1791
945, 1795, 689, 2978, 1421
946, 588, 651, 2442, 2186
947, 2291, 673, 2738, 1399
948, 795, 1663, 1664, 1662
949, 1662, 1664, 1596, 797
950, 1664, 223, 443, 1596
951, 1663, 444, 223, 1664
952, 513, 1667, 1668, 1665
953, 1665, 1668, 18, 2
954, 1668, 1666, 26, 18
955, 2090, 459, 208, 2254
956, 2072, 1522, 2993, 2041
957, 1258, 1506, 1284, 769
958, 2339, 2709, 811, 2425
959, 1899, 2270, 729, 2785
960, 2499, 2064, 1703, 1222
961, 1211, 1785, 1624, 2963
962, 1277, 1053, 1575, 2551
963, 2395, 1091, 1055, 2556
964, 2799, 576, 1913, 2039
965, 1622, 2922, 2153, 2784
966, 2812, 1299, 2883, 2330
967, 2785, 729, 2339, 827
968, 721, 241, 425, 2818
969, 2783, 1210, 2147, 730
970, 49, 41, 1683, 1532
971, 1532, 1683, 1682, 583
972, 1683, 1476, 584, 1682
973, 41, 50, 1476, 1683
974, 1100, 2136, 1583, 877
975, 892, 2226, 322, 344
976, 2802, 2171, 876, 2803
977, 872, 2191, 1557, 2134
978, 1654, 216, 450, 2529
979, 1688, 1180, 221, 445
980, 2666, 2953, 734, 733
981, 2448, 2229, 2668, 2987
982, 686, 2183, 252, 414
983, 701, 3009, 2414, 2372
984, 1125, 655, 2373, 1330
985, 1024, 2154, 2981, 2040
986, 1996, 2336, 481, 186
987, 2039, 1913, 1081, 2263
988, 2982, 2074, 2075, 969
989, 1621, 2805, 176, 490
990, 1152, 495, 172, 2077
991, 1697, 1439, 2288, 1695
992, 960, 1566, 2217, 1344
993, 1271, 2210, 1699, 2791
994, 953, 3056, 2210, 1271
995, 1568, 953, 1271, 955
996, 2309, 763, 762, 1602
997, 2702, 761, 2703, 774
998, 1783, 213, 453, 764
999, 2835, 2458, 2745, 2725
1000, 2878, 2681, 2646, 725
1001, 805, 2502, 1830, 1224
1002, 2555, 2667, 751, 2864
1003, 816, 226, 440, 2338
1004, 563, 1250, 2346, 1585
1005, 1638, 892, 344, 323
1006, 1083, 2792, 905, 2172
1007, 2860, 316, 350, 1637
1008, 1235, 2819, 194, 472
1009, 1031, 2173, 2131, 1620
1010, 3012, 2602, 1798, 1561
1011, 2751, 2926, 2718, 1003
1012, 2275, 878, 2840, 1730
1013, 2859, 1726, 557, 3039
1014, 2134, 1557, 2684, 563
1015, 2930, 2225, 2347, 2135
1016, 2171, 318, 348, 876
1017, 2170, 890, 1712, 887
1018, 1728, 1730, 1729, 875
1019, 1124, 2609, 1909, 2482
1020, 661, 1737, 2369, 2817
1021, 2777, 2503, 1823, 2366
1022, 2503, 409, 258, 1823
1023, 940, 2721, 2433, 3094
1024, 2285, 1302, 2477, 1984
1025, 939, 2318, 2117, 950
1026, 2074, 1751, 1165, 2075
1027, 538, 1724, 1725, 1723
1028, 1723, 1725, 1350, 542
1029, 1725, 138, 149, 1350
1030, 1724, 148, 138, 1725
1031, 1713, 1770, 2880, 2456
1032, 887, 1707, 1584, 2276
1033, 2828, 1181, 2566, 1684
1034, 890, 875, 1732, 1712
1035, 881, 1182, 320, 346
1036, 1181, 1100, 877, 2566
1037, 2827, 2276, 2455, 1686
1038, 2841, 2170, 2827, 1726
1039, 831, 2685, 1182, 881
1040, 1731, 873, 3022, 1707
1041, 872, 1705, 2825, 2191
1042, 736, 2631, 2344, 1735
1043, 1781, 2983, 1260, 767
1044, 1420, 1450, 2018, 1643
1045, 2213, 2812, 2330, 2549
1046, 674, 242, 424, 677
1047, 1240, 2478, 1962, 2370
1048, 1927, 2865, 1887, 1570
1049, 1066, 102, 94, 1467
1050, 1796, 593, 2590, 2995
1051, 2365, 1743, 654, 2890
1052, 354, 313, 1746, 1577
1053, 1577, 1746, 1744, 884
1054, 1746, 1745, 880, 1744
1055, 313, 353, 1745, 1746
1056, 43, 1749, 1750, 34
1057, 34, 1750, 1747, 3
1058, 1750, 1748, 521, 1747
1059, 1749, 576, 1748, 1750
1060, 1540, 1910, 2713, 973
1061, 1213, 1102, 1084, 2047
1062, 565, 894, 913, 1304
1063, 1454, 329, 337, 2304
1064, 2871, 981, 2073, 2076
1065, 976, 2290, 2743, 2315
1066, 2787, 2628, 1501, 2627
1067, 2477, 2723, 966, 981
1068, 1656, 1379, 3089, 1234
1069, 3090, 1110, 1071, 2844
1070, 1276, 778, 2919, 2155
1071, 1010, 2126, 1891, 1141
1072, 803, 1681, 1286, 2426
1073, 799, 2312, 435, 232
1074, 2616, 227, 439, 814
1075, 2878, 2120, 2869, 2681
1076, 153, 143, 1764, 1763
1077, 1763, 1764, 1413, 516
1078, 1764, 10, 19, 1413
1079, 143, 1, 10, 1764
1080, 2462, 1499, 1163, 1500
1081, 2198, 970, 2316, 2832
1082, 2480, 2901, 2628, 2787
1083, 1578, 2874, 355, 312
1084, 2087, 1403, 3044, 2103
1085, 2563, 2106, 851, 885
1086, 841, 1949, 1408, 842
1087, 1177, 854, 1467, 2021
1088, 1150, 1068, 863, 1927
1089, 862, 2598, 2020, 1738
1090, 2623, 911, 1073, 3059
1091, 2134, 563, 1585, 2954
1092, 875, 1729, 1101, 1732
1093, 1335, 835, 1250, 1981
1094, 3015, 2921, 1430, 2941
1095, 2941, 1430, 2948, 1072
1096, 2188, 1301, 2025, 2203
1097, 2997, 267, 399, 2968
1098, 111, 1777, 1647, 122
1099, 2166, 3073, 2160, 1849
1100, 1939, 2906, 2893, 617
1101, 2882, 2585, 616, 602
1102, 1534, 1218, 273, 393
1103, 2642, 1118, 112, 124
1104, 2296, 2017, 1961, 2368
1105, 2738, 2368, 1862, 2367
1106, 2370, 1962, 246, 420
1107, 1555, 2215, 1780, 1861
1108, 782, 1322, 2033, 2057
1109, 2635, 2042, 466, 201
1110, 1276, 2155, 1953, 1109
1111, 2072, 1258, 769, 1522
1112, 1322, 1670, 2983, 1781
1113, 1545, 1735, 1506, 1258
1114, 2630, 1782, 1784, 1670
1115, 800, 2426, 1212, 1837
1116, 788, 2863, 2327, 824
1117, 1672, 3095, 2963, 807
1118, 812, 727, 2837, 2614
1119, 404, 263, 1790, 1787
1120, 1787, 1790, 1788, 642
1121, 1790, 1789, 643, 1788
1122, 263, 403, 1789, 1790
1123, 2765, 2763, 1069, 1129
1124, 2766, 2895, 1016, 777
1125, 2503, 1421, 257, 409
1126, 2093, 855, 1793, 622
1127, 2770, 2768, 2569, 1177
1128, 628, 2570, 532, 1366
1129, 2460, 691, 2444, 1902
1130, 662, 416, 251, 658
1131, 653, 2847, 1314, 2230
1132, 1800, 1693, 1620, 991
1133, 2922, 2800, 2574, 2153
1134, 2411, 1033, 1041, 2903
1135, 2799, 2797, 1105, 576
1136, 343, 324, 1802, 1636
1137, 1636, 1802, 1801, 562
1138, 1077, 956, 2920, 571
1139, 3001, 2959, 894, 565
1140, 2641, 2281, 1969, 1957
1141, 3062, 125, 114, 2536
1142, 1776, 2907, 3011, 2651
1143, 3069, 1775, 1777, 619
1144, 109, 1807, 1808, 100
1145, 532, 2570, 291, 375
1146, 2570, 2984, 376, 291
1147, 1543, 2605, 1159, 1911
1148, 2937, 2371, 1362, 2067
1149, 978, 1621, 2643, 1254
1150, 1621, 490, 177, 2643
1151, 2962, 1498, 1208, 1543
1152, 631, 637, 1590, 2767
1153, 794, 1688, 1814, 1813
1154, 1813, 1814, 1663, 795
1155, 1814, 222, 444, 1663
1156, 1688, 445, 222, 1814
1157, 1793, 1549, 288, 378
1158, 1376, 853, 105, 97
1159, 623, 2774, 2664, 1458
1160, 913, 561, 1525, 3032
1161, 2011, 915, 3107, 520
1162, 1425, 2824, 3083, 3084
1163, 580, 1819, 1820, 1818
1164, 1818, 1820, 1357, 581
1165, 1820, 38, 47, 1357
1166, 1819, 46, 38, 1820
1167, 1379, 1515, 2944, 3089
1168, 1822, 1665, 2, 27
1169, 1821, 513, 1665, 1822
1170, 1290, 2397, 2249, 656
1171, 1289, 2504, 2079, 1717
1172, 1909, 1902, 1741, 2398
1173, 3066, 3065, 2515, 528
1174, 602, 616, 2634, 1968
1175, 2222, 1939, 617, 1886
1176, 1075, 2952, 1548, 1547
1177, 1309, 856, 2770, 1769
1178, 2865, 1827, 858, 1888
1179, 1885, 636, 595, 1087
1180, 1085, 1778, 1915, 1218
1181, 1219, 2716, 530, 605
1182, 2909, 2053, 234, 432
1183, 2313, 2553, 2392, 2862
1184, 715, 2862, 2405, 2312
1185, 598, 1086, 1885, 2935
1186, 2516, 607, 2641, 1957
1187, 2935, 1885, 1087, 2224
1188, 1825, 2161, 599, 2650
1189, 537, 1486, 1836, 1835
1190, 1835, 1836, 1724, 538
1191, 1836, 137, 148, 1724
1192, 1486, 147, 137, 1836
1193, 1232, 2393, 2190, 3095
1194, 2112, 1786, 233, 433
1195, 2260, 2148, 1318, 1702
1196, 1830, 1680, 2313, 1762
1197, 1958, 2678, 2159, 1880
1198, 2634, 2662, 1293, 600
1199, 1626, 650, 269, 397
1200, 2333, 3054, 1999, 1148
1201, 1297, 936, 2182, 933
1202, 1802, 324, 342, 929
1203, 2083, 3032, 912, 1451
1204, 151, 141, 1846, 1489
1205, 1489, 1846, 1844, 540
1206, 1846, 1845, 539, 1844
1207, 141, 152, 1845, 1846
1208, 1256, 997, 1710, 2485
1209, 1612, 1676, 2132, 1080
1210, 1043, 1051, 2394, 1652
1211, 2580, 1306, 980, 2719
1212, 2741, 1534, 393, 274
1213, 603, 2158, 1535, 1292
1214, 1804, 1626, 397, 270
1215, 613, 2935, 2224, 2924
1216, 2534, 609, 2742, 2823
1217, 3075, 1852, 1085, 597
1218, 2282, 1776, 2651, 1832
1219, 3071, 3070, 1118, 2642
1220, 676, 1236, 2976, 1243
1221, 2148, 237, 429, 1318
1222, 1079, 2471, 2991, 1257
1223, 2152, 1021, 196, 470
1224, 1860, 37, 46, 1819
1225, 1859, 45, 37, 1860
1226, 2017, 699, 694, 1961
1227, 2212, 2348, 2351, 3080
1228, 2127, 721, 2818, 2479
1229, 3, 1747, 1864, 30
1230, 1634, 2939, 1069, 1185
1231, 2138, 2141, 2653, 2654
1232, 1747, 521, 1863, 1864
1233, 24, 16, 1867, 1628
1234, 1529, 2726, 1331, 2448
1235, 2030, 2835, 2725, 1687
1236, 16, 25, 1866, 1867
1237, 2810, 3110, 2334, 1452
1238, 1871, 1869, 572, 1338
1239, 1870, 938, 1869, 1871
1240, 726, 2785, 827, 2009
1241, 2861, 1318, 429, 238
1242, 2279, 2429, 2287, 2639
1243, 2319, 1697, 1695, 2910
1244, 2237, 2278, 939, 2872
1245, 2777, 1795, 1421, 2503
1246, 688, 2248, 1301, 2188
1247, 1081, 1913, 1914, 1878
1248, 2130, 2263, 1278, 2720
1249, 1879, 36, 45, 1859
1250, 1878, 44, 36, 1879
1251, 2158, 266, 400, 1535
1252, 2661, 598, 2935, 613
1253, 1841, 1472, 1851, 1850
1254, 1957, 1969, 603, 615
1255, 643, 1789, 1883, 1882
1256, 1882, 1883, 1779, 648
1257, 1883, 264, 402, 1779
1258, 1789, 403, 264, 1883
1259, 1422, 1376, 97, 106
1260, 1887, 1571, 859, 1067
1261, 860, 1075, 1739, 2918
1262, 2830, 3068, 1958, 1470
1263, 1779, 402, 265, 1828
1264, 1828, 265, 401, 601
1265, 1218, 1915, 394, 273
1266, 2918, 1739, 861, 2597
1267, 1075, 1547, 1928, 1739
1268, 1888, 860, 2918, 1571
1269, 1739, 1928, 2568, 861
1270, 2905, 2008, 1985, 2314
1271, 1721, 501, 166, 1194
1272, 2910, 2279, 2639, 2899
1273, 897, 914, 2175, 3001
1274, 3059, 1073, 1262, 552
1275, 1712, 1732, 2456, 1731
1276, 909, 1981, 2684, 1342
1277, 543, 2989, 2205, 1009
1278, 2092, 1009, 768, 1274
1279, 367, 300, 1894, 1892
1280, 1892, 1894, 1893, 864
1281, 2744, 841, 842, 2958
1282, 1401, 2996, 2063, 838
1283, 2829, 1168, 2440, 2046
1284, 1640, 1263, 2374, 934
1285, 1078, 1353, 2082, 2850
1286, 1199, 2771, 898, 3109
1287, 526, 1897, 1898, 1896
1288, 1896, 1898, 1444, 523
1289, 1898, 118, 130, 1444
1290, 1897, 129, 118, 1898
1291, 2709, 2423, 2340, 811
1292, 2974, 787, 818, 2066
1293, 1680, 2146, 2553, 2313
1294, 2340, 2189, 1673, 2113
1295, 1398, 826, 2295, 1449
1296, 687, 1330, 2853, 1299
1297, 672, 2833, 2185, 670
1298, 1961, 694, 2214, 2889
1299, 2847, 1740, 1126, 1314
1300, 1127, 2443, 1313, 2038
1301, 1743, 2450, 2483, 654
1302, 2775, 1064, 593, 1796
1303, 1238, 2236, 1905, 2235
1304, 1904, 1907, 1348, 541
1305, 1907, 1905, 542, 1348
1306, 2446, 2730, 2391, 2445
1307, 2231, 2037, 645, 1229
1308, 1967, 660, 1288, 1659
1309, 587, 2679, 1718, 703
1310, 594, 1229, 2971, 1230
1311, 2428, 1875, 2000, 2317
1312, 1153, 2480, 2787, 2008
1313, 3094, 2433, 970, 2198
1314, 2495, 2586, 1807, 1912
1315, 1208, 1646, 2582, 2632
1316, 1912, 101, 7, 1648
1317, 1807, 109, 101, 1912
1318, 576, 1749, 1914, 1913
1319, 2857, 1995, 2689, 1675
1320, 1914, 35, 44, 1878
1321, 1749, 43, 35, 1914
1322, 1136, 2222, 1886, 1853
1323, 2894, 2352, 2167, 596
1324, 2881, 1968, 1137, 2535
1325, 1295, 2038, 1315, 2231
1326, 2957, 69, 59, 1360
1327, 899, 154, 9, 2753
1328, 1919, 1917, 938, 1870
1329, 1918, 951, 1917, 1919
1330, 3104, 1441, 2873, 844
1331, 1441, 2242, 2240, 849
1332, 2102, 1947, 1216, 848
1333, 560, 341, 326, 2489
1334, 2107, 2356, 3055, 2299
1335, 3047, 909, 1342, 1936
1336, 1331, 1522, 769, 2696
1337, 1666, 1926, 17, 26
1338, 1926, 1866, 25, 17
1339, 1571, 2918, 2597, 859
1340, 2021, 103, 95, 1769
1341, 2826, 3041, 3027, 902
1342, 2564, 1871, 1338, 2562
1343, 525, 1462, 1932, 1931
1344, 1931, 1932, 1479, 522
1345, 1932, 134, 145, 1479
1346, 1462, 144, 134, 1932
1347, 527, 1934, 1935, 1933
1348, 1933, 1935, 1897, 526
1349, 1935, 117, 129, 1897
1350, 1934, 128, 117, 1935
1351, 1102, 550, 3036, 1084
1352, 2422, 926, 2011, 564
1353, 3037, 1190, 2612, 3043
1354, 3065, 3075, 597, 2515
1355, 595, 2516, 1957, 615
1356, 600, 1293, 2537, 2161
1357, 1118, 619, 123, 112
1358, 2945, 2283, 2416, 1146
1359, 1551, 2951, 1949, 841
1360, 1094, 2688, 78, 89
1361, 902, 1937, 3038, 1431
1362, 928, 931, 2870, 1642
1363, 1132, 1401, 838, 555
1364, 559, 1895, 1201, 2518
1365, 869, 1198, 1475, 868
1366, 1173, 2088, 2044, 2927
1367, 1093, 2272, 2985, 2106
1368, 846, 1893, 1894, 1943
1369, 833, 1418, 1594, 1131
1370, 842, 365, 302, 2958
1371, 1373, 2105, 1198, 869
1372, 3086, 570, 1297, 2181
1373, 2001, 2164, 2004, 2262
1374, 1989, 1816, 3081, 956
1375, 1452, 2334, 1214, 1282
1376, 2636, 2955, 2572, 2573
1377, 2961, 776, 785, 2383
1378, 1324, 468, 199, 3091
1379, 2430, 1274, 738, 1416
1380, 584, 1477, 1956, 1955
1381, 1955, 1956, 1388, 579
1382, 1956, 52, 63, 1388
1383, 1477, 62, 52, 1956
1384, 2354, 648, 2281, 2641
1385, 2882, 2894, 596, 2585
1386, 604, 1839, 609, 2534
1387, 2184, 240, 426, 1736
1388, 2128, 2542, 2328, 2748
1389, 2297, 675, 1237, 679
1390, 2478, 2297, 679, 1962
1391, 919, 1098, 2002, 1345
1392, 981, 966, 943, 2073
1393, 2164, 507, 160, 2004
1394, 152, 142, 1966, 1845
1395, 1845, 1966, 1965, 539
1396, 1966, 1763, 516, 1965
1397, 142, 153, 1763, 1966
1398, 2421, 657, 255, 411
1399, 3070, 3069, 619, 1118
1400, 2942, 2282, 1832, 2967
1401, 3074, 2355, 1776, 2282
1402, 2535, 1137, 1825, 1778
1403, 1057, 1972, 1973, 1970
1404, 1970, 1973, 1531, 583
1405, 1973, 1971, 582, 1531
1406, 1972, 1056, 1971, 1973
1407, 1414, 2055, 2056, 2528
1408, 1411, 2527, 2531, 711
1409, 713, 2943, 714, 1227
1410, 1385, 2466, 2465, 2467
1411, 937, 1979, 1980, 1977
1412, 1977, 1980, 1390, 573
1413, 1980, 1978, 578, 1390
1414, 1979, 1058, 1978, 1980
1415, 2176, 3033, 2441, 1103
1416, 1353, 1354, 2806, 2082
1417, 1096, 2217, 2005, 1542
1418, 2734, 170, 496, 2006
1419, 982, 1502, 2901, 2480
1420, 3032, 1525, 2422, 912
1421, 1097, 1104, 2256, 1754
1422, 1453, 1200, 932, 2915
1423, 705, 1993, 1994, 1991
1424, 1991, 1994, 1485, 537
1425, 1994, 1992, 536, 1485
1426, 1993, 704, 1992, 1994
1427, 1560, 1308, 3013, 1046
1428, 2124, 1048, 474, 193
1429, 1694, 1092, 1037, 2603
1430, 1693, 1047, 1031, 1620
1431, 2932, 1020, 2522, 1004
1432, 2763, 2712, 1630, 2820
1433, 1380, 467, 200, 1954
1434, 955, 1271, 2791, 959
1435, 1699, 505, 162, 954
1436, 1910, 2988, 1344, 2713
1437, 1241, 2916, 962, 1514
1438, 3050, 2143, 920, 1352
1439, 2920, 2209, 3060, 1868
1440, 1639, 1698, 570, 3086
1441, 2955, 1954, 2042, 2572
1442, 2944, 1446, 1734, 1782
1443, 1050, 2814, 2233, 986
1444, 2916, 163, 503, 962
1445, 2790, 2216, 1998, 1964
1446, 2723, 167, 499, 966
1447, 2947, 500, 167, 2723
1448, 2429, 945, 1326, 1438
1449, 812, 2614, 2667, 2555
1450, 1286, 438, 229, 2108
1451, 798, 1598, 1785, 1211
1452, 1103, 2441, 2177, 548
1453, 76, 87, 3034, 2026
1454, 2441, 2305, 2836, 2177
1455, 2331, 1135, 1944, 2778
1456, 1053, 489, 178, 1575
1457, 2131, 1019, 2471, 1079
1458, 1610, 2040, 2575, 1051
1459, 938, 2015, 2016, 1869
1460, 1869, 2016, 1409, 572
1461, 2016, 1977, 573, 1409
1462, 2015, 937, 1977, 2016
1463, 1244, 1606, 2728, 2737
1464, 2817, 2413, 2833, 672
1465, 2342, 1448, 2212, 697
1466, 2358, 1397, 2506, 1960
1467, 1251, 715, 2312, 799
1468, 2327, 1838, 2680, 2110
1469, 864, 862, 1738, 1892
1470, 857, 1570, 6, 93
1471, 2059, 663, 1908, 2917
1472, 1468, 2505, 663, 2059
1473, 1659, 1288, 668, 589
1474, 1288, 1678, 2420, 668
1475, 2482, 1909, 2398, 2821
1476, 1861, 1780, 673, 2291
1477, 2060, 1876, 700, 1329
1478, 1247, 408, 259, 2449
1479, 3098, 81, 92, 3097
1480, 2026, 3034, 1190, 3037
1481, 2062, 1595, 2272, 1093
1482, 3105, 899, 2753, 2999
1483, 1525, 568, 926, 2422
1484, 2175, 1281, 1263, 1640
1485, 567, 2080, 1457, 1270
1486, 758, 2511, 2704, 749
1487, 2886, 742, 218, 448
1488, 2022, 693, 2846, 2048
1489, 1330, 2373, 2779, 2853
1490, 667, 659, 693, 2022
1491, 767, 1260, 1671, 735
1492, 1006, 739, 2672, 2157
1493, 1381, 731, 2759, 2648
1494, 2794, 2902, 2309, 2851
1495, 1175, 452, 215, 1564
1496, 1516, 1650, 1952, 1017
1497, 743, 2509, 745, 1528
1498, 2917, 1908, 2780, 1903
1499, 642, 644, 1797, 1787
1500, 1030, 2269, 2601, 2600
1501, 1038, 2577, 1040, 1019
1502, 2156, 770, 1324, 2843
1503, 1515, 1505, 1446, 2944
1504, 1783, 1518, 454, 213
1505, 2996, 886, 1948, 2063
1506, 1921, 830, 77, 88
1507, 1706, 2385, 871, 2322
1508, 871, 876, 348, 319
1509, 2256, 2746, 917, 1815
1510, 689, 2780, 2546, 2978
1511, 651, 2366, 2386, 2204
1512, 2533, 2294, 1412, 712
1513, 2970, 1508, 1587, 1509
1514, 2294, 1974, 1844, 539
1515, 1383, 518, 2293, 707
1516, 2782, 2864, 2424, 2863
1517, 2109, 804, 1579, 1580
1518, 814, 439, 228, 1681
1519, 2108, 229, 437, 1253
1520, 1734, 2961, 771, 2089
1521, 759, 449, 218, 742
1522, 1180, 2888, 446, 221
1523, 2049, 1385, 1414, 1226
1524, 1225, 1975, 2292, 1382
1525, 2056, 1904, 541, 1488
1526, 2055, 716, 1904, 2056
1527, 1206, 2090, 2254, 780
1528, 1492, 780, 1283, 2637
1529, 2060, 1329, 587, 2891
1530, 1661, 250, 416, 662
1531, 845, 2043, 356, 311
1532, 1428, 2165, 1173, 866
1533, 1949, 846, 1943, 1408
1534, 2966, 2940, 2043, 2571
1535, 1589, 799, 232, 434
1536, 806, 823, 1251, 815
1537, 2553, 2257, 1761, 2392
1538, 2325, 2337, 1623, 2625
1539, 2973, 988, 2124, 1539
1540, 2712, 1050, 986, 1630
1541, 1393, 2986, 2816, 2371
1542, 1365, 1653, 2815, 1396
1543, 1517, 2573, 2635, 1013
1544, 781, 2637, 457, 210
1545, 1784, 2089, 1669, 2736
1546, 1615, 2905, 2486, 1052
1547, 971, 1194, 2947, 1302
1548, 1540, 973, 940, 2852
1549, 976, 1204, 951, 1567
1550, 2316, 2076, 1203, 2118
1551, 1439, 2852, 2722, 2288
1552, 2463, 2244, 2074, 2982
1553, 2246, 2116, 1722, 2481
1554, 2204, 2386, 2451, 1773
1555, 1125, 667, 2022, 655
1556, 2079, 2482, 2821, 685
1557, 1842, 2388, 332, 334
1558, 921, 1989, 956, 1077
1559, 1062, 2085, 2086, 2084
1560, 2084, 2086, 1971, 1056
1561, 2086, 1355, 582, 1971
1562, 2085, 581, 1355, 2086
1563, 2855, 2686, 1922, 2951
1564, 2731, 2200, 2658, 2795
1565, 2088, 303, 363, 2044
1566, 1553, 2656, 837, 1942
1567, 2843, 1324, 3091, 740
1568, 3007, 3090, 2844, 778
1569, 1781, 767, 736, 2058
1570, 2573, 2572, 2042, 2635
1571, 776, 2430, 1416, 785
1572, 1004, 2522, 1018, 1484
1573, 1505, 2092, 1274, 2430
1574, 1733, 740, 1757, 2887
1575, 2586, 1806, 1808, 1807
1576, 1321, 381, 286, 627
1577, 1471, 1775, 2588, 1089
1578, 562, 1801, 2100, 2097
1579, 2097, 2100, 2098, 896
1580, 1270, 1457, 2211, 2669
1581, 1345, 2933, 2028, 919
1582, 2985, 555, 1373, 883
1583, 2165, 3103, 2088, 1173
1584, 885, 851, 1133, 1419
1585, 2239, 868, 308, 358
1586, 1943, 366, 301, 1408
1587, 3104, 844, 79, 90
1588, 1923, 2102, 848, 2242
1589, 2688, 840, 1768, 1921
1590, 2061, 1172, 2619, 1378
1591, 1451, 912, 1303, 1527
1592, 2492, 3031, 916, 561
1593, 3110, 2081, 2829, 1371
1594, 923, 1753, 1895, 559
1595, 1900, 1899, 2785, 726
1596, 3079, 1222, 2053, 2909
1597, 2295, 2615, 1872, 1244
1598, 2786, 2326, 1285, 2019
1599, 2147, 2341, 806, 1252
1600, 1236, 1316, 2879, 2976
1601, 1856, 1243, 1554, 1645
1602, 2501, 805, 1224, 2341
1603, 2901, 1719, 1613, 2628
1604, 2735, 948, 493, 174
1605, 2290, 975, 957, 1964
1606, 2163, 1513, 1986, 1242
1607, 1855, 1580, 1704, 2412
1608, 822, 2419, 1855, 2403
1609, 2974, 819, 1588, 1900
1610, 2426, 1286, 2108, 1212
1611, 2526, 1143, 998, 2539
1612, 2303, 996, 2069, 1363
1613, 2820, 1630, 1447, 1014
1614, 2751, 2599, 1858, 2926
1615, 575, 33, 30, 1864
1616, 2155, 1516, 1017, 1953
1617, 3092, 741, 1016, 2895
1618, 1960, 681, 2129, 2773
1619, 680, 2514, 682, 2834
1620, 2367, 1862, 1328, 698
1621, 2557, 2551, 2857, 1311
1622, 1033, 1044, 2395, 1041
1623, 2800, 2133, 2969, 2897
1624, 2689, 179, 487, 2578
1625, 1705, 2623, 3059, 2825
1626, 2792, 895, 1082, 905
1627, 557, 1686, 2321, 1716
1628, 1099, 1684, 831, 2137
1629, 2607, 2012, 1052, 2486
1630, 1008, 2600, 3003, 983
1631, 2885, 2452, 2607, 2626
1632, 1039, 1677, 1619, 3077
1633, 901, 3082, 921, 1426
1634, 3026, 910, 509, 158
1635, 2262, 953, 1568, 1246
1636, 2972, 803, 2426, 800
1637, 2052, 2786, 2019, 1223
1638, 2312, 2405, 231, 435
1639, 2412, 718, 2065, 828
1640, 1606, 1245, 428, 239
1641, 699, 674, 677, 694
1642, 1233, 1607, 1317, 821
1643, 2385, 2803, 876, 871
1644, 2150, 2151, 2097, 896
1645, 2151, 1635, 562, 2097
1646, 2345, 1716, 1181, 2828
1647, 1034, 2626, 1028, 2014
1648, 2981, 994, 1042, 2174
1649, 2335, 1045, 2602, 3012
1650, 992, 993, 987, 2139
1651, 2264, 3077, 1063, 985
1652, 2223, 2642, 124, 113
1653, 1536, 2741, 274, 392
1654, 3063, 2168, 1852, 3075
1655, 1568, 955, 1166, 2216
1656, 1242, 1986, 502, 165
1657, 1541, 964, 1241, 1456
1658, 2209, 1334, 3049, 3060
1659, 2075, 1165, 1696, 948
1660, 3054, 1639, 3086, 1999
1661, 1419, 3102, 2940, 2966
1662, 851, 883, 2928, 1133
1663, 1292, 1535, 2997, 1840
1664, 605, 530, 1804, 2476
1665, 597, 1085, 1218, 1534
1666, 2893, 593, 1064, 2715
1667, 1770, 314, 352, 2880
1668, 1711, 556, 321, 345
1669, 1726, 2827, 1686, 557
1670, 880, 1745, 1770, 1713
1671, 3014, 180, 486, 2690
1672, 2574, 1061, 941, 1618
1673, 2643, 177, 489, 1053
1674, 1046, 3013, 181, 485
1675, 2613, 2172, 3033, 2176
1676, 1078, 1453, 2915, 1353
1677, 1584, 2860, 1637, 2169
1678, 1369, 565, 1304, 925
1679, 926, 1642, 915, 2011
1680, 912, 2422, 564, 1303
1681, 894, 2492, 561, 913
1682, 655, 2022, 2048, 2023
1683, 693, 3016, 3000, 2846
1684, 660, 2845, 1678, 1288
1685, 655, 2023, 2187, 2373
1686, 703, 1718, 1796, 2995
1687, 2036, 2917, 1903, 2559
1688, 2019, 1285, 702, 2541
1689, 1223, 2705, 517, 1760
1690, 3095, 2190, 1211, 2963
1691, 1785, 225, 441, 1624
1692, 1771, 1936, 1134, 2517
1693, 3083, 1870, 1871, 2564
1694, 1343, 1272, 1925, 2144
1695, 524, 2195, 2196, 1442
1696, 1442, 2196, 2193, 523
1697, 2196, 2194, 591, 2193
1698, 2195, 592, 2194, 2196
1699, 1917, 2199, 2015, 938
1700, 2199, 2197, 937, 2015
1701, 2795, 2658, 2657, 2686
1702, 1946, 1131, 2284, 843
1703, 2201, 1067, 859, 2200
1704, 82, 6, 1067, 2201
1705, 1717, 2079, 685, 2891
1706, 2203, 2025, 1661, 2845
1707, 1953, 1017, 2757, 2989
1708, 740, 3091, 1380, 1757
1709, 2758, 1013, 465, 202
1710, 778, 2844, 2766, 2919
1711, 1656, 2595, 731, 1381
1712, 1950, 2977, 3058, 1354
1713, 2004, 160, 506, 3056
1714, 1399, 2738, 2367, 675
1715, 2368, 1961, 2889, 1862
1716, 2185, 2024, 659, 667
1717, 2349, 2513, 1555, 2514
1718, 3008, 169, 497, 949
1719, 1513, 947, 958, 1986
1720, 965, 498, 169, 3008
1721, 796, 2219, 2220, 1188
1722, 1188, 2220, 2218, 789
1723, 2220, 1597, 798, 2218
1724, 2219, 797, 1597, 2220
1725, 1658, 1130, 2221, 2939
1726, 2752, 1002, 2091, 2990
1727, 1065, 618, 1839, 604
1728, 1850, 1851, 2881, 2168
1729, 1065, 604, 2222, 1136
1730, 3062, 2223, 113, 125
1731, 2172, 905, 2306, 3033
1732, 1707, 3022, 2860, 1584
1733, 2170, 887, 2276, 2827
1734, 1705, 558, 2613, 2623
1735, 2229, 2207, 2908, 2668
1736, 756, 545, 2665, 2243
1737, 757, 1564, 2877, 2711
1738, 1564, 215, 451, 2877
1739, 657, 2078, 412, 255
1740, 1787, 1797, 262, 404
1741, 2449, 259, 407, 2838
1742, 2068, 1393, 2371, 2937
1743, 983, 187, 479, 1496
1744, 2068, 2937, 1437, 1012
1745, 2937, 2067, 1015, 1437
1746, 542, 1905, 2236, 1723
1747, 1723, 2236, 2234, 538
1748, 1116, 2464, 728, 2550
1749, 2647, 717, 2544, 3019
1750, 2210, 161, 505, 1699
1751, 3029, 933, 156, 510
1752, 933, 2182, 511, 156
1753, 2453, 1618, 2884, 1026
1754, 1710, 2039, 2263, 2130
1755, 1257, 2991, 2154, 1024
1756, 1256, 1800, 991, 2640
1757, 1419, 1133, 2415, 3102
1758, 837, 835, 2612, 1942
1759, 1922, 2699, 1893, 846
1760, 1546, 2457, 791, 1169
1761, 2877, 451, 216, 1654
1762, 2290, 1964, 1998, 2743
1763, 2317, 2000, 2278, 2237
1764, 919, 2028, 1272, 1343
1765, 1205, 2691, 1495, 1002
1766, 1651, 2032, 1517, 2694
1767, 2032, 2636, 2573, 1517
1768, 672, 670, 687, 586
1769, 1742, 2230, 590, 644
1770, 1295, 2231, 1229, 594
1771, 2546, 2421, 411, 256
1772, 2033, 2058, 1545, 1504
1773, 734, 1565, 219, 447
1774, 2376, 1654, 2529, 763
1775, 2776, 1468, 2059, 1792
1776, 1296, 2659, 608, 1805
1777, 703, 2995, 1289, 1717
1778, 2401, 1742, 644, 642
1779, 2041, 2993, 2710, 766
1780, 1323, 1070, 1108, 1000
1781, 739, 1186, 1483, 2672
1782, 964, 961, 2916, 1241
1783, 935, 2247, 2977, 1950
1784, 2929, 2389, 1698, 1639
1785, 1762, 2313, 2862, 715
1786, 2270, 2325, 2625, 729
1787, 2261, 2259, 719, 2258
1788, 821, 822, 2403, 2149
1789, 3056, 506, 161, 2210
1790, 901, 1426, 1104, 1097
1791, 2027, 2755, 1816, 1989
1792, 1631, 985, 996, 2303
1793, 2556, 1055, 1023, 2013
1794, 2539, 998, 2123, 779
1795, 998, 1012, 2265, 2123
1796, 1143, 2068, 1012, 998
1797, 2067, 1362, 2266, 992
1798, 2169, 1637, 2611, 2384
1799, 877, 1583, 2385, 1706
1800, 895, 2923, 2268, 1082
1801, 2471, 2608, 577, 2991
1802, 1593, 190, 476, 2523
1803, 1437, 1015, 2655, 2125
1804, 2424, 2695, 790, 1838
1805, 2980, 817, 2145, 1831
1806, 3099, 91, 81, 3098
1807, 870, 2927, 852, 1427
1808, 3104, 90, 80, 3100
1809, 2930, 2135, 2792, 1083
1810, 2611, 317, 349, 1708
1811, 1745, 353, 314, 1770
1812, 973, 2713, 1096, 1755
1813, 2073, 943, 965, 1766
1814, 2008, 2787, 2627, 1985
1815, 3072, 3071, 2642, 2223
1816, 2167, 1291, 1537, 612
1817, 2868, 606, 1834, 2649
1818, 1294, 1941, 2715, 1064
1819, 2924, 2224, 2353, 3074
1820, 1940, 2400, 1805, 1854
1821, 529, 2476, 396, 271
1822, 885, 1419, 2966, 3042
1823, 2848, 1145, 2840, 878
1824, 852, 1440, 886, 2996
1825, 1576, 884, 2283, 2284
1826, 2076, 2073, 1766, 1203
1827, 976, 1567, 975, 2290
1828, 1500, 1163, 979, 1752
1829, 2277, 2286, 1193, 2733
1830, 2733, 1193, 2244, 2463
1831, 1316, 236, 430, 2879
1832, 2737, 2728, 2184, 2343
1833, 1382, 2292, 2970, 1509
1834, 2054, 1139, 2532, 710
1835, 1411, 711, 519, 2049
1836, 1975, 1227, 20, 12
1837, 3005, 2145, 817, 1701
1838, 2213, 661, 586, 2812
1839, 1643, 2018, 247, 419
1840, 2099, 1608, 3031, 2492
1841, 2179, 3106, 1983, 2387
1842, 2387, 1983, 336, 331
1843, 2139, 987, 1365, 2003
1844, 985, 1063, 1574, 996
1845, 2138, 2540, 1235, 2141
1846, 2999, 2753, 1526, 2507
1847, 2388, 1280, 335, 332
1848, 2273, 880, 1713, 1101
1849, 891, 904, 2047, 2490
1850, 2306, 2150, 896, 2305
1851, 2904, 874, 2923, 895
1852, 538, 2234, 2308, 1835
1853, 1835, 2308, 1991, 537
1854, 2308, 2307, 705, 1991
1855, 3019, 2544, 696, 1115
1856, 773, 217, 449, 759
1857, 748, 1866, 1926, 1249
1858, 2029, 2510, 2458, 2835
1859, 2621, 1267, 1865, 793
1860, 683, 431, 236, 1316
1861, 2338, 440, 227, 2616
1862, 2994, 1114, 723, 2682
1863, 2111, 3096, 1210, 2783
1864, 1438, 1325, 1026, 2884
1865, 2117, 2289, 492, 175
1866, 1302, 2947, 2723, 2477
1867, 1502, 967, 1719, 2901
1868, 2429, 1438, 2884, 2287
1869, 949, 497, 170, 2734
1870, 889, 2622, 1711, 2226
1871, 2455, 2169, 2384, 1715
1872, 2226, 1711, 345, 322
1873, 624, 2094, 2767, 2774
1874, 853, 1261, 96, 105
1875, 2768, 1460, 374, 293
1876, 2271, 1679, 2972, 2189
1877, 1760, 517, 2051, 1581
1878, 1673, 800, 1837, 2502
1879, 1115, 696, 2542, 2549
1880, 3020, 724, 717, 2647
1881, 2235, 1905, 1907, 2975
1882, 1679, 2624, 803, 2972
1883, 3041, 2192, 1429, 3027
1884, 2379, 2954, 1685, 2267
1885, 1092, 2557, 1311, 1037
1886, 2578, 487, 180, 3014
1887, 2265, 2125, 2973, 1022
1888, 1693, 1034, 2014, 1047
1889, 1317, 2261, 2427, 820
1890, 1588, 2708, 2782, 2404
1891, 2863, 2424, 1838, 2327
1892, 809, 2113, 805, 2501
1893, 1681, 228, 438, 1286
1894, 2120, 2500, 2258, 2869
1895, 1598, 442, 225, 1785
1896, 2773, 2129, 695, 2215
1897, 1518, 2344, 212, 454
1898, 1192, 214, 452, 1175
1899, 767, 735, 2631, 736
1900, 872, 2134, 2954, 2379
1901, 1685, 888, 1728, 2045
1902, 2321, 1715, 2136, 1100
1903, 3022, 351, 316, 2860
1904, 1233, 684, 826, 2756
1905, 2259, 2351, 2348, 719
1906, 2298, 1399, 675, 2297
1907, 1873, 2350, 1702, 825
1908, 1851, 602, 1968, 2881
1909, 1829, 1941, 2400, 1940
1910, 530, 1849, 1626, 1804
1911, 2536, 114, 126, 618
1912, 2977, 2507, 1938, 3058
1913, 2870, 338, 329, 1454
1914, 2299, 3055, 2771, 1199
1915, 1817, 2333, 1148, 1149
1916, 2213, 2342, 1737, 661
1917, 2479, 2818, 674, 699
1918, 1960, 2506, 1398, 681
1919, 646, 2360, 2361, 2359
1920, 2359, 2361, 2354, 649
1921, 2361, 1882, 648, 2354
1922, 2360, 643, 1882, 2361
1923, 1521, 765, 748, 756
1924, 1865, 2620, 743, 2644
1925, 2529, 450, 217, 773
1926, 750, 1700, 2900, 2697
1927, 2251, 2839, 406, 261
1928, 1299, 2853, 2202, 2883
1929, 2898, 1294, 1064, 2775
1930, 678, 2349, 2514, 680
1931, 671, 1400, 2031, 692
1932, 2357, 2729, 2298, 1901
1933, 1606, 239, 427, 2728
1934, 1011, 3007, 778, 1276
1935, 1758, 1010, 1141, 1275
1936, 2764, 1396, 2813, 1048
1937, 2436, 1792, 2036, 2698
1938, 2230, 1314, 2252, 590
1939, 2609, 2460, 1902, 1909
1940, 2811, 1691, 2078, 2505
1941, 2356, 2083, 1451, 3055
1942, 1249, 2530, 1179, 545
1943, 2378, 2293, 518, 1627
1944, 2377, 708, 2293, 2378
1945, 872, 1714, 558, 1705
1946, 874, 1099, 2137, 2622
1947, 1716, 2321, 1100, 1181
1948, 1585, 2346, 2275, 888
1949, 2975, 1907, 1904, 716
1950, 2307, 2382, 2380, 705
1951, 2382, 2381, 691, 2380
1952, 2325, 824, 1231, 2337
1953, 1259, 2594, 2596, 2595
1954, 1483, 1264, 464, 203
1955, 1735, 2344, 1518, 1506
1956, 874, 2622, 889, 2923
1957, 2623, 2613, 2176, 911
1958, 2274, 889, 2226, 892
1959, 2322, 871, 319, 347
1960, 2024, 2693, 3017, 659
1961, 1343, 2144, 2164, 2001
1962, 1637, 350, 317, 2611
1963, 706, 2235, 2975, 1116
1964, 1252, 806, 815, 1674
1965, 1106, 1622, 2784, 2452
1966, 1256, 2640, 2410, 1799
1967, 1611, 1848, 2557, 1092
1968, 1620, 2131, 1079, 991
1969, 3017, 688, 2188, 3016
1970, 1718, 656, 2775, 1796
1971, 1778, 1825, 2650, 1915
1972, 642, 1788, 2402, 2401
1973, 2401, 2402, 1228, 645
1974, 2402, 2360, 646, 1228
1975, 1788, 643, 2360, 2402
1976, 1243, 2976, 2260, 1554
1977, 1237, 698, 422, 245
1978, 821, 1317, 820, 822
1979, 2110, 2680, 2393, 1232
1980, 801, 808, 727, 812
1981, 2425, 811, 809, 3096
1982, 2708, 2555, 2864, 2782
1983, 927, 327, 339, 2992
1984, 1608, 3053, 2301, 3108
1985, 2866, 1929, 1558, 2921
1986, 1889, 1335, 1981, 909
1987, 1072, 1982, 1889, 930
1988, 1167, 340, 327, 927
1989, 1676, 1312, 1562, 2132
1990, 1032, 484, 183, 2576
1991, 2012, 2453, 1026, 1052
1992, 1307, 182, 484, 1032
1993, 1899, 2404, 788, 2270
1994, 2624, 814, 1681, 803
1995, 2337, 1231, 2114, 786
1996, 588, 2777, 2366, 651
1997, 2187, 2776, 1792, 2436
1998, 2215, 695, 1469, 1780
1999, 884, 1744, 2416, 2283
2000, 2951, 1922, 846, 1949
2001, 1144, 843, 2945, 2848
2002, 1744, 880, 2273, 2416
2003, 791, 2363, 2418, 1171
2004, 1171, 2418, 2417, 792
2005, 2418, 1813, 795, 2417
2006, 2363, 794, 1813, 2418
2007, 1400, 1450, 1420, 2031
2008, 2146, 1253, 2257, 2553
2009, 820, 2427, 2145, 3005
2010, 2879, 430, 237, 2148
2011, 2414, 1659, 589, 1660
2012, 2833, 692, 2024, 2185
2013, 2846, 3000, 660, 1967
2014, 1642, 2870, 1454, 915
2015, 2081, 3023, 1168, 2829
2016, 2959, 1640, 934, 2099
2017, 2180, 923, 559, 566
2018, 2976, 2879, 2148, 2260
2019, 815, 1251, 799, 1589
2020, 2053, 2112, 433, 234
2021, 2974, 1900, 726, 787
2022, 1624, 441, 226, 816
2023, 1581, 2051, 2054, 710
2024, 1224, 1830, 1762, 823
2025, 1875, 946, 2246, 2000
2026, 1613, 1720, 2286, 2277
2027, 1751, 1202, 963, 1165
2028, 3089, 2944, 1782, 2630
2029, 1186, 1493, 1264, 1483
2030, 768, 1006, 2157, 1759
2031, 1491, 784, 1493, 1186
2032, 522, 2431, 2432, 1931
2033, 1931, 2432, 1519, 525
2034, 2432, 2195, 524, 1519
2035, 2431, 592, 2195, 2432
2036, 2315, 2119, 1439, 1697
2037, 1722, 2982, 969, 974
2038, 976, 2319, 3018, 1204
2039, 1542, 2005, 2163, 2629
2040, 2504, 1289, 585, 2519
2041, 2434, 2437, 2435, 704
2042, 2437, 2194, 592, 2435
2043, 1930, 1360, 549, 1147
2044, 1342, 2684, 1557, 3021
2045, 551, 60, 71, 3045
2046, 2921, 1558, 3052, 1430
2047, 1797, 652, 405, 262
2048, 1773, 2451, 2450, 1743
2049, 2890, 654, 1126, 1740
2050, 2189, 2972, 800, 1673
2051, 2381, 2446, 2444, 691
2052, 2446, 2445, 690, 2444
2053, 1238, 2854, 2234, 2236
2054, 2645, 2593, 2596, 2979
2055, 2511, 750, 2697, 2704
2056, 545, 1179, 2645, 2665
2057, 652, 2251, 261, 405
2058, 647, 2660, 2659, 1296
2059, 654, 2483, 2938, 1126
2060, 1328, 1605, 423, 244
2061, 1709, 1054, 2335, 1279
2062, 1995, 488, 179, 2689
2063, 2800, 2897, 1061, 2574
2064, 986, 2233, 1265, 1005
2065, 917, 1452, 1282, 1200
2066, 2027, 1352, 1425, 2755
2067, 1937, 3015, 836, 3038
2068, 563, 2684, 1981, 1250
2069, 1082, 2268, 2151, 2150
2070, 2904, 1727, 1099, 874
2071, 1708, 349, 318, 2171
2072, 733, 734, 447, 220
2073, 774, 2703, 2726, 1529
2074, 764, 453, 214, 1192
2075, 2896, 759, 742, 2311
2076, 1329, 700, 588, 2186
2077, 2380, 2461, 1993, 705
2078, 2461, 2434, 704, 1993
2079, 1876, 689, 1795, 700
2080, 1325, 1614, 1153, 1615
2081, 2162, 1874, 1502, 982
2082, 943, 168, 498, 965
2083, 707, 2293, 708, 1138
2084, 2055, 2467, 2464, 716
2085, 2467, 2465, 728, 2464
2086, 1508, 2592, 1383, 1587
2087, 792, 2417, 2469, 2468
2088, 2468, 2469, 2219, 796
2089, 2469, 1662, 797, 2219
2090, 2417, 795, 1662, 2469
2091, 3038, 836, 3035, 1162
2092, 898, 2406, 1280, 2388
2093, 978, 2872, 2805, 1621
2094, 1278, 2809, 2558, 1154
2095, 969, 2075, 948, 2735
2096, 1060, 2474, 2475, 2472
2097, 2472, 2475, 2473, 1059
2098, 2475, 2084, 1056, 2473
2099, 2474, 1062, 2084, 2475
2100, 2353, 1840, 2355, 3074
2101, 610, 2661, 2868, 1824
2102, 2898, 2775, 656, 2249
2103, 599, 529, 271, 395
2104, 2163, 1242, 1721, 2629
2105, 1556, 2834, 2357, 666
2106, 2372, 2414, 1660, 2811
2107, 1450, 1240, 2370, 2018
2108, 2721, 2285, 1984, 2433
2109, 2629, 1721, 1194, 971
2110, 2805, 950, 491, 176
2111, 1438, 1326, 1614, 1325
2112, 2252, 2938, 2839, 2251
2113, 590, 2252, 2251, 652
2114, 2037, 653, 2230, 1742
2115, 2719, 980, 2245, 1123
2116, 1054, 1847, 1045, 2335
2117, 1310, 1709, 1279, 2692
2118, 536, 1992, 2487, 1480
2119, 1480, 2487, 2431, 522
2120, 2487, 2435, 592, 2431
2121, 1992, 704, 2435, 2487
2122, 2998, 2898, 2249, 1127
2123, 1314, 1126, 2938, 2252
2124, 1429, 73, 84, 1929
2125, 1133, 2928, 2239, 2415
2126, 3046, 1162, 832, 1924
2127, 3034, 830, 1161, 1190
2128, 551, 3045, 3041, 2826
2129, 3024, 2564, 2562, 2508
2130, 2801, 325, 341, 560
2131, 1465, 1432, 281, 385
2132, 1646, 626, 638, 2582
2133, 625, 388, 279, 2674
2134, 2326, 725, 2994, 1285
2135, 787, 2980, 1831, 818
2136, 1287, 2338, 2616, 810
2137, 1222, 1703, 2112, 2053
2138, 1315, 653, 2037, 2231
2139, 1124, 2504, 2519, 591
2140, 3000, 2203, 2845, 660
2141, 664, 1901, 2478, 1240
2142, 2372, 2811, 2505, 1468
2143, 2779, 2436, 2698, 2548
2144, 2693, 1690, 688, 3017
2145, 1200, 1282, 952, 932
2146, 571, 2920, 1868, 1361
2147, 2507, 1526, 2946, 1938
2148, 1120, 2409, 57, 68
2149, 2530, 1667, 2760, 1179
2150, 1248, 746, 2378, 1627
2151, 2668, 2908, 757, 2227
2152, 718, 1644, 683, 2065
2153, 665, 2343, 2913, 2749
2154, 2772, 2358, 2513, 2349
2155, 1400, 664, 1240, 1450
2156, 601, 401, 266, 2158
2157, 2823, 2742, 1934, 527
2158, 2161, 2537, 529, 599
2159, 1938, 2946, 3087, 924
2160, 3043, 2612, 835, 1335
2161, 2517, 1134, 2807, 3048
2162, 585, 2520, 2521, 2519
2163, 2519, 2521, 2193, 591
2164, 2521, 1896, 523, 2193
2165, 2520, 526, 1896, 2521
2166, 1435, 2122, 1592, 2986
2167, 1001, 2152, 470, 197
2168, 1022, 2973, 1539, 2819
2169, 987, 1417, 1653, 1365
2170, 1412, 1965, 516, 2943
2171, 1975, 12, 21, 2292
2172, 22, 14, 2592, 1508
2173, 2294, 539, 1965, 1412
2174, 1700, 2034, 754, 2900
2175, 2987, 2668, 2227, 2228
2176, 2050, 1382, 1509, 515
2177, 1226, 1414, 2528, 1974
2178, 1385, 2467, 2055, 1414
2179, 2292, 21, 13, 2970
2180, 609, 127, 116, 2742
2181, 2823, 527, 2589, 2906
2182, 3076, 3061, 1625, 1841
2183, 2523, 476, 191, 984
2184, 2067, 992, 2139, 1015
2185, 575, 1864, 1863, 1130
2186, 1656, 1381, 3007, 1011
2187, 2544, 2390, 1239, 696
2188, 1900, 1588, 2404, 1899
2189, 696, 1239, 2328, 2542
2190, 3020, 1906, 2854, 1238
2191, 2505, 2078, 657, 663
2192, 2036, 2559, 685, 2821
2193, 2550, 728, 2541, 702
2194, 722, 2730, 2446, 2381
2195, 2031, 1420, 1690, 2693
2196, 2646, 2681, 720, 2329
2197, 2640, 1257, 1024, 2410
2198, 1848, 1277, 2551, 2557
2199, 1311, 2857, 1675, 1044
2200, 1562, 2013, 1023, 1308
2201, 730, 2147, 1252, 2064
2202, 1212, 2108, 1253, 2146
2203, 2697, 2900, 2700, 753
2204, 3003, 1996, 186, 480
2205, 2575, 2174, 2714, 1809
2206, 2903, 1041, 1312, 1676
2207, 1123, 1254, 1277, 1848
2208, 1643, 419, 248, 1300
2209, 2817, 2369, 1556, 2413
2210, 583, 1682, 2561, 1970
2211, 1970, 2561, 2560, 1057
2212, 2561, 1955, 579, 2560
2213, 1682, 584, 1955, 2561
2214, 3033, 2306, 2305, 2441
2215, 2941, 1072, 930, 2936
2216, 906, 2439, 907, 2332
2217, 547, 2517, 3048, 1890
2218, 1929, 84, 74, 1558
2219, 3021, 1557, 2191, 2808
2220, 1068, 295, 371, 863
2221, 1547, 2598, 862, 1928
2222, 1609, 294, 372, 1151
2223, 2242, 848, 1196, 2240
2224, 2927, 2044, 1440, 852
2225, 1408, 301, 365, 842
2226, 741, 1658, 2939, 1634
2227, 784, 1651, 2694, 1493
2228, 3092, 32, 29, 574
2229, 2606, 989, 2858, 2238
2230, 2626, 2607, 2486, 1028
2231, 2991, 577, 2581, 2154
2232, 1040, 2579, 2604, 2608
2233, 2396, 3078, 1255, 2911
2234, 1122, 1036, 1810, 1563
2235, 2070, 1610, 1051, 1043
2236, 2718, 1652, 1677, 1039
2237, 2132, 1562, 1308, 1560
2238, 1307, 1046, 485, 182
2239, 2580, 2719, 1611, 1692
2240, 638, 1158, 2497, 640
2241, 1473, 276, 390, 2496
2242, 2732, 632, 2094, 2096
2243, 2496, 390, 277, 1434
2244, 617, 2893, 2715, 2717
2245, 2717, 2715, 1941, 1829
2246, 1573, 1157, 635, 1466
2247, 1911, 1159, 631, 632
2248, 526, 2520, 2591, 1933
2249, 1933, 2591, 2589, 527
2250, 2591, 2590, 593, 2589
2251, 2520, 585, 2590, 2591
2252, 2404, 2782, 2863, 788
2253, 1607, 2259, 2261, 1317
2254, 2724, 1225, 1382, 2050
2255, 711, 2531, 1139, 2054
2256, 731, 2595, 2596, 2593
2257, 2383, 460, 207, 2255
2258, 1074, 1151, 1068, 1150
2259, 1467, 94, 103, 2021
2260, 1043, 1652, 2718, 2926
2261, 1800, 1107, 1034, 1693
2262, 2174, 1042, 989, 2714
2263, 2238, 2858, 1877, 2269
2264, 1612, 1080, 2396, 2579
2265, 1035, 1049, 580, 2638
2266, 1038, 2411, 2903, 2577
2267, 2763, 2820, 1185, 1069
2268, 637, 2584, 1591, 1590
2269, 2674, 279, 387, 633
2270, 2584, 535, 283, 383
2271, 558, 1083, 2172, 2613
2272, 2771, 1527, 2406, 898
2273, 3110, 1371, 914, 897
2274, 2267, 1685, 2045, 2841
2275, 2692, 1279, 1036, 1122
2276, 1041, 2395, 2556, 1312
2277, 2460, 2461, 2380, 691
2278, 952, 900, 935, 932
2279, 1282, 1214, 2107, 952
2280, 934, 2374, 1641, 3053
2281, 1160, 2778, 834, 569
2282, 911, 2176, 1103, 891
2283, 3031, 1368, 2964, 916
2284, 755, 752, 709, 2701
2285, 2697, 755, 2727, 2704
2286, 2066, 818, 2120, 2878
2287, 810, 2616, 814, 2624
2288, 3002, 1346, 377, 290
2289, 1177, 2569, 1609, 854
2290, 620, 3002, 2984, 621
2291, 1418, 845, 2874, 1594
2292, 2928, 869, 868, 2239
2293, 1216, 866, 870, 1095
2294, 1521, 756, 2243, 1174
2295, 546, 1601, 2888, 1180
2296, 1249, 1926, 1666, 2530
2297, 1583, 2802, 2803, 2385
2298, 2267, 2841, 1726, 2859
2299, 1729, 882, 2273, 1101
2300, 860, 554, 2952, 1075
2301, 858, 370, 297, 554
2302, 1547, 1548, 2020, 2598
2303, 2064, 1252, 1674, 1703
2304, 2994, 725, 2646, 1114
2305, 1223, 2019, 2541, 2705
2306, 2337, 786, 813, 1623
2307, 1036, 3012, 1561, 1810
2308, 1395, 189, 477, 1436
2309, 2910, 1695, 2320, 2279
2310, 1326, 2162, 982, 1614
2311, 1766, 965, 3008, 942
2312, 2106, 2985, 883, 851
2313, 1217, 2795, 2686, 2855
2314, 2940, 3102, 357, 310
2315, 2563, 885, 3042, 1403
2316, 1320, 624, 2774, 623
2317, 629, 2324, 533, 3006
2318, 1422, 621, 628, 1376
2319, 1669, 1206, 780, 1492
2320, 1504, 1545, 1258, 2072
2321, 745, 2794, 2851, 2447
2322, 772, 1689, 2208, 1600
2323, 633, 387, 280, 1433
2324, 2586, 2732, 2096, 1806
2325, 2925, 2587, 2830, 1812
2326, 1291, 1829, 1940, 1537
2327, 2652, 612, 1086, 598
2328, 1968, 2634, 600, 1137
2329, 596, 2167, 612, 2652
2330, 1143, 2232, 1393, 2068
2331, 3092, 574, 1658, 741
2332, 1274, 768, 1759, 738
2333, 3078, 1032, 2576, 1255
2334, 2288, 2722, 1756, 2007
2335, 1061, 2897, 2474, 1060
2336, 2960, 972, 1499, 2462
2337, 2932, 1004, 1435, 2232
2338, 1573, 1648, 1649, 1157
2339, 1497, 1088, 625, 2498
2340, 514, 1406, 1465, 1544
2341, 1833, 1854, 531, 636
2342, 1470, 1958, 1880, 1473
2343, 2537, 605, 2476, 529
2344, 2269, 1877, 1029, 2601
2345, 1574, 2238, 2269, 1030
2346, 1279, 2335, 3012, 1036
2347, 1675, 2689, 2578, 1091
2348, 2902, 2376, 763, 2309
2349, 2459, 2644, 1689, 772
2350, 2697, 753, 752, 755
2351, 732, 2979, 766, 2710
2352, 2341, 1224, 823, 806
2353, 2749, 2913, 2127, 2512
2354, 724, 2934, 2682, 723
2355, 706, 1116, 2550, 2934
2356, 737, 1492, 2637, 781
2357, 1259, 2057, 775, 2594
2358, 2906, 2589, 593, 2893
2359, 3068, 3067, 2678, 1958
2360, 604, 2534, 1939, 2222
2361, 1969, 601, 2158, 603
2362, 1396, 2815, 999, 2813
2363, 2655, 2003, 2764, 988
2364, 859, 2597, 2658, 2200
2365, 2103, 3044, 2104, 1407
2366, 1196, 1095, 1474, 1595
2367, 2597, 861, 2657, 2658
2368, 1430, 3052, 3025, 2948
2369, 1558, 74, 85, 3052
2370, 3001, 2175, 1640, 2959
2371, 832, 2408, 547, 1135
2372, 646, 2359, 2660, 1230
2373, 2998, 647, 1296, 1772
2374, 2359, 649, 2659, 2660
2375, 2159, 1536, 392, 275
2376, 1834, 2967, 2166, 2716
2377, 610, 2652, 598, 2661
2378, 616, 1824, 2662, 2634
2379, 1367, 108, 100, 1808
2380, 2663, 98, 107, 1377
2381, 1366, 532, 2323, 1375
2382, 2702, 774, 2793, 1267
2383, 2665, 2645, 2979, 732
2384, 1704, 3079, 718, 2412
2385, 752, 2667, 2614, 709
2386, 709, 2554, 744, 2701
2387, 2963, 1624, 816, 807
2388, 2438, 1147, 829, 3040
2389, 3057, 2494, 2683, 1111
2390, 975, 2669, 2211, 957
2391, 954, 162, 504, 961
2392, 2637, 1283, 209, 457
2393, 1009, 2205, 1006, 768
2394, 735, 1671, 456, 211
2395, 1656, 1011, 1184, 1379
2396, 1549, 1794, 379, 288
2397, 1794, 1178, 287, 379
2398, 2582, 638, 640, 1406
2399, 641, 2925, 1812, 1404
2400, 640, 2497, 1090, 1432
2401, 1157, 1649, 1647, 1471
2402, 578, 1978, 2676, 1386
2403, 1386, 2676, 2560, 579
2404, 2676, 2675, 1057, 2560
2405, 1978, 1058, 2675, 2676
2406, 2924, 3074, 2282, 2942
2407, 1841, 1625, 2867, 1472
2408, 3061, 2536, 618, 1065
2409, 1473, 1880, 391, 276
2410, 2078, 1691, 254, 412
2411, 2514, 1555, 1861, 682
2412, 1906, 722, 2381, 2382
2413, 1906, 2382, 2307, 2854
2414, 1116, 2975, 716, 2464
2415, 2545, 2543, 1239, 2390
2416, 3015, 2941, 2936, 836
2417, 2566, 877, 1706, 2685
2418, 3040, 908, 2439, 906
2419, 1768, 1553, 1942, 1161
2420, 1044, 1675, 1091, 2395
2421, 997, 2799, 2039, 1710
2422, 991, 1079, 1257, 2640
2423, 2133, 2638, 1025, 2969
2424, 2990, 2843, 740, 1733
2425, 1011, 1276, 1109, 1184
2426, 1632, 1323, 1000, 2892
2427, 1759, 2157, 204, 462
2428, 1012, 1437, 2125, 2265
2429, 2600, 2601, 1996, 3003
2430, 2524, 1395, 1436, 1417
2431, 1301, 249, 417, 2025
2432, 2609, 2434, 2461, 2460
2433, 2204, 1773, 2253, 1510
2434, 2383, 785, 206, 460
2435, 2157, 2672, 463, 204
2436, 1002, 1495, 1791, 2091
2437, 2250, 2228, 1215, 2509
2438, 1565, 2886, 448, 219
2439, 1269, 2987, 2228, 2250
2440, 794, 546, 1180, 1688
2441, 663, 657, 2421, 1908
2442, 1329, 2186, 2679, 587
2443, 1095, 870, 1427, 1474
2444, 1893, 2699, 2568, 864
2445, 2699, 2657, 861, 2568
2446, 844, 1094, 89, 79
2447, 2554, 2532, 708, 744
2448, 2900, 754, 2875, 2700
2449, 755, 2701, 744, 2727
2450, 753, 751, 2667, 752
2451, 1210, 2501, 2341, 2147
2452, 711, 2054, 2051, 519
2453, 2705, 2541, 728, 2465
2454, 2121, 2425, 3096, 2111
2455, 1018, 2522, 2707, 1105
2456, 1105, 2707, 1748, 576
2457, 2707, 2706, 521, 1748
2458, 2522, 1020, 2706, 2707
2459, 1645, 1554, 2350, 1873
2460, 1231, 2110, 1232, 2114
2461, 2727, 744, 708, 2377
2462, 2974, 2786, 2052, 819
2463, 1248, 1627, 1629, 1628
2464, 763, 2529, 773, 762
2465, 2034, 1600, 2364, 1546
2466, 2458, 2965, 1655, 2745
2467, 2639, 1221, 2822, 2899
2468, 2118, 1203, 1027, 944
2469, 2576, 183, 483, 1847
2470, 1798, 185, 481, 2336
2471, 1472, 2882, 602, 1851
2472, 1535, 400, 267, 2997
2473, 2967, 1832, 3073, 2166
2474, 2649, 1834, 2716, 1219
2475, 2526, 2538, 1020, 2932
2476, 2410, 1024, 2040, 1610
2477, 1154, 2558, 1049, 1035
2478, 2233, 2152, 1001, 1265
2479, 1322, 1781, 2058, 2033
2480, 2631, 735, 211, 455
2481, 2041, 766, 2594, 775
2482, 1997, 1307, 1032, 3078
2483, 2911, 1255, 1054, 1709
2484, 1312, 2556, 2013, 1562
2485, 1091, 2578, 3014, 1055
2486, 1049, 1860, 1819, 580
2487, 2558, 1859, 1860, 1049
2488, 2897, 2969, 1062, 2474
2489, 1106, 2720, 2931, 1622
2490, 1987, 1152, 2077, 1202
2491, 2949, 2831, 1874, 2162
2492, 2724, 712, 713, 1225
2493, 714, 1413, 19, 11
2494, 1411, 2724, 2050, 2527
2495, 2528, 2056, 1488, 540
2496, 1546, 2364, 2030, 2457
2497, 2979, 2596, 2594, 766
2498, 2227, 757, 2711, 2310
2499, 2213, 2549, 2542, 2128
2500, 1397, 1857, 2756, 2506
2501, 2369, 680, 2834, 1556
2502, 2513, 2773, 2215, 1555
2503, 717, 2545, 2390, 2544
2504, 2729, 2291, 1399, 2298
2505, 724, 723, 2545, 717
2506, 2934, 2550, 702, 2682
2507, 3102, 2415, 309, 357
2508, 1572, 389, 278, 1088
2509, 2583, 1405, 2095, 630
2510, 1406, 640, 1432, 1465
2511, 2962, 1543, 1911, 634
2512, 1242, 165, 501, 1721
2513, 1061, 1060, 1221, 941
2514, 2990, 2091, 2156, 2843
2515, 2961, 2383, 2255, 771
2516, 1260, 737, 781, 1671
2517, 3079, 2909, 1644, 718
2518, 2889, 2214, 1959, 1605
2519, 1962, 679, 421, 246
2520, 828, 2065, 1236, 676
2521, 1056, 1972, 2740, 2473
2522, 2473, 2740, 2739, 1059
2523, 2740, 2675, 1058, 2739
2524, 1972, 1057, 2675, 2740
2525, 2907, 268, 398, 3011
2526, 2742, 116, 128, 1934
2527, 613, 2924, 2942, 606
2528, 1832, 2651, 2160, 3073
2529, 2289, 2735, 174, 492
2530, 2628, 1613, 2277, 1501
2531, 1985, 2627, 946, 1875
2532, 585, 1289, 2995, 2590
2533, 1792, 2059, 2917, 2036
2534, 1378, 2619, 1551, 867
2535, 849, 2796, 839, 1550
2536, 1172, 1217, 2855, 2619
2537, 2530, 1666, 1668, 1667
2538, 1579, 730, 2064, 2499
2539, 765, 1867, 1866, 748
2540, 2946, 512, 155, 3087
2541, 936, 924, 3087, 2182
2542, 1345, 2002, 957, 2211
2543, 2389, 2850, 1333, 1698
2544, 698, 1328, 244, 422
2545, 2348, 2750, 2747, 719
2546, 2750, 2748, 720, 2747
2547, 666, 2357, 1901, 664
2548, 1592, 1266, 2264, 990
2549, 1650, 2071, 1758, 1952
2550, 2069, 1030, 2600, 1008
2551, 2915, 1950, 1354, 1353
2552, 1925, 3026, 158, 508
2553, 521, 2706, 2754, 1863
2554, 1265, 1001, 1142, 2206
2555, 2706, 1020, 2538, 2754
2556, 956, 3081, 2209, 2920
2557, 2493, 1078, 2850, 2389
2558, 901, 1097, 1305, 2375
2559, 916, 2964, 928, 568
2560, 1245, 2861, 238, 428
2561, 2552, 1287, 810, 1140
2562, 819, 2052, 808, 801
2563, 1233, 1856, 1645, 684
2564, 793, 1865, 2644, 2459
2565, 2057, 2033, 1504, 775
2566, 777, 1016, 1070, 1323
2567, 2125, 2655, 988, 2973
2568, 2126, 1733, 2887, 1891
2569, 2524, 2849, 1538, 1395
2570, 513, 2759, 2760, 1667
2571, 1689, 1528, 544, 2208
2572, 2759, 731, 2593, 2760
2573, 937, 2197, 2762, 1979
2574, 1979, 2762, 2739, 1058
2575, 2762, 2761, 1059, 2739
2576, 2428, 2317, 980, 1306
2577, 1799, 2410, 1610, 2070
2578, 2123, 2265, 1022, 2540
2579, 2815, 2523, 984, 999
2580, 785, 1416, 461, 206
2581, 1394, 1631, 2303, 2798
2582, 741, 1634, 1070, 1016
2583, 1498, 630, 1646, 1208
2584, 1159, 639, 637, 631
2585, 1424, 623, 1458, 2567
2586, 2769, 99, 108, 1367
2587, 1377, 107, 99, 2769
2588, 3006, 1374, 855, 2093
2589, 2617, 1424, 2567, 1511
2590, 1374, 1319, 1424, 2617
2591, 1457, 2080, 1817, 2933
2592, 920, 1918, 1919, 2824
2593, 897, 3001, 565, 1369
2594, 697, 2212, 3080, 2772
2595, 1469, 2914, 2017, 2296
2596, 2213, 2128, 1448, 2342
2597, 3009, 1967, 1659, 2414
2598, 2769, 1367, 2618, 1423
2599, 2663, 1377, 2324, 629
2600, 1780, 1469, 2296, 673
2601, 2386, 1247, 2449, 2451
2602, 2483, 3004, 2839, 2938
2603, 2470, 1160, 569, 1119
2604, 2825, 1340, 2808, 2191
2605, 908, 3046, 1924, 2439
2606, 3036, 1890, 3048, 2565
2607, 2025, 417, 250, 1661
2608, 2129, 2749, 2512, 695
2609, 681, 1398, 1449, 665
2610, 2978, 2546, 256, 410
2611, 1582, 2111, 2783, 804
2612, 807, 816, 2338, 1287
2613, 813, 1140, 1679, 2271
2614, 2768, 293, 373, 2569
2615, 2774, 2767, 1590, 2664
2616, 2569, 373, 294, 1609
2617, 1460, 2323, 292, 374
2618, 2577, 2903, 1676, 1612
2619, 2014, 1028, 1306, 2580
2620, 1047, 1692, 1694, 1031
2621, 2113, 1673, 2502, 805
2622, 787, 726, 2009, 2980
2623, 2052, 1223, 1760, 808
2624, 819, 801, 2708, 1588
2625, 2257, 230, 436, 1761
2626, 1285, 2994, 2682, 702
2627, 2980, 2009, 802, 817
2628, 1580, 1579, 2499, 1704
2629, 942, 3008, 949, 972
2630, 2006, 496, 171, 1195
2631, 1499, 2734, 2006, 1163
2632, 946, 977, 2116, 2246
2633, 2005, 2789, 1513, 2163
2634, 1752, 979, 1987, 2804
2635, 2788, 960, 1344, 2988
2636, 1199, 3109, 3105, 1455
2637, 2247, 2999, 2507, 2977
2638, 2001, 2262, 1246, 1098
2639, 948, 1696, 173, 493
2640, 2217, 1566, 2789, 2005
2641, 2791, 1699, 954, 1298
2642, 3027, 1429, 1929, 2866
2643, 2510, 2035, 2965, 2458
2644, 2696, 3010, 2207, 2229
2645, 2362, 760, 1603, 1268
2646, 2644, 743, 1528, 1689
2647, 883, 1373, 869, 2928
2648, 1144, 879, 835, 837
2649, 2842, 1407, 1402, 2656
2650, 2784, 2153, 2453, 2012
2651, 1692, 1611, 1092, 1694
2652, 2809, 1081, 1878, 1879
2653, 2986, 1592, 990, 2816
2654, 2832, 2316, 2118, 968
2655, 2484, 1106, 2452, 2885
2656, 1484, 2751, 1003, 2122
2657, 2905, 2314, 1028, 2486
2658, 1155, 3047, 1936, 1771
2659, 2491, 61, 5, 72
2660, 834, 550, 1102, 1359
2661, 1305, 2929, 1639, 3054
2662, 840, 1920, 1553, 1768
2663, 1197, 361, 306, 2856
2664, 1403, 3042, 1552, 3044
2665, 1182, 2322, 347, 320
2666, 1727, 2828, 1684, 1099
2667, 3110, 897, 1369, 2334
2668, 872, 2379, 1183, 1714
2669, 2722, 3094, 2198, 1756
2670, 2804, 1987, 1202, 1751
2671, 1566, 1541, 1456, 2789
2672, 1765, 1963, 2988, 1910
2673, 2181, 1297, 933, 3029
2674, 1135, 547, 1890, 1944
2675, 1262, 2488, 1340, 552
2676, 836, 2936, 1155, 3035
2677, 1045, 184, 482, 2602
2678, 2798, 2303, 1363, 2302
2679, 1810, 1561, 1029, 1877
2680, 1051, 2575, 1809, 2394
2681, 1767, 2856, 3101, 2241
2682, 1303, 564, 3106, 2179
2683, 3052, 85, 75, 3025
2684, 2559, 1903, 1876, 2060
2685, 2366, 1823, 1247, 2386
2686, 1048, 2813, 192, 474
2687, 2671, 2752, 2126, 1010
2688, 2232, 1435, 2986, 1393
2689, 586, 687, 1299, 2812
2690, 671, 666, 664, 1400
2691, 1448, 2750, 2348, 2212
2692, 2302, 1363, 2140, 1007
2693, 2601, 1029, 2336, 1996
2694, 2814, 1021, 2152, 2233
2695, 2023, 2048, 3009, 701
2696, 2442, 1510, 2397, 1290
2697, 1799, 2070, 1858, 1364
2698, 2822, 2472, 1059, 2761
2699, 1221, 1060, 2472, 2822
2700, 2476, 1804, 270, 396
2701, 2677, 1292, 1840, 2353
2702, 1824, 2868, 2649, 2662
2703, 1880, 2159, 275, 391
2704, 3067, 3066, 528, 2678
2705, 531, 608, 607, 2516
2706, 1537, 1940, 1854, 1833
2707, 648, 1779, 1828, 2281
2708, 1371, 2180, 566, 914
2709, 520, 3107, 2304, 2407
2710, 2407, 2304, 337, 330
2711, 2192, 83, 73, 1429
2712, 2470, 1119, 1361, 1868
2713, 2518, 1201, 1617, 2178
2714, 2826, 902, 1431, 1341
2715, 1635, 2274, 892, 1638
2716, 1714, 2930, 1083, 558
2717, 2268, 2274, 1635, 2151
2718, 2992, 339, 328, 931
2719, 1214, 925, 2356, 2107
2720, 1121, 2181, 3029, 1951
2721, 1370, 2801, 560, 2300
2722, 1543, 1208, 2632, 2605
2723, 2633, 1470, 1473, 2496
2724, 3011, 398, 269, 650
2725, 1087, 595, 615, 2677
2726, 2872, 939, 950, 2805
2727, 2119, 1540, 2852, 1439
2728, 2852, 940, 3094, 2722
2729, 1165, 963, 3093, 1696
2730, 2952, 369, 298, 1548
2731, 854, 1074, 1066, 1467
2732, 1458, 2664, 1176, 1884
2733, 694, 677, 1959, 2214
2734, 1678, 662, 658, 2420
2735, 2811, 1660, 669, 1691
2736, 2364, 2029, 2835, 2030
2737, 1284, 1783, 764, 3010
2738, 2363, 1191, 546, 794
2739, 2207, 1192, 1175, 2908
2740, 2746, 2810, 1452, 917
2741, 2098, 2836, 2305, 896
2742, 888, 2275, 1730, 1728
2743, 1816, 3088, 2610, 3081
2744, 762, 773, 759, 2896
2745, 2700, 2875, 790, 2695
2746, 2310, 2711, 2376, 2902
2747, 2548, 1741, 690, 2202
2748, 2186, 2442, 1290, 2679
2749, 2504, 1124, 2482, 2079
2750, 1928, 862, 864, 2568
2751, 554, 297, 369, 2952
2752, 1570, 1887, 1067, 6
2753, 2622, 2137, 556, 1711
2754, 1144, 2848, 878, 879
2755, 2848, 2945, 1146, 1145
2756, 2379, 2267, 2859, 1183
2757, 1954, 200, 466, 2042
2758, 2122, 1003, 1266, 1592
2759, 2757, 1415, 1491, 1503
2760, 1267, 2793, 2620, 1865
2761, 760, 2896, 2311, 1603
2762, 1027, 942, 972, 2960
2763, 2007, 1756, 2831, 2949
2764, 2317, 2237, 2245, 980
2765, 1660, 589, 2547, 669
2766, 681, 665, 2749, 2129
2767, 1315, 1774, 2847, 653
2768, 2998, 1127, 2038, 1295
2769, 644, 590, 652, 1797
2770, 1894, 300, 366, 1943
2771, 2685, 1706, 2322, 1182
2772, 1732, 1101, 1713, 2456
2773, 1684, 2566, 2685, 831
2774, 1007, 2140, 1496, 2525
2775, 1379, 1184, 1128, 1515
2776, 2765, 995, 2712, 2763
2777, 2577, 1612, 2579, 1040
2778, 1281, 2518, 2178, 1263
2779, 1617, 2836, 2098, 1616
2780, 1616, 2098, 2100, 1524
2781, 2745, 1655, 1530, 2953
2782, 2255, 207, 459, 2090
2783, 1215, 2310, 2902, 2794
2784, 1720, 2462, 1500, 2286
2785, 1194, 166, 500, 2947
2786, 2237, 2872, 978, 2245
2787, 1847, 483, 184, 1045
2788, 701, 2372, 1468, 2776
2789, 675, 2367, 698, 1237
2790, 2818, 425, 242, 674
2791, 670, 2185, 667, 1125
2792, 2329, 720, 2748, 2328
2793, 2543, 2329, 2328, 1239
2794, 2445, 2391, 2330, 2883
2795, 2854, 2307, 2308, 2234
2796, 886, 362, 305, 1948
2797, 1427, 852, 2996, 1401
2798, 2104, 833, 1131, 1946
2799, 2602, 482, 185, 1798
2800, 1037, 1311, 1044, 1033
2801, 2922, 1164, 2133, 2800
2802, 2173, 2603, 2411, 1038
2803, 2045, 1728, 875, 890
2804, 2276, 1584, 2169, 2455
2805, 2135, 2347, 1727, 2904
2806, 2615, 1873, 825, 1872
2807, 1644, 235, 431, 683
2808, 684, 1645, 1873, 2615
2809, 1140, 810, 2624, 1679
2810, 811, 2340, 2113, 809
2811, 2939, 2221, 1129, 1069
2812, 1000, 1108, 1014, 2691
2813, 2736, 1669, 1492, 737
2814, 786, 2114, 1672, 2552
2815, 729, 2625, 2709, 2339
2816, 1703, 1674, 1786, 2112
2817, 808, 1760, 1581, 727
2818, 1892, 1738, 299, 367
2819, 850, 1093, 2106, 2563
2820, 2044, 363, 304, 1440
2821, 2439, 1924, 2331, 907
2822, 549, 70, 60, 551
2823, 636, 531, 2516, 595
2824, 619, 1777, 111, 123
2825, 2716, 2166, 1849, 530
2826, 2046, 2440, 1359, 1843
2827, 1924, 832, 1135, 2331
2828, 3025, 75, 86, 1156
2829, 720, 2681, 2869, 2747
2830, 2747, 2869, 2258, 719
2831, 1786, 1589, 434, 233
2832, 1233, 2756, 1857, 1607
2833, 1714, 1183, 2225, 2930
2834, 3051, 1156, 2026, 3037
2835, 1183, 2859, 3039, 2225
2836, 1719, 2115, 1720, 1613
2837, 2000, 2246, 2481, 2278
2838, 976, 2315, 1697, 2319
2839, 2314, 2428, 1306, 1028
2840, 2796, 2062, 1093, 850
2841, 2241, 3101, 360, 307
2842, 2686, 2657, 2699, 1922
2843, 796, 1189, 2876, 2468
2844, 2468, 2876, 1170, 792
2845, 2876, 2875, 754, 1170
2846, 1189, 790, 2875, 2876
2847, 2725, 2745, 2953, 2666
2848, 753, 2700, 2695, 751
2849, 1623, 813, 2271, 2423
2850, 2864, 751, 2695, 2424
2851, 818, 1831, 2500, 2120
2852, 2275, 2346, 879, 878
2853, 1686, 2455, 1715, 2321
2854, 843, 2284, 2283, 2945
2855, 1094, 847, 840, 2688
2856, 1823, 258, 408, 1247
2857, 2450, 2838, 3004, 2483
2858, 2038, 1313, 1774, 1315
2859, 2253, 1773, 1743, 2365
2860, 2534, 2823, 2906, 1939
2861, 608, 2659, 649, 607
2862, 2662, 2649, 1219, 1293
2863, 606, 2942, 2967, 1834
2864, 2780, 1908, 2421, 2546
2865, 2853, 2779, 2548, 2202
2866, 3020, 1238, 2235, 706
2867, 2845, 1661, 662, 1678
2868, 1080, 1997, 3078, 2396
2869, 1164, 1035, 2638, 2133
2870, 1203, 1766, 942, 1027
2871, 2286, 1500, 1752, 1193
2872, 2447, 2851, 1604, 2035
2873, 747, 2311, 742, 2886
2874, 3035, 1155, 1771, 2408
2875, 3057, 1111, 2454, 2010
2876, 2565, 3048, 2807, 2488
2877, 2448, 1331, 2696, 2229
2878, 2965, 2362, 1268, 1655
2879, 1655, 1268, 747, 1530
2880, 2451, 2449, 2838, 2450
2881, 3016, 2188, 2203, 3000
2882, 668, 2420, 2183, 686
2883, 2077, 172, 494, 3093
2884, 966, 499, 168, 943
2885, 1503, 1491, 1186, 739
2886, 1516, 783, 1632, 1650
2887, 2525, 188, 478, 1538
2888, 2671, 1205, 1002, 2752
2889, 692, 2031, 2693, 2024
2890, 1774, 2890, 1740, 2847
2891, 1421, 2978, 410, 257
2892, 615, 603, 1292, 2677
2893, 1625, 1136, 1853, 2867
2894, 2585, 596, 2652, 610
2895, 3061, 1065, 1136, 1625
2896, 3076, 1841, 1850, 3064
2897, 574, 29, 33, 575
2898, 1130, 1863, 2754, 2221
2899, 1634, 1185, 1108, 1070
2900, 1657, 1110, 1821, 1822
2901, 2509, 1215, 2794, 745
2902, 769, 1284, 3010, 2696
2903, 1602, 762, 2896, 760
2904, 2726, 2993, 1522, 1331
2905, 2036, 2821, 2398, 2698
2906, 1124, 591, 2194, 2437
2907, 2969, 1025, 2085, 1062
2908, 3077, 1619, 2606, 1063
2909, 2153, 2574, 1618, 2453
2910, 1025, 1818, 581, 2085
2911, 2443, 2253, 2365, 1313
2912, 2838, 407, 260, 3004
2913, 669, 2547, 253, 413
2914, 2452, 2784, 2012, 2607
2915, 2639, 2287, 941, 1221
2916, 2743, 1998, 1963, 1765
2917, 2797, 2599, 1018, 1105
2918, 801, 812, 2555, 2708
2919, 2614, 2837, 2554, 709
2920, 2704, 2727, 2377, 749
2921, 1233, 821, 2149, 1856
2922, 968, 2118, 944, 967
2923, 2319, 2910, 2899, 3018
2924, 2035, 1604, 2362, 2965
2925, 3010, 764, 1192, 2207
2926, 2837, 710, 2532, 2554
2927, 2579, 2396, 2911, 2604
2928, 1055, 3014, 2690, 1023
2929, 1575, 178, 488, 1995
2930, 2263, 1081, 2809, 1278
2931, 2456, 2880, 873, 1731
2932, 2135, 2904, 895, 2792
2933, 2954, 1585, 888, 1685
2934, 556, 881, 346, 321
2935, 944, 1027, 2960, 2115
2936, 1202, 2077, 3093, 963
2937, 2315, 2743, 1765, 2119
2938, 972, 949, 2734, 1499
2939, 1852, 2535, 1778, 1085
2940, 3064, 1850, 2168, 3063
2941, 2352, 1803, 1291, 2167
2942, 2224, 1087, 2677, 2353
2943, 2678, 528, 1536, 2159
2944, 1207, 514, 1544, 1209
2945, 632, 631, 2767, 2094
2946, 1812, 2830, 1470, 2633
2947, 1209, 1544, 282, 384
2948, 1600, 2208, 2029, 2364
2949, 2089, 771, 1206, 1669
2950, 1530, 747, 2886, 1565
2951, 1506, 1518, 1783, 1284
2952, 2228, 2227, 2310, 1215
2953, 2793, 1269, 2250, 2620
2954, 2393, 789, 2218, 2190
2955, 802, 2121, 2111, 1582
2956, 973, 1755, 2721, 940
2957, 1615, 1153, 2008, 2905
2958, 1195, 171, 495, 1152
2959, 1567, 2670, 2669, 975
2960, 1690, 1300, 2248, 688
2961, 2420, 658, 2781, 2183
2962, 700, 1795, 2777, 588
2963, 651, 2204, 1510, 2442
2964, 677, 424, 243, 1959
2965, 1691, 669, 413, 254
2966, 2547, 686, 414, 253
2967, 665, 1449, 2737, 2343
2968, 2638, 580, 1818, 1025
2969, 999, 984, 191, 475
2970, 2608, 2604, 1310, 577
2971, 3003, 480, 187, 983
2972, 1363, 2069, 1008, 2140
2973, 2526, 2932, 2232, 1143
2974, 779, 2123, 2540, 2138
2975, 779, 2138, 2654, 2912
2976, 993, 1273, 2849, 2524
2977, 2816, 990, 1631, 1394
2978, 2343, 2184, 1736, 2913
2979, 661, 2817, 672, 586
2980, 1736, 426, 241, 721
2981, 1901, 2298, 2297, 2478
2982, 2914, 2479, 699, 2017
2983, 2834, 682, 2729, 2357
2984, 1449, 2295, 1244, 2737
2985, 2964, 2992, 931, 928
2986, 2178, 1617, 1616, 903
2987, 1945, 3023, 2081, 1336
2988, 568, 928, 1642, 926
2989, 947, 1514, 962, 958
2990, 945, 2949, 2162, 1326
2991, 1754, 2493, 2389, 2929
2992, 1148, 1999, 1121, 922
2993, 659, 3017, 3016, 693
2994, 2679, 1290, 656, 1718
2995, 587, 703, 1717, 2891
2996, 3076, 3062, 2536, 3061
2997, 1803, 2717, 1829, 1291
2998, 1151, 372, 295, 1068
2999, 2663, 629, 1512, 620
3000, 2752, 2990, 1733, 2126
3001, 783, 777, 1323, 1632
3002, 770, 198, 468, 1324
3003, 1097, 1754, 2929, 1305
3004, 2490, 2047, 1084, 3028
3005, 2562, 1338, 1339, 1916
3006, 1150, 1927, 1570, 857
3007, 1134, 3021, 2808, 2807
3008, 1341, 1431, 3046, 908
3009, 2043, 2940, 310, 356
3010, 2040, 2981, 2174, 2575
3011, 2485, 1710, 2130, 2484
3012, 2488, 2807, 2808, 1340
3013, 887, 1712, 1731, 1707
3014, 1084, 3036, 2565, 3028
3015, 1293, 1219, 605, 2537
3016, 1086, 1833, 636, 1885
3017, 1839, 115, 127, 609
3018, 1811, 2633, 2496, 1434
3019, 1466, 2583, 630, 1498
3020, 2526, 2765, 1129, 2538
3021, 1080, 2132, 1560, 1997
3022, 2873, 1550, 2101, 847
3023, 3097, 2201, 2200, 2731
3024, 2619, 2855, 2951, 1551
3025, 959, 1113, 960, 2788
3026, 2144, 159, 507, 2164
3027, 3030, 1945, 1336, 918
3028, 2346, 1250, 835, 879
3029, 2880, 352, 315, 873
3030, 2347, 2345, 2828, 1727
3031, 2581, 2692, 1122, 994
3032, 1256, 2485, 1107, 1800
3033, 1563, 1810, 1877, 2858
3034, 1381, 2648, 3090, 3007
3035, 1891, 2887, 2636, 2032
3036, 1426, 3030, 918, 1104
3037, 2683, 2508, 2409, 1120
3038, 3020, 706, 2934, 724
3039, 1114, 2646, 2329, 2543
3040, 723, 1114, 2543, 2545
3041, 2968, 399, 268, 2907
3042, 2168, 2881, 2535, 1852
3043, 2936, 930, 3047, 1155
3044, 1431, 3038, 1162, 3046
3045, 2485, 2484, 2885, 1107
3046, 1874, 968, 967, 1502
3047, 1364, 1858, 2599, 2797
3048, 2698, 2398, 1741, 2548
3049, 1420, 1643, 1300, 1690
3050, 3004, 260, 406, 2839
3051, 1313, 2365, 2890, 1774
3052, 2844, 1071, 2895, 2766
3053, 1633, 1071, 1110, 1657
3054, 2091, 1791, 2206, 2156
3055, 1948, 305, 361, 1197
3056, 847, 2101, 1920, 840
3057, 1947, 1428, 866, 1216
3058, 1426, 921, 1077, 3030
3059, 2182, 3087, 155, 511
3060, 647, 594, 1230, 2660
3061, 2281, 1828, 601, 1969
3062, 1853, 1886, 1803, 2352
3063, 2943, 516, 1413, 714
3064, 712, 1412, 2943, 713
3065, 2533, 1226, 1974, 2294
3066, 1001, 197, 469, 1142
3067, 1496, 479, 188, 2525
3068, 1550, 839, 553, 2101
3069, 2416, 2273, 882, 1146
3070, 3060, 2332, 2470, 1868
3071, 1916, 1339, 56, 67
3072, 2508, 2562, 1916, 2409
3073, 1888, 858, 554, 860
3074, 2984, 3002, 290, 376
3075, 1561, 1798, 2336, 1029
3076, 3049, 2438, 3040, 906
3077, 1161, 1942, 2612, 1190
3078, 2080, 2375, 2333, 1817
3079, 2605, 2632, 514, 1207
3080, 1404, 1812, 2633, 1811
3081, 1982, 3043, 1335, 1889
3082, 2491, 72, 83, 2192
3083, 2320, 2007, 2949, 945
3084, 3028, 2565, 2488, 1262
3085, 569, 834, 1359, 2440
3086, 2332, 907, 1160, 2470
3087, 791, 1171, 2950, 1169
3088, 1169, 2950, 1170, 754
3089, 1171, 792, 1170, 2950
3090, 3099, 3098, 1332, 1372
3091, 1402, 1946, 843, 1144
3092, 1268, 1603, 2311, 747
3093, 1521, 1174, 2621, 758
3094, 2618, 1806, 2096, 534
3095, 1738, 2020, 368, 299
3096, 746, 749, 2377, 2378
3097, 1604, 1602, 760, 2362
3098, 1179, 2760, 2593, 2645
3099, 873, 315, 351, 3022
3100, 2225, 3039, 2345, 2347
3101, 2137, 831, 881, 556
3102, 1657, 1822, 27, 31
3103, 3092, 1633, 28, 32
3104, 574, 575, 1130, 1658
3105, 790, 1189, 2956, 1187
3106, 1187, 2956, 1188, 789
3107, 1189, 796, 1188, 2956
3108, 891, 1103, 548, 904
3109, 1156, 86, 76, 2026
3110, 2948, 3025, 1156, 3051
3111, 2243, 2665, 732, 761
3112, 1204, 2199, 1917, 951
3113, 2272, 1132, 555, 2985
3114, 2656, 1402, 1144, 837
3115, 570, 1990, 936, 1297
3116, 2755, 1425, 3084, 3085
3117, 1696, 3093, 494, 173
3118, 2279, 2320, 945, 2429
3119, 1283, 1494, 458, 209
3120, 2989, 2757, 1503, 2205
3121, 2344, 2631, 455, 212
3122, 1471, 1647, 1777, 1775
3123, 1466, 635, 641, 2583
3124, 1464, 1572, 1088, 1497
3125, 2190, 2218, 798, 1211
3126, 2270, 788, 824, 2325
3127, 673, 2296, 2368, 2738
3128, 1523, 929, 2801, 1370
3129, 1526, 333, 512, 2946
3130, 2301, 2489, 1167, 3108
3131, 2711, 2877, 1654, 2376
3132, 1670, 1784, 2736, 2983
3133, 849, 2240, 2062, 2796
3134, 3097, 92, 82, 2201
3135, 528, 2515, 2741, 1536
3136, 1915, 2650, 272, 394
3137, 612, 1537, 1833, 1086
3138, 1854, 1805, 608, 531
3139, 2867, 1853, 2352, 2894
3140, 1755, 1327, 2285, 2721
3141, 2899, 2822, 2761, 3018
3142, 2173, 1038, 1019, 2131
3143, 1674, 815, 1589, 1786
3144, 2625, 1623, 2423, 2709
3145, 1704, 2499, 1222, 3079
3146, 1509, 1587, 1976, 515
3147, 1139, 1138, 708, 2532
3148, 2466, 517, 2705, 2465
3149, 646, 1230, 2971, 1228
3150, 1228, 2971, 1229, 645
3151, 2998, 1295, 594, 647
3152, 2862, 2392, 1761, 2405
3153, 786, 2552, 1140, 813
3154, 727, 1581, 710, 2837
3155, 1142, 469, 198, 770
3156, 1701, 1582, 804, 2109
3157, 2391, 1115, 2549, 2330
3158, 822, 820, 3005, 2419
3159, 2730, 3019, 1115, 2391
3160, 979, 1195, 1152, 1987
3161, 1695, 2288, 2007, 2320
3162, 900, 1455, 2247, 935
3163, 2149, 2403, 828, 676
3164, 2512, 2127, 2479, 2914
3165, 2065, 683, 1316, 1236
3166, 3082, 2027, 1989, 921
3167, 2143, 2670, 1918, 920
3168, 2559, 2060, 2891, 685
3169, 2397, 2443, 1127, 2249
3170, 765, 1248, 1628, 1867
3171, 1474, 1427, 1401, 1132
3172, 1730, 2840, 882, 1729
3173, 1146, 882, 2840, 1145
3174, 3096, 809, 2501, 1210
3175, 2909, 432, 235, 1644
3176, 2423, 2271, 2189, 2340
3177, 1997, 1560, 1046, 1307
3178, 2720, 1278, 1154, 2931
3179, 577, 1310, 2692, 2581
3180, 2314, 1985, 1875, 2428
3181, 1504, 2072, 2041, 775
3182, 2919, 2766, 777, 783
3183, 782, 2630, 1670, 1322
3184, 627, 286, 380, 2673
3185, 1374, 2617, 1459, 855
3186, 534, 2096, 2094, 624
3187, 3059, 552, 1340, 2825
3188, 551, 2826, 1341, 829
3189, 1524, 2100, 1801, 1523
3190, 1650, 1632, 2892, 2071
3191, 1141, 1891, 2032, 1651
3192, 1687, 2725, 2666, 1601
3193, 1191, 1687, 1601, 546
3194, 761, 732, 2710, 2703
3195, 1104, 918, 2746, 2256
3196, 2144, 1925, 508, 159
3197, 1234, 782, 2057, 1259
3198, 1538, 478, 189, 1395
3199, 1234, 3089, 2630, 782
3200, 1128, 543, 1009, 2092
3201, 1515, 1128, 2092, 1505
3202, 2014, 2580, 1692, 1047
3203, 2820, 1014, 1108, 1185
3204, 2603, 1037, 1033, 2411
3205, 2433, 1984, 2871, 970
3206, 2627, 1501, 977, 946
3207, 2278, 2481, 2318, 939
3208, 1368, 927, 2992, 2964
3209, 3106, 520, 2407, 1983
3210, 566, 559, 2518, 1281
3211, 544, 2447, 2035, 2510
3212, 771, 2255, 2090, 1206
3213, 1493, 2694, 2758, 1264
3214, 2974, 2066, 2326, 2786
3215, 817, 802, 1582, 1701
3216, 2009, 827, 2121, 802
3217, 2202, 690, 2445, 2883
3218, 2063, 1948, 1197, 865
3219, 3042, 2966, 2571, 1552
3220, 607, 649, 2354, 2641
3221, 1840, 2997, 2968, 2355
3222, 2998, 1772, 1294, 2898
3223, 1772, 2400, 1941, 1294
3224, 1772, 1296, 1805, 2400
3225, 955, 959, 2788, 1166
3226, 1862, 2889, 1605, 1328
3227, 2023, 701, 2776, 2187
3228, 697, 2772, 2349, 678
3229, 1614, 982, 2480, 1153
3230, 1756, 2198, 2832, 2831
3231, 1325, 1615, 1052, 1026
3232, 914, 566, 1281, 2175
3233, 1304, 913, 3032, 2083
3234, 2334, 1369, 925, 1214
3235, 1266, 1039, 3077, 2264
3236, 1107, 2885, 2626, 1034
3237, 856, 1375, 2323, 1460
3238, 1884, 285, 381, 1321
3239, 533, 1347, 1320, 1319
3240, 1261, 1309, 104, 96
3241, 1256, 1799, 1364, 997
3242, 977, 2733, 2463, 2116
3243, 2070, 1043, 2926, 1858
3244, 1510, 2253, 2443, 2397
3245, 645, 2037, 1742, 2401
3246, 1903, 2780, 689, 1876
3247, 1554, 2260, 1702, 2350
3248, 2419, 2109, 1580, 1855
3249, 825, 1702, 1318, 2861
3250, 622, 1793, 378, 289
3251, 2673, 380, 287, 1178
3252, 1176, 382, 285, 1884
3253, 2664, 1590, 1591, 1176
3254, 1377, 2769, 1423, 2324
3255, 1791, 1005, 1265, 2206
3256, 974, 969, 2735, 2289
3257, 2115, 2960, 2462, 1720
3258, 2183, 2781, 415, 252
3259, 2908, 1175, 1564, 757
3260, 2511, 793, 2459, 750
3261, 1595, 1474, 1132, 2272
3262, 1137, 600, 2161, 1825
3263, 1886, 617, 2717, 1803
3264, 2931, 1154, 1035, 1164
3265, 1063, 2606, 2238, 1574
3266, 2245, 978, 1254, 1123
3267, 930, 1889, 909, 3047
3268, 2913, 1736, 721, 2127
3269, 1124, 2437, 2434, 2609
3270, 3018, 2197, 2199, 1204
3271, 3018, 2761, 2762, 2197
3272, 2647, 3019, 2730, 722
3273, 3020, 2647, 722, 1906
3274, 1076, 1120, 68, 58
3275, 1201, 2177, 2836, 1617
3276, 1162, 3035, 2408, 832
3277, 1983, 2407, 330, 336
3278, 838, 2063, 865, 2105
3279, 1945, 571, 1361, 3023
3280, 901, 567, 3050, 3082
3281, 2454, 2957, 1360, 1930
3282, 3049, 906, 2332, 3060
3283, 1334, 1559, 2438, 3049
3284, 2610, 2010, 1559, 1334
3285, 2850, 2082, 2806, 1333
3286, 1111, 2683, 1120, 1076
3287, 3082, 3050, 1352, 2027
3288, 2142, 922, 910, 3026
3289, 2494, 3024, 2508, 2683
3290, 918, 1336, 2810, 2746
3291, 1193, 1752, 2804, 2244
3292, 1111, 1076, 2957, 2454
3293, 903, 1616, 1524, 1988
3294, 1895, 548, 2177, 1201
3295, 1990, 1112, 924, 936
3296, 1333, 2806, 1112, 1990
3297, 2824, 1919, 1870, 3083
3298, 1455, 3105, 2999, 2247
3299, 2755, 3085, 3088, 1816
3300, 2375, 1305, 3054, 2333
3301, 1559, 1930, 1147, 2438
3302, 2180, 2046, 1843, 923
3303, 2493, 1815, 1453, 1078
3304, 1842, 334, 154, 899
3305, 1119, 1168, 3023, 1361
3306, 2300, 560, 2489, 2301
3307, 2010, 2454, 1930, 1559
3308, 1951, 3029, 510, 157
3309, 902, 3027, 2866, 1937
3310, 1982, 3051, 3037, 3043
3311, 1073, 2490, 3028, 1262
3312, 1354, 3058, 1112, 2806
3313, 829, 1341, 908, 3040
3314, 1119, 569, 2440, 1168
3315, 3058, 1938, 924, 1112
3316, 1072, 2948, 3051, 1982
3317, 3045, 71, 61, 2491
3318, 3076, 3072, 2223, 3062
3319, 2280, 3068, 2830, 2587
3320, 1881, 2280, 2587, 2588
3321, 3069, 1881, 2588, 1775
3322, 1826, 3067, 3068, 2280
3323, 614, 1826, 2280, 1881
3324, 3070, 614, 1881, 3069
3325, 1220, 3066, 3067, 1826
3326, 611, 1220, 1826, 614
3327, 3071, 611, 614, 3070
3328, 2399, 3065, 3066, 1220
3329, 1117, 2399, 1220, 611
3330, 3072, 1117, 611, 3071
3331, 3063, 3075, 3065, 2399
3332, 3064, 3063, 2399, 1117
3333, 3076, 3064, 1117, 3072
3334, 2831, 2832, 968, 1874
3335, 1619, 2714, 989, 2606
3336, 804, 2783, 730, 1579
3337, 1253, 437, 230, 2257
3338, 3085, 3084, 3024, 2494
3339, 3088, 3085, 2494, 3057
3340, 922, 1121, 1951, 910
3341, 1754, 2256, 1815, 2493
3342, 1270, 2669, 2670, 2143
3343, 1815, 917, 1200, 1453
3344, 3109, 1842, 899, 3105
3345, 1698, 1333, 1990, 570
3346, 3030, 1077, 571, 1945
3347, 1757, 1380, 1954, 2955
3348, 2205, 1503, 739, 1006
3349, 1017, 1952, 1415, 2757
3350, 3092, 2895, 1071, 1633
3351, 950, 2117, 175, 491
3352, 1831, 2145, 2427, 2500
3353, 2500, 2427, 2261, 2258
3354, 2687, 1372, 1172, 2061
3355, 3100, 3099, 1372, 2687
3356, 2165, 2744, 2958, 3103
3357, 1428, 867, 2744, 2165
3358, 1947, 1378, 867, 1428
3359, 2102, 2061, 1378, 1947
3360, 1923, 2687, 2061, 2102
3361, 3104, 3100, 2687, 1923
3362, 2028, 1149, 2142, 1272
3363, 1608, 3108, 1368, 3031
3364, 1336, 2081, 3110, 2810
3365, 567, 1270, 2143, 3050
3366, 1149, 1148, 922, 2142
*ELSET,ELSET=contact_source
131, 132, 133, 134, 135, 136, 137, 138, 139, 140, 
141, 142, 143, 144, 145, 146, 147, 148, 149, 150, 
151, 152, 
*ELSET,ELSET=contact_drain
45, 46, 47, 48, 49, 50, 51, 52, 53, 54, 
55, 56, 57, 58, 59, 60, 61, 62, 63, 64, 
65, 66, 
*ELSET,ELSET=probe_A
89, 90, 91, 92, 93, 94, 95, 96, 97, 98, 
99, 100, 101, 102, 103, 104, 105, 106, 
*ELSET,ELSET=probe_B
19, 20, 21, 22, 23, 24, 25, 26, 
*ELSET,ELSET=walls
1, 2, 3, 4, 5, 6, 7, 8, 9, 10, 
11, 12, 13, 14, 15, 16, 17, 18, 27, 28, 
29, 30, 31, 32, 33, 34, 35, 36, 37, 38, 
39, 40, 41, 42, 43, 44, 67, 68, 69, 70, 
71, 72, 73, 74, 75, 76, 77, 78, 79, 80, 
81, 82, 83, 84, 85, 86, 87, 88, 107, 108, 
109, 110, 111, 112, 113, 114, 115, 116, 117, 118, 
119, 120, 121, 122, 123, 124, 125, 126, 127, 128, 
129, 130, 153, 154, 155, 156, 157, 158, 159, 160, 
161, 162, 163, 164, 165, 166, 167, 168, 169, 170, 
171, 172, 173, 174, 175, 176, 177, 178, 179, 180, 
181, 182, 183, 184, 185, 186, 187, 188, 189, 190, 
191, 192, 193, 194, 195, 196, 197, 198, 199, 200, 
201, 202, 203, 204, 205, 206, 207, 208, 209, 210, 
211, 212, 213, 214, 215, 216, 217, 218, 219, 220, 
221, 222, 223, 224, 225, 226, 227, 228, 229, 230, 
231, 232, 233, 234, 235, 236, 237, 238, 239, 240, 
241, 242, 243, 244, 245, 246, 247, 248, 249, 250, 
251, 252, 253, 254, 255, 256, 257, 258, 259, 260, 
261, 262, 263, 264, 265, 266, 267, 268, 269, 270, 
271, 272, 273, 274, 275, 276, 277, 278, 279, 280, 
281, 282, 283, 284, 285, 286, 287, 288, 289, 290, 
291, 292, 293, 294, 295, 296, 297, 298, 299, 300, 
301, 302, 303, 304, 305, 306, 307, 308, 309, 310, 
311, 312, 313, 314, 315, 316, 317, 318, 319, 320, 
321, 322, 323, 324, 325, 326, 327, 328, 329, 330, 
331, 332, 333, 334, 335, 336, 337, 338, 339, 340, 
341, 342, 343, 344, 345, 346, 347, 348, 349, 350, 
351, 352, 353, 354, 355, 356, 357, 358, 359, 360, 
361, 362, 363, 364, 365, 366, 367, 368, 369, 370, 
371, 372, 373, 374, 375, 376, 377, 378, 379, 380, 
381, 382, 383, 384, 385, 386, 387, 388, 389, 390, 
391, 392, 393, 394, 395, 396, 397, 398, 399, 400, 
401, 402, 403, 404, 405, 406, 407, 408, 409, 410, 
411, 412, 413, 414, 415, 416, 417, 418, 419, 420, 
421, 422, 423, 424, 425, 426, 427, 428, 429, 430, 
431, 432, 433, 434, 435, 436, 437, 438, 439, 440, 
441, 442, 443, 444, 445, 446, 447, 448, 449, 450, 
451, 452, 453, 454, 455, 456, 457, 458, 459, 460, 
461, 462, 463, 464, 465, 466, 467, 468, 469, 470, 
471, 472, 473, 474, 475, 476, 477, 478, 479, 480, 
481, 482, 483, 484, 485, 486, 487, 488, 489, 490, 
491, 492, 493, 494, 495, 496, 497, 498, 499, 500, 
501, 502, 503, 504, 505, 506, 507, 508, 509, 510, 
511, 512, 
*ELSET,ELSET=domain
513, 514, 515, 516, 517, 518, 519, 520, 521, 522, 
523, 524, 525, 526, 527, 528, 529, 530, 531, 532, 
533, 534, 535, 536, 537, 538, 539, 540, 541, 542, 
543, 544, 545, 546, 547, 548, 549, 550, 551, 552, 
553, 554, 555, 556, 557, 558, 559, 560, 561, 562, 
563, 564, 565, 566, 567, 568, 569, 570, 571, 572, 
573, 574, 575, 576, 577, 578, 579, 580, 581, 582, 
583, 584, 585, 586, 587, 588, 589, 590, 591, 592, 
593, 594, 595, 596, 597, 598, 599, 600, 601, 602, 
603, 604, 605, 606, 607, 608, 609, 610, 611, 612, 
613, 614, 615, 616, 617, 618, 619, 620, 621, 622, 
623, 624, 625, 626, 627, 628, 629, 630, 631, 632, 
633, 634, 635, 636, 637, 638, 639, 640, 641, 642, 
643, 644, 645, 646, 647, 648, 649, 650, 651, 652, 
653, 654, 655, 656, 657, 658, 659, 660, 661, 662, 
663, 664, 665, 666, 667, 668, 669, 670, 671, 672, 
673, 674, 675, 676, 677, 678, 679, 680, 681, 682, 
683, 684, 685, 686, 687, 688, 689, 690, 691, 692, 
693, 694, 695, 696, 697, 698, 699, 700, 701, 702, 
703, 704, 705, 706, 707, 708, 709, 710, 711, 712, 
713, 714, 715, 716, 717, 718, 719, 720, 721, 722, 
723, 724, 725, 726, 727, 728, 729, 730, 731, 732, 
733, 734, 735, 736, 737, 738, 739, 740, 741, 742, 
743, 744, 745, 746, 747, 748, 749, 750, 751, 752, 
753, 754, 755, 756, 757, 758, 759, 760, 761, 762, 
763, 764, 765, 766, 767, 768, 769, 770, 771, 772, 
773, 774, 775, 776, 777, 778, 779, 780, 781, 782, 
783, 784, 785, 786, 787, 788, 789, 790, 791, 792, 
793, 794, 795, 796, 797, 798, 799, 800, 801, 802, 
803, 804, 805, 806, 807, 808, 809, 810, 811, 812, 
813, 814, 815, 816, 817, 818, 819, 820, 821, 822, 
823, 824, 825, 826, 827, 828, 829, 830, 831, 832, 
833, 834, 835, 836, 837, 838, 839, 840, 841, 842, 
843, 844, 845, 846, 847, 848, 849, 850, 851, 852, 
853, 854, 855, 856, 857, 858, 859, 860, 861, 862, 
863, 864, 865, 866, 867, 868, 869, 870, 871, 872, 
873, 874, 875, 876, 877, 878, 879, 880, 881, 882, 
883, 884, 885, 886, 887, 888, 889, 890, 891, 892, 
893, 894, 895, 896, 897, 898, 899, 900, 901, 902, 
903, 904, 905, 906, 907, 908, 909, 910, 911, 912, 
913, 914, 915, 916, 917, 918, 919, 920, 921, 922, 
923, 924, 925, 926, 927, 928, 929, 930, 931, 932, 
933, 934, 935, 936, 937, 938, 939, 940, 941, 942, 
943, 944, 945, 946, 947, 948, 949, 950, 951, 952, 
953, 954, 955, 956, 957, 958, 959, 960, 961, 962, 
963, 964, 965, 966, 967, 968, 969, 970, 971, 972, 
973, 974, 975, 976, 977, 978, 979, 980, 981, 982, 
983, 984, 985, 986, 987, 988, 989, 990, 991, 992, 
993, 994, 995, 996, 997, 998, 999, 1000, 1001, 1002, 
1003, 1004, 1005, 1006, 1007, 1008, 1009, 1010, 1011, 1012, 
1013, 1014, 1015, 1016, 1017, 1018, 1019, 1020, 1021, 1022, 
1023, 1024, 1025, 1026, 1027, 1028, 1029, 1030, 1031, 1032, 
1033, 1034, 1035, 1036, 1037, 1038, 1039, 1040, 1041, 1042, 
1043, 1044, 1045, 1046, 1047, 1048, 1049, 1050, 1051, 1052, 
1053, 1054, 1055, 1056, 1057, 1058, 1059, 1060, 1061, 1062, 
1063, 1064, 1065, 1066, 1067, 1068, 1069, 1070, 1071, 1072, 
1073, 1074, 1075, 1076, 1077, 1078, 1079, 1080, 1081, 1082, 
1083, 1084, 1085, 1086, 1087, 1088, 1089, 1090, 1091, 1092, 
1093, 1094, 1095, 1096, 1097, 1098, 1099, 1100, 1101, 1102, 
1103, 1104, 1105, 1106, 1107, 1108, 1109, 1110, 1111, 1112, 
1113, 1114, 1115, 1116, 1117, 1118, 1119, 1120, 1121, 1122, 
1123, 1124, 1125, 1126, 1127, 1128, 1129, 1130, 1131, 1132, 
1133, 1134, 1135, 1136, 1137, 1138, 1139, 1140, 1141, 1142, 
1143, 1144, 1145, 1146, 1147, 1148, 1149, 1150, 1151, 1152, 
1153, 1154, 1155, 1156, 1157, 1158, 1159, 1160, 1161, 1162, 
1163, 1164, 1165, 1166, 1167, 1168, 1169, 1170, 1171, 1172, 
1173, 1174, 1175, 1176, 1177, 1178, 1179, 1180, 1181, 1182, 
1183, 1184, 1185, 1186, 1187, 1188, 1189, 1190, 1191, 1192, 
1193, 1194, 1195, 1196, 1197, 1198, 1199, 1200, 1201, 1202, 
1203, 1204, 1205, 1206, 1207, 1208, 1209, 1210, 1211, 1212, 
1213, 1214, 1215, 1216, 1217, 1218, 1219, 1220, 1221, 1222, 
1223, 1224, 1225, 1226, 1227, 1228, 1229, 1230, 1231, 1232, 
1233, 1234, 1235, 1236, 1237, 1238, 1239, 1240, 1241, 1242, 
1243, 1244, 1245, 1246, 1247, 1248, 1249, 1250, 1251, 1252, 
1253, 1254, 1255, 1256, 1257, 1258, 1259, 1260, 1261, 1262, 
1263, 1264, 1265, 1266, 1267, 1268, 1269, 1270, 1271, 1272, 
1273, 1274, 1275, 1276, 1277, 1278, 1279, 1280, 1281, 1282, 
1283, 1284, 1285, 1286, 1287, 1288, 1289, 1290, 1291, 1292, 
1293, 1294, 1295, 1296, 1297, 1298, 1299, 1300, 1301, 1302, 
1303, 1304, 1305, 1306, 1307, 1308, 1309, 1310, 1311, 1312, 
1313, 1314, 1315, 1316, 1317, 1318, 1319, 1320, 1321, 1322, 
1323, 1324, 1325, 1326, 1327, 1328, 1329, 1330, 1331, 1332, 
1333, 1334, 1335, 1336, 1337, 1338, 1339, 1340, 1341, 1342, 
1343, 1344, 1345, 1346, 1347, 1348, 1349, 1350, 1351, 1352, 
1353, 1354, 1355, 1356, 1357, 1358, 1359, 1360, 1361, 1362, 
1363, 1364, 1365, 1366, 1367, 1368, 1369, 1370, 1371, 1372, 
1373, 1374, 1375, 1376, 1377, 1378, 1379, 1380, 1381, 1382, 
1383, 1384, 1385, 1386, 1387, 1388, 1389, 1390, 1391, 1392, 
1393, 1394, 1395, 1396, 1397, 1398, 1399, 1400, 1401, 1402, 
1403, 1404, 1405, 1406, 1407, 1408, 1409, 1410, 1411, 1412, 
1413, 1414, 1415, 1416, 1417, 1418, 1419, 1420, 1421, 1422, 
1423, 1424, 1425, 1426, 1427, 1428, 1429, 1430, 1431, 1432, 
1433, 1434, 1435, 1436, 1437, 1438, 1439, 1440, 1441, 1442, 
1443, 1444, 1445, 1446, 1447, 1448, 1449, 1450, 1451, 1452, 
1453, 1454, 1455, 1456, 1457, 1458, 1459, 1460, 1461, 1462, 
1463, 1464, 1465, 1466, 1467, 1468, 1469, 1470, 1471, 1472, 
1473, 1474, 1475, 1476, 1477, 1478, 1479, 1480, 1481, 1482, 
1483, 1484, 1485, 1486, 1487, 1488, 1489, 1490, 1491, 1492, 
1493, 1494, 1495, 1496, 1497, 1498, 1499, 1500, 1501, 1502, 
1503, 1504, 1505, 1506, 1507, 1508, 1509, 1510, 1511, 1512, 
1513, 1514, 1515, 1516, 1517, 1518, 1519, 1520, 1521, 1522, 
1523, 1524, 1525, 1526, 1527, 1528, 1529, 1530, 1531, 1532, 
1533, 1534, 1535, 1536, 1537, 1538, 1539, 1540, 1541, 1542, 
1543, 1544, 1545, 1546, 1547, 1548, 1549, 1550, 1551, 1552, 
1553, 1554, 1555, 1556, 1557, 1558, 1559, 1560, 1561, 1562, 
1563, 1564, 1565, 1566, 1567, 1568, 1569, 1570, 1571, 1572, 
1573, 1574, 1575, 1576, 1577, 1578, 1579, 1580, 1581, 1582, 
1583, 1584, 1585, 1586, 1587, 1588, 1589, 1590, 1591, 1592, 
1593, 1594, 1595, 1596, 1597, 1598, 1599, 1600, 1601, 1602, 
1603, 1604, 1605, 1606, 1607, 1608, 1609, 1610, 1611, 1612, 
1613, 1614, 1615, 1616, 1617, 1618, 1619, 1620, 1621, 1622, 
1623, 1624, 1625, 1626, 1627, 1628, 1629, 1630, 1631, 1632, 
1633, 1634, 1635, 1636, 1637, 1638, 1639, 1640, 1641, 1642, 
1643, 1644, 1645, 1646, 1647, 1648, 1649, 1650, 1651, 1652, 
1653, 1654, 1655, 1656, 1657, 1658, 1659, 1660, 1661, 1662, 
1663, 1664, 1665, 1666, 1667, 1668, 1669, 1670, 1671, 1672, 
1673, 1674, 1675, 1676, 1677, 1678, 1679, 1680, 1681, 1682, 
1683, 1684, 1685, 1686, 1687, 1688, 1689, 1690, 1691, 1692, 
1693, 1694, 1695, 1696, 1697, 1698, 1699, 1700, 1701, 1702, 
1703, 1704, 1705, 1706, 1707, 1708, 1709, 1710, 1711, 1712, 
1713, 1714, 1715, 1716, 1717, 1718, 1719, 1720, 1721, 1722, 
1723, 1724, 1725, 1726, 1727, 1728, 1729, 1730, 1731, 1732, 
1733, 1734, 1735, 1736, 1737, 1738, 1739, 1740, 1741, 1742, 
1743, 1744, 1745, 1746, 1747, 1748, 1749, 1750, 1751, 1752, 
1753, 1754, 1755, 1756, 1757, 1758, 1759, 1760, 1761, 1762, 
1763, 1764, 1765, 1766, 1767, 1768, 1769, 1770, 1771, 1772, 
1773, 1774, 1775, 1776, 1777, 1778, 1779, 1780, 1781, 1782, 
1783, 1784, 1785, 1786, 1787, 1788, 1789, 1790, 1791, 1792, 
1793, 1794, 1795, 1796, 1797, 1798, 1799, 1800, 1801, 1802, 
1803, 1804, 1805, 1806, 1807, 1808, 1809, 1810, 1811, 1812, 
1813, 1814, 1815, 1816, 1817, 1818, 1819, 1820, 1821, 1822, 
1823, 1824, 1825, 1826, 1827, 1828, 1829, 1830, 1831, 1832, 
1833, 1834, 1835, 1836, 1837, 1838, 1839, 1840, 1841, 1842, 
1843, 1844, 1845, 1846, 1847, 1848, 1849, 1850, 1851, 1852, 
1853, 1854, 1855, 1856, 1857, 1858, 1859, 1860, 1861, 1862, 
1863, 1864, 1865, 1866, 1867, 1868, 1869, 1870, 1871, 1872, 
1873, 1874, 1875, 1876, 1877, 1878, 1879, 1880, 1881, 1882, 
1883, 1884, 1885, 1886, 1887, 1888, 1889, 1890, 1891, 1892, 
1893, 1894, 1895, 1896, 1897, 1898, 1899, 1900, 1901, 1902, 
1903, 1904, 1905, 1906, 1907, 1908, 1909, 1910, 1911, 1912, 
1913, 1914, 1915, 1916, 1917, 1918, 1919, 1920, 1921, 1922, 
1923, 1924, 1925, 1926, 1927, 1928, 1929, 1930, 1931, 1932, 
1933, 1934, 1935, 1936, 1937, 1938, 1939, 1940, 1941, 1942, 
1943, 1944, 1945, 1946, 1947, 1948, 1949, 1950, 1951, 1952, 
1953, 1954, 1955, 1956, 1957, 1958, 1959, 1960, 1961, 1962, 
1963, 1964, 1965, 1966, 1967, 1968, 1969, 1970, 1971, 1972, 
1973, 1974, 1975, 1976, 1977, 1978, 1979, 1980, 1981, 1982, 
1983, 1984, 1985, 1986, 1987, 1988, 1989, 1990, 1991, 1992, 
1993, 1994, 1995, 1996, 1997, 1998, 1999, 2000, 2001, 2002, 
2003, 2004, 2005, 2006, 2007, 2008, 2009, 2010, 2011, 2012, 
2013, 2014, 2015, 2016, 2017, 2018, 2019, 2020, 2021, 2022, 
2023, 2024, 2025, 2026, 2027, 2028, 2029, 2030, 2031, 2032, 
2033, 2034, 2035, 2036, 2037, 2038, 2039, 2040, 2041, 2042, 
2043, 2044, 2045, 2046, 2047, 2048, 2049, 2050, 2051, 2052, 
2053, 2054, 2055, 2056, 2057, 2058, 2059, 2060, 2061, 2062, 
2063, 2064, 2065, 2066, 2067, 2068, 2069, 2070, 2071, 2072, 
2073, 2074, 2075, 2076, 2077, 2078, 2079, 2080, 2081, 2082, 
2083, 2084, 2085, 2086, 2087, 2088, 2089, 2090, 2091, 2092, 
2093, 2094, 2095, 2096, 2097, 2098, 2099, 2100, 2101, 2102, 
2103, 2104, 2105, 2106, 2107, 2108, 2109, 2110, 2111, 2112, 
2113, 2114, 2115, 2116, 2117, 2118, 2119, 2120, 2121, 2122, 
2123, 2124, 2125, 2126, 2127, 2128, 2129, 2130, 2131, 2132, 
2133, 2134, 2135, 2136, 2137, 2138, 2139, 2140, 2141, 2142, 
2143, 2144, 2145, 2146, 2147, 2148, 2149, 2150, 2151, 2152, 
2153, 2154, 2155, 2156, 2157, 2158, 2159, 2160, 2161, 2162, 
2163, 2164, 2165, 2166, 2167, 2168, 2169, 2170, 2171, 2172, 
2173, 2174, 2175, 2176, 2177, 2178, 2179, 2180, 2181, 2182, 
2183, 2184, 2185, 2186, 2187, 2188, 2189, 2190, 2191, 2192, 
2193, 2194, 2195, 2196, 2197, 2198, 2199, 2200, 2201, 2202, 
2203, 2204, 2205, 2206, 2207, 2208, 2209, 2210, 2211, 2212, 
2213, 2214, 2215, 2216, 2217, 2218, 2219, 2220, 2221, 2222, 
2223, 2224, 2225, 2226, 2227, 2228, 2229, 2230, 2231, 2232, 
2233, 2234, 2235, 2236, 2237, 2238, 2239, 2240, 2241, 2242, 
2243, 2244, 2245, 2246, 2247, 2248, 2249, 2250, 2251, 2252, 
2253, 2254, 2255, 2256, 2257, 2258, 2259, 2260, 2261, 2262, 
2263, 2264, 2265, 2266, 2267, 2268, 2269, 2270, 2271, 2272, 
2273, 2274, 2275, 2276, 2277, 2278, 2279, 2280, 2281, 2282, 
2283, 2284, 2285, 2286, 2287, 2288, 2289, 2290, 2291, 2292, 
2293, 2294, 2295, 2296, 2297, 2298, 2299, 2300, 2301, 2302, 
2303, 2304, 2305, 2306, 2307, 2308, 2309, 2310, 2311, 2312, 
2313, 2314, 2315, 2316, 2317, 2318, 2319, 2320, 2321, 2322, 
2323, 2324, 2325, 2326, 2327, 2328, 2329, 2330, 2331, 2332, 
2333, 2334, 2335, 2336, 2337, 2338, 2339, 2340, 2341, 2342, 
2343, 2344, 2345, 2346, 2347, 2348, 2349, 2350, 2351, 2352, 
2353, 2354, 2355, 2356, 2357, 2358, 2359, 2360, 2361, 2362, 
2363, 2364, 2365, 2366, 2367, 2368, 2369, 2370, 2371, 2372, 
2373, 2374, 2375, 2376, 2377, 2378, 2379, 2380, 2381, 2382, 
2383, 2384, 2385, 2386, 2387, 2388, 2389, 2390, 2391, 2392, 
2393, 2394, 2395, 2396, 2397, 2398, 2399, 2400, 2401, 2402, 
2403, 2404, 2405, 2406, 2407, 2408, 2409, 2410, 2411, 2412, 
2413, 2414, 2415, 2416, 2417, 2418, 2419, 2420, 2421, 2422, 
2423, 2424, 2425, 2426, 2427, 2428, 2429, 2430, 2431, 2432, 
2433, 2434, 2435, 2436, 2437, 2438, 2439, 2440, 2441, 2442, 
2443, 2444, 2445, 2446, 2447, 2448, 2449, 2450, 2451, 2452, 
2453, 2454, 2455, 2456, 2457, 2458, 2459, 2460, 2461, 2462, 
2463, 2464, 2465, 2466, 2467, 2468, 2469, 2470, 2471, 2472, 
2473, 2474, 2475, 2476, 2477, 2478, 2479, 2480, 2481, 2482, 
2483, 2484, 2485, 2486, 2487, 2488, 2489, 2490, 2491, 2492, 
2493, 2494, 2495, 2496, 2497, 2498, 2499, 2500, 2501, 2502, 
2503, 2504, 2505, 2506, 2507, 2508, 2509, 2510, 2511, 2512, 
2513, 2514, 2515, 2516, 2517, 2518, 2519, 2520, 2521, 2522, 
2523, 2524, 2525, 2526, 2527, 2528, 2529, 2530, 2531, 2532, 
2533, 2534, 2535, 2536, 2537, 2538, 2539, 2540, 2541, 2542, 
2543, 2544, 2545, 2546, 2547, 2548, 2549, 2550, 2551, 2552, 
2553, 2554, 2555, 2556, 2557, 2558, 2559, 2560, 2561, 2562, 
2563, 2564, 2565, 2566, 2567, 2568, 2569, 2570, 2571, 2572, 
2573, 2574, 2575, 2576, 2577, 2578, 2579, 2580, 2581, 2582, 
2583, 2584, 2585, 2586, 2587, 2588, 2589, 2590, 2591, 2592, 
2593, 2594, 2595, 2596, 2597, 2598, 2599, 2600, 2601, 2602, 
2603, 2604, 2605, 2606, 2607, 2608, 2609, 2610, 2611, 2612, 
2613, 2614, 2615, 2616, 2617, 2618, 2619, 2620, 2621, 2622, 
2623, 2624, 2625, 2626, 2627, 2628, 2629, 2630, 2631, 2632, 
2633, 2634, 2635, 2636, 2637, 2638, 2639, 2640, 2641, 2642, 
2643, 2644, 2645, 2646, 2647, 2648, 2649, 2650, 2651, 2652, 
2653, 2654, 2655, 2656, 2657, 2658, 2659, 2660, 2661, 2662, 
2663, 2664, 2665, 2666, 2667, 2668, 2669, 2670, 2671, 2672, 
2673, 2674, 2675, 2676, 2677, 2678, 2679, 2680, 2681, 2682, 
2683, 2684, 2685, 2686, 2687, 2688, 2689, 2690, 2691, 2692, 
2693, 2694, 2695, 2696, 2697, 2698, 2699, 2700, 2701, 2702, 
2703, 2704, 2705, 2706, 2707, 2708, 2709, 2710, 2711, 2712, 
2713, 2714, 2715, 2716, 2717, 2718, 2719, 2720, 2721, 2722, 
2723, 2724, 2725, 2726, 2727, 2728, 2729, 2730, 2731, 2732, 
2733, 2734, 2735, 2736, 2737, 2738, 2739, 2740, 2741, 2742, 
2743, 2744, 2745, 2746, 2747, 2748, 2749, 2750, 2751, 2752, 
2753, 2754, 2755, 2756, 2757, 2758, 2759, 2760, 2761, 2762, 
2763, 2764, 2765, 2766, 2767, 2768, 2769, 2770, 2771, 2772, 
2773, 2774, 2775, 2776, 2777, 2778, 2779, 2780, 2781, 2782, 
2783, 2784, 2785, 2786, 2787, 2788, 2789, 2790, 2791, 2792, 
2793, 2794, 2795, 2796, 2797, 2798, 2799, 2800, 2801, 2802, 
2803, 2804, 2805, 2806, 2807, 2808, 2809, 2810, 2811, 2812, 
2813, 2814, 2815, 2816, 2817, 2818, 2819, 2820, 2821, 2822, 
2823, 2824, 2825, 2826, 2827, 2828, 2829, 2830, 2831, 2832, 
2833, 2834, 2835, 2836, 2837, 2838, 2839, 2840, 2841, 2842, 
2843, 2844, 2845, 2846, 2847, 2848, 2849, 2850, 2851, 2852, 
2853, 2854, 2855, 2856, 2857, 2858, 2859, 2860, 2861, 2862, 
2863, 2864, 2865, 2866, 2867, 2868, 2869, 2870, 2871, 2872, 
2873, 2874, 2875, 2876, 2877, 2878, 2879, 2880, 2881, 2882, 
2883, 2884, 2885, 2886, 2887, 2888, 2889, 2890, 2891, 2892, 
2893, 2894, 2895, 2896, 2897, 2898, 2899, 2900, 2901, 2902, 
2903, 2904, 2905, 2906, 2907, 2908, 2909, 2910, 2911, 2912, 
2913, 2914, 2915, 2916, 2917, 2918, 2919, 2920, 2921, 2922, 
2923, 2924, 2925, 2926, 2927, 2928, 2929, 2930, 2931, 2932, 
2933, 2934, 2935, 2936, 2937, 2938, 2939, 2940, 2941, 2942, 
2943, 2944, 2945, 2946, 2947, 2948, 2949, 2950, 2951, 2952, 
2953, 2954, 2955, 2956, 2957, 2958, 2959, 2960, 2961, 2962, 
2963, 2964, 2965, 2966, 2967, 2968, 2969, 2970, 2971, 2972, 
2973, 2974, 2975, 2976, 2977, 2978, 2979, 2980, 2981, 2982, 
2983, 2984, 2985, 2986, 2987, 2988, 2989, 2990, 2991, 2992, 
2993, 2994, 2995, 2996, 2997, 2998, 2999, 3000, 3001, 3002, 
3003, 3004, 3005, 3006, 3007, 3008, 3009, 3010, 3011, 3012, 
3013, 3014, 3015, 3016, 3017, 3018, 3019, 3020, 3021, 3022, 
3023, 3024, 3025, 3026, 3027, 3028, 3029, 3030, 3031, 3032, 
3033, 3034, 3035, 3036, 3037, 3038, 3039, 3040, 3041, 3042, 
3043, 3044, 3045, 3046, 3047, 3048, 3049, 3050, 3051, 3052, 
3053, 3054, 3055, 3056, 3057, 3058, 3059, 3060, 3061, 3062, 
3063, 3064, 3065, 3066, 3067, 3068, 3069, 3070, 3071, 3072, 
3073, 3074, 3075, 3076, 3077, 3078, 3079, 3080, 3081, 3082, 
3083, 3084, 3085, 3086, 3087, 3088, 3089, 3090, 3091, 3092, 
3093, 3094, 3095, 3096, 3097, 3098, 3099, 3100, 3101, 3102, 
3103, 3104, 3105, 3106, 3107, 3108, 3109, 3110, 3111, 3112, 
3113, 3114, 3115, 3116, 3117, 3118, 3119, 3120, 3121, 3122, 
3123, 3124, 3125, 3126, 3127, 3128, 3129, 3130, 3131, 3132, 
3133, 3134, 3135, 3136, 3137, 3138, 3139, 3140, 3141, 3142, 
3143, 3144, 3145, 3146, 3147, 3148, 3149, 3150, 3151, 3152, 
3153, 3154, 3155, 3156, 3157, 3158, 3159, 3160, 3161, 3162, 
3163, 3164, 3165, 3166, 3167, 3168, 3169, 3170, 3171, 3172, 
3173, 3174, 3175, 3176, 3177, 3178, 3179, 3180, 3181, 3182, 
3183, 3184, 3185, 3186, 3187, 3188, 3189, 3190, 3191, 3192, 
3193, 3194, 3195, 3196, 3197, 3198, 3199, 3200, 3201, 3202, 
3203, 3204, 3205, 3206, 3207, 3208, 3209, 3210, 3211, 3212, 
3213, 3214, 3215, 3216, 3217, 3218, 3219, 3220, 3221, 3222, 
3223, 3224, 3225, 3226, 3227, 3228, 3229, 3230, 3231, 3232, 
3233, 3234, 3235, 3236, 3237, 3238, 3239, 3240, 3241, 3242, 
3243, 3244, 3245, 3246, 3247, 3248, 3249, 3250, 3251, 3252, 
3253, 3254, 3255, 3256, 3257, 3258, 3259, 3260, 3261, 3262, 
3263, 3264, 3265, 3266, 3267, 3268, 3269, 3270, 3271, 3272, 
3273, 3274, 3275, 3276, 3277, 3278, 3279, 3280, 3281, 3282, 
3283, 3284, 3285, 3286, 3287, 3288, 3289, 3290, 3291, 3292, 
3293, 3294, 3295, 3296, 3297, 3298, 3299, 3300, 3301, 3302, 
3303, 3304, 3305, 3306, 3307, 3308, 3309, 3310, 3311, 3312, 
3313, 3314, 3315, 3316, 3317, 3318, 3319, 3320, 3321, 3322, 
3323, 3324, 3325, 3326, 3327, 3328, 3329, 3330, 3331, 3332, 
3333, 3334, 3335, 3336, 3337, 3338, 3339, 3340, 3341, 3342, 
3343, 3344, 3345, 3346, 3347, 3348, 3349, 3350, 3351, 3352, 
3353, 3354, 3355, 3356, 3357, 3358, 3359, 3360, 3361, 3362, 
3363, 3364, 3365, 3366, 
*NSET,NSET=contact_source
1, 8, 133, 134, 135, 136, 137, 138, 139, 140, 
141, 142, 143, 144, 145, 146, 147, 148, 149, 150, 
151, 152, 153, 
*NSET,NSET=contact_drain
4, 5, 51, 52, 53, 54, 55, 56, 57, 58, 
59, 60, 61, 62, 63, 64, 65, 66, 67, 68, 
69, 70, 71, 
*NSET,NSET=probe_A
6, 7, 93, 94, 95, 96, 97, 98, 99, 100, 
101, 102, 103, 104, 105, 106, 107, 108, 109, 
*NSET,NSET=probe_B
2, 3, 27, 28, 29, 30, 31, 32, 33, 
*NSET,NSET=walls
1, 2, 3, 4, 5, 6, 7, 8, 9, 10, 
11, 12, 13, 14, 15, 16, 17, 18, 19, 20, 
21, 22, 23, 24, 25, 26, 34, 35, 36, 37, 
38, 39, 40, 41, 42, 43, 44, 45, 46, 47, 
48, 49, 50, 72, 73, 74, 75, 76, 77, 78, 
79, 80, 81, 82, 83, 84, 85, 86, 87, 88, 
89, 90, 91, 92, 110, 111, 112, 113, 114, 115, 
116, 117, 118, 119, 120, 121, 122, 123, 124, 125, 
126, 127, 128, 129, 130, 131, 132, 154, 155, 156, 
157, 158, 159, 160, 161, 162, 163, 164, 165, 166, 
167, 168, 169, 170, 171, 172, 173, 174, 175, 176, 
177, 178, 179, 180, 181, 182, 183, 184, 185, 186, 
187, 188, 189, 190, 191, 192, 193, 194, 195, 196, 
197, 198, 199, 200, 201, 202, 203, 204, 205, 206, 
207, 208, 209, 210, 211, 212, 213, 214, 215, 216, 
217, 218, 219, 220, 221, 222, 223, 224, 225, 226, 
227, 228, 229, 230, 231, 232, 233, 234, 235, 236, 
237, 238, 239, 240, 241, 242, 243, 244, 245, 246, 
247, 248, 249, 250, 251, 252, 253, 254, 255, 256, 
257, 258, 259, 260, 261, 262, 263, 264, 265, 266, 
267, 268, 269, 270, 271, 272, 273, 274, 275, 276, 
277, 278, 279, 280, 281, 282, 283, 284, 285, 286, 
287, 288, 289, 290, 291, 292, 293, 294, 295, 296, 
297, 298, 299, 300, 301, 302, 303, 304, 305, 306, 
307, 308, 309, 310, 311, 312, 313, 314, 315, 316, 
317, 318, 319, 320, 321, 322, 323, 324, 325, 326, 
327, 328, 329, 330, 331, 332, 333, 334, 335, 336, 
337, 338, 339, 340, 341, 342, 343, 344, 345, 346, 
347, 348, 349, 350, 351, 352, 353, 354, 355, 356, 
357, 358, 359, 360, 361, 362, 363, 364, 365, 366, 
367, 368, 369, 370, 371, 372, 373, 374, 375, 376, 
377, 378, 379, 380, 381, 382, 383, 384, 385, 386, 
387, 388, 389, 390, 391, 392, 393, 394, 395, 396, 
397, 398, 399, 400, 401, 402, 403, 404, 405, 406, 
407, 408, 409, 410, 411, 412, 413, 414, 415, 416, 
417, 418, 419, 420, 421, 422, 423, 424, 425, 426, 
427, 428, 429, 430, 431, 432, 433, 434, 435, 436, 
437, 438, 439, 440, 441, 442, 443, 444, 445, 446, 
447, 448, 449, 450, 451, 452, 453, 454, 455, 456, 
457, 458, 459, 460, 461, 462, 463, 464, 465, 466, 
467, 468, 469, 470, 471, 472, 473, 474, 475, 476, 
477, 478, 479, 480, 481, 482, 483, 484, 485, 486, 
487, 488, 489, 490, 491, 492, 493, 494, 495, 496, 
497, 498, 499, 500, 501, 502, 503, 504, 505, 506, 
507, 508, 509, 510, 511, 512, 
*NSET,NSET=domain
1, 2, 3, 4, 5, 6, 7, 8, 9, 10, 
11, 12, 13, 14, 15, 16, 17, 18, 19, 20, 
21, 22, 23, 24, 25, 26, 27, 28, 29, 30, 
31, 32, 33, 34, 35, 36, 37, 38, 39, 40, 
41, 42, 43, 44, 45, 46, 47, 48, 49, 50, 
51, 52, 53, 54, 55, 56, 57, 58, 59, 60, 
61, 62, 63, 64, 65, 66, 67, 68, 69, 70, 
71, 72, 73, 74, 75, 76, 77, 78, 79, 80, 
81, 82, 83, 84, 85, 86, 87, 88, 89, 90, 
91, 92, 93, 94, 95, 96, 97, 98, 99, 100, 
101, 102, 103, 104, 105, 106, 107, 108, 109, 110, 
111, 112, 113, 114, 115, 116, 117, 118, 119, 120, 
121, 122, 123, 124, 125, 126, 127, 128, 129, 130, 
131, 132, 133, 134, 135, 136, 137, 138, 139, 140, 
141, 142, 143, 144, 145, 146, 147, 148, 149, 150, 
151, 152, 153, 154, 155, 156, 157, 158, 159, 160, 
161, 162, 163, 164, 165, 166, 167, 168, 169, 170, 
171, 172, 173, 174, 175, 176, 177, 178, 179, 180, 
181, 182, 183, 184, 185, 186, 187, 188, 189, 190, 
191, 192, 193, 194, 195, 196, 197, 198, 199, 200, 
201, 202, 203, 204, 205, 206, 207, 208, 209, 210, 
211, 212, 213, 214, 215, 216, 217, 218, 219, 220, 
221, 222, 223, 224, 225, 226, 227, 228, 229, 230, 
231, 232, 233, 234, 235, 236, 237, 238, 239, 240, 
241, 242, 243, 244, 245, 246, 247, 248, 249, 250, 
251, 252, 253, 254, 255, 256, 257, 258, 259, 260, 
261, 262, 263, 264, 265, 266, 267, 268, 269, 270, 
271, 272, 273, 274, 275, 276, 277, 278, 279, 280, 
281, 282, 283, 284, 285, 286, 287, 288, 289, 290, 
291, 292, 293, 294, 295, 296, 297, 298, 299, 300, 
301, 302, 303, 304, 305, 306, 307, 308, 309, 310, 
311, 312, 313, 314, 315, 316, 317, 318, 319, 320, 
321, 322, 323, 324, 325, 326, 327, 328, 329, 330, 
331, 332, 333, 334, 335, 336, 337, 338, 339, 340, 
341, 342, 343, 344, 345, 346, 347, 348, 349, 350, 
351, 352, 353, 354, 355, 356, 357, 358, 359, 360, 
361, 362, 363, 364, 365, 366, 367, 368, 369, 370, 
371, 372, 373, 374, 375, 376, 377, 378, 379, 380, 
381, 382, 383, 384, 385, 386, 387, 388, 389, 390, 
391, 392, 393, 394, 395, 396, 397, 398, 399, 400, 
401, 402, 403, 404, 405, 406, 407, 408, 409, 410, 
411, 412, 413, 414, 415, 416, 417, 418, 419, 420, 
421, 422, 423, 424, 425, 426, 427, 428, 429, 430, 
431, 432, 433, 434, 435, 436, 437, 438, 439, 440, 
441, 442, 443, 444, 445, 446, 447, 448, 449, 450, 
451, 452, 453, 454, 455, 456, 457, 458, 459, 460, 
461, 462, 463, 464, 465, 466, 467, 468, 469, 470, 
471, 472, 473, 474, 475, 476, 477, 478, 479, 480, 
481, 482, 483, 484, 485, 486, 487, 488, 489, 490, 
491, 492, 493, 494, 495, 496, 497, 498, 499, 500, 
501, 502, 503, 504, 505, 506, 507, 508, 509, 510, 
511, 512, 513, 514, 515, 516, 517, 518, 519, 520, 
521, 522, 523, 524, 525, 526, 527, 528, 529, 530, 
531, 532, 533, 534, 535, 536, 537, 538, 539, 540, 
541, 542, 543, 544, 545, 546, 547, 548, 549, 550, 
551, 552, 553, 554, 555, 556, 557, 558, 559, 560, 
561, 562, 563, 564, 565, 566, 567, 568, 569, 570, 
571, 572, 573, 574, 575, 576, 577, 578, 579, 580, 
581, 582, 583, 584, 585, 586, 587, 588, 589, 590, 
591, 592, 593, 594, 595, 596, 597, 598, 599, 600, 
601, 602, 603, 604, 605, 606, 607, 608, 609, 610, 
611, 612, 613, 614, 615, 616, 617, 618, 619, 620, 
621, 622, 623, 624, 625, 626, 627, 628, 629, 630, 
631, 632, 633, 634, 635, 636, 637, 638, 639, 640, 
641, 642, 643, 644, 645, 646, 647, 648, 649, 650, 
651, 652, 653, 654, 655, 656, 657, 658, 659, 660, 
661, 662, 663, 664, 665, 666, 667, 668, 669, 670, 
671, 672, 673, 674, 675, 676, 677, 678, 679, 680, 
681, 682, 683, 684, 685, 686, 687, 688, 689, 690, 
691, 692, 693, 694, 695, 696, 697, 698, 699, 700, 
701, 702, 703, 704, 705, 706, 707, 708, 709, 710, 
711, 712, 713, 714, 715, 716, 717, 718, 719, 720, 
721, 722, 723, 724, 725, 726, 727, 728, 729, 730, 
731, 732, 733, 734, 735, 736, 737, 738, 739, 740, 
741, 742, 743, 744, 745, 746, 747, 748, 749, 750, 
751, 752, 753, 754, 755, 756, 757, 758, 759, 760, 
761, 762, 763, 764, 765, 766, 767, 768, 769, 770, 
771, 772, 773, 774, 775, 776, 777, 778, 779, 780, 
781, 782, 783, 784, 785, 786, 787, 788, 789, 790, 
791, 792, 793, 794, 795, 796, 797, 798, 799, 800, 
801, 802, 803, 804, 805, 806, 807, 808, 809, 810, 
811, 812, 813, 814, 815, 816, 817, 818, 819, 820, 
821, 822, 823, 824, 825, 826, 827, 828, 829, 830, 
831, 832, 833, 834, 835, 836, 837, 838, 839, 840, 
841, 842, 843, 844, 845, 846, 847, 848, 849, 850, 
851, 852, 853, 854, 855, 856, 857, 858, 859, 860, 
861, 862, 863, 864, 865, 866, 867, 868, 869, 870, 
871, 872, 873, 874, 875, 876, 877, 878, 879, 880, 
881, 882, 883, 884, 885, 886, 887, 888, 889, 890, 
891, 892, 893, 894, 895, 896, 897, 898, 899, 900, 
901, 902, 903, 904, 905, 906, 907, 908, 909, 910, 
911, 912, 913, 914, 915, 916, 917, 918, 919, 920, 
921, 922, 923, 924, 925, 926, 927, 928, 929, 930, 
931, 932, 933, 934, 935, 936, 937, 938, 939, 940, 
941, 942, 943, 944, 945, 946, 947, 948, 949, 950, 
951, 952, 953, 954, 955, 956, 957, 958, 959, 960, 
961, 962, 963, 964, 965, 966, 967, 968, 969, 970, 
971, 972, 973, 974, 975, 976, 977, 978, 979, 980, 
981, 982, 983, 984, 985, 986, 987, 988, 989, 990, 
991, 992, 993, 994, 995, 996, 997, 998, 999, 1000, 
1001, 1002, 1003, 1004, 1005, 1006, 1007, 1008, 1009, 1010, 
1011, 1012, 1013, 1014, 1015, 1016, 1017, 1018, 1019, 1020, 
1021, 1022, 1023, 1024, 1025, 1026, 1027, 1028, 1029, 1030, 
1031, 1032, 1033, 1034, 1035, 1036, 1037, 1038, 1039, 1040, 
1041, 1042, 1043, 1044, 1045, 1046, 1047, 1048, 1049, 1050, 
1051, 1052, 1053, 1054, 1055, 1056, 1057, 1058, 1059, 1060, 
1061, 1062, 1063, 1064, 1065, 1066, 1067, 1068, 1069, 1070, 
1071, 1072, 1073, 1074, 1075, 1076, 1077, 1078, 1079, 1080, 
1081, 1082, 1083, 1084, 1085, 1086, 1087, 1088, 1089, 1090, 
1091, 1092, 1093, 1094, 1095, 1096, 1097, 1098, 1099, 1100, 
1101, 1102, 1103, 1104, 1105, 1106, 1107, 1108, 1109, 1110, 
1111, 1112, 1113, 1114, 1115, 1116, 1117, 1118, 1119, 1120, 
1121, 1122, 1123, 1124, 1125, 1126, 1127, 1128, 1129, 1130, 
1131, 1132, 1133, 1134, 1135, 1136, 1137, 1138, 1139, 1140, 
1141, 1142, 1143, 1144, 1145, 1146, 1147, 1148, 1149, 1150, 
1151, 1152, 1153, 1154, 1155, 1156, 1157, 1158, 1159, 1160, 
1161, 1162, 1163, 1164, 1165, 1166, 1167, 1168, 1169, 1170, 
1171, 1172, 1173, 1174, 1175, 1176, 1177, 1178, 1179, 1180, 
1181, 1182, 1183, 1184, 1185, 1186, 1187, 1188, 1189, 1190, 
1191, 1192, 1193, 1194, 1195, 1196, 1197, 1198, 1199, 1200, 
1201, 1202, 1203, 1204, 1205, 1206, 1207, 1208, 1209, 1210, 
1211, 1212, 1213, 1214, 1215, 1216, 1217, 1218, 1219, 1220, 
1221, 1222, 1223, 1224, 1225, 1226, 1227, 1228, 1229, 1230, 
1231, 1232, 1233, 1234, 1235, 1236, 1237, 1238, 1239, 1240, 
1241, 1242, 1243, 1244, 1245, 1246, 1247, 1248, 1249, 1250, 
1251, 1252, 1253, 1254, 1255, 1256, 1257, 1258, 1259, 1260, 
1261, 1262, 1263, 1264, 1265, 1266, 1267, 1268, 1269, 1270, 
1271, 1272, 1273, 1274, 1275, 1276, 1277, 1278, 1279, 1280, 
1281, 1282, 1283, 1284, 1285, 1286, 1287, 1288, 1289, 1290, 
1291, 1292, 1293, 1294, 1295, 1296, 1297, 1298, 1299, 1300, 
1301, 1302, 1303, 1304, 1305, 1306, 1307, 1308, 1309, 1310, 
1311, 1312, 1313, 1314, 1315, 1316, 1317, 1318, 1319, 1320, 
1321, 1322, 1323, 1324, 1325, 1326, 1327, 1328, 1329, 1330, 
1331, 1332, 1333, 1334, 1335, 1336, 1337, 1338, 1339, 1340, 
1341, 1342, 1343, 1344, 1345, 1346, 1347, 1348, 1349, 1350, 
1351, 1352, 1353, 1354, 1355, 1356, 1357, 1358, 1359, 1360, 
1361, 1362, 1363, 1364, 1365, 1366, 1367, 1368, 1369, 1370, 
1371, 1372, 1373, 1374, 1375, 1376, 1377, 1378, 1379, 1380, 
1381, 1382, 1383, 1384, 1385, 1386, 1387, 1388, 1389, 1390, 
1391, 1392, 1393, 1394, 1395, 1396, 1397, 1398, 1399, 1400, 
1401, 1402, 1403, 1404, 1405, 1406, 1407, 1408, 1409, 1410, 
1411, 1412, 1413, 1414, 1415, 1416, 1417, 1418, 1419, 1420, 
1421, 1422, 1423, 1424, 1425, 1426, 1427, 1428, 1429, 1430, 
1431, 1432, 1433, 1434, 1435, 1436, 1437, 1438, 1439, 1440, 
1441, 1442, 1443, 1444, 1445, 1446, 1447, 1448, 1449, 1450, 
1451, 1452, 1453, 1454, 1455, 1456, 1457, 1458, 1459, 1460, 
1461, 1462, 1463, 1464, 1465, 1466, 1467, 1468, 1469, 1470, 
1471, 1472, 1473, 1474, 1475, 1476, 1477, 1478, 1479, 1480, 
1481, 1482, 1483, 1484, 1485, 1486, 1487, 1488, 1489, 1490, 
1491, 1492, 1493, 1494, 1495, 1496, 1497, 1498, 1499, 1500, 
1501, 1502, 1503, 1504, 1505, 1506, 1507, 1508, 1509, 1510, 
1511, 1512, 1513, 1514, 1515, 1516, 1517, 1518, 1519, 1520, 
1521, 1522, 1523, 1524, 1525, 1526, 1527, 1528, 1529, 1530, 
1531, 1532, 1533, 1534, 1535, 1536, 1537, 1538, 1539, 1540, 
1541, 1542, 1543, 1544, 1545, 1546, 1547, 1548, 1549, 1550, 
1551, 1552, 1553, 1554, 1555, 1556, 1557, 1558, 1559, 1560, 
1561, 1562, 1563, 1564, 1565, 1566, 1567, 1568, 1569, 1570, 
1571, 1572, 1573, 1574, 1575, 1576, 1577, 1578, 1579, 1580, 
1581, 1582, 1583, 1584, 1585, 1586, 1587, 1588, 1589, 1590, 
1591, 1592, 1593, 1594, 1595, 1596, 1597, 1598, 1599, 1600, 
1601, 1602, 1603, 1604, 1605, 1606, 1607, 1608, 1609, 1610, 
1611, 1612, 1613, 1614, 1615, 1616, 1617, 1618, 1619, 1620, 
1621, 1622, 1623, 1624, 1625, 1626, 1627, 1628, 1629, 1630, 
1631, 1632, 1633, 1634, 1635, 1636, 1637, 1638, 1639, 1640, 
1641, 1642, 1643, 1644, 1645, 1646, 1647, 1648, 1649, 1650, 
1651, 1652, 1653, 1654, 1655, 1656, 1657, 1658, 1659, 1660, 
1661, 1662, 1663, 1664, 1665, 1666, 1667, 1668, 1669, 1670, 
1671, 1672, 1673, 1674, 1675, 1676, 1677, 1678, 1679, 1680, 
1681, 1682, 1683, 1684, 1685, 1686, 1687, 1688, 1689, 1690, 
1691, 1692, 1693, 1694, 1695, 1696, 1697, 1698, 1699, 1700, 
1701, 1702, 1703, 1704, 1705, 1706, 1707, 1708, 1709, 1710, 
1711, 1712, 1713, 1714, 1715, 1716, 1717, 1718, 1719, 1720, 
1721, 1722, 1723, 1724, 1725, 1726, 1727, 1728, 1729, 1730, 
1731, 1732, 1733, 1734, 1735, 1736, 1737, 1738, 1739, 1740, 
1741, 1742, 1743, 1744, 1745, 1746, 1747, 1748, 1749, 1750, 
1751, 1752, 1753, 1754, 1755, 1756, 1757, 1758, 1759, 1760, 
1761, 1762, 1763, 1764, 1765, 1766, 1767, 1768, 1769, 1770, 
1771, 1772, 1773, 1774, 1775, 1776, 1777, 1778, 1779, 1780, 
1781, 1782, 1783, 1784, 1785, 1786, 1787, 1788, 1789, 1790, 
1791, 1792, 1793, 1794, 1795, 1796, 1797, 1798, 1799, 1800, 
1801, 1802, 1803, 1804, 1805, 1806, 1807, 1808, 1809, 1810, 
1811, 1812, 1813, 1814, 1815, 1816, 1817, 1818, 1819, 1820, 
1821, 1822, 1823, 1824, 1825, 1826, 1827, 1828, 1829, 1830, 
1831, 1832, 1833, 1834, 1835, 1836, 1837, 1838, 1839, 1840, 
1841, 1842, 1843, 1844, 1845, 1846, 1847, 1848, 1849, 1850, 
1851, 1852, 1853, 1854, 1855, 1856, 1857, 1858, 1859, 1860, 
1861, 1862, 1863, 1864, 1865, 1866, 1867, 1868, 1869, 1870, 
1871, 1872, 1873, 1874, 1875, 1876, 1877, 1878, 1879, 1880, 
1881, 1882, 1883, 1884, 1885, 1886, 1887, 1888, 1889, 1890, 
1891, 1892, 1893, 1894, 1895, 1896, 1897, 1898, 1899, 1900, 
1901, 1902, 1903, 1904, 1905, 1906, 1907, 1908, 1909, 1910, 
1911, 1912, 1913, 1914, 1915, 1916, 1917, 1918, 1919, 1920, 
1921, 1922, 1923, 1924, 1925, 1926, 1927, 1928, 1929, 1930, 
1931, 1932, 1933, 1934, 1935, 1936, 1937, 1938, 1939, 1940, 
1941, 1942, 1943, 1944, 1945, 1946, 1947, 1948, 1949, 1950, 
1951, 1952, 1953, 1954, 1955, 1956, 1957, 1958, 1959, 1960, 
1961, 1962, 1963, 1964, 1965, 1966, 1967, 1968, 1969, 1970, 
1971, 1972, 1973, 1974, 1975, 1976, 1977, 1978, 1979, 1980, 
1981, 1982, 1983, 1984, 1985, 1986, 1987, 1988, 1989, 1990, 
1991, 1992, 1993, 1994, 1995, 1996, 1997, 1998, 1999, 2000, 
2001, 2002, 2003, 2004, 2005, 2006, 2007, 2008, 2009, 2010, 
2011, 2012, 2013, 2014, 2015, 2016, 2017, 2018, 2019, 2020, 
2021, 2022, 2023, 2024, 2025, 2026, 2027, 2028, 2029, 2030, 
2031, 2032, 2033, 2034, 2035, 2036, 2037, 2038, 2039, 2040, 
2041, 2042, 2043, 2044, 2045, 2046, 2047, 2048, 2049, 2050, 
2051, 2052, 2053, 2054, 2055, 2056, 2057, 2058, 2059, 2060, 
2061, 2062, 2063, 2064, 2065, 2066, 2067, 2068, 2069, 2070, 
2071, 2072, 2073, 2074, 2075, 2076, 2077, 2078, 2079, 2080, 
2081, 2082, 2083, 2084, 2085, 2086, 2087, 2088, 2089, 2090, 
2091, 2092, 2093, 2094, 2095, 2096, 2097, 2098, 2099, 2100, 
2101, 2102, 2103, 2104, 2105, 2106, 2107, 2108, 2109, 2110, 
2111, 2112, 2113, 2114, 2115, 2116, 2117, 2118, 2119, 2120, 
2121, 2122, 2123, 2124, 2125, 2126, 2127, 2128, 2129, 2130, 
2131, 2132, 2133, 2134, 2135, 2136, 2137, 2138, 2139, 2140, 
2141, 2142, 2143, 2144, 2145, 2146, 2147, 2148, 2149, 2150, 
2151, 2152, 2153, 2154, 2155, 2156, 2157, 2158, 2159, 2160, 
2161, 2162, 2163, 2164, 2165, 2166, 2167, 2168, 2169, 2170, 
2171, 2172, 2173, 2174, 2175, 2176, 2177, 2178, 2179, 2180, 
2181, 2182, 2183, 2184, 2185, 2186, 2187, 2188, 2189, 2190, 
2191, 2192, 2193, 2194, 2195, 2196, 2197, 2198, 2199, 2200, 
2201, 2202, 2203, 2204, 2205, 2206, 2207, 2208, 2209, 2210, 
2211, 2212, 2213, 2214, 2215, 2216, 2217, 2218, 2219, 2220, 
2221, 2222, 2223, 2224, 2225, 2226, 2227, 2228, 2229, 2230, 
2231, 2232, 2233, 2234, 2235, 2236, 2237, 2238, 2239, 2240, 
2241, 2242, 2243, 2244, 2245, 2246, 2247, 2248, 2249, 2250, 
2251, 2252, 2253, 2254, 2255, 2256, 2257, 2258, 2259, 2260, 
2261, 2262, 2263, 2264, 2265, 2266, 2267, 2268, 2269, 2270, 
2271, 2272, 2273, 2274, 2275, 2276, 2277, 2278, 2279, 2280, 
2281, 2282, 2283, 2284, 2285, 2286, 2287, 2288, 2289, 2290, 
2291, 2292, 2293, 2294, 2295, 2296, 2297, 2298, 2299, 2300, 
2301, 2302, 2303, 2304, 2305, 2306, 2307, 2308, 2309, 2310, 
2311, 2312, 2313, 2314, 2315, 2316, 2317, 2318, 2319, 2320, 
2321, 2322, 2323, 2324, 2325, 2326, 2327, 2328, 2329, 2330, 
2331, 2332, 2333, 2334, 2335, 2336, 2337, 2338, 2339, 2340, 
2341, 2342, 2343, 2344, 2345, 2346, 2347, 2348, 2349, 2350, 
2351, 2352, 2353, 2354, 2355, 2356, 2357, 2358, 2359, 2360, 
2361, 2362, 2363, 2364, 2365, 2366, 2367, 2368, 2369, 2370, 
2371, 2372, 2373, 2374, 2375, 2376, 2377, 2378, 2379, 2380, 
2381, 2382, 2383, 2384, 2385, 2386, 2387, 2388, 2389, 2390, 
2391, 2392, 2393, 2394, 2395, 2396, 2397, 2398, 2399, 2400, 
2401, 2402, 2403, 2404, 2405, 2406, 2407, 2408, 2409, 2410, 
2411, 2412, 2413, 2414, 2415, 2416, 2417, 2418, 2419, 2420, 
2421, 2422, 2423, 2424, 2425, 2426, 2427, 2428, 2429, 2430, 
2431, 2432, 2433, 2434, 2435, 2436, 2437, 2438, 2439, 2440, 
2441, 2442, 2443, 2444, 2445, 2446, 2447, 2448, 2449, 2450, 
2451, 2452, 2453, 2454, 2455, 2456, 2457, 2458, 2459, 2460, 
2461, 2462, 2463, 2464, 2465, 2466, 2467, 2468, 2469, 2470, 
2471, 2472, 2473, 2474, 2475, 2476, 2477, 2478, 2479, 2480, 
2481, 2482, 2483, 2484, 2485, 2486, 2487, 2488, 2489, 2490, 
2491, 2492, 2493, 2494, 2495, 2496, 2497, 2498, 2499, 2500, 
2501, 2502, 2503, 2504, 2505, 2506, 2507, 2508, 2509, 2510, 
2511, 2512, 2513, 2514, 2515, 2516, 2517, 2518, 2519, 2520, 
2521, 2522, 2523, 2524, 2525, 2526, 2527, 2528, 2529, 2530, 
2531, 2532, 2533, 2534, 2535, 2536, 2537, 2538, 2539, 2540, 
2541, 2542, 2543, 2544, 2545, 2546, 2547, 2548, 2549, 2550, 
2551, 2552, 2553, 2554, 2555, 2556, 2557, 2558, 2559, 2560, 
2561, 2562, 2563, 2564, 2565, 2566, 2567, 2568, 2569, 2570, 
2571, 2572, 2573, 2574, 2575, 2576, 2577, 2578, 2579, 2580, 
2581, 2582, 2583, 2584, 2585, 2586, 2587, 2588, 2589, 2590, 
2591, 2592, 2593, 2594, 2595, 2596, 2597, 2598, 2599, 2600, 
2601, 2602, 2603, 2604, 2605, 2606, 2607, 2608, 2609, 2610, 
2611, 2612, 2613, 2614, 2615, 2616, 2617, 2618, 2619, 2620, 
2621, 2622, 2623, 2624, 2625, 2626, 2627, 2628, 2629, 2630, 
2631, 2632, 2633, 2634, 2635, 2636, 2637, 2638, 2639, 2640, 
2641, 2642, 2643, 2644, 2645, 2646, 2647, 2648, 2649, 2650, 
2651, 2652, 2653, 2654, 2655, 2656, 2657, 2658, 2659, 2660, 
2661, 2662, 2663, 2664, 2665, 2666, 2667, 2668, 2669, 2670, 
2671, 2672, 2673, 2674, 2675, 2676, 2677, 2678, 2679, 2680, 
2681, 2682, 2683, 2684, 2685, 2686, 2687, 2688, 2689, 2690, 
2691, 2692, 2693, 2694, 2695, 2696, 2697, 2698, 2699, 2700, 
2701, 2702, 2703, 2704, 2705, 2706, 2707, 2708, 2709, 2710, 
2711, 2712, 2713, 2714, 2715, 2716, 2717, 2718, 2719, 2720, 
2721, 2722, 2723, 2724, 2725, 2726, 2727, 2728, 2729, 2730, 
2731, 2732, 2733, 2734, 2735, 2736, 2737, 2738, 2739, 2740, 
2741, 2742, 2743, 2744, 2745, 2746, 2747, 2748, 2749, 2750, 
2751, 2752, 2753, 2754, 2755, 2756, 2757, 2758, 2759, 2760, 
2761, 2762, 2763, 2764, 2765, 2766, 2767, 2768, 2769, 2770, 
2771, 2772, 2773, 2774, 2775, 2776, 2777, 2778, 2779, 2780, 
2781, 2782, 2783, 2784, 2785, 2786, 2787, 2788, 2789, 2790, 
2791, 2792, 2793, 2794, 2795, 2796, 2797, 2798, 2799, 2800, 
2801, 2802, 2803, 2804, 2805, 2806, 2807, 2808, 2809, 2810, 
2811, 2812, 2813, 2814, 2815, 2816, 2817, 2818, 2819, 2820, 
2821, 2822, 2823, 2824, 2825, 2826, 2827, 2828, 2829, 2830, 
2831, 2832, 2833, 2834, 2835, 2836, 2837, 2838, 2839, 2840, 
2841, 2842, 2843, 2844, 2845, 2846, 2847, 2848, 2849, 2850, 
2851, 2852, 2853, 2854, 2855, 2856, 2857, 2858, 2859, 2860, 
2861, 2862, 2863, 2864, 2865, 2866, 2867, 2868, 2869, 2870, 
2871, 2872, 2873, 2874, 2875, 2876, 2877, 2878, 2879, 2880, 
2881, 2882, 2883, 2884, 2885, 2886, 2887, 2888, 2889, 2890, 
2891, 2892, 2893, 2894, 2895, 2896, 2897, 2898, 2899, 2900, 
2901, 2902, 2903, 2904, 2905, 2906, 2907, 2908, 2909, 2910, 
2911, 2912, 2913, 2914, 2915, 2916, 2917, 2918, 2919, 2920, 
2921, 2922, 2923, 2924, 2925, 2926, 2927, 2928, 2929, 2930, 
2931, 2932, 2933, 2934, 2935, 2936, 2937, 2938, 2939, 2940, 
2941, 2942, 2943, 2944, 2945, 2946, 2947, 2948, 2949, 2950, 
2951, 2952, 2953, 2954, 2955, 2956, 2957, 2958, 2959, 2960, 
2961, 2962, 2963, 2964, 2965, 2966, 2967, 2968, 2969, 2970, 
2971, 2972, 2973, 2974, 2975, 2976, 2977, 2978, 2979, 2980, 
2981, 2982, 2983, 2984, 2985, 2986, 2987, 2988, 2989, 2990, 
2991, 2992, 2993, 2994, 2995, 2996, 2997, 2998, 2999, 3000, 
3001, 3002, 3003, 3004, 3005, 3006, 3007, 3008, 3009, 3010, 
3011, 3012, 3013, 3014, 3015, 3016, 3017, 3018, 3019, 3020, 
3021, 3022, 3023, 3024, 3025, 3026, 3027, 3028, 3029, 3030, 
3031, 3032, 3033, 3034, 3035, 3036, 3037, 3038, 3039, 3040, 
3041, 3042, 3043, 3044, 3045, 3046, 3047, 3048, 3049, 3050, 
3051, 3052, 3053, 3054, 3055, 3056, 3057, 3058, 3059, 3060, 
3061, 3062, 3063, 3064, 3065, 3066, 3067, 3068, 3069, 3070, 
3071, 3072, 3073, 3074, 3075, 3076, 3077, 3078, 3079, 3080, 
3081, 3082, 3083, 3084, 3085, 3086, 3087, 3088, 3089, 3090, 
3091, 3092, 3093, 3094, 3095, 3096, 3097, 3098, 3099, 3100, 
3101, 3102, 3103, 3104, 3105, 3106, 3107, 3108, 3109, 3110, 
