*Heading
 /Users/juliagao/geometry-optimization-net/scripts/../runs/fourier/shape_30.inp
*NODE
1, 0, -0.3, 0
2, 0.425, -0.3, 0
3, 0.575, -0.3, 0
4, 1, -0.3, 0
5, 1, 0.3, 0
6, 0.575, 0.3, 0
7, 0.425, 0.3, 0
8, 0, 0.3, 0
9, 0.7016713428, 0.0594347966, 0
10, 0.025951667022531, -0.3, 0
11, 0.078809377951286, -0.3, 0
12, 0.13335344886745, -0.3, 0
13, 0.18871707261488, -0.3, 0
14, 0.24394791965626, -0.3, 0
15, 0.29827919898798, -0.3, 0
16, 0.3507373089263, -0.3, 0
17, 0.4006846949184, -0.3, 0
18, 0.051903334045063, -0.3, 0
19, 0.10571542185751, -0.3, 0
20, 0.16099147587739, -0.3, 0
21, 0.21644266935237, -0.3, 0
22, 0.27145316996015, -0.3, 0
23, 0.32510522801581, -0.3, 0
24, 0.3763693898368, -0.3, 0
25, 0.44410258791002, -0.3, 0
26, 0.48185250875261, -0.3, 0
27, 0.5190336928257, -0.3, 0
28, 0.55628377198311, -0.3, 0
29, 0.46320517582005, -0.3, 0
30, 0.50049984168517, -0.3, 0
31, 0.53756754396622, -0.3, 0
32, 0.59901212928964, -0.3, 0
33, 0.64803967986886, -0.3, 0
34, 0.6995132170147, -0.3, 0
35, 0.75375825555396, -0.3, 0
36, 0.80977885472164, -0.3, 0
37, 0.86597187110402, -0.3, 0
38, 0.92086138906845, -0.3, 0
39, 0.97389578356759, -0.3, 0
40, 0.62302425857928, -0.3, 0
41, 0.67305510115843, -0.3, 0
42, 0.72597133287097, -0.3, 0
43, 0.78154517823696, -0.3, 0
44, 0.83801253120633, -0.3, 0
45, 0.89393121100171, -0.3, 0
46, 0.94779156713519, -0.3, 0
47, 1, -0.27439012662533, 0
48, 1, -0.22295682687018, 0
49, 1, -0.17099434896568, 0
50, 1, -0.11800659886671, 0
51, 1, -0.062855626548887, 0
52, 1, -0.0060097643427053, 0
53, 1, 0.050731645667777, 0
54, 1, 0.10712129200671, 0
55, 1, 0.16367305555026, 0
56, 1, 0.21959131842923, 0
57, 1, 0.27357482127821, 0
58, 1, -0.24878025325066, 0
59, 1, -0.1971334004897, 0
60, 1, -0.14485529744166, 0
61, 1, -0.091157900291757, 0
62, 1, -0.034553352806018, 0
63, 1, 0.022533824120608, 0
64, 1, 0.078929467214946, 0
65, 1, 0.13531311679848, 0
66, 1, 0.19203299430203, 0
67, 1, 0.24714964255642, 0
68, 0.97406564992401, 0.3, 0
69, 0.92153103364965, 0.3, 0
70, 0.86825030822542, 0.3, 0
71, 0.81602742018376, 0.3, 0
72, 0.76723792583095, 0.3, 0
73, 0.72417906935035, 0.3, 0
74, 0.68859798234173, 0.3, 0
75, 0.66047187705787, 0.3, 0
76, 0.63746853569689, 0.3, 0
77, 0.6173000945239, 0.3, 0
78, 0.59931196784567, 0.3, 0
79, 0.58292287509913, 0.3, 0
80, 0.94813129984802, 0.3, 0
81, 0.89493076745129, 0.3, 0
82, 0.84156984899955, 0.3, 0
83, 0.79048499136796, 0.3, 0
84, 0.74399086029393, 0.3, 0
85, 0.70436727840676, 0.3, 0
86, 0.6728286862767, 0.3, 0
87, 0.64811506783904, 0.3, 0
88, 0.62682200355473, 0.3, 0
89, 0.60777818549307, 0.3, 0
90, 0.59084575019826, 0.3, 0
91, 0.56785093654307, 0.3, 0
92, 0.55384179054901, 0.3, 0
93, 0.54027463059311, 0.3, 0
94, 0.52689684871092, 0.3, 0
95, 0.5134540931688, 0.3, 0
96, 0.49946690957219, 0.3, 0
97, 0.48461031739485, 0.3, 0
98, 0.46894472298301, 0.3, 0
99, 0.45230793056512, 0.3, 0
100, 0.43434763644982, 0.3, 0
101, 0.56070187308615, 0.3, 0
102, 0.54698170801188, 0.3, 0
103, 0.53356755317434, 0.3, 0
104, 0.52022614424751, 0.3, 0
105, 0.50668204209008, 0.3, 0
106, 0.49225177705429, 0.3, 0
107, 0.47696885773542, 0.3, 0
108, 0.4609205882306, 0.3, 0
109, 0.44369527289964, 0.3, 0
110, 0.41450817923513, 0.3, 0
111, 0.39258382344735, 0.3, 0
112, 0.36847492928792, 0.3, 0
113, 0.34160291785497, 0.3, 0
114, 0.31100374528807, 0.3, 0
115, 0.274793844056, 0.3, 0
116, 0.23207804284319, 0.3, 0
117, 0.18393254249291, 0.3, 0
118, 0.13183270381025, 0.3, 0
119, 0.078205500727249, 0.3, 0
120, 0.025721028113916, 0.3, 0
121, 0.40401635847027, 0.3, 0
122, 0.38115128842443, 0.3, 0
123, 0.3557985701514, 0.3, 0
124, 0.32740726555854, 0.3, 0
125, 0.29460022501761, 0.3, 0
126, 0.25498746309439, 0.3, 0
127, 0.209168622592, 0.3, 0
128, 0.15869646239383, 0.3, 0
129, 0.10496894522667, 0.3, 0
130, 0.051442056227832, 0.3, 0
131, 0, 0.27428711155274, 0
132, 0, 0.22162461860438, 0
133, 0, 0.16696129372019, 0
134, 0, 0.11220949419674, 0
135, 0, 0.057675270285219, 0
136, 0, 0.0018715680749418, 0
137, 0, -0.054661454123195, 0
138, 0, -0.11087732680075, 0
139, 0, -0.16660248039923, 0
140, 0, -0.22123760535328, 0
141, 0, -0.27406899231371, 0
142, 0, 0.24857422310548, 0
143, 0, 0.19467501410327, 0
144, 0, 0.13924757333712, 0
145, 0, 0.08517141505637, 0
146, 0, 0.030179125514068, 0
147, 0, -0.026435989364185, 0
148, 0, -0.082886918882205, 0
149, 0, -0.1388677347193, 0
150, 0, -0.19433722607915, 0
151, 0, -0.24813798462742, 0
152, 0.70106435078468, 0.063371925138027, 0
153, 0.70331837381068, 0.047753671172686, 0
154, 0.704285965618, 0.039952789691319, 0
155, 0.70513786452838, 0.032181357519346, 0
156, 0.70585714399295, 0.024556416319801, 0
157, 0.70644364929227, 0.017038733709695, 0
158, 0.7068984502201, 0.0094933529008523, 0
159, 0.70720725735071, 0.0019065344569909, 0
160, 0.70735139160812, -0.0055795466512535, 0
161, 0.7073213910706, -0.012984479775775, 0
162, 0.70710102640444, -0.020433438710885, 0
163, 0.70664434597831, -0.028251446849188, 0
164, 0.70587509885941, -0.036606210961862, 0
165, 0.70476582269031, -0.045084204694334, 0
166, 0.70334471795305, -0.053277370755522, 0
167, 0.70167891039516, -0.060907540520108, 0
168, 0.6997516507624, -0.068175933905081, 0
169, 0.69744367050551, -0.075478484837873, 0
170, 0.69469920740637, -0.082830254768048, 0
171, 0.6915223572727, -0.090086421932411, 0
172, 0.6879433278181, -0.097105562484177, 0
173, 0.68393054191198, -0.10389904880777, 0
174, 0.67953495001242, -0.11034735557358, 0
175, 0.67480315282296, -0.11638258986696, 0
176, 0.66965407118963, -0.12209669847438, 0
177, 0.66412990595289, -0.12742030124725, 0
178, 0.65828789548689, -0.1322955256542, 0
179, 0.65209584339848, -0.1367474104749, 0
180, 0.64563938236616, -0.14071645678083, 0
181, 0.63902279606899, -0.14416316294117, 0
182, 0.63227124024347, -0.14710829958935, 0
183, 0.62536887677712, -0.1495854764736, 0
184, 0.61821408883126, -0.15163911547671, 0
185, 0.61081604728089, -0.15326222162755, 0
186, 0.60327779275691, -0.15443783512891, 0
187, 0.59558968109178, -0.15518059550719, 0
188, 0.58769162508565, -0.1555028431845, 0
189, 0.57967842086381, -0.15541113672185, 0
190, 0.57187293577102, -0.15495191631145, 0
191, 0.56424973230549, -0.15418489237746, 0
192, 0.55648946703053, -0.15311663998721, 0
193, 0.54876043004705, -0.15180367522331, 0
194, 0.54128677655923, -0.15033922251275, 0
195, 0.53385185461454, -0.14873736424867, 0
196, 0.52639494087957, -0.14703581235391, 0
197, 0.51901247767959, -0.14531208017292, 0
198, 0.51156053593927, -0.14359107115544, 0
199, 0.50395391988669, -0.1419150140307, 0
200, 0.49620385964056, -0.14034993817165, 0
201, 0.48847101196968, -0.13897848808156, 0
202, 0.4808698170182, -0.13784132396436, 0
203, 0.47328956667616, -0.13691733548927, 0
204, 0.46564377685123, -0.13617554333421, 0
205, 0.45780331513205, -0.13556790144997, 0
206, 0.44981964630502, -0.13504381523138, 0
207, 0.44194262127928, -0.13454658924598, 0
208, 0.43419200053589, -0.13400240178229, 0
209, 0.42642047124146, -0.13332968237619, 0
210, 0.41871625349973, -0.13246870463173, 0
211, 0.41116652280933, -0.13137423598285, 0
212, 0.40372212146175, -0.12999257654116, 0
213, 0.39640234991414, -0.12828386804235, 0
214, 0.38915788541205, -0.12619258756031, 0
215, 0.38185453675309, -0.12361704707129, 0
216, 0.3746166802666, -0.12052845380436, 0
217, 0.36769138201444, -0.1169924522875, 0
218, 0.36099783465974, -0.11294312356829, 0
219, 0.35450629673902, -0.10831478825661, 0
220, 0.34838338260068, -0.10319085093676, 0
221, 0.34274031464825, -0.097675550760442, 0
222, 0.33762174981107, -0.091862195767905, 0
223, 0.33300806929001, -0.085798135522769, 0
224, 0.32883778761393, -0.079468638293835, 0
225, 0.32507046578628, -0.072866775484853, 0
226, 0.32171863284855, -0.066082923367203, 0
227, 0.31870238341055, -0.059024703880887, 0
228, 0.31593732142061, -0.051514221443414, 0
229, 0.31352786095112, -0.043908724898777, 0
230, 0.31150674796983, -0.03655317986675, 0
231, 0.30974868002579, -0.029268443470295, 0
232, 0.30816680933637, -0.021908524031024, 0
233, 0.30672741007447, -0.014527028454103, 0
234, 0.30538801444681, -0.0071385226280995, 0
235, 0.30410160978426, 0.00028668299881526, 0
236, 0.3028363144829, 0.0077215080289605, 0
237, 0.30154862348515, 0.015247316694232, 0
238, 0.30020290493292, 0.022947896445966, 0
239, 0.29880339969349, 0.030742327444998, 0
240, 0.29737616013644, 0.038516793192226, 0
241, 0.29596700611031, 0.046133332625338, 0
242, 0.29461862377439, 0.053519373614944, 0
243, 0.29334328289469, 0.0607851245272, 0
244, 0.29215444213298, 0.068057335499885, 0
245, 0.29107069953063, 0.075483697554236, 0
246, 0.29012793584355, 0.083195045014822, 0
247, 0.28940105613203, 0.091085265266284, 0
248, 0.28896227518034, 0.098887142084444, 0
249, 0.28884223960601, 0.10653507500947, 0
250, 0.28906659307447, 0.11417553902094, 0
251, 0.28967432337017, 0.12183583730311, 0
252, 0.29069337971848, 0.12943259610922, 0
253, 0.292137164204, 0.13689630158103, 0
254, 0.29404295321974, 0.14429573656929, 0
255, 0.2964760413254, 0.15171769047724, 0
256, 0.29938743649548, 0.15891708259485, 0
257, 0.30269590834444, 0.16572590398183, 0
258, 0.30645521508564, 0.17228781193848, 0
259, 0.31073725443345, 0.17869806560736, 0
260, 0.31547585348166, 0.18483125855628, 0
261, 0.32054463312291, 0.19055140684428, 0
262, 0.32596276621831, 0.19592101564559, 0
263, 0.33170986979916, 0.20094778945835, 0
264, 0.33770301695676, 0.20559470825829, 0
265, 0.3440002429601, 0.20993811588761, 0
266, 0.35055743051629, 0.21397152353286, 0
267, 0.35718270765833, 0.21762119848024, 0
268, 0.36384454691248, 0.22092724621476, 0
269, 0.37061239558953, 0.22397090662291, 0
270, 0.3774955630504, 0.22679374295459, 0
271, 0.38447345100096, 0.2294240764811, 0
272, 0.39160040802969, 0.23191782097219, 0
273, 0.39889357454318, 0.23431524143153, 0
274, 0.40625962242346, 0.23662402275894, 0
275, 0.41364853217588, 0.23886958774385, 0
276, 0.42088940272786, 0.24103911190572, 0
277, 0.42797667100511, 0.2431622573188, 0
278, 0.4352351970331, 0.24535833336672, 0
279, 0.44278310332132, 0.24767826415197, 0
280, 0.45040228506846, 0.25005827378503, 0
281, 0.4579086186693, 0.25242752182295, 0
282, 0.46547157983992, 0.25481361997506, 0
283, 0.47309071795996, 0.25718050320926, 0
284, 0.48049936774793, 0.25940610485544, 0
285, 0.48779450818669, 0.26148377423502, 0
286, 0.49512694146637, 0.26341846539893, 0
287, 0.50240632445691, 0.26514979016704, 0
288, 0.50973704819525, 0.26666839971321, 0
289, 0.51748497154059, 0.26799381874971, 0
290, 0.52566262700236, 0.26904549346754, 0
291, 0.53389591632359, 0.26970947336982, 0
292, 0.54208122336161, 0.26994450649128, 0
293, 0.55021317579683, 0.26972771909554, 0
294, 0.55807102260268, 0.26906321630387, 0
295, 0.56575142882302, 0.26795356509398, 0
296, 0.57364418097813, 0.26630816183805, 0
297, 0.58143964737242, 0.26414563938191, 0
298, 0.58877703935511, 0.2615862067525, 0
299, 0.59589954378453, 0.25857763269957, 0
300, 0.60280506455961, 0.25512677261359, 0
301, 0.60933170097571, 0.25133922760496, 0
302, 0.61559512483948, 0.24717851906877, 0
303, 0.6216888056834, 0.24258682787131, 0
304, 0.62758186426661, 0.23758176492335, 0
305, 0.63322215417188, 0.23221234889618, 0
306, 0.63860772691156, 0.22649341468448, 0
307, 0.64385034908109, 0.22030052475407, 0
308, 0.6487968333184, 0.21381677934507, 0
309, 0.6532565577378, 0.20736641458154, 0
310, 0.65730336350607, 0.20095186165975, 0
311, 0.66101920823246, 0.19453204557391, 0
312, 0.66444882390147, 0.18810199682305, 0
313, 0.6676913057493, 0.1815250849136, 0
314, 0.67079521757329, 0.17472452483949, 0
315, 0.67370993339898, 0.16783923180329, 0
316, 0.67642676649959, 0.16093927607009, 0
317, 0.67896302216218, 0.15403478884772, 0
318, 0.68137669076644, 0.14700688556167, 0
319, 0.68372764621918, 0.13968959412049, 0
320, 0.68593160505239, 0.13236280538386, 0
321, 0.6879636006843, 0.12516403035492, 0
322, 0.68994421114118, 0.11769099642045, 0
323, 0.6918791366917, 0.10990155192362, 0
324, 0.69366745792357, 0.10221448420821, 0
325, 0.69531091958188, 0.094676317129757, 0
326, 0.69688386625889, 0.086969294287255, 0
327, 0.6983887080884, 0.079066148980312, 0
328, 0.6997811741428, 0.071200009802988, 0
329, 0.70224706400073, 0.055534900659986, 0
330, 0.70043236111708, 0.067305118504293, 0
331, 0.6991054111549, 0.075090712447792, 0
332, 0.6976460917874, 0.083036826787187, 0
333, 0.69609558757881, 0.090896622706889, 0
334, 0.69450130371724, 0.0984507468757, 0
335, 0.69280777994111, 0.10597240602475, 0
336, 0.69092084388095, 0.11382357294421, 0
337, 0.68893705252776, 0.12155058412847, 0
338, 0.68696166404486, 0.12876968345769, 0
339, 0.68487128158169, 0.13594711459459, 0
340, 0.68254842237212, 0.14342101538179, 0
341, 0.68016929553117, 0.15058090797313, 0
342, 0.67772056304577, 0.15747582133793, 0
343, 0.67509308418855, 0.16438757218958, 0
344, 0.67228323477175, 0.17127312515175, 0
345, 0.66925925322359, 0.17815486128924, 0
346, 0.66607300477275, 0.18487142789237, 0
347, 0.66277379721444, 0.19130650405854, 0
348, 0.65920901267215, 0.19772671975973, 0
349, 0.65533669299315, 0.20414016964006, 0
350, 0.65110932536287, 0.21054840888917, 0
351, 0.64640850865684, 0.21703016842829, 0
352, 0.64120827937733, 0.22350349252409, 0
353, 0.63592953899378, 0.22941401673075, 0
354, 0.63043968070515, 0.23493604588241, 0
355, 0.6246498850322, 0.24014506842552, 0
356, 0.61865775292781, 0.24494117916775, 0
357, 0.61246726903105, 0.24932373713763, 0
358, 0.6061371491564, 0.25325987227214, 0
359, 0.59941631252691, 0.2568887323108, 0
360, 0.59233022708477, 0.26015244780423, 0
361, 0.58518024904454, 0.262906774222, 0
362, 0.57766097181579, 0.26526298453402, 0
363, 0.56959468618292, 0.26721838864238, 0
364, 0.5618874329737, 0.26857046390253, 0
365, 0.55424189951194, 0.26944468548121, 0
366, 0.54617793236551, 0.26989326902475, 0
367, 0.53798469158648, 0.26988179484954, 0
368, 0.52981296062603, 0.26943180186122, 0
369, 0.52152276480799, 0.26855981927602, 0
370, 0.51345997086946, 0.26734316020085, 0
371, 0.50602625645968, 0.26592989708933, 0
372, 0.49879806785026, 0.26431739488839, 0
373, 0.49146715215927, 0.26247447860672, 0
374, 0.48413172772447, 0.26045723342396, 0
375, 0.47687457798019, 0.25832918073268, 0
376, 0.46931234236859, 0.25601392636577, 0
377, 0.46163348290457, 0.25360482324691, 0
378, 0.45418379163747, 0.25125010275962, 0
379, 0.4466189796294, 0.2488721654628, 0
380, 0.43894442916273, 0.24649338833304, 0
381, 0.43152344072057, 0.24423156121426, 0
382, 0.42442844454294, 0.24209779884342, 0
383, 0.41735035222672, 0.23998045401926, 0
384, 0.40994889031873, 0.23775148365837, 0
385, 0.40257527242678, 0.23548058135804, 0
386, 0.39522005894682, 0.23312433996454, 0
387, 0.38799241361673, 0.23067685406677, 0
388, 0.38096964499656, 0.22812948668443, 0
389, 0.37404100151282, 0.22540826766762, 0
390, 0.36720831990037, 0.22247634813806, 0
391, 0.36051074583642, 0.21931462282934, 0
392, 0.35389152904621, 0.21585717570508, 0
393, 0.34726963747514, 0.21200621407375, 0
394, 0.34078654796069, 0.20778445192762, 0
395, 0.33468127119775, 0.20332043747796, 0
396, 0.32880982916525, 0.19848840794931, 0
397, 0.32319743228458, 0.19326577530798, 0
398, 0.31798068921034, 0.18775293918385, 0
399, 0.31307074916486, 0.18182693300614, 0
400, 0.30851403422098, 0.17548989562853, 0
401, 0.30450721380072, 0.16901712692701, 0
402, 0.30099664516811, 0.1623754624263, 0
403, 0.2978962253763, 0.15540621734309, 0
404, 0.29518314169392, 0.14798265861803, 0
405, 0.29302258258969, 0.14057388751043, 0
406, 0.29136355387485, 0.13319359632072, 0
407, 0.29013220657504, 0.1256538106546, 0
408, 0.28932026398043, 0.11800685770561, 0
409, 0.28890860052772, 0.11033910157831, 0
410, 0.2888611723056, 0.10273053388811, 0
411, 0.28914083264318, 0.095046586274095, 0
412, 0.28973263604994, 0.087129295636254, 0
413, 0.29058220180648, 0.07926718119688, 0
414, 0.2916030033143, 0.071706138702197, 0
415, 0.29273680665545, 0.064413347330033, 0
416, 0.29397090879476, 0.057160505130578, 0
417, 0.29527863933019, 0.049880454260426, 0
418, 0.29665980085007, 0.042387027981318, 0
419, 0.29808973159417, 0.034646043009946, 0
420, 0.2995092701178, 0.026837193731829, 0
421, 0.30088729529421, 0.019056961782308, 0
422, 0.30220308849084, 0.011436487095311, 0
423, 0.30346782922532, 0.0040062379198225, 0
424, 0.30474086327507, -0.0034319362897255, 0
425, 0.30604955607884, -0.010842570946913, 0
426, 0.30742954067925, -0.018206942882103, 0
427, 0.30893952731097, -0.025602877012362, 0
428, 0.31060376302309, -0.032923580584476, 0
429, 0.31246586467553, -0.040168366570202, 0
430, 0.31466154762431, -0.047628002185825, 0
431, 0.3173041960011, -0.05536937048407, 0
432, 0.32019352470743, -0.06264314002434, 0
433, 0.32333673702544, -0.069479975925605, 0
434, 0.32690475170311, -0.076200210609684, 0
435, 0.33087453455297, -0.082673487785842, 0
436, 0.33524591622992, -0.088848964595986, 0
437, 0.34010380662879, -0.094788565873678, 0
438, 0.34548324749187, -0.10046163316806, 0
439, 0.35138708208705, -0.10580566352412, 0
440, 0.35772069922414, -0.11070074846028, 0
441, 0.3643575522491, -0.11505974374421, 0
442, 0.37109181398541, -0.11880538542462, 0
443, 0.37819885529693, -0.12212892066548, 0
444, 0.38555662308676, -0.12498557678893, 0
445, 0.39279240922542, -0.12729531865289, 0
446, 0.40003650070785, -0.1291792315912, 0
447, 0.40742542006105, -0.13072109424522, 0
448, 0.41491979833738, -0.13195320508932, 0
449, 0.42252059532542, -0.13292218658026, 0
450, 0.43032515554586, -0.13368799619562, 0
451, 0.43806125419762, -0.13428546869706, 0
452, 0.44582488117903, -0.13479399732729, 0
453, 0.45381409730511, -0.1352986390996, 0
454, 0.46179085417525, -0.13586110259928, 0
455, 0.46949347583731, -0.1365273791964, 0
456, 0.47708057786583, -0.13735399383135, 0
457, 0.48465206432041, -0.13838025725817, 0
458, 0.49228152125216, -0.1396282762204, 0
459, 0.5001171940091, -0.14111887548082, 0
460, 0.50778347832037, -0.14274489680863, 0
461, 0.51533326719212, -0.14445630264022, 0
462, 0.52269066854913, -0.14617222342458, 0
463, 0.5301013769591, -0.14789007973611, 0
464, 0.53760747641538, -0.14956157940876, 0
465, 0.54497313506793, -0.15108273280796, 0
466, 0.55255650268934, -0.1524769427351, 0
467, 0.56043218383782, -0.15369329561833, 0
468, 0.56807559477574, -0.1546070702496, 0
469, 0.57567654736377, -0.1552190683504, 0
470, 0.58368376502549, -0.15550733689665, 0
471, 0.59169799940576, -0.15539287588061, 0
472, 0.59947400370628, -0.15486054327268, 0
473, 0.60706768055497, -0.15390456928078, 0
474, 0.61454297378929, -0.15250525632353, 0
475, 0.62185567489676, -0.15065613887695, 0
476, 0.62884561603966, -0.14840171949662, 0
477, 0.63565197827615, -0.14570170297181, 0
478, 0.64233862521588, -0.14250942896244, 0
479, 0.64887447697758, -0.13880754663309, 0
480, 0.6552402988182, -0.13457168476009, 0
481, 0.6612516128423, -0.12991117951519, 0
482, 0.66691768096637, -0.12482852580426, 0
483, 0.67229180840252, -0.11926951478258, 0
484, 0.6772144560653, -0.11341161017467, 0
485, 0.68175274864572, -0.10720798940264, 0
486, 0.68599898594292, -0.10052069398788, 0
487, 0.68978120729987, -0.093631996977142, 0
488, 0.69315838850774, -0.086491150398405, 0
489, 0.69613729584984, -0.079127815394787, 0
490, 0.69865633073326, -0.071796966193185, 0
491, 0.70076202401524, -0.064530298119624, 0
492, 0.70251737633869, -0.057265844033561, 0
493, 0.70408468121416, -0.049271779214065, 0
494, 0.70535904904781, -0.040883287828865, 0
495, 0.70630783614997, -0.032319916143937, 0
496, 0.70691244546578, -0.024177906534129, 0
497, 0.70723682191346, -0.016686690800104, 0
498, 0.70735886718589, -0.0092814971635376, 0
499, 0.70730103156322, -0.0018779349874809, 0
500, 0.70707278547061, 0.0056897729167402, 0
501, 0.70668684995066, 0.013295038803244, 0
502, 0.70616765073378, 0.020780151258253, 0
503, 0.70551617089198, 0.028330050517575, 0
504, 0.70473044102727, 0.036029691617644, 0
505, 0.70381341749627, 0.043872604216793, 0
506, 0.70279745457775, 0.051631349063221, 0
507, 0.42394044272412, -0.25385845356871, 0
508, 0.10683507085437, -0.24460347597353, 0
509, 0.05331446160949, -0.24614244978781, 0
510, 0.16130146423526, -0.24401836874302, 0
511, 0.21658970553095, -0.24441059967266, 0
512, 0.27055463233826, -0.24356264237073, 0
513, 0.72131029872663, 0.066280304988872, 0
514, 0.47996023483227, 0.27667201900635, 0
515, 0.57914079549278, -0.25593258680874, 0
516, 0.053769724580194, 0.19309544807955, 0
517, 0.1576492093696, 0.24826838534242, 0
518, 0.10530570924111, 0.24658883469922, 0
519, 0.052608971736843, 0.24681197389249, 0
520, 0.18228255799888, 0.2217763196542, 0
521, 0.30713799907983, 0.23835939554012, 0
522, 0.30245063844985, 0.24863049939042, 0
523, 0.33790720018353, 0.21238023522693, 0
524, 0.36650896111097, 0.2722972799708, 0
525, 0.38629474920483, 0.24430027411956, 0
526, 0.50501329792689, 0.29370205317074, 0
527, 0.53010655332246, 0.2736799755668, 0
528, 0.37699400040256, 0.24680110690615, 0
529, 0.05476408877256, 0.13926575351417, 0
530, 0.055594452067607, 0.085017233253579, 0
531, 0.0568353918172, 0.029733924084981, 0
532, 0.054603252774216, -0.19203737589985, 0
533, 0.055967063241887, -0.13751790494562, 0
534, 0.057275086382009, -0.082441712330346, 0
535, 0.057759348956377, -0.026514083399496, 0
536, 0.46251585478676, -0.25530431776562, 0
537, 0.37915753279876, -0.24174290147279, 0
538, 0.94396506430439, 0.1915275996623, 0
539, 0.84146432947019, 0.24824118852707, 0
540, 0.89301799268438, 0.24681831663652, 0
541, 0.94607389374526, 0.24635981602212, 0
542, 0.79052697026715, 0.25365860796279, 0
543, 0.72088022031142, 0.25021412351879, 0
544, 0.6564487039122, 0.26553184111702, 0
545, 0.68712033349084, 0.17998942423373, 0
546, 0.64646769105494, 0.27781372205399, 0
547, 0.59921762504634, 0.26245966683098, 0
548, 0.50108283176503, 0.27559612565426, 0
549, 0.51827829881734, 0.28297513249967, 0
550, 0.51689615751692, 0.27257492466045, 0
551, 0.48432500542397, 0.29219373585845, 0
552, 0.59522679438802, 0.26446161137258, 0
553, 0.59206902944786, 0.2839094188432, 0
554, 0.68394817345682, 0.1727136935373, 0
555, 0.68804931136919, 0.19650444701618, 0
556, 0.69361607378136, 0.12478320650925, 0
557, 0.71181309026298, 0.12390650689064, 0
558, 0.73639124194308, 0.10322765096772, 0
559, 0.69653839919831, 0.1146642909648, 0
560, 0.68582414567245, 0.14923279605984, 0
561, 0.68716182510097, 0.14115894838627, 0
562, 0.71925567496719, 0.083235060257097, 0
563, 0.70482306959215, 0.14388852773609, 0
564, 0.7018983680486, 0.087939416862167, 0
565, 0.71564303153289, 0.075990882905276, 0
566, 0.94248510595445, 0.13540183046363, 0
567, 0.94222556376793, 0.078594768658475, 0
568, 0.94244403615896, 0.021948815862115, 0
569, 0.94294917363164, -0.034362312013505, 0
570, 0.9441369163354, -0.089635922880989, 0
571, 0.4989629311864, -0.25495619425244, 0
572, 0.60157055852275, -0.25493149705207, 0
573, 0.67148784406865, -0.22675833230148, 0
574, 0.94548167919777, -0.14296414424781, 0
575, 0.706644674092, -0.2147248031012, 0
576, 0.83740625215976, -0.24461520465094, 0
577, 0.89295675637143, -0.24578945441537, 0
578, 0.94636171427534, -0.19504101993877, 0
579, 0.94684985055274, -0.24729384905566, 0
580, 0.20479253259759, 0.2199318627478, 0
581, 0.28657248155221, 0.13194422014773, 0
582, 0.25701138834638, 0.20576978654037, 0
583, 0.29694911322878, 0.17730455716629, 0
584, 0.23230726216383, 0.16332717764773, 0
585, 0.15917100693965, 0.19738710391252, 0
586, 0.10692333484815, 0.19376627613829, 0
587, 0.28575089489688, 0.21284654225477, 0
588, 0.31346931424641, 0.22369779597405, 0
589, 0.26946891607787, 0.25570594928357, 0
590, 0.33385780114191, 0.22140857557168, 0
591, 0.37179545496405, 0.23306991634893, 0
592, 0.3639532762946, 0.23011150216942, 0
593, 0.38033758299854, 0.24208274275041, 0
594, 0.3794133459643, 0.23533796381233, 0
595, 0.34811698744609, 0.21599142510905, 0
596, 0.34063725435578, 0.21377019490989, 0
597, 0.35831409005443, 0.22252388926822, 0
598, 0.34226318470578, 0.2119172790251, 0
599, 0.38422763877269, 0.24158680836626, 0
600, 0.35300389050096, 0.22940260728895, 0
601, 0.36514302126694, 0.25346182090307, 0
602, 0.39461612726023, 0.28669589306352, 0
603, 0.38622376288905, 0.23713954567174, 0
604, 0.35621240516069, 0.26106518114782, 0
605, 0.382224661127, 0.28274262238656, 0
606, 0.37147382736336, 0.24718482669124, 0
607, 0.45740567279138, 0.27079172785398, 0
608, 0.52881250093176, 0.28349146998071, 0
609, 0.54282621095888, 0.27337383112103, 0
610, 0.56299002752594, 0.28300263528875, 0
611, 0.44614380443405, 0.24998180328276, 0
612, 0.44366668558023, 0.25593012236689, 0
613, 0.41795654404784, 0.25611493333584, 0
614, 0.42983670278705, 0.26392953093175, 0
615, 0.42007554235782, 0.24558094752087, 0
616, 0.39578176917941, 0.26366871639395, 0
617, 0.43407655729556, 0.2887050646192, 0
618, 0.47452899235208, 0.26302052161902, 0
619, 0.4019013594039, 0.26675392636285, 0
620, 0.38284115091139, 0.2392230765302, 0
621, 0.39650016400169, 0.24680491748243, 0
622, 0.40640343302603, 0.24625436946443, 0
623, 0.39912630853648, 0.24308063830322, 0
624, 0.39226794636135, 0.239773218498, 0
625, 0.41493177381378, 0.28924878141776, 0
626, 0.43242472669134, 0.27898109431823, 0
627, 0.43761685988868, 0.25291537219742, 0
628, 0.41462488127136, 0.24926306273046, 0
629, 0.30458441953003, 0.19878958920774, 0
630, 0.31756077153116, 0.19903676432368, 0
631, 0.30644876569786, 0.18637446125363, 0
632, 0.31166002632003, 0.1929952121457, 0
633, 0.28771367404511, 0.19822084229416, 0
634, 0.29858345907955, 0.19111235033713, 0
635, 0.24267234776801, 0.21154107485334, 0
636, 0.2979992819092, 0.21302633082411, 0
637, 0.3113483603015, 0.20600012391553, 0
638, 0.32373584280342, 0.20472299665525, 0
639, 0.318478553108, 0.212607123327, 0
640, 0.34925835595751, 0.23319907807273, 0
641, 0.33837517493602, 0.2316944255508, 0
642, 0.33942316072363, 0.21514922906485, 0
643, 0.33360922583963, 0.21392660759267, 0
644, 0.29912974862893, 0.17826948429032, 0
645, 0.30065852955834, 0.18488615242384, 0
646, 0.30242946105513, 0.17950144893273, 0
647, 0.28661833678482, 0.15431450986539, 0
648, 0.29296512012638, 0.17711653902297, 0
649, 0.26102491242918, 0.13826006057893, 0
650, 0.27457019339832, 0.1203960579163, 0
651, 0.25942423747094, 0.11184485464951, 0
652, 0.28244164526298, 0.079337439147995, 0
653, 0.28112118913065, 0.11053474237435, 0
654, 0.28654641068962, 0.1251251991829, 0
655, 0.27047683965545, 0.17849796182823, 0
656, 0.281887603084, 0.13047998967208, 0
657, 0.28281747297129, 0.12738221890129, 0
658, 0.23888167151477, 0.023805880622107, 0
659, 0.20901661906255, -0.04982572435145, 0
660, 0.292054832114, 0.053922347616242, 0
661, 0.26626234702799, 0.11104399025828, 0
662, 0.27853756676499, 0.089065761239791, 0
663, 0.29108657745434, 0.044458220089358, 0
664, 0.30465968926316, -0.029167072380488, 0
665, 0.29000609176979, 0.063281022814276, 0
666, 0.29064414742911, 0.040933857128305, 0
667, 0.28231684743898, 0.039879854897517, 0
668, 0.31277035948157, -0.054246403830521, 0
669, 0.30190165157302, -0.01365775861504, 0
670, 0.28638133301709, 0.13563223601282, 0
671, 0.25281543229272, 0.13334214341168, 0
672, 0.1941705622648, 0.14334897343874, 0
673, 0.28323392892152, 0.12463809677088, 0
674, 0.21580249348836, 0.15644552672969, 0
675, 0.27384616549443, 0.043371047668787, 0
676, 0.21862508890857, 0.053011183554035, 0
677, 0.23919586141059, 0.094985390512742, 0
678, 0.27792634143465, 0.084413216816879, 0
679, 0.28613599179331, 0.087485486743007, 0
680, 0.28616676389539, 0.13962149549548, 0
681, 0.28310044950364, 0.074544600930421, 0
682, 0.28182890980271, 0.10190871366191, 0
683, 0.28076277359732, 0.094990913819383, 0
684, 0.26632335792395, 0.10357280835899, 0
685, 0.30366335227855, -0.03675226104055, 0
686, 0.27364313872747, -0.030743290677671, 0
687, 0.24881500646309, -0.062377636652686, 0
688, 0.30563899096997, -0.078397398145911, 0
689, 0.27824855187127, 0.061870191672701, 0
690, 0.27687397595796, 0.11064944637664, 0
691, 0.25086631056806, 0.059680700053408, 0
692, 0.24250861242898, 0.076041129172441, 0
693, 0.30349288534759, -0.023261069038313, 0
694, 0.2370128967867, 0.051453718898402, 0
695, 0.25041771126959, 0.022046045246019, 0
696, 0.19626175138126, 0.073605815426701, 0
697, 0.24982444089586, 0.10448501853781, 0
698, 0.1091133583132, 0.1402376644617, 0
699, 0.11038441005448, 0.086053622180722, 0
700, 0.11312747273987, 0.031484343246149, 0
701, 0.21556212884148, -0.18865500339693, 0
702, 0.1623305632368, -0.1892617672548, 0
703, 0.31282378963934, -0.20726445376305, 0
704, 0.28600969317, -0.1825840765792, 0
705, 0.22103877630056, -0.070189095987537, 0
706, 0.10847214129439, -0.19022531236577, 0
707, 0.11176793801725, -0.13808842873274, 0
708, 0.26194232340466, -0.0029399210799645, 0
709, 0.1182890801419, -0.086778119913635, 0
710, 0.29396020581637, -0.020273388286955, 0
711, 0.25688005332452, 0.0051004111184499, 0
712, 0.29000244109021, 0.028815397666341, 0
713, 0.29034041001764, 0.037093366509731, 0
714, 0.27840589827358, -0.073304099340422, 0
715, 0.25496403458149, -0.087143101936096, 0
716, 0.27479951121083, -0.047456712297283, 0
717, 0.29819356679817, -0.087954975466918, 0
718, 0.2789716585181, 0.026711782546463, 0
719, 0.29647783390824, -0.061817539835289, 0
720, 0.31665031247699, -0.076928173628037, 0
721, 0.15704802448446, -0.070173326090147, 0
722, 0.29081942496156, -0.0086192808360834, 0
723, 0.27907431315736, -0.025262430835647, 0
724, 0.22060450933832, -0.039182777461397, 0
725, 0.42648830689295, -0.21448472013699, 0
726, 0.39878811868981, -0.20699536241717, 0
727, 0.45890245567326, -0.21539428086799, 0
728, 0.34626068003513, -0.18009081032141, 0
729, 0.32830341226351, -0.1974256422101, 0
730, 0.35366950531789, -0.17371223805999, 0
731, 0.37443925986504, -0.198059489208, 0
732, 0.24035921698398, -0.18717782602535, 0
733, 0.35196166896199, -0.18931459053114, 0
734, 0.31877294401438, -0.13172841944377, 0
735, 0.3077956784, -0.13881680789984, 0
736, 0.39260686404314, -0.13798368221849, 0
737, 0.36962227907072, -0.18697580885454, 0
738, 0.39498159899334, -0.15824603814533, 0
739, 0.3484821680806, -0.11741784472944, 0
740, 0.35096521883184, -0.11564362775989, 0
741, 0.41687517299331, -0.13797201326363, 0
742, 0.33729749376844, -0.12965733991691, 0
743, 0.34489845557821, -0.13490237974791, 0
744, 0.30553365550613, -0.11535769879834, 0
745, 0.35599687742007, -0.20453364590532, 0
746, 0.40041425898274, -0.13696860917863, 0
747, 0.42318578226145, -0.16166751691624, 0
748, 0.39976753418876, -0.15184104544782, 0
749, 0.37299422826543, -0.1296378389394, 0
750, 0.49056415557478, -0.18607894964686, 0
751, 0.4042433616083, -0.1552927420531, 0
752, 0.42428367202244, -0.15324615120465, 0
753, 0.47456629932818, -0.14123672492897, 0
754, 0.44424554081312, -0.14096353519821, 0
755, 0.4086458072983, -0.18106089424019, 0
756, 0.41611645403506, -0.15882303617856, 0
757, 0.40899138819691, -0.13608801525795, 0
758, 0.50914730674136, -0.1787462483854, 0
759, 0.46343599760941, -0.13990319504294, 0
760, 0.47033853692129, -0.16481085727846, 0
761, 0.45138187646153, -0.18465353424663, 0
762, 0.50472257761362, -0.16924213599864, 0
763, 0.46880365209828, -0.14757488495924, 0
764, 0.48598415701433, -0.14221388687639, 0
765, 0.51341667076332, -0.1476270087167, 0
766, 0.49442686167747, -0.14539087022388, 0
767, 0.51548287359183, -0.15247781168824, 0
768, 0.50289199446872, -0.16111301174719, 0
769, 0.49620442909828, -0.14830302745507, 0
770, 0.48748115761628, -0.14612070784653, 0
771, 0.435060116884, -0.14051430375559, 0
772, 0.45914208424616, -0.16110279823986, 0
773, 0.4909750840454, -0.16148030521293, 0
774, 0.4360726971703, -0.14744209866087, 0
775, 0.4638399361326, -0.1580599207743, 0
776, 0.29786737069381, -0.12712174665341, 0
777, 0.31898888109826, -0.089666989440552, 0
778, 0.32883695401801, -0.09320505453788, 0
779, 0.32445388298087, -0.086502486175421, 0
780, 0.26833906259431, -0.097942189497081, 0
781, 0.32069107791156, -0.096002362829394, 0
782, 0.32515226254824, -0.10496183906346, 0
783, 0.34019508673996, -0.11889690200058, 0
784, 0.33185321122898, -0.11361909229317, 0
785, 0.34563102790816, -0.11186131651954, 0
786, 0.33930760491351, -0.10652286139021, 0
787, 0.33345163001832, -0.099857704909602, 0
788, 0.222826708103, -0.12047527127119, 0
789, 0.31956019171472, -0.080169035715792, 0
790, 0.30358931698233, -0.041000723086034, 0
791, 0.30860685613307, -0.038250663953368, 0
792, 0.29458712558282, -0.012852587125112, 0
793, 0.28457695174477, -0.011928847045551, 0
794, 0.19749490133589, -0.063116935381965, 0
795, 0.21247320796761, -0.084754564216402, 0
796, 0.31569236977349, -0.082627118174597, 0
797, 0.29026758680256, -0.02432743977914, 0
798, 0.28437139986072, -0.020451036403561, 0
799, 0.28277205416035, 0.0013570509317693, 0
800, 0.31442200386576, -0.058354053466298, 0
801, 0.3014881481408, -0.026642003599315, 0
802, 0.29793020679456, -0.023683220531294, 0
803, 0.28638917735509, -0.029133340318608, 0
804, 0.27832302242264, 0.012499954497029, 0
805, 0.27967587062683, 0.049833072397218, 0
806, 0.7818659382184, 0.20543623135904, 0
807, 0.74419002216881, 0.18742154932229, 0
808, 0.79140837446018, 0.16526780915737, 0
809, 0.81740540162354, 0.11251071249459, 0
810, 0.83841505751868, 0.19995496490829, 0
811, 0.88943014764844, 0.19466271720863, 0
812, 0.6605676115791, 0.20495305303184, 0
813, 0.70053161127358, 0.076545711684308, 0
814, 0.67013230119103, 0.26319962219374, 0
815, 0.65466647139304, 0.21597478916057, 0
816, 0.6423244658812, 0.23429885668242, 0
817, 0.69097268423917, 0.12775982242509, 0
818, 0.67817479111678, 0.21099425263642, 0
819, 0.64655929211293, 0.24128520448144, 0
820, 0.63647510411344, 0.23969441278523, 0
821, 0.64259593863302, 0.25647189688299, 0
822, 0.63079476344575, 0.24674195035838, 0
823, 0.618796793293, 0.26306560352197, 0
824, 0.59838226222572, 0.26922936820005, 0
825, 0.61709441359657, 0.2503154796953, 0
826, 0.60659093374486, 0.26337104100099, 0
827, 0.724634809478, 0.28294913437399, 0
828, 0.49135573947488, 0.2735855341269, 0
829, 0.53643903913274, 0.294416255802, 0
830, 0.49567931414656, 0.26899061642151, 0
831, 0.47801873723489, 0.28367557992814, 0
832, 0.51142921634944, 0.29394885443891, 0
833, 0.51774824189398, 0.29413375137335, 0
834, 0.52687618292655, 0.28878397528428, 0
835, 0.62686693431195, 0.24984495476539, 0
836, 0.57876561478895, 0.28387126743003, 0
837, 0.54896884358357, 0.28238690415047, 0
838, 0.57868527064788, 0.2736067151875, 0
839, 0.52504243480182, 0.27821136004783, 0
840, 0.58852280231408, 0.27207675146522, 0
841, 0.59334838439833, 0.27079918326667, 0
842, 0.67103888271696, 0.18957918040876, 0
843, 0.66425329015919, 0.22533976660057, 0
844, 0.68689356120763, 0.21738672852307, 0
845, 0.76433130477301, 0.23696252036065, 0
846, 0.69955342487439, 0.18824063285972, 0
847, 0.64227111994174, 0.22905799717639, 0
848, 0.66088472206376, 0.218182215599, 0
849, 0.65445436963362, 0.2555336807604, 0
850, 0.64560932570401, 0.22625333963857, 0
851, 0.66685872712111, 0.19502576628871, 0
852, 0.65193710204487, 0.21959514733125, 0
853, 0.69552064921619, 0.23944851348507, 0
854, 0.67868134657208, 0.17023110357096, 0
855, 0.67498770597249, 0.17757522758499, 0
856, 0.67074564682505, 0.18415701242778, 0
857, 0.66863697021584, 0.18709326108168, 0
858, 0.6975292170981, 0.14081573317869, 0
859, 0.67376259413822, 0.18702950718376, 0
860, 0.66669034654859, 0.18976542359779, 0
861, 0.68032519719341, 0.18750491736942, 0
862, 0.67177161161131, 0.2058795063377, 0
863, 0.72362542835014, 0.079365039516149, 0
864, 0.70856575395825, 0.04201456399838, 0
865, 0.70348151312444, 0.079459157761478, 0
866, 0.75525815515273, 0.15959405613964, 0
867, 0.68656938294892, 0.14513189210923, 0
868, 0.70128460237444, 0.097015446945602, 0
869, 0.71615311144298, 0.12941335558908, 0
870, 0.70538809003283, 0.150571417598, 0
871, 0.71252491398874, 0.050332023884509, 0
872, 0.68363028352082, 0.15770349069357, 0
873, 0.70444262216993, 0.11604148047683, 0
874, 0.72537094573264, 0.15719146624624, 0
875, 0.73078403996779, 0.029290771541895, 0
876, 0.70059532309687, 0.10164261527597, 0
877, 0.70127841657469, 0.073621268342193, 0
878, 0.7176235726713, 0.10993753047373, 0
879, 0.69823075787956, 0.095846184385828, 0
880, 0.70767364355576, 0.087748228877871, 0
881, 0.74714648200628, 0.08132501610805, 0
882, 0.71343461559146, 0.034143673636218, 0
883, 0.7197467529918, 0.032848019687871, 0
884, 0.72408688964919, 0.02233462104273, 0
885, 0.70902355305529, 0.037569660504218, 0
886, 0.77390307283005, 0.10459397181341, 0
887, 0.69191487025583, 0.14312893842913, 0
888, 0.84527502343497, 0.15198764337838, 0
889, 0.77819936634191, 0.089281762356948, 0
890, 0.82925099008289, 0.13698367159667, 0
891, 0.69271685220464, 0.11603650164489, 0
892, 0.70170935012435, 0.092405709780895, 0
893, 0.72447453178707, 0.038542203779262, 0
894, 0.78331287771905, 0.02090142098246, 0
895, 0.7295096080443, 0.025048809189442, 0
896, 0.69965002239988, 0.10617462874004, 0
897, 0.73732714719199, 0.031813159452581, 0
898, 0.71059818587702, 0.11390058315016, 0
899, 0.70545122334223, 0.071371649692736, 0
900, 0.79448772022749, 0.034627287412279, 0
901, 0.79388295913899, 0.15103834534651, 0
902, 0.76422940136449, 0.13118149605804, 0
903, 0.82308098167286, 0.093341265156384, 0
904, 0.88230828561545, 0.075450501490414, 0
905, 0.88507563394396, 0.020138023074754, 0
906, 0.88833151337758, -0.088279961531139, 0
907, 0.88665720242762, -0.034308733427657, 0
908, 0.73376719158308, -0.074937322243048, 0
909, 0.76303062942717, -0.075111488717927, 0
910, 0.74775201728742, -0.041222227608014, 0
911, 0.71414280119698, -0.14765942229898, 0
912, 0.8317548485056, -0.057712039130829, 0
913, 0.73879290512678, -0.037616266626193, 0
914, 0.71305225863542, -0.10041573269514, 0
915, 0.71571599534766, -0.088359075613641, 0
916, 0.83328098491925, -0.16332526988435, 0
917, 0.77404695136721, -0.086295198184696, 0
918, 0.7887936592352, -0.029979683276122, 0
919, 0.72467205010585, -0.10137160675389, 0
920, 0.72204785140133, -0.12133377285688, 0
921, 0.7200479543961, -0.085484074644902, 0
922, 0.83258183190409, -0.032699943616928, 0
923, 0.7135605899486, 0.039359148413108, 0
924, 0.73770722192569, 0.016549511550714, 0
925, 0.71880485915513, -0.019031988561539, 0
926, 0.72598329579697, -0.012160864677606, 0
927, 0.71411795641257, 0.010617777414702, 0
928, 0.71846954363298, -0.011482360943296, 0
929, 0.7585781689817, 0.034303649759684, 0
930, 0.71443436283656, -0.016291877209632, 0
931, 0.71638605814099, 0.024349817727061, 0
932, 0.72524516983932, -0.033897128770921, 0
933, 0.71513776313368, -0.033264682427088, 0
934, 0.73402739805434, 0.1181214645893, 0
935, 0.74550259414627, 0.020571839538717, 0
936, 0.71438757112339, -0.042066093260308, 0
937, 0.72441146661137, -0.043835899837173, 0
938, 0.71282891819499, -0.050749623066095, 0
939, 0.70851341384855, -0.06661937715801, 0
940, 0.71891633565766, -0.061123256870858, 0
941, 0.71630310609466, -0.069140940444994, 0
942, 0.72214084488308, -0.053364288857319, 0
943, 0.7107000009418, -0.05896226590209, 0
944, 0.70629925793327, -0.074244206937975, 0
945, 0.70380231316489, -0.081965938389985, 0
946, 0.71421721677959, -0.076300771916691, 0
947, 0.71184127141744, -0.084683646209573, 0
948, 0.70212976216341, -0.12411645620076, 0
949, 0.67928713063808, -0.12658496556789, 0
950, 0.73049233980645, -0.048113561126766, 0
951, 0.70066618549337, -0.089821434834548, 0
952, 0.70913566361107, -0.093862805649327, 0
953, 0.70287386618067, -0.10762167848595, 0
954, 0.69871861737786, -0.1151803840116, 0
955, 0.67870588077238, -0.11606729170058, 0
956, 0.68449892742845, -0.11441756459559, 0
957, 0.67483762105928, -0.1277344551917, 0
958, 0.44616059040535, -0.16374976956767, 0
959, 0.51169771521853, -0.17249808266739, 0
960, 0.60168220956701, -0.16235531251853, 0
961, 0.54717620300841, -0.16800480180052, 0
962, 0.52584913266455, -0.17416342852294, 0
963, 0.53826709909878, -0.21310003038196, 0
964, 0.54171807004425, -0.15571280962682, 0
965, 0.60645992381448, -0.15801613368339, 0
966, 0.61062867939483, -0.17931401691564, 0
967, 0.56043672944999, -0.23601744126975, 0
968, 0.55989993701487, -0.17817960969629, 0
969, 0.53050947560967, -0.19915001350422, 0
970, 0.56459682805722, -0.21793663926916, 0
971, 0.62106473844765, -0.18028583704024, 0
972, 0.56842585898997, -0.15800670142045, 0
973, 0.52612893459878, -0.18101258042345, 0
974, 0.53323411335743, -0.16786494443214, 0
975, 0.55303690511116, -0.18465333470085, 0
976, 0.58115609687163, -0.15959777729335, 0
977, 0.59687892046918, -0.18235199257001, 0
978, 0.55411839751613, -0.16060331533084, 0
979, 0.51993231334329, -0.15392732455431, 0
980, 0.50185703420896, -0.15459696788478, 0
981, 0.52136726957506, -0.1500118331338, 0
982, 0.55499703051638, -0.15713487731282, 0
983, 0.48974069395158, -0.14251686195948, 0
984, 0.54858121452026, -0.15356645246198, 0
985, 0.44379891496882, -0.15518017123551, 0
986, 0.53821438021698, -0.25438114895145, 0
987, 0.53755160278174, -0.15264740827695, 0
988, 0.55800088570405, -0.25572862694111, 0
989, 0.59861231261628, -0.27629919725741, 0
990, 0.67211710126784, -0.24814337041869, 0
991, 0.60288021001222, -0.1699867221668, 0
992, 0.54511558503117, -0.15328880747695, 0
993, 0.70556016751767, -0.13762094342593, 0
994, 0.6784961277577, -0.13760694316887, 0
995, 0.67190815010697, -0.14459938442524, 0
996, 0.67789448826253, -0.1566012863476, 0
997, 0.68731678848996, -0.14602287414872, 0
998, 0.6921603375104, -0.11352574672535, 0
999, 0.70128078737502, -0.15617794270495, 0
1000, 0.69013069470868, -0.10849043389965, 0
1001, 0.67848750836796, -0.12119298470803, 0
1002, 0.672276882706, -0.13084367750668, 0
1003, 0.684641001958, -0.13657471789751, 0
1004, 0.66636490542056, -0.13658007023152, 0
1005, 0.63970697925238, -0.15417379870424, 0
1006, 0.65949559663349, -0.14121845077477, 0
1007, 0.6357050211738, -0.15640643216345, 0
1008, 0.61472967470191, -0.16692326008082, 0
1009, 0.6631923334741, -0.14929699331201, 0
1010, 0.63917533726276, -0.14868670461907, 0
1011, 0.64568106107572, -0.14931228147704, 0
1012, 0.65094204280813, -0.14895358398436, 0
1013, 0.6501419608487, -0.14539124432901, 0
1014, 0.60247265005267, -0.15841320224505, 0
1015, 0.654066945896, -0.17257736557249, 0
1016, 0.63815861791563, -0.16990875784002, 0
1017, 0.59759153487898, -0.16284002104359, 0
1018, 0.64797480106162, -0.14713454230305, 0
1019, 0.59717014166358, -0.17029354126426, 0
1020, 0.58554079997024, -0.21759021624979, 0
1021, 0.66542986792799, -0.16038792371718, 0
1022, 0.68530790108109, -0.17440896599162, 0
1023, 0.6628644038008, -0.17979002028633, 0
1024, 0.67676959219024, -0.12433966236451, 0
1025, 0.70935761965917, -0.18543548663448, 0
1026, 0.60092567526417, -0.16601114653144, 0
1027, 0.59212949716021, -0.17220258854014, 0
1028, 0.67030753489398, -0.20832746822047, 0
1029, 0.73926558103727, -0.11525852015156, 0
1030, 0.89059062570614, -0.14088380422997, 0
1031, 0.7236310778105, -0.074409552232679, 0
1032, 0.68011274461991, -0.11857210518853, 0
1033, 0.81051731427186, -0.21698959208266, 0
1034, 0.75677889982047, -0.057348643219061, 0
1035, 0.73230252292046, -0.064153446665268, 0
1036, 0.72896526180849, -0.053539504691651, 0
1037, 0.89222299088524, -0.19307175536876, 0
1038, 0.57467331043919, -0.19049944233236, 0
1039, 0.68088065973957, -0.11341317387261, 0
1040, 0.69424600764678, -0.15121727657035, 0
1041, 0.68318176228934, -0.11067700853168, 0
1042, 0.2405509541724, -0.16149898892451, 0
1043, 0.31773539946355, -0.14476621703308, 0
1044, 0.65970559352486, 0.28810085589458, 0
1045, 0.71681288652519, 0.23534885862235, 0
1046, 0.64968255189028, 0.23569206191633, 0
1047, 0.27233736071826, 0.13612917152075, 0
1048, 0.2664823906595, 0.14818798525914, 0
1049, 0.16452609010646, 0.14205070742109, 0
1050, 0.18357881181612, 0.19716132808434, 0
1051, 0.26872568785076, 0.20013507103067, 0
1052, 0.77213224692461, -0.027842952720499, 0
1053, 0.22005735353171, 0.068622353877019, 0
1054, 0.24046451252088, 0.085185887020343, 0
1055, 0.23102927671159, 0.044996274133786, 0
1056, 0.74434546706886, 0.029983486501754, 0
1057, 0.72893882658773, 0.12954086054126, 0
1058, 0.70647390749788, 0.055919739666576, 0
1059, 0.70983631284967, 0.13436794185684, 0
1060, 0.7043752375965, 0.06372651795372, 0
1061, 0.7527548722075, 0.11130399697582, 0
1062, 0.57350386289732, 0.27792153466883, 0
1063, 0.57713656564409, 0.29059723173362, 0
1064, 0.491432561507, 0.2679404038841, 0
1065, 0.69399573255712, -0.16697562271378, 0
1066, 0.73743276111927, -0.20676360583469, 0
1067, 0.72391665851382, -0.086549485710954, 0
1068, 0.80001896803529, 0.052957424712026, 0
1069, 0.73617495684111, -0.015449269217024, 0
1070, 0.70735991947927, 0.0515900282444, 0
1071, 0.76046118039092, 0.19440497972235, 0
1072, 0.49122835402147, 0.27955252880773, 0
1073, 0.48315379385071, 0.26527486869159, 0
1074, 0.52399701509174, 0.29427203302788, 0
1075, 0.70870201175319, 0.17487705176482, 0
1076, 0.69652490852272, 0.17846163815509, 0
1077, 0.70559894425806, 0.28464572001631, 0
1078, 0.59011135614404, -0.15957597298242, 0
1079, 0.6501117511774, -0.16207614586235, 0
1080, 0.58151170015515, -0.16897319329754, 0
1081, 0.72295829830481, 0.19251172172047, 0
1082, 0.69246955115559, 0.12196276631902, 0
1083, 0.68551107627091, 0.22484166737872, 0
1084, 0.28850132727312, -0.042903616588984, 0
1085, 0.19996205203064, -0.02572049768372, 0
1086, 0.23156642624557, 0.0028875055828832, 0
1087, 0.38193677704044, 0.24577185534896, 0
1088, 0.37391773021452, 0.2608843360272, 0
1089, 0.41026225276097, 0.24764662520623, 0
1090, 0.47987850571425, -0.14611411479596, 0
1091, 0.50601734135884, -0.18632232566548, 0
1092, 0.45917901783949, -0.15194890454243, 0
1093, 0.36095670247444, 0.23931487971818, 0
1094, 0.38108153016967, 0.25804017086431, 0
1095, 0.37685488648298, 0.27017878474052, 0
1096, 0.60438419802743, -0.18766514951746, 0
1097, 0.64895787807547, -0.25170909963241, 0
1098, 0.61012556631105, -0.16205056852869, 0
1099, 0.62061877796218, 0.24837549009582, 0
1100, 0.60770921326639, 0.27177786492277, 0
1101, 0.7265437508224, -0.18065921459424, 0
1102, 0.74346646698841, -0.078700280590195, 0
1103, 0.74476286244795, -0.058857546732786, 0
1104, 0.25483013157556, 0.12172717642937, 0
1105, 0.27652801980556, 0.14925191307887, 0
1106, 0.27949092364676, 0.12593973057692, 0
1107, 0.29732203494655, -0.24100209079612, 0
1108, 0.34377645357064, -0.12912073888357, 0
1109, 0.21837501643002, -0.14010863757058, 0
1110, 0.32504678627599, -0.12579146519817, 0
1111, 0.33163424359788, -0.12846065077157, 0
1112, 0.34490609592425, -0.15436239402387, 0
1113, 0.33464538884835, 0.21095224160159, 0
1114, 0.34054999143307, 0.21695255455869, 0
1115, 0.82586049793526, 0.047861625855878, 0
1116, 0.73137053946252, 0.032137539884321, 0
1117, 0.20621840265174, 0.24431648541354, 0
1118, 0.39186826561911, -0.22224410997993, 0
1119, 0.3600361643125, -0.144141487177, 0
1120, 0.38874904051975, -0.17988330472358, 0
1121, 0.30087264147993, 0.20617352976383, 0
1122, 0.30425461186567, 0.20977879711773, 0
1123, 0.30796638991576, 0.20239485656163, 0
1124, 0.38073911771895, -0.2114826377231, 0
1125, 0.30497028912011, -0.18127069169245, 0
1126, 0.3052217735823, -0.15863803074184, 0
1127, 0.46670010552346, -0.15437712303646, 0
1128, 0.47696937774276, -0.1503278659629, 0
1129, 0.32832331532189, 0.21654443676609, 0
1130, 0.33146539778867, 0.25720941801094, 0
1131, 0.32941435285689, 0.21269842630566, 0
1132, 0.76296466349461, -0.16682322662412, 0
1133, 0.75210737450972, -0.24098875682932, 0
1134, 0.22675366788881, 0.10785948571458, 0
1135, 0.5265356922221, -0.16877173244749, 0
1136, 0.52743616189895, -0.18896415826016, 0
1137, 0.64518152631687, 0.23714542275812, 0
1138, 0.6391668815857, 0.23667683593665, 0
1139, 0.64261597100925, 0.24018387294358, 0
1140, 0.4771701516555, 0.29171664705808, 0
1141, 0.52023472358531, 0.27788092679634, 0
1142, 0.55495316826188, 0.27454529875101, 0
1143, 0.32067621782374, -0.12148368905587, 0
1144, 0.28636020300859, 0.2295061155115, 0
1145, 0.20894613521992, 0.27088264391899, 0
1146, 0.24377915412359, 0.056272284468389, 0
1147, 0.29166412423933, 0.0073396562394655, 0
1148, 0.22674224337284, 0.060056281405696, 0
1149, 0.29617045002227, 0.18151897085369, 0
1150, 0.28487786872267, 0.16979022174522, 0
1151, 0.37228897476716, 0.25339123399175, 0
1152, 0.39562862927427, 0.24139947131561, 0
1153, 0.40003503241771, 0.2490144508101, 0
1154, 0.32508039737941, -0.13556504530386, 0
1155, 0.24178191025108, -0.073846338042604, 0
1156, 0.76264256144684, 0.044808885529792, 0
1157, 0.80089717806828, 0.072145623091776, 0
1158, 0.71246431893107, 0.078995966712264, 0
1159, 0.80900076984491, 0.12810589664756, 0
1160, 0.39030679779851, 0.27172604053177, 0
1161, 0.65403876267668, -0.15350984166677, 0
1162, 0.65943324910731, -0.15488391864797, 0
1163, 0.5805168565571, -0.23598001990031, 0
1164, 0.27012304598052, -0.010099056005594, 0
1165, 0.24235601907395, -0.023982544905893, 0
1166, 0.71497414281996, 0.085589411991389, 0
1167, 0.76439076255865, 0.057115235976396, 0
1168, 0.71872549466971, 0.071830809398331, 0
1169, 0.76927990049071, 0.11810923636304, 0
1170, 0.80862994567806, 0.16571635588384, 0
1171, 0.78260129858226, 0.13548374153629, 0
1172, 0.26522554521743, 0.025062174111623, 0
1173, 0.16974833777549, 0.035145716701429, 0
1174, 0.19627021866955, 0.049438313327301, 0
1175, 0.65415431259379, -0.13981778806422, 0
1176, 0.6650453083389, -0.16840317477125, 0
1177, 0.64737959744614, -0.15473331701645, 0
1178, 0.28252779241878, 0.098199829068993, 0
1179, 0.27234886388131, 0.10470216473943, 0
1180, 0.28508752219908, 0.11045068904355, 0
1181, 0.6251429995561, 0.27932388351305, 0
1182, 0.70460297839698, 0.098167278339713, 0
1183, 0.69835479925596, 0.11049612644154, 0
1184, 0.69125356615491, 0.11962212330385, 0
1185, 0.18473217012438, -0.036423907444735, 0
1186, 0.56529782626084, -0.17257230828666, 0
1187, 0.62115373836032, -0.166593345448, 0
1188, 0.38152572763463, -0.18995611824629, 0
1189, 0.40314039344202, -0.13899146597159, 0
1190, 0.36520730449547, -0.12338895348101, 0
1191, 0.28616207102904, 0.12173783072085, 0
1192, 0.29190640011356, 0.18845529353871, 0
1193, 0.29878848718583, 0.17390819320832, 0
1194, 0.6459125792675, -0.1663616448886, 0
1195, 0.78707790243625, -0.06135866518805, 0
1196, 0.73799832284891, -0.10365461504883, 0
1197, 0.71302924409853, -0.080492209063142, 0
1198, 0.5697005549166, -0.16767977803433, 0
1199, 0.58505714967674, -0.17999791454881, 0
1200, 0.55263858643027, -0.15591959535324, 0
1201, 0.65892579931903, 0.2086672112617, 0
1202, 0.67788989835798, 0.21679042166536, 0
1203, 0.70470627066956, 0.15783616169556, 0
1204, 0.7136664659572, -0.0024663502111656, 0
1205, 0.75260594778322, 0.026348112235408, 0
1206, 0.72925449067831, 0.013265711638057, 0
1207, 0.7143232200692, 0.065687010183027, 0
1208, 0.73762703564367, 0.072896519935626, 0
1209, 0.70873914584895, 0.064654010126261, 0
1210, 0.23897317369291, 0.15004640870713, 0
1211, 0.26117154973123, 0.1673348535445, 0
1212, 0.39388896449899, -0.14301649814314, 0
1213, 0.38173612212363, -0.14177371038266, 0
1214, 0.38899532803818, -0.165457502757, 0
1215, 0.50172773887172, -0.19611330209339, 0
1216, 0.51822258594969, -0.15806960271875, 0
1217, 0.46478854787588, -0.147753260216, 0
1218, 0.71411621575184, -0.013010584621115, 0
1219, 0.74810011269657, 0.036848937673018, 0
1220, 0.71407796313889, 0.15757787218445, 0
1221, 0.2679676029814, -0.037012453189435, 0
1222, 0.26515701603061, 0.013364865145066, 0
1223, 0.28421143026457, -0.056096273367682, 0
1224, 0.30402499747193, -0.032779469885115, 0
1225, 0.29695008465494, -0.049505757797112, 0
1226, 0.34844308089356, -0.11959148043176, 0
1227, 0.38787448541045, -0.13979565877666, 0
1228, 0.27796552196179, 0.079401951752563, 0
1229, 0.27293042427526, 0.079443622176743, 0
1230, 0.39137430127851, -0.15269789089463, 0
1231, 0.40591045620602, -0.16664389100779, 0
1232, 0.80042753632581, 0.1405935668199, 0
1233, 0.81622511773707, 0.14774628374926, 0
1234, 0.72094802404206, -0.19617974426377, 0
1235, 0.75496992036066, -0.099357883725078, 0
1236, 0.72078177399598, 0.13665487425356, 0
1237, 0.69471864930569, 0.12807324412098, 0
1238, 0.72973904629707, 0.065655565870239, 0
1239, 0.69660232547985, 0.10415262513992, 0
1240, 0.70178126529858, 0.080178164677348, 0
1241, 0.70463855887346, 0.088038117346326, 0
1242, 0.73415169044513, -0.00060457586996387, 0
1243, 0.73265993613399, -0.010344665884285, 0
1244, 0.2856587419964, 0.065579803108577, 0
1245, 0.72459409637837, -0.093367624747234, 0
1246, 0.71901887292071, -0.07264142814866, 0
1247, 0.71760972087618, -0.065132098657941, 0
1248, 0.7316074455306, -0.03556409126173, 0
1249, 0.71989175833982, -0.080705118815394, 0
1250, 0.80604832618488, -0.16505168130669, 0
1251, 0.73299288773042, -0.085181397151307, 0
1252, 0.72241588406107, -0.15490047255329, 0
1253, 0.79985080224873, -0.0886943963766, 0
1254, 0.51261205509678, 0.27202353338905, 0
1255, 0.49680509431852, 0.280644944203, 0
1256, 0.50589281157742, 0.27632676865454, 0
1257, 0.80868073743274, -0.19090052357762, 0
1258, 0.71463930924246, -0.09407096219173, 0
1259, 0.72822508793212, -0.086461046609104, 0
1260, 0.71525238495119, -0.024370045226396, 0
1261, 0.71633770234624, -0.01301176243255, 0
1262, 0.75278814838697, -0.0061568427991863, 0
1263, 0.29029933013093, 0.24636139144351, 0
1264, 0.27862389424156, 0.27926155632975, 0
1265, 0.45257393320717, -0.14057691170719, 0
1266, 0.2094267894054, 0.030026544763835, 0
1267, 0.23188963390535, 0.07346653289647, 0
1268, 0.54370044736288, 0.27786304647182, 0
1269, 0.54886260624129, 0.29427411991321, 0
1270, 0.55376523552597, 0.27136438449864, 0
1271, 0.56114458183123, -0.15632436906269, 0
1272, 0.63353671767413, -0.17944140627672, 0
1273, 0.55780867887462, -0.15543763286846, 0
1274, 0.4363319839118, 0.24906776374251, 0
1275, 0.46232282437569, 0.29051748007738, 0
1276, 0.46568411887609, 0.26051417413717, 0
1277, 0.37924183919841, 0.23875851404751, 0
1278, 0.36544552943828, 0.26192715451222, 0
1279, 0.39010845280797, 0.24248654448562, 0
1280, 0.37115860421841, 0.24188332474697, 0
1281, 0.31780926008221, -0.066450325049015, 0
1282, 0.294179712204, -0.099166929504245, 0
1283, 0.42348230778096, 0.26379843632467, 0
1284, 0.4586434591541, 0.28044190527889, 0
1285, 0.74155525295193, -0.065490022393006, 0
1286, 0.74928100143024, -0.088104002132007, 0
1287, 0.72274407056488, -0.066259967814596, 0
1288, 0.2447990723977, 0.0040909323707872, 0
1289, 0.30343970496408, -0.094996018569815, 0
1290, 0.20244202244373, -0.0028273860740767, 0
1291, 0.33541591057811, 0.22617431907018, 0
1292, 0.33016147322376, 0.23403785151981, 0
1293, 0.76039500105305, -0.18989561558872, 0
1294, 0.54265024297761, 0.29439831292076, 0
1295, 0.50414782098466, 0.27069302824222, 0
1296, 0.4872280402473, 0.26671098638127, 0
1297, 0.16114647005632, -0.27200918437151, 0
1298, 0.18905996353078, -0.24434327470646, 0
1299, 0.21652412560617, -0.27225712384463, 0
1300, 0.18883529783124, -0.27213315410807, 0
1301, 0.83762814993998, -0.27221673910967, 0
1302, 0.78117221887724, -0.27126934379877, 0
1303, 0.78234203913674, -0.075428961152382, 0
1304, 0.80938024825077, -0.27180039848252, 0
1305, 0.51845266827195, -0.25215070295382, 0
1306, 0.53775497466186, -0.2746726058276, 0
1307, 0.49973138643578, -0.27747809712622, 0
1308, 0.51874318054882, -0.27607535147691, 0
1309, 0.44739481489071, 0.2719614572163, 0
1310, 0.46181204968636, 0.26532637332788, 0
1311, 0.42827954354119, 0.24777660996383, 0
1312, 0.28377344210803, 0.043667048721905, 0
1313, 0.2954823141382, -0.027591437387783, 0
1314, 0.24345895689043, 0.038415378788498, 0
1315, 0.28550300361174, -0.091932520497084, 0
1316, 0.028637543191004, -0.082664315606276, 0
1317, 0.056621074811948, -0.10997980863798, 0
1318, 0.027983531620944, -0.13819281983246, 0
1319, 0.028310537405974, -0.11042856771937, 0
1320, 0.97124255297722, 0.13535747363105, 0
1321, 0.94322508512942, 0.16346471506296, 0
1322, 0.9719825321522, 0.19178029698217, 0
1323, 0.97161254256471, 0.16356888530661, 0
1324, 0.24943927288006, -0.10160153716317, 0
1325, 0.27809501991664, 0.055257383242227, 0
1326, 0.2889290236281, 0.058781686945318, 0
1327, 0.28130737213581, 0.035387956689645, 0
1328, 0.29170259718138, 0.050998284038738, 0
1329, 0.28961935870928, 0.054704986708786, 0
1330, 0.94235533486119, 0.10699829956105, 0
1331, 0.97111278188396, 0.078762117936711, 0
1332, 0.97117766743059, 0.10705979578388, 0
1333, 0.25057612302113, 0.014737246024697, 0
1334, 0.28143571601981, -0.10636269710357, 0
1335, 0.026884862290097, 0.19388523109141, 0
1336, 0.054266906676377, 0.16618060079686, 0
1337, 0.02738204438628, 0.13925666342564, 0
1338, 0.027133453338188, 0.16657094725853, 0
1339, 0.97122201807948, 0.022241319991362, 0
1340, 0.94233479996345, 0.050271792260295, 0
1341, 0.97116739998172, 0.050501718964036, 0
1342, 0.028879674478189, -0.02647503638184, 0
1343, 0.057517217669193, -0.054477897864921, 0
1344, 0.028758608834596, -0.054569675994058, 0
1345, 0.97147458681582, -0.034457832409762, 0
1346, 0.9426966048953, -0.0062067480756947, 0
1347, 0.97134830244765, -0.0061082562092001, 0
1348, 0.057297370386789, 0.0016099203427424, 0
1349, 0.0284176959086, 0.029956524799524, 0
1350, 0.028648685193394, 0.001740744208842, 0
1351, 0.73934866060367, 0.024923736646008, 0
1352, 0.7343053171109, 0.081844323080984, 0
1353, 0.94592169673655, -0.16900258209329, 0
1354, 0.97274083959888, -0.14390972084474, 0
1355, 0.97318085713767, -0.19608721021424, 0
1356, 0.97296084836828, -0.16999846552949, 0
1357, 0.46859448620908, 0.2744158505347, 0
1358, 0.42389674302879, 0.25181587942126, 0
1359, 0.42401834022857, 0.27970500609674, 0
1360, 0.44167356578447, 0.25259826590195, 0
1361, 0.30785399752169, -0.025715298011998, 0
1362, 0.31605220540996, -0.062595813077445, 0
1363, 0.16918566359191, -0.051038197901028, 0
1364, 0.13406826754481, -0.24431092235827, 0
1365, 0.10627524635594, -0.27230173798676, 0
1366, 0.13371085820613, -0.27215546117914, 0
1367, 0.29332906512259, -0.1117944471887, 0
1368, 0.28989732792077, 0.024691179611933, 0
1369, 0.30645534456367, -0.08671802029491, 0
1370, 0.39437835140872, 0.23672651286141, 0
1371, 0.40166595399184, 0.23923290955363, 0
1372, 0.39802215270028, 0.23797971120752, 0
1373, 0.28640965150396, -0.049129027191857, 0
1374, 0.49924138823267, -0.14710774182632, 0
1375, 0.50967156415121, -0.1463519126595, 0
1376, 0.48562415444087, -0.15079998512855, 0
1377, 0.47181775476983, -0.14487943365953, 0
1378, 0.40270361077191, 0.24471597083417, 0
1379, 0.40862614227797, 0.241615015184, 0
1380, 0.4051460481349, 0.24042396236882, 0
1381, 0.69393040279481, 0.19296102504225, 0
1382, 0.69812497177852, 0.12462506557321, 0
1383, 0.70418665317942, 0.12443544352079, 0
1384, 0.72031914521306, -0.0035761475899616, 0
1385, 0.77066937604245, -0.016036770343329, 0
1386, 0.72210981536601, 0.025945130021579, 0
1387, 0.26957012969416, 0.0058351928176762, 0
1388, 0.72724502262119, 0.073286308364061, 0
1389, 0.71792604522135, 0.047124974198639, 0
1390, 0.5298446341741, 0.27842096515869, 0
1391, 0.49117503823966, 0.28597091892645, 0
1392, 0.50766616923037, 0.28207932805939, 0
1393, 0.4450271982066, 0.28642445112517, 0
1394, 0.69975121363977, 0.0835461795851, 0
1395, 0.71728703854193, -0.0070913551116447, 0
1396, 0.72302447119972, 0.0010895174018774, 0
1397, 0.71543233762968, 0.11761602261694, 0
1398, 0.78088199611206, 0.056559504557465, 0
1399, 0.71086655352651, -0.016584799603403, 0
1400, 0.71142272714104, -0.0096125828057128, 0
1401, 0.71080184316051, -0.013007439744673, 0
1402, 0.49870296405971, -0.15716739018851, 0
1403, 0.49299412789383, -0.14948639238223, 0
1404, 0.49748542955799, -0.14496112818139, 0
1405, 0.24378238054353, -0.24424157829907, 0
1406, 0.27151569011804, -0.27273507294001, 0
1407, 0.2440199078621, -0.27249609839232, 0
1408, 0.53788687857888, -0.15912593350116, 0
1409, 0.56468321128906, -0.15719692288073, 0
1410, 0.52953317533657, -0.15169181744589, 0
1411, 0.53390291216605, -0.17275269467068, 0
1412, 0.29796995944857, -0.039160686953977, 0
1413, 0.28219891034944, 0.06354459315827, 0
1414, 0.37261217798938, 0.2290869686339, 0
1415, 0.37564807253995, 0.23427317708407, 0
1416, 0.37973607378465, 0.2318848625209, 0
1417, 0.37617412588701, 0.2304859155774, 0
1418, 0.5724015430458, -0.15870810161531, 0
1419, 0.56884287706731, -0.16235268461452, 0
1420, 0.53761795288775, -0.155816691042, 0
1421, 0.055285158008051, -0.16477764042273, 0
1422, 0.027301626387108, -0.1931873009895, 0
1423, 0.027642579004026, -0.16569006041098, 0
1424, 0.71212663756357, 0.069901695253412, 0
1425, 0.7065003364394, 0.1109076299193, 0
1426, 0.46222904224856, -0.14408997225525, 0
1427, 0.46815324839232, -0.14406500995162, 0
1428, 0.4301822428336, -0.17304659763208, 0
1429, 0.48228036405784, -0.14199717747788, 0
1430, 0.055179270420083, 0.11214149338387, 0
1431, 0.027797226033803, 0.085094324154974, 0
1432, 0.027589635210042, 0.11217549379031, 0
1433, 0.68045476954305, 0.16618498235325, 0
1434, 0.70327907895225, 0.067255719220293, 0
1435, 0.6822306929173, 0.19898049833101, 0
1436, 0.6618316901932, 0.20137797463364, 0
1437, 0.36790352327621, 0.23169444226272, 0
1438, 0.36561131802402, 0.2261769871063, 0
1439, 0.3691117480067, 0.2276319778701, 0
1440, 0.19873804905281, -0.12036813963609, 0
1441, 0.28472777677303, 0.059505193178236, 0
1442, 0.27670038242337, 0.04699038608273, 0
1443, 0.4628605153034, -0.27765215888281, 0
1444, 0.48073939298658, -0.25513025600903, 0
1445, 0.48129595086959, -0.27756512800451, 0
1446, 0.71200798835263, 0.16655102951828, 0
1447, 0.71422664780071, 0.14873283127774, 0
1448, 0.69779637206889, 0.15182814968263, 0
1449, 0.35983228091842, 0.22816518482402, 0
1450, 0.36190590182185, 0.22443434609818, 0
1451, 0.89397438006783, 0.27340915831826, 0
1452, 0.86724116107729, 0.2475297525818, 0
1453, 0.8415170892349, 0.27412059426354, 0
1454, 0.86774573465135, 0.2737648762909, 0
1455, 0.7044656968443, 0.18227068648323, 0
1456, 0.6925769017256, 0.1699744901493, 0
1457, 0.294669771846, -0.078402666152063, 0
1458, 0.2906413992461, -0.037287277981256, 0
1459, 0.74049736553356, 0.052756149676787, 0
1460, 0.72334053964811, -0.01826439557268, 0
1461, 0.70683359905116, 0.19403977727235, 0
1462, 0.69748242754338, 0.10002304291935, 0
1463, 0.53404580698108, 0.28357299947605, 0
1464, 0.48653129744479, 0.27214489871436, 0
1465, 0.56629249461898, 0.29157183928825, 0
1466, 0.55327869447933, 0.28113271212042, 0
1467, 0.86543832792809, -0.24486381133631, 0
1468, 0.89344398368657, -0.27289472720769, 0
1469, 0.86570509951605, -0.27243190566816, 0
1470, 0.49322826286356, -0.14252840593317, 0
1471, 0.47278352255698, -0.15361246829206, 0
1472, 0.47911448660401, -0.16252729260802, 0
1473, 0.48221382896799, -0.19353537825359, 0
1474, 0.49545503542197, -0.15322154543473, 0
1475, 0.78097952268316, -8.8005855948121e-05, 0
1476, 0.7501265964511, 0.045746122213869, 0
1477, 0.7709170842461, 0.011969693640066, 0
1478, 0.54985115706551, -0.16267759301232, 0
1479, 0.62749859508109, -0.23077337729892, 0
1480, 0.52752929246971, -0.16399037961134, 0
1481, 0.38302437240113, 0.23627152444753, 0
1482, 0.38712688686373, 0.23458170243139, 0
1483, 0.38343148032419, 0.23323328247614, 0
1484, 0.26447704657286, 0.063937937178948, 0
1485, 0.45287043039806, 0.26723429837578, 0
1486, 0.43323416151305, 0.25295213560591, 0
1487, 0.44067102150173, 0.27666634651768, 0
1488, 0.71360824465917, -0.046407858163188, 0
1489, 0.70845679970457, -0.05001070114007, 0
1490, 0.70987331008559, -0.041474690544577, 0
1491, 0.70916505489507, -0.045742695842319, 0
1492, 0.67993126057324, 0.24796086118447, 0
1493, 0.65376700535988, 0.24727609181263, 0
1494, 0.6888199276193, 0.28610920230702, 0
1495, 0.66482697150343, 0.20978382764877, 0
1496, 0.54339602382, -0.16149619206424, 0
1497, 0.57675961337293, -0.27685100172816, 0
1498, 0.55629696903008, -0.27629242343911, 0
1499, 0.5243949299545, -0.15487549982674, 0
1500, 0.52543115137885, -0.15090483231933, 0
1501, 0.44127901654121, 0.26156100296581, 0
1502, 0.47676486412064, 0.2697028359884, 0
1503, 0.47878614085337, 0.26431545853387, 0
1504, 0.2866574362329, 0.12847105858529, 0
1505, 0.28602472316838, 0.14401372160603, 0
1506, 0.70417287583366, 0.083466778878053, 0
1507, 0.70775127287892, 0.10523349278326, 0
1508, 0.71277413624719, 0.10041127186366, 0
1509, 0.49924237354978, -0.16461196080557, 0
1510, 0.56001122917708, 0.27705245659224, 0
1511, 0.53021994758134, 0.29436806602854, 0
1512, 0.53924968504273, 0.27830753866411, 0
1513, 0.49748051645655, 0.28686880534338, 0
1514, 0.4161058787135, 0.24437710362052, 0
1515, 0.41234576415026, 0.24283552181725, 0
1516, 0.30425684477405, -0.050218818530816, 0
1517, 0.30816454554546, -0.034584926576964, 0
1518, 0.31018353870098, -0.046043265835913, 0
1519, 0.72072247887483, 0.029380023782545, 0
1520, 0.74011408541358, 0.044346184921318, 0
1521, 0.74240613663493, 0.010326641609898, 0
1522, 0.42508675187184, -0.14596949908385, 0
1523, 0.39629927484759, -0.14768375189594, 0
1524, 0.40654084547135, -0.14096211776824, 0
1525, 0.28131605627799, 0.10610308165952, 0
1526, 0.28717537603453, 0.075062594436736, 0
1527, 0.28608760214636, 0.091333306153394, 0
1528, 0.42450666783448, 0.28941471303343, 0
1529, 0.44614296218755, 0.25952146123685, 0
1530, 0.46664608112698, 0.26715593370714, 0
1531, 0.45305300755341, -0.1630415621864, 0
1532, 0.50503003928037, -0.15181824103312, 0
1533, 0.49115599562437, -0.14595819333938, 0
1534, 0.56990820697667, 0.28726297124733, 0
1535, 0.53872396650484, 0.27368031466286, 0
1536, 0.5346023367083, 0.27847129154664, 0
1537, 0.52355042656524, 0.28328287614025, 0
1538, 0.39402151306398, -0.1717681827213, 0
1539, 0.39923736110402, -0.13266997000137, 0
1540, 0.45586174931763, -0.19814949788333, 0
1541, 0.6947564110404, 0.20895130416313, 0
1542, 0.46280035213076, -0.18348321419436, 0
1543, 0.50613659533144, -0.14510159940575, 0
1544, 0.48933510280343, -0.15024002887165, 0
1545, 0.75880923365308, 0.0062553730267212, 0
1546, 0.7123989801018, -0.0060887035881338, 0
1547, 0.61753180004293, 0.26968905085099, 0
1548, 0.60928506707837, 0.25999785293304, 0
1549, 0.61383656996117, 0.25192915302889, 0
1550, 0.57247965741854, 0.28230339678785, 0
1551, 0.71027941719848, 0.060498789257046, 0
1552, 0.70391215969833, 0.074029030319985, 0
1553, 0.38818486447079, -0.13292810887548, 0
1554, 0.43718869175186, -0.15511560758096, 0
1555, 0.4392134832082, -0.17384699772402, 0
1556, 0.94732070884396, -0.27364692452783, 0
1557, 0.97342492527637, -0.24803705115316, 0
1558, 0.97366035442198, -0.27401852557658, 0
1559, 0.67142857754466, 0.20136262687546, 0
1560, 0.72275844357978, 0.20761268908997, 0
1561, 0.71372660248906, 0.18744347359245, 0
1562, 0.61133450588829, 0.26668688781917, 0
1563, 0.61454847706072, 0.27876789371094, 0
1564, 0.61477426556664, 0.25466130747107, 0
1565, 0.41957842350645, -0.14433987621212, 0
1566, 0.46483954435297, -0.16953936344703, 0
1567, 0.2814634637356, 0.11463677667583, 0
1568, 0.28531877325124, 0.1143693545602, 0
1569, 0.3146103989256, 0.19601598823469, 0
1570, 0.32037910190787, 0.19615126981583, 0
1571, 0.31482035776519, 0.19037407566477, 0
1572, 0.31759972983653, 0.1932626727403, 0
1573, 0.49153120045515, 0.29288196517691, 0
1574, 0.51534059188723, 0.28831411802663, 0
1575, 0.57387026596694, 0.27379015407343, 0
1576, 0.56758013833347, 0.27636572727643, 0
1577, 0.56513621054585, 0.27011054715774, 0
1578, 0.26017378234911, 0.078578714645486, 0
1579, 0.28244163131395, 0.088030820294969, 0
1580, 0.25893401285195, 0.094905837431329, 0
1581, 0.28259524207517, -0.034529037255746, 0
1582, 0.27385500188894, -0.084499287206673, 0
1583, 0.42361043906395, 0.25741551199023, 0
1584, 0.42910616139821, 0.25793279887915, 0
1585, 0.14866700351731, -0.091911177598323, 0
1586, 0.50133478645241, -0.17419472015108, 0
1587, 0.47845143674153, -0.14167550275854, 0
1588, 0.13147745930535, 0.24742861002082, 0
1589, 0.10513732723389, 0.27329441734961, 0
1590, 0.15817283588171, 0.27413419267121, 0
1591, 0.1316550815578, 0.27371430501041, 0
1592, 0.38910927515112, 0.23833410779818, 0
1593, 0.39075261913623, 0.2356541076464, 0
1594, 0.70011319957508, 0.079834051231767, 0
1595, 0.69884508201854, 0.091669930548598, 0
1596, 0.68884247035012, 0.12507461045401, 0
1597, 0.94354304498352, -0.061999117447247, 0
1598, 0.9720684581677, -0.090396911586373, 0
1599, 0.97177152249176, -0.062427371998067, 0
1600, 0.71746426686438, -0.015324503838663, 0
1601, 0.7411828867445, -0.0079321272035951, 0
1602, 0.28276851740936, 0.12178137257047, 0
1603, 0.26790175814947, 0.18976854436955, 0
1604, 0.29207138591232, 0.16369527771036, 0
1605, 0.33906329750915, -0.21285088482142, 0
1606, 0.32625617495733, -0.27098187093225, 0
1607, 0.29888593253769, -0.27185847193613, 0
1608, 0.27715464421146, 0.1055943244101, 0
1609, 0.25926556984832, 0.086550618560955, 0
1610, 0.71774965449308, -0.0754533720259, 0
1611, 0.72470974913516, -0.26977614379082, 0
1612, 0.75295962261885, -0.27055366114806, 0
1613, 0.55249366007882, -0.16529016033286, 0
1614, 0.59434450765119, -0.15926034403617, 0
1615, 0.41609906529613, 0.27037992352399, 0
1616, 0.73777285861097, -0.070820267972879, 0
1617, 0.71072279964182, -0.032792299285512, 0
1618, 0.71476266712852, -0.037665387843682, 0
1619, 0.71029805486371, -0.037133494915051, 0
1620, 0.5569779439157, 0.27928198198189, 0
1621, 0.56404148566166, 0.27236385295378, 0
1622, 0.54422266472572, 0.28312090894924, 0
1623, 0.35925398937734, -0.11789810971118, 0
1624, 0.34850727317707, -0.10878307127419, 0
1625, 0.34860011776056, -0.1140730626021, 0
1626, 0.49992700868663, 0.2698992913016, 0
1627, 0.55163182448044, 0.27594012392616, 0
1628, 0.57819838889708, 0.26933177954984, 0
1629, 0.51067442432963, 0.27693859266227, 0
1630, 0.30420945505366, 0.18294067872165, 0
1631, 0.30984249898262, 0.18407492430145, 0
1632, 0.30553494756312, 0.17755959934579, 0
1633, 0.30758016468377, 0.18081884575668, 0
1634, 0.62756925763804, 0.24329560435621, 0
1635, 0.63501778260168, 0.27874057458184, 0
1636, 0.60276915344197, 0.26008993801306, 0
1637, 0.73991907476239, 0.14056174470863, 0
1638, 0.73931729716043, 0.062761174683233, 0
1639, 0.69105785781813, 0.15272966197389, 0
1640, 0.68091255916631, -0.13351694000002, 0
1641, 0.66954188806498, -0.12778253627433, 0
1642, 0.68287595352655, -0.12370651991342, 0
1643, 0.078957340488976, 0.24670040429586, 0
1644, 0.052025513982337, 0.27340598694625, 0
1645, 0.078581420608112, 0.27335020214793, 0
1646, 0.24062386395729, 0.031509877023136, 0
1647, 0.32858867241732, 0.22696420735462, 0
1648, 0.32809008667891, 0.22136275942345, 0
1649, 0.34842885069675, 0.22049589349872, 0
1650, 0.35591821484543, 0.22583737845905, 0
1651, 0.34506430310321, 0.22268798450718, 0
1652, 0.34366583639405, 0.23767396303176, 0
1653, 0.717077567492, 0.093140101836694, 0
1654, 0.70980115280324, 0.073274877799085, 0
1655, 0.63345739240937, 0.23731522933383, 0
1656, 0.63914013078865, 0.23177547842279, 0
1657, 0.63617574571757, 0.23442593362161, 0
1658, 0.32217819389153, -0.083405689149828, 0
1659, 0.32348462860974, -0.077858855459258, 0
1660, 0.32766420876692, -0.084587986980632, 0
1661, 0.32560435911334, -0.081315091888534, 0
1662, 0.2768313716042, 0.1235865141653, 0
1663, 0.30159497694355, 0.17142252769968, 0
1664, 0.29889601082284, 0.16886814036579, 0
1665, 0.28158223707329, 0.057684031022523, 0
1666, 0.26162991393807, -0.014021372488849, 0
1667, 0.7246827324823, 0.14617878279135, 0
1668, 0.70257892300082, 0.16526524043133, 0
1669, 0.34084199381722, 0.22463006780361, 0
1670, 0.33096637762846, 0.20928982308542, 0
1671, 0.63370928859671, 0.24303872335648, 0
1672, 0.63062703573271, 0.24028964025523, 0
1673, 0.080074766231929, -0.24537296288067, 0
1674, 0.052608897827277, -0.27307122489391, 0
1675, 0.079442072091608, -0.27268648144033, 0
1676, 0.32627283598433, 0.20160570230228, 0
1677, 0.32740498866883, 0.20726133861694, 0
1678, 0.32953992746669, 0.20401562706013, 0
1679, 0.32064830716729, 0.20187988048946, 0
1680, 0.3233259689461, 0.19887848605905, 0
1681, 0.24711789033484, 0.16640365257199, 0
1682, 0.25558148873075, -0.052600182971509, 0
1683, 0.63383475378179, -0.20050241169419, 0
1684, 0.6311030326044, -0.21482878007781, 0
1685, 0.62572720362041, -0.15997337105982, 0
1686, 0.59332108947674, -0.17701007621357, 0
1687, 0.026657230804745, -0.24714021720762, 0
1688, 0.026304448913638, -0.27357010860381, 0
1689, 0.63409174027678, -0.16375666179796, 0
1690, 0.58701882501552, -0.16857675610858, 0
1691, 0.65610237810908, -0.14301268962461, 0
1692, 0.65772860786948, -0.14654915649203, 0
1693, 0.65751214541849, -0.16636345198534, 0
1694, 0.69938153859443, 0.19902654497749, 0
1695, 0.68764472531601, 0.27252284292199, 0
1696, 0.65738117847191, -0.13780871844648, 0
1697, 0.65886628447133, -0.15039587256677, 0
1698, 0.69691228700056, -0.088156292616476, 0
1699, 0.69859072094762, -0.094715216274015, 0
1700, 0.69498807006508, -0.09229439473139, 0
1701, 0.056214921942403, 0.05737557866928, 0
1702, 0.028107460971202, 0.057525424477249, 0
1703, 0.37813802680986, -0.27294524390063, 0
1704, 0.40192355325352, -0.24987447068498, 0
1705, 0.42447022136206, -0.27692922678435, 0
1706, 0.40130412408596, -0.27493723534249, 0
1707, 0.026304485868422, 0.24769309849899, 0
1708, 0.026012756991169, 0.27384654924949, 0
1709, 0.94660578241404, -0.22116743449721, 0
1710, 0.97330289120702, -0.2220621306837, 0
1711, 0.33204143512396, -0.091027009566933, 0
1712, 0.32664541849944, -0.089853770356651, 0
1713, 0.32985282194544, -0.087807498273782, 0
1714, 0.91990330346208, -0.24654165173551, 0
1715, 0.92038234626527, -0.27327082586776, 0
1716, 0.61832718162347, 0.25377875658771, 0
1717, 0.70223424932914, -0.085893686612278, 0
1718, 0.69996980450738, -0.080546876892397, 0
1719, 0.69844104575396, -0.084351584754431, 0
1720, 0.34423344602241, -0.1202762068944, 0
1721, 0.35024466535589, -0.12709044035457, 0
1722, 0.35636610783531, -0.12416731564742, 0
1723, 0.39978923246791, -0.16298771348188, 0
1724, 0.74515030185177, 0.28091667673785, 0
1725, 0.66331813463011, 0.21399317585241, 0
1726, 0.66301762170613, -0.13902614819725, 0
1727, 0.66380825913143, -0.13324562487335, 0
1728, 0.66063178876819, -0.13563379016744, 0
1729, 0.94501947902483, 0.21894370784221, 0
1730, 0.97303694687263, 0.24675472928927, 0
1731, 0.97250973951241, 0.21926751313572, 0
1732, 0.52568795820517, 0.27342820956427, 0
1733, 0.55930869609765, 0.28578453393945, 0
1734, 0.55997830477798, 0.27148454420681, 0
1735, 0.351891900775, 0.22318865121702, 0
1736, 0.33708223638206, 0.21472493772597, 0
1737, 0.44322814875544, -0.25458138566716, 0
1738, 0.44366536833273, -0.27729069283358, 0
1739, 0.59097706319524, 0.26600496265505, 0
1740, 0.58678289762147, 0.26733451862898, 0
1741, 0.62424279925339, 0.24601783097729, 0
1742, 0.70505078554908, -0.078105072663977, 0
1743, 0.70247779433328, -0.073020586565593, 0
1744, 0.70122379942033, -0.076783731728992, 0
1745, 0.7460547486883, -0.10243757483818, 0
1746, 0.69927710268074, -0.10298826041862, 0
1747, 0.68594486317229, -0.1236343529518, 0
1748, 0.34260416633326, -0.10948097874885, 0
1749, 0.34239542620269, -0.10349224727913, 0
1750, 0.34551966556136, -0.10630731354747, 0
1751, 0.94710259679664, 0.27317990801106, 0
1752, 0.97355129839832, 0.27337736464463, 0
1753, 0.25775261316306, 0.17977413376224, 0
1754, 0.26514313087101, 0.12474693896304, 0
1755, 0.2783371614871, 0.11922036459043, 0
1756, 0.7272986051534, -0.0058364024389135, 0
1757, 0.71101597964706, -0.024360989405232, 0
1758, 0.71097979650003, -0.020367253252608, 0
1759, 0.70740633589093, -0.070431792048006, 0
1760, 0.70463771893188, -0.065574837638807, 0
1761, 0.70355775663258, -0.069297712102202, 0
1762, 0.33677771832356, -0.09732313539164, 0
1763, 0.33114429201817, -0.096531379723741, 0
1764, 0.33440957672376, -0.094175072479286, 0
1765, 0.64951036600167, -0.15162725603616, 0
1766, 0.65421696650502, -0.14695332046736, 0
1767, 0.54874189808608, -0.15525523743666, 0
1768, 0.94480929776658, -0.1163000335644, 0
1769, 0.97240464888329, -0.11715331621556, 0
1770, 0.60920798703692, -0.16666727619014, 0
1771, 0.59320631929667, -0.16344128000568, 0
1772, 0.66951529738277, -0.13381245954944, 0
1773, 0.66679997214357, -0.13059115610459, 0
1774, 0.2737977657633, 0.098908645121822, 0
1775, 0.26798315264039, 0.095008213574384, 0
1776, 0.70660868864025, -0.05811405496783, 0
1777, 0.70960670739519, -0.06279082153006, 0
1778, 0.70562320378609, -0.061844446303338, 0
1779, 0.53313803681489, -0.15951917109128, 0
1780, 0.65032885276576, -0.21375635410825, 0
1781, 0.64225333348035, -0.14676080211476, 0
1782, 0.36092275586214, -0.1676607227823, 0
1783, 0.5095012324081, 0.28795961321156, 0
1784, 0.55667814691708, 0.27054120441339, 0
1785, 0.5439630887606, 0.28874154721585, 0
1786, 0.5326113353789, 0.28889864425871, 0
1787, 0.69047765305112, -0.10051778019977, 0
1788, 0.78300457619417, -0.14511850666514, 0
1789, 0.61303454296736, -0.2016439914575, 0
1790, 0.69554410368049, -0.24481815208069, 0
1791, 0.69815276855869, -0.27199550358112, 0
1792, 0.45457535307538, 0.28934595912036, 0
1793, 0.44762248600349, 0.25455743878948, 0
1794, 0.27368183306795, 0.072912270155322, 0
1795, 0.28539210978548, 0.10240933905429, 0
1796, 0.37617594515082, -0.18033249452817, 0
1797, 0.3521971008836, -0.27196355741644, 0
1798, 0.6192617616989, -0.15623905790647, 0
1799, 0.57920928364618, -0.17457863763608, 0
1800, 0.42363317526129, 0.27118283149617, 0
1801, 0.41684891401157, 0.26266587088052, 0
1802, 0.44822802731667, 0.25127133526592, 0
1803, 0.65176699005395, -0.14709938292691, 0
1804, 0.56143227403749, 0.2700091896835, 0
1805, 0.51298987106614, 0.28257679281199, 0
1806, 0.68807553108492, 0.13364138943415, 0
1807, 0.72331721577978, 0.16842400413169, 0
1808, 0.68987715499393, 0.15787211405594, 0
1809, 0.6769463465833, 0.17397607074814, 0
1810, 0.75924985367839, 0.21896102748345, 0
1811, 0.68868016024782, 0.12726157217608, 0
1812, 0.69674475919661, 0.13606993023215, 0
1813, 0.69450705324588, 0.11850013802516, 0
1814, 0.4700624672077, 0.29127318677612, 0
1815, 0.28012356037565, 0.068686091351648, 0
1816, 0.29011236821923, 0.056816569514284, 0
1817, 0.30371864022357, -0.017221692117565, 0
1818, 0.54785929432038, 0.27707742840986, 0
1819, 0.57384483201033, 0.26997455899783, 0
1820, 0.56234854141698, 0.27470149164975, 0
1821, 0.55872714785242, 0.26987120346692, 0
1822, 0.50356895216534, 0.28749615232129, 0
1823, 0.5528899716404, -0.19899008978153, 0
1824, 0.59847067407228, -0.15884352764937, 0
1825, 0.54783392683959, -0.16016427852487, 0
1826, 0.29165126479494, 0.18251753726445, 0
1827, 0.30361193082606, 0.17443748541597, 0
1828, 0.33637961746592, -0.1031902831499, 0
1829, 0.33958657226312, -0.10040769133539, 0
1830, 0.30900921878222, 0.18975271392333, 0
1831, 0.31226746898491, 0.18727132500916, 0
1832, 0.57340749426729, -0.16329879267296, 0
1833, 0.5414180086041, -0.15299706197337, 0
1834, 0.54638437456802, -0.1577790761175, 0
1835, 0.60728849453834, -0.17148976986545, 0
1836, 0.4097077536376, -0.15775834680921, 0
1837, 0.29959704731617, 0.18104401412515, 0
1838, 0.81658224647732, 0.24981295664801, 0
1839, 0.79118940220307, 0.27683073915825, 0
1840, 0.81630483333054, 0.274906478324, 0
1841, 0.37035589168901, -0.22036866935269, 0
1842, 0.38867909427722, -0.19993009322579, 0
1843, 0.27011867686312, 0.1222414300166, 0
1844, 0.25588963528614, 0.19293465220684, 0
1845, 0.35258195327678, -0.14965959548319, 0
1846, 0.47580798438876, -0.14563953483684, 0
1847, 0.45996154956121, -0.13994595638479, 0
1848, 0.62980131884353, 0.25475148361361, 0
1849, 0.60572157875289, 0.28225806058952, 0
1850, 0.69187631039238, 0.202485164897, 0
1851, 0.6947406282905, 0.16418404083965, 0
1852, 0.5577613124957, 0.27302392977655, 0
1853, 0.56095307540158, 0.29323985196621, 0
1854, 0.10765360607438, -0.21741439416965, 0
1855, 0.13540135226559, -0.18974353981028, 0
1856, 0.16181601373603, -0.21664006799891, 0
1857, 0.1347348099052, -0.21702723108428, 0
1858, 0.4578303988156, 0.25682300302199, 0
1859, 0.42862915237031, 0.25261935596754, 0
1860, 0.91283615888891, 0.077138653165936, 0
1861, 0.87912688004472, 0.10394676525477, 0
1862, 0.9108109763531, 0.13553493676743, 0
1863, 0.91153474074953, 0.10588843454172, 0
1864, 0.48171318535613, 0.27076215461991, 0
1865, 0.50836513921769, 0.27139626284572, 0
1866, 0.29626284638397, 0.23510247255539, 0
1867, 0.29263145366296, 0.22052327895316, 0
1868, 0.18335708162656, 0.2729619024514, 0
1869, 0.26683475749274, 0.029506006174114, 0
1870, 0.30762645609067, -0.065232215859978, 0
1871, 0.56870288590582, 0.27315882880084, 0
1872, 0.56931965366123, 0.2701155808997, 0
1873, 0.59186911758915, 0.29176921479994, 0
1874, 0.60732432850149, 0.29087249132129, 0
1875, 0.59931852500943, 0.29147357350054, 0
1876, 0.52127788051613, 0.27305207825556, 0
1877, 0.48446008202546, 0.28458037637779, 0
1878, 0.46162460587065, 0.25874861368687, 0
1879, 0.91954594321482, 0.24658906632932, 0
1880, 0.92053848843224, 0.27329453316466, 0
1881, 0.42847465232427, -0.19838773788204, 0
1882, 0.41162695327354, -0.21346219260011, 0
1883, 0.39607592932032, -0.13251910249947, 0
1884, 0.38329207029574, -0.13304263610336, 0
1885, 0.41619771463493, -0.1964001191353, 0
1886, 0.58368065164439, 0.27277230903056, 0
1887, 0.58255063103728, 0.26842859420429, 0
1888, 0.37111563654348, 0.23717673294312, 0
1889, 0.36683446717861, 0.23596993887323, 0
1890, 0.40801442259996, 0.25276143122493, 0
1891, 0.29733661781231, -0.04413383852088, 0
1892, 0.13937407630789, -0.13873861822928, 0
1893, 0.27389206989355, 0.05350811358685, 0
1894, 0.64770946479889, 0.28879420824679, 0
1895, 0.62410769038614, 0.25691068072288, 0
1896, 0.62625628303717, 0.28960751955125, 0
1897, 0.636612160956, 0.28927143981493, 0
1898, 0.2808033146158, 0.12426359642886, 0
1899, 0.2416314742829, 0.1957276462386, 0
1900, 0.63240567387258, 0.26079989777696, 0
1901, 0.61641228381322, 0.2898410125013, 0
1902, 0.72361092245181, 0.26623414074179, 0
1903, 0.68415983937228, 0.19159109979443, 0
1904, 0.69752893683333, 0.21664573804113, 0
1905, 0.34284675532669, 0.27206089390904, 0
1906, 0.32784068886255, 0.28491574284635, 0
1907, 0.34196960158763, 0.28558798258953, 0
1908, 0.71176445956839, -0.054855944484088, 0
1909, 0.70753274417241, -0.054062378053953, 0
1910, 0.27996822001089, 0.0069657381740028, 0
1911, 0.26505021210493, 0.047955984645397, 0
1912, 0.28267863904973, 0.051969693140225, 0
1913, 0.71536088086181, -0.028705914978256, 0
1914, 0.71093265195928, -0.028527729469992, 0
1915, 0.053958857191853, -0.21908991284383, 0
1916, 0.026979428595927, -0.22016375909856, 0
1917, 0.053189348158518, 0.21995371098602, 0
1918, 0.026594674079259, 0.2207891647952, 0
1919, 0.78891915134742, 0.12233563567906, 0
1920, 0.75888531846734, 0.1446826920705, 0
1921, 0.7123093046143, 0.093479741615444, 0
1922, 0.70667050063159, 0.082587205403739, 0
1923, 0.70257537679678, 0.076186567784784, 0
1924, 0.084981432278537, 0.030609133665565, 0
1925, 0.11861481032874, 0.004121047804037, 0
1926, 0.089480723090545, -0.02661488023083, 0
1927, 0.087509557998395, 0.0024124600000929, 0
1928, 0.25124269416664, -0.005478582282959, 0
1929, 0.27402878084061, -0.00081469870888912, 0
1930, 0.91669760597641, 0.19309515843546, 0
1931, 0.88396769626981, 0.16720137300703, 0
1932, 0.91374436410099, 0.16482308438612, 0
1933, 0.14300179540963, 0.034383690317004, 0
1934, 0.17220398104635, 0.014736872994528, 0
1935, 0.147485714826, 0.010181178750828, 0
1936, 0.89258987362834, -0.21943060489207, 0
1937, 0.83741603609158, -0.21781356880765, 0
1938, 0.86551888226086, -0.19221484686773, 0
1939, 0.86547860509449, -0.21853932910203, 0
1940, 0.31375764392151, 0.26775656934201, 0
1941, 0.29467984563199, 0.28102070628452, 0
1942, 0.31183521459406, 0.28347139043618, 0
1943, 0.66397371766998, 0.19495641825397, 0
1944, 0.6897891317487, 0.17539509382428, 0
1945, 0.26071163810561, 0.21984477779189, 0
1946, 0.083259593059656, -0.13707664764881, 0
1947, 0.085312755487785, -0.083401587274872, 0
1948, 0.11442952890552, -0.11245315133034, 0
1949, 0.084286174273721, -0.11023911746184, 0
1950, 0.91375983505146, 0.021043419468435, 0
1951, 0.91480318802963, -0.034335522720581, 0
1952, 0.88586641818579, -0.0070853551764513, 0
1953, 0.91428151154055, -0.006646051626073, 0
1954, 0.49668162646183, -0.14273707236545, 0
1955, 0.50587506781415, -0.15776603136241, 0
1956, 0.50284515281001, -0.14397049254621, 0
1957, 0.49980895378523, -0.1431088171756, 0
1958, 0.46178989205948, -0.23387915265117, 0
1959, 0.42521437480853, -0.23417158685285, 0
1960, 0.44256975897325, -0.21573783076821, 0
1961, 0.44350213343401, -0.23402536975201, 0
1962, 0.66677068627094, 0.19801791846374, 0
1963, 0.66684477306605, 0.19296406759171, 0
1964, 0.67315103306152, 0.1925756202587, 0
1965, 0.66860493345227, 0.19161833311092, 0
1966, 0.71990390332818, 0.016615813351398, 0
1967, 0.72654991333218, 0.018212941799855, 0
1968, 0.73330421724763, 0.021370501336079, 0
1969, 0.6734380585614, 0.28726824628977, 0
1970, 0.16730028215478, -0.1402456638506, 0
1971, 0.71891278594049, 0.17835526715078, 0
1972, 0.66576236962104, 0.23417018639266, 0
1973, 0.76700175147316, 0.25726620442675, 0
1974, 0.12417586467138, -0.060096741385209, 0
1975, 0.087592720707591, -0.055449804032711, 0
1976, 0.7255114428539, 0.031004541722658, 0
1977, 0.71468863329529, 0.0061798396359529, 0
1978, 0.72462843576891, 0.1132670325859, 0
1979, 0.71302185014003, 0.044276118330635, 0
1980, 0.26082572717153, 0.043876512100807, 0
1981, 0.2977356413383, -0.0059078817289929, 0
1982, 0.28673363027615, -0.0038962460395301, 0
1983, 0.7048093480558, 0.092998044767213, 0
1984, 0.45558292023356, -0.14617814890186, 0
1985, 0.44960535675515, -0.15491242403921, 0
1986, 0.4514169369418, -0.14711725938533, 0
1987, 0.42145644162133, -0.17151369662029, 0
1988, 0.306793819956, -0.023530574505465, 0
1989, 0.31952891283223, -0.070394219910289, 0
1990, 0.3050014450382, -0.055143428703774, 0
1991, 0.73932741100922, 0.15715733650098, 0
1992, 0.71939951886738, -0.042950996548736, 0
1993, 0.72327615574722, -0.048600094347238, 0
1994, 0.71748488153902, -0.05205695596169, 0
1995, 0.71844220020321, -0.047503976255227, 0
1996, 0.25602290428956, 0.053486003268986, 0
1997, 0.25385221099541, 0.034253724299601, 0
1998, 0.25787458695239, 0.062071641501043, 0
1999, 0.28502900673334, 0.05452731226293, 0
2000, 0.28005412514533, 0.031122131811932, 0
2001, 0.56062743779938, -0.1644705226721, 0
2002, 0.53356297321974, -0.15221430068365, 0
2003, 0.62160139077861, -0.17284968901115, 0
2004, 0.54100682061913, -0.17057060692608, 0
2005, 0.49786384101388, -0.23382426413671, 0
2006, 0.47578967430273, -0.21413176079135, 0
2007, 0.47971022880343, -0.23415256085709, 0
2008, 0.77096405400016, 0.029208663600517, 0
2009, 0.73189454439389, 0.007171722730618, 0
2010, 0.5014811422367, -0.14575653957278, 0
2011, 0.51407397329246, -0.16713567639784, 0
2012, 0.5017945520377, -0.14941027209602, 0
2013, 0.50424618604416, -0.14733909560867, 0
2014, 0.85526303699634, 0.019674134463536, 0
2015, 0.86024755078037, -0.034151891159134, 0
2016, 0.82982123410884, -0.0080342869084583, 0
2017, 0.85802800208112, -0.0074912726654142, 0
2018, 0.71526016143713, -0.072720856180844, 0
2019, 0.71025823735646, -0.075272489427356, 0
2020, 0.71240825997159, -0.06788015880149, 0
2021, 0.71133324866404, -0.071576324114434, 0
2022, 0.88381544145928, 0.047909706283872, 0
2023, 0.91329799697019, 0.049091036317186, 0
2024, 0.80912638928424, -0.2434916013999, 0
2025, 0.3037886615818, -0.045494041223395, 0
2026, 0.2390501064152, -0.047551528843245, 0
2027, 0.73137929127871, -0.042106189072762, 0
2028, 0.75844024147447, -0.047059474383399, 0
2029, 0.83038795961246, -0.080925085505299, 0
2030, 0.72482831822534, -0.038866514304047, 0
2031, 0.77141843359465, -0.053581246351357, 0
2032, 0.69630341042498, 0.12133699317193, 0
2033, 0.69896554289415, 0.1174395625801, 0
2034, 0.72551162506144, 0.10249648432339, 0
2035, 0.28816823744636, 0.15996763549522, 0
2036, 0.28565903264701, 0.11820891382692, 0
2037, 0.7201914664865, -0.033580905599005, 0
2038, 0.71979549267694, -0.038265951073872, 0
2039, 0.28571887506647, 0.098623562475438, 0
2040, 0.28515948196714, 0.10637454619171, 0
2041, 0.28302598166905, 0.094988303873165, 0
2042, 0.64822808311264, -0.27416753305741, 0
2043, 0.58854884014343, -0.16392960777917, 0
2044, 0.45637784325481, -0.14022275679102, 0
2045, 0.49696974256869, -0.17984613524735, 0
2046, 0.42577458050444, -0.13945389694373, 0
2047, 0.45483584894565, -0.15377034655171, 0
2048, 0.29593361184723, -0.069250191726374, 0
2049, 0.3060738861756, -0.060200918888191, 0
2050, 0.37862132022381, 0.25203395234548, 0
2051, 0.38743707197601, 0.24074114006485, 0
2052, 0.26404403710476, -0.18509164573791, 0
2053, 0.19017694970718, -0.1894432745666, 0
2054, 0.18951287088418, -0.21681017675817, 0
2055, 0.22738773413682, 0.17941083730476, 0
2056, 0.25922767157129, 0.12839672689004, 0
2057, 0.27780062019522, 0.14324695356726, 0
2058, 0.27968509127911, 0.12221296193877, 0
2059, 0.34295547181016, 0.2156340363227, 0
2060, 0.33443531543242, 0.24344624024394, 0
2061, 0.33926392114794, 0.21007356667025, 0
2062, 0.49529100725019, -0.16777209830226, 0
2063, 0.51617670445199, -0.16248213440238, 0
2064, 0.51731982290245, -0.14885718342791, 0
2065, 0.28733040854183, 0.061786926511602, 0
2066, 0.25751096507181, 0.039174530280383, 0
2067, 0.2917887223203, 0.056963034888747, 0
2068, 0.31346957520089, -0.073489209603189, 0
2069, 0.34861062694472, -0.1418342768938, 0
2070, 0.35588639282679, -0.13751876436351, 0
2071, 0.35675760338082, -0.11548120924687, 0
2072, 0.49174622726716, -0.15470193465743, 0
2073, 0.40770892613895, -0.14858386247348, 0
2074, 0.67666495730623, 0.20054485137567, 0
2075, 0.68873733634122, 0.18807247531562, 0
2076, 0.66306322354364, 0.24454192250631, 0
2077, 0.69997241014658, 0.12843739204464, 0
2078, 0.65704722814515, 0.21230501436697, 0
2079, 0.74435489848963, 0.26224876169014, 0
2080, 0.71048846751428, -0.089273225929465, 0
2081, 0.70490092455223, -0.091842120241946, 0
2082, 0.70782179229118, -0.083324792299788, 0
2083, 0.7063613584217, -0.087583456270864, 0
2084, 0.5437384644507, -0.19189557785784, 0
2085, 0.56009603062536, -0.17043293186102, 0
2086, 0.33609875174176, 0.20821230050135, 0
2087, 0.70349780502112, 0.13798266146332, 0
2088, 0.69997206813711, 0.17217801168074, 0
2089, 0.71398420369682, 0.030862432579013, 0
2090, 0.73089088946812, -0.022585861626522, 0
2091, 0.50889611630403, -0.15417775279157, 0
2092, 0.49866059459358, -0.15137600991599, 0
2093, 0.43829520384505, -0.16384570877688, 0
2094, 0.47259357679196, -0.14909866321843, 0
2095, 0.4397905633852, -0.14078700945913, 0
2096, 0.72708345737826, -0.058405457128749, 0
2097, 0.70162941778965, 0.07763681471548, 0
2098, 0.72927552114248, 0.089107980045107, 0
2099, 0.70190093070515, 0.083782635000667, 0
2100, 0.25590043893461, -0.031729792790046, 0
2101, 0.26361541543798, -0.025612885181489, 0
2102, 0.26280678563513, -0.13248515318052, 0
2103, 0.40510425285589, -0.19252894361565, 0
2104, 0.36518628009774, -0.17717948811572, 0
2105, 0.382742612829, -0.15047848670568, 0
2106, 0.73185952783639, 0.03644168682015, 0
2107, 0.74703826181849, 0.0024712349294384, 0
2108, 0.55783670485576, -0.15847802812413, 0
2109, 0.55170415190485, -0.15870425290544, 0
2110, 0.57149478248654, -0.173996913555, 0
2111, 0.56108680955931, -0.15984955079016, 0
2112, 0.82109256099415, 0.020271492253183, 0
2113, 0.85460273832212, 0.046966033812418, 0
2114, 0.52826335090901, -0.15966667205618, 0
2115, 0.55466091931304, -0.15459798947998, 0
2116, 0.53331526014611, -0.15578061276308, 0
2117, 0.68988365011825, 0.12279822883103, 0
2118, 0.28719367437342, 0.049498045907788, 0
2119, 0.30782864529809, -0.028012442518166, 0
2120, 0.27766191991875, -0.015799934587296, 0
2121, 0.72638381115776, -0.0717412643733, 0
2122, 0.71581447823734, -0.17334833693962, 0
2123, 0.73720566625782, -0.14379699723155, 0
2124, 0.45916179294577, -0.14506951997249, 0
2125, 0.43088656136695, -0.16308718366147, 0
2126, 0.74747483747924, -0.023382867444872, 0
2127, 0.7220003909787, -0.0089472052665093, 0
2128, 0.72899271295559, -0.016389200408701, 0
2129, 0.72163872094048, 0.011974269343929, 0
2130, 0.35476921123951, 0.236898760839, 0
2131, 0.36545373006531, 0.24666364112011, 0
2132, 0.35753540324842, 0.23225134017766, 0
2133, 0.63548518432973, -0.1885579658146, 0
2134, 0.60573897807223, -0.16215688025406, 0
2135, 0.59234039451309, -0.16773514716379, 0
2136, 0.41795128149214, -0.15094942580201, 0
2137, 0.24959544136256, 0.095112473929363, 0
2138, 0.27972493598601, 0.092705701319521, 0
2139, 0.25167002852403, 0.0774716870536, 0
2140, 0.25028321794048, 0.08607819109238, 0
2141, 0.28282003777884, 0.091764532910262, 0
2142, 0.2668032683374, 0.086540470431984, 0
2143, 0.32145664995057, -0.074263944770398, 0
2144, 0.30579575141433, -0.025943406342978, 0
2145, 0.65269542148245, -0.15757503731164, 0
2146, 0.64010910628879, -0.16103453547223, 0
2147, 0.40049288050437, -0.17712511862311, 0
2148, 0.43091087246434, -0.15439816301649, 0
2149, 0.70421866108168, 0.20553478850726, 0
2150, 0.68600899182265, 0.21058825861696, 0
2151, 0.66650950898607, 0.2015872260652, 0
2152, 0.65411091071027, 0.22611819284492, 0
2153, 0.69168907691632, 0.14779319976326, 0
2154, 0.73652634856005, 0.17068585965069, 0
2155, 0.68290785174865, -0.11984131508168, 0
2156, 0.69282088047364, -0.096331183539975, 0
2157, 0.68115754345517, -0.12046710466093, 0
2158, 0.71797606214287, -0.10613904178548, 0
2159, 0.74867619644677, -0.073243368702508, 0
2160, 0.70932315699151, 0.033205943611144, 0
2161, 0.78706625829649, -0.015359613089482, 0
2162, 0.71523815716725, -0.010196924765301, 0
2163, 0.71903790594889, 0.036482242345876, 0
2164, 0.70290738590638, 0.10838598359665, 0
2165, 0.77807911749524, 0.041176901924872, 0
2166, 0.70828650482844, 0.093381073601917, 0
2167, 0.70396424006979, 0.1033573424989, 0
2168, 0.72135114728856, 0.1225126509572, 0
2169, 0.40496572024349, 0.25921546010827, 0
2170, 0.40008936004874, 0.25697629250769, 0
2171, 0.68486882729339, 0.15342518439376, 0
2172, 0.68841499515608, 0.13025639735479, 0
2173, 0.7476895906345, 0.12531138131916, 0
2174, 0.70806600123063, 0.04695230508602, 0
2175, 0.30927585057764, -0.042088510846427, 0
2176, 0.27787004117337, 0.022549648591398, 0
2177, 0.58684335636638, 0.28351490144924, 0
2178, 0.58488311573276, 0.29175745072462, 0
2179, 0.63208761738256, -0.15226234882934, 0
2180, 0.65096371046265, -0.14148909669585, 0
2181, 0.64513413951393, -0.14488105942178, 0
2182, 0.27807968072859, 0.10092260486482, 0
2183, 0.27867735109246, 0.073853925463066, 0
2184, 0.26786052789495, 0.071704083915176, 0
2185, 0.46698730808981, -0.14021456874, 0
2186, 0.65779650624452, 0.22230883059394, 0
2187, 0.082989431061042, 0.08553542771715, 0
2188, 0.081938723542878, 0.13975170898794, 0
2189, 0.10974888418384, 0.11314564332121, 0
2190, 0.08246407730196, 0.11264356835254, 0
2191, 0.72673921648891, 0.027965655533883, 0
2192, 0.70983094900183, 0.029621700403467, 0
2193, 0.71227537508617, 0.018765961542951, 0
2194, 0.73192588055363, 0.048889894514148, 0
2195, 0.69678010650572, 0.15793011656844, 0
2196, 0.69577539508383, 0.13183061600291, 0
2197, 0.91623421485649, -0.088957942206064, 0
2198, 0.8874943579026, -0.061294347479398, 0
2199, 0.91551870144306, -0.061646732463323, 0
2200, 0.27298971015698, 0.1158349164211, 0
2201, 0.27741877163251, 0.11509378101462, 0
2202, 0.28836650067694, 0.052354114649278, 0
2203, 0.29101678015322, 0.059952717293885, 0
2204, 0.34267905402865, -0.12432083773525, 0
2205, 0.35423496034445, -0.11325417150284, 0
2206, 0.36212566109829, -0.12072601880074, 0
2207, 0.61499491355698, -0.16178823471686, 0
2208, 0.64298574375925, -0.1517265254542, 0
2209, 0.70904001482381, -0.079298640863563, 0
2210, 0.40354590130579, -0.14614164969692, 0
2211, 0.43049968458339, -0.14006043823632, 0
2212, 0.72391586356131, -0.11064529892645, 0
2213, 0.72706537036515, -0.13953198532357, 0
2214, 0.71708184748615, -0.078944827356908, 0
2215, 0.26561136830654, 0.13290516172812, 0
2216, 0.71743040920643, 0.054365275069061, 0
2217, 0.69934463249145, 0.08753120532078, 0
2218, 0.73424236395194, 0.027769119207482, 0
2219, 0.27877140622051, -0.040597720470123, 0
2220, 0.28725653759811, 0.056570534461502, 0
2221, 0.42109141432107, -0.13845596807854, 0
2222, 0.34851308032949, -0.12284243789804, 0
2223, 0.41487500953537, -0.14380323690491, 0
2224, 0.3962489894982, -0.13644101889257, 0
2225, 0.26369411076977, -0.15733878503512, 0
2226, 0.36268763116927, -0.19233176356629, 0
2227, 0.263728693715, 0.15670709078174, 0
2228, 0.30084308534185, 0.17645988157953, 0
2229, 0.2954678490095, 0.17251031686886, 0
2230, 0.62321372395452, -0.27410541304404, 0
2231, 0.53941119141604, -0.16643188456572, 0
2232, 0.62538355273983, -0.25286265545411, 0
2233, 0.36610087598419, 0.24095794611462, 0
2234, 0.38476819347941, 0.26479090057752, 0
2235, 0.3555682711496, 0.28540967203067, 0
2236, 0.31983997950491, -0.092834676134973, 0
2237, 0.32172138203956, -0.088084737807987, 0
2238, 0.32476401596478, -0.094603708683637, 0
2239, 0.32324269900217, -0.091344223245812, 0
2240, 0.32359975345882, 0.21514471382756, 0
2241, 0.33738935878144, 0.21744367901944, 0
2242, 0.32110719795571, 0.20866505999112, 0
2243, 0.32538723050844, 0.21095644447162, 0
2244, 0.32930194628328, -0.10240977198653, 0
2245, 0.3229216702299, -0.10048210094643, 0
2246, 0.32703298112403, -0.098506740335083, 0
2247, 0.67524720896522, -0.13414735627325, 0
2248, 0.67549524422454, -0.14154006016667, 0
2249, 0.66913652776376, -0.14058972732838, 0
2250, 0.67250527080365, -0.13767625985806, 0
2251, 0.28199297840775, 0.11853660085138, 0
2252, 0.28549042278496, 0.18370979542986, 0
2253, 0.11175594139718, 0.058768982713435, 0
2254, 0.083985431669789, 0.058072280691358, 0
2255, 0.72488403126375, 0.034498370513941, 0
2256, 0.72310934677059, 0.059487355369777, 0
2257, 0.75234854627248, 0.014465997722737, 0
2258, 0.7987989016265, 0.0068588662578421, 0
2259, 0.85937761724688, -0.087402380671756, 0
2260, 0.80793040853596, -0.05145631470089, 0
2261, 0.85986024628094, -0.060367648865983, 0
2262, 0.78019533148585, 0.073449646014342, 0
2263, 0.71492167312915, -0.020079313076612, 0
2264, 0.45374221784884, 0.26006534506248, 0
2265, 0.42417006836769, 0.24681780893734, 0
2266, 0.44358440635608, 0.24980190911955, 0
2267, 0.34279383545984, -0.11520201315489, 0
2268, 0.33581332794001, -0.11689658785355, 0
2269, 0.33558040807125, -0.11007097684169, 0
2270, 0.33920874713663, -0.1131887833012, 0
2271, 0.3100562456134, -0.069778048446441, 0
2272, 0.68572061742237, -0.12964164614919, 0
2273, 0.68863981416556, -0.11662915164206, 0
2274, 0.69405785373733, -0.11997609827352, 0
2275, 0.70222550408559, 0.070552784096691, 0
2276, 0.69808782243513, 0.22594550563583, 0
2277, 0.66775777598738, 0.22045206678908, 0
2278, 0.5611354055855, -0.18865419238983, 0
2279, 0.55170694491675, -0.15391808971101, 0
2280, 0.62799948365161, -0.16545193041725, 0
2281, 0.64597332812548, 0.23194859647309, 0
2282, 0.66507065862476, 0.1922481033755, 0
2283, 0.91803615245195, -0.14192397423889, 0
2284, 0.88946106954186, -0.11458188288056, 0
2285, 0.91713518365422, -0.11544095822248, 0
2286, 0.27608700171201, 0.16645453706204, 0
2287, 0.26985552850743, 0.12883468792277, 0
2288, 0.59921879060084, -0.17348780919531, 0
2289, 0.66146378084064, -0.14505609217752, 0
2290, 0.61484000890581, -0.15703060797514, 0
2291, 0.31491345670475, 0.20930362362126, 0
2292, 0.31445456591633, 0.2025184441196, 0
2293, 0.31778088193602, 0.20559175205536, 0
2294, 0.25025332201857, 0.050096096456208, 0
2295, 0.28416527736564, 0.070016592642854, 0
2296, 0.28951203086704, -0.016384508751566, 0
2297, 0.70792354604195, 0.11957243429388, 0
2298, 0.32850273688861, -0.10929046567831, 0
2299, 0.33244117717726, -0.10624037441411, 0
2300, 0.73097478015283, 0.056952079811491, 0
2301, 0.70835372308788, 0.099298279147139, 0
2302, 0.63073937612757, -0.15851566202012, 0
2303, 0.65285625398136, -0.14421158777921, 0
2304, 0.64297420592984, -0.17735885240319, 0
2305, 0.13884337899349, 0.087251208637423, 0
2306, 0.19182150490454, 0.03219872947756, 0
2307, 0.14159809732251, 0.060493489927525, 0
2308, 0.69566744244954, -0.12863961268032, 0
2309, 0.29659708930318, 0.18649491658808, 0
2310, 0.30272450594216, 0.18871045995052, 0
2311, 0.2434724279794, 0.1803290674694, 0
2312, 0.52185238003256, -0.16357037182307, 0
2313, 0.52321323333441, -0.15906376989095, 0
2314, 0.35254362914173, -0.11782943220517, 0
2315, 0.30088677769518, -0.020146911765256, 0
2316, 0.28543239114065, 0.046864096779067, 0
2317, 0.29050616833696, 0.011918423048597, 0
2318, 0.35837627138672, -0.18313452006828, 0
2319, 0.31200349341792, -0.10804822577338, 0
2320, 0.30812222292503, 0.19589240067672, 0
2321, 0.31128839442068, 0.19920542239816, 0
2322, 0.49959184185997, -0.14460882830992, 0
2323, 0.50757245457081, -0.14908797136011, 0
2324, 0.49495653000252, -0.15955544747588, 0
2325, 0.69309589215116, -0.10433482118915, 0
2326, 0.68931707999999, -0.13914007485301, 0
2327, 0.69556511222361, 0.10817207535515, 0
2328, 0.71158139537788, 0.055734397052319, 0
2329, 0.39204364185175, 0.25064390337059, 0
2330, 0.38890612819821, 0.24735588827742, 0
2331, 0.7045737615282, 0.26952454338423, 0
2332, 0.543536975886, -0.17509304666739, 0
2333, 0.5752801740361, -0.16861403188222, 0
2334, 0.66784770845011, -0.1473983224405, 0
2335, 0.66543266507812, -0.14321223531887, 0
2336, 0.31195952358364, -0.086674682827299, 0
2337, 0.41256074270101, -0.1502737179974, 0
2338, 0.36586991503584, -0.20382339200807, 0
2339, 0.38524624026887, -0.15836463990724, 0
2340, 0.72113099145857, -0.014308997340925, 0
2341, 0.71480816829975, -0.060042761386491, 0
2342, 0.71360821413568, -0.063961460094001, 0
2343, 0.25143709130384, 0.11362909819235, 0
2344, 0.26182789193078, 0.11888184308105, 0
2345, 0.27767141472859, 0.18662973291506, 0
2346, 0.27508833675954, 0.1318893447707, 0
2347, 0.31634852639062, -0.088716997508532, 0
2348, 0.31901928090916, -0.085679237779414, 0
2349, 0.24149021258333, 0.11644771699754, 0
2350, 0.2795374031369, 0.097278736265462, 0
2351, 0.21056752083687, 0.11106692405155, 0
2352, 0.71991464039865, -0.091361647383614, 0
2353, 0.69032241353931, -0.18559486934427, 0
2354, 0.73087772501128, -0.10323768881319, 0
2355, 0.69298400080729, 0.18369104264104, 0
2356, 0.74165661818178, 0.24457802485418, 0
2357, 0.32053163585197, -0.1092965058142, 0
2358, 0.32863749959997, -0.11879231658895, 0
2359, 0.32449117431252, -0.11454703979273, 0
2360, 0.67669158424461, 0.1903481510721, 0
2361, 0.71379062742008, 0.22284610363842, 0
2362, 0.67176964530528, 0.2288860970873, 0
2363, 0.71244694939578, 0.14091862929287, 0
2364, 0.60585174244976, 0.25764031190948, 0
2365, 0.62544742392969, 0.27023581835188, 0
2366, 0.62518939537035, 0.26275300009342, 0
2367, 0.61232537094563, 0.25504928653412, 0
2368, 0.3386302820394, 0.22076639905562, 0
2369, 0.52894207766207, -0.1555722882354, 0
2370, 0.5544038671355, -0.1750005806248, 0
2371, 0.28582377277934, 0.19116853671181, 0
2372, 0.24601848791404, 0.14027602031326, 0
2373, 0.29031091360829, 0.032913711003156, 0
2374, 0.26829133756655, 0.057851623164944, 0
2375, 0.35490787021832, -0.22027815987833, 0
2376, 0.4022034778596, -0.13362167989063, 0
2377, 0.69187180405996, 0.13877492866536, 0
2378, 0.66294627670157, 0.19801975777777, 0
2379, 0.68205458875017, 0.16204084298665, 0
2380, 0.64887692188506, 0.2230668011422, 0
2381, 0.73609914335234, 0.19891224840466, 0
2382, 0.68478718529179, 0.25959469903926, 0
2383, 0.44013359630377, 0.24949033177426, 0
2384, 0.45432128863837, 0.25487323009168, 0
2385, 0.3053587215516, -0.020555069635862, 0
2386, 0.29334579412658, 0.0027529557063014, 0
2387, 0.28962227564584, 0.020673846087056, 0
2388, 0.70689128361948, -0.10083219614587, 0
2389, 0.70250850163101, -0.097540984074888, 0
2390, 0.28599332288127, 0.094997939694023, 0
2391, 0.26703500276772, 0.079225395604246, 0
2392, 0.33278268001401, 0.20622868547528, 0
2393, 0.5498672527473, -0.15691454045321, 0
2394, 0.59700693657996, -0.16671996400077, 0
2395, 0.27766068531212, 0.01775079162045, 0
2396, 0.43582535422952, 0.26313892848391, 0
2397, 0.41917731231321, 0.25041084078992, 0
2398, 0.44527712136518, 0.25205723726923, 0
2399, 0.46282242482038, 0.27320135434368, 0
2400, 0.67446610869564, -0.12184624399042, 0
2401, 0.68219906518833, -0.12836251790763, 0
2402, 0.74697071027707, -0.050827251789592, 0
2403, 0.68721603741158, -0.1118016140983, 0
2404, 0.66600708193546, 0.20559038428794, 0
2405, 0.1330471708939, 0.1955766900254, 0
2406, 0.10611452204463, 0.22017755541875, 0
2407, 0.15841010815462, 0.22282774462747, 0
2408, 0.13226231509963, 0.22150265002311, 0
2409, 0.61356205985342, -0.17264418396827, 0
2410, 0.74952116826129, 0.068688318396751, 0
2411, 0.70545883873601, 0.059958792101636, 0
2412, 0.67076823227503, 0.19743892372329, 0
2413, 0.73935021828463, 0.037362492216767, 0
2414, 0.71324602119439, 0.014823647778074, 0
2415, 0.51074774141083, -0.16041124332781, 0
2416, 0.48143855626942, -0.15088342527622, 0
2417, 0.16461442411346, -0.16460396789617, 0
2418, 0.23006864089921, -0.057858867892679, 0
2419, 0.19141025675673, -0.16469694658702, 0
2420, 0.13807887777499, 0.14070261980199, 0
2421, 0.10801834658068, 0.1670019703, 0
2422, 0.1633814225489, 0.17078910299923, 0
2423, 0.13560365858074, 0.16852374332593, 0
2424, 0.33759420804269, -0.12345791891966, 0
2425, 0.33329689288254, -0.12177396898738, 0
2426, 0.68233451365368, -0.14168052500194, 0
2427, 0.69638461452656, -0.14047090040715, 0
2428, 0.71616133084503, 0.06051674682332, 0
2429, 0.3460382045164, -0.11701842599666, 0
2430, 0.26106756582128, 0.070485472303545, 0
2431, 0.27211968762653, 0.11073288106681, 0
2432, 0.67661566266473, -0.1188722775665, 0
2433, 0.41281801461707, -0.13716014343935, 0
2434, 0.35149631994102, -0.11119110054434, 0
2435, 0.35400861346072, -0.12060141138216, 0
2436, 0.30134353070317, 0.19520468701387, 0
2437, 0.3051763747427, 0.1924787004686, 0
2438, 0.4054401698899, -0.13485556384135, 0
2439, 0.36806031210725, -0.16145094111542, 0
2440, 0.91929235258029, -0.19405638765377, 0
2441, 0.91959782802119, -0.22029901969464, 0
2442, 0.68297979695042, -0.15324145469906, 0
2443, 0.67490131918475, -0.15060033538642, 0
2444, 0.67875753521404, -0.14730027298713, 0
2445, 0.74307368903628, 0.092086483979141, 0
2446, 0.18957121061315, 0.11509433022741, 0
2447, 0.13776900711817, 0.11399851945274, 0
2448, 0.53844518786011, -0.16263936904395, 0
2449, 0.54495864382749, -0.1646526178607, 0
2450, 0.89122407016641, 0.22074051692257, 0
2451, 0.86392260258356, 0.19730884105846, 0
2452, 0.83993969349444, 0.22409807671768, 0
2453, 0.86558188183043, 0.22241929682013, 0
2454, 0.78078605695423, -0.24268425355917, 0
2455, 0.71045799954528, -0.10759012115401, 0
2456, 0.75936190389384, -0.21279658003132, 0
2457, 0.74231669956075, -0.091714934228995, 0
2458, 0.27368412012053, 0.059433007660261, 0
2459, 0.31135191340372, -0.050121075777623, 0
2460, 0.28983443819502, 0.016397594362584, 0
2461, 0.20492188823729, -0.10155172617333, 0
2462, 0.38897009100424, -0.14649713363003, 0
2463, 0.65281876904622, 0.24043321320749, 0
2464, 0.7014404540869, 0.25469546985684, 0
2465, 0.67262998538629, -0.15885112860329, 0
2466, 0.66456158833337, -0.15440088416829, 0
2467, 0.6702388469182, -0.15312472552189, 0
2468, 0.29990310823523, -0.0098891875243113, 0
2469, 0.3001885899858, -0.030305326574861, 0
2470, 0.6474765210702, -0.18666019757063, 0
2471, 0.6035037212508, -0.1766608971366, 0
2472, 0.60197886154571, 0.27494719292226, 0
2473, 0.6339255007494, 0.26917733895006, 0
2474, 0.89140680829569, -0.16697777979937, 0
2475, 0.91866425251612, -0.16799018094633, 0
2476, 0.81277444277583, 0.2013299447479, 0
2477, 0.78774247119685, 0.23041905915479, 0
2478, 0.81467834462658, 0.22557145069795, 0
2479, 0.72052859027038, -0.057243772864095, 0
2480, 0.71614652491936, -0.056049858674074, 0
2481, 0.080346529714174, 0.19343086210892, 0
2482, 0.079651935101575, 0.22006563320239, 0
2483, 0.23735555398374, 0.13219389253343, 0
2484, 0.22978901120558, 0.12080670940635, 0
2485, 0.16434619402877, 0.11489169484737, 0
2486, 0.91812177459562, 0.21984211238239, 0
2487, 0.28608855536317, 0.14889070079208, 0
2488, 0.25152032146491, 0.15462351162632, 0
2489, 0.23704043400939, 0.26625218781104, 0
2490, 0.081537697034302, -0.19113134413281, 0
2491, 0.080806231633115, -0.21825215350674, 0
2492, 0.16561648689195, 0.088472072004905, 0
2493, 0.1901554337012, 0.092084825104216, 0
2494, 0.21023683053339, 0.093550286764666, 0
2495, 0.24494103891597, 0.067518555741951, 0
2496, 0.27677936580289, 0.09500159730865, 0
2497, 0.25323787158372, 0.069137100647212, 0
2498, 0.86394135621633, -0.1407058679022, 0
2499, 0.86473011923859, -0.16646035738496, 0
2500, 0.72540172932933, -0.02844278276229, 0
2501, 0.72014474418749, -0.0286448981566, 0
2502, 0.24397715444942, -0.21652681632639, 0
2503, 0.26952225264534, -0.21643934241383, 0
2504, 0.39863353652832, -0.13535986602419, 0
2505, 0.32837122413675, -0.16059322319971, 0
2506, 0.83383366820699, 0.17858478264135, 0
2507, 0.80659073289011, 0.15377508851878, 0
2508, 0.78956743404982, 0.18105253333831, 0
2509, 0.81139084826808, 0.18101260822099, 0
2510, 0.70699550781387, 0.12894378858648, 0
2511, 0.79891450795372, 0.090544398713724, 0
2512, 0.57899469136586, 0.27842614783181, 0
2513, 0.55499530267792, 0.29395661951621, 0
2514, 0.55040830689429, 0.27216468470907, 0
2515, 0.70752196482061, 0.075945085337714, 0
2516, 0.29301092807919, -0.21389596983547, 0
2517, 0.081142626628526, 0.16659128554843, 0
2518, 0.45045723866956, 0.25725436879512, 0
2519, 0.47196237242241, 0.26812822398884, 0
2520, 0.4521177862607, 0.27740488536858, 0
2521, 0.51712268453629, -0.21540772785392, 0
2522, 0.51706155032853, -0.18993528834101, 0
2523, 0.51675023672796, -0.20083068957781, 0
2524, 0.31004670659707, -0.092752546106957, 0
2525, 0.67270442755851, -0.27348402964248, 0
2526, 0.63581029353529, -0.1505577879355, 0
2527, 0.60827422584192, -0.21707896555164, 0
2528, 0.5113420288075, -0.15084263613916, 0
2529, 0.48790691323331, -0.15581849005409, 0
2530, 0.47071620950628, -0.14071452663122, 0
2531, 0.51879138611396, -0.17440951348706, 0
2532, 0.51788615038476, -0.18142287060237, 0
2533, 0.57842565632313, -0.16390875596713, 0
2534, 0.5355215820231, -0.17841179880157, 0
2535, 0.30258573341035, -0.10433159249714, 0
2536, 0.26468616028247, -0.11368187586359, 0
2537, 0.23479330525113, -0.087267665885555, 0
2538, 0.59047443567566, 0.2775933397446, 0
2539, 0.58526200400539, 0.2781436052399, 0
2540, 0.83646198529336, -0.19102217341042, 0
2541, 0.86178919404267, -0.11441003812704, 0
2542, 0.23942138900513, -0.008367014113232, 0
2543, 0.14320466059256, -0.11490445359214, 0
2544, 0.26062972261453, -0.074791780395417, 0
2545, 0.10998158283379, -0.16414984223526, 0
2546, 0.082398645046979, -0.16410399589081, 0
2547, 0.44022141436068, -0.18536680306903, 0
2548, 0.64982035586339, -0.1990835028206, 0
2549, 0.56686114955198, -0.18049221517286, 0
2550, 0.57145893361137, -0.20260413252878, 0
2551, 0.73721333952722, -0.052972650905477, 0
2552, 0.71882913837078, -0.13362488216241, 0
2553, 0.74968190861516, -0.14625724972191, 0
2554, 0.28098293284066, -0.12361381458172, 0
2555, 0.13733088074992, -0.16427724517765, 0
2556, 0.33828881707816, -0.18785967234463, 0
2557, 0.31823886981909, -0.16131269622533, 0
2558, 0.29672030382658, -0.055347101008326, 0
2559, 0.27085129037643, -0.020360463281964, 0
2560, 0.18712828692102, -0.079253476873986, 0
2561, 0.75769811472333, 0.098130915949674, 0
2562, 0.70150541723684, 0.12065263295531, 0
2563, 0.62370854474939, -0.15513800589126, 0
2564, 0.64969752378865, -0.23107464972676, 0
2565, 0.18237681291169, 0.24683077321539, 0
2566, 0.2681549504647, 0.23201244206983, 0
2567, 0.32002002147107, -0.17808316165688, 0
2568, 0.27857084992053, 0.2408964745771, 0
2569, 0.77259560122249, -0.10815512963686, 0
2570, 0.80486661782773, -0.14191909593872, 0
2571, 0.53447329137402, 0.27377490768875, 0
2572, 0.43434835137155, 0.25776679662707, 0
2573, 0.45751232595098, 0.26284365761325, 0
2574, 0.43234228242165, 0.24850701763163, 0
2575, 0.7227994953487, -0.080885196842574, 0
2576, 0.7008139984006, -0.17580335589, 0
2577, 0.51544987545727, 0.27745454633683, 0
2578, 0.74847423275453, 0.20728997113853, 0
2579, 0.70974096249314, 0.21343118586697, 0
2580, 0.67252191904961, 0.23999121055232, 0
2581, 0.32613410562072, -0.14720694456338, 0
2582, 0.3718238140714, -0.17094690075774, 0
2583, 0.21699765101905, -0.21680339313195, 0
2584, 0.65837702223051, 0.27646099642436, 0
2585, 0.6813308224605, 0.23329187212585, 0
2586, 0.20943829799229, 0.017951218176663, 0
2587, 0.20780360312277, 0.061169416546264, 0
2588, 0.23840466022464, 0.015588455334894, 0
2589, 0.22324461831663, 0.017408062902395, 0
2590, 0.6711756493832, 0.21062382149311, 0
2591, 0.43093298773948, 0.27084796003929, 0
2592, 0.31568192458355, -0.11519305005915, 0
2593, 0.73047816140698, 0.18237241525566, 0
2594, 0.65968923309959, 0.22971207193197, 0
2595, 0.65463036190787, 0.23322014188973, 0
2596, 0.73813581146567, -0.082633483553386, 0
2597, 0.80631176820835, -0.07060861544271, 0
2598, 0.68426700800807, -0.20466748287939, 0
2599, 0.67581244523459, -0.17821694472256, 0
2600, 0.67961785651186, -0.19041643116827, 0
2601, 0.77280433021399, 0.16274082772653, 0
2602, 0.7505991681836, 0.17390855354476, 0
2603, 0.76776009121014, 0.17807298512516, 0
2604, 0.21216173167569, 0.043013271888699, 0
2605, 0.27923841680641, 0.13826613685264, 0
2606, 0.22644243205615, 0.036813029047891, 0
2607, 0.21509372985861, 0.12849919544613, 0
2608, 0.35738385079701, 0.25186525398819, 0
2609, 0.40896812994531, 0.26903865202512, 0
2610, 0.75036779482225, -0.12961819286203, 0
2611, 0.74631819631237, -0.16492085542168, 0
2612, 0.32555631042802, -0.23499850288971, 0
2613, 0.55467356776637, 0.28743094906039, 0
2614, 0.40734829992653, -0.23087194297938, 0
2615, 0.29293699250797, -0.032200030435913, 0
2616, 0.17865538073985, -0.097871452956552, 0
2617, 0.72075093554307, -0.069610761713469, 0
2618, 0.73926643251264, -0.02950335408579, 0
2619, 0.74828040392594, -0.032031551227899, 0
2620, 0.76369275996887, -0.12857283047834, 0
2621, 0.69596223341481, -0.099323767570982, 0
2622, 0.72127179555206, -0.076360638410276, 0
2623, 0.74893405198289, -0.11502286634982, 0
2624, 0.34243197441705, 0.21958327382776, 0
2625, 0.34548332109251, 0.21792615718956, 0
2626, 0.35466614407601, 0.22037863001165, 0
2627, 0.66817104871325, -0.19383048953824, 0
2628, 0.44392002140235, 0.26654029860317, 0
2629, 0.41550879112718, 0.27924138553914, 0
2630, 0.46505827245993, 0.28181542228294, 0
2631, 0.30616314222977, 0.21932610953065, 0
2632, 0.31068648957503, 0.23046986529616, 0
2633, 0.20551015558425, 0.1975288752189, 0
2634, 0.36252252087996, 0.23442342859783, 0
2635, 0.39316534618041, 0.24457607799981, 0
2636, 0.19259934403665, 0.016705797699715, 0
2637, 0.63532752978102, 0.25093344869729, 0
2638, 0.6085476847191, 0.25534668407823, 0
2639, 0.28667199982745, -0.14987532375687, 0
2640, 0.27054362143767, -0.055272949816127, 0
2641, 0.85363497525035, 0.072673610641496, 0
2642, 0.82543078847855, 0.16103525828938, 0
2643, 0.61119151561985, 0.25707046431974, 0
2644, 0.62248014607093, 0.25222747054295, 0
2645, 0.6146079397363, 0.25788803373357, 0
2646, 0.72934468139058, -0.068349155395594, 0
2647, 0.73291292732889, -0.16077892898269, 0
2648, 0.31925648989283, 0.24281159211699, 0
2649, 0.31665423384963, 0.25426986412741, 0
2650, 0.34716285334569, 0.24996155540379, 0
2651, 0.34449951674105, 0.26014040627507, 0
2652, 0.80879825131087, -0.031531672843977, 0
2653, 0.71498062761631, 0.027679306542674, 0
2654, 0.8067434546655, -0.012693202318057, 0
2655, 0.22678748186039, 0.14177396176627, 0
2656, 0.4832821871798, -0.15629173521747, 0
2657, 0.44852309119077, -0.1735408877677, 0
2658, 0.51804446533341, -0.23392824747291, 0
2659, 0.4417363988978, -0.1992853150349, 0
2660, 0.39845256740822, 0.27570192276905, 0
2661, 0.38551319433271, 0.23948358913036, 0
2662, 0.40511808167877, 0.28844717036747, 0
2663, 0.54946365598265, 0.28831250618542, 0
2664, 0.48557754405284, 0.27800871797457, 0
2665, 0.68468099040848, 0.20459013545568, 0
2666, 0.69050151144021, 0.12494559743781, 0
2667, 0.67289171719685, 0.1809801965321, 0
2668, 0.68959522684186, -0.22249772298689, 0
2669, 0.75331214703559, -0.06614026184307, 0
2670, 0.49623074492625, 0.27470430510142, 0
2671, 0.53920847429393, 0.28347668679694, 0
2672, 0.41090797853143, 0.26134103126692, 0
2673, 0.70128374006197, 0.11307300903221, 0
2674, 0.28064892241676, 0.13406692682706, 0
2675, 0.70943894856821, 0.081128694153305, 0
2676, 0.85014373505693, 0.098282269525878, 0
2677, 0.73175284691155, -0.028553721995343, 0
2678, 0.22833190964006, -0.10280533733231, 0
2679, 0.31154706571132, -0.080314795398134, 0
2680, 0.22489406105535, 0.19754685230852, 0
2681, 0.64483978014831, 0.26723626053002, 0
2682, 0.46500427861136, -0.1435911524477, 0
2683, 0.48044050429814, -0.17281220958874, 0
2684, 0.76449584794037, -0.094112780382597, 0
2685, 0.38412077555585, 0.24990329761972, 0
2686, 0.36819420566887, 0.28511239359701, 0
2687, 0.56576526311376, 0.27968105398632, 0
2688, 0.286282097663, 0.083448524887412, 0
2689, 0.41288633048353, 0.25478844507785, 0
2690, 0.6034185278257, -0.23425287442146, 0
2691, 0.60032534231332, -0.16876380332083, 0
2692, 0.76762063914552, 0.27846881088727, 0
2693, 0.68082351893691, -0.16522628702918, 0
2694, 0.67372091445395, -0.16802286941736, 0
2695, 0.68618483250829, 0.16802114385732, 0
2696, 0.32926302766761, 0.27052626806073, 0
2697, 0.35126167874377, 0.24254632158448, 0
2698, 0.46826895701365, -0.15082943412594, 0
2699, 0.71050026442702, 0.026088374906135, 0
2700, 0.62028440430915, -0.16114850228279, 0
2701, 0.56481672510216, -0.16623397929549, 0
2702, 0.53877405846602, -0.23433344479857, 0
2703, 0.27930007164153, -0.0067788591551197, 0
2704, 0.29793530175442, -0.016677583871371, 0
2705, 0.55102914314437, -0.15503097416697, 0
2706, 0.50807295362331, -0.16457628509037, 0
2707, 0.52027401177235, -0.16860328030355, 0
2708, 0.78403266145425, -0.21557042695023, 0
2709, 0.48574588569559, -0.16277518501947, 0
2710, 0.5133373293141, -0.15628410263159, 0
2711, 0.47257355743746, -0.17984254137093, 0
2712, 0.69166576168643, 0.13474189761387, 0
2713, 0.70539653456874, 0.078005119705729, 0
2714, 0.47435273526449, 0.27586291208526, 0
2715, 0.47186180768928, 0.28305883807167, 0
2716, 0.71824672536798, 0.10149634712437, 0
2717, 0.58370959256558, -0.16412559447104, 0
2718, 0.5857760664603, -0.15970095612028, 0
2719, 0.28051012483953, 0.20411458011821, 0
2720, 0.30125385331652, 0.22618298772642, 0
2721, 0.41880578317606, -0.1826362868159, 0
2722, 0.29160997039753, 0.047647898468744, 0
2723, 0.27557942582434, 0.067211972467218, 0
2724, 0.27405735832536, 0.091113306527794, 0
2725, 0.25869906814611, 0.10353686486387, 0
2726, 0.25536165176576, 0.24580627994996, 0
2727, 0.46245736604615, -0.14978720194185, 0
2728, 0.68045203399694, -0.12298789371257, 0
2729, 0.68559471334362, -0.10766930625589, 0
2730, 0.69581298743004, -0.10900730308618, 0
2731, 0.73706004915305, 0.22888669384712, 0
2732, 0.67239802682474, 0.27486292695747, 0
2733, 0.29210650736787, 0.20514412236448, 0
2734, 0.29356021689508, 0.19423340499491, 0
2735, 0.29672501903552, 0.20017440468917, 0
2736, 0.57690640183111, -0.18148720065266, 0
2737, 0.71966545674842, -0.023870329251254, 0
2738, 0.22878616336227, 0.23926709183015, 0
2739, 0.18740815680112, 0.17167811654054, 0
2740, 0.24490108042825, -0.1183749735087, 0
2741, 0.3160385275345, -0.098054115378572, 0
2742, 0.31787030904178, -0.1037628625792, 0
2743, 0.26950605146419, 0.05109037554301, 0
2744, 0.45730399880698, -0.17240125689887, 0
2745, 0.26461523945744, 0.019555969030789, 0
2746, 0.6838751023905, 0.18404673378475, 0
2747, 0.68183309901687, 0.17682482668485, 0
2748, 0.7638134297873, 0.070971760454528, 0
2749, 0.71807949276102, 0.020705388325434, 0
2750, 0.28894037172867, 0.066971100121583, 0
2751, 0.24694622584212, 0.044510655926459, 0
2752, 0.39241501676492, -0.13268155306158, 0
2753, 0.2623815414349, 0.055907017857062, 0
2754, 0.27131722001045, 0.038657965049503, 0
2755, 0.44851532303528, -0.1408629259045, 0
2756, 0.43071033145403, -0.1468380719749, 0
2757, 0.72987303649514, -0.094187759140483, 0
2758, 0.76839250049476, -0.065367584860182, 0
2759, 0.62788655926901, -0.15388096430419, 0
2760, 0.35554122285376, 0.27197078703343, 0
2761, 0.37594407698262, 0.2422137932389, 0
2762, 0.26941132100054, 0.14145604273152, 0
2763, 0.27751153539573, 0.12852659281223, 0
2764, 0.76598123512131, -0.0039623955994018, 0
2765, 0.24678230651109, 0.22925454063541, 0
2766, 0.41048569894068, -0.1426273401465, 0
2767, 0.41365195821422, -0.16870438511694, 0
2768, 0.39767962810101, -0.13990142482812, 0
2769, 0.65925157462958, -0.15998084470098, 0
2770, 0.7261177689891, -0.079925544433672, 0
2771, 0.31609346848319, 0.21816116060452, 0
2772, 0.32107933913822, 0.22623991986953, 0
2773, 0.32225228222465, 0.22029329345472, 0
2774, 0.4001662994241, -0.14317957309814, 0
2775, 0.73579523665881, -0.093684676392405, 0
2776, 0.29890377474966, -0.034555107938259, 0
2777, 0.75781161519535, -0.036085780355164, 0
2778, 0.7648359770682, -0.14669295337238, 0
2779, 0.28659153409648, 0.079306067505006, 0
2780, 0.4491689079592, 0.26334035081957, 0
2781, 0.54234633675279, -0.15852850282743, 0
2782, 0.74125299724091, -0.18672963448489, 0
2783, 0.72477129776352, -0.023268798315128, 0
2784, 0.27819922857325, 0.19523087068838, 0
2785, 0.28016598559726, 0.17799463211908, 0
2786, 0.31159976139083, -0.12509872638227, 0
2787, 0.35279329221166, -0.24246240315449, 0
2788, 0.72395763285222, 0.051648275550936, 0
2789, 0.85755920963941, 0.17339223383439, 0
2790, 0.26781726479659, 0.11703531918067, 0
2791, 0.67931754253653, 0.18062011822025, 0
2792, 0.6457688279567, 0.24766178313057, 0
2793, 0.6795275125853, 0.19428255947652, 0
2794, 0.30973126808573, -0.099772220484372, 0
2795, 0.27574051300435, 0.15668201269701, 0
2796, 0.70180262054454, 0.13285844308165, 0
2797, 0.68804037213106, 0.16312518698784, 0
2798, 0.25158214274615, 0.02863707265019, 0
2799, 0.26585600571559, -0.06428124482582, 0
2800, 0.74506851416921, -0.014749409116011, 0
2801, 0.75102217203481, 0.05599274374559, 0
2802, 0.61895990125973, 0.25791076864153, 0
2803, 0.59864370366684, 0.28328718577569, 0
2804, 0.63922047390641, 0.24581713706641, 0
2805, 0.67772783117682, -0.13064978828684, 0
2806, 0.68968501761151, -0.1225586496768, 0
2807, 0.43922772834542, 0.25704332353929, 0
2808, 0.67016099274616, 0.21554372172664, 0
2809, 0.34855439348183, 0.22604270289865, 0
2810, 0.76157947216606, 0.084846529454572, 0
2811, 0.32016687606352, 0.23356717524371, 0
2812, 0.21411876836065, -0.017986666392671, 0
2813, 0.23566059924811, 0.064838591442274, 0
2814, 0.79479463647181, 0.10764366816935, 0
2815, 0.82582386992471, 0.07143772591475, 0
2816, 0.65451601411529, -0.14995315467131, 0
2817, 0.54548998193238, -0.15550898266448, 0
2818, 0.61056038657806, -0.15758988295369, 0
2819, 0.53851750544158, -0.18478887344475, 0
2820, 0.31017404017443, 0.21396997886112, 0
2821, 0.63062502645303, -0.17187538958811, 0
2822, 0.55586570400294, -0.16792485923711, 0
2823, 0.4038605523259, 0.25105768031309, 0
2824, 0.72469277922783, 0.044962988056843, 0
2825, 0.27797566206692, 0.22150223596036, 0
2826, 0.33329492527121, 0.21733082473747, 0
2827, 0.71464670695073, 0.0016773853209139, 0
2828, 0.68783211414477, -0.16075295535776, 0
2829, 0.60297500857083, 0.2667094852387, 0
2830, 0.66689528873538, 0.25280902166123, 0
2831, 0.29725980262721, 0.26193557994767, 0
2832, 0.75637091881114, -0.08264290998376, 0
2833, 0.67218737152506, -0.12490352124808, 0
2834, 0.68549786412874, -0.11863059606778, 0
2835, 0.69009753937085, -0.12999499583983, 0
2836, 0.46998747757878, 0.26196778316815, 0
2837, 0.68210004588415, -0.11656103968461, 0
2838, 0.3156100772364, -0.093082598910913, 0
2839, 0.59153702630268, -0.19945635262673, 0
2840, 0.28763781928235, 0.17706061198779, 0
2841, 0.44166678770082, -0.1476372461102, 0
2842, 0.67657426276625, 0.18403368482638, 0
2843, 0.72278009716578, 0.091994906615572, 0
2844, 0.46994197581706, -0.19703552426101, 0
2845, 0.2703922203467, 0.065541777169183, 0
2846, 0.67502793380702, 0.19621048870855, 0
2847, 0.75673620529398, -0.015329840375825, 0
2848, 0.47223416290144, -0.15883193530375, 0
2849, 0.55708157623841, -0.16255338728149, 0
2850, 0.68805051176159, -0.1042995535858, 0
2851, 0.71386347486805, 0.20009607554851, 0
2852, 0.27357927809262, 0.12579730622923, 0
2853, 0.22523594193867, 0.21676319812852, 0
2854, 0.75836442487305, -0.025466301984381, 0
2855, 0.22861979945716, 0.083410282570193, 0
2856, 0.76199756093604, 0.020533473141478, 0
2857, 0.6941859455368, 0.11220017230634, 0
2858, 0.5467368914238, 0.27285578656189, 0
2859, 0.71930051547246, -0.098235814528677, 0
2860, 0.66984573147748, 0.1941646608454, 0
2861, 0.53831761852455, 0.28890287596784, 0
2862, 0.67797262495594, 0.20562579158767, 0
2863, 0.64432685854118, -0.15800444926382, 0
2864, 0.65906868102969, 0.23809136599905, 0
2865, 0.39082955946648, 0.25921860617349, 0
2866, 0.48381604545731, -0.14625799631223, 0
2867, 0.39574939844617, 0.25396331321547, 0
2868, 0.58568636298743, -0.17377158951894, 0
2869, 0.72981079277094, -0.12580558934701, 0
2870, 0.23946527303544, 0.10571210388452, 0
2871, 0.3688877556928, -0.12646937588331, 0
2872, 0.22719831515336, -0.012329617890006, 0
2873, 0.34107570609709, -0.1452563679806, 0
2874, 0.34515132035929, 0.21388723863265, 0
2875, 0.73183332233466, 0.041768344665571, 0
2876, 0.28391298576939, 0.26081611925113, 0
2877, 0.34632766524234, -0.19863969840063, 0
2878, 0.30436454775379, 0.2061157278144, 0
2879, 0.21652388251091, -0.16376372498584, 0
2880, 0.48961178495315, -0.17080140703945, 0
2881, 0.35127587781626, 0.21818078108112, 0
2882, 0.72492519990103, -0.062564588300759, 0
2883, 0.2466832161673, 0.12589707809231, 0
2884, 0.64236353369213, 0.23800900165841, 0
2885, 0.50228076186981, 0.28145413755949, 0
2886, 0.33743670001624, -0.13692550828784, 0
2887, 0.20898466345502, 0.17610476603022, 0
2888, 0.22662923197129, 0.094436963596616, 0
2889, 0.37528612031096, 0.23808799855208, 0
2890, 0.33152354732925, -0.17357828212154, 0
2891, 0.69795943391886, 0.14608140259017, 0
2892, 0.35909719564675, 0.24504997077151, 0
2893, 0.64796979829786, -0.14311946430687, 0
2894, 0.71109900988955, 0.086986519159502, 0
2895, 0.84274521850457, 0.12095202000509, 0
2896, 0.22386253671842, 0.02728137940191, 0
2897, 0.58630667312176, -0.1880718474124, 0
2898, 0.27292934809317, 0.08537765398835, 0
2899, 0.61350607649899, 0.26190959450194, 0
2900, 0.68765769102288, 0.13730795738869, 0
2901, 0.25232253252407, -0.018547905280883, 0
2902, 0.39594859911616, -0.18694934658276, 0
2903, 0.61849216594304, -0.18953823595745, 0
2904, 0.7309674905952, -0.11373677430955, 0
2905, 0.60468821259639, -0.16620550628561, 0
2906, 0.65008098161191, 0.22938506771158, 0
2907, 0.72291708434724, 0.0067344228914556, 0
2908, 0.70709168989773, 0.06825676389295, 0
2909, 0.29118710166908, 0.17101644008943, 0
2910, 0.46619882619517, -0.14630643254098, 0
2911, 0.7187600547099, 0.041825037964153, 0
2912, 0.35216597030624, -0.13177703607476, 0
2913, 0.28227292891864, 0.083807500286814, 0
2914, 0.42914006925689, -0.18422651988894, 0
2915, 0.77682910529131, 0.14782426758817, 0
2916, 0.70820558153484, -0.16616025050526, 0
2917, 0.69135815657905, 0.13105408839852, 0
2918, 0.71218679191861, 0.1073707195677, 0
2919, 0.71133233709699, 0.0224960763586, 0
2920, 0.28794221101552, 0.070966239063593, 0
2921, 0.73500909430202, -0.059038906163851, 0
2922, 0.71646876033211, -0.083320046669649, 0
2923, 0.73916245872207, -0.12861982489804, 0
2924, 0.4983729811027, 0.29336320592276, 0
2925, 0.78279652527942, -0.16665897921803, 0
2926, 0.73833326055718, -0.022528568759912, 0
2927, 0.2600301768558, 0.27530492335609, 0
2928, 0.29547916888132, -0.0016911222658516, 0
2929, 0.52112302218072, 0.28858631470961, 0
2930, 0.54737381339356, -0.17988395885945, 0
2931, 0.451088898399, 0.25298802672668, 0
2932, 0.38701887676094, 0.25445149450703, 0
2933, 0.40700121402087, 0.27802783862273, 0
2934, 0.19402871308876, -0.14087534606266, 0
2935, 0.43783734621827, 0.26929838341101, 0
2936, 0.78823936880528, -0.045815837805753, 0
2937, 0.28166637142727, -0.064029975180785, 0
2938, 0.34425747954814, 0.22889156858145, 0
2939, 0.78296950521404, -0.19084609393069, 0
2940, 0.76004808338373, -0.11277717754752, 0
2941, 0.23177416335712, -0.030727058634124, 0
2942, 0.24137585539719, -0.13755218103765, 0
2943, 0.87241578575765, 0.13589913103209, 0
2944, 0.67573209898039, 0.22274256323011, 0
2945, 0.73052083822686, 0.21665886442851, 0
2946, 0.29585200098476, 0.16610617100614, 0
2947, 0.6974566188109, -0.19843844195671, 0
2948, 0.72188331534628, -0.23617525474665, 0
2949, 0.70688053960226, -0.11632565100274, 0
2950, 0.77176308997313, -0.040539260973797, 0
2951, 0.25626152811691, 0.14533689444441, 0
2952, 0.27168553544342, 0.21110662759833, 0
2953, 0.6110103316504, 0.25341608781155, 0
2954, 0.59610239193783, 0.27652347797671, 0
2955, 0.21379393372588, 0.079797184659645, 0
2956, 0.17329403497519, 0.06137183539668, 0
2957, 0.18463290668481, -0.0083838198501812, 0
2958, 0.16298827605984, -0.016846630843256, 0
2959, 0.24770094376384, -0.038948609282555, 0
2960, 0.17217916947581, -0.11836643564785, 0
2961, 0.2177690682709, 0.0008263588037167, 0
2962, 0.13288101588425, -0.029992738984185, 0
2963, 0.26196551022119, -0.044229555032773, 0
2964, 0.44673365555272, -0.14765761618324, 0
2965, 0.49497297082568, -0.21050395104596, 0
2966, 0.78631928896454, -0.10052756248588, 0
2967, 0.72981541486509, -0.077946382050332, 0
2968, 0.77951918460131, -0.12520299813142, 0
2969, 0.79878380101972, -0.11896552574536, 0
2970, 0.71206053051967, -0.12597434817022, 0
2971, 0.83162976791215, -0.13854067003767, 0
2972, 0.71963773612832, -0.07750637641719, 0
2973, 0.73858906155244, -0.045880589598506, 0
2974, 0.71563561090229, -0.11525932099165, 0
2975, 0.8244301126853, -0.10821244642543, 0
2976, 0.33689531171842, -0.15749816748256, 0
2977, 0.33376762627572, -0.14664451570551, 0
2978, 0.33164342374276, -0.13680954282252, 0
2979, 0.34911831398757, -0.16396289906795, 0
2980, 0.35677492592567, -0.15830022383807, 0
2981, 0.36447668057619, -0.15191767801886, 0
2982, 0.35895745988492, -0.12783097814462, 0
2983, 0.36273280974369, -0.13232225730847, 0
2984, 0.36719963057024, -0.13746991084245, 0
2985, 0.37809860812519, -0.13180983957274, 0
2986, 0.37886356646177, -0.16395528305385, 0
2987, 0.37554473348422, -0.1549215014238, 0
2988, 0.47803739352089, -0.15568984052011, 0
2989, 0.35688205918378, -0.19539333333425, 0
2990, 0.34081174175116, -0.16867609486745, 0
2991, 0.38318947675196, -0.17217498144397, 0
2992, 0.37341788074187, -0.14366445111299, 0
2993, 0.56474574585399, -0.16116986487431, 0
2994, 0.53308665762554, -0.16350346604468, 0
2995, 0.57666088876213, -0.15925395207587, 0
2996, 0.55024568750821, -0.17150582208246, 0
2997, 0.30791615223057, -0.031122622247393, 0
2998, 0.26907704672899, 0.034255441135287, 0
******* E L E M E N T S *************
*ELEMENT, type=CPS4, ELSET=Surface1
1, 2671, 1536, 1512, 1622
2, 2924, 526, 105, 96
3, 1511, 829, 93, 103
4, 20, 13, 1300, 1297
5, 1297, 1300, 1298, 510
6, 1300, 1299, 511, 1298
7, 13, 21, 1299, 1300
8, 1301, 1304, 36, 44
9, 1304, 1302, 43, 36
10, 2455, 914, 952, 2388
11, 571, 1307, 1308, 1305
12, 2001, 2993, 2111, 2849
13, 1308, 27, 31, 1306
14, 1307, 30, 27, 1308
15, 1309, 2628, 2780, 1485
16, 2630, 1357, 2714, 2715
17, 1615, 2609, 2672, 1801
18, 1276, 1878, 282, 376
19, 148, 138, 1319, 1316
20, 1316, 1319, 1317, 534
21, 1319, 1318, 533, 1317
22, 138, 149, 1318, 1319
23, 65, 55, 1323, 1320
24, 1320, 1323, 1321, 566
25, 1323, 1322, 538, 1321
26, 55, 66, 1322, 1323
27, 1333, 695, 658, 2588
28, 2750, 665, 415, 244
29, 667, 713, 666, 1312
30, 1328, 417, 242, 660
31, 2065, 1326, 2203, 665
32, 567, 1331, 1332, 1330
33, 1330, 1332, 1320, 566
34, 1332, 54, 65, 1320
35, 1331, 64, 54, 1332
36, 669, 1817, 233, 425
37, 1893, 1325, 2458, 2374
38, 1327, 2373, 713, 667
39, 143, 133, 1338, 1335
40, 1335, 1338, 1336, 516
41, 1338, 1337, 529, 1336
42, 133, 144, 1337, 1338
43, 63, 53, 1341, 1339
44, 1339, 1341, 1340, 568
45, 1341, 1331, 567, 1340
46, 53, 64, 1331, 1341
47, 147, 137, 1344, 1342
48, 1342, 1344, 1343, 535
49, 1344, 1316, 534, 1343
50, 137, 148, 1316, 1344
51, 62, 52, 1347, 1345
52, 1345, 1347, 1346, 569
53, 1347, 1339, 568, 1346
54, 52, 63, 1339, 1347
55, 531, 1349, 1350, 1348
56, 1348, 1350, 1342, 535
57, 1350, 136, 147, 1342
58, 1349, 146, 136, 1350
59, 2194, 2824, 893, 2875
60, 1057, 1236, 869, 2168
61, 1968, 895, 884, 1967
62, 578, 1355, 1356, 1353
63, 1353, 1356, 1354, 574
64, 1356, 49, 60, 1354
65, 1355, 59, 49, 1356
66, 2518, 1793, 2931, 2384
67, 1800, 1615, 1801, 1283
68, 625, 2662, 2933, 2629
69, 721, 1363, 2962, 1974
70, 668, 431, 228, 2459
71, 508, 1365, 1366, 1364
72, 1364, 1366, 1297, 510
73, 1366, 12, 20, 1297
74, 1365, 19, 12, 1366
75, 2374, 2458, 2845, 1484
76, 2386, 2928, 235, 423
77, 386, 273, 1372, 1370
78, 1370, 1372, 1152, 624
79, 1372, 1371, 623, 1152
80, 273, 385, 1371, 1372
81, 1147, 2386, 423, 236
82, 2959, 2100, 1165, 2941
83, 2092, 2012, 1374, 769
84, 2755, 1265, 206, 452
85, 2683, 1472, 2848, 760
86, 1955, 2091, 1532, 980
87, 623, 1371, 1380, 1378
88, 1378, 1380, 1379, 622
89, 1380, 274, 384, 1379
90, 1371, 385, 274, 1380
91, 859, 842, 857, 856
92, 1806, 339, 320, 2172
93, 1182, 868, 892, 1983
94, 1396, 2827, 1204, 1384
95, 2699, 2192, 503, 156
96, 1242, 1756, 1243, 1601
97, 2128, 1460, 2783, 2090
98, 2315, 693, 2385, 1817
99, 1325, 1665, 689, 2458
100, 1084, 1458, 1581, 2219
101, 792, 2704, 669, 2468
102, 1394, 332, 327, 1594
103, 503, 2192, 2160, 155
104, 1116, 1976, 2191, 875
105, 2217, 326, 332, 1394
106, 608, 839, 1390, 1463
107, 2861, 1785, 1269, 1294
108, 1463, 1390, 1536, 2671
109, 1822, 1783, 832, 526
110, 1487, 2935, 2628, 1309
111, 607, 1310, 1530, 2399
112, 1358, 2397, 615, 2265
113, 2847, 1385, 2764, 1262
114, 558, 1061, 2173, 934
115, 897, 1116, 875, 2218
116, 2653, 2089, 2192, 2699
117, 2675, 1922, 2713, 2515
118, 884, 1386, 931, 2749
119, 1401, 161, 497, 1399
120, 1400, 498, 161, 1401
121, 2012, 2013, 2010, 1374
122, 761, 2657, 1555, 2547
123, 1474, 2092, 769, 1403
124, 775, 1092, 2047, 772
125, 21, 14, 1407, 1299
126, 1299, 1407, 1405, 511
127, 1407, 1406, 512, 1405
128, 14, 22, 1406, 1407
129, 1767, 2705, 2279, 984
130, 963, 2521, 2658, 2702
131, 1136, 2819, 2534, 973
132, 2369, 2116, 2002, 1410
133, 1815, 2295, 681, 2183
134, 1334, 2554, 1367, 1282
135, 2798, 1172, 1869, 1997
136, 389, 270, 1417, 1414
137, 1414, 1417, 1415, 591
138, 1417, 1416, 594, 1415
139, 270, 388, 1416, 1417
140, 972, 190, 468, 1409
141, 2114, 1779, 2116, 2369
142, 2549, 2736, 1799, 2110
143, 2370, 2085, 2822, 2996
144, 149, 139, 1423, 1318
145, 1318, 1423, 1421, 533
146, 1423, 1422, 532, 1421
147, 139, 150, 1422, 1423
148, 2262, 1157, 2511, 889
149, 2106, 2255, 1976, 1116
150, 1241, 564, 2099, 1506
151, 878, 1397, 898, 2918
152, 750, 1215, 1091, 2045
153, 2530, 455, 204, 2185
154, 1377, 2530, 2185, 1427
155, 144, 134, 1432, 1337
156, 1337, 1432, 1430, 529
157, 1432, 1431, 530, 1430
158, 134, 145, 1431, 1432
159, 856, 857, 346, 313
160, 1903, 2793, 2360, 861
161, 1965, 1963, 2282, 860
162, 592, 1438, 1439, 1437
163, 1437, 1439, 1414, 591
164, 1439, 269, 389, 1414
165, 1438, 390, 269, 1439
166, 2202, 1328, 660, 1329
167, 1368, 2387, 421, 238
168, 2845, 2723, 1794, 2184
169, 29, 26, 1445, 1443
170, 1443, 1445, 1444, 536
171, 1445, 1307, 571, 1444
172, 26, 30, 1307, 1445
173, 2195, 1851, 2797, 1808
174, 1184, 2117, 337, 322
175, 1978, 2168, 1397, 878
176, 2033, 2032, 1813, 559
177, 1449, 1650, 597, 1450
178, 1449, 1450, 1438, 592
179, 1450, 268, 390, 1438
180, 1652, 641, 2938, 640
181, 81, 70, 1454, 1451
182, 1451, 1454, 1452, 540
183, 1454, 1453, 539, 1452
184, 70, 82, 1453, 1454
185, 545, 2746, 2791, 2747
186, 1808, 2797, 2379, 872
187, 554, 2747, 1809, 854
188, 2537, 795, 2461, 2678
189, 795, 705, 794, 2560
190, 1313, 802, 710, 797
191, 2327, 335, 324, 1239
192, 926, 2340, 1460, 2128
193, 1977, 927, 158, 500
194, 1546, 160, 498, 1400
195, 2275, 877, 328, 330
196, 563, 2891, 858, 2087
197, 1851, 1456, 2695, 2797
198, 526, 832, 95, 105
199, 1269, 2513, 101, 92
200, 1464, 1296, 1064, 828
201, 550, 370, 289, 1876
202, 44, 37, 1469, 1301
203, 1301, 1469, 1467, 576
204, 1469, 1468, 577, 1467
205, 37, 45, 1468, 1469
206, 769, 1374, 1404, 766
207, 2064, 197, 461, 765
208, 2095, 754, 207, 451
209, 768, 1955, 980, 1402
210, 1533, 766, 1470, 983
211, 2255, 883, 1519, 1976
212, 2089, 883, 2163, 882
213, 1385, 2161, 1475, 2764
214, 1242, 1601, 1262, 2107
215, 1420, 964, 1833, 987
216, 1135, 1480, 2312, 2707
217, 1480, 2994, 1779, 2114
218, 594, 1416, 1483, 1481
219, 1481, 1483, 1482, 603
220, 1483, 271, 387, 1482
221, 1416, 388, 271, 1483
222, 2920, 2750, 244, 414
223, 2295, 1244, 2750, 2920
224, 1517, 230, 428, 2997
225, 1274, 278, 380, 2383
226, 1393, 2520, 1284, 1792
227, 615, 276, 382, 2265
228, 1393, 1792, 99, 109
229, 936, 1490, 1491, 1488
230, 1488, 1491, 1489, 938
231, 1491, 165, 493, 1489
232, 1490, 494, 165, 1491
233, 1637, 1991, 874, 1667
234, 848, 815, 2078, 1725
235, 2731, 2945, 2578, 1810
236, 1500, 1410, 463, 196
237, 1614, 1824, 472, 187
238, 1498, 28, 3, 1497
239, 1306, 31, 28, 1498
240, 1723, 751, 748, 738
241, 757, 211, 447, 2438
242, 2339, 2105, 2987, 2986
243, 1214, 2339, 2986, 2991
244, 969, 1136, 2522, 2523
245, 1409, 468, 191, 1271
246, 2964, 1986, 2755, 754
247, 2844, 1540, 727, 2006
248, 1275, 1814, 98, 108
249, 2629, 2933, 2609, 1615
250, 2858, 292, 366, 2514
251, 2785, 2840, 2252, 2345
252, 2795, 2227, 1048, 1105
253, 657, 673, 654, 1504
254, 2035, 647, 255, 403
255, 1506, 2099, 1240, 865
256, 1923, 2097, 813, 877
257, 881, 2410, 2748, 2810
258, 871, 2328, 1070, 2174
259, 2047, 1092, 1984, 1986
260, 1987, 2767, 755, 2721
261, 1427, 2185, 759, 2682
262, 2727, 1217, 1426, 2124
263, 1140, 551, 97, 107
264, 1784, 365, 294, 1821
265, 1627, 2858, 2514, 1142
266, 831, 514, 2664, 1877
267, 384, 275, 1515, 1379
268, 1379, 1515, 1089, 622
269, 1515, 1514, 628, 1089
270, 275, 383, 1514, 1515
271, 1457, 688, 2068, 2271
272, 688, 2679, 720, 2068
273, 2102, 2942, 1042, 2225
274, 2652, 922, 2016, 2654
275, 1204, 499, 160, 1546
276, 2258, 2112, 900, 894
277, 2211, 771, 208, 450
278, 2045, 1091, 758, 1586
279, 1555, 1428, 2914, 2547
280, 2391, 1578, 2430, 2184
281, 2998, 2000, 1327, 2754
282, 2138, 2141, 2041, 683
283, 1792, 1275, 108, 99
284, 2398, 2266, 611, 1802
285, 1528, 625, 2629, 1359
286, 1955, 2415, 2710, 2091
287, 2706, 2011, 2063, 2415
288, 2062, 1509, 2324, 773
289, 2265, 382, 277, 1311
290, 1535, 291, 367, 609
291, 1537, 1141, 839, 608
292, 1575, 1819, 1628, 838
293, 755, 2147, 2902, 2103
294, 1943, 311, 347, 2282
295, 852, 351, 308, 815
296, 959, 758, 2532, 2531
297, 1566, 772, 1531, 2744
298, 1509, 762, 2706, 768
299, 1402, 980, 2092, 1474
300, 2125, 747, 1987, 1428
301, 2721, 755, 2103, 1885
302, 2337, 2223, 2766, 2073
303, 1846, 753, 2530, 1377
304, 2160, 882, 923, 885
305, 2129, 1966, 2414, 927
306, 2856, 2257, 1545, 1477
307, 2009, 1206, 2129, 2907
308, 824, 552, 547, 2829
309, 1635, 546, 1894, 1897
310, 2803, 553, 2538, 2954
311, 841, 1739, 552, 824
312, 527, 290, 368, 2571
313, 2664, 1464, 828, 1072
314, 1062, 1575, 838, 2512
315, 610, 2687, 1550, 1534
316, 2174, 1070, 153, 505
317, 1168, 1207, 2428, 513
318, 1595, 333, 326, 2217
319, 934, 2173, 1637, 1057
320, 2105, 1213, 2992, 2987
321, 1523, 2774, 2768, 1212
322, 2841, 2964, 754, 2095
323, 2093, 1554, 2148, 2125
324, 2709, 773, 2529, 2656
325, 1986, 1984, 1265, 2755
326, 46, 39, 1558, 1556
327, 1556, 1558, 1557, 579
328, 1558, 47, 58, 1557
329, 39, 4, 47, 1558
330, 853, 2464, 2382, 1492
331, 2412, 1962, 851, 2860
332, 2579, 2149, 2851, 1560
333, 857, 860, 312, 346
334, 1849, 2803, 2954, 2472
335, 1741, 1099, 356, 303
336, 1563, 1849, 2472, 1100
337, 1740, 361, 298, 1739
338, 2985, 1884, 444, 215
339, 1403, 1533, 770, 1544
340, 1227, 736, 2752, 1553
341, 653, 1525, 2040, 1180
342, 1753, 2311, 1681, 1211
343, 1775, 1774, 1179, 684
344, 632, 1571, 1572, 1569
345, 1569, 1572, 1570, 630
346, 1572, 261, 397, 1570
347, 1571, 398, 261, 1572
348, 1073, 374, 285, 1296
349, 1392, 1256, 1629, 1805
350, 1622, 1512, 1268, 837
351, 1852, 1270, 1784, 1734
352, 828, 1064, 830, 2670
353, 833, 1074, 94, 104
354, 1536, 527, 2571, 1512
355, 681, 1526, 2779, 652
356, 2688, 246, 412, 679
357, 2141, 1527, 2390, 2041
358, 1578, 2139, 2497, 2430
359, 1989, 433, 226, 1281
360, 2385, 1988, 232, 426
361, 2399, 1530, 2519, 1357
362, 607, 1485, 2573, 1310
363, 1487, 626, 2591, 2935
364, 1224, 1517, 2997, 664
365, 2657, 958, 2093, 1555
366, 1985, 2047, 1986, 2964
367, 1428, 1987, 2721, 2914
368, 760, 775, 772, 1566
369, 517, 1590, 1591, 1588
370, 1588, 1591, 1589, 518
371, 1591, 118, 129, 1589
372, 1590, 128, 118, 1591
373, 603, 1482, 1593, 1592
374, 1592, 1593, 1370, 624
375, 1593, 272, 386, 1370
376, 1482, 387, 272, 1593
377, 2032, 556, 1082, 1813
378, 1158, 2675, 2515, 1654
379, 880, 1241, 1506, 1922
380, 570, 1598, 1599, 1597
381, 1597, 1599, 1345, 569
382, 1599, 51, 62, 1345
383, 1598, 61, 51, 1599
384, 558, 2034, 2843, 2098
385, 2090, 2677, 2618, 2926
386, 1756, 1384, 1395, 2127
387, 2286, 1211, 2227, 2795
388, 2311, 2055, 584, 1681
389, 2840, 648, 1826, 2252
390, 22, 15, 1607, 1406
391, 2612, 1107, 1607, 1606
392, 2774, 1189, 746, 2768
393, 15, 23, 1606, 1607
394, 682, 1178, 2039, 1795
395, 1525, 682, 1795, 2040
396, 2201, 690, 653, 1567
397, 1795, 2039, 248, 410
398, 1033, 2024, 576, 1937
399, 1612, 35, 43, 1302
400, 1611, 42, 35, 1612
401, 2278, 2549, 968, 975
402, 2994, 2448, 1408, 1779
403, 2290, 474, 185, 2818
404, 1199, 2868, 1799, 2736
405, 1859, 1358, 2265, 1311
406, 2520, 607, 2399, 1284
407, 2572, 1486, 627, 2807
408, 993, 2970, 2949, 948
409, 1258, 915, 947, 2080
410, 1003, 2272, 2401, 1640
411, 2427, 2308, 2835, 2326
412, 495, 164, 1619, 1617
413, 1617, 1619, 1618, 933
414, 1619, 1490, 936, 1618
415, 164, 494, 1490, 1619
416, 1576, 1820, 1621, 1871
417, 1528, 7, 110, 625
418, 1621, 1734, 1804, 1577
419, 1226, 739, 2429, 1720
420, 1108, 2204, 2424, 742
421, 2319, 2592, 2357, 2742
422, 1626, 372, 287, 1295
423, 2663, 2613, 1853, 2513
424, 1732, 369, 290, 527
425, 1270, 293, 365, 1784
426, 2229, 1664, 1663, 1193
427, 631, 1630, 1633, 1631
428, 1633, 259, 399, 1631
429, 1632, 400, 259, 1633
430, 1563, 1181, 1896, 1901
431, 1382, 1237, 556, 2032
432, 1746, 2621, 2325, 2730
433, 2123, 2213, 1252, 2647
434, 956, 1041, 1039, 2837
435, 129, 119, 1645, 1589
436, 1589, 1645, 1643, 518
437, 1645, 1644, 519, 1643
438, 119, 130, 1644, 1645
439, 1223, 1373, 716, 2640
440, 719, 2558, 1223, 2937
441, 1650, 1735, 2626, 597
442, 597, 2626, 267, 391
443, 2132, 600, 1650, 1449
444, 1292, 1647, 1291, 641
445, 1736, 523, 596, 642
446, 1291, 590, 2368, 1669
447, 2060, 1652, 2697, 2650
448, 1434, 2275, 330, 152
449, 896, 1239, 1462, 876
450, 1207, 1551, 2328, 2428
451, 2515, 2713, 1552, 899
452, 354, 305, 1657, 1655
453, 1655, 1657, 1138, 820
454, 1657, 1656, 816, 1138
455, 305, 353, 1656, 1657
456, 779, 1660, 1661, 1658
457, 1658, 1661, 1659, 789
458, 1661, 224, 434, 1659
459, 1660, 435, 224, 1661
460, 584, 674, 2655, 1210
461, 1149, 1837, 645, 2309
462, 257, 401, 1663, 1664
463, 1329, 660, 2067, 1816
464, 2458, 689, 2723, 2845
465, 708, 1929, 1387, 711
466, 1665, 1999, 2220, 1441
467, 1383, 2077, 1382, 2562
468, 2154, 2593, 1971, 1807
469, 1507, 1425, 2164, 2167
470, 2874, 598, 265, 393
471, 590, 2826, 2241, 2368
472, 2696, 1905, 1907, 1906
473, 822, 1634, 1672, 1671
474, 1671, 1672, 1655, 820
475, 1672, 304, 354, 1655
476, 1634, 355, 304, 1672
477, 509, 1674, 1675, 1673
478, 1673, 1675, 1365, 508
479, 1675, 11, 19, 1365
480, 1674, 18, 11, 1675
481, 396, 263, 1678, 1676
482, 1676, 1678, 1677, 638
483, 1129, 1131, 643, 2826
484, 1131, 1670, 1113, 643
485, 630, 1570, 1680, 1679
486, 1679, 1680, 1676, 638
487, 1680, 262, 396, 1676
488, 1570, 397, 262, 1680
489, 582, 635, 1899, 1844
490, 2946, 402, 257, 1664
491, 2605, 1047, 2346, 2674
492, 1150, 1604, 2946, 2909
493, 717, 1282, 1289, 1369
494, 1997, 1869, 2998, 2066
495, 1891, 2025, 790, 1412
496, 2821, 2280, 1187, 2003
497, 2280, 1685, 2700, 1187
498, 1684, 1479, 2564, 1780
499, 971, 1272, 2821, 2003
500, 151, 141, 1688, 1687
501, 1687, 1688, 1674, 509
502, 1688, 10, 18, 1674
503, 141, 1, 10, 1688
504, 1163, 515, 572, 2690
505, 1194, 1015, 1693, 1079
506, 1765, 1012, 1018, 1011
507, 2818, 185, 473, 965
508, 1697, 1009, 2289, 1692
509, 2302, 1007, 2179, 2759
510, 843, 2186, 848, 2277
511, 815, 308, 350, 2078
512, 966, 2409, 1835, 2471
513, 2145, 2769, 1162, 1161
514, 1011, 1018, 2181, 1781
515, 1692, 1691, 2303, 1766
516, 488, 171, 1700, 1698
517, 1698, 1700, 1699, 951
518, 1039, 174, 484, 955
519, 530, 1431, 1702, 1701
520, 1701, 1702, 1349, 531
521, 1702, 135, 146, 1349
522, 1431, 145, 135, 1702
523, 24, 17, 1706, 1703
524, 1703, 1706, 1704, 537
525, 1706, 1705, 507, 1704
526, 17, 2, 1705, 1706
527, 130, 120, 1708, 1644
528, 1644, 1708, 1707, 519
529, 1708, 131, 142, 1707
530, 120, 8, 131, 1708
531, 579, 1557, 1710, 1709
532, 1709, 1710, 1355, 578
533, 1710, 48, 59, 1355
534, 1557, 58, 48, 1710
535, 436, 223, 1713, 1711
536, 1711, 1713, 1712, 778
537, 1713, 1660, 779, 1712
538, 223, 435, 1660, 1713
539, 45, 38, 1715, 1468
540, 1468, 1715, 1714, 577
541, 1715, 1556, 579, 1714
542, 38, 46, 1556, 1715
543, 2829, 547, 1636, 826
544, 1716, 1564, 1549, 825
545, 945, 1718, 1719, 1717
546, 1717, 1719, 1698, 951
547, 1719, 170, 488, 1698
548, 1718, 489, 170, 1719
549, 1625, 785, 2267, 2429
550, 2226, 2989, 745, 2338
551, 1972, 2594, 843, 2362
552, 1494, 74, 86, 1969
553, 544, 2584, 546, 2681
554, 1810, 2578, 1071, 806
555, 1004, 1727, 1728, 1726
556, 1726, 1728, 1696, 1006
557, 1728, 178, 480, 1696
558, 1727, 481, 178, 1728
559, 66, 56, 1731, 1322
560, 1322, 1731, 1729, 538
561, 1731, 1730, 541, 1729
562, 56, 67, 1730, 1731
563, 834, 1786, 829, 1511
564, 1140, 107, 98, 1814
565, 1785, 2663, 2513, 1269
566, 1255, 2670, 548, 2885
567, 595, 2874, 393, 266
568, 1648, 1129, 2826, 590
569, 2826, 643, 1736, 2241
570, 2, 25, 1738, 1705
571, 1705, 1738, 1737, 507
572, 1738, 1443, 536, 1737
573, 25, 29, 1443, 1738
574, 1849, 1874, 1875, 2803
575, 2802, 1716, 2644, 1895
576, 2954, 2538, 840, 841
577, 944, 1743, 1744, 1742
578, 1742, 1744, 1718, 945
579, 1744, 169, 489, 1718
580, 1743, 490, 169, 1744
581, 2096, 942, 2479, 2882
582, 1700, 171, 487, 2156
583, 439, 220, 1750, 1624
584, 1624, 1750, 1748, 785
585, 1750, 1749, 786, 1748
586, 220, 438, 1749, 1750
587, 67, 57, 1752, 1730
588, 1730, 1752, 1751, 541
589, 1752, 68, 80, 1751
590, 57, 5, 68, 1752
591, 649, 671, 2056, 2215
592, 1844, 1899, 2311, 1753
593, 2762, 649, 2215, 1047
594, 1242, 2009, 2907, 1396
595, 1758, 162, 496, 1757
596, 1399, 497, 162, 1758
597, 939, 1760, 1761, 1759
598, 1759, 1761, 1743, 944
599, 1761, 168, 490, 1743
600, 1760, 491, 168, 1761
601, 437, 222, 1764, 1762
602, 1762, 1764, 1763, 787
603, 1764, 1711, 778, 1763
604, 222, 436, 1711, 1764
605, 2145, 1161, 1765, 1177
606, 1161, 2816, 1012, 1765
607, 1016, 1689, 2280, 2821
608, 1198, 1832, 1419, 2701
609, 1825, 2109, 2393, 1834
610, 574, 1354, 1769, 1768
611, 1768, 1769, 1598, 570
612, 1769, 50, 61, 1598
613, 1354, 60, 50, 1769
614, 1789, 2527, 1684, 1683
615, 2839, 2550, 970, 1020
616, 1789, 1683, 2133, 2903
617, 482, 177, 1773, 1641
618, 1641, 1773, 1772, 1002
619, 1773, 1727, 1004, 1772
620, 177, 481, 1727, 1773
621, 1527, 247, 411, 2390
622, 1999, 2202, 1329, 2220
623, 651, 2344, 1104, 2343
624, 1567, 653, 1180, 1568
625, 492, 167, 1778, 1776
626, 1776, 1778, 1777, 943
627, 1778, 1760, 939, 1777
628, 167, 491, 1760, 1778
629, 2232, 2230, 2042, 1097
630, 1187, 2700, 2207, 1008
631, 1194, 1079, 2863, 2146
632, 2717, 2043, 1078, 2718
633, 2435, 1623, 2071, 2314
634, 2982, 1722, 1721, 2912
635, 1576, 1871, 1575, 1062
636, 551, 1573, 106, 97
637, 548, 1626, 1295, 1256
638, 1391, 1513, 2924, 1573
639, 2401, 1642, 2728, 949
640, 2805, 949, 1024, 957
641, 993, 2427, 1040, 999
642, 2308, 2274, 2806, 2835
643, 1012, 1803, 1013, 1018
644, 2903, 2133, 1272, 971
645, 2700, 1798, 2290, 2207
646, 42, 1611, 1791, 34
647, 2230, 989, 32, 40
648, 627, 1274, 2383, 1360
649, 2836, 1276, 376, 283
650, 2572, 1584, 1859, 1486
651, 1359, 2629, 1615, 1800
652, 2142, 2391, 1229, 2898
653, 1609, 2140, 2139, 1578
654, 1228, 652, 2913, 678
655, 1703, 1797, 16, 24
656, 1797, 1606, 23, 16
657, 1720, 2429, 2267, 783
658, 1499, 2369, 1410, 1500
659, 2717, 2718, 976, 2533
660, 528, 2761, 593, 1087
661, 2383, 380, 279, 2266
662, 1153, 621, 623, 1378
663, 1689, 2146, 1007, 2302
664, 1016, 1194, 2146, 1689
665, 975, 968, 2370, 2930
666, 2687, 1510, 1820, 1576
667, 1628, 1819, 296, 362
668, 1574, 2929, 1074, 833
669, 1448, 1639, 2153, 2891
670, 865, 1240, 2097, 1923
671, 1668, 2088, 1456, 1851
672, 1045, 2731, 2356, 543
673, 816, 1656, 847, 2281
674, 513, 2428, 2216, 2256
675, 1639, 2171, 560, 2153
676, 625, 110, 121, 2662
677, 2670, 830, 1626, 548
678, 1466, 1818, 1627, 1620
679, 689, 1665, 1441, 1413
680, 1413, 1441, 2065, 1244
681, 1244, 2065, 665, 2750
682, 1534, 1550, 836, 1063
683, 1733, 610, 1534, 1465
684, 1629, 1865, 1254, 2577
685, 1294, 1269, 92, 102
686, 1550, 1062, 2512, 836
687, 1620, 1627, 1142, 1510
688, 1785, 2671, 1622, 2663
689, 978, 2108, 982, 2109
690, 2231, 2449, 1496, 2448
691, 2995, 189, 469, 1418
692, 1899, 2680, 2055, 2311
693, 1827, 258, 400, 1632
694, 1663, 401, 258, 1827
695, 438, 221, 1829, 1749
696, 1749, 1829, 1828, 786
697, 1829, 1762, 787, 1828
698, 221, 437, 1762, 1829
699, 399, 260, 1831, 1631
700, 1631, 1831, 1830, 631
701, 1831, 1571, 632, 1830
702, 260, 398, 1571, 1831
703, 2712, 2900, 1806, 2917
704, 2797, 2695, 1433, 2379
705, 1771, 1017, 1824, 1614
706, 1689, 2302, 1685, 2280
707, 968, 1186, 2085, 2370
708, 2332, 2996, 961, 2004
709, 1747, 2834, 2155, 1642
710, 2729, 173, 485, 1041
711, 1641, 2833, 176, 482
712, 2427, 2326, 997, 1040
713, 2110, 2333, 1198, 1186
714, 983, 201, 457, 764
715, 2206, 217, 441, 1623
716, 729, 703, 2612, 1605
717, 2784, 2719, 2952, 1051
718, 2487, 1505, 254, 404
719, 82, 71, 1840, 1453
720, 1453, 1840, 1838, 539
721, 1840, 1839, 542, 1838
722, 71, 83, 1839, 1840
723, 2318, 733, 2989, 2226
724, 2984, 2983, 2070, 1119
725, 1124, 1841, 537, 1118
726, 1841, 2375, 2787, 537
727, 656, 657, 1504, 581
728, 2286, 2035, 1604, 1150
729, 1505, 680, 405, 254
730, 671, 2883, 1104, 2056
731, 2434, 1624, 785, 1625
732, 2890, 2567, 729, 2556
733, 1190, 442, 217, 2206
734, 1543, 460, 199, 1956
735, 1404, 2322, 1957, 1954
736, 1499, 1500, 981, 979
737, 2415, 2063, 1216, 2710
738, 823, 2899, 2645, 2802
739, 2643, 2638, 2953, 2367
740, 2803, 1875, 1873, 553
741, 1181, 2365, 2473, 1635
742, 846, 1381, 2075, 2355
743, 2464, 543, 1902, 2331
744, 853, 2276, 2361, 1045
745, 2164, 2673, 1183, 896
746, 2297, 1383, 2562, 873
747, 1256, 1295, 1865, 1629
748, 1734, 1784, 1821, 1804
749, 832, 833, 104, 95
750, 1818, 609, 2858, 1627
751, 510, 1856, 1857, 1364
752, 1364, 1857, 1854, 508
753, 1857, 1855, 706, 1854
754, 1856, 702, 1855, 1857
755, 1275, 2630, 2715, 1814
756, 1583, 613, 2397, 1358
757, 2807, 627, 1360, 612
758, 1802, 611, 379, 280
759, 566, 1862, 1863, 1330
760, 1330, 1863, 1860, 567
761, 1863, 1861, 904, 1860
762, 2824, 2911, 2163, 893
763, 1390, 1732, 527, 1536
764, 839, 1876, 1732, 1390
765, 2514, 366, 293, 1270
766, 1512, 2571, 1535, 1268
767, 1843, 2790, 2200, 650
768, 2765, 635, 582, 1945
769, 2825, 587, 1867, 1144
770, 2489, 2726, 589, 2927
771, 855, 2667, 345, 314
772, 1962, 2378, 1943, 851
773, 2791, 2842, 2667, 855
774, 2792, 819, 2463, 1493
775, 1164, 2703, 1929, 708
776, 719, 2049, 1990, 2558
777, 1666, 1164, 708, 1928
778, 1363, 1185, 2958, 2962
779, 2175, 229, 429, 791
780, 1457, 2048, 714, 1582
781, 1296, 285, 373, 1064
782, 1141, 550, 1876, 839
783, 1783, 1392, 1805, 1574
784, 837, 1268, 1818, 1466
785, 840, 1740, 1739, 841
786, 1873, 1875, 78, 90
787, 1875, 1874, 89, 78
788, 826, 1636, 2364, 1548
789, 1871, 1872, 1819, 1575
790, 2929, 834, 1511, 1074
791, 1577, 1804, 364, 295
792, 1391, 1072, 1255, 1513
793, 1485, 2780, 2264, 2573
794, 1310, 2573, 1878, 1276
795, 2397, 628, 1514, 615
796, 1310, 1276, 2836, 1530
797, 541, 1751, 1880, 1879
798, 1879, 1880, 1451, 540
799, 1880, 69, 81, 1451
800, 1751, 80, 69, 1880
801, 2914, 1881, 2659, 2547
802, 1881, 1885, 1882, 725
803, 1842, 1124, 1118, 726
804, 1213, 1227, 1553, 1884
805, 362, 297, 1887, 1628
806, 1628, 1887, 1886, 838
807, 1887, 1740, 840, 1886
808, 297, 361, 1740, 1887
809, 2266, 279, 379, 611
810, 605, 122, 112, 2686
811, 2170, 2867, 1153, 2823
812, 710, 802, 2315, 2704
813, 2928, 1981, 424, 235
814, 87, 76, 1897, 1894
815, 76, 88, 1896, 1897
816, 2489, 2927, 126, 116
817, 1866, 2720, 2632, 521
818, 2489, 2738, 2765, 2726
819, 2738, 1117, 580, 2853
820, 88, 77, 1901, 1896
821, 822, 835, 1741, 1634
822, 2638, 358, 301, 2953
823, 77, 89, 1874, 1901
824, 555, 1435, 2793, 1903
825, 2276, 1083, 844, 1904
826, 1850, 1541, 2150, 2665
827, 124, 1906, 1907, 113
828, 617, 1528, 1359, 626
829, 606, 1280, 2761, 528
830, 2059, 596, 598, 2874
831, 493, 166, 1909, 1489
832, 1489, 1909, 1908, 938
833, 1909, 1776, 943, 1908
834, 166, 492, 1776, 1909
835, 711, 1333, 2588, 1288
836, 1389, 1979, 923, 2911
837, 1913, 1914, 1617, 933
838, 1914, 163, 495, 1617
839, 1757, 496, 163, 1914
840, 150, 140, 1916, 1422
841, 1422, 1916, 1915, 532
842, 1916, 1687, 509, 1915
843, 140, 151, 1687, 1916
844, 519, 1707, 1918, 1917
845, 1917, 1918, 1335, 516
846, 1918, 132, 143, 1335
847, 1707, 142, 132, 1918
848, 888, 2789, 2506, 2642
849, 902, 1171, 2915, 1920
850, 886, 1169, 1061, 2561
851, 1508, 2301, 2166, 1921
852, 1182, 2167, 876, 868
853, 1508, 2918, 1507, 2301
854, 2445, 881, 2810, 2561
855, 535, 1926, 1927, 1348
856, 1348, 1927, 1924, 531
857, 1927, 1925, 700, 1924
858, 1929, 799, 1910, 1387
859, 1085, 2812, 1290, 2957
860, 811, 1931, 1932, 1930
861, 1930, 1932, 1321, 538
862, 1932, 1862, 566, 1321
863, 1315, 1334, 1282, 717
864, 2896, 2589, 2588, 658
865, 1935, 1933, 700, 1925
866, 2351, 2494, 2888, 1134
867, 1037, 1938, 1939, 1936
868, 1936, 1939, 1467, 577
869, 1939, 1937, 576, 1467
870, 2553, 2123, 2647, 2611
871, 125, 1941, 1942, 114
872, 114, 1942, 1906, 124
873, 1114, 642, 596, 2059
874, 522, 521, 2648, 2649
875, 1455, 846, 2355, 1076
876, 1060, 1434, 152, 9
877, 1435, 2074, 2846, 2793
878, 2726, 2566, 2568, 589
879, 587, 2719, 633, 2733
880, 707, 1948, 1949, 1946
881, 1946, 1949, 1317, 533
882, 1949, 1947, 534, 1317
883, 1948, 709, 1947, 1949
884, 905, 1952, 1953, 1950
885, 1950, 1953, 1346, 568
886, 1953, 1951, 569, 1346
887, 1952, 907, 1951, 1953
888, 2711, 1542, 2844, 1473
889, 765, 461, 198, 1375
890, 2683, 2880, 2709, 1472
891, 1092, 2727, 2124, 1984
892, 727, 1960, 1961, 1958
893, 1958, 1961, 1737, 536
894, 1961, 1959, 507, 1737
895, 1960, 725, 1959, 1961
896, 2074, 2862, 862, 1559
897, 2075, 1903, 861, 2746
898, 862, 2590, 1495, 2404
899, 1561, 1081, 2851, 1461
900, 1519, 883, 2089, 2653
901, 1386, 1519, 2653, 931
902, 1601, 1243, 1069, 2800
903, 2078, 350, 309, 1201
904, 2584, 1044, 1894, 546
905, 1083, 2944, 1202, 844
906, 1492, 2830, 2076, 2580
907, 2830, 849, 1493, 2076
908, 1076, 2355, 545, 1944
909, 1082, 2666, 2117, 1184
910, 2464, 2331, 1695, 2382
911, 709, 1974, 1975, 1947
912, 1947, 1975, 1343, 534
913, 1975, 1926, 535, 1343
914, 2048, 719, 2937, 714
915, 1913, 1260, 1757, 1914
916, 2827, 1977, 500, 159
917, 2926, 2618, 2619, 2126
918, 565, 1158, 1654, 1424
919, 2098, 863, 1388, 1352
920, 2107, 1521, 2009, 1242
921, 2118, 2722, 1328, 2202
922, 1156, 929, 2008, 2165
923, 1475, 2258, 894, 1477
924, 1976, 1519, 1386, 2191
925, 772, 2047, 1985, 1531
926, 2683, 2711, 1473, 750
927, 723, 798, 2120, 2559
928, 2380, 307, 351, 852
929, 2578, 2381, 807, 1071
930, 2594, 2152, 2186, 843
931, 850, 352, 307, 2380
932, 936, 1488, 1995, 1992
933, 1992, 1995, 1993, 937
934, 1995, 1994, 942, 1993
935, 1488, 938, 1994, 1995
936, 2317, 1147, 236, 422
937, 805, 1912, 1325, 1893
938, 984, 2279, 466, 193
939, 1683, 2548, 2470, 2133
940, 1834, 2393, 1767, 2817
941, 2522, 2532, 758, 1091
942, 2005, 2007, 1444, 571
943, 2007, 1958, 536, 1444
944, 2006, 727, 1958, 2007
945, 882, 2163, 2911, 923
946, 1397, 557, 2297, 898
947, 881, 1208, 1638, 2410
948, 2528, 765, 1375, 2323
949, 2062, 1586, 762, 1509
950, 924, 1968, 1967, 1206
951, 2014, 2017, 1952, 905
952, 2017, 2015, 907, 1952
953, 2016, 922, 2015, 2017
954, 941, 2020, 2021, 2018
955, 2018, 2021, 2019, 946
956, 2021, 1759, 944, 2019
957, 2020, 939, 1759, 2021
958, 904, 2022, 2023, 1860
959, 1860, 2023, 1340, 567
960, 2023, 1950, 568, 1340
961, 2022, 905, 1950, 2023
962, 1133, 2454, 2708, 2456
963, 1287, 940, 1247, 2617
964, 1282, 1367, 2535, 1289
965, 1412, 790, 685, 2776
966, 720, 2143, 1989, 2068
967, 2387, 2460, 237, 421
968, 2352, 921, 2922, 915
969, 2646, 2882, 1287, 2121
970, 1031, 2617, 1246, 2622
971, 2402, 2973, 2551, 1103
972, 1075, 1455, 1076, 2088
973, 1058, 2411, 329, 506
974, 2377, 561, 2900, 2712
975, 861, 2360, 859, 2842
976, 655, 1603, 1844, 1753
977, 2251, 1755, 2201, 1567
978, 2763, 2852, 1662, 1106
979, 933, 1618, 2038, 2037
980, 2037, 2038, 2030, 932
981, 2038, 1992, 937, 2030
982, 1618, 936, 1992, 2038
983, 2779, 413, 246, 2688
984, 684, 1179, 2431, 661
985, 1775, 1580, 1609, 2142
986, 1568, 1180, 409, 250
987, 573, 2668, 2598, 1028
988, 2769, 1021, 2466, 1162
989, 967, 2702, 986, 988
990, 990, 2525, 1791, 1790
991, 2880, 2062, 773, 2709
992, 770, 764, 1429, 2866
993, 958, 985, 1554, 2093
994, 2698, 763, 2910, 1217
995, 762, 959, 2011, 2706
996, 1565, 1522, 2046, 2221
997, 2119, 231, 427, 1361
998, 2798, 1997, 1314, 1646
999, 789, 1659, 2143, 720
1000, 1929, 2703, 1982, 799
1001, 793, 2296, 792, 722
1002, 711, 1387, 1222, 1333
1003, 1412, 2776, 2615, 1458
1004, 2329, 2330, 2635, 621
1005, 1280, 2233, 1889, 1888
1006, 2686, 112, 123, 2235
1007, 2823, 1153, 1378, 622
1008, 2678, 2461, 1440, 788
1009, 2991, 1796, 1188, 1120
1010, 2054, 1856, 510, 1298
1011, 2053, 702, 1856, 2054
1012, 2286, 2795, 647, 2035
1013, 1210, 2655, 2483, 2372
1014, 1047, 2215, 2287, 2346
1015, 2881, 595, 266, 392
1016, 1647, 2772, 2773, 1648
1017, 2086, 264, 394, 2061
1018, 2710, 1216, 979, 767
1019, 2010, 1956, 1957, 2322
1020, 1954, 1957, 459, 200
1021, 979, 981, 2064, 767
1022, 1585, 709, 1948, 2543
1023, 713, 419, 240, 666
1024, 689, 1413, 1815, 2723
1025, 715, 2544, 1155, 2537
1026, 712, 1368, 238, 420
1027, 1109, 2934, 2419, 2879
1028, 2462, 1227, 1213, 2105
1029, 746, 2376, 1539, 2504
1030, 1884, 1553, 214, 444
1031, 2327, 2857, 323, 335
1032, 1809, 855, 314, 344
1033, 2378, 348, 311, 1943
1034, 1560, 2851, 1081, 2381
1035, 2079, 1973, 2692, 1724
1036, 2808, 1725, 1495, 2590
1037, 947, 2082, 2083, 2080
1038, 2080, 2083, 2081, 952
1039, 2083, 1717, 951, 2081
1040, 2082, 945, 1717, 2083
1041, 1659, 434, 225, 2143
1042, 2751, 2294, 1146, 694
1043, 1457, 2271, 1870, 2048
1044, 2549, 2110, 1186, 968
1045, 1823, 2550, 1038, 2278
1046, 2108, 1271, 1273, 982
1047, 2043, 1771, 1614, 1078
1048, 2696, 1906, 1942, 1940
1049, 1652, 640, 2130, 2697
1050, 1647, 1648, 590, 1291
1051, 842, 1965, 860, 857
1052, 2695, 554, 854, 1433
1053, 1559, 862, 2404, 2151
1054, 2404, 812, 1436, 2151
1055, 2749, 931, 2919, 2193
1056, 1459, 2194, 2875, 1520
1057, 1460, 2340, 1600, 925
1058, 1375, 198, 460, 1543
1059, 766, 1404, 1954, 1470
1060, 2091, 2528, 2323, 1532
1061, 1217, 2910, 2682, 1426
1062, 1429, 202, 456, 1587
1063, 2072, 1474, 1403, 1544
1064, 2744, 1531, 958, 2657
1065, 2949, 2455, 2388, 953
1066, 2966, 917, 2684, 2569
1067, 2778, 2553, 2611, 1132
1068, 1067, 2575, 1249, 921
1069, 2716, 878, 2918, 1508
1070, 1238, 2256, 2788, 2300
1071, 1209, 2908, 1060, 2411
1072, 877, 813, 331, 328
1073, 1333, 1222, 2745, 695
1074, 1869, 718, 2000, 2998
1075, 1516, 1990, 668, 2459
1076, 2557, 2567, 2890, 2505
1077, 2439, 1782, 2104, 2582
1078, 2980, 2979, 730, 1782
1079, 1462, 334, 325, 879
1080, 2161, 2654, 2258, 1475
1081, 1601, 2800, 2847, 1262
1082, 1271, 191, 467, 1273
1083, 2333, 1080, 2717, 2533
1084, 962, 1411, 974, 1135
1085, 2333, 2533, 1832, 1198
1086, 2801, 1459, 1520, 1476
1087, 2113, 2022, 904, 2641
1088, 2113, 2014, 905, 2022
1089, 1243, 926, 2128, 1069
1090, 973, 2534, 1411, 962
1091, 2084, 975, 2930, 2819
1092, 992, 984, 193, 465
1093, 963, 2702, 967, 970
1094, 2172, 320, 338, 1811
1095, 2171, 317, 341, 560
1096, 1667, 1447, 2363, 1236
1097, 1433, 343, 316, 2379
1098, 1442, 1312, 2316, 805
1099, 799, 2386, 1147, 1910
1100, 1413, 1244, 2295, 1815
1101, 2845, 2184, 2430, 1484
1102, 2758, 1034, 2669, 909
1103, 2758, 2031, 2028, 1034
1104, 1029, 1196, 2354, 2904
1105, 1127, 2698, 1217, 2727
1106, 2046, 2211, 450, 209
1107, 754, 2755, 452, 207
1108, 931, 2653, 2699, 2919
1109, 1034, 2028, 910, 2402
1110, 1545, 2257, 1521, 2107
1111, 1476, 1219, 929, 1156
1112, 1151, 606, 528, 2050
1113, 619, 2169, 2672, 2609
1114, 1130, 2651, 1905, 2696
1115, 2905, 2134, 960, 1026
1116, 2109, 982, 1200, 2393
1117, 1020, 970, 967, 1163
1118, 2438, 447, 212, 2376
1119, 738, 748, 1523, 1230
1120, 692, 2139, 2140, 1054
1121, 1054, 2140, 2137, 677
1122, 2725, 651, 2343, 697
1123, 652, 2779, 2688, 2913
1124, 2724, 2898, 678, 662
1125, 684, 661, 651, 2725
1126, 2544, 2799, 687, 1155
1127, 1579, 679, 1527, 2141
1128, 2799, 2640, 1682, 687
1129, 2554, 2102, 2225, 2639
1130, 2303, 2180, 2893, 1013
1131, 1096, 966, 2471, 977
1132, 1007, 1005, 2526, 2179
1133, 2866, 1429, 1587, 1090
1134, 748, 2210, 2774, 1523
1135, 2073, 2766, 1524, 2210
1136, 1435, 2665, 2862, 2074
1137, 874, 1807, 1446, 1220
1138, 2167, 2164, 896, 876
1139, 872, 342, 317, 2171
1140, 2325, 1787, 2850, 1000
1141, 2156, 487, 172, 1787
1142, 1303, 1195, 2031, 2758
1143, 1745, 2457, 2775, 1196
1144, 2029, 912, 2260, 2597
1145, 1196, 2775, 2757, 2354
1146, 2968, 2569, 2940, 2620
1147, 2166, 1983, 1241, 880
1148, 2764, 1475, 1477, 1545
1149, 562, 1166, 1158, 565
1150, 893, 2163, 883, 2255
1151, 2713, 865, 1923, 1552
1152, 2301, 1182, 1983, 2166
1153, 2050, 528, 1087, 2685
1154, 2685, 1087, 525, 2330
1155, 524, 2760, 604, 1278
1156, 605, 1160, 2660, 602
1157, 876, 1462, 879, 868
1158, 864, 2174, 505, 154
1159, 559, 1813, 891, 2857
1160, 1928, 708, 711, 1288
1161, 675, 667, 1312, 1442
1162, 2753, 2374, 1484, 1998
1163, 2294, 1996, 691, 1146
1164, 90, 79, 2178, 1873
1165, 1873, 2178, 2177, 553
1166, 2178, 1063, 836, 2177
1167, 79, 6, 1063, 2178
1168, 1693, 1176, 1021, 2769
1169, 1683, 1684, 1780, 2548
1170, 2208, 1011, 1781, 1010
1171, 2039, 2390, 411, 248
1172, 1526, 245, 413, 2779
1173, 1580, 2725, 697, 2137
1174, 690, 1608, 1525, 653
1175, 1128, 1846, 1377, 2094
1176, 1554, 985, 2841, 774
1177, 2382, 1695, 2732, 814
1178, 844, 1202, 818, 2150
1179, 1969, 86, 75, 1044
1180, 2277, 848, 1725, 2808
1181, 699, 2189, 2190, 2187
1182, 2187, 2190, 1430, 530
1183, 2190, 2188, 529, 1430
1184, 2189, 698, 2188, 2190
1185, 892, 1595, 2217, 564
1186, 1219, 1056, 1205, 929
1187, 1807, 1971, 1075, 1446
1188, 1183, 559, 2857, 2327
1189, 569, 1951, 2199, 1597
1190, 1597, 2199, 2197, 570
1191, 2199, 2198, 906, 2197
1192, 1951, 907, 2198, 2199
1193, 1178, 2041, 2390, 2039
1194, 1603, 2345, 2784, 1051
1195, 1774, 2496, 2350, 2182
1196, 1387, 1910, 804, 1222
1197, 2723, 1815, 2183, 1794
1198, 2220, 1329, 1816, 1326
1199, 2104, 2318, 2226, 737
1200, 1112, 2873, 2977, 2976
1201, 1883, 1539, 446, 213
1202, 1686, 2288, 1019, 1027
1203, 1010, 1781, 181, 477
1204, 1177, 1765, 1011, 2208
1205, 946, 2019, 2209, 1197
1206, 1197, 2209, 2082, 947
1207, 2209, 1742, 945, 2082
1208, 2019, 944, 1742, 2209
1209, 2125, 2148, 752, 747
1210, 2873, 2886, 2978, 2977
1211, 2992, 2984, 1119, 2981
1212, 909, 2669, 2159, 2832
1213, 2617, 1247, 941, 1246
1214, 2611, 2647, 1101, 2782
1215, 2159, 1285, 1616, 1102
1216, 1681, 584, 1210, 2488
1217, 2951, 2372, 671, 649
1218, 2035, 403, 256, 1604
1219, 1168, 565, 1424, 1207
1220, 2262, 1398, 1068, 1157
1221, 1594, 327, 331, 813
1222, 712, 420, 239, 2373
1223, 1980, 1911, 1996, 2294
1224, 1721, 2222, 2204, 1108
1225, 2314, 2071, 2205, 740
1226, 1230, 1523, 1212, 2462
1227, 1231, 1836, 751, 1723
1228, 1119, 2070, 2069, 1845
1229, 747, 756, 2767, 1987
1230, 2222, 1226, 1720, 2204
1231, 1192, 2309, 634, 2734
1232, 2230, 40, 33, 2042
1233, 990, 1790, 2668, 573
1234, 602, 2660, 2933, 2662
1235, 620, 1481, 603, 2661
1236, 781, 2238, 2239, 2236
1237, 2236, 2239, 2237, 777
1238, 2239, 1712, 779, 2237
1239, 2238, 778, 1712, 2239
1240, 639, 2242, 2243, 2240
1241, 2242, 638, 1677, 2243
1242, 787, 1763, 2246, 2244
1243, 2244, 2246, 2245, 782
1244, 2246, 2238, 781, 2245
1245, 1763, 778, 2238, 2246
1246, 1002, 1772, 2250, 2247
1247, 2247, 2250, 2248, 994
1248, 2250, 2249, 995, 2248
1249, 1772, 1004, 2249, 2250
1250, 1193, 1663, 1827, 2228
1251, 1106, 1662, 2058, 1898
1252, 531, 1924, 2254, 1701
1253, 1701, 2254, 2187, 530
1254, 2254, 2253, 699, 2187
1255, 1924, 700, 2253, 2254
1256, 1240, 1594, 813, 2097
1257, 1638, 2300, 2194, 1459
1258, 1398, 2165, 900, 1068
1259, 2788, 1389, 2911, 2824
1260, 1219, 2413, 897, 1056
1261, 1206, 1967, 1966, 2129
1262, 1205, 935, 2257, 2856
1263, 1424, 1654, 2908, 1209
1264, 907, 2015, 2261, 2198
1265, 2198, 2261, 2259, 906
1266, 925, 1600, 930, 2263
1267, 2127, 1395, 2162, 928
1268, 1600, 1261, 1218, 930
1269, 1792, 1284, 2630, 1275
1270, 1393, 1487, 1309, 2520
1271, 785, 1748, 2270, 2267
1272, 2267, 2270, 2268, 783
1273, 2270, 2269, 784, 2268
1274, 1748, 786, 2269, 2270
1275, 2542, 1928, 1288, 1086
1276, 1155, 687, 2418, 705
1277, 2247, 2805, 957, 1002
1278, 2326, 2835, 2272, 1003
1279, 954, 953, 1746, 2730
1280, 993, 948, 2308, 2427
1281, 853, 1045, 543, 2464
1282, 847, 306, 352, 850
1283, 963, 970, 2550, 1823
1284, 2448, 1496, 2781, 1408
1285, 2003, 1187, 1008, 2409
1286, 879, 325, 333, 1595
1287, 1052, 918, 2161, 1385
1288, 2099, 1394, 1594, 1240
1289, 898, 2297, 873, 1425
1290, 1685, 2563, 1798, 2700
1291, 2563, 475, 184, 1798
1292, 2732, 1969, 1044, 2584
1293, 1810, 806, 2477, 845
1294, 2585, 2362, 2944, 1083
1295, 570, 2197, 2285, 1768
1296, 1768, 2285, 2283, 574
1297, 2285, 2284, 1030, 2283
1298, 2197, 906, 2284, 2285
1299, 2909, 2229, 648, 2840
1300, 655, 2785, 2345, 1603
1301, 408, 2036, 1568, 250
1302, 2897, 977, 1686, 1199
1303, 1161, 1162, 1697, 2816
1304, 2181, 2893, 180, 478
1305, 637, 2292, 2293, 2291
1306, 2291, 2293, 2242, 639
1307, 2293, 1679, 638, 2242
1308, 2292, 630, 1679, 2293
1309, 1442, 805, 1893, 2743
1310, 665, 2203, 243, 415
1311, 2524, 2794, 2741, 2838
1312, 685, 790, 2175, 791
1313, 1070, 1058, 506, 153
1314, 556, 817, 2666, 1082
1315, 786, 1828, 2299, 2269
1316, 2269, 2299, 2298, 784
1317, 2299, 2244, 782, 2298
1318, 1828, 787, 2244, 2299
1319, 2168, 869, 557, 1397
1320, 1239, 324, 334, 1462
1321, 2301, 1507, 2167, 1182
1322, 1080, 1690, 2043, 2717
1323, 1016, 2304, 1015, 1194
1324, 1015, 1023, 1176, 1693
1325, 700, 1933, 2307, 2253
1326, 2253, 2307, 2305, 699
1327, 1912, 2118, 2202, 1999
1328, 2703, 793, 722, 1982
1329, 1303, 2758, 909, 917
1330, 2730, 2325, 1000, 998
1331, 2552, 2970, 993, 911
1332, 583, 1193, 2228, 644
1333, 1149, 583, 644, 1837
1334, 2309, 645, 2310, 634
1335, 1273, 467, 192, 2115
1336, 2718, 188, 470, 976
1337, 2124, 1426, 1847, 2044
1338, 740, 1625, 2429, 739
1339, 2225, 1042, 732, 2052
1340, 695, 2798, 1646, 658
1341, 791, 429, 230, 1517
1342, 1582, 715, 1324, 780
1343, 632, 1569, 2321, 2320
1344, 2320, 2321, 1123, 629
1345, 2321, 2292, 637, 1123
1346, 1569, 630, 2292, 2321
1347, 1956, 199, 459, 1957
1348, 983, 1470, 458, 201
1349, 2324, 1402, 1474, 2072
1350, 2669, 1103, 1285, 2159
1351, 2363, 563, 2087, 1059
1352, 886, 2814, 1919, 1169
1353, 868, 879, 1595, 892
1354, 1653, 1921, 2894, 1166
1355, 2660, 619, 2609, 2933
1356, 2760, 1905, 2651, 604
1357, 1045, 2361, 2945, 2731
1358, 2360, 1964, 842, 859
1359, 2527, 2690, 1479, 1684
1360, 995, 2249, 2335, 2334
1361, 2334, 2335, 2289, 1009
1362, 2335, 1726, 1006, 2289
1363, 2249, 1004, 1726, 2335
1364, 2049, 1870, 1362, 800
1365, 1723, 738, 1214, 1538
1366, 1845, 2069, 2873, 1112
1367, 2886, 742, 1111, 2978
1368, 1260, 2263, 1758, 1757
1369, 934, 1057, 2168, 1978
1370, 943, 1777, 2342, 2341
1371, 2341, 2342, 1247, 940
1372, 2342, 2020, 941, 1247
1373, 1777, 939, 2020, 2342
1374, 2484, 1134, 2870, 2349
1375, 2056, 1104, 2344, 1754
1376, 251, 1191, 2036, 408
1377, 777, 2237, 2348, 2347
1378, 2100, 2101, 2901, 1165
1379, 2237, 779, 1658, 2348
1380, 2607, 2484, 2483, 2655
1381, 2484, 2349, 2883, 2483
1382, 2870, 697, 2343, 2349
1383, 2346, 2287, 2852, 2763
1384, 2454, 1302, 1304, 2024
1385, 2540, 1257, 1033, 1937
1386, 1024, 1001, 2432, 2400
1387, 2860, 851, 1963, 1965
1388, 1220, 1446, 1668, 1203
1389, 2846, 2412, 2860, 1964
1390, 2088, 1076, 1944, 1456
1391, 2639, 704, 1125, 1126
1392, 2359, 2298, 782, 2357
1393, 2358, 784, 2298, 2359
1394, 2747, 2791, 855, 1809
1395, 1436, 310, 348, 2378
1396, 2731, 1810, 845, 2356
1397, 1183, 2327, 1239, 896
1398, 1991, 2154, 1807, 874
1399, 2716, 1508, 1921, 1653
1400, 2473, 1900, 821, 2681
1401, 2645, 2643, 2367, 1564
1402, 1547, 1562, 2899, 823
1403, 2060, 2650, 2651, 1130
1404, 2368, 2241, 1114, 2624
1405, 2809, 1651, 1649, 1735
1406, 2278, 1038, 2736, 2549
1407, 2371, 1192, 2734, 633
1408, 1630, 646, 1632, 1633
1409, 645, 1837, 646, 1630
1410, 2998, 2754, 1980, 2066
1411, 1458, 2615, 803, 1581
1412, 2794, 2319, 2742, 2741
1413, 1231, 1723, 1538, 2147
1414, 2912, 1721, 1108, 743
1415, 1796, 737, 731, 1188
1416, 1495, 1201, 812, 2404
1417, 1448, 2195, 1808, 1639
1418, 817, 2172, 1811, 2666
1419, 1455, 1561, 1461, 846
1420, 846, 1461, 1694, 1381
1421, 1551, 1209, 2411, 1058
1422, 1695, 1494, 1969, 2732
1423, 2381, 1081, 2593, 807
1424, 2715, 2714, 514, 831
1425, 514, 2714, 1502, 1864
1426, 2591, 1800, 1283, 614
1427, 722, 792, 2468, 1981
1428, 2679, 796, 789, 720
1429, 1912, 1999, 1665, 1325
1430, 2144, 2119, 1361, 1988
1431, 951, 1699, 2389, 2081
1432, 2081, 2389, 2388, 952
1433, 2273, 2403, 956, 2834
1434, 1642, 2155, 2157, 2728
1435, 1179, 1608, 690, 2431
1436, 662, 1579, 2141, 2138
1437, 2913, 2688, 679, 1579
1438, 2060, 1292, 641, 1652
1439, 1651, 2624, 2625, 1649
1440, 2060, 1130, 2649, 2648
1441, 2004, 961, 2449, 2231
1442, 1096, 2903, 971, 966
1443, 2302, 2759, 2563, 1685
1444, 1017, 960, 1014, 1824
1445, 1457, 1582, 780, 1315
1446, 2754, 1327, 667, 675
1447, 2589, 1086, 1288, 2588
1448, 1225, 1516, 2025, 1891
1449, 2767, 756, 1836, 1231
1450, 1110, 1111, 2425, 2358
1451, 2573, 2264, 1858, 1878
1452, 1393, 617, 626, 1487
1453, 1501, 2807, 612, 1529
1454, 2326, 1003, 2426, 997
1455, 2850, 486, 173, 2729
1456, 2837, 1039, 955, 1032
1457, 1046, 2281, 2906, 2595
1458, 827, 1724, 84, 73
1459, 1456, 1944, 554, 2695
1460, 585, 2407, 2408, 2405
1461, 2405, 2408, 2406, 586
1462, 2408, 1588, 518, 2406
1463, 2407, 517, 1588, 2408
1464, 1048, 2951, 649, 2762
1465, 680, 670, 253, 405
1466, 2605, 2674, 670, 680
1467, 1837, 644, 2228, 646
1468, 2304, 2470, 1023, 1015
1469, 2409, 1008, 1770, 1835
1470, 1552, 1923, 877, 2275
1471, 558, 2098, 1352, 2445
1472, 2355, 2075, 2746, 545
1473, 2746, 861, 2842, 2791
1474, 2654, 2016, 2112, 2258
1475, 2410, 1638, 1459, 2801
1476, 1056, 897, 2218, 1351
1477, 1376, 2866, 1090, 2416
1478, 753, 203, 455, 2530
1479, 775, 1127, 2727, 1092
1480, 2581, 2977, 2978, 1154
1481, 1473, 2844, 2006, 2965
1482, 1237, 2917, 817, 556
1483, 1922, 1506, 865, 2713
1484, 1446, 1075, 2088, 1668
1485, 887, 867, 561, 2377
1486, 702, 2053, 2419, 2417
1487, 2983, 2982, 2912, 2070
1488, 1165, 2901, 2542, 2872
1489, 2568, 1144, 1866, 1263
1490, 2420, 2423, 2421, 698
1491, 2423, 2405, 586, 2421
1492, 2422, 585, 2405, 2423
1493, 783, 2268, 2425, 2424
1494, 2424, 2425, 1111, 742
1495, 776, 735, 2786, 744
1496, 2268, 784, 2358, 2425
1497, 2272, 1747, 1642, 2401
1498, 2728, 2157, 1032, 1001
1499, 1002, 957, 2833, 1641
1500, 2274, 998, 2273, 2806
1501, 2256, 2216, 1389, 2788
1502, 1447, 1220, 1203, 870
1503, 2077, 2196, 1237, 1382
1504, 726, 1882, 1885, 2103
1505, 2567, 1125, 703, 729
1506, 2556, 729, 1605, 2877
1507, 2224, 2504, 1539, 1883
1508, 2040, 1795, 410, 249
1509, 2898, 1229, 1228, 678
1510, 2496, 2138, 683, 2350
1511, 1699, 1700, 2156, 2621
1512, 1640, 2401, 949, 2805
1513, 957, 1024, 2400, 2833
1514, 2979, 1112, 2976, 2990
1515, 2222, 2435, 2314, 1226
1516, 2990, 2890, 2556, 728
1517, 1226, 2314, 740, 739
1518, 631, 1830, 2437, 2310
1519, 2310, 2437, 2436, 634
1520, 2437, 2320, 629, 2436
1521, 1830, 632, 2320, 2437
1522, 1623, 441, 218, 2071
1523, 577, 1714, 2441, 1936
1524, 1936, 2441, 2440, 1037
1525, 2441, 1709, 578, 2440
1526, 1714, 579, 1709, 2441
1527, 994, 2248, 2444, 2426
1528, 2426, 2444, 2442, 997
1529, 2444, 2443, 996, 2442
1530, 2248, 995, 2443, 2444
1531, 2917, 1806, 2172, 817
1532, 1171, 1232, 901, 2915
1533, 2154, 2602, 807, 2593
1534, 2305, 2447, 2189, 699
1535, 2447, 2420, 698, 2189
1536, 672, 2446, 2351, 2607
1537, 1411, 2004, 2231, 974
1538, 961, 1613, 1478, 2449
1539, 2993, 972, 1409, 2111
1540, 2822, 2001, 2849, 1613
1541, 539, 2452, 2453, 1452
1542, 1452, 2453, 2450, 540
1543, 2453, 2451, 811, 2450
1544, 2452, 810, 2451, 2453
1545, 2904, 2354, 919, 2212
1546, 2540, 1937, 1939, 1938
1547, 2708, 2454, 2024, 1033
1548, 1003, 1640, 994, 2426
1549, 666, 240, 418, 663
1550, 805, 2316, 2118, 1912
1551, 2459, 228, 430, 1518
1552, 2536, 2740, 2942, 2102
1553, 2395, 2460, 2387, 2176
1554, 735, 1043, 734, 2786
1555, 1137, 816, 2281, 1046
1556, 2152, 2380, 852, 2186
1557, 1057, 1637, 1667, 1236
1558, 996, 2443, 2467, 2465
1559, 2465, 2467, 2466, 1021
1560, 2467, 2334, 1009, 2466
1561, 2443, 995, 2334, 2467
1562, 2740, 788, 1109, 2942
1563, 804, 2317, 2460, 2395
1564, 795, 2560, 2616, 2461
1565, 2469, 1224, 664, 801
1566, 1770, 1098, 2134, 2905
1567, 1008, 2207, 1098, 1770
1568, 1824, 1014, 186, 472
1569, 2364, 300, 358, 2638
1570, 2802, 2645, 1564, 1716
1571, 1636, 359, 300, 2364
1572, 2068, 1989, 1281, 2271
1573, 2373, 239, 419, 713
1574, 799, 1982, 2928, 2386
1575, 1037, 2440, 2475, 2474
1576, 2474, 2475, 2283, 1030
1577, 2475, 1353, 574, 2283
1578, 2440, 578, 1353, 2475
1579, 539, 1838, 2478, 2452
1580, 2452, 2478, 2476, 810
1581, 2478, 2477, 806, 2476
1582, 1838, 542, 2477, 2478
1583, 938, 1908, 2480, 1994
1584, 1994, 2480, 2479, 942
1585, 2480, 2341, 940, 2479
1586, 1908, 943, 2341, 2480
1587, 518, 1643, 2482, 2406
1588, 2406, 2482, 2481, 586
1589, 2482, 1917, 516, 2481
1590, 1643, 519, 1917, 2482
1591, 2927, 589, 2876, 1264
1592, 581, 1504, 252, 406
1593, 2855, 1267, 692, 1054
1594, 540, 2450, 2486, 1879
1595, 1879, 2486, 1729, 541
1596, 2486, 1930, 538, 1729
1597, 2450, 811, 1930, 2486
1598, 1868, 1590, 517, 2565
1599, 656, 2763, 1106, 657
1600, 2489, 116, 127, 1145
1601, 532, 1915, 2491, 2490
1602, 2490, 2491, 1854, 706
1603, 2491, 1673, 508, 1854
1604, 1915, 509, 1673, 2491
1605, 2604, 2606, 1055, 676
1606, 2955, 1053, 1267, 2855
1607, 663, 418, 241, 2722
1608, 696, 2587, 1053, 2955
1609, 691, 1998, 2497, 2495
1610, 2495, 2497, 2139, 692
1611, 1229, 1794, 2183, 1228
1612, 1030, 2498, 2499, 2474
1613, 2474, 2499, 1938, 1037
1614, 1253, 1303, 917, 2966
1615, 908, 2646, 2121, 2967
1616, 935, 1351, 1968, 924
1617, 2500, 2501, 2037, 932
1618, 2501, 1913, 933, 2037
1619, 928, 2162, 1218, 1261
1620, 1120, 1188, 1842, 2902
1621, 2960, 2543, 1892, 1970
1622, 2902, 1842, 726, 2103
1623, 2069, 743, 2886, 2873
1624, 2979, 2990, 728, 730
1625, 1440, 2960, 1970, 2934
1626, 732, 701, 2583, 2502
1627, 1334, 2536, 2102, 2554
1628, 806, 2508, 2509, 2476
1629, 2476, 2509, 2506, 810
1630, 2509, 2508, 808, 1170
1631, 1232, 1233, 2507, 901
1632, 2895, 2943, 888, 890
1633, 903, 2676, 2895, 809
1634, 2900, 319, 339, 1806
1635, 2666, 1811, 1596, 2117
1636, 2571, 368, 291, 1535
1637, 1822, 2885, 1392, 1783
1638, 1254, 288, 370, 550
1639, 2929, 549, 1537, 834
1640, 2008, 2856, 1477, 894
1641, 1262, 2764, 1545, 2107
1642, 1396, 2907, 1977, 2827
1643, 2502, 2583, 511, 1405
1644, 2461, 2616, 2960, 1440
1645, 2052, 2503, 2516, 704
1646, 2583, 2054, 1298, 511
1647, 529, 2188, 2517, 1336
1648, 1336, 2517, 2481, 516
1649, 2517, 2421, 586, 2481
1650, 2188, 698, 2421, 2517
1651, 1393, 109, 100, 617
1652, 2396, 614, 1584, 2572
1653, 1357, 2519, 1502, 2714
1654, 2996, 2822, 1613, 961
1655, 1472, 2988, 1471, 2848
1656, 2025, 1516, 2459, 1518
1657, 2997, 428, 231, 2119
1658, 1891, 1412, 1458, 1084
1659, 1200, 2115, 2279, 2705
1660, 1097, 990, 573, 2564
1661, 1163, 967, 988, 515
1662, 1691, 1175, 2180, 2303
1663, 2965, 2006, 2007, 2005
1664, 2965, 2521, 2523, 1215
1665, 763, 1427, 2682, 2910
1666, 2094, 1377, 1427, 763
1667, 963, 969, 2523, 2521
1668, 1403, 769, 766, 1533
1669, 1090, 1587, 753, 1846
1670, 2701, 1419, 2993, 2001
1671, 1408, 2781, 964, 1420
1672, 2143, 225, 433, 1989
1673, 2560, 794, 1363, 721
1674, 1910, 1147, 2317, 804
1675, 687, 1682, 2026, 2418
1676, 688, 717, 1369, 2679
1677, 718, 1368, 712, 2000
1678, 704, 2516, 703, 1125
1679, 836, 2512, 2539, 2177
1680, 2177, 2539, 2538, 553
1681, 2539, 1886, 840, 2538
1682, 2512, 838, 1886, 2539
1683, 906, 2259, 2541, 2284
1684, 2284, 2541, 2498, 1030
1685, 2925, 1132, 1293, 2939
1686, 1257, 2939, 2708, 1033
1687, 796, 2336, 2347, 2348
1688, 794, 659, 1185, 1363
1689, 2469, 801, 802, 1313
1690, 1225, 1891, 1084, 1373
1691, 2901, 1666, 1928, 2542
1692, 803, 797, 798, 723
1693, 706, 2545, 2546, 2490
1694, 2490, 2546, 1421, 532
1695, 2546, 1946, 533, 1421
1696, 2545, 707, 1946, 2546
1697, 1542, 761, 1540, 2844
1698, 1836, 2337, 2073, 751
1699, 2433, 448, 211, 757
1700, 2042, 33, 41, 2525
1701, 2116, 1420, 987, 2002
1702, 1097, 2042, 2525, 990
1703, 1103, 2551, 2921, 1285
1704, 2969, 2966, 2569, 2968
1705, 914, 1258, 2080, 952
1706, 2971, 916, 2499, 2498
1707, 702, 2417, 2555, 1855
1708, 1855, 2555, 2545, 706
1709, 716, 2219, 1221, 2963
1710, 2639, 1126, 735, 776
1711, 2639, 2225, 2052, 704
1712, 2048, 1870, 2049, 719
1713, 2616, 1585, 2543, 2960
1714, 2586, 2961, 1086, 2589
1715, 2153, 560, 867, 887
1716, 1639, 1808, 872, 2171
1717, 1667, 874, 1220, 1447
1718, 2135, 2394, 1017, 1771
1719, 989, 1497, 3, 32
1720, 2587, 676, 1148, 1053
1721, 734, 1154, 1110, 1143
1722, 2503, 512, 1107, 2516
1723, 2720, 1867, 636, 2631
1724, 520, 2407, 585, 1050
1725, 1263, 1866, 521, 522
1726, 2927, 1264, 115, 126
1727, 1616, 1035, 2646, 908
1728, 1034, 2402, 1103, 2669
1729, 1133, 1612, 1302, 2454
1730, 1892, 707, 2545, 2555
1731, 686, 723, 2559, 2101
1732, 1064, 373, 286, 830
1733, 1805, 1629, 2577, 549
1734, 1268, 1535, 609, 1818
1735, 1142, 2514, 1270, 1852
1736, 2867, 2329, 621, 1153
1737, 2780, 1529, 2518, 2264
1738, 1801, 2672, 2689, 613
1739, 2689, 1890, 1089, 628
1740, 2948, 1066, 1234, 575
1741, 950, 937, 1993, 1036
1742, 2121, 1287, 2617, 1031
1743, 2948, 1790, 1791, 1611
1744, 830, 286, 372, 1626
1745, 1786, 2861, 1294, 829
1746, 2861, 1463, 2671, 1785
1747, 1877, 1391, 1573, 551
1748, 1904, 1541, 2149, 2579
1749, 1656, 353, 306, 847
1750, 2276, 1904, 2579, 2361
1751, 1075, 1971, 1561, 1455
1752, 743, 1108, 742, 2886
1753, 2505, 2976, 2977, 2581
1754, 2592, 1143, 2359, 2357
1755, 2331, 1077, 1494, 1695
1756, 1201, 309, 349, 812
1757, 543, 2356, 2079, 1902
1758, 1044, 75, 87, 1894
1759, 1457, 1315, 717, 688
1760, 1911, 2743, 2753, 1996
1761, 2963, 1221, 2100, 2959
1762, 2076, 2864, 1972, 2580
1763, 1077, 827, 73, 85
1764, 849, 821, 2792, 1493
1765, 561, 340, 319, 2900
1766, 1311, 277, 381, 2574
1767, 613, 2689, 628, 2397
1768, 1486, 1859, 1311, 2574
1769, 2505, 2890, 2990, 2976
1770, 780, 1324, 2740, 2536
1771, 1492, 2382, 814, 2830
1772, 2842, 859, 856, 2667
1773, 2356, 845, 1973, 2079
1774, 1944, 545, 2747, 554
1775, 2940, 1235, 1745, 2623
1776, 2939, 1293, 2456, 2708
1777, 2974, 2158, 914, 2455
1778, 2155, 2837, 1032, 2157
1779, 2564, 573, 1028, 1780
1780, 1098, 2818, 965, 2134
1781, 2948, 1133, 2456, 1066
1782, 807, 2602, 2603, 1071
1783, 1071, 2603, 2508, 806
1784, 2603, 2601, 808, 2508
1785, 866, 2601, 2603, 2602
1786, 2306, 2636, 2586, 1266
1787, 1267, 2813, 2495, 692
1788, 1324, 2678, 788, 2740
1789, 2813, 1146, 691, 2495
1790, 677, 2137, 697, 2870
1791, 2349, 2343, 1104, 2883
1792, 2235, 1907, 1905, 2760
1793, 1093, 2130, 2132, 2634
1794, 1094, 2050, 2685, 2932
1795, 2170, 2823, 1890, 2169
1796, 2923, 1029, 2904, 2869
1797, 2596, 908, 2967, 1251
1798, 1248, 932, 2030, 2027
1799, 2212, 919, 2859, 2158
1800, 2502, 1405, 512, 2503
1801, 2787, 1797, 1703, 537
1802, 2992, 2981, 2439, 2987
1803, 610, 1620, 1510, 2687
1804, 1074, 1511, 103, 94
1805, 1819, 1872, 363, 296
1806, 1573, 2924, 96, 106
1807, 507, 1959, 2614, 1704
1808, 1704, 2614, 1118, 537
1809, 2614, 1882, 726, 1118
1810, 1959, 725, 1882, 2614
1811, 2679, 1369, 2336, 796
1812, 2101, 2559, 1666, 2901
1813, 919, 1245, 2352, 2859
1814, 2300, 2788, 2824, 2194
1815, 1246, 941, 2018, 1610
1816, 1056, 1351, 935, 1205
1817, 1101, 2122, 1025, 1234
1818, 916, 1250, 1257, 2540
1819, 2622, 1246, 1610, 2972
1820, 921, 1249, 2214, 2922
1821, 1450, 597, 391, 268
1822, 640, 2938, 2809, 600
1823, 1677, 1678, 2392, 1670
1824, 2133, 2470, 2304, 1272
1825, 572, 515, 1497, 989
1826, 2690, 572, 2232, 1479
1827, 2600, 2599, 1023, 2627
1828, 1486, 2574, 1274, 627
1829, 1529, 612, 1793, 2518
1830, 617, 100, 7, 1528
1831, 1264, 2876, 2831, 1941
1832, 1945, 582, 1051, 2952
1833, 2871, 216, 442, 1190
1834, 2516, 1107, 2612, 703
1835, 2942, 1109, 2879, 1042
1836, 1222, 804, 2395, 2745
1837, 1185, 1085, 2957, 2958
1838, 616, 2865, 2867, 2170
1839, 1890, 2823, 622, 1089
1840, 2131, 2892, 1093, 2233
1841, 2235, 123, 113, 1907
1842, 798, 2296, 793, 2120
1843, 2956, 2492, 2305, 2307
1844, 1174, 2306, 1266, 2604
1845, 2365, 2366, 1900, 2473
1846, 1547, 823, 2366, 2365
1847, 2644, 1716, 825, 1099
1848, 1549, 2953, 301, 357
1849, 2612, 1606, 1797, 2787
1850, 2071, 218, 440, 2205
1851, 1042, 2879, 701, 732
1852, 2943, 1861, 1863, 1862
1853, 889, 2511, 2814, 886
1854, 2943, 1862, 1932, 1931
1855, 2915, 901, 808, 2601
1856, 1548, 2364, 2638, 2643
1857, 552, 360, 299, 547
1858, 2899, 1548, 2643, 2645
1859, 1563, 1901, 1874, 1849
1860, 1848, 835, 822, 2637
1861, 823, 2802, 1895, 2366
1862, 1900, 1848, 2637, 821
1863, 2975, 1253, 2966, 2969
1864, 912, 922, 2652, 2260
1865, 1035, 2096, 2882, 2646
1866, 1754, 2344, 2790, 1843
1867, 2632, 2720, 2631, 588
1868, 600, 2809, 1735, 1650
1869, 1669, 2368, 2624, 1651
1870, 1735, 1649, 2881, 2626
1871, 2938, 1669, 1651, 2809
1872, 2865, 2932, 2329, 2867
1873, 1278, 604, 2608, 601
1874, 1384, 1204, 1546, 1395
1875, 1293, 2782, 1066, 2456
1876, 635, 2853, 2680, 1899
1877, 2680, 2633, 2887, 2055
1878, 2607, 2351, 1134, 2484
1879, 761, 2547, 2659, 1540
1880, 1531, 1985, 985, 958
1881, 768, 2706, 2415, 1955
1882, 2683, 750, 2045, 2880
1883, 1418, 469, 190, 972
1884, 988, 1498, 1497, 515
1885, 2658, 2005, 571, 1305
1886, 1215, 2523, 2522, 1091
1887, 725, 1960, 2659, 1881
1888, 2768, 746, 2504, 2224
1889, 2711, 1566, 2744, 1542
1890, 1472, 2709, 2656, 2988
1891, 601, 2608, 2892, 2131
1892, 2892, 2697, 2130, 1093
1893, 1360, 2383, 2266, 2398
1894, 1087, 593, 599, 525
1895, 1574, 1805, 549, 2929
1896, 2613, 1733, 1465, 1853
1897, 2513, 1853, 91, 101
1898, 1513, 1822, 526, 2924
1899, 2891, 2153, 887, 858
1900, 2665, 2150, 818, 2862
1901, 1694, 2149, 1541, 1850
1902, 2620, 2940, 2623, 2610
1903, 973, 962, 2531, 2532
1904, 2948, 1611, 1612, 1133
1905, 910, 2619, 2618, 913
1906, 1036, 1993, 942, 2096
1907, 2647, 1252, 2122, 1101
1908, 514, 1864, 1464, 2664
1909, 1503, 284, 374, 1073
1910, 1876, 289, 369, 1732
1911, 2663, 1622, 837, 2613
1912, 834, 1537, 608, 1786
1913, 1465, 1534, 1063, 6
1914, 831, 1877, 551, 1140
1915, 1853, 1465, 6, 91
1916, 2132, 1449, 592, 2634
1917, 1151, 601, 2131, 606
1918, 606, 2131, 2233, 1280
1919, 2169, 1890, 2689, 2672
1920, 2196, 2712, 2917, 1237
1921, 2862, 818, 2590, 862
1922, 1971, 2593, 1081, 1561
1923, 2888, 2855, 1054, 677
1924, 1982, 722, 1981, 2928
1925, 1867, 587, 2733, 636
1926, 2310, 645, 1630, 631
1927, 2815, 1115, 2113, 2641
1928, 560, 341, 318, 867
1929, 2676, 1861, 2943, 2895
1930, 1233, 2642, 1170, 2507
1931, 2501, 2737, 1260, 1913
1932, 2783, 2737, 2501, 2500
1933, 1102, 1616, 908, 2596
1934, 2859, 2352, 915, 1258
1935, 1582, 714, 2544, 715
1936, 714, 2937, 2799, 2544
1937, 1312, 666, 663, 2316
1938, 672, 2607, 2655, 674
1939, 1775, 2724, 2496, 1774
1940, 1049, 2422, 2423, 2420
1941, 547, 299, 359, 1636
1942, 1739, 298, 360, 552
1943, 2756, 774, 771, 2211
1944, 2013, 1543, 1956, 2010
1945, 2011, 2707, 2312, 2063
1946, 2975, 2029, 2597, 1253
1947, 2610, 2623, 1029, 2923
1948, 2457, 2596, 1251, 2775
1949, 948, 2949, 953, 954
1950, 1584, 1583, 1358, 1859
1951, 602, 2662, 121, 111
1952, 1277, 594, 1481, 620
1953, 1095, 1088, 1094, 2234
1954, 1072, 828, 2670, 1255
1955, 2613, 837, 1466, 1733
1956, 1865, 371, 288, 1254
1957, 1733, 1466, 1620, 610
1958, 2182, 2350, 1178, 682
1959, 2724, 662, 2138, 2496
1960, 1889, 1437, 591, 1888
1961, 2932, 2685, 2330, 2329
1962, 1283, 1801, 613, 1583
1963, 2384, 2931, 378, 281
1964, 977, 2471, 2288, 1686
1965, 1028, 2627, 2548, 1780
1966, 2627, 1023, 2470, 2548
1967, 2114, 2369, 1499, 2313
1968, 2897, 1199, 2736, 1038
1969, 2002, 987, 464, 195
1970, 860, 2282, 347, 312
1971, 1059, 2087, 2796, 2510
1972, 1902, 2079, 1724, 827
1973, 2186, 852, 815, 848
1974, 1022, 2693, 2694, 2599
1975, 2599, 2694, 1176, 1023
1976, 2694, 2465, 1021, 1176
1977, 2693, 996, 2465, 2694
1978, 2362, 843, 2277, 2944
1979, 853, 2585, 1083, 2276
1980, 812, 349, 310, 1436
1981, 1813, 1082, 1184, 891
1982, 557, 2510, 1383, 2297
1983, 1236, 2363, 1059, 869
1984, 2918, 898, 1425, 1507
1985, 2625, 2059, 2874, 595
1986, 1113, 2086, 2061, 523
1987, 604, 2651, 2650, 2608
1988, 1279, 2051, 1592, 624
1989, 2221, 2046, 209, 449
1990, 2093, 2125, 1428, 1555
1991, 1471, 2094, 763, 2698
1992, 788, 1440, 2934, 1109
1993, 1069, 2128, 2090, 2926
1994, 2569, 2684, 1235, 2940
1995, 2193, 2919, 502, 157
1996, 974, 2231, 2448, 2994
1997, 1835, 1770, 2905, 991
1998, 2702, 2658, 1305, 986
1999, 801, 664, 2144, 693
2000, 2296, 710, 2704, 792
2001, 1374, 2010, 2322, 1404
2002, 1480, 2114, 2313, 2312
2003, 963, 1823, 2084, 969
2004, 985, 1985, 2964, 2841
2005, 1281, 226, 432, 1362
2006, 2704, 2315, 1817, 669
2007, 2869, 2904, 2212, 920
2008, 2576, 2916, 999, 1065
2009, 1530, 2836, 618, 2519
2010, 1216, 2313, 1499, 979
2011, 767, 2064, 765, 2528
2012, 1532, 2323, 2013, 2012
2013, 959, 2531, 2707, 2011
2014, 1425, 873, 2673, 2164
2015, 1203, 1668, 1851, 2195
2016, 2857, 891, 336, 323
2017, 1157, 1068, 1115, 2815
2018, 923, 1979, 864, 885
2019, 891, 1184, 322, 336
2020, 1207, 1424, 1209, 1551
2021, 2715, 831, 1140, 1814
2022, 2931, 1802, 280, 378
2023, 549, 2577, 1141, 1537
2024, 2854, 1052, 1385, 2847
2025, 558, 934, 1978, 2034
2026, 2413, 2106, 1116, 897
2027, 982, 1273, 2115, 1200
2028, 1613, 2849, 978, 1478
2029, 965, 473, 186, 1014
2030, 2533, 976, 2995, 1832
2031, 1603, 1051, 582, 1844
2032, 2909, 2946, 1664, 2229
2033, 2633, 1050, 2739, 2887
2034, 730, 728, 733, 2318
2035, 1587, 456, 203, 753
2036, 1554, 774, 2756, 2148
2037, 2416, 1090, 1846, 1128
2038, 2066, 1980, 2294, 2751
2039, 1326, 1816, 2067, 2203
2040, 1441, 2220, 1326, 2065
2041, 2745, 2395, 2176, 1172
2042, 1775, 684, 2725, 1580
2043, 2142, 1609, 1578, 2391
2044, 1608, 2182, 682, 1525
2045, 661, 2431, 2200, 2790
2046, 2876, 1263, 522, 2831
2047, 1105, 2057, 1505, 2487
2048, 1144, 1867, 2720, 1866
2049, 589, 2568, 1263, 2876
2050, 981, 462, 197, 2064
2051, 2656, 2529, 1376, 2416
2052, 1500, 196, 462, 981
2053, 1847, 759, 454, 205
2054, 999, 1040, 2828, 1065
2055, 1041, 485, 174, 1039
2056, 2835, 2806, 1747, 2272
2057, 2122, 1252, 911, 2916
2058, 2945, 1560, 2381, 2578
2059, 819, 1137, 1046, 2463
2060, 2864, 2595, 2594, 1972
2061, 1381, 555, 1903, 2075
2062, 633, 2734, 2735, 2733
2063, 2733, 2735, 1121, 636
2064, 2735, 2436, 629, 1121
2065, 2734, 634, 2436, 2735
2066, 2207, 2290, 2818, 1098
2067, 1766, 2303, 1013, 1803
2068, 966, 971, 2003, 2409
2069, 1983, 892, 564, 1241
2070, 1208, 1238, 2300, 1638
2071, 885, 864, 154, 504
2072, 2908, 899, 1434, 1060
2073, 2737, 925, 2263, 1260
2074, 2340, 928, 1261, 1600
2075, 2162, 1400, 1401, 1218
2076, 1211, 1681, 2488, 2227
2077, 2674, 2346, 2763, 656
2078, 2345, 2252, 2371, 2784
2079, 2271, 1281, 1362, 1870
2080, 2460, 2317, 422, 237
2081, 1581, 803, 723, 686
2082, 781, 2741, 2742, 2245
2083, 2245, 2742, 2357, 782
2084, 1154, 2978, 1111, 1110
2085, 744, 2786, 2592, 2319
2086, 2956, 1173, 2306, 1174
2087, 675, 1442, 2743, 1911
2088, 1172, 2176, 718, 1869
2089, 2185, 204, 454, 759
2090, 1426, 2682, 759, 1847
2091, 1990, 2049, 800, 668
2092, 2537, 1155, 705, 795
2093, 2219, 1581, 686, 1221
2094, 1461, 2851, 2149, 1694
2095, 2793, 2846, 1964, 2360
2096, 2510, 2796, 2077, 1383
2097, 1756, 2127, 926, 1243
2098, 2127, 928, 2340, 926
2099, 1484, 2430, 2497, 1998
2100, 1526, 2920, 414, 245
2101, 2722, 241, 417, 1328
2102, 660, 242, 416, 2067
2103, 728, 2556, 2877, 733
2104, 2338, 745, 2375, 1841
2105, 1188, 731, 1124, 1842
2106, 693, 2144, 1988, 2385
2107, 2418, 2026, 724, 659
2108, 800, 227, 431, 668
2109, 771, 2095, 451, 208
2110, 752, 1522, 1565, 2136
2111, 1540, 2659, 1960, 727
2112, 2221, 449, 210, 741
2113, 998, 1000, 2403, 2273
2114, 2354, 2757, 1245, 919
2115, 2922, 2214, 946, 1197
2116, 1640, 2805, 2247, 994
2117, 1175, 179, 479, 2180
2118, 1696, 480, 179, 1175
2119, 1162, 2466, 1009, 1697
2120, 1781, 2181, 478, 181
2121, 616, 2170, 2169, 619
2122, 2634, 592, 1437, 1889
2123, 1160, 2234, 2865, 616
2124, 2686, 2235, 2760, 524
2125, 2057, 2762, 1047, 2605
2126, 1105, 1048, 2762, 2057
2127, 2795, 1105, 2487, 647
2128, 647, 2487, 404, 255
2129, 2034, 2716, 1653, 2843
2130, 2257, 935, 924, 1521
2131, 1996, 2753, 1998, 691
2132, 2751, 694, 1055, 1314
2133, 2287, 1754, 1843, 2852
2134, 2825, 2952, 2719, 587
2135, 2831, 522, 2649, 1940
2136, 2566, 2825, 1144, 2568
2137, 2147, 1538, 1120, 2902
2138, 1126, 1125, 2567, 2557
2139, 1230, 2462, 2105, 2339
2140, 2376, 212, 446, 1539
2141, 756, 2136, 2337, 1836
2142, 1018, 1013, 2893, 2181
2143, 2394, 1026, 960, 1017
2144, 2146, 2863, 1005, 1007
2145, 2677, 2500, 932, 1248
2146, 2213, 2552, 911, 1252
2147, 2551, 950, 1036, 2921
2148, 1285, 2921, 1035, 1616
2149, 2624, 1114, 2059, 2625
2150, 2240, 2773, 2771, 639
2151, 2773, 2772, 588, 2771
2152, 1538, 1214, 2991, 1120
2153, 2766, 2433, 757, 1524
2154, 2975, 2541, 2259, 2029
2155, 917, 909, 2832, 2684
2156, 2623, 1745, 1196, 1029
2157, 2618, 2677, 1248, 913
2158, 1289, 2535, 2794, 2524
2159, 1970, 1892, 2555, 2417
2160, 1259, 2770, 2575, 1067
2161, 1132, 2611, 2782, 1293
2162, 2570, 1788, 2925, 1250
2163, 1025, 2122, 2916, 2576
2164, 2431, 690, 2201, 2200
2165, 1775, 2142, 2898, 2724
2166, 1580, 2137, 2140, 1609
2167, 2628, 1501, 1529, 2780
2168, 1284, 2399, 1357, 2630
2169, 2396, 2572, 2807, 1501
2170, 2935, 2591, 614, 2396
2171, 1150, 2909, 2840, 2785
2172, 1662, 650, 1755, 2058
2173, 673, 1898, 2058, 1602
2174, 648, 2229, 1193, 583
2175, 1410, 2002, 195, 463
2176, 2110, 1799, 1080, 2333
2177, 2534, 2332, 2004, 1411
2178, 2782, 1101, 1234, 1066
2179, 2770, 1031, 2622, 2575
2180, 1052, 2854, 2777, 2950
2181, 2907, 2129, 927, 1977
2182, 2090, 2783, 2500, 2677
2183, 564, 2217, 1394, 2099
2184, 1967, 884, 2749, 1966
2185, 1826, 648, 583, 1149
2186, 646, 2228, 1827, 1632
2187, 1604, 256, 402, 2946
2188, 1826, 1149, 2309, 1192
2189, 731, 2338, 1841, 1124
2190, 2205, 2434, 1625, 740
2191, 2148, 2756, 1522, 752
2192, 558, 2445, 2561, 1061
2193, 929, 1205, 2856, 2008
2194, 2410, 2801, 1167, 2748
2195, 2216, 871, 1979, 1389
2196, 2506, 2509, 1170, 2642
2197, 2506, 2789, 2451, 810
2198, 2789, 1931, 811, 2451
2199, 1637, 1920, 866, 1991
2200, 2286, 655, 1753, 1211
2201, 678, 2913, 1579, 662
2202, 1180, 2040, 249, 409
2203, 1602, 2058, 1755, 2251
2204, 2906, 850, 2380, 2152
2205, 1202, 2808, 2590, 818
2206, 1904, 844, 2150, 1541
2207, 1381, 1694, 1850, 555
2208, 2673, 2033, 559, 1183
2209, 1921, 2166, 880, 2894
2210, 870, 1448, 2891, 563
2211, 2379, 316, 342, 872
2212, 2554, 2639, 776, 1367
2213, 1367, 776, 744, 2535
2214, 1191, 1602, 2251, 2036
2215, 2252, 1826, 1192, 2371
2216, 1145, 127, 117, 1868
2217, 580, 520, 1050, 2633
2218, 1117, 2565, 520, 580
2219, 867, 318, 340, 561
2220, 1166, 2894, 2675, 1158
2221, 2176, 2387, 1368, 718
2222, 2956, 2307, 1933, 1173
2223, 2934, 1970, 2417, 2419
2224, 2604, 1266, 2896, 2606
2225, 2640, 716, 2963, 1682
2226, 2468, 669, 425, 234
2227, 1804, 1821, 294, 364
2228, 2519, 618, 1503, 1502
2229, 2574, 381, 278, 1274
2230, 1513, 1255, 2885, 1822
2231, 2875, 893, 2255, 2106
2232, 1099, 825, 302, 356
2233, 2472, 2954, 841, 824
2234, 1634, 1741, 303, 355
2235, 1895, 2644, 835, 1848
2236, 820, 1139, 2804, 1671
2237, 1671, 2804, 2637, 822
2238, 2804, 2792, 821, 2637
2239, 1139, 819, 2792, 2804
2240, 2400, 2432, 175, 483
2241, 949, 2728, 1001, 1024
2242, 954, 2730, 998, 2274
2243, 2520, 1309, 1485, 607
2244, 2264, 2518, 2384, 1858
2245, 605, 2686, 524, 1095
2246, 1088, 1151, 2050, 1094
2247, 845, 2477, 542, 1973
2248, 1447, 870, 563, 2363
2249, 1725, 2078, 1201, 1495
2250, 2192, 2089, 882, 2160
2251, 1920, 2915, 2601, 866
2252, 2112, 2014, 2113, 1115
2253, 523, 2061, 598, 596
2254, 1648, 2773, 2240, 1129
2255, 2060, 2648, 2811, 1292
2256, 641, 1291, 1669, 2938
2257, 1286, 1102, 2596, 2457
2258, 2402, 910, 913, 2973
2259, 1351, 2218, 895, 1968
2260, 2894, 880, 1922, 2675
2261, 901, 2507, 1170, 808
2262, 863, 562, 565, 1168
2263, 1678, 263, 395, 2392
2264, 2392, 395, 264, 2086
2265, 670, 581, 406, 253
2266, 1224, 685, 791, 1517
2267, 715, 2537, 2678, 1324
2268, 676, 1055, 694, 1148
2269, 2812, 2872, 2961, 1290
2270, 1148, 694, 1146, 2813
2271, 1174, 2604, 676, 2587
2272, 1169, 902, 2173, 1061
2273, 902, 1920, 1637, 2173
2274, 2943, 1931, 2789, 888
2275, 1079, 2145, 1177, 2863
2276, 2839, 1020, 2527, 1789
2277, 1479, 2232, 1097, 2564
2278, 1799, 2868, 1690, 1080
2279, 1019, 2691, 1026, 2394
2280, 1006, 1696, 1175, 1691
2281, 2179, 2526, 182, 476
2282, 2289, 1006, 1691, 1692
2283, 2839, 1096, 977, 2897
2284, 2449, 1478, 1825, 1496
2285, 1135, 974, 2994, 1480
2286, 588, 2631, 2820, 2771
2287, 2771, 2820, 2291, 639
2288, 2820, 1122, 637, 2291
2289, 2631, 636, 1122, 2820
2290, 986, 1306, 1498, 988
2291, 2759, 183, 475, 2563
2292, 2849, 2111, 2108, 978
2293, 2115, 192, 466, 2279
2294, 2471, 1835, 991, 2288
2295, 964, 2817, 992, 1833
2296, 1136, 973, 2532, 2522
2297, 2134, 965, 1014, 960
2298, 2608, 2650, 2697, 2892
2299, 525, 599, 2051, 1279
2300, 2330, 525, 1279, 2635
2301, 2761, 2889, 1277, 593
2302, 2511, 903, 809, 2814
2303, 1520, 2875, 2106, 2413
2304, 2414, 2193, 157, 501
2305, 2811, 2632, 588, 2772
2306, 1145, 1868, 2565, 1117
2307, 521, 2632, 2811, 2648
2308, 1130, 2696, 1940, 2649
2309, 2241, 1736, 642, 1114
2310, 640, 600, 2132, 2130
2311, 2626, 2881, 392, 267
2312, 2112, 2016, 2017, 2014
2313, 2445, 1352, 1208, 881
2314, 2800, 1069, 2926, 2126
2315, 2806, 2273, 2834, 1747
2316, 2834, 956, 2837, 2155
2317, 2828, 2693, 1022, 1065
2318, 2442, 996, 2693, 2828
2319, 1100, 2472, 824, 2829
2320, 825, 1549, 357, 302
2321, 2366, 1895, 1848, 1900
2322, 1563, 1547, 2365, 1181
2323, 2361, 2579, 1560, 2945
2324, 1559, 2151, 1962, 2412
2325, 2944, 2277, 2808, 1202
2326, 1107, 512, 1406, 1607
2327, 2739, 672, 674, 2887
2328, 2029, 2259, 2261, 912
2329, 2598, 2947, 2353, 2600
2330, 2024, 1304, 1301, 576
2331, 219, 439, 1624, 2434
2332, 1721, 1722, 2435, 2222
2333, 2204, 1720, 783, 2424
2334, 2828, 1040, 997, 2442
2335, 2403, 2729, 1041, 956
2336, 948, 954, 2274, 2308
2337, 2621, 2156, 1787, 2325
2338, 953, 2388, 2389, 1746
2339, 913, 1248, 2027, 2973
2340, 1001, 1032, 955, 2432
2341, 1503, 618, 375, 284
2342, 1514, 383, 276, 615
2343, 1793, 2398, 1802, 2931
2344, 626, 1359, 1800, 2591
2345, 1000, 2850, 2729, 2403
2346, 1787, 172, 486, 2850
2347, 2028, 2777, 2619, 910
2348, 2281, 847, 850, 2906
2349, 2692, 1839, 83, 72
2350, 849, 544, 2681, 821
2351, 814, 2732, 2584, 544
2352, 724, 2941, 2812, 1085
2353, 2838, 2236, 777, 2347
2354, 2741, 781, 2236, 2838
2355, 1272, 2304, 1016, 2821
2356, 1690, 2135, 1771, 2043
2357, 654, 673, 1602, 1191
2358, 2852, 1843, 650, 1662
2359, 2853, 580, 2633, 2680
2360, 1020, 1163, 2690, 2527
2361, 2393, 1200, 2705, 1767
2362, 986, 1305, 1308, 1306
2363, 1078, 1614, 187, 471
2364, 2930, 2370, 2996, 2332
2365, 1186, 1198, 2701, 2085
2366, 976, 470, 189, 2995
2367, 1509, 768, 1402, 2324
2368, 2063, 2312, 2313, 1216
2369, 980, 1532, 2012, 2092
2370, 1470, 1954, 200, 458
2371, 2151, 1436, 2378, 1962
2372, 1964, 2860, 1965, 842
2373, 1493, 2463, 2864, 2076
2374, 1077, 85, 74, 1494
2375, 2087, 858, 1812, 2796
2376, 858, 887, 2377, 1812
2377, 2091, 2710, 767, 2528
2378, 2323, 1375, 1543, 2013
2379, 2044, 1847, 205, 453
2380, 2558, 1225, 1373, 1223
2381, 2203, 2067, 416, 243
2382, 681, 2295, 2920, 1526
2383, 555, 1850, 2665, 1435
2384, 851, 1943, 2282, 1963
2385, 2667, 856, 313, 345
2386, 2827, 159, 499, 1204
2387, 155, 2160, 885, 504
2388, 1242, 1396, 1384, 1756
2389, 2462, 1212, 736, 1227
2390, 747, 752, 2136, 756
2391, 750, 1473, 2965, 1215
2392, 1314, 1055, 2606, 1646
2393, 2776, 2469, 1313, 2615
2394, 705, 2418, 659, 794
2395, 2817, 1767, 984, 992
2396, 969, 2084, 2819, 1136
2397, 1496, 1825, 1834, 2781
2398, 2232, 572, 989, 2230
2399, 2598, 2600, 2627, 1028
2400, 2833, 2400, 483, 176
2401, 2967, 2121, 1031, 2770
2402, 2389, 1699, 2621, 1746
2403, 1043, 2581, 1154, 734
2404, 2879, 2419, 2053, 701
2405, 2786, 734, 1143, 2592
2406, 2580, 1972, 2362, 2585
2407, 2074, 1559, 2412, 2846
2408, 2057, 2605, 680, 1505
2409, 2726, 2765, 1945, 2566
2410, 672, 1049, 2485, 2446
2411, 2566, 1945, 2952, 2825
2412, 2565, 517, 2407, 520
2413, 2973, 2027, 950, 2551
2414, 2606, 2896, 658, 1646
2415, 1981, 2468, 234, 424
2416, 1173, 1934, 2636, 2306
2417, 2428, 2328, 871, 2216
2418, 895, 2191, 1386, 884
2419, 2641, 904, 1861, 2676
2420, 873, 2562, 2033, 2673
2421, 2796, 1812, 2196, 2077
2422, 2562, 1382, 2032, 2033
2423, 1864, 1502, 1503, 1073
2424, 1295, 287, 371, 1865
2425, 1510, 1142, 1852, 1820
2426, 1195, 2936, 2950, 2031
2427, 2600, 2353, 1022, 2599
2428, 2027, 2030, 937, 950
2429, 2748, 2262, 889, 2810
2430, 2814, 809, 1159, 1919
2431, 2843, 1653, 1166, 562
2432, 1973, 542, 1839, 2692
2433, 1433, 854, 315, 343
2434, 854, 1809, 344, 315
2435, 609, 367, 292, 2858
2436, 1871, 1621, 1577, 1872
2437, 2885, 548, 1256, 1392
2438, 2463, 1046, 2595, 2864
2439, 1199, 1686, 1027, 2868
2440, 2816, 1697, 1692, 1766
2441, 2863, 1177, 2208, 1005
2442, 2117, 1596, 321, 337
2443, 1724, 2692, 72, 84
2444, 2872, 2542, 1086, 2961
2445, 1369, 1289, 2524, 2336
2446, 2120, 793, 2703, 1164
2447, 1088, 1278, 601, 1151
2448, 1095, 524, 1278, 1088
2449, 599, 620, 2661, 2051
2450, 773, 2324, 2072, 2529
2451, 1586, 758, 959, 762
2452, 2529, 2072, 1544, 1376
2453, 621, 2635, 1152, 623
2454, 1280, 1888, 2889, 2761
2455, 2889, 1415, 594, 1277
2456, 2525, 41, 34, 1791
2457, 1823, 2278, 975, 2084
2458, 835, 2644, 1099, 1741
2459, 1564, 2367, 2953, 1549
2460, 2832, 2159, 1102, 1286
2461, 2757, 1259, 1067, 1245
2462, 1251, 2967, 2770, 1259
2463, 2055, 2887, 674, 584
2464, 2674, 656, 581, 670
2465, 2036, 2251, 1567, 1568
2466, 737, 2226, 2338, 731
2467, 2557, 2505, 2581, 1043
2468, 2558, 1990, 1516, 1225
2469, 1682, 2963, 2959, 2026
2470, 2776, 685, 1224, 2469
2471, 2981, 2980, 1782, 2439
2472, 2986, 2582, 1796, 2991
2473, 2582, 2104, 737, 1796
2474, 1670, 2392, 2086, 1113
2475, 2061, 394, 265, 598
2476, 2328, 1551, 1058, 1070
2477, 1966, 2749, 2193, 2414
2478, 889, 886, 2561, 2810
2479, 2831, 1940, 1942, 1941
2480, 2215, 2056, 1754, 2287
2481, 2982, 1190, 2206, 1722
2482, 2980, 1845, 1112, 2979
2483, 2877, 1605, 2375, 745
2484, 629, 1123, 2878, 1121
2485, 1121, 2878, 1122, 636
2486, 1123, 637, 1122, 2878
2487, 1605, 2612, 2787, 2375
2488, 1126, 2557, 1043, 735
2489, 1782, 730, 2318, 2104
2490, 732, 2502, 2503, 2052
2491, 1265, 2044, 453, 206
2492, 1533, 983, 764, 770
2493, 1544, 770, 2866, 1376
2494, 2243, 1677, 1670, 1131
2495, 1129, 2240, 2243, 1131
2496, 1292, 2811, 2772, 1647
2497, 1253, 2597, 1195, 1303
2498, 575, 1234, 1025, 2947
2499, 2372, 2483, 2883, 671
2500, 2350, 683, 2041, 1178
2501, 407, 654, 1191, 251
2502, 962, 1135, 2707, 2531
2503, 1027, 1019, 2394, 2135
2504, 1798, 184, 474, 2290
2505, 819, 1139, 2884, 1137
2506, 1137, 2884, 1138, 816
2507, 1139, 820, 1138, 2884
2508, 1877, 2664, 1072, 1391
2509, 2687, 1576, 1062, 1550
2510, 1820, 1852, 1734, 1621
2511, 2987, 2439, 2582, 2986
2512, 2070, 2912, 743, 2069
2513, 1868, 117, 128, 1590
2514, 1050, 585, 2422, 2739
2515, 2492, 2493, 2446, 2485
2516, 1173, 1933, 1935, 1934
2517, 1134, 2888, 677, 2870
2518, 650, 2200, 2201, 1755
2519, 1504, 654, 407, 252
2520, 2635, 1279, 624, 1152
2521, 2981, 1119, 1845, 2980
2522, 701, 2053, 2054, 2583
2523, 1143, 1110, 2358, 2359
2524, 2815, 2641, 2676, 903
2525, 1169, 1919, 1171, 902
2526, 1157, 2815, 903, 2511
2527, 869, 1059, 2510, 557
2528, 1991, 866, 2602, 2154
2529, 2051, 2661, 603, 1592
2530, 605, 602, 111, 122
2531, 2180, 479, 180, 2893
2532, 1832, 2995, 1418, 1419
2533, 2759, 2179, 476, 183
2534, 1373, 1084, 2219, 716
2535, 2941, 1165, 2872, 2812
2536, 2316, 663, 2722, 2118
2537, 2947, 1025, 2576, 2353
2538, 2597, 2260, 2936, 1195
2539, 2971, 2570, 1250, 916
2540, 1654, 2515, 899, 2908
2541, 1159, 890, 1233, 1232
2542, 890, 888, 2642, 1233
2543, 2034, 1978, 878, 2716
2544, 1817, 2385, 426, 233
2545, 1362, 432, 227, 800
2546, 2535, 744, 2319, 2794
2547, 2493, 2494, 2351, 2446
2548, 1266, 2586, 2589, 2896
2549, 664, 2997, 2119, 2144
2550, 2816, 1766, 1803, 1012
2551, 1079, 1693, 2769, 2145
2552, 991, 2905, 1026, 2691
2553, 679, 412, 247, 1527
2554, 661, 2790, 2344, 651
2555, 2183, 681, 652, 1228
2556, 1100, 2829, 826, 1562
2557, 1563, 1100, 1562, 1547
2558, 1181, 1635, 1897, 1896
2559, 870, 1203, 2195, 1448
2560, 1518, 430, 229, 2175
2561, 790, 2025, 1518, 2175
2562, 721, 1974, 709, 1585
2563, 2839, 1789, 2903, 1096
2564, 2819, 2930, 2332, 2534
2565, 2111, 1409, 1271, 2108
2566, 2210, 1524, 1189, 2774
2567, 733, 2877, 745, 2989
2568, 1212, 2768, 2224, 736
2569, 2488, 1210, 2372, 2951
2570, 2288, 991, 2691, 1019
2571, 2526, 1010, 477, 182
2572, 1005, 2208, 1010, 2526
2573, 2882, 2479, 940, 1287
2574, 1245, 1067, 921, 2352
2575, 2970, 2974, 2455, 2949
2576, 1478, 978, 2109, 1825
2577, 2868, 1027, 2135, 1690
2578, 1419, 1418, 972, 2993
2579, 2830, 814, 544, 849
2580, 2331, 1902, 827, 1077
2581, 853, 1492, 2580, 2585
2582, 2919, 2699, 156, 502
2583, 2112, 1115, 1068, 900
2584, 1521, 924, 1206, 2009
2585, 1476, 1520, 2413, 1219
2586, 2748, 1167, 1398, 2262
2587, 863, 1168, 513, 1388
2588, 2227, 2488, 2951, 1048
2589, 657, 1106, 1898, 673
2590, 2286, 1150, 2785, 655
2591, 2683, 760, 1566, 2711
2592, 2988, 2656, 2416, 1128
2593, 1189, 2438, 2376, 746
2594, 774, 2841, 2095, 771
2595, 2880, 2045, 1586, 2062
2596, 2965, 2005, 2658, 2521
2597, 1460, 925, 2737, 2783
2598, 2800, 2126, 2854, 2847
2599, 2263, 930, 1399, 1758
2600, 1811, 338, 321, 1596
2601, 1812, 2377, 2712, 2196
2602, 899, 1552, 2275, 1434
2603, 2937, 1223, 2640, 2799
2604, 1997, 2066, 2751, 1314
2605, 659, 724, 1085, 1185
2606, 2543, 1948, 707, 1892
2607, 1315, 780, 2536, 1334
2608, 1722, 2206, 1623, 2435
2609, 440, 219, 2434, 2205
2610, 1774, 2182, 1608, 1179
2611, 2391, 2184, 1794, 1229
2612, 2767, 1231, 2147, 755
2613, 1565, 2221, 741, 2223
2614, 2136, 1565, 2223, 2337
2615, 809, 2895, 890, 1159
2616, 1352, 1388, 1238, 1208
2617, 2158, 2859, 1258, 914
2618, 2411, 1060, 9, 329
2619, 1979, 871, 2174, 864
2620, 2000, 712, 2373, 1327
2621, 2743, 1893, 2374, 2753
2622, 2560, 721, 1585, 2616
2623, 2098, 2843, 562, 863
2624, 1388, 513, 2256, 1238
2625, 2165, 2008, 894, 900
2626, 2801, 1476, 1156, 1167
2627, 918, 2652, 2654, 2161
2628, 2026, 2959, 2941, 724
2629, 2575, 2622, 2972, 1249
2630, 2031, 2950, 2777, 2028
2631, 2214, 1610, 2018, 946
2632, 2684, 2832, 1286, 1235
2633, 920, 2212, 2158, 2974
2634, 1250, 2925, 2939, 1257
2635, 2777, 2854, 2126, 2619
2636, 2975, 2971, 2498, 2541
2637, 927, 2414, 501, 158
2638, 829, 1294, 102, 93
2639, 1872, 1577, 295, 363
2640, 2577, 1254, 550, 1141
2641, 1788, 2778, 1132, 2925
2642, 1249, 2972, 1610, 2214
2643, 2916, 911, 993, 999
2644, 2218, 875, 2191, 895
2645, 930, 1218, 1401, 1399
2646, 1395, 1546, 1400, 2162
2647, 2371, 633, 2719, 2784
2648, 2489, 1145, 1117, 2738
2649, 1264, 1941, 125, 115
2650, 2988, 1128, 2094, 1471
2651, 760, 2848, 1127, 775
2652, 1522, 2756, 2211, 2046
2653, 2956, 1174, 2587, 696
2654, 1053, 1148, 2813, 1267
2655, 2492, 2485, 2447, 2305
2656, 1864, 1073, 1296, 1464
2657, 1783, 1574, 833, 832
2658, 1786, 608, 1463, 2861
2659, 2839, 2897, 1038, 2550
2660, 2718, 1078, 471, 188
2661, 2781, 1834, 2817, 964
2662, 612, 1360, 2398, 1793
2663, 1878, 1858, 377, 282
2664, 1858, 2384, 281, 377
2665, 2234, 1094, 2932, 2865
2666, 605, 1095, 2234, 1160
2667, 1888, 591, 1415, 2889
2668, 1160, 616, 619, 2660
2669, 2233, 1093, 2634, 1889
2670, 593, 1277, 620, 599
2671, 1988, 1361, 427, 232
2672, 2336, 2524, 2838, 2347
2673, 797, 710, 2296, 798
2674, 614, 1283, 1583, 1584
2675, 618, 2836, 283, 375
2676, 2935, 2396, 1501, 2628
2677, 918, 1052, 2950, 2936
2678, 1235, 1286, 2457, 1745
2679, 2260, 2652, 918, 2936
2680, 1221, 686, 2101, 2100
2681, 2754, 675, 1911, 1980
2682, 1649, 2625, 595, 2881
2683, 643, 1113, 523, 1736
2684, 2432, 955, 484, 175
2685, 915, 2922, 1197, 947
2686, 2353, 2576, 1065, 1022
2687, 796, 2348, 1658, 789
2688, 2559, 2120, 1164, 1666
2689, 1167, 1156, 2165, 1398
2690, 1919, 1159, 1232, 1171
2691, 2595, 2906, 2152, 2594
2692, 2494, 2955, 2855, 2888
2693, 1049, 2420, 2447, 2485
2694, 575, 2947, 2598, 2668
2695, 2948, 575, 2668, 1790
2696, 912, 2261, 2015, 922
2697, 916, 2540, 1938, 2499
2698, 2422, 1049, 672, 2739
2699, 2738, 2853, 635, 2765
2700, 1562, 826, 1548, 2899
2701, 1635, 2473, 2681, 546
2702, 696, 2955, 2494, 2493
2703, 2956, 696, 2493, 2492
2704, 2962, 1926, 1975, 1974
2705, 2962, 1925, 1927, 1926
2706, 1290, 2961, 2586, 2636
2707, 2957, 1290, 2636, 1934
2708, 2958, 2957, 1934, 1935
2709, 2962, 2958, 1935, 1925
2710, 802, 801, 693, 2315
2711, 2615, 1313, 797, 803
2712, 1984, 2124, 2044, 1265
2713, 764, 457, 202, 1429
2714, 2921, 1036, 2096, 1035
2715, 2775, 1251, 1259, 2757
2716, 920, 2974, 2970, 2552
2717, 2869, 920, 2552, 2213
2718, 2923, 2869, 2213, 2123
2719, 2610, 2923, 2123, 2553
2720, 2620, 2610, 2553, 2778
2721, 2968, 2620, 2778, 1788
2722, 2969, 2968, 1788, 2570
2723, 2975, 2969, 2570, 2971
2724, 2983, 2871, 1190, 2982
2725, 749, 443, 216, 2871
2726, 2984, 749, 2871, 2983
2727, 2985, 215, 443, 749
2728, 2992, 2985, 749, 2984
2729, 2223, 741, 2433, 2766
2730, 1524, 757, 2438, 1189
2731, 2848, 1471, 2698, 1127
2732, 1542, 2744, 2657, 761
2733, 1553, 2752, 445, 214
2734, 2992, 1213, 1884, 2985
2735, 738, 1230, 2339, 1214
2736, 2721, 1885, 1881, 2914
2737, 736, 2224, 1883, 2752
2738, 741, 210, 448, 2433
2739, 751, 2073, 2210, 748
2740, 2752, 1883, 213, 445
2741, 987, 1833, 194, 464
2742, 1833, 992, 465, 194
2743, 2085, 2701, 2001, 2822
2744, 1779, 1408, 1420, 2116
2745, 695, 2745, 1172, 2798
*ELSET,ELSET=contact_source
129, 130, 131, 132, 133, 134, 135, 136, 137, 138, 
139, 140, 141, 142, 143, 144, 145, 146, 147, 148, 
149, 150, 
*ELSET,ELSET=contact_drain
41, 42, 43, 44, 45, 46, 47, 48, 49, 50, 
51, 52, 53, 54, 55, 56, 57, 58, 59, 60, 
61, 62, 
*ELSET,ELSET=probe_A
87, 88, 89, 90, 91, 92, 93, 94, 95, 96, 
97, 98, 99, 100, 101, 102, 103, 104, 105, 106, 
*ELSET,ELSET=probe_B
17, 18, 19, 20, 21, 22, 23, 24, 
*ELSET,ELSET=walls
1, 2, 3, 4, 5, 6, 7, 8, 9, 10, 
11, 12, 13, 14, 15, 16, 25, 26, 27, 28, 
29, 30, 31, 32, 33, 34, 35, 36, 37, 38, 
39, 40, 63, 64, 65, 66, 67, 68, 69, 70, 
71, 72, 73, 74, 75, 76, 77, 78, 79, 80, 
81, 82, 83, 84, 85, 86, 107, 108, 109, 110, 
111, 112, 113, 114, 115, 116, 117, 118, 119, 120, 
121, 122, 123, 124, 125, 126, 127, 128, 151, 152, 
153, 154, 155, 156, 157, 158, 159, 160, 161, 162, 
163, 164, 165, 166, 167, 168, 169, 170, 171, 172, 
173, 174, 175, 176, 177, 178, 179, 180, 181, 182, 
183, 184, 185, 186, 187, 188, 189, 190, 191, 192, 
193, 194, 195, 196, 197, 198, 199, 200, 201, 202, 
203, 204, 205, 206, 207, 208, 209, 210, 211, 212, 
213, 214, 215, 216, 217, 218, 219, 220, 221, 222, 
223, 224, 225, 226, 227, 228, 229, 230, 231, 232, 
233, 234, 235, 236, 237, 238, 239, 240, 241, 242, 
243, 244, 245, 246, 247, 248, 249, 250, 251, 252, 
253, 254, 255, 256, 257, 258, 259, 260, 261, 262, 
263, 264, 265, 266, 267, 268, 269, 270, 271, 272, 
273, 274, 275, 276, 277, 278, 279, 280, 281, 282, 
283, 284, 285, 286, 287, 288, 289, 290, 291, 292, 
293, 294, 295, 296, 297, 298, 299, 300, 301, 302, 
303, 304, 305, 306, 307, 308, 309, 310, 311, 312, 
313, 314, 315, 316, 317, 318, 319, 320, 321, 322, 
323, 324, 325, 326, 327, 328, 329, 330, 331, 332, 
333, 334, 335, 336, 337, 338, 339, 340, 341, 342, 
343, 344, 345, 346, 347, 348, 349, 350, 351, 352, 
353, 354, 355, 356, 357, 358, 359, 360, 361, 362, 
363, 364, 365, 366, 367, 368, 369, 370, 371, 372, 
373, 374, 375, 376, 377, 378, 379, 380, 381, 382, 
383, 384, 385, 386, 387, 388, 389, 390, 391, 392, 
393, 394, 395, 396, 397, 398, 399, 400, 401, 402, 
403, 404, 405, 406, 407, 408, 409, 410, 411, 412, 
413, 414, 415, 416, 417, 418, 419, 420, 421, 422, 
423, 424, 425, 426, 427, 428, 429, 430, 431, 432, 
433, 434, 435, 436, 437, 438, 439, 440, 441, 442, 
443, 444, 445, 446, 447, 448, 449, 450, 451, 452, 
453, 454, 455, 456, 457, 458, 459, 460, 461, 462, 
463, 464, 465, 466, 467, 468, 469, 470, 471, 472, 
473, 474, 475, 476, 477, 478, 479, 480, 481, 482, 
483, 484, 485, 486, 487, 488, 489, 490, 491, 492, 
493, 494, 495, 496, 497, 498, 499, 500, 501, 502, 
503, 504, 505, 506, 
*ELSET,ELSET=domain
507, 508, 509, 510, 511, 512, 513, 514, 515, 516, 
517, 518, 519, 520, 521, 522, 523, 524, 525, 526, 
527, 528, 529, 530, 531, 532, 533, 534, 535, 536, 
537, 538, 539, 540, 541, 542, 543, 544, 545, 546, 
547, 548, 549, 550, 551, 552, 553, 554, 555, 556, 
557, 558, 559, 560, 561, 562, 563, 564, 565, 566, 
567, 568, 569, 570, 571, 572, 573, 574, 575, 576, 
577, 578, 579, 580, 581, 582, 583, 584, 585, 586, 
587, 588, 589, 590, 591, 592, 593, 594, 595, 596, 
597, 598, 599, 600, 601, 602, 603, 604, 605, 606, 
607, 608, 609, 610, 611, 612, 613, 614, 615, 616, 
617, 618, 619, 620, 621, 622, 623, 624, 625, 626, 
627, 628, 629, 630, 631, 632, 633, 634, 635, 636, 
637, 638, 639, 640, 641, 642, 643, 644, 645, 646, 
647, 648, 649, 650, 651, 652, 653, 654, 655, 656, 
657, 658, 659, 660, 661, 662, 663, 664, 665, 666, 
667, 668, 669, 670, 671, 672, 673, 674, 675, 676, 
677, 678, 679, 680, 681, 682, 683, 684, 685, 686, 
687, 688, 689, 690, 691, 692, 693, 694, 695, 696, 
697, 698, 699, 700, 701, 702, 703, 704, 705, 706, 
707, 708, 709, 710, 711, 712, 713, 714, 715, 716, 
717, 718, 719, 720, 721, 722, 723, 724, 725, 726, 
727, 728, 729, 730, 731, 732, 733, 734, 735, 736, 
737, 738, 739, 740, 741, 742, 743, 744, 745, 746, 
747, 748, 749, 750, 751, 752, 753, 754, 755, 756, 
757, 758, 759, 760, 761, 762, 763, 764, 765, 766, 
767, 768, 769, 770, 771, 772, 773, 774, 775, 776, 
777, 778, 779, 780, 781, 782, 783, 784, 785, 786, 
787, 788, 789, 790, 791, 792, 793, 794, 795, 796, 
797, 798, 799, 800, 801, 802, 803, 804, 805, 806, 
807, 808, 809, 810, 811, 812, 813, 814, 815, 816, 
817, 818, 819, 820, 821, 822, 823, 824, 825, 826, 
827, 828, 829, 830, 831, 832, 833, 834, 835, 836, 
837, 838, 839, 840, 841, 842, 843, 844, 845, 846, 
847, 848, 849, 850, 851, 852, 853, 854, 855, 856, 
857, 858, 859, 860, 861, 862, 863, 864, 865, 866, 
867, 868, 869, 870, 871, 872, 873, 874, 875, 876, 
877, 878, 879, 880, 881, 882, 883, 884, 885, 886, 
887, 888, 889, 890, 891, 892, 893, 894, 895, 896, 
897, 898, 899, 900, 901, 902, 903, 904, 905, 906, 
907, 908, 909, 910, 911, 912, 913, 914, 915, 916, 
917, 918, 919, 920, 921, 922, 923, 924, 925, 926, 
927, 928, 929, 930, 931, 932, 933, 934, 935, 936, 
937, 938, 939, 940, 941, 942, 943, 944, 945, 946, 
947, 948, 949, 950, 951, 952, 953, 954, 955, 956, 
957, 958, 959, 960, 961, 962, 963, 964, 965, 966, 
967, 968, 969, 970, 971, 972, 973, 974, 975, 976, 
977, 978, 979, 980, 981, 982, 983, 984, 985, 986, 
987, 988, 989, 990, 991, 992, 993, 994, 995, 996, 
997, 998, 999, 1000, 1001, 1002, 1003, 1004, 1005, 1006, 
1007, 1008, 1009, 1010, 1011, 1012, 1013, 1014, 1015, 1016, 
1017, 1018, 1019, 1020, 1021, 1022, 1023, 1024, 1025, 1026, 
1027, 1028, 1029, 1030, 1031, 1032, 1033, 1034, 1035, 1036, 
1037, 1038, 1039, 1040, 1041, 1042, 1043, 1044, 1045, 1046, 
1047, 1048, 1049, 1050, 1051, 1052, 1053, 1054, 1055, 1056, 
1057, 1058, 1059, 1060, 1061, 1062, 1063, 1064, 1065, 1066, 
1067, 1068, 1069, 1070, 1071, 1072, 1073, 1074, 1075, 1076, 
1077, 1078, 1079, 1080, 1081, 1082, 1083, 1084, 1085, 1086, 
1087, 1088, 1089, 1090, 1091, 1092, 1093, 1094, 1095, 1096, 
1097, 1098, 1099, 1100, 1101, 1102, 1103, 1104, 1105, 1106, 
1107, 1108, 1109, 1110, 1111, 1112, 1113, 1114, 1115, 1116, 
1117, 1118, 1119, 1120, 1121, 1122, 1123, 1124, 1125, 1126, 
1127, 1128, 1129, 1130, 1131, 1132, 1133, 1134, 1135, 1136, 
1137, 1138, 1139, 1140, 1141, 1142, 1143, 1144, 1145, 1146, 
1147, 1148, 1149, 1150, 1151, 1152, 1153, 1154, 1155, 1156, 
1157, 1158, 1159, 1160, 1161, 1162, 1163, 1164, 1165, 1166, 
1167, 1168, 1169, 1170, 1171, 1172, 1173, 1174, 1175, 1176, 
1177, 1178, 1179, 1180, 1181, 1182, 1183, 1184, 1185, 1186, 
1187, 1188, 1189, 1190, 1191, 1192, 1193, 1194, 1195, 1196, 
1197, 1198, 1199, 1200, 1201, 1202, 1203, 1204, 1205, 1206, 
1207, 1208, 1209, 1210, 1211, 1212, 1213, 1214, 1215, 1216, 
1217, 1218, 1219, 1220, 1221, 1222, 1223, 1224, 1225, 1226, 
1227, 1228, 1229, 1230, 1231, 1232, 1233, 1234, 1235, 1236, 
1237, 1238, 1239, 1240, 1241, 1242, 1243, 1244, 1245, 1246, 
1247, 1248, 1249, 1250, 1251, 1252, 1253, 1254, 1255, 1256, 
1257, 1258, 1259, 1260, 1261, 1262, 1263, 1264, 1265, 1266, 
1267, 1268, 1269, 1270, 1271, 1272, 1273, 1274, 1275, 1276, 
1277, 1278, 1279, 1280, 1281, 1282, 1283, 1284, 1285, 1286, 
1287, 1288, 1289, 1290, 1291, 1292, 1293, 1294, 1295, 1296, 
1297, 1298, 1299, 1300, 1301, 1302, 1303, 1304, 1305, 1306, 
1307, 1308, 1309, 1310, 1311, 1312, 1313, 1314, 1315, 1316, 
1317, 1318, 1319, 1320, 1321, 1322, 1323, 1324, 1325, 1326, 
1327, 1328, 1329, 1330, 1331, 1332, 1333, 1334, 1335, 1336, 
1337, 1338, 1339, 1340, 1341, 1342, 1343, 1344, 1345, 1346, 
1347, 1348, 1349, 1350, 1351, 1352, 1353, 1354, 1355, 1356, 
1357, 1358, 1359, 1360, 1361, 1362, 1363, 1364, 1365, 1366, 
1367, 1368, 1369, 1370, 1371, 1372, 1373, 1374, 1375, 1376, 
1377, 1378, 1379, 1380, 1381, 1382, 1383, 1384, 1385, 1386, 
1387, 1388, 1389, 1390, 1391, 1392, 1393, 1394, 1395, 1396, 
1397, 1398, 1399, 1400, 1401, 1402, 1403, 1404, 1405, 1406, 
1407, 1408, 1409, 1410, 1411, 1412, 1413, 1414, 1415, 1416, 
1417, 1418, 1419, 1420, 1421, 1422, 1423, 1424, 1425, 1426, 
1427, 1428, 1429, 1430, 1431, 1432, 1433, 1434, 1435, 1436, 
1437, 1438, 1439, 1440, 1441, 1442, 1443, 1444, 1445, 1446, 
1447, 1448, 1449, 1450, 1451, 1452, 1453, 1454, 1455, 1456, 
1457, 1458, 1459, 1460, 1461, 1462, 1463, 1464, 1465, 1466, 
1467, 1468, 1469, 1470, 1471, 1472, 1473, 1474, 1475, 1476, 
1477, 1478, 1479, 1480, 1481, 1482, 1483, 1484, 1485, 1486, 
1487, 1488, 1489, 1490, 1491, 1492, 1493, 1494, 1495, 1496, 
1497, 1498, 1499, 1500, 1501, 1502, 1503, 1504, 1505, 1506, 
1507, 1508, 1509, 1510, 1511, 1512, 1513, 1514, 1515, 1516, 
1517, 1518, 1519, 1520, 1521, 1522, 1523, 1524, 1525, 1526, 
1527, 1528, 1529, 1530, 1531, 1532, 1533, 1534, 1535, 1536, 
1537, 1538, 1539, 1540, 1541, 1542, 1543, 1544, 1545, 1546, 
1547, 1548, 1549, 1550, 1551, 1552, 1553, 1554, 1555, 1556, 
1557, 1558, 1559, 1560, 1561, 1562, 1563, 1564, 1565, 1566, 
1567, 1568, 1569, 1570, 1571, 1572, 1573, 1574, 1575, 1576, 
1577, 1578, 1579, 1580, 1581, 1582, 1583, 1584, 1585, 1586, 
1587, 1588, 1589, 1590, 1591, 1592, 1593, 1594, 1595, 1596, 
1597, 1598, 1599, 1600, 1601, 1602, 1603, 1604, 1605, 1606, 
1607, 1608, 1609, 1610, 1611, 1612, 1613, 1614, 1615, 1616, 
1617, 1618, 1619, 1620, 1621, 1622, 1623, 1624, 1625, 1626, 
1627, 1628, 1629, 1630, 1631, 1632, 1633, 1634, 1635, 1636, 
1637, 1638, 1639, 1640, 1641, 1642, 1643, 1644, 1645, 1646, 
1647, 1648, 1649, 1650, 1651, 1652, 1653, 1654, 1655, 1656, 
1657, 1658, 1659, 1660, 1661, 1662, 1663, 1664, 1665, 1666, 
1667, 1668, 1669, 1670, 1671, 1672, 1673, 1674, 1675, 1676, 
1677, 1678, 1679, 1680, 1681, 1682, 1683, 1684, 1685, 1686, 
1687, 1688, 1689, 1690, 1691, 1692, 1693, 1694, 1695, 1696, 
1697, 1698, 1699, 1700, 1701, 1702, 1703, 1704, 1705, 1706, 
1707, 1708, 1709, 1710, 1711, 1712, 1713, 1714, 1715, 1716, 
1717, 1718, 1719, 1720, 1721, 1722, 1723, 1724, 1725, 1726, 
1727, 1728, 1729, 1730, 1731, 1732, 1733, 1734, 1735, 1736, 
1737, 1738, 1739, 1740, 1741, 1742, 1743, 1744, 1745, 1746, 
1747, 1748, 1749, 1750, 1751, 1752, 1753, 1754, 1755, 1756, 
1757, 1758, 1759, 1760, 1761, 1762, 1763, 1764, 1765, 1766, 
1767, 1768, 1769, 1770, 1771, 1772, 1773, 1774, 1775, 1776, 
1777, 1778, 1779, 1780, 1781, 1782, 1783, 1784, 1785, 1786, 
1787, 1788, 1789, 1790, 1791, 1792, 1793, 1794, 1795, 1796, 
1797, 1798, 1799, 1800, 1801, 1802, 1803, 1804, 1805, 1806, 
1807, 1808, 1809, 1810, 1811, 1812, 1813, 1814, 1815, 1816, 
1817, 1818, 1819, 1820, 1821, 1822, 1823, 1824, 1825, 1826, 
1827, 1828, 1829, 1830, 1831, 1832, 1833, 1834, 1835, 1836, 
1837, 1838, 1839, 1840, 1841, 1842, 1843, 1844, 1845, 1846, 
1847, 1848, 1849, 1850, 1851, 1852, 1853, 1854, 1855, 1856, 
1857, 1858, 1859, 1860, 1861, 1862, 1863, 1864, 1865, 1866, 
1867, 1868, 1869, 1870, 1871, 1872, 1873, 1874, 1875, 1876, 
1877, 1878, 1879, 1880, 1881, 1882, 1883, 1884, 1885, 1886, 
1887, 1888, 1889, 1890, 1891, 1892, 1893, 1894, 1895, 1896, 
1897, 1898, 1899, 1900, 1901, 1902, 1903, 1904, 1905, 1906, 
1907, 1908, 1909, 1910, 1911, 1912, 1913, 1914, 1915, 1916, 
1917, 1918, 1919, 1920, 1921, 1922, 1923, 1924, 1925, 1926, 
1927, 1928, 1929, 1930, 1931, 1932, 1933, 1934, 1935, 1936, 
1937, 1938, 1939, 1940, 1941, 1942, 1943, 1944, 1945, 1946, 
1947, 1948, 1949, 1950, 1951, 1952, 1953, 1954, 1955, 1956, 
1957, 1958, 1959, 1960, 1961, 1962, 1963, 1964, 1965, 1966, 
1967, 1968, 1969, 1970, 1971, 1972, 1973, 1974, 1975, 1976, 
1977, 1978, 1979, 1980, 1981, 1982, 1983, 1984, 1985, 1986, 
1987, 1988, 1989, 1990, 1991, 1992, 1993, 1994, 1995, 1996, 
1997, 1998, 1999, 2000, 2001, 2002, 2003, 2004, 2005, 2006, 
2007, 2008, 2009, 2010, 2011, 2012, 2013, 2014, 2015, 2016, 
2017, 2018, 2019, 2020, 2021, 2022, 2023, 2024, 2025, 2026, 
2027, 2028, 2029, 2030, 2031, 2032, 2033, 2034, 2035, 2036, 
2037, 2038, 2039, 2040, 2041, 2042, 2043, 2044, 2045, 2046, 
2047, 2048, 2049, 2050, 2051, 2052, 2053, 2054, 2055, 2056, 
2057, 2058, 2059, 2060, 2061, 2062, 2063, 2064, 2065, 2066, 
2067, 2068, 2069, 2070, 2071, 2072, 2073, 2074, 2075, 2076, 
2077, 2078, 2079, 2080, 2081, 2082, 2083, 2084, 2085, 2086, 
2087, 2088, 2089, 2090, 2091, 2092, 2093, 2094, 2095, 2096, 
2097, 2098, 2099, 2100, 2101, 2102, 2103, 2104, 2105, 2106, 
2107, 2108, 2109, 2110, 2111, 2112, 2113, 2114, 2115, 2116, 
2117, 2118, 2119, 2120, 2121, 2122, 2123, 2124, 2125, 2126, 
2127, 2128, 2129, 2130, 2131, 2132, 2133, 2134, 2135, 2136, 
2137, 2138, 2139, 2140, 2141, 2142, 2143, 2144, 2145, 2146, 
2147, 2148, 2149, 2150, 2151, 2152, 2153, 2154, 2155, 2156, 
2157, 2158, 2159, 2160, 2161, 2162, 2163, 2164, 2165, 2166, 
2167, 2168, 2169, 2170, 2171, 2172, 2173, 2174, 2175, 2176, 
2177, 2178, 2179, 2180, 2181, 2182, 2183, 2184, 2185, 2186, 
2187, 2188, 2189, 2190, 2191, 2192, 2193, 2194, 2195, 2196, 
2197, 2198, 2199, 2200, 2201, 2202, 2203, 2204, 2205, 2206, 
2207, 2208, 2209, 2210, 2211, 2212, 2213, 2214, 2215, 2216, 
2217, 2218, 2219, 2220, 2221, 2222, 2223, 2224, 2225, 2226, 
2227, 2228, 2229, 2230, 2231, 2232, 2233, 2234, 2235, 2236, 
2237, 2238, 2239, 2240, 2241, 2242, 2243, 2244, 2245, 2246, 
2247, 2248, 2249, 2250, 2251, 2252, 2253, 2254, 2255, 2256, 
2257, 2258, 2259, 2260, 2261, 2262, 2263, 2264, 2265, 2266, 
2267, 2268, 2269, 2270, 2271, 2272, 2273, 2274, 2275, 2276, 
2277, 2278, 2279, 2280, 2281, 2282, 2283, 2284, 2285, 2286, 
2287, 2288, 2289, 2290, 2291, 2292, 2293, 2294, 2295, 2296, 
2297, 2298, 2299, 2300, 2301, 2302, 2303, 2304, 2305, 2306, 
2307, 2308, 2309, 2310, 2311, 2312, 2313, 2314, 2315, 2316, 
2317, 2318, 2319, 2320, 2321, 2322, 2323, 2324, 2325, 2326, 
2327, 2328, 2329, 2330, 2331, 2332, 2333, 2334, 2335, 2336, 
2337, 2338, 2339, 2340, 2341, 2342, 2343, 2344, 2345, 2346, 
2347, 2348, 2349, 2350, 2351, 2352, 2353, 2354, 2355, 2356, 
2357, 2358, 2359, 2360, 2361, 2362, 2363, 2364, 2365, 2366, 
2367, 2368, 2369, 2370, 2371, 2372, 2373, 2374, 2375, 2376, 
2377, 2378, 2379, 2380, 2381, 2382, 2383, 2384, 2385, 2386, 
2387, 2388, 2389, 2390, 2391, 2392, 2393, 2394, 2395, 2396, 
2397, 2398, 2399, 2400, 2401, 2402, 2403, 2404, 2405, 2406, 
2407, 2408, 2409, 2410, 2411, 2412, 2413, 2414, 2415, 2416, 
2417, 2418, 2419, 2420, 2421, 2422, 2423, 2424, 2425, 2426, 
2427, 2428, 2429, 2430, 2431, 2432, 2433, 2434, 2435, 2436, 
2437, 2438, 2439, 2440, 2441, 2442, 2443, 2444, 2445, 2446, 
2447, 2448, 2449, 2450, 2451, 2452, 2453, 2454, 2455, 2456, 
2457, 2458, 2459, 2460, 2461, 2462, 2463, 2464, 2465, 2466, 
2467, 2468, 2469, 2470, 2471, 2472, 2473, 2474, 2475, 2476, 
2477, 2478, 2479, 2480, 2481, 2482, 2483, 2484, 2485, 2486, 
2487, 2488, 2489, 2490, 2491, 2492, 2493, 2494, 2495, 2496, 
2497, 2498, 2499, 2500, 2501, 2502, 2503, 2504, 2505, 2506, 
2507, 2508, 2509, 2510, 2511, 2512, 2513, 2514, 2515, 2516, 
2517, 2518, 2519, 2520, 2521, 2522, 2523, 2524, 2525, 2526, 
2527, 2528, 2529, 2530, 2531, 2532, 2533, 2534, 2535, 2536, 
2537, 2538, 2539, 2540, 2541, 2542, 2543, 2544, 2545, 2546, 
2547, 2548, 2549, 2550, 2551, 2552, 2553, 2554, 2555, 2556, 
2557, 2558, 2559, 2560, 2561, 2562, 2563, 2564, 2565, 2566, 
2567, 2568, 2569, 2570, 2571, 2572, 2573, 2574, 2575, 2576, 
2577, 2578, 2579, 2580, 2581, 2582, 2583, 2584, 2585, 2586, 
2587, 2588, 2589, 2590, 2591, 2592, 2593, 2594, 2595, 2596, 
2597, 2598, 2599, 2600, 2601, 2602, 2603, 2604, 2605, 2606, 
2607, 2608, 2609, 2610, 2611, 2612, 2613, 2614, 2615, 2616, 
2617, 2618, 2619, 2620, 2621, 2622, 2623, 2624, 2625, 2626, 
2627, 2628, 2629, 2630, 2631, 2632, 2633, 2634, 2635, 2636, 
2637, 2638, 2639, 2640, 2641, 2642, 2643, 2644, 2645, 2646, 
2647, 2648, 2649, 2650, 2651, 2652, 2653, 2654, 2655, 2656, 
2657, 2658, 2659, 2660, 2661, 2662, 2663, 2664, 2665, 2666, 
2667, 2668, 2669, 2670, 2671, 2672, 2673, 2674, 2675, 2676, 
2677, 2678, 2679, 2680, 2681, 2682, 2683, 2684, 2685, 2686, 
2687, 2688, 2689, 2690, 2691, 2692, 2693, 2694, 2695, 2696, 
2697, 2698, 2699, 2700, 2701, 2702, 2703, 2704, 2705, 2706, 
2707, 2708, 2709, 2710, 2711, 2712, 2713, 2714, 2715, 2716, 
2717, 2718, 2719, 2720, 2721, 2722, 2723, 2724, 2725, 2726, 
2727, 2728, 2729, 2730, 2731, 2732, 2733, 2734, 2735, 2736, 
2737, 2738, 2739, 2740, 2741, 2742, 2743, 2744, 2745, 2746, 
2747, 2748, 2749, 2750, 2751, 2752, 2753, 2754, 2755, 2756, 
2757, 2758, 2759, 2760, 2761, 2762, 2763, 2764, 2765, 2766, 
2767, 2768, 2769, 2770, 2771, 2772, 2773, 2774, 2775, 2776, 
2777, 2778, 2779, 2780, 2781, 2782, 2783, 2784, 2785, 2786, 
2787, 2788, 2789, 2790, 2791, 2792, 2793, 2794, 2795, 2796, 
2797, 2798, 2799, 2800, 2801, 2802, 2803, 2804, 2805, 2806, 
2807, 2808, 2809, 2810, 2811, 2812, 2813, 2814, 2815, 2816, 
2817, 2818, 2819, 2820, 2821, 2822, 2823, 2824, 2825, 2826, 
2827, 2828, 2829, 2830, 2831, 2832, 2833, 2834, 2835, 2836, 
2837, 2838, 2839, 2840, 2841, 2842, 2843, 2844, 2845, 2846, 
2847, 2848, 2849, 2850, 2851, 2852, 2853, 2854, 2855, 2856, 
2857, 2858, 2859, 2860, 2861, 2862, 2863, 2864, 2865, 2866, 
2867, 2868, 2869, 2870, 2871, 2872, 2873, 2874, 2875, 2876, 
2877, 2878, 2879, 2880, 2881, 2882, 2883, 2884, 2885, 2886, 
2887, 2888, 2889, 2890, 2891, 2892, 2893, 2894, 2895, 2896, 
2897, 2898, 2899, 2900, 2901, 2902, 2903, 2904, 2905, 2906, 
2907, 2908, 2909, 2910, 2911, 2912, 2913, 2914, 2915, 2916, 
2917, 2918, 2919, 2920, 2921, 2922, 2923, 2924, 2925, 2926, 
2927, 2928, 2929, 2930, 2931, 2932, 2933, 2934, 2935, 2936, 
2937, 2938, 2939, 2940, 2941, 2942, 2943, 2944, 2945, 2946, 
2947, 2948, 2949, 2950, 2951, 2952, 2953, 2954, 2955, 2956, 
2957, 2958, 2959, 2960, 2961, 2962, 2963, 2964, 2965, 2966, 
2967, 2968, 2969, 2970, 2971, 2972, 2973, 2974, 2975, 2976, 
2977, 2978, 2979, 2980, 2981, 2982, 2983, 2984, 2985, 2986, 
2987, 2988, 2989, 2990, 2991, 2992, 2993, 2994, 2995, 2996, 
2997, 2998, 2999, 3000, 3001, 3002, 3003, 3004, 3005, 3006, 
3007, 3008, 3009, 3010, 3011, 3012, 3013, 3014, 3015, 3016, 
3017, 3018, 3019, 3020, 3021, 3022, 3023, 3024, 3025, 3026, 
3027, 3028, 3029, 3030, 3031, 3032, 3033, 3034, 3035, 3036, 
3037, 3038, 3039, 3040, 3041, 3042, 3043, 3044, 3045, 3046, 
3047, 3048, 3049, 3050, 3051, 3052, 3053, 3054, 3055, 3056, 
3057, 3058, 3059, 3060, 3061, 3062, 3063, 3064, 3065, 3066, 
3067, 3068, 3069, 3070, 3071, 3072, 3073, 3074, 3075, 3076, 
3077, 3078, 3079, 3080, 3081, 3082, 3083, 3084, 3085, 3086, 
3087, 3088, 3089, 3090, 3091, 3092, 3093, 3094, 3095, 3096, 
3097, 3098, 3099, 3100, 3101, 3102, 3103, 3104, 3105, 3106, 
3107, 3108, 3109, 3110, 3111, 3112, 3113, 3114, 3115, 3116, 
3117, 3118, 3119, 3120, 3121, 3122, 3123, 3124, 3125, 3126, 
3127, 3128, 3129, 3130, 3131, 3132, 3133, 3134, 3135, 3136, 
3137, 3138, 3139, 3140, 3141, 3142, 3143, 3144, 3145, 3146, 
3147, 3148, 3149, 3150, 3151, 3152, 3153, 3154, 3155, 3156, 
3157, 3158, 3159, 3160, 3161, 3162, 3163, 3164, 3165, 3166, 
3167, 3168, 3169, 3170, 3171, 3172, 3173, 3174, 3175, 3176, 
3177, 3178, 3179, 3180, 3181, 3182, 3183, 3184, 3185, 3186, 
3187, 3188, 3189, 3190, 3191, 3192, 3193, 3194, 3195, 3196, 
3197, 3198, 3199, 3200, 3201, 3202, 3203, 3204, 3205, 3206, 
3207, 3208, 3209, 3210, 3211, 3212, 3213, 3214, 3215, 3216, 
3217, 3218, 3219, 3220, 3221, 3222, 3223, 3224, 3225, 3226, 
3227, 3228, 3229, 3230, 3231, 3232, 3233, 3234, 3235, 3236, 
3237, 3238, 3239, 3240, 3241, 3242, 3243, 3244, 3245, 3246, 
3247, 3248, 3249, 3250, 3251, 
*NSET,NSET=contact_source
1, 8, 131, 132, 133, 134, 135, 136, 137, 138, 
139, 140, 141, 142, 143, 144, 145, 146, 147, 148, 
149, 150, 151, 
*NSET,NSET=contact_drain
4, 5, 47, 48, 49, 50, 51, 52, 53, 54, 
55, 56, 57, 58, 59, 60, 61, 62, 63, 64, 
65, 66, 67, 
*NSET,NSET=probe_A
6, 7, 91, 92, 93, 94, 95, 96, 97, 98, 
99, 100, 101, 102, 103, 104, 105, 106, 107, 108, 
109, 
*NSET,NSET=probe_B
2, 3, 25, 26, 27, 28, 29, 30, 31, 
*NSET,NSET=walls
1, 2, 3, 4, 5, 6, 7, 8, 9, 10, 
11, 12, 13, 14, 15, 16, 17, 18, 19, 20, 
21, 22, 23, 24, 32, 33, 34, 35, 36, 37, 
38, 39, 40, 41, 42, 43, 44, 45, 46, 68, 
69, 70, 71, 72, 73, 74, 75, 76, 77, 78, 
79, 80, 81, 82, 83, 84, 85, 86, 87, 88, 
89, 90, 110, 111, 112, 113, 114, 115, 116, 117, 
118, 119, 120, 121, 122, 123, 124, 125, 126, 127, 
128, 129, 130, 152, 153, 154, 155, 156, 157, 158, 
159, 160, 161, 162, 163, 164, 165, 166, 167, 168, 
169, 170, 171, 172, 173, 174, 175, 176, 177, 178, 
179, 180, 181, 182, 183, 184, 185, 186, 187, 188, 
189, 190, 191, 192, 193, 194, 195, 196, 197, 198, 
199, 200, 201, 202, 203, 204, 205, 206, 207, 208, 
209, 210, 211, 212, 213, 214, 215, 216, 217, 218, 
219, 220, 221, 222, 223, 224, 225, 226, 227, 228, 
229, 230, 231, 232, 233, 234, 235, 236, 237, 238, 
239, 240, 241, 242, 243, 244, 245, 246, 247, 248, 
249, 250, 251, 252, 253, 254, 255, 256, 257, 258, 
259, 260, 261, 262, 263, 264, 265, 266, 267, 268, 
269, 270, 271, 272, 273, 274, 275, 276, 277, 278, 
279, 280, 281, 282, 283, 284, 285, 286, 287, 288, 
289, 290, 291, 292, 293, 294, 295, 296, 297, 298, 
299, 300, 301, 302, 303, 304, 305, 306, 307, 308, 
309, 310, 311, 312, 313, 314, 315, 316, 317, 318, 
319, 320, 321, 322, 323, 324, 325, 326, 327, 328, 
329, 330, 331, 332, 333, 334, 335, 336, 337, 338, 
339, 340, 341, 342, 343, 344, 345, 346, 347, 348, 
349, 350, 351, 352, 353, 354, 355, 356, 357, 358, 
359, 360, 361, 362, 363, 364, 365, 366, 367, 368, 
369, 370, 371, 372, 373, 374, 375, 376, 377, 378, 
379, 380, 381, 382, 383, 384, 385, 386, 387, 388, 
389, 390, 391, 392, 393, 394, 395, 396, 397, 398, 
399, 400, 401, 402, 403, 404, 405, 406, 407, 408, 
409, 410, 411, 412, 413, 414, 415, 416, 417, 418, 
419, 420, 421, 422, 423, 424, 425, 426, 427, 428, 
429, 430, 431, 432, 433, 434, 435, 436, 437, 438, 
439, 440, 441, 442, 443, 444, 445, 446, 447, 448, 
449, 450, 451, 452, 453, 454, 455, 456, 457, 458, 
459, 460, 461, 462, 463, 464, 465, 466, 467, 468, 
469, 470, 471, 472, 473, 474, 475, 476, 477, 478, 
479, 480, 481, 482, 483, 484, 485, 486, 487, 488, 
489, 490, 491, 492, 493, 494, 495, 496, 497, 498, 
499, 500, 501, 502, 503, 504, 505, 506, 
*NSET,NSET=domain
1, 2, 3, 4, 5, 6, 7, 8, 9, 10, 
11, 12, 13, 14, 15, 16, 17, 18, 19, 20, 
21, 22, 23, 24, 25, 26, 27, 28, 29, 30, 
31, 32, 33, 34, 35, 36, 37, 38, 39, 40, 
41, 42, 43, 44, 45, 46, 47, 48, 49, 50, 
51, 52, 53, 54, 55, 56, 57, 58, 59, 60, 
61, 62, 63, 64, 65, 66, 67, 68, 69, 70, 
71, 72, 73, 74, 75, 76, 77, 78, 79, 80, 
81, 82, 83, 84, 85, 86, 87, 88, 89, 90, 
91, 92, 93, 94, 95, 96, 97, 98, 99, 100, 
101, 102, 103, 104, 105, 106, 107, 108, 109, 110, 
111, 112, 113, 114, 115, 116, 117, 118, 119, 120, 
121, 122, 123, 124, 125, 126, 127, 128, 129, 130, 
131, 132, 133, 134, 135, 136, 137, 138, 139, 140, 
141, 142, 143, 144, 145, 146, 147, 148, 149, 150, 
151, 152, 153, 154, 155, 156, 157, 158, 159, 160, 
161, 162, 163, 164, 165, 166, 167, 168, 169, 170, 
171, 172, 173, 174, 175, 176, 177, 178, 179, 180, 
181, 182, 183, 184, 185, 186, 187, 188, 189, 190, 
191, 192, 193, 194, 195, 196, 197, 198, 199, 200, 
201, 202, 203, 204, 205, 206, 207, 208, 209, 210, 
211, 212, 213, 214, 215, 216, 217, 218, 219, 220, 
221, 222, 223, 224, 225, 226, 227, 228, 229, 230, 
231, 232, 233, 234, 235, 236, 237, 238, 239, 240, 
241, 242, 243, 244, 245, 246, 247, 248, 249, 250, 
251, 252, 253, 254, 255, 256, 257, 258, 259, 260, 
261, 262, 263, 264, 265, 266, 267, 268, 269, 270, 
271, 272, 273, 274, 275, 276, 277, 278, 279, 280, 
281, 282, 283, 284, 285, 286, 287, 288, 289, 290, 
291, 292, 293, 294, 295, 296, 297, 298, 299, 300, 
301, 302, 303, 304, 305, 306, 307, 308, 309, 310, 
311, 312, 313, 314, 315, 316, 317, 318, 319, 320, 
321, 322, 323, 324, 325, 326, 327, 328, 329, 330, 
331, 332, 333, 334, 335, 336, 337, 338, 339, 340, 
341, 342, 343, 344, 345, 346, 347, 348, 349, 350, 
351, 352, 353, 354, 355, 356, 357, 358, 359, 360, 
361, 362, 363, 364, 365, 366, 367, 368, 369, 370, 
371, 372, 373, 374, 375, 376, 377, 378, 379, 380, 
381, 382, 383, 384, 385, 386, 387, 388, 389, 390, 
391, 392, 393, 394, 395, 396, 397, 398, 399, 400, 
401, 402, 403, 404, 405, 406, 407, 408, 409, 410, 
411, 412, 413, 414, 415, 416, 417, 418, 419, 420, 
421, 422, 423, 424, 425, 426, 427, 428, 429, 430, 
431, 432, 433, 434, 435, 436, 437, 438, 439, 440, 
441, 442, 443, 444, 445, 446, 447, 448, 449, 450, 
451, 452, 453, 454, 455, 456, 457, 458, 459, 460, 
461, 462, 463, 464, 465, 466, 467, 468, 469, 470, 
471, 472, 473, 474, 475, 476, 477, 478, 479, 480, 
481, 482, 483, 484, 485, 486, 487, 488, 489, 490, 
491, 492, 493, 494, 495, 496, 497, 498, 499, 500, 
501, 502, 503, 504, 505, 506, 507, 508, 509, 510, 
511, 512, 513, 514, 515, 516, 517, 518, 519, 520, 
521, 522, 523, 524, 525, 526, 527, 528, 529, 530, 
531, 532, 533, 534, 535, 536, 537, 538, 539, 540, 
541, 542, 543, 544, 545, 546, 547, 548, 549, 550, 
551, 552, 553, 554, 555, 556, 557, 558, 559, 560, 
561, 562, 563, 564, 565, 566, 567, 568, 569, 570, 
571, 572, 573, 574, 575, 576, 577, 578, 579, 580, 
581, 582, 583, 584, 585, 586, 587, 588, 589, 590, 
591, 592, 593, 594, 595, 596, 597, 598, 599, 600, 
601, 602, 603, 604, 605, 606, 607, 608, 609, 610, 
611, 612, 613, 614, 615, 616, 617, 618, 619, 620, 
621, 622, 623, 624, 625, 626, 627, 628, 629, 630, 
631, 632, 633, 634, 635, 636, 637, 638, 639, 640, 
641, 642, 643, 644, 645, 646, 647, 648, 649, 650, 
651, 652, 653, 654, 655, 656, 657, 658, 659, 660, 
661, 662, 663, 664, 665, 666, 667, 668, 669, 670, 
671, 672, 673, 674, 675, 676, 677, 678, 679, 680, 
681, 682, 683, 684, 685, 686, 687, 688, 689, 690, 
691, 692, 693, 694, 695, 696, 697, 698, 699, 700, 
701, 702, 703, 704, 705, 706, 707, 708, 709, 710, 
711, 712, 713, 714, 715, 716, 717, 718, 719, 720, 
721, 722, 723, 724, 725, 726, 727, 728, 729, 730, 
731, 732, 733, 734, 735, 736, 737, 738, 739, 740, 
741, 742, 743, 744, 745, 746, 747, 748, 749, 750, 
751, 752, 753, 754, 755, 756, 757, 758, 759, 760, 
761, 762, 763, 764, 765, 766, 767, 768, 769, 770, 
771, 772, 773, 774, 775, 776, 777, 778, 779, 780, 
781, 782, 783, 784, 785, 786, 787, 788, 789, 790, 
791, 792, 793, 794, 795, 796, 797, 798, 799, 800, 
801, 802, 803, 804, 805, 806, 807, 808, 809, 810, 
811, 812, 813, 814, 815, 816, 817, 818, 819, 820, 
821, 822, 823, 824, 825, 826, 827, 828, 829, 830, 
831, 832, 833, 834, 835, 836, 837, 838, 839, 840, 
841, 842, 843, 844, 845, 846, 847, 848, 849, 850, 
851, 852, 853, 854, 855, 856, 857, 858, 859, 860, 
861, 862, 863, 864, 865, 866, 867, 868, 869, 870, 
871, 872, 873, 874, 875, 876, 877, 878, 879, 880, 
881, 882, 883, 884, 885, 886, 887, 888, 889, 890, 
891, 892, 893, 894, 895, 896, 897, 898, 899, 900, 
901, 902, 903, 904, 905, 906, 907, 908, 909, 910, 
911, 912, 913, 914, 915, 916, 917, 918, 919, 920, 
921, 922, 923, 924, 925, 926, 927, 928, 929, 930, 
931, 932, 933, 934, 935, 936, 937, 938, 939, 940, 
941, 942, 943, 944, 945, 946, 947, 948, 949, 950, 
951, 952, 953, 954, 955, 956, 957, 958, 959, 960, 
961, 962, 963, 964, 965, 966, 967, 968, 969, 970, 
971, 972, 973, 974, 975, 976, 977, 978, 979, 980, 
981, 982, 983, 984, 985, 986, 987, 988, 989, 990, 
991, 992, 993, 994, 995, 996, 997, 998, 999, 1000, 
1001, 1002, 1003, 1004, 1005, 1006, 1007, 1008, 1009, 1010, 
1011, 1012, 1013, 1014, 1015, 1016, 1017, 1018, 1019, 1020, 
1021, 1022, 1023, 1024, 1025, 1026, 1027, 1028, 1029, 1030, 
1031, 1032, 1033, 1034, 1035, 1036, 1037, 1038, 1039, 1040, 
1041, 1042, 1043, 1044, 1045, 1046, 1047, 1048, 1049, 1050, 
1051, 1052, 1053, 1054, 1055, 1056, 1057, 1058, 1059, 1060, 
1061, 1062, 1063, 1064, 1065, 1066, 1067, 1068, 1069, 1070, 
1071, 1072, 1073, 1074, 1075, 1076, 1077, 1078, 1079, 1080, 
1081, 1082, 1083, 1084, 1085, 1086, 1087, 1088, 1089, 1090, 
1091, 1092, 1093, 1094, 1095, 1096, 1097, 1098, 1099, 1100, 
1101, 1102, 1103, 1104, 1105, 1106, 1107, 1108, 1109, 1110, 
1111, 1112, 1113, 1114, 1115, 1116, 1117, 1118, 1119, 1120, 
1121, 1122, 1123, 1124, 1125, 1126, 1127, 1128, 1129, 1130, 
1131, 1132, 1133, 1134, 1135, 1136, 1137, 1138, 1139, 1140, 
1141, 1142, 1143, 1144, 1145, 1146, 1147, 1148, 1149, 1150, 
1151, 1152, 1153, 1154, 1155, 1156, 1157, 1158, 1159, 1160, 
1161, 1162, 1163, 1164, 1165, 1166, 1167, 1168, 1169, 1170, 
1171, 1172, 1173, 1174, 1175, 1176, 1177, 1178, 1179, 1180, 
1181, 1182, 1183, 1184, 1185, 1186, 1187, 1188, 1189, 1190, 
1191, 1192, 1193, 1194, 1195, 1196, 1197, 1198, 1199, 1200, 
1201, 1202, 1203, 1204, 1205, 1206, 1207, 1208, 1209, 1210, 
1211, 1212, 1213, 1214, 1215, 1216, 1217, 1218, 1219, 1220, 
1221, 1222, 1223, 1224, 1225, 1226, 1227, 1228, 1229, 1230, 
1231, 1232, 1233, 1234, 1235, 1236, 1237, 1238, 1239, 1240, 
1241, 1242, 1243, 1244, 1245, 1246, 1247, 1248, 1249, 1250, 
1251, 1252, 1253, 1254, 1255, 1256, 1257, 1258, 1259, 1260, 
1261, 1262, 1263, 1264, 1265, 1266, 1267, 1268, 1269, 1270, 
1271, 1272, 1273, 1274, 1275, 1276, 1277, 1278, 1279, 1280, 
1281, 1282, 1283, 1284, 1285, 1286, 1287, 1288, 1289, 1290, 
1291, 1292, 1293, 1294, 1295, 1296, 1297, 1298, 1299, 1300, 
1301, 1302, 1303, 1304, 1305, 1306, 1307, 1308, 1309, 1310, 
1311, 1312, 1313, 1314, 1315, 1316, 1317, 1318, 1319, 1320, 
1321, 1322, 1323, 1324, 1325, 1326, 1327, 1328, 1329, 1330, 
1331, 1332, 1333, 1334, 1335, 1336, 1337, 1338, 1339, 1340, 
1341, 1342, 1343, 1344, 1345, 1346, 1347, 1348, 1349, 1350, 
1351, 1352, 1353, 1354, 1355, 1356, 1357, 1358, 1359, 1360, 
1361, 1362, 1363, 1364, 1365, 1366, 1367, 1368, 1369, 1370, 
1371, 1372, 1373, 1374, 1375, 1376, 1377, 1378, 1379, 1380, 
1381, 1382, 1383, 1384, 1385, 1386, 1387, 1388, 1389, 1390, 
1391, 1392, 1393, 1394, 1395, 1396, 1397, 1398, 1399, 1400, 
1401, 1402, 1403, 1404, 1405, 1406, 1407, 1408, 1409, 1410, 
1411, 1412, 1413, 1414, 1415, 1416, 1417, 1418, 1419, 1420, 
1421, 1422, 1423, 1424, 1425, 1426, 1427, 1428, 1429, 1430, 
1431, 1432, 1433, 1434, 1435, 1436, 1437, 1438, 1439, 1440, 
1441, 1442, 1443, 1444, 1445, 1446, 1447, 1448, 1449, 1450, 
1451, 1452, 1453, 1454, 1455, 1456, 1457, 1458, 1459, 1460, 
1461, 1462, 1463, 1464, 1465, 1466, 1467, 1468, 1469, 1470, 
1471, 1472, 1473, 1474, 1475, 1476, 1477, 1478, 1479, 1480, 
1481, 1482, 1483, 1484, 1485, 1486, 1487, 1488, 1489, 1490, 
1491, 1492, 1493, 1494, 1495, 1496, 1497, 1498, 1499, 1500, 
1501, 1502, 1503, 1504, 1505, 1506, 1507, 1508, 1509, 1510, 
1511, 1512, 1513, 1514, 1515, 1516, 1517, 1518, 1519, 1520, 
1521, 1522, 1523, 1524, 1525, 1526, 1527, 1528, 1529, 1530, 
1531, 1532, 1533, 1534, 1535, 1536, 1537, 1538, 1539, 1540, 
1541, 1542, 1543, 1544, 1545, 1546, 1547, 1548, 1549, 1550, 
1551, 1552, 1553, 1554, 1555, 1556, 1557, 1558, 1559, 1560, 
1561, 1562, 1563, 1564, 1565, 1566, 1567, 1568, 1569, 1570, 
1571, 1572, 1573, 1574, 1575, 1576, 1577, 1578, 1579, 1580, 
1581, 1582, 1583, 1584, 1585, 1586, 1587, 1588, 1589, 1590, 
1591, 1592, 1593, 1594, 1595, 1596, 1597, 1598, 1599, 1600, 
1601, 1602, 1603, 1604, 1605, 1606, 1607, 1608, 1609, 1610, 
1611, 1612, 1613, 1614, 1615, 1616, 1617, 1618, 1619, 1620, 
1621, 1622, 1623, 1624, 1625, 1626, 1627, 1628, 1629, 1630, 
1631, 1632, 1633, 1634, 1635, 1636, 1637, 1638, 1639, 1640, 
1641, 1642, 1643, 1644, 1645, 1646, 1647, 1648, 1649, 1650, 
1651, 1652, 1653, 1654, 1655, 1656, 1657, 1658, 1659, 1660, 
1661, 1662, 1663, 1664, 1665, 1666, 1667, 1668, 1669, 1670, 
1671, 1672, 1673, 1674, 1675, 1676, 1677, 1678, 1679, 1680, 
1681, 1682, 1683, 1684, 1685, 1686, 1687, 1688, 1689, 1690, 
1691, 1692, 1693, 1694, 1695, 1696, 1697, 1698, 1699, 1700, 
1701, 1702, 1703, 1704, 1705, 1706, 1707, 1708, 1709, 1710, 
1711, 1712, 1713, 1714, 1715, 1716, 1717, 1718, 1719, 1720, 
1721, 1722, 1723, 1724, 1725, 1726, 1727, 1728, 1729, 1730, 
1731, 1732, 1733, 1734, 1735, 1736, 1737, 1738, 1739, 1740, 
1741, 1742, 1743, 1744, 1745, 1746, 1747, 1748, 1749, 1750, 
1751, 1752, 1753, 1754, 1755, 1756, 1757, 1758, 1759, 1760, 
1761, 1762, 1763, 1764, 1765, 1766, 1767, 1768, 1769, 1770, 
1771, 1772, 1773, 1774, 1775, 1776, 1777, 1778, 1779, 1780, 
1781, 1782, 1783, 1784, 1785, 1786, 1787, 1788, 1789, 1790, 
1791, 1792, 1793, 1794, 1795, 1796, 1797, 1798, 1799, 1800, 
1801, 1802, 1803, 1804, 1805, 1806, 1807, 1808, 1809, 1810, 
1811, 1812, 1813, 1814, 1815, 1816, 1817, 1818, 1819, 1820, 
1821, 1822, 1823, 1824, 1825, 1826, 1827, 1828, 1829, 1830, 
1831, 1832, 1833, 1834, 1835, 1836, 1837, 1838, 1839, 1840, 
1841, 1842, 1843, 1844, 1845, 1846, 1847, 1848, 1849, 1850, 
1851, 1852, 1853, 1854, 1855, 1856, 1857, 1858, 1859, 1860, 
1861, 1862, 1863, 1864, 1865, 1866, 1867, 1868, 1869, 1870, 
1871, 1872, 1873, 1874, 1875, 1876, 1877, 1878, 1879, 1880, 
1881, 1882, 1883, 1884, 1885, 1886, 1887, 1888, 1889, 1890, 
1891, 1892, 1893, 1894, 1895, 1896, 1897, 1898, 1899, 1900, 
1901, 1902, 1903, 1904, 1905, 1906, 1907, 1908, 1909, 1910, 
1911, 1912, 1913, 1914, 1915, 1916, 1917, 1918, 1919, 1920, 
1921, 1922, 1923, 1924, 1925, 1926, 1927, 1928, 1929, 1930, 
1931, 1932, 1933, 1934, 1935, 1936, 1937, 1938, 1939, 1940, 
1941, 1942, 1943, 1944, 1945, 1946, 1947, 1948, 1949, 1950, 
1951, 1952, 1953, 1954, 1955, 1956, 1957, 1958, 1959, 1960, 
1961, 1962, 1963, 1964, 1965, 1966, 1967, 1968, 1969, 1970, 
1971, 1972, 1973, 1974, 1975, 1976, 1977, 1978, 1979, 1980, 
1981, 1982, 1983, 1984, 1985, 1986, 1987, 1988, 1989, 1990, 
1991, 1992, 1993, 1994, 1995, 1996, 1997, 1998, 1999, 2000, 
2001, 2002, 2003, 2004, 2005, 2006, 2007, 2008, 2009, 2010, 
2011, 2012, 2013, 2014, 2015, 2016, 2017, 2018, 2019, 2020, 
2021, 2022, 2023, 2024, 2025, 2026, 2027, 2028, 2029, 2030, 
2031, 2032, 2033, 2034, 2035, 2036, 2037, 2038, 2039, 2040, 
2041, 2042, 2043, 2044, 2045, 2046, 2047, 2048, 2049, 2050, 
2051, 2052, 2053, 2054, 2055, 2056, 2057, 2058, 2059, 2060, 
2061, 2062, 2063, 2064, 2065, 2066, 2067, 2068, 2069, 2070, 
2071, 2072, 2073, 2074, 2075, 2076, 2077, 2078, 2079, 2080, 
2081, 2082, 2083, 2084, 2085, 2086, 2087, 2088, 2089, 2090, 
2091, 2092, 2093, 2094, 2095, 2096, 2097, 2098, 2099, 2100, 
2101, 2102, 2103, 2104, 2105, 2106, 2107, 2108, 2109, 2110, 
2111, 2112, 2113, 2114, 2115, 2116, 2117, 2118, 2119, 2120, 
2121, 2122, 2123, 2124, 2125, 2126, 2127, 2128, 2129, 2130, 
2131, 2132, 2133, 2134, 2135, 2136, 2137, 2138, 2139, 2140, 
2141, 2142, 2143, 2144, 2145, 2146, 2147, 2148, 2149, 2150, 
2151, 2152, 2153, 2154, 2155, 2156, 2157, 2158, 2159, 2160, 
2161, 2162, 2163, 2164, 2165, 2166, 2167, 2168, 2169, 2170, 
2171, 2172, 2173, 2174, 2175, 2176, 2177, 2178, 2179, 2180, 
2181, 2182, 2183, 2184, 2185, 2186, 2187, 2188, 2189, 2190, 
2191, 2192, 2193, 2194, 2195, 2196, 2197, 2198, 2199, 2200, 
2201, 2202, 2203, 2204, 2205, 2206, 2207, 2208, 2209, 2210, 
2211, 2212, 2213, 2214, 2215, 2216, 2217, 2218, 2219, 2220, 
2221, 2222, 2223, 2224, 2225, 2226, 2227, 2228, 2229, 2230, 
2231, 2232, 2233, 2234, 2235, 2236, 2237, 2238, 2239, 2240, 
2241, 2242, 2243, 2244, 2245, 2246, 2247, 2248, 2249, 2250, 
2251, 2252, 2253, 2254, 2255, 2256, 2257, 2258, 2259, 2260, 
2261, 2262, 2263, 2264, 2265, 2266, 2267, 2268, 2269, 2270, 
2271, 2272, 2273, 2274, 2275, 2276, 2277, 2278, 2279, 2280, 
2281, 2282, 2283, 2284, 2285, 2286, 2287, 2288, 2289, 2290, 
2291, 2292, 2293, 2294, 2295, 2296, 2297, 2298, 2299, 2300, 
2301, 2302, 2303, 2304, 2305, 2306, 2307, 2308, 2309, 2310, 
2311, 2312, 2313, 2314, 2315, 2316, 2317, 2318, 2319, 2320, 
2321, 2322, 2323, 2324, 2325, 2326, 2327, 2328, 2329, 2330, 
2331, 2332, 2333, 2334, 2335, 2336, 2337, 2338, 2339, 2340, 
2341, 2342, 2343, 2344, 2345, 2346, 2347, 2348, 2349, 2350, 
2351, 2352, 2353, 2354, 2355, 2356, 2357, 2358, 2359, 2360, 
2361, 2362, 2363, 2364, 2365, 2366, 2367, 2368, 2369, 2370, 
2371, 2372, 2373, 2374, 2375, 2376, 2377, 2378, 2379, 2380, 
2381, 2382, 2383, 2384, 2385, 2386, 2387, 2388, 2389, 2390, 
2391, 2392, 2393, 2394, 2395, 2396, 2397, 2398, 2399, 2400, 
2401, 2402, 2403, 2404, 2405, 2406, 2407, 2408, 2409, 2410, 
2411, 2412, 2413, 2414, 2415, 2416, 2417, 2418, 2419, 2420, 
2421, 2422, 2423, 2424, 2425, 2426, 2427, 2428, 2429, 2430, 
2431, 2432, 2433, 2434, 2435, 2436, 2437, 2438, 2439, 2440, 
2441, 2442, 2443, 2444, 2445, 2446, 2447, 2448, 2449, 2450, 
2451, 2452, 2453, 2454, 2455, 2456, 2457, 2458, 2459, 2460, 
2461, 2462, 2463, 2464, 2465, 2466, 2467, 2468, 2469, 2470, 
2471, 2472, 2473, 2474, 2475, 2476, 2477, 2478, 2479, 2480, 
2481, 2482, 2483, 2484, 2485, 2486, 2487, 2488, 2489, 2490, 
2491, 2492, 2493, 2494, 2495, 2496, 2497, 2498, 2499, 2500, 
2501, 2502, 2503, 2504, 2505, 2506, 2507, 2508, 2509, 2510, 
2511, 2512, 2513, 2514, 2515, 2516, 2517, 2518, 2519, 2520, 
2521, 2522, 2523, 2524, 2525, 2526, 2527, 2528, 2529, 2530, 
2531, 2532, 2533, 2534, 2535, 2536, 2537, 2538, 2539, 2540, 
2541, 2542, 2543, 2544, 2545, 2546, 2547, 2548, 2549, 2550, 
2551, 2552, 2553, 2554, 2555, 2556, 2557, 2558, 2559, 2560, 
2561, 2562, 2563, 2564, 2565, 2566, 2567, 2568, 2569, 2570, 
2571, 2572, 2573, 2574, 2575, 2576, 2577, 2578, 2579, 2580, 
2581, 2582, 2583, 2584, 2585, 2586, 2587, 2588, 2589, 2590, 
2591, 2592, 2593, 2594, 2595, 2596, 2597, 2598, 2599, 2600, 
2601, 2602, 2603, 2604, 2605, 2606, 2607, 2608, 2609, 2610, 
2611, 2612, 2613, 2614, 2615, 2616, 2617, 2618, 2619, 2620, 
2621, 2622, 2623, 2624, 2625, 2626, 2627, 2628, 2629, 2630, 
2631, 2632, 2633, 2634, 2635, 2636, 2637, 2638, 2639, 2640, 
2641, 2642, 2643, 2644, 2645, 2646, 2647, 2648, 2649, 2650, 
2651, 2652, 2653, 2654, 2655, 2656, 2657, 2658, 2659, 2660, 
2661, 2662, 2663, 2664, 2665, 2666, 2667, 2668, 2669, 2670, 
2671, 2672, 2673, 2674, 2675, 2676, 2677, 2678, 2679, 2680, 
2681, 2682, 2683, 2684, 2685, 2686, 2687, 2688, 2689, 2690, 
2691, 2692, 2693, 2694, 2695, 2696, 2697, 2698, 2699, 2700, 
2701, 2702, 2703, 2704, 2705, 2706, 2707, 2708, 2709, 2710, 
2711, 2712, 2713, 2714, 2715, 2716, 2717, 2718, 2719, 2720, 
2721, 2722, 2723, 2724, 2725, 2726, 2727, 2728, 2729, 2730, 
2731, 2732, 2733, 2734, 2735, 2736, 2737, 2738, 2739, 2740, 
2741, 2742, 2743, 2744, 2745, 2746, 2747, 2748, 2749, 2750, 
2751, 2752, 2753, 2754, 2755, 2756, 2757, 2758, 2759, 2760, 
2761, 2762, 2763, 2764, 2765, 2766, 2767, 2768, 2769, 2770, 
2771, 2772, 2773, 2774, 2775, 2776, 2777, 2778, 2779, 2780, 
2781, 2782, 2783, 2784, 2785, 2786, 2787, 2788, 2789, 2790, 
2791, 2792, 2793, 2794, 2795, 2796, 2797, 2798, 2799, 2800, 
2801, 2802, 2803, 2804, 2805, 2806, 2807, 2808, 2809, 2810, 
2811, 2812, 2813, 2814, 2815, 2816, 2817, 2818, 2819, 2820, 
2821, 2822, 2823, 2824, 2825, 2826, 2827, 2828, 2829, 2830, 
2831, 2832, 2833, 2834, 2835, 2836, 2837, 2838, 2839, 2840, 
2841, 2842, 2843, 2844, 2845, 2846, 2847, 2848, 2849, 2850, 
2851, 2852, 2853, 2854, 2855, 2856, 2857, 2858, 2859, 2860, 
2861, 2862, 2863, 2864, 2865, 2866, 2867, 2868, 2869, 2870, 
2871, 2872, 2873, 2874, 2875, 2876, 2877, 2878, 2879, 2880, 
2881, 2882, 2883, 2884, 2885, 2886, 2887, 2888, 2889, 2890, 
2891, 2892, 2893, 2894, 2895, 2896, 2897, 2898, 2899, 2900, 
2901, 2902, 2903, 2904, 2905, 2906, 2907, 2908, 2909, 2910, 
2911, 2912, 2913, 2914, 2915, 2916, 2917, 2918, 2919, 2920, 
2921, 2922, 2923, 2924, 2925, 2926, 2927, 2928, 2929, 2930, 
2931, 2932, 2933, 2934, 2935, 2936, 2937, 2938, 2939, 2940, 
2941, 2942, 2943, 2944, 2945, 2946, 2947, 2948, 2949, 2950, 
2951, 2952, 2953, 2954, 2955, 2956, 2957, 2958, 2959, 2960, 
2961, 2962, 2963, 2964, 2965, 2966, 2967, 2968, 2969, 2970, 
2971, 2972, 2973, 2974, 2975, 2976, 2977, 2978, 2979, 2980, 
2981, 2982, 2983, 2984, 2985, 2986, 2987, 2988, 2989, 2990, 
2991, 2992, 2993, 2994, 2995, 2996, 2997, 2998, 
