*Heading
 /Users/juliagao/geometry-optimization-net/scripts/../runs/fourier/shape_5.inp
*NODE
1, 0, -0.3, 0
2, 0.425, -0.3, 0
3, 0.575, -0.3, 0
4, 1, -0.3, 0
5, 1, 0.3, 0
6, 0.575, 0.3, 0
7, 0.425, 0.3, 0
8, 0, 0.3, 0
9, 0.6938330483, 0.049349561, 0
10, 0.026607013457574, -0.3, 0
11, 0.080786794150355, -0.3, 0
12, 0.13639743311485, -0.3, 0
13, 0.19221360892698, -0.3, 0
14, 0.24725533425689, -0.3, 0
15, 0.30086287048058, -0.3, 0
16, 0.35237686800049, -0.3, 0
17, 0.4012733752719, -0.3, 0
18, 0.053214026915149, -0.3, 0
19, 0.10835956138556, -0.3, 0
20, 0.16443530484414, -0.3, 0
21, 0.21999191300981, -0.3, 0
22, 0.27451875550398, -0.3, 0
23, 0.32720698545719, -0.3, 0
24, 0.37754675054379, -0.3, 0
25, 0.4444138306993, -0.3, 0
26, 0.48210306284792, -0.3, 0
27, 0.51848755144592, -0.3, 0
28, 0.5557983192973, -0.3, 0
29, 0.46382766139861, -0.3, 0
30, 0.50037846429723, -0.3, 0
31, 0.5365966385946, -0.3, 0
32, 0.59903993492946, -0.3, 0
33, 0.64885249096776, -0.3, 0
34, 0.70104773276702, -0.3, 0
35, 0.75437214572144, -0.3, 0
36, 0.80888966358766, -0.3, 0
37, 0.86448927630688, -0.3, 0
38, 0.91984392985384, -0.3, 0
39, 0.9736073481419, -0.3, 0
40, 0.62307986985892, -0.3, 0
41, 0.6746251120766, -0.3, 0
42, 0.72747035345744, -0.3, 0
43, 0.78127393798543, -0.3, 0
44, 0.83650538918989, -0.3, 0
45, 0.89247316342388, -0.3, 0
46, 0.94721469628379, -0.3, 0
47, 1, -0.27423233007671, 0
48, 1, -0.22165260479064, 0
49, 1, -0.16740329301526, 0
50, 1, -0.1125163899386, 0
51, 1, -0.057855018522045, 0
52, 1, -0.004091079624124, 0
53, 1, 0.049421344548934, 0
54, 1, 0.10480748227696, 0
55, 1, 0.16230102706124, 0
56, 1, 0.21929101087792, 0
57, 1, 0.27360668880535, 0
58, 1, -0.24846466015342, 0
59, 1, -0.19484054942785, 0
60, 1, -0.13996603660266, 0
61, 1, -0.085066743274532, 0
62, 1, -0.030643293769559, 0
63, 1, 0.022461134521311, 0
64, 1, 0.076381554576556, 0
65, 1, 0.13323340997736, 0
66, 1, 0.19136864414513, 0
67, 1, 0.2472133776107, 0
68, 0.97457493720008, 0.3, 0
69, 0.92295262927771, 0.3, 0
70, 0.87022719566838, 0.3, 0
71, 0.81897528346356, 0.3, 0
72, 0.77272960644878, 0.3, 0
73, 0.73321433487771, 0.3, 0
74, 0.70038473167073, 0.3, 0
75, 0.67276264697084, 0.3, 0
76, 0.6484428522861, 0.3, 0
77, 0.62590171719583, 0.3, 0
78, 0.60452839578523, 0.3, 0
79, 0.58458110727365, 0.3, 0
80, 0.94914987440016, 0.3, 0
81, 0.89675538415526, 0.3, 0
82, 0.8436990071815, 0.3, 0
83, 0.79425155974562, 0.3, 0
84, 0.75120765315193, 0.3, 0
85, 0.71522101660349, 0.3, 0
86, 0.68554844673797, 0.3, 0
87, 0.65997684720371, 0.3, 0
88, 0.63690885736849, 0.3, 0
89, 0.61489457702317, 0.3, 0
90, 0.59416221454729, 0.3, 0
91, 0.56644053029438, 0.3, 0
92, 0.55030061598426, 0.3, 0
93, 0.53562268249127, 0.3, 0
94, 0.5216981884939, 0.3, 0
95, 0.50836495236072, 0.3, 0
96, 0.49562297662096, 0.3, 0
97, 0.48327616756026, 0.3, 0
98, 0.47100921467167, 0.3, 0
99, 0.45847908048487, 0.3, 0
100, 0.44549793483556, 0.3, 0
101, 0.43194551741486, 0.3, 0
102, 0.55788106058876, 0.3, 0
103, 0.54272017137976, 0.3, 0
104, 0.52852519360277, 0.3, 0
105, 0.51487118338503, 0.3, 0
106, 0.5018587213364, 0.3, 0
107, 0.48938723190552, 0.3, 0
108, 0.47716510321499, 0.3, 0
109, 0.46485332612835, 0.3, 0
110, 0.4521048348414, 0.3, 0
111, 0.43889103482973, 0.3, 0
112, 0.41724723704894, 0.3, 0
113, 0.40061187215758, 0.3, 0
114, 0.38132301501267, 0.3, 0
115, 0.35893549841604, 0.3, 0
116, 0.33326119201224, 0.3, 0
117, 0.30353083957782, 0.3, 0
118, 0.26885104131024, 0.3, 0
119, 0.2284236467223, 0.3, 0
120, 0.18200769578693, 0.3, 0
121, 0.13080278072347, 0.3, 0
122, 0.077569461134129, 0.3, 0
123, 0.025455004707942, 0.3, 0
124, 0.40949447409788, 0.3, 0
125, 0.39172927021728, 0.3, 0
126, 0.37091675980807, 0.3, 0
127, 0.346954237024, 0.3, 0
128, 0.31956814700048, 0.3, 0
129, 0.28749353215517, 0.3, 0
130, 0.25020855046531, 0.3, 0
131, 0.2066387429793, 0.3, 0
132, 0.15737664859457, 0.3, 0
133, 0.10422891285237, 0.3, 0
134, 0.050910009415884, 0.3, 0
135, 0, 0.27411829304879, 0
136, 0, 0.22169018682161, 0
137, 0, 0.16826519654533, 0
138, 0, 0.11429570498644, 0
139, 0, 0.059364343294277, 0
140, 0, 0.0032314370569577, 0
141, 0, -0.053231865909008, 0
142, 0, -0.10963504307322, 0
143, 0, -0.16580455591802, 0
144, 0, -0.220799378132, 0
145, 0, -0.27392850340159, 0
146, 0, 0.24823658609759, 0
147, 0, 0.19514378754563, 0
148, 0, 0.14138660554503, 0
149, 0, 0.087204804427846, 0
150, 0, 0.031523882160709, 0
151, 0, -0.025061008046793, 0
152, 0, -0.081402723771223, 0
153, 0, -0.13786736237522, 0
154, 0, -0.19374174946082, 0
155, 0, -0.24785700680317, 0
156, 0.69185673684474, 0.052783397886442, 0
157, 0.70021305305925, 0.039096038846676, 0
158, 0.7045186053036, 0.032425613682603, 0
159, 0.70866215392544, 0.025933668254829, 0
160, 0.71260946752528, 0.019523802261493, 0
161, 0.71637791463937, 0.013049483862637, 0
162, 0.71995318507565, 0.006417197818886, 0
163, 0.72329563654669, -0.00043092591634231, 0
164, 0.72636450757425, -0.0075752907021686, 0
165, 0.72905374874707, -0.014966950204172, 0
166, 0.73124143511984, -0.02246152622133, 0
167, 0.73287342753411, -0.030082110874947, 0
168, 0.73388323552316, -0.037874800575803, 0
169, 0.73417502036448, -0.045824888940592, 0
170, 0.73365011338082, -0.053814774214633, 0
171, 0.73222487054215, -0.061775140018617, 0
172, 0.72983973746583, -0.069582485233658, 0
173, 0.72653911969692, -0.076978722127626, 0
174, 0.72237447789013, -0.083888526677718, 0
175, 0.71740487351201, -0.090273108105946, 0
176, 0.71182097142807, -0.095994234931607, 0
177, 0.70579107100995, -0.10103043895906, 0
178, 0.6993216176959, -0.10549927705668, 0
179, 0.6925553726218, -0.10940216657121, 0
180, 0.68567236647135, -0.11274763699245, 0
181, 0.67861491950789, -0.11566009804093, 0
182, 0.67130912521514, -0.11823294472137, 0
183, 0.66374888916956, -0.12051767668112, 0
184, 0.65588609658245, -0.12257639031291, 0
185, 0.64795152330066, -0.12441167600162, 0
186, 0.6402682238446, -0.12603599462459, 0
187, 0.63274797996587, -0.12755508205373, 0
188, 0.62520224708809, -0.12908525241022, 0
189, 0.61768223177771, -0.13069528301561, 0
190, 0.61029029364559, -0.13243925550355, 0
191, 0.60297811030661, -0.13439493475648, 0
192, 0.59566549834533, -0.13664063802113, 0
193, 0.58845537702416, -0.13917452011822, 0
194, 0.58143375360247, -0.14194777448718, 0
195, 0.57450515255109, -0.14494218587076, 0
196, 0.56750831594957, -0.14815185032867, 0
197, 0.56031634007521, -0.15153962412299, 0
198, 0.55308341591483, -0.15491619744507, 0
199, 0.54586388024059, -0.15813977012647, 0
200, 0.538488115485, -0.16117943369769, 0
201, 0.53107160410125, -0.16389664374379, 0
202, 0.52366289547444, -0.16621371194541, 0
203, 0.51611186786138, -0.16812799021801, 0
204, 0.50849931631327, -0.16957782666343, 0
205, 0.50095627414332, -0.17052879271805, 0
206, 0.49348791487786, -0.17099331260519, 0
207, 0.48589913418616, -0.1709855162596, 0
208, 0.47805251397349, -0.17048204477896, 0
209, 0.47018833350183, -0.16949154420185, 0
210, 0.46252806010949, -0.16808313477385, 0
211, 0.45506955562155, -0.1663182889727, 0
212, 0.44773643906037, -0.16423376151838, 0
213, 0.44046370239753, -0.16185488467047, 0
214, 0.43330482938823, -0.15924034458033, 0
215, 0.42625536436946, -0.1564282956734, 0
216, 0.41925609451524, -0.15342499540802, 0
217, 0.41236803621795, -0.15027766957219, 0
218, 0.40560877060725, -0.14700781031792, 0
219, 0.39894276978293, -0.14359903263594, 0
220, 0.39238733395901, -0.14004818320715, 0
221, 0.38595978171574, -0.13634253812672, 0
222, 0.37964469879902, -0.13244002557881, 0
223, 0.37341199326256, -0.12827411714529, 0
224, 0.367284116733, -0.12379723650757, 0
225, 0.36139406047426, -0.11904412261386, 0
226, 0.35580449183842, -0.1140135853606, 0
227, 0.3504820862923, -0.10861704588491, 0
228, 0.34549772869933, -0.10286116236394, 0
229, 0.34092549892168, -0.096783458015592, 0
230, 0.33677795863204, -0.09036598142481, 0
231, 0.33310853400562, -0.083677375109431, 0
232, 0.32992203705103, -0.076747777088613, 0
233, 0.32718805711919, -0.069547888439072, 0
234, 0.32489967219862, -0.062124700783624, 0
235, 0.32302646585803, -0.054511168243865, 0
236, 0.32153823784003, -0.046841936267522, 0
237, 0.32037217117592, -0.039254882759073, 0
238, 0.31940576649918, -0.031563036453769, 0
239, 0.31851685856123, -0.023560528144846, 0
240, 0.31761433999125, -0.015561054261955, 0
241, 0.31661643538525, -0.0080115731785558, 0
242, 0.31539437008176, -0.00072307428295443, 0
243, 0.31378697130788, 0.0066519776157734, 0
244, 0.31172503751404, 0.014018987472965, 0
245, 0.30918250889305, 0.02135740377914, 0
246, 0.30615442795557, 0.028750887185382, 0
247, 0.30282378084658, 0.035980076343543, 0
248, 0.29943221705802, 0.042843701644657, 0
249, 0.29603192225279, 0.049516256517252, 0
250, 0.2926069824797, 0.056241523577295, 0
251, 0.28923080730622, 0.063062804057892, 0
252, 0.28595469810349, 0.070059783187242, 0
253, 0.28284760512668, 0.077278585289658, 0
254, 0.28003886186763, 0.084608836506777, 0
255, 0.27763837720423, 0.091911998902902, 0
256, 0.27567082288318, 0.099241206987669, 0
257, 0.27414109431354, 0.10681670515854, 0
258, 0.27313775393748, 0.11465356316949, 0
259, 0.2727654779844, 0.12252330461355, 0
260, 0.27306806797973, 0.13028826714091, 0
261, 0.27406345650599, 0.13791442693565, 0
262, 0.27575409994059, 0.14534109270682, 0
263, 0.27814890863454, 0.15257487372408, 0
264, 0.28128956747117, 0.15967125943518, 0
265, 0.28517246442523, 0.1665597768312, 0
266, 0.28963990928764, 0.17300574264872, 0
267, 0.29452878471234, 0.1789125407176, 0
268, 0.29977871479564, 0.18434752096707, 0
269, 0.30544346080276, 0.18945799114269, 0
270, 0.3116442355351, 0.19439277451356, 0
271, 0.31817463346751, 0.1990359857392, 0
272, 0.32473437441739, 0.20327494627384, 0
273, 0.33145643410986, 0.20729612517173, 0
274, 0.33836744749143, 0.21119393463042, 0
275, 0.34524283717953, 0.21492489627465, 0
276, 0.35192489993291, 0.21848761439581, 0
277, 0.35842905102087, 0.22195902494564, 0
278, 0.36495139408616, 0.22549670905181, 0
279, 0.37161109908649, 0.22920972897521, 0
280, 0.37832228849674, 0.23308017086108, 0
281, 0.38486153089371, 0.23697741340269, 0
282, 0.39130452280776, 0.24091495106289, 0
283, 0.39784929120613, 0.24496457392441, 0
284, 0.40448343947268, 0.24904955996011, 0
285, 0.41140483562648, 0.25319994709255, 0
286, 0.418590687148, 0.25728844042653, 0
287, 0.42567021535888, 0.26100694169511, 0
288, 0.43275357797569, 0.26434861423905, 0
289, 0.44008535308455, 0.26735386762289, 0
290, 0.44760199861411, 0.26991773822978, 0
291, 0.45520605818225, 0.27195606670927, 0
292, 0.46285635012754, 0.27343369912638, 0
293, 0.47049819107681, 0.27433666437235, 0
294, 0.47810233725392, 0.27467527826563, 0
295, 0.48568111499717, 0.27447197889309, 0
296, 0.49325088220893, 0.27375113322004, 0
297, 0.50087897650789, 0.27252994363697, 0
298, 0.50862784686262, 0.27082002304855, 0
299, 0.51631832045286, 0.26870637451566, 0
300, 0.52365562744377, 0.26636287211048, 0
301, 0.53075649574212, 0.2638580061754, 0
302, 0.53790600498189, 0.26117741588449, 0
303, 0.54509081344539, 0.25840877764171, 0
304, 0.55227464986293, 0.25565313861141, 0
305, 0.55952677688182, 0.2529650011302, 0
306, 0.56674336537693, 0.25044486697159, 0
307, 0.57389461921292, 0.24813271654605, 0
308, 0.58112472068526, 0.2459843666485, 0
309, 0.58849558159579, 0.24396173271479, 0
310, 0.5959555675672, 0.24203227092481, 0
311, 0.60342149108349, 0.24014677309889, 0
312, 0.61093807687853, 0.23820935289996, 0
313, 0.61835997770512, 0.23616735031506, 0
314, 0.62565173855616, 0.23394348280719, 0
315, 0.63308147886264, 0.23135252781141, 0
316, 0.64047314821855, 0.22833095914432, 0
317, 0.64750923922066, 0.22491063916906, 0
318, 0.65429659878718, 0.22095101891432, 0
319, 0.66080399296526, 0.21634724969867, 0
320, 0.66670708267975, 0.21124160488411, 0
321, 0.67194613854042, 0.20566793080866, 0
322, 0.67658693900593, 0.19952267028854, 0
323, 0.68054147953278, 0.19287542681286, 0
324, 0.68372993363103, 0.18589050853263, 0
325, 0.6861798744815, 0.17861467675552, 0
326, 0.6879306295265, 0.17106709392717, 0
327, 0.68900004714473, 0.16346187412908, 0
328, 0.68946714471056, 0.15596436786355, 0
329, 0.68943390425477, 0.14851025621557, 0
330, 0.68897316022988, 0.1409984100487, 0
331, 0.68814646975637, 0.13338830110483, 0
332, 0.68703605253638, 0.12573270318062, 0
333, 0.68575701597685, 0.11812516925833, 0
334, 0.68446711418007, 0.11074844341631, 0
335, 0.68331641304825, 0.10367088008798, 0
336, 0.68239554798804, 0.096470918889473, 0
337, 0.68190586274561, 0.088714132482334, 0
338, 0.68220147998165, 0.080826146483903, 0
339, 0.68341633351411, 0.073409005525423, 0
340, 0.68548348268815, 0.066417401431404, 0
341, 0.68831934817247, 0.059617395987828, 0
342, 0.69591420369948, 0.045903244085539, 0
343, 0.68997673619924, 0.056271056319006, 0
344, 0.68680082495551, 0.063029209720343, 0
345, 0.68434936734417, 0.069871439190927, 0
346, 0.68270544184801, 0.076997848922217, 0
347, 0.68194082377092, 0.084678443591874, 0
348, 0.68208030543599, 0.092745870607076, 0
349, 0.68282798052556, 0.10018403220482, 0
350, 0.68386200455773, 0.10714918787849, 0
351, 0.68509343768792, 0.11434405109325, 0
352, 0.68640772129438, 0.12190853360199, 0
353, 0.6876207553451, 0.1295638144794, 0
354, 0.68860315191193, 0.13722168107057, 0
355, 0.68925429460404, 0.144782833432, 0
356, 0.6895078855268, 0.15224131394647, 0
357, 0.68930291306768, 0.15968406980639, 0
358, 0.68855144088706, 0.16722521596929, 0
359, 0.68713949264922, 0.17487761708019, 0
360, 0.68504034796304, 0.18230092736578, 0
361, 0.68223641410688, 0.18940789321922, 0
362, 0.67866033981382, 0.19624559761447, 0
363, 0.67433489672868, 0.20267965260301, 0
364, 0.66940030119911, 0.20852354537638, 0
365, 0.66387843130326, 0.21381835281155, 0
366, 0.65760903551087, 0.21872193088005, 0
367, 0.6508890033489, 0.22303156931081, 0
368, 0.64406178430263, 0.22666227658507, 0
369, 0.63683254321246, 0.22988282829222, 0
370, 0.62929262487291, 0.23272170038718, 0
371, 0.62198772039315, 0.2350939178719, 0
372, 0.6147179810763, 0.23719129036967, 0
373, 0.60714993700592, 0.23919626655603, 0
374, 0.59969077264621, 0.24108830326854, 0
375, 0.59222311120817, 0.24298706738273, 0
376, 0.5847754552688, 0.24496431897087, 0
377, 0.57748505473258, 0.24704325756715, 0
378, 0.57031759966364, 0.24926545786729, 0
379, 0.56318318129292, 0.25166602255484, 0
380, 0.55588313927267, 0.25429934474918, 0
381, 0.54867392381695, 0.25702742540937, 0
382, 0.54150878124986, 0.25979291974188, 0
383, 0.53429690144571, 0.26254535629072, 0
384, 0.52720340500374, 0.26513596885199, 0
385, 0.5200901139335, 0.26753730675337, 0
386, 0.5125232126057, 0.26979750381528, 0
387, 0.50470727235174, 0.27174134702335, 0
388, 0.49702920619791, 0.27320617703013, 0
389, 0.48945709207278, 0.27417552215216, 0
390, 0.48189721775207, 0.27463987343484, 0
391, 0.47430859304383, 0.27457543239379, 0
392, 0.46669904617608, 0.27395895953217, 0
393, 0.45903555302495, 0.27276766128247, 0
394, 0.45140793586462, 0.27100854822719, 0
395, 0.44383481238089, 0.26869991775181, 0
396, 0.43637845989372, 0.26589477539334, 0
397, 0.42917001419141, 0.26270904987332, 0
398, 0.42220714687271, 0.25923136460833, 0
399, 0.41500791021057, 0.25528414992343, 0
400, 0.40782621941561, 0.2510740684152, 0
401, 0.40115231669187, 0.24700594500151, 0
402, 0.3945483903782, 0.2429197717481, 0
403, 0.38805492197339, 0.23891943132141, 0
404, 0.38165732516476, 0.23505328429377, 0
405, 0.37497281740966, 0.23113165582157, 0
406, 0.36823523875079, 0.22731275398635, 0
407, 0.36165702722121, 0.22369982888624, 0
408, 0.35519526589191, 0.22022904184398, 0
409, 0.3486540623416, 0.21674707359076, 0
410, 0.34183822487609, 0.2130903825114, 0
411, 0.3349122663898, 0.2092691927109, 0
412, 0.32802637606449, 0.20527854351001, 0
413, 0.32147700077128, 0.20121548452564, 0
414, 0.31492132152072, 0.196783858321, 0
415, 0.30843425647838, 0.19191225507992, 0
416, 0.302529663123, 0.18691272441912, 0
417, 0.29711673103839, 0.18169005004932, 0
418, 0.29204889563569, 0.17603807877635, 0
419, 0.28736215484513, 0.16987357551055, 0
420, 0.28314021340354, 0.16314711523998, 0
421, 0.27961024634288, 0.15610944755995, 0
422, 0.27686006589419, 0.14897380426308, 0
423, 0.27482303530117, 0.14165967403992, 0
424, 0.27348048443286, 0.13413768399637, 0
425, 0.27283129541759, 0.12642410938357, 0
426, 0.27286763402733, 0.11862332812924, 0
427, 0.27356799285359, 0.11069799525533, 0
428, 0.2748537790821, 0.10295865004516, 0
429, 0.27660376053219, 0.095551181432868, 0
430, 0.27877234167687, 0.08830257249029, 0
431, 0.28139490509864, 0.080947053371206, 0
432, 0.28437474259682, 0.073640505934219, 0
433, 0.28759094267459, 0.066504455365137, 0
434, 0.29090767110016, 0.05963904572347, 0
435, 0.29432585978648, 0.052853869414798, 0
436, 0.29773860952124, 0.046178963449332, 0
437, 0.30110577053296, 0.039498318980606, 0
438, 0.30449397186271, 0.032438845572032, 0
439, 0.30773377326996, 0.025027408305956, 0
440, 0.31052836990883, 0.017648381170417, 0
441, 0.31281115993417, 0.010354972160314, 0
442, 0.31465275784274, 0.0029217449626831, 0
443, 0.31604746380008, -0.0043847483489147, 0
444, 0.31712332135228, -0.011647556050158, 0
445, 0.31806718954609, -0.019479123261099, 0
446, 0.31896318317292, -0.027642297482977, 0
447, 0.31987706031021, -0.035480446504061, 0
448, 0.3209187258871, -0.043022240539393, 0
449, 0.32223239725994, -0.050648808706601, 0
450, 0.32391683417837, -0.058352511093272, 0
451, 0.3259911081612, -0.06586694931595, 0
452, 0.32850218920426, -0.073188667747307, 0
453, 0.33146241791024, -0.080256423093099, 0
454, 0.33487434161692, -0.087038119148623, 0
455, 0.33880088036592, -0.09362270007313, 0
456, 0.34316141441327, -0.099866480042291, 0
457, 0.34793549363631, -0.10577383768699, 0
458, 0.35311990862662, -0.11137579441606, 0
459, 0.35856610778076, -0.11657057998189, 0
460, 0.3642872991914, -0.12144093563472, 0
461, 0.37033696414665, -0.12608043775686, 0
462, 0.37653215735095, -0.13040307525548, 0
463, 0.38279289688489, -0.1344213947378, 0
464, 0.3891554961471, -0.13821531190479, 0
465, 0.3956431185276, -0.14183815577404, 0
466, 0.40226303172131, -0.14532072069768, 0
467, 0.40897291976339, -0.14865787874756, 0
468, 0.41578066761922, -0.15186022802034, 0
469, 0.42274951106247, -0.15494918676852, 0
470, 0.42977995268528, -0.15786220649736, 0
471, 0.43684943924368, -0.16056693240972, 0
472, 0.44409943794633, -0.16308095532209, 0
473, 0.45139530728555, -0.16531521764271, 0
474, 0.45876520747422, -0.16723946039081, 0
475, 0.46631100516169, -0.16883169520088, 0
476, 0.47408280105347, -0.1700414355089, 0
477, 0.48203399325795, -0.1707994470599, 0
478, 0.4897682366226, -0.17104931761886, 0
479, 0.49720403489736, -0.17082123658531, 0
480, 0.50469737248206, -0.17011774019506, 0
481, 0.5122823549832, -0.1689184271009, 0
482, 0.51991564195816, -0.16722184111411, 0
483, 0.52738108384313, -0.16510325626289, 0
484, 0.53473220884951, -0.1626021941211, 0
485, 0.54221456905093, -0.15968131633033, 0
486, 0.54949044112772, -0.15654550645162, 0
487, 0.55666257095262, -0.15325679221034, 0
488, 0.56396708599827, -0.14981604790824, 0
489, 0.57105807136665, -0.14650588927022, 0
490, 0.57796936353135, -0.1434167599435, 0
491, 0.58492114443958, -0.14053421082926, 0
492, 0.59201508862826, -0.13788297896618, 0
493, 0.59934046597266, -0.13547296145363, 0
494, 0.60663498301664, -0.13338411185455, 0
495, 0.6139592153131, -0.13154879020115, 0
496, 0.6214139221234, -0.12988061066162, 0
497, 0.62899484371103, -0.12831056506602, 0
498, 0.63650139091598, -0.12680096785973, 0
499, 0.64403161720575, -0.1252542434053, 0
500, 0.65186328460977, -0.12353200024227, 0
501, 0.65989451601811, -0.12156200162335, 0
502, 0.66758311137167, -0.11940153749648, 0
503, 0.67500787057538, -0.11698062080144, 0
504, 0.68218592766626, -0.11424491022384, 0
505, 0.68911190880986, -0.11114546942634, 0
506, 0.69593524880851, -0.10753846290633, 0
507, 0.70262166126551, -0.10332303985534, 0
508, 0.70885300424418, -0.098596038166608, 0
509, 0.71465351543087, -0.093245499309208, 0
510, 0.7199847344394, -0.087150606250961, 0
511, 0.7245656292561, -0.08048981925271, 0
512, 0.72829370337549, -0.073353259492695, 0
513, 0.73114947985926, -0.06572327441816, 0
514, 0.73306127877193, -0.057769613210587, 0
515, 0.7340190372447, -0.049833472458506, 0
516, 0.73412464600123, -0.041813671232105, 0
517, 0.73346099690969, -0.033951260735763, 0
518, 0.73212770097578, -0.026240369593204, 0
519, 0.73021849807011, -0.018717419565716, 0
520, 0.72776767463032, -0.011256379960077, 0
521, 0.72485674967687, -0.0039358310507429, 0
522, 0.72165063717315, 0.0030353681446289, 0
523, 0.71818797238037, 0.0097641313872162, 0
524, 0.71451440952474, 0.016304796498201, 0
525, 0.71066480753334, 0.022718951969133, 0
526, 0.7066334589055, 0.029131998709214, 0
527, 0.70239463455422, 0.035713350093044, 0
528, 0.69804772816229, 0.042489172250573, 0
529, 0.42290279636039, -0.25675413897634, 0
530, 0.42477177527093, 0.28285644232207, 0
531, 0.054414552656489, -0.24593432156384, 0
532, 0.1092075742925, -0.2449452745769, 0
533, 0.16432572292767, -0.24510659733932, 0
534, 0.21974628003442, -0.24627205931992, 0
535, 0.27558293451504, -0.24951903845714, 0
536, 0.70113791291082, 0.053342432102235, 0
537, 0.5748562085608, 0.28017955625731, 0
538, 0.57702097757211, -0.25895859069583, 0
539, 0.053337990750558, 0.19316449737505, 0
540, 0.1048955732103, 0.2454614357345, 0
541, 0.15736167576003, 0.24870082089668, 0
542, 0.052263728651813, 0.24636998066132, 0
543, 0.27977899421912, 0.17797471031894, 0
544, 0.32250897811051, 0.26624939861283, 0
545, 0.34966455087441, 0.27104651272591, 0
546, 0.37125410603817, 0.27703190148281, 0
547, 0.48950424079663, 0.28669327941851, 0
548, 0.47758212026668, 0.28530671407113, 0
549, 0.45273681642004, 0.28456343074529, 0
550, 0.46547937723892, 0.28628179632574, 0
551, 0.39041961693096, 0.27818123682146, 0
552, 0.40769280148985, 0.28344694909263, 0
553, 0.43949683839621, 0.28647453065578, 0
554, 0.054608675639384, 0.14055163335476, 0
555, 0.055944171331082, 0.086903449054687, 0
556, 0.057186482557073, 0.031760902272205, 0
557, 0.055620556164755, -0.19167380839691, 0
558, 0.056886028851208, -0.13658566054514, 0
559, 0.057732207087008, -0.08068592569076, 0
560, 0.057793235434015, -0.024296288247626, 0
561, 0.46346599253659, -0.25213112057433, 0
562, 0.42708337235522, -0.20522651857672, 0
563, 0.94296004486841, 0.1901067016714, 0
564, 0.84303212898311, 0.24744167987064, 0
565, 0.8931748233634, 0.24569075725597, 0
566, 0.94586403354112, 0.24572909760738, 0
567, 0.79581004649879, 0.25283116387853, 0
568, 0.75348100517379, 0.26046631447657, 0
569, 0.71725097625496, 0.2669541439762, 0
570, 0.68483667542724, 0.26832698547902, 0
571, 0.65776688730812, 0.2725340896806, 0
572, 0.63623051015494, 0.27753840577455, 0
573, 0.61418043696312, 0.27526714893304, 0
574, 0.50214528266372, 0.28526121870187, 0
575, 0.51482084718779, 0.28729602102997, 0
576, 0.52752455425375, 0.28479978721979, 0
577, 0.54272017151867, 0.28433746255319, 0
578, 0.59274261909859, 0.27879620137335, 0
579, 0.55864561168423, 0.28300805767118, 0
580, 0.69723956179087, 0.15211940112695, 0
581, 0.69058598089757, 0.084572439976233, 0
582, 0.69043246886232, 0.092193344619463, 0
583, 0.69058506138064, 0.099240700022175, 0
584, 0.69156826194561, 0.10604066323714, 0
585, 0.69301797685191, 0.11316148042909, 0
586, 0.69704657194435, 0.14419449035357, 0
587, 0.69650129249329, 0.13631377236315, 0
588, 0.69441737347781, 0.12074082075964, 0
589, 0.69561681305926, 0.12848344418839, 0
590, 0.69726224942476, 0.060254777201945, 0
591, 0.69332031875051, 0.066899998803064, 0
592, 0.68956203101605, 0.071411057434447, 0
593, 0.69036014063934, 0.076801075229717, 0
594, 0.94212583419962, 0.13331364224242, 0
595, 0.94426478242637, 0.022368548006704, 0
596, 0.94313176435537, 0.077094818688629, 0
597, 0.94414659152494, -0.031709805914829, 0
598, 0.94343287548074, -0.085988273796797, 0
599, 0.541931558123, -0.26298561055262, 0
600, 0.50657299649232, -0.25550124902633, 0
601, 0.66866832934794, -0.2438115494532, 0
602, 0.61848502584402, -0.24859654410753, 0
603, 0.94384907090819, -0.13976860606642, 0
604, 0.72108247282339, -0.24059821470431, 0
605, 0.77513122812984, -0.23774643942514, 0
606, 0.83301835972241, -0.23637300037403, 0
607, 0.89142868806513, -0.24376459859392, 0
608, 0.94499124937957, -0.19285298958143, 0
609, 0.9459410513711, -0.2461701380544, 0
610, 0.26118722505339, 0.13159711037391, 0
611, 0.23473058396472, 0.12588619287752, 0
612, 0.28420762937595, 0.19002948852234, 0
613, 0.29261662402552, 0.20224744861117, 0
614, 0.27185358211146, 0.16707708646393, 0
615, 0.25894807713928, 0.12476290805586, 0
616, 0.2407372870653, 0.13888204419423, 0
617, 0.28377688279482, 0.18201980854392, 0
618, 0.25956725945078, 0.11364071009701, 0
619, 0.16046720363319, 0.1978945831142, 0
620, 0.10663214685722, 0.19288432086326, 0
621, 0.25280301652701, 0.099117079229612, 0
622, 0.27420746659109, 0.22226059557613, 0
623, 0.27523418673525, 0.21172862519926, 0
624, 0.3276617795308, 0.22282579161965, 0
625, 0.27448426553187, 0.19117837974776, 0
626, 0.32102664775513, 0.23901479146649, 0
627, 0.36469299421731, 0.23460953831957, 0
628, 0.35819075758053, 0.23096885480098, 0
629, 0.35152900295432, 0.22754086122395, 0
630, 0.34460535341067, 0.22413459863548, 0
631, 0.33214482611977, 0.22811696423368, 0
632, 0.34003407553253, 0.23335175079844, 0
633, 0.34803363260192, 0.23591550913794, 0
634, 0.35527630471522, 0.23909554221732, 0
635, 0.33572615614375, 0.24625342333286, 0
636, 0.34796383669747, 0.24876578415551, 0
637, 0.36209131394195, 0.24317193217619, 0
638, 0.3712368468749, 0.23893662416387, 0
639, 0.36789949317841, 0.24514659156578, 0
640, 0.36010939641545, 0.25437769143752, 0
641, 0.38377093908338, 0.24656215844373, 0
642, 0.37742008297144, 0.2425630477887, 0
643, 0.37370243613154, 0.25609285636492, 0
644, 0.44820222122131, 0.27697345802163, 0
645, 0.41627057272728, 0.27327516954085, 0
646, 0.44127429203585, 0.27628622941207, 0
647, 0.4335636662852, 0.27342079494074, 0
648, 0.41883931698119, 0.26684261423002, 0
649, 0.42612212926129, 0.26998940772921, 0
650, 0.40660825510897, 0.27166726238839, 0
651, 0.40385672601532, 0.25764895777882, 0
652, 0.41076697136079, 0.26245991046691, 0
653, 0.38629230361839, 0.26083522146659, 0
654, 0.39711935664351, 0.26411792062241, 0
655, 0.39743845264129, 0.25383009330076, 0
656, 0.39029617819491, 0.25103349300356, 0
657, 0.31011342347402, 0.20359217845343, 0
658, 0.30362640633567, 0.19855437760872, 0
659, 0.29730884732142, 0.19312159033026, 0
660, 0.29132385388321, 0.18722863205219, 0
661, 0.2528330671268, 0.1338414294118, 0
662, 0.27144212158176, 0.26379894984413, 0
663, 0.29457801845375, 0.21526954776785, 0
664, 0.30614416789043, 0.22374576674015, 0
665, 0.29983628166585, 0.20442195307201, 0
666, 0.28448839746495, 0.22392896626229, 0
667, 0.30485705818457, 0.21185145351547, 0
668, 0.31121016274817, 0.21515344301594, 0
669, 0.316762693179, 0.20828999742369, 0
670, 0.32379705847936, 0.21261110113086, 0
671, 0.3189673831436, 0.22267810489527, 0
672, 0.33758719163061, 0.2204179691915, 0
673, 0.33078114139057, 0.21657211969518, 0
674, 0.26487639134983, 0.14284933419903, 0
675, 0.2880294878243, 0.17883802224919, 0
676, 0.22995389166134, 0.16660826479237, 0
677, 0.28148165217797, 0.059172604130108, 0
678, 0.26765429880649, 0.035760613199192, 0
679, 0.27278464830183, 0.094088057482272, 0
680, 0.27918432284366, 0.043706704784965, 0
681, 0.29110596362722, 0.044659925896431, 0
682, 0.30618363270486, 0.016547500406636, 0
683, 0.27540244686647, 0.085461648262317, 0
684, 0.29742207296218, 0.037926014001796, 0
685, 0.28846049382958, 0.039538635990122, 0
686, 0.26348304989941, 0.075021873597086, 0
687, 0.28342949340394, 0.04874469918475, 0
688, 0.28670337264353, 0.055990675521259, 0
689, 0.28840858906884, 0.025278240009503, 0
690, 0.29679162711749, 0.028847406775252, 0
691, 0.29996421854175, 0.022140398056876, 0
692, 0.29389120035725, 0.019742727388614, 0
693, 0.29694137446929, 0.0037667934561357, 0
694, 0.26934387110299, 0.16218612113194, 0
695, 0.26996431027866, 0.1352448186426, 0
696, 0.18872014682817, 0.13691462041572, 0
697, 0.24630204001422, 0.12830024014044, 0
698, 0.21199094348393, 0.1317042418278, 0
699, 0.2341282638048, 0.23970881321697, 0
700, 0.26188726013578, 0.19072062396133, 0
701, 0.25342734594262, 0.10431003846089, 0
702, 0.23534656998991, 0.10386387866013, 0
703, 0.23946941822029, 0.11168242543229, 0
704, 0.26098680274388, 0.17675734250995, 0
705, 0.22244037625862, 0.093633689081463, 0
706, 0.26204911675341, 0.10937626291323, 0
707, 0.21031701794958, 0.092268606424844, 0
708, 0.25830792951969, 0.14793774106336, 0
709, 0.26593176968959, 0.10968021025555, 0
710, 0.25635709440387, 0.11426113935137, 0
711, 0.26668715913204, 0.10155681067566, 0
712, 0.25199856421172, 0.065307208114213, 0
713, 0.25570128519841, 0.078416528967937, 0
714, 0.25484373126883, 0.13017078483293, 0
715, 0.23959176615787, 0.12163752409647, 0
716, 0.24866684699331, 0.041681051441993, 0
717, 0.28552297895029, 0.033321209156472, 0
718, 0.28424150253975, 0.057304093260096, 0
719, 0.28881758929828, 0.055336396811899, 0
720, 0.24662341788258, 0.01085267454797, 0
721, 0.23710609757751, 0.049029995931848, 0
722, 0.29188712199823, 0.052409263219858, 0
723, 0.26890818320685, 0.063162917917736, 0
724, 0.25439541407668, 0.086030747359546, 0
725, 0.28080205137869, 0.031534834724418, 0
726, 0.27861275578057, 0.077196538534309, 0
727, 0.22675850745463, 0.035963852861566, 0
728, 0.22212202839111, 0.073263159680438, 0
729, 0.21981360187117, 0.054763554881107, 0
730, 0.16102166135063, 0.14867353030696, 0
731, 0.10836311371391, 0.14120561236254, 0
732, 0.11093245445124, 0.088809811756464, 0
733, 0.1139084918956, 0.034462480461609, 0
734, 0.16515119306256, -0.19121893115469, 0
735, 0.22282773505284, -0.19515918935874, 0
736, 0.29284957464322, -0.03376748211001, 0
737, 0.17138104954835, -0.13799885040764, 0
738, 0.11077802964822, -0.19071320302264, 0
739, 0.11316852026252, -0.1358371720216, 0
740, 0.11544797662274, -0.021884834480437, 0
741, 0.11501260257125, -0.079101776911904, 0
742, 0.2152267403826, -0.022918275477669, 0
743, 0.24533774177784, -0.015744061805716, 0
744, 0.27882480551089, 0.023582625868855, 0
745, 0.32302132776525, -0.079276701780637, 0
746, 0.21371528912334, 0.0074930288173715, 0
747, 0.22288731775412, -0.051891679376007, 0
748, 0.17412855479421, -0.01550186709634, 0
749, 0.28182971925856, -0.024731196928787, 0
750, 0.24994314428165, -0.038715237791552, 0
751, 0.31573854609803, -0.08787554999108, 0
752, 0.18222282061989, -0.077641195177555, 0
753, 0.31415226167163, -0.03102594687956, 0
754, 0.28578198078888, -0.088703264397102, 0
755, 0.23250972547205, -0.14693732050583, 0
756, 0.42531612056002, -0.17553512720213, 0
757, 0.36724626958027, -0.13600154559129, 0
758, 0.44315600084724, -0.19435854182459, 0
759, 0.46250550931975, -0.17392233893186, 0
760, 0.48132398227745, -0.20304298768138, 0
761, 0.47820097498973, -0.22255069600532, 0
762, 0.45844741884789, -0.18727030355826, 0
763, 0.44389473474506, -0.17879017735616, 0
764, 0.3273409795996, -0.11356683121425, 0
765, 0.39915254861576, -0.15859533039498, 0
766, 0.46574668088166, -0.17518106786388, 0
767, 0.39877634952342, -0.14562289403224, 0
768, 0.40511638894905, -0.156316004973, 0
769, 0.32639969857007, -0.12594036157702, 0
770, 0.33711308534039, -0.10580417910156, 0
771, 0.31467145362291, -0.11340572101187, 0
772, 0.38671794971457, -0.14873717012426, 0
773, 0.32837538673106, -0.13213505769536, 0
774, 0.45998760090597, -0.17506953138604, 0
775, 0.38575851293604, -0.1391269652474, 0
776, 0.33199157714294, -0.19268364297769, 0
777, 0.35324869023769, -0.11878646588109, 0
778, 0.34152503660659, -0.12303980487365, 0
779, 0.29311580610309, -0.11807878076979, 0
780, 0.33737126323043, -0.16371371598409, 0
781, 0.3026823013379, -0.13420541059818, 0
782, 0.34185675726513, -0.13491150032161, 0
783, 0.31041983767044, -0.118135906233, 0
784, 0.29128594960547, -0.1647524109988, 0
785, 0.36067666229248, -0.14516453336495, 0
786, 0.37553231922627, -0.14363057789883, 0
787, 0.41473641368172, -0.156758517992, 0
788, 0.46138332390711, -0.18425106776462, 0
789, 0.41455651451769, -0.16296792060115, 0
790, 0.38468747791748, -0.16306604014627, 0
791, 0.43710059281711, -0.16620216928728, 0
792, 0.38133229884946, -0.15297892965823, 0
793, 0.47374717502804, -0.17383207609717, 0
794, 0.45394981550866, -0.17291725759114, 0
795, 0.32072039449567, -0.1583376690032, 0
796, 0.30251311431501, -0.25028771146693, 0
797, 0.37402576371287, -0.15299929954794, 0
798, 0.33385273733375, -0.17712730629938, 0
799, 0.36256609264715, -0.1336652839571, 0
800, 0.35829921567856, -0.13787304867267, 0
801, 0.32956870809708, -0.25186407625253, 0
802, 0.34704341028858, -0.13921352533791, 0
803, 0.3825024913195, -0.15780951213403, 0
804, 0.37818386642659, -0.13594884431571, 0
805, 0.48162028618562, -0.1790547418992, 0
806, 0.48990741261982, -0.17896183411587, 0
807, 0.49773307380086, -0.17841795301426, 0
808, 0.49813747290403, -0.18479152751285, 0
809, 0.49177726468598, -0.18769302436406, 0
810, 0.48171367726126, -0.18918525184628, 0
811, 0.46524531799652, -0.20348954405934, 0
812, 0.46986170611826, -0.17296527399935, 0
813, 0.43227515017397, -0.17761005687498, 0
814, 0.47007495499135, -0.19164534069048, 0
815, 0.46198973896514, -0.17643151698479, 0
816, 0.31303450796589, -0.041992333402617, 0
817, 0.33298007098147, -0.10728031118624, 0
818, 0.31821159378881, -0.12020470779415, 0
819, 0.33635939914368, -0.11254567731266, 0
820, 0.31089890972581, -0.018652389957438, 0
821, 0.3021615565318, -0.070855610851817, 0
822, 0.33355548761376, -0.13874422357749, 0
823, 0.32238873436489, -0.14293854652375, 0
824, 0.38979895420708, -0.14292089657157, 0
825, 0.26221707303208, -0.15626606793606, 0
826, 0.39651234225552, -0.14378708566533, 0
827, 0.29030124924699, -0.04278912349455, 0
828, 0.30340365195077, -0.065660432892112, 0
829, 0.33675208763892, -0.097995609989358, 0
830, 0.29939492105509, -0.029849533879942, 0
831, 0.3165495005304, -0.048476156067997, 0
832, 0.27231868104206, -0.059943535716104, 0
833, 0.31839991255819, -0.078757118075639, 0
834, 0.29526719749538, -0.055379750930959, 0
835, 0.32498552525738, -0.072265276653477, 0
836, 0.31192937197368, -0.022842035090994, 0
837, 0.32302928846171, -0.092056367739252, 0
838, 0.30982584752366, -0.088139961051329, 0
839, 0.20668825290473, -0.11584874711521, 0
840, 0.3204356123554, -0.06044766563464, 0
841, 0.27127027141966, -0.048710037988089, 0
842, 0.2391662754913, -0.099684098039247, 0
843, 0.29354940398359, -0.10536074805581, 0
844, 0.31645082103145, -0.038654522225358, 0
845, 0.32805092252858, -0.10064327186749, 0
846, 0.29323523648951, 0.013673594650577, 0
847, 0.2979138492501, -0.012931660401328, 0
848, 0.27420549826637, -0.088368704447546, 0
849, 0.30993973281723, -0.0058148747487941, 0
850, 0.30333025583953, -0.0032323339720405, 0
851, 0.30379182122424, -0.0072316486646898, 0
852, 0.27883790483154, -0.043076163948569, 0
853, 0.32053685295469, -0.063833905598589, 0
854, 0.32348725454266, -0.10212768746451, 0
855, 0.32043644981752, -0.09753939595599, 0
856, 0.30880116382056, 0.0017848901371467, 0
857, 0.20065345949687, -0.14133879037812, 0
858, 0.27450574579044, 0.020187344649379, 0
859, 0.28278075993157, 0.017531199060274, 0
860, 0.2898711744504, -0.051892656608137, 0
861, 0.30202573027679, -0.10257470995874, 0
862, 0.79202433638337, 0.20342492600828, 0
863, 0.75102806290634, 0.19969055200465, 0
864, 0.73156274020089, 0.20021406895215, 0
865, 0.77068742458248, 0.18670591999365, 0
866, 0.7322716119916, 0.1831701326528, 0
867, 0.75121173658281, 0.15905549673946, 0
868, 0.73217170821712, 0.16613921534352, 0
869, 0.775381141353, 0.16166799339328, 0
870, 0.79703885883439, 0.16002555990423, 0
871, 0.83814533348922, 0.19463330909396, 0
872, 0.88832609212254, 0.19046194466725, 0
873, 0.74854950997972, 0.22450603930114, 0
874, 0.71331083096804, 0.23912906277775, 0
875, 0.67608199834956, 0.22965195539178, 0
876, 0.69526693894738, 0.22789828834181, 0
877, 0.68804994683982, 0.24255843533835, 0
878, 0.67178445550442, 0.24863895237023, 0
879, 0.63981702635319, 0.2376682346788, 0
880, 0.66224428230911, 0.22606313734621, 0
881, 0.66733634709001, 0.23576412873259, 0
882, 0.6548728042326, 0.23050680005752, 0
883, 0.64743495054837, 0.23426191810732, 0
884, 0.65090280040545, 0.24232238923942, 0
885, 0.64337001165785, 0.24637267837345, 0
886, 0.65872107633787, 0.23898636430669, 0
887, 0.6591693253203, 0.25143128545831, 0
888, 0.64694881595391, 0.25700051698133, 0
889, 0.63160667412395, 0.24131622797719, 0
890, 0.63425147416709, 0.25006060661947, 0
891, 0.61639019828391, 0.24593537124357, 0
892, 0.62376688651764, 0.24387299676723, 0
893, 0.61150629314783, 0.25602808263676, 0
894, 0.62137136786912, 0.25963213276443, 0
895, 0.63575716725764, 0.26163380041832, 0
896, 0.50733770595178, 0.27786049021265, 0
897, 0.51402189487148, 0.27746488041524, 0
898, 0.5216288590957, 0.2751919891776, 0
899, 0.53714972569129, 0.2713396449005, 0
900, 0.52949824533262, 0.27328748821286, 0
901, 0.55185284036338, 0.26392712013877, 0
902, 0.54468385223371, 0.26755042794277, 0
903, 0.54796342652302, 0.27377357624889, 0
904, 0.58349728615264, 0.27213876634043, 0
905, 0.56542243401327, 0.27478114045374, 0
906, 0.5638020096184, 0.26747075052781, 0
907, 0.55475777381269, 0.27177997098418, 0
908, 0.55825808378987, 0.26084612253368, 0
909, 0.56504531232541, 0.25845823378297, 0
910, 0.57337075187333, 0.26631592363596, 0
911, 0.58222619846945, 0.2642404896315, 0
912, 0.57204357233443, 0.25726212052715, 0
913, 0.59287060394715, 0.26152989871201, 0
914, 0.60477640488379, 0.25988054041409, 0
915, 0.60947442607013, 0.24810816228307, 0
916, 0.6016603214667, 0.24980225871137, 0
917, 0.58685417443374, 0.25252892998723, 0
918, 0.59421902636363, 0.25081105482933, 0
919, 0.57987769793862, 0.25525768476295, 0
920, 0.68573825616848, 0.19998117528317, 0
921, 0.68961646757363, 0.19229949351688, 0
922, 0.70102871343605, 0.18616606484905, 0
923, 0.71894824387366, 0.19873524584487, 0
924, 0.70817402885047, 0.19786071838809, 0
925, 0.69858314045413, 0.19473513408846, 0
926, 0.70468506622609, 0.20712244066301, 0
927, 0.71939906217119, 0.21396946084594, 0
928, 0.70053396058556, 0.21710625181031, 0
929, 0.69449329694244, 0.20365612376769, 0
930, 0.68970473539649, 0.21226423262675, 0
931, 0.68119584376847, 0.20725510271325, 0
932, 0.67568316756897, 0.21429458625143, 0
933, 0.68407506465062, 0.22123174530036, 0
934, 0.66942742845265, 0.22085964019924, 0
935, 0.69267476935255, 0.18431312321956, 0
936, 0.69490902553506, 0.17627711833532, 0
937, 0.69707970265916, 0.16007737146459, 0
938, 0.69637042798613, 0.16813660492739, 0
939, 0.71449531980416, 0.18373124424231, 0
940, 0.70339036800813, 0.17703370541314, 0
941, 0.70467692950899, 0.16887268002452, 0
942, 0.71600465528552, 0.16448618891368, 0
943, 0.7052230646876, 0.15974083349838, 0
944, 0.70538157957496, 0.15185796034877, 0
945, 0.69909984937568, 0.092169505091779, 0
946, 0.69667268730392, 0.098696031936422, 0
947, 0.70938678710954, 0.098258562984934, 0
948, 0.7250799674298, 0.095852185065607, 0
949, 0.71017816739597, 0.085798729258985, 0
950, 0.70006231186074, 0.084690799105864, 0
951, 0.69942210966132, 0.10393484912647, 0
952, 0.70107408690071, 0.11132213534221, 0
953, 0.71259824471763, 0.11376553745774, 0
954, 0.7161828529583, 0.14676672946818, 0
955, 0.70514485894715, 0.1431025454871, 0
956, 0.70468554329265, 0.13546790323068, 0
957, 0.7150581933437, 0.12998762510305, 0
958, 0.70257181022534, 0.11973150691064, 0
959, 0.70366249578116, 0.12709283604307, 0
960, 0.71318953848838, 0.051241843957199, 0
961, 0.71919814474772, 0.060966182310211, 0
962, 0.7068851946153, 0.056185410900176, 0
963, 0.70547223896836, 0.062748275050099, 0
964, 0.70052886750748, 0.073206420997836, 0
965, 0.72243757578981, 0.082682605918554, 0
966, 0.71315469655052, 0.074883883912664, 0
967, 0.716859224494, 0.044041258290436, 0
968, 0.70951390708349, 0.039924070684912, 0
969, 0.70528691803448, 0.046629514864227, 0
970, 0.71368962456494, 0.033073412293566, 0
971, 0.72160355561515, 0.036064330557781, 0
972, 0.71766845809196, 0.026307945835798, 0
973, 0.72574641407003, 0.029266279510971, 0
974, 0.72135082606205, 0.01975008775679, 0
975, 0.77815612287185, 0.13373363053137, 0
976, 0.75332422817064, 0.13023698503587, 0
977, 0.73233647926792, 0.1293897669595, 0
978, 0.73195260354071, 0.14749951023455, 0
979, 0.82058353085991, 0.13490123176214, 0
980, 0.78276418050592, 0.1051518351055, 0
981, 0.72849629817618, 0.11224111158654, 0
982, 0.74933594269483, 0.099268857596242, 0
983, 0.73931465380892, 0.027958757298893, 0
984, 0.72692548969449, 0.022327066296269, 0
985, 0.73258972102368, 0.017095764437952, 0
986, 0.77020867504166, 0.016342158133891, 0
987, 0.76079892999405, 0.042312927590054, 0
988, 0.74201129023455, 0.051845457717335, 0
989, 0.72972368655334, 0.044988635891168, 0
990, 0.73698567519301, 0.07031601362762, 0
991, 0.76223813641828, 0.070588947691129, 0
992, 0.79294341592311, 0.047207075102602, 0
993, 0.7969554766562, 0.022635117459283, 0
994, 0.82894552459413, 0.070159241490858, 0
995, 0.78756452540277, 0.077697349798439, 0
996, 0.88518027186238, 0.13329124663304, 0
997, 0.88652354530228, 0.075877472663203, 0
998, 0.88957788214473, 0.020613498354781, 0
999, 0.83525756084163, 0.015024275427158, 0
1000, 0.8378391275114, -0.11244130600108, 0
1001, 0.88283917341677, -0.08914875668318, 0
1002, 0.84150370795931, -0.033164211903374, 0
1003, 0.88951184002227, -0.032781758674711, 0
1004, 0.77278435646309, -0.090790525388419, 0
1005, 0.75289971794562, -0.093685267134625, 0
1006, 0.72661333915775, -0.092135505119994, 0
1007, 0.73486303623073, -0.097091006702194, 0
1008, 0.72724172444427, -0.10799062761093, 0
1009, 0.74601128081009, -0.10814387438866, 0
1010, 0.74164854050155, -0.12255559337795, 0
1011, 0.77038052325846, -0.12155038393195, 0
1012, 0.80410128111815, -0.11799699692661, 0
1013, 0.80015773156121, -0.091435420391399, 0
1014, 0.83272233676953, -0.075124811138843, 0
1015, 0.79884626868986, -0.061710047562222, 0
1016, 0.75720972886861, -0.082128986802689, 0
1017, 0.7603461363317, -0.072820532060111, 0
1018, 0.7753718958484, -0.069622695686271, 0
1019, 0.76266141988618, -0.061811915326705, 0
1020, 0.73194466965178, -0.084445292017175, 0
1021, 0.74118408991482, -0.088997296514874, 0
1022, 0.7458088681329, -0.079557599522459, 0
1023, 0.73629163666323, -0.076368872057539, 0
1024, 0.7394408298125, -0.067879784100915, 0
1025, 0.74922927826418, -0.070127607408815, 0
1026, 0.74153038927529, -0.059140021963417, 0
1027, 0.75155890467153, -0.060482898441045, 0
1028, 0.74028887415208, -0.024641011480671, 0
1029, 0.7497110895783, -0.022800214189422, 0
1030, 0.75155428159239, -0.031649244900012, 0
1031, 0.74190791168167, -0.032970816156074, 0
1032, 0.7426030592601, -0.050323166232714, 0
1033, 0.75280916949719, -0.050676414715172, 0
1034, 0.75275898262799, -0.040953278801225, 0
1035, 0.74279826387663, -0.041531885319547, 0
1036, 0.77825218536481, -0.031798170933637, 0
1037, 0.76001186724306, -0.019208063772196, 0
1038, 0.76224058532448, -0.028904628019298, 0
1039, 0.76389876938543, -0.039803755601373, 0
1040, 0.76493098496239, -0.050766695293708, 0
1041, 0.80475951485732, -0.032139990995414, 0
1042, 0.77915557334287, -0.051024762725959, 0
1043, 0.80084988241126, -0.0049486615020621, 0
1044, 0.74440414942037, -0.0051775479168382, 0
1045, 0.73557635598508, -0.0084824336881465, 0
1046, 0.73833132636533, -0.016457629092383, 0
1047, 0.74742092380686, -0.013996822931814, 0
1048, 0.77337383262657, -0.0081644809230191, 0
1049, 0.75521338073669, -0.011945838485409, 0
1050, 0.75610240650164, -0.0022801972631137, 0
1051, 0.74027421083907, 0.0025675771555827, 0
1052, 0.7494405261025, 0.011281584391709, 0
1053, 0.7323608404375, -0.00083187600673022, 0
1054, 0.73621685825145, 0.010440720681354, 0
1055, 0.72883051100603, 0.0064413041303704, 0
1056, 0.72508600210321, 0.013206265209748, 0
1057, 0.71295164072328, -0.11722690655724, 0
1058, 0.70450231755368, -0.12370728939532, 0
1059, 0.70000449949436, -0.11475182253314, 0
1060, 0.70713644745435, -0.11008424557349, 0
1061, 0.71786846318984, -0.11057117610536, 0
1062, 0.72048675979864, -0.099113091639548, 0
1063, 0.71382353550686, -0.1048672889817, 0
1064, 0.69250876632679, -0.11856367765573, 0
1065, 0.68497583501907, -0.12179318008583, 0
1066, 0.60793271511866, -0.14151252909093, 0
1067, 0.60869128110285, -0.15045405158959, 0
1068, 0.60073029174548, -0.14293534878828, 0
1069, 0.58766233429425, -0.14814033335331, 0
1070, 0.59388726426006, -0.14517796665605, 0
1071, 0.5989480450216, -0.15314632315553, 0
1072, 0.5893567442617, -0.15672177606215, 0
1073, 0.58092663775902, -0.15090562168886, 0
1074, 0.5743759153488, -0.1541467090659, 0
1075, 0.56743500043072, -0.15772091159301, 0
1076, 0.56359234347373, -0.16906162174343, 0
1077, 0.55605090488017, -0.17358044074972, 0
1078, 0.56012923471985, -0.16119305681875, 0
1079, 0.57189801965812, -0.16683447049084, 0
1080, 0.57906920298542, -0.16147741593979, 0
1081, 0.60092656431304, -0.16647381835527, 0
1082, 0.58327388582147, -0.15683306461896, 0
1083, 0.58811210247717, -0.16991158406695, 0
1084, 0.59564751098825, -0.18674159469202, 0
1085, 0.57668096065705, -0.17508576697181, 0
1086, 0.56919496392859, -0.18983972256646, 0
1087, 0.55273924983805, -0.16458414751948, 0
1088, 0.52973707116307, -0.17300884016537, 0
1089, 0.53749806886272, -0.17051064713558, 0
1090, 0.54520526575869, -0.16775106117639, 0
1091, 0.54614144738425, -0.18732300128073, 0
1092, 0.54856482535355, -0.17634116153055, 0
1093, 0.53990829106323, -0.17908080955095, 0
1094, 0.53282193961478, -0.18185884620308, 0
1095, 0.52187678549097, -0.17529576205325, 0
1096, 0.50553655938868, -0.17786602821931, 0
1097, 0.52439780553449, -0.18468513488063, 0
1098, 0.5137054649533, -0.17704750732225, 0
1099, 0.51513451850738, -0.1871913514115, 0
1100, 0.50476484959135, -0.18689559993529, 0
1101, 0.54475394842739, -0.24753195207154, 0
1102, 0.52478590585629, -0.2366301083076, 0
1103, 0.51666132696496, -0.20187082330148, 0
1104, 0.49876056531404, -0.20065738551852, 0
1105, 0.51993676745994, -0.22106921106193, 0
1106, 0.49940922447233, -0.22445748156043, 0
1107, 0.55955323514895, -0.23005858594062, 0
1108, 0.53531683109305, -0.19873603701331, 0
1109, 0.55989710275917, -0.24510180118103, 0
1110, 0.57458894165347, -0.22473054147959, 0
1111, 0.59900134419339, -0.21526058160563, 0
1112, 0.67805491035846, -0.14646112421327, 0
1113, 0.7257785248727, -0.12592095252291, 0
1114, 0.71042807013798, -0.13787777783977, 0
1115, 0.69484359194537, -0.14109443034945, 0
1116, 0.68726855579831, -0.13031257136849, 0
1117, 0.69576389646374, -0.12727168747775, 0
1118, 0.67987853352711, -0.13311900355508, 0
1119, 0.67126374028663, -0.13619425646674, 0
1120, 0.67732876935702, -0.12481366701709, 0
1121, 0.669584622471, -0.12751731483572, 0
1122, 0.66362553597372, -0.13870647257733, 0
1123, 0.66166120114568, -0.12991224027965, 0
1124, 0.64573403957844, -0.1335300478512, 0
1125, 0.65362944377949, -0.13195294504081, 0
1126, 0.63048077739477, -0.13643973141217, 0
1127, 0.63799858783178, -0.1350328400289, 0
1128, 0.61549574352584, -0.1396945442827, 0
1129, 0.6229623114427, -0.13804256847206, 0
1130, 0.61686998978226, -0.14830389216314, 0
1131, 0.62378462158989, -0.1466761332511, 0
1132, 0.63172221652484, -0.14497603284895, 0
1133, 0.63880948204165, -0.14365813994035, 0
1134, 0.62918690878373, -0.15722130688007, 0
1135, 0.65478359490326, -0.14088945591044, 0
1136, 0.64718789594422, -0.14226618900675, 0
1137, 0.64490586429318, -0.15431742007988, 0
1138, 0.66185939422175, -0.15237381944399, 0
1139, 0.66749002152184, -0.1752472326702, 0
1140, 0.61462651335917, -0.16228085058197, 0
1141, 0.64168567090642, -0.17703682777469, 0
1142, 0.61872751468778, -0.18440701295854, 0
1143, 0.72342490841942, -0.16079824383554, 0
1144, 0.69300723935906, -0.16706518917006, 0
1145, 0.69961209738381, -0.19982276554747, 0
1146, 0.67467204224957, -0.20315012914944, 0
1147, 0.64743067280087, -0.20668153206427, 0
1148, 0.62456699343703, -0.2104315384145, 0
1149, 0.89149716828038, -0.1911587786856, 0
1150, 0.89018335566599, -0.14208038102514, 0
1151, 0.84445042120232, -0.14723745467092, 0
1152, 0.80840063707212, -0.15248219360293, 0
1153, 0.7508415271102, -0.13619112813014, 0
1154, 0.73335306641222, -0.1408425652806, 0
1155, 0.77840147729257, -0.1573142652799, 0
1156, 0.75407935089697, -0.19435510971589, 0
1157, 0.75205017541861, -0.16234530173027, 0
1158, 0.8484908245447, -0.1879420683086, 0
1159, 0.8122907688351, -0.18929760934142, 0
1160, 0.7843615507271, -0.19186366352944, 0
1161, 0.72860818689211, -0.19659309799264, 0
1162, 0.38835596027467, 0.26950822914402, 0
1163, 0.39376948678724, 0.27114957872193, 0
1164, 0.39170583013095, 0.2624765710445, 0
1165, 0.70428888495775, 0.23351367555978, 0
1166, 0.6916584428936, 0.23522836184008, 0
1167, 0.70068038890393, 0.24084374905805, 0
1168, 0.62007854240077, 0.2449041840054, 0
1169, 0.61888078307651, 0.252783752004, 0
1170, 0.62256912719339, 0.25175256476582, 0
1171, 0.47594535665526, 0.27994107323246, 0
1172, 0.47973966900938, 0.27997329375299, 0
1173, 0.31870455543474, -0.10383652137578, 0
1174, 0.33172464905735, -0.11337228201608, 0
1175, 0.34814301062946, -0.11289189972471, 0
1176, 0.55982162417695, -0.17132103124658, 0
1177, 0.56639365370116, -0.17945067215494, 0
1178, 0.56262293440438, -0.18171008165809, 0
1179, 0.73093017047392, 0.23181755103945, 0
1180, 0.73397428607545, 0.21923775007353, 0
1181, 0.7163549465696, 0.22654926181184, 0
1182, 0.38059551102741, 0.24456260311622, 0
1183, 0.37556125955149, 0.24932795207681, 0
1184, 0.37873668760746, 0.25132750740433, 0
1185, 0.56675091012251, 0.28159380696425, 0
1186, 0.57013932128703, 0.27748034835552, 0
1187, 0.56203402284875, 0.27889459906246, 0
1188, 0.2608095080141, -0.10000180703985, 0
1189, 0.28870746326472, -0.066732190810891, 0
1190, 0.27827428594214, -0.053484694343666, 0
1191, 0.29284619011895, 0.20850984407837, 0
1192, 0.27437000699472, 0.15795057102322, 0
1193, 0.24417333263335, 0.16749303866845, 0
1194, 0.26124754246703, 0.16111471340789, 0
1195, 0.26516112441594, 0.1471629433455, 0
1196, 0.263145503436, 0.11705952448398, 0
1197, 0.25022725784944, 0.1097982036957, 0
1198, 0.42916772077807, 0.2781386186314, 0
1199, 0.42984289777325, 0.27170510133498, 0
1200, 0.42544695226611, 0.27642292502564, 0
1201, 0.81610651874891, 0.01882969644322, 0
1202, 0.81805372162644, 0.0050378069625479, 0
1203, 0.79890267953373, 0.0088432279786105, 0
1204, 0.67167018579875, -0.22348083930132, 0
1205, 0.6580495010744, -0.22524654075873, 0
1206, 0.66105135752522, -0.20491583060685, 0
1207, 0.68644331113353, 0.25544271040869, 0
1208, 0.67991720117212, 0.24559869385429, 0
1209, 0.67831056546583, 0.25848296892463, 0
1210, 0.7103472851036, -0.22021049012589, 0
1211, 0.71411014213796, -0.19820793177005, 0
1212, 0.72484532985775, -0.21859565634847, 0
1213, 0.45597139328501, -0.1696238193656, 0
1214, 0.45109801756891, -0.18406977602618, 0
1215, 0.44852886176397, -0.17838128836331, 0
1216, 0.7646052895134, -0.21605077457052, 0
1217, 0.76922045081204, -0.19310938662267, 0
1218, 0.77974638942847, -0.21480505147729, 0
1219, 0.68644925115191, -0.14377777728136, 0
1220, 0.69392541565221, -0.15407980975976, 0
1221, 0.68553107485876, -0.15676315669167, 0
1222, 0.34881419378594, 0.25990614844071, 0
1223, 0.35488697364493, 0.26271210208172, 0
1224, 0.35403661655646, 0.25157173779652, 0
1225, 0.46613111284157, -0.1720101756414, 0
1226, 0.43270016433313, -0.16490098490865, 0
1227, 0.24068830715481, 0.080520378257572, 0
1228, 0.22681493906159, 0.056173629222956, 0
1229, 0.21526077842709, 0.059262687360776, 0
1230, 0.6087431850187, -0.23192856285658, 0
1231, 0.61178416881521, -0.21284606001007, 0
1232, 0.62152600964052, -0.22951404126101, 0
1233, 0.32176781293282, 0.25263209503966, 0
1234, 0.32911756712713, 0.25625141097284, 0
1235, 0.32837640194944, 0.24263410739968, 0
1236, 0.5837994138297, 0.27948787881533, 0
1237, 0.58811995262562, 0.27546748385689, 0
1238, 0.57917674735672, 0.27615916129887, 0
1239, 0.74316080894392, 0.084792435611931, 0
1240, 0.75578703955655, 0.084928902643686, 0
1241, 0.74961190580565, 0.070452480659374, 0
1242, 0.27491814574388, 0.23466892586692, 0
1243, 0.2659525983956, 0.1135735107651, 0
1244, 0.28237383095589, 0.2140383725008, 0
1245, 0.52457670667473, 0.27999588819869, 0
1246, 0.52851139979318, 0.27904363771633, 0
1247, 0.52556355221416, 0.27423973869523, 0
1248, 0.20590961633046, 0.050120789331196, 0
1249, 0.21354126069638, 0.035359562583236, 0
1250, 0.22439402445905, 0.064159438244307, 0
1251, 0.62781142101811, 0.25484636969195, 0
1252, 0.62856426756338, 0.26063296659137, 0
1253, 0.63500432071237, 0.25584720351889, 0
1254, 0.81644003416537, -0.083280115765121, 0
1255, 0.79950200012554, -0.07657273397681, 0
1256, 0.81578430272969, -0.068417429350532, 0
1257, 0.65846810631421, 0.26198268756945, 0
1258, 0.6530590706371, 0.25421590121982, 0
1259, 0.65235785163102, 0.26476730333097, 0
1260, 0.21447101475297, -0.0077126233301486, 0
1261, 0.1946776475884, -0.019210071287004, 0
1262, 0.19392192195877, -0.0040044191394843, 0
1263, 0.25112541761584, 0.13839070550177, 0
1264, 0.25519549199056, 0.16759839567194, 0
1265, 0.25380997268414, 0.1974241595074, 0
1266, 0.31359233973987, -0.064757730502499, 0
1267, 0.34764959172024, -0.12098366102496, 0
1268, 0.32105343292859, -0.087625448152416, 0
1269, 0.63704638653846, -0.15576936347998, 0
1270, 0.6432957675998, -0.16567712392729, 0
1271, 0.63543628984508, -0.16712906732738, 0
1272, 0.79936982686588, 0.13431743114675, 0
1273, 0.80167385568291, 0.12002653343382, 0
1274, 0.78046015168889, 0.11944273281843, 0
1275, 0.58986238919045, 0.25702941434962, 0
1276, 0.59354481515539, 0.25617047677067, 0
1277, 0.59053660039869, 0.25166999240828, 0
1278, 0.35165496865857, 0.23750552567763, 0
1279, 0.3479987346497, 0.24234064664673, 0
1280, 0.35162007070635, 0.24393066318642, 0
1281, 0.81094447025862, 0.05868315829673, 0
1282, 0.79025397066295, 0.062452212450527, 0
1283, 0.80825502499848, 0.07392829564468, 0
1284, 0.29323126622584, 0.22292540569544, 0
1285, 0.26948326517552, 0.19778430095681, 0
1286, 0.25845004586425, 0.11874582683359, 0
1287, 0.32799474223106, -0.1115982238608, 0
1288, 0.38089015387261, -0.14859467046012, 0
1289, 0.40421201226668, -0.14975592499884, 0
1290, 0.70776201662013, 0.18494865454569, 0
1291, 0.70894284390617, 0.18038247482773, 0
1292, 0.70220954072211, 0.1815998851311, 0
1293, 0.84075459213356, -0.21215753434131, 0
1294, 0.82265456427875, -0.21283530485772, 0
1295, 0.8303907966899, -0.18861983882501, 0
1296, 0.86033915046409, -0.10079503134213, 0
1297, 0.83528073214046, -0.093783058569962, 0
1298, 0.85778075509315, -0.082136783911011, 0
1299, 0.30548685412136, -0.094544828622654, 0
1300, 0.30514023839574, -0.060854321888771, 0
1301, 0.2973360066074, -0.0086119960574995, 0
1302, 0.72525549203728, 0.19947465739851, 0
1303, 0.71917365302244, 0.20635235334541, 0
1304, 0.72548090118604, 0.20709176489904, 0
1305, 0.5473531363689, -0.18183208140564, 0
1306, 0.54302486922374, -0.18320190541584, 0
1307, 0.54423655820839, -0.17771098554075, 0
1308, 0.7310523803375, -0.10254081715657, 0
1309, 0.7404371585204, -0.10261744054542, 0
1310, 0.7366265026272, -0.10806725099981, 0
1311, 0.52860987257464, -0.18327199054186, 0
1312, 0.53406938535392, -0.1902974416082, 0
1313, 0.52985731831377, -0.19171058594697, 0
1314, 0.59730877800277, -0.14405665772216, 0
1315, 0.59983916838354, -0.1480408359719, 0
1316, 0.59641765464083, -0.14916214490579, 0
1317, 0.5945193333951, -0.16819270121111, 0
1318, 0.59828703765065, -0.17660770652364, 0
1319, 0.59187980673271, -0.17832658937948, 0
1320, 0.33016033781971, -0.23094675867294, 0
1321, 0.33091677518736, -0.11088280045346, 0
1322, 0.33481564996988, -0.10258572245926, 0
1323, 0.31204456943272, -0.0935764127939, 0
1324, 0.28805828668466, 0.015076379711017, 0
1325, 0.25950562479002, -0.013939683499344, 0
1326, 0.71356113636207, 0.19829798211648, 0
1327, 0.71672178183892, 0.19123324504359, 0
1328, 0.71133467432731, 0.1907959813152, 0
1329, 0.20564211196215, -0.061589248639782, 0
1330, 0.33051132192614, -0.087198239254482, 0
1331, 0.29420901404646, -0.08169223847547, 0
1332, 0.40048804132942, 0.26088343920061, 0
1333, 0.4006475893283, 0.25573952553979, 0
1334, 0.3972789046424, 0.25897400696159, 0
1335, 0.65481193837166, 0.24065437677306, 0
1336, 0.65503606286288, 0.24687683734886, 0
1337, 0.65894520082909, 0.2452088248825, 0
1338, 0.67896672194279, -0.13979006388417, 0
1339, 0.67465932532254, -0.14132769034001, 0
1340, 0.67557113690687, -0.13465663001091, 0
1341, 0.27355530156394, 0.24872937195477, 0
1342, 0.27549843887254, 0.17267750191485, 0
1343, 0.69105607387184, -0.13570350085897, 0
1344, 0.69151622613103, -0.12879212942312, 0
1345, 0.69530374420456, -0.1341830589136, 0
1346, 0.71923139005457, 0.040052794424109, 0
1347, 0.72329145552367, 0.044514947090802, 0
1348, 0.72566362108425, 0.040526483224474, 0
1349, 0.71204206419864, 0.21054595075447, 0
1350, 0.70260951340583, 0.21211434623665, 0
1351, 0.70996651137845, 0.21553785632814, 0
1352, 0.78710908226913, -0.065666371624246, 0
1353, 0.77726373459564, -0.060323729206115, 0
1354, 0.78900092101636, -0.05636740514409, 0
1355, 0.28271791027901, -0.016807920721731, 0
1356, 0.32164138572581, -0.055022627358019, 0
1357, 0.24400058565955, 0.062013398611533, 0
1358, 0.29446966427477, 0.045371561876557, 0
1359, 0.26678726543489, -0.067396282631288, 0
1360, 0.29005288387416, -0.0052579620140317, 0
1361, 0.22007102766303, -0.07598004073677, 0
1362, 0.70987186831818, 0.13272776416687, 0
1363, 0.70936034456243, 0.12854023057306, 0
1364, 0.70417401953691, 0.13128036963688, 0
1365, 0.65920456543849, -0.13979796424388, 0
1366, 0.66274246509773, -0.14554014601066, 0
1367, 0.6583214945625, -0.14663163767721, 0
1368, 0.71078221626663, 0.14931234490847, 0
1369, 0.71066385595273, 0.14493463747764, 0
1370, 0.70526321926106, 0.14748025291794, 0
1371, 0.71034079239728, 0.16667943446911, 0
1372, 0.71061385998658, 0.16211351120604, 0
1373, 0.70494999709829, 0.16430675676145, 0
1374, 0.38603090017277, -0.1452643756215, 0
1375, 0.37678249088999, -0.13963932857379, 0
1376, 0.43232047136456, -0.2205987207454, 0
1377, 0.44021851348261, -0.18592959976151, 0
1378, 0.74129540155362, 0.1999523104784, 0
1379, 0.74164983744902, 0.19143034232875, 0
1380, 0.73191717609625, 0.19169210080248, 0
1381, 0.20756297492232, 0.25415749068843, 0
1382, 0.25165478405476, 0.26221136811608, 0
1383, 0.30902787584846, -0.10048338940058, 0
1384, 0.31759264076688, -0.042236176145681, 0
1385, 0.62775341905737, -0.14582608305002, 0
1386, 0.63045456265428, -0.15109866986451, 0
1387, 0.62648576518681, -0.15194872006558, 0
1388, 0.61278063544255, -0.14937897187636, 0
1389, 0.61574825157072, -0.15529237137256, 0
1390, 0.61165889723101, -0.15636745108578, 0
1391, 0.28366736309966, 0.053285562693784, 0
1392, 0.2582743124141, 0.070360032257898, 0
1393, 0.70683616580917, 0.11254383639997, 0
1394, 0.70182294856302, 0.11552682112642, 0
1395, 0.70758502747149, 0.11674852218419, 0
1396, 0.77024638534465, -0.030351399476468, 0
1397, 0.77107547737512, -0.035800963267505, 0
1398, 0.76306967735496, -0.034354191810335, 0
1399, 0.74485736847083, 0.0069245807736932, 0
1400, 0.73824553454526, 0.0065041489184733, 0
1401, 0.74282869217697, 0.010861152536521, 0
1402, 0.25440351916182, 0.05605335384781, 0
1403, 0.28642598234189, -0.073365578269426, 0
1404, 0.30639444237064, -0.049444006164312, 0
1405, 0.31301134773126, -0.073466134236998, 0
1406, 0.64299868899294, -0.14296216447355, 0
1407, 0.6460468801187, -0.14829180454332, 0
1408, 0.64185767316742, -0.14898778001012, 0
1409, 0.71630787159289, 0.084240667588769, 0
1410, 0.71779613617016, 0.078783244915609, 0
1411, 0.71166643197324, 0.080341306585824, 0
1412, 0.26565961550017, 0.13199203331266, 0
1413, 0.76785901609021, -0.07122161387335, 0
1414, 0.76150377810887, -0.06731622369334, 0
1415, 0.76901665786729, -0.065717305506488, 0
1416, 0.46275289931119, -0.19230085575643, 0
1417, 0.42342094514031, -0.16121511695608, 0
1418, 0.41662798118385, -0.21913204458208, 0
1419, 0.26994047151988, 0.07345825490085, 0
1420, 0.24938989338512, 0.074742501914144, 0
1421, 0.24824569321176, 0.083261061650584, 0
1422, 0.24519666223869, 0.11050215970109, 0
1423, 0.26090839174489, 0.11768111091985, 0
1424, 0.19390191094417, 0.093026137404885, 0
1425, 0.29714188221311, 0.0075164687427066, 0
1426, 0.29771250442747, 0.014300270059417, 0
1427, 0.25992620283925, -0.0049511941609074, 0
1428, 0.56103004670414, 0.26415843653074, 0
1429, 0.5644236609719, 0.26296449215539, 0
1430, 0.56165169805764, 0.25965217815833, 0
1431, 0.74169172239997, 0.16259735604149, 0
1432, 0.74158217006176, 0.15327750348701, 0
1433, 0.73206215587892, 0.15681936278903, 0
1434, 0.7628420372044, -0.092237896261559, 0
1435, 0.75505472340716, -0.087907126968698, 0
1436, 0.7649970426658, -0.08645975609551, 0
1437, 0.72678813280299, 0.10404664832607, 0
1438, 0.73891612043551, 0.10575498459139, 0
1439, 0.73720795506231, 0.097560521330925, 0
1440, 0.25570292140853, 0.018683948836875, 0
1441, 0.29141819088178, 0.0073396590932697, 0
1442, 0.28205527925869, -0.0058417222934884, 0
1443, 0.35732655883954, -0.15080842756953, 0
1444, 0.30841472997044, 0.2190341154891, 0
1445, 0.31215348422116, 0.22498227367278, 0
1446, 0.31508877294588, 0.21891577395561, 0
1447, 0.10878356783903, -0.27247263728845, 0
1448, 0.13676664861009, -0.24502593595811, 0
1449, 0.16438051388591, -0.27255329866966, 0
1450, 0.13658204086247, -0.27251296797905, 0
1451, 0.94364097319447, -0.11287843993161, 0
1452, 0.97171643774037, -0.085527508535664, 0
1453, 0.97192453545409, -0.13986732133454, 0
1454, 0.97182048659723, -0.1126974149351, 0
1455, 0.028593241278537, 0.031642392216457, 0
1456, 0.057489858995544, 0.0037323070122896, 0
1457, 0.028896617717007, -0.024678648147209, 0
1458, 0.028744929497772, 0.0034818720346236, 0
1459, 0.8919509257445, -0.27188229929696, 0
1460, 0.83476187445615, -0.26818650018701, 0
1461, 0.86222352389377, -0.24006879948397, 0
1462, 0.86335640010033, -0.27003439974199, 0
1463, 0.057762721260511, -0.052491106969193, 0
1464, 0.028866103543504, -0.081044324730992, 0
1465, 0.028881360630256, -0.052861486439101, 0
1466, 0.053973333194971, 0.1668580653649, 0
1467, 0.027304337819692, 0.14096911944989, 0
1468, 0.026668995375279, 0.19415414246034, 0
1469, 0.026986666597485, 0.16756163095512, 0
1470, 0.057309117969108, -0.10863579311795, 0
1471, 0.028443014425604, -0.13722651146018, 0
1472, 0.028654558984554, -0.10913541809558, 0
1473, 0.94442016014388, -0.16631079782393, 0
1474, 0.97249562468979, -0.19384676950464, 0
1475, 0.97221008007194, -0.16685704541959, 0
1476, 0.6297378105529, -0.13237514823909, 0
1477, 0.62672154441874, -0.13724114994212, 0
1478, 0.62218811678305, -0.13396158956684, 0
1479, 0.62596296366797, -0.13316836890297, 0
1480, 0.47737361174084, 0.29265335703556, 0
1481, 0.48944573635108, 0.29334663970925, 0
1482, 0.48354318053166, 0.28599999674482, 0
1483, 0.48340967404596, 0.29299999837241, 0
1484, 0.39242228428656, 0.24697663237583, 0
1485, 0.3938673154181, 0.25243179315216, 0
1486, 0.39929538466658, 0.25041801915113, 0
1487, 0.39585883447657, 0.24869732576348, 0
1488, 0.69748548060541, 0.051345996551118, 0
1489, 0.70321241547265, 0.049985973483231, 0
1490, 0.70166732309839, 0.044559343557401, 0
1491, 0.6995764018519, 0.047952670054259, 0
1492, 0.27720307643288, -0.070895188818384, 0
1493, 0.30194824172832, 0.01543079685782, 0
1494, 0.30422944090789, -0.01635368589044, 0
1495, 0.19203600148104, -0.24568932832962, 0
1496, 0.21986909652211, -0.27313602965996, 0
1497, 0.19212480520401, -0.27284466416481, 0
1498, 0.41300965790683, -0.18861710570597, 0
1499, 0.35166116532208, -0.17904348989339, 0
1500, 0.97106291709981, 0.13327352610989, 0
1501, 0.94254293953402, 0.16171017195691, 0
1502, 0.97148002243421, 0.19073767290827, 0
1503, 0.97127146976701, 0.16200559950908, 0
1504, 0.55707061153127, 0.25757273364143, 0
1505, 0.56411424680917, 0.25506212816891, 0
1506, 0.56059242917022, 0.25631743090517, 0
1507, 0.055276423485233, 0.11372754120472, 0
1508, 0.027972085665541, 0.087054126741267, 0
1509, 0.027638211742616, 0.11401162309558, 0
1510, 0.60831218153803, 0.24365221441955, 0
1511, 0.61293231217702, 0.24702176676332, 0
1512, 0.6155540896801, 0.24156333080662, 0
1513, 0.61193313560906, 0.24260777261309, 0
1514, 0.70740041255899, 0.043276792774574, 0
1515, 0.70595427081885, 0.037818710388978, 0
1516, 0.70381079695862, 0.041189026973189, 0
1517, 0.27665600901711, 0.056529236215387, 0
1518, 0.28032500581446, 0.054602731538783, 0
1519, 0.28847661397976, 0.057540723015178, 0
1520, 0.28511362223783, 0.060767530695233, 0
1521, 0.97207329576247, -0.031176549842194, 0
1522, 0.94420568697566, -0.0046706289540627, 0
1523, 0.97213239121318, 0.022414841264008, 0
1524, 0.97210284348783, -0.0043808542890933, 0
1525, 0.56378211757528, -0.15945698420588, 0
1526, 0.55839590283623, -0.15722492451454, 0
1527, 0.5657010432145, -0.15376847975063, 0
1528, 0.56204847302536, -0.15549670213259, 0
1529, 0.28285436417805, 0.06317507397296, 0
1530, 0.28044623417849, 0.066021277475969, 0
1531, 0.292283350961, 0.040572176104964, 0
1532, 0.67164672071227, -0.2719057747266, 0
1533, 0.69487540108566, -0.24220488207876, 0
1534, 0.72427641314042, -0.27029910735216, 0
1535, 0.69796156692634, -0.27110244103938, 0
1536, 0.45925555454786, -0.1702350126588, 0
1537, 0.33124425124755, -0.21081957786333, 0
1538, 0.65764532246259, -0.13093259266023, 0
1539, 0.65274636419463, -0.12774247264154, 0
1540, 0.6607778585819, -0.1257371209515, 0
1541, 0.65676211138826, -0.12673979679652, 0
1542, 0.31980164221262, -0.048980797397612, 0
1543, 0.2852904926312, -0.080704652665135, 0
1544, 0.29687857950632, -0.00020282867798802, 0
1545, 0.31262082961644, -0.055001729299859, 0
1546, 0.5409167889625, 0.26944503642163, 0
1547, 0.54309631674179, 0.26367167384232, 0
1548, 0.5357233135685, 0.26694250059561, 0
1549, 0.53940981515514, 0.26530708721897, 0
1550, 0.5932210687859, 0.24689906110603, 0
1551, 0.59793967391517, 0.25030665677035, 0
1552, 0.60067554705645, 0.24544528098996, 0
1553, 0.59694830792118, 0.246172171048, 0
1554, 0.69107666166312, 0.10264068162966, 0
1555, 0.6867065209531, 0.099712366113495, 0
1556, 0.68771513325167, 0.10659492555781, 0
1557, 0.68721082710238, 0.10315364583565, 0
1558, 0.40194772965312, -0.15353839837045, 0
1559, 0.45928587458758, -0.19670038021417, 0
1560, 0.37921763179658, -0.25308661509317, 0
1561, 0.63423968261328, -0.13573628572054, 0
1562, 0.63724998937388, -0.13091690394432, 0
1563, 0.63349389996339, -0.13164602609171, 0
1564, 0.54826834629854, 0.26573877404077, 0
1565, 0.55026338209016, 0.26047727277407, 0
1566, 0.54667984941598, 0.2620744733082, 0
1567, 0.71416663281265, 0.024513448902465, 0
1568, 0.71950964207701, 0.023029016796293, 0
1569, 0.7179326177934, 0.018027442127495, 0
1570, 0.71604962530302, 0.02127044551498, 0
1571, 0.056253292507982, -0.16412973447102, 0
1572, 0.027810278082378, -0.19270777892887, 0
1573, 0.028126646253991, -0.16496714519452, 0
1574, 0.39828044938793, -0.16795549297703, 0
1575, 0.34276885466907, -0.1548857847692, 0
1576, 0.61472747941947, -0.13562166724193, 0
1577, 0.61171422932225, -0.14060353668681, 0
1578, 0.60728384906765, -0.13744832047274, 0
1579, 0.61100566424356, -0.13653499385733, 0
1580, 0.69161878420218, 0.12902362933389, 0
1581, 0.69501709326854, 0.12461213247401, 0
1582, 0.69041254738609, 0.12132467718081, 0
1583, 0.69101566579414, 0.12517415325735, 0
1584, 0.27393917899604, 0.089819629455518, 0
1585, 0.28972377771038, 0.034886319688245, 0
1586, 0.34839291605469, -0.14809937145054, 0
1587, 0.40985235138913, -0.16011937168095, 0
1588, 0.36983641908869, -0.14222040096354, 0
1589, 0.46789397202283, -0.19718324615611, 0
1590, 0.4122438364896, -0.20139550221736, 0
1591, 0.60556737376842, 0.24895521049722, 0
1592, 0.60449386429724, 0.24454874770476, 0
1593, 0.39689844183865, -0.14819287655334, 0
1594, 0.38044890509899, -0.17727679755517, 0
1595, 0.80407479392612, -0.23705971989958, 0
1596, 0.77820258305763, -0.26887321971257, 0
1597, 0.80648222875689, -0.26852985994979, 0
1598, 0.94378973350284, -0.058849039855813, 0
1599, 0.97189486675142, -0.058352029188929, 0
1600, 0.35336213442312, 0.22388495153396, 0
1601, 0.35485988026743, 0.22925485801247, 0
1602, 0.35992389240087, 0.22733434184361, 0
1603, 0.35664301341199, 0.22560964668879, 0
1604, 0.36286391610191, -0.12732983883389, 0
1605, 0.35059065462062, -0.11581706010856, 0
1606, 0.74810685047661, -0.23917232706473, 0
1607, 0.75123949809902, -0.26958616353236, 0
1608, 0.36144187589892, 0.23278919656027, 0
1609, 0.36646411648405, 0.23096114615296, 0
1610, 0.36319400444246, 0.22914774399829, 0
1611, 0.3679649205461, 0.23677308124172, 0
1612, 0.37310483214228, 0.23503413999272, 0
1613, 0.36978447431317, 0.23299764307284, 0
1614, 0.71016154173522, 0.031102705501391, 0
1615, 0.71567904132845, 0.029690679064682, 0
1616, 0.71216408727393, 0.02780807720193, 0
1617, 0.28694344582939, 0.048482847895115, 0
1618, 0.2907107495804, 0.055610367655288, 0
1619, 0.26461538305553, 0.056147796796979, 0
1620, 0.4105820251687, -0.15407043205608, 0
1621, 0.40447055702052, -0.16378506245999, 0
1622, 0.57765127655391, -0.15252616537738, 0
1623, 0.57271699335772, -0.15032629916806, 0
1624, 0.57944800064518, -0.14716119081618, 0
1625, 0.57608249700145, -0.14874374499212, 0
1626, 0.4715307487528, 0.28579425519843, 0
1627, 0.46516635168363, 0.29314089816287, 0
1628, 0.47126998171224, 0.29289712759922, 0
1629, 0.72695825655464, 0.0098237846700848, 0
1630, 0.72524057408959, 0.0047383361375077, 0
1631, 0.72163698724176, 0.01148519829845, 0
1632, 0.72343878066567, 0.0081117672179675, 0
1633, 0.58429448602663, -0.14952297752109, 0
1634, 0.58629173936691, -0.14433727209129, 0
1635, 0.58286987000605, -0.14574923145373, 0
1636, 0.38202818406948, -0.13762153915248, 0
1637, 0.40727745082661, -0.15191060624939, 0
1638, 0.89496510375935, 0.27284537862799, 0
1639, 0.86810347617327, 0.24656621856331, 0
1640, 0.8433655680823, 0.27372083993532, 0
1641, 0.86916533592082, 0.27328310928165, 0
1642, 0.32652192969734, -0.10558434874705, 0
1643, 0.32656053203292, -0.11666919025309, 0
1644, 0.3088918712405, -0.18748637536997, 0
1645, 0.32572647190623, -0.1103450399147, 0
1646, 0.72321841408264, 0.016478176483284, 0
1647, 0.71978480251762, 0.014756320213016, 0
1648, 0.33284670389019, 0.21292065620304, 0
1649, 0.33418416651059, 0.21849504444334, 0
1650, 0.33971270825335, 0.21675417585145, 0
1651, 0.33627970607177, 0.21483741602724, 0
1652, 0.32728909993496, 0.21459161041302, 0
1653, 0.32591171727193, 0.20894482232043, 0
1654, 0.32937921058106, 0.21093273926174, 0
1655, 0.27471819732929, -0.27459961427316, 0
1656, 0.24702017851917, -0.24727032306523, 0
1657, 0.24713775638803, -0.27363516153262, 0
1658, 0.45815771537457, -0.18043798101227, 0
1659, 0.4205892234556, -0.16635273616281, 0
1660, 0.43884671133887, -0.20595991282773, 0
1661, 0.41013344125644, -0.16762730884445, 0
1662, 0.69605905277627, 0.13239860827577, 0
1663, 0.69255222220261, 0.13676772671686, 0
1664, 0.69208550320239, 0.13289567802538, 0
1665, 0.60433150343207, -0.14222393893961, 0
1666, 0.60003537885907, -0.13920415512095, 0
1667, 0.60365961396336, -0.13832623779685, 0
1668, 0.59295117644416, -0.14153047281111, 0
1669, 0.59077479927715, -0.14665915000468, 0
1670, 0.58962145790554, -0.1429338724512, 0
1671, 0.47743012970705, -0.17859909646161, 0
1672, 0.45571290568717, -0.1766830764696, 0
1673, 0.48182713972178, -0.17492709447955, 0
1674, 0.4777616157434, -0.17445633488396, 0
1675, 0.69371767516486, 0.11695115059436, 0
1676, 0.68905570726992, 0.11375276576117, 0
1677, 0.68973412732801, 0.11753872147099, 0
1678, 0.67345669591401, -0.1261654909264, 0
1679, 0.66858386692134, -0.1234594261661, 0
1680, 0.6761683199662, -0.12089714390926, 0
1681, 0.67237609344377, -0.12217828503768, 0
1682, 0.45242082563072, 0.29228171537264, 0
1683, 0.44611682740812, 0.28551898070054, 0
1684, 0.43919393661297, 0.29323726532789, 0
1685, 0.44580738112184, 0.29275949035027, 0
1686, 0.58336593618618, 0.25389330737509, 0
1687, 0.58581481485127, 0.24874662447905, 0
1688, 0.5786813763356, 0.25115047116505, 0
1689, 0.58224809559343, 0.24994854782205, 0
1690, 0.64488282839209, -0.12939214562825, 0
1691, 0.64186631370511, -0.13428144394005, 0
1692, 0.64106640888299, -0.13015452478628, 0
1693, 0.3186828330018, -0.056085841289117, 0
1694, 0.26777673763607, -0.11460910624561, 0
1695, 0.28601900355923, -0.038133959013885, 0
1696, 0.30447188020591, -0.038334711408007, 0
1697, 0.43741897916053, 0.27485351217641, 0
1698, 0.44255455220837, 0.27249307358194, 0
1699, 0.43497106308946, 0.26965778516704, 0
1700, 0.43876280764892, 0.27107542937449, 0
1701, 0.34304244414473, -0.11436696213587, 0
1702, 0.30691911286181, -0.20603970338242, 0
1703, 0.32308399507706, -0.11262762872701, 0
1704, 0.69081033756832, -0.11485457354103, 0
1705, 0.68874230067293, -0.12017842887078, 0
1706, 0.68358088134267, -0.11801904515484, 0
1707, 0.68719560945549, -0.11643680934793, 0
1708, 0.30221874637463, 0.011884529352894, 0
1709, 0.29742399464044, 0.011021282677314, 0
1710, 0.2765442490558, -0.098664964516999, 0
1711, 0.21037037073743, -0.092072924304476, 0
1712, 0.42052323192695, 0.26303698941918, 0
1713, 0.42248072312124, 0.26841601097962, 0
1714, 0.42764607172635, 0.26634922880127, 0
1715, 0.42408465182665, 0.26469310911022, 0
1716, 0.52089621372456, -0.17125880158368, 0
1717, 0.51779112522213, -0.17617163468775, 0
1718, 0.51299390996825, -0.17298296721157, 0
1719, 0.51694506184641, -0.17212088439762, 0
1720, 0.55643424227895, -0.16288860216911, 0
1721, 0.55111484548288, -0.16056482698555, 0
1722, 0.55475537415956, -0.15889487575005, 0
1723, 0.53332398551196, 0.27231356655668, 0
1724, 0.52835082516818, 0.26921172853243, 0
1725, 0.53203706936834, 0.26807711456402, 0
1726, 0.57596063513652, 0.25625990264505, 0
1727, 0.57118058599903, 0.25326378919722, 0
1728, 0.57493098116732, 0.25220713018113, 0
1729, 0.29431635060232, 0.19017511119122, 0
1730, 0.29991925522221, 0.19001715737469, 0
1731, 0.2942202924608, 0.18445934105075, 0
1732, 0.29706977384151, 0.18723824921272, 0
1733, 0.27691028033114, 0.081210086187895, 0
1734, 0.28803018352128, 0.061027011654467, 0
1735, 0.27249056061207, 0.068629245017014, 0
1736, 0.3795387040681, 0.23880816604124, 0
1737, 0.38591293052838, 0.24274079488257, 0
1738, 0.38272581729824, 0.2407744804619, 0
1739, 0.27999970880431, -0.20367486272959, 0
1740, 0.31781221345249, -0.092761931620056, 0
1741, 0.3016913920585, -0.14763118173298, 0
1742, 0.31757158516569, -0.062491775577354, 0
1743, 0.51067980041163, 0.27766268531394, 0
1744, 0.51327255373859, 0.27363119211526, 0
1745, 0.50602248915176, 0.274800918618, 0
1746, 0.50964752144517, 0.27421605536663, 0
1747, 0.056565326944078, 0.059332175663446, 0
1748, 0.028282663472039, 0.059348259478862, 0
1749, 0.081811063474495, -0.24543979807037, 0
1750, 0.053814289785819, -0.27296716078192, 0
1751, 0.081298928812425, -0.27271989903518, 0
1752, 0.50200200200006, 0.29263060935094, 0
1753, 0.49582476173017, 0.28597724906019, 0
1754, 0.49572386917557, 0.2929886245301, 0
1755, 0.29450289703876, -0.075130280783292, 0
1756, 0.30748853425503, -0.030513617252096, 0
1757, 0.30960154168264, -0.052401258104025, 0
1758, 0.32027987582918, 0.21045054927727, 0
1759, 0.31911984697514, 0.20475274097466, 0
1760, 0.32251578212353, 0.20684878164755, 0
1761, 0.10456224303134, 0.27273071786725, 0
1762, 0.078579650931055, 0.24591570819791, 0
1763, 0.051586869033848, 0.27318499033066, 0
1764, 0.078074556032592, 0.27295785409895, 0
1765, 0.39225433451248, -0.19260634000466, 0
1766, 0.42460989790175, -0.18330254483953, 0
1767, 0.32795019839595, -0.27586281436641, 0
1768, 0.44527502575625, -0.16798364149567, 0
1769, 0.30152092460979, -0.27518150898207, 0
1770, 0.27419601268065, 0.036856327216775, 0
1771, 0.27962167907437, 0.037669211672365, 0
1772, 0.27949499896308, 0.049423523115853, 0
1773, 0.34109627252064, 0.22227628391349, 0
1774, 0.34662970787613, 0.22044083611311, 0
1775, 0.34317120806474, 0.21859750598228, 0
1776, 0.49382024321034, -0.17868989356507, 0
1777, 0.48983782462121, -0.17500557586737, 0
1778, 0.49746855434911, -0.17461959479979, 0
1779, 0.49365318948516, -0.17481258533358, 0
1780, 0.73931010025872, -0.020549320286495, 0
1781, 0.73620828756378, -0.025440690537136, 0
1782, 0.73427491221772, -0.017587524329045, 0
1783, 0.73524159989078, -0.021514107433043, 0
1784, 0.3648118215583, -0.16617118445984, 0
1785, 0.36697662074061, -0.17904361203582, 0
1786, 0.63571185023857, 0.23949223132799, 0
1787, 0.63832478478284, 0.2337755314855, 0
1788, 0.63044964949843, 0.23701896418219, 0
1789, 0.63438721714063, 0.23539724783385, 0
1790, 0.56854444232992, 0.25786017715506, 0
1791, 0.5676474164041, 0.25416295868306, 0
1792, 0.69677393221882, 0.14025413135836, 0
1793, 0.69315043327419, 0.14448866189278, 0
1794, 0.69285132773839, 0.14062819430482, 0
1795, 0.61922902748427, -0.13886855637738, 0
1796, 0.61845779810126, -0.13479162840438, 0
1797, 0.52802487392826, 0.29239989360989, 0
1798, 0.54272017144922, 0.29216873127659, 0
1799, 0.53512236288621, 0.28456862488649, 0
1800, 0.53537252268874, 0.29228431244324, 0
1801, 0.30105675502466, 0.01885920582172, 0
1802, 0.30384899590585, 0.023583903181416, 0
1803, 0.27290090852234, -0.019424265099007, 0
1804, 0.30505876658497, 0.020085904347042, 0
1805, 0.27182293701189, 0.082440090627402, 0
1806, 0.27000523956737, 0.052659847171018, 0
1807, 0.69319130786341, 0.15988072063548, 0
1808, 0.69715963222502, 0.15609838629577, 0
1809, 0.69337372365883, 0.15218035753671, 0
1810, 0.69328251576112, 0.1560305390861, 0
1811, 0.91868486971813, -0.24496736832417, 0
1812, 0.94657787382745, -0.2730850690272, 0
1813, 0.91926439978598, -0.27248368416208, 0
1814, 0.61453750699314, 0.28763357446652, 0
1815, 0.63656968376171, 0.28876920288727, 0
1816, 0.62520547355903, 0.2764027773538, 0
1817, 0.62555359537743, 0.2882013886769, 0
1818, 0.29837792282962, 0.025493902416064, 0
1819, 0.3006427994901, 0.030643126173642, 0
1820, 0.30224589769798, 0.027113514677529, 0
1821, 0.50347573039478, -0.27775062451317, 0
1822, 0.52425227730766, -0.25924342978948, 0
1823, 0.5392640983588, -0.28149280527631, 0
1824, 0.52136991437679, -0.27962171489474, 0
1825, 0.57090545788976, -0.15593381032945, 0
1826, 0.56920901828611, -0.15204738945934, 0
1827, 0.027207276328244, -0.2468956641835, 0
1828, 0.026907144892909, -0.27344783209175, 0
1829, 0.3220200823904, -0.075256966729476, 0
1830, 0.31769753913967, -0.074431062839396, 0
1831, 0.59649327765161, -0.14036731396603, 0
1832, 0.31871762589726, -0.10997673864895, 0
1833, 0.32909510211621, -0.10874992805329, 0
1834, 0.34516642577692, -0.11757628946786, 0
1835, 0.55505546207663, 0.26238662133622, 0
1836, 0.55366699681072, 0.25902500320775, 0
1837, 0.74109839291687, -0.028805913818373, 0
1838, 0.73768445429568, -0.033461038445919, 0
1839, 0.73694637092984, -0.029450864491386, 0
1840, 0.6228773034554, 0.23948345731957, 0
1841, 0.61921569656775, 0.24052339406309, 0
1842, 0.69714306686761, 0.14815694574026, 0
1843, 0.69326207846649, 0.14833450971474, 0
1844, 0.5208594865146, 0.27136464796549, 0
1845, 0.52460515584139, 0.27028818824896, 0
1846, 0.54370991740481, -0.16371618875336, 0
1847, 0.5413516673107, -0.16913085415599, 0
1848, 0.53611513885611, -0.16655642062834, 0
1849, 0.53991252813046, -0.16513630469085, 0
1850, 0.26952915825675, 0.11008833971937, 0
1851, 0.25190093298474, 0.15963570701211, 0
1852, 0.26247075822851, 0.12127838226483, 0
1853, 0.26912430106236, 0.11770936737549, 0
1854, 0.32055824674725, -0.11583809061237, 0
1855, 0.33062156353293, -0.10402295353258, 0
1856, 0.34355727796142, -0.10715850727653, 0
1857, 0.52580692832702, -0.17415230110931, 0
1858, 0.5285590775031, -0.16905604821413, 0
1859, 0.52472764561383, -0.1701574248989, 0
1860, 0.53361757001289, -0.17175974365047, 0
1861, 0.53233710817961, -0.16780623442123, 0
1862, 0.37428009194787, -0.13409448395779, 0
1863, 0.29580118035316, -0.069042359638981, 0
1864, 0.3165918082602, -0.12606639916672, 0
1865, 0.31954645534378, -0.053726538397084, 0
1866, 0.73396859821128, -0.0046571548474503, 0
1867, 0.7316720153077, -0.0098694068241148, 0
1868, 0.72860879505716, -0.0023838535287623, 0
1869, 0.73014040518247, -0.0061266301763914, 0
1870, 0.30308884204022, -0.088404702531859, 0
1871, 0.30786598240972, -0.072298704126884, 0
1872, 0.94369827339087, 0.049731683347667, 0
1873, 0.97156588217768, 0.076738186632593, 0
1874, 0.97184913669543, 0.0495765139483, 0
1875, 0.38703355863915, 0.24879782572365, 0
1876, 0.38916760740747, 0.2448587136292, 0
1877, 0.19400563884972, 0.11829753736735, 0
1878, 0.25004218544711, 0.14400286893002, 0
1879, 0.21387685980283, 0.21154776427597, 0
1880, 0.62078244785147, -0.27429827205377, 0
1881, 0.64357667759598, -0.24620404678037, 0
1882, 0.64621458428187, -0.27310202339018, 0
1883, 0.45910809682948, 0.28542261353552, 0
1884, 0.45879358865718, 0.29271130676776, 0
1885, 0.54897225779837, -0.16616760434794, 0
1886, 0.54741238144385, -0.16214050786945, 0
1887, 0.71160176582422, 0.036498741489239, 0
1888, 0.70805790627704, 0.034460707945189, 0
1889, 0.3480671781825, 0.22583772992971, 0
1890, 0.34999592114962, 0.22216289382354, 0
1891, 0.30686991490484, 0.20107327803108, 0
1892, 0.31251737249737, 0.20018801838721, 0
1893, 0.30603033140702, 0.19523331634432, 0
1894, 0.3092738519522, 0.19771066736577, 0
1895, 0.4313085674079, 0.26800350698415, 0
1896, 0.28377283727459, -0.12615871103254, 0
1897, 0.26228090605977, -0.07626157214311, 0
1898, 0.28274654919464, -0.10917839989705, 0
1899, 0.31426269048738, -0.08297485914052, 0
1900, 0.32080547013554, -0.052094692964829, 0
1901, 0.40584147271547, 0.25436151309701, 0
1902, 0.40256842869102, 0.25238976612407, 0
1903, 0.13080868282371, 0.24646874777594, 0
1904, 0.15689150764021, 0.27440577533155, 0
1905, 0.13080573177359, 0.27323437388797, 0
1906, 0.33728181048269, -0.12984989014306, 0
1907, 0.46354382961952, -0.18124649339075, 0
1908, 0.70487905435996, -0.10670364271443, 0
1909, 0.70357047347436, -0.11241803405332, 0
1910, 0.69796987415147, -0.11114514271976, 0
1911, 0.70142446425571, -0.10892439271709, 0
1912, 0.73846145493893, -0.041672778275826, 0
1913, 0.74270066156836, -0.04592752577613, 0
1914, 0.73831104825239, -0.050078319345606, 0
1915, 0.73838625159589, -0.045875548810936, 0
1916, 0.68115230218804, -0.12330342355146, 0
1917, 0.67987460065443, -0.11945809453205, 0
1918, 0.51484601528641, 0.29364801051498, 0
1919, 0.52117270072077, 0.28604790412488, 0
1920, 0.52143544460734, 0.29302395206244, 0
1921, 0.18501620374613, 0.22644389665123, 0
1922, 0.18744898552224, 0.20217846942838, 0
1923, 0.44473825662858, 0.27662984371685, 0
1924, 0.44980507854297, 0.27399100312441, 0
1925, 0.44617981537567, 0.27324203835317, 0
1926, 0.73695384117517, -0.012470031390295, 0
1927, 0.73297346376272, -0.013728465576564, 0
1928, 0.94262879927749, 0.10520423046552, 0
1929, 0.97131439963875, 0.10500585637124, 0
1930, 0.69050922487995, 0.088382892297848, 0
1931, 0.68626340233425, 0.084625441784054, 0
1932, 0.68625638714915, 0.09246960761327, 0
1933, 0.6862598947417, 0.088547524698662, 0
1934, 0.69144117488328, 0.069155528118755, 0
1935, 0.69006057185301, 0.064964604261703, 0
1936, 0.68695569918011, 0.070641248312687, 0
1937, 0.68850813551656, 0.067802926287196, 0
1938, 0.97297052568555, -0.24731739910391, 0
1939, 0.97328893691373, -0.27365869955196, 0
1940, 0.73059567572177, 0.0028047140618258, 0
1941, 0.72692468457338, 0.0011772413043707, 0
1942, 0.44620975633841, -0.18536852502939, 0
1943, 0.43227618339108, -0.17091376810571, 0
1944, 0.65115387739049, 0.23238435908242, 0
1945, 0.65288090379075, 0.22676918468416, 0
1946, 0.6457483674255, 0.2304620973462, 0
1947, 0.64931463560813, 0.22861564101518, 0
1948, 0.58951794181859, 0.24782284279254, 0
1949, 0.50962101217099, -0.17745676777078, 0
1950, 0.50511696593537, -0.17399188420719, 0
1951, 0.50905543795181, -0.17348742570938, 0
1952, 0.693619492812, 0.058262916760476, 0
1953, 0.69920008116779, 0.056798604652091, 0
1954, 0.69555248670871, 0.054804456655796, 0
1955, 0.26758356978985, 0.09698756580244, 0
1956, 0.27073800766223, 0.1022469592211, 0
1957, 0.27169297175151, 0.098146291176324, 0
1958, 0.27800778030398, 0.069340311306753, 0
1959, 0.2866734506405, 0.052490726791508, 0
1960, 0.50848306492576, 0.28627861986592, 0
1961, 0.50842400864324, 0.29313930993296, 0
1962, 0.50163481659477, -0.17814199061679, 0
1963, 0.50129276014224, -0.17430573950349, 0
1964, 0.64968174167896, -0.132741496446, 0
1965, 0.64881459629336, -0.1285673091349, 0
1966, 0.69102425909215, 0.17557736770776, 0
1967, 0.6956397267606, 0.17220686163136, 0
1968, 0.69246093443663, 0.16768091044835, 0
1969, 0.69174259676438, 0.17162913907805, 0
1970, 0.6784395056687, 0.21077484448234, 0
1971, 0.67776537024856, 0.20496737765813, 0
1972, 0.6725417343841, 0.21140906581392, 0
1973, 0.67515355231639, 0.20818822173604, 0
1974, 0.37787096167831, -0.27687172786677, 0
1975, 0.3533813861729, -0.27641983800616, 0
1976, 0.2912111463173, 0.18193399812141, 0
1977, 0.24070306699095, 0.15739847025122, 0
1978, 0.28483504993347, 0.175356158691, 0
1979, 0.2649414245673, 0.13891132657833, 0
1980, 0.71047999148064, -0.10747576727761, 0
1981, 0.71133826987554, -0.10173166357417, 0
1982, 0.70810866211773, -0.10421765314429, 0
1983, 0.27103346350143, 0.14584166320904, 0
1984, 0.26592586808285, 0.1518683978556, 0
1985, 0.69625663291057, -0.11665775009443, 0
1986, 0.69439010585988, -0.11299985813038, 0
1987, 0.26416905119121, 0.16737959692174, 0
1988, 0.24876454418101, 0.11667661050299, 0
1989, 0.73229267001937, -0.074861065775125, 0
1990, 0.73411815315751, -0.080407082037363, 0
1991, 0.72825514945394, -0.082467555634946, 0
1992, 0.73027390973663, -0.078664310705013, 0
1993, 0.72329903679858, -0.089643055685479, 0
1994, 0.72355004947818, -0.095624298379761, 0
1995, 0.71757013761475, -0.096179295474374, 0
1996, 0.72043458720666, -0.092911175579926, 0
1997, 0.69672506532265, 0.16410698819599, 0
1998, 0.69282612115001, 0.16378081554192, 0
1999, 0.31814723352567, -0.051307717820426, 0
2000, 0.30268096941013, 0.0045385668712754, 0
2001, 0.28650736889661, 0.011921031114164, 0
2002, 0.68592644084025, 0.19085369336805, 0
2003, 0.69114561846311, 0.18830630836823, 0
2004, 0.68885755865783, 0.18330702529268, 0
2005, 0.68739199974905, 0.18708035933037, 0
2006, 0.66562291180834, -0.12871477755769, 0
2007, 0.66468086275162, -0.1245982735588, 0
2008, 0.68219929799116, 0.19811338644883, 0
2009, 0.68767736187108, 0.19614033440004, 0
2010, 0.68406286941569, 0.19448353990843, 0
2011, 0.26080636438393, 0.12279116347598, 0
2012, 0.22694641295968, 0.14062633933108, 0
2013, 0.24830129685862, 0.10403263460684, 0
2014, 0.262335752386, 0.10078914997363, 0
2015, 0.69379189744382, 0.18029512077745, 0
2016, 0.68994090887499, 0.17944219650022, 0
2017, 0.74235308777915, -0.03725135073781, 0
2018, 0.7380729546173, -0.037566908360872, 0
2019, 0.94441203920477, 0.21791789963939, 0
2020, 0.97293201677056, 0.24647123760904, 0
2021, 0.97220601960238, 0.21860445525865, 0
2022, 0.30100989571487, -0.1125789356839, 0
2023, 0.32734318662966, -0.079758057109857, 0
2024, 0.4636468269676, -0.27606556028716, 0
2025, 0.48501949451446, -0.25381618480033, 0
2026, 0.48356127868119, -0.27690809240016, 0
2027, 0.68346704996844, 0.2036181389982, 0
2028, 0.67998233411992, 0.2015403820535, 0
2029, 0.64362598845078, 0.23596507639306, 0
2030, 0.64203657610416, 0.23211881441586, 0
2031, 0.66665292987793, 0.21733899650539, 0
2032, 0.67255529801081, 0.21757711322533, 0
2033, 0.66959733213097, 0.21437403115964, 0
2034, 0.26618394899201, 0.10565425594696, 0
2035, 0.27004502253076, 0.10623830718786, 0
2036, 0.65887186725592, 0.2862670448403, 0
2037, 0.64699869873153, 0.27503624772757, 0
2038, 0.64772077550882, 0.28751812386379, 0
2039, 0.5749281042804, 0.29008977812866, 0
2040, 0.59345241682294, 0.28939810068667, 0
2041, 0.58419026055167, 0.28974393940766, 0
2042, 0.37432846492317, 0.24074983597629, 0
2043, 0.37632176810519, 0.23692115301698, 0
2044, 0.40731184868805, 0.26005443412286, 0
2045, 0.41288744078568, 0.25887203019517, 0
2046, 0.40936445675057, 0.25661677164609, 0
2047, 0.26611809053861, 0.12891597321378, 0
2048, 0.69229311939876, 0.10960107183312, 0
2049, 0.68838542026079, 0.11017384565949, 0
2050, 0.65855854327086, 0.22828496870187, 0
2051, 0.6599266589101, 0.22239253411316, 0
2052, 0.65640378135037, 0.22458085939865, 0
2053, 0.72927900440478, -0.088290398568592, 0
2054, 0.72577709312625, -0.086055305660201, 0
2055, 0.3105185617734, -0.0096524724402602, 0
2056, 0.7420667242678, -0.054731594098174, 0
2057, 0.73729583402358, -0.058454817586972, 0
2058, 0.73780344113798, -0.054266568466284, 0
2059, 0.29515101390895, 0.032618526798467, 0
2060, 0.29901096234309, 0.034291242927903, 0
2061, 0.74048560954377, -0.063509903032056, 0
2062, 0.73529515483591, -0.066801529259561, 0
2063, 0.73629549442971, -0.062628173423241, 0
2064, 0.6276867803208, 0.24259461237221, 0
2065, 0.62666347647692, 0.23825121075087, 0
2066, 0.51782537698359, 0.27632843479642, 0
2067, 0.51706602012659, 0.27249792004037, 0
2068, 0.63526584928324, -0.14431708639465, 0
2069, 0.63110149695981, -0.14070788213056, 0
2070, 0.63840403493671, -0.13934548998463, 0
2071, 0.63475276594826, -0.14002668605759, 0
2072, 0.026131864325906, 0.24730328337945, 0
2073, 0.025793434516924, 0.27365164168973, 0
2074, 0.40201321955079, -0.256693863417, 0
2075, 0.4239513981802, -0.27837706948817, 0
2076, 0.4012928154752, -0.27801511815098, 0
2077, 0.31343805832651, 0.20594108793856, 0
2078, 0.31581860973625, 0.20247037968094, 0
2079, 0.30046762682855, 0.19583798396949, 0
2080, 0.30297479331462, 0.19262523685951, 0
2081, 0.43213430683357, 0.28466548648892, 0
2082, 0.42488588763547, 0.29142822116103, 0
2083, 0.43203991212422, 0.29233274324446, 0
2084, 0.73786623323787, -0.072124328079228, 0
2085, 0.73379391242767, -0.070831297517368, 0
2086, 0.71715514765276, -0.10199019031063, 0
2087, 0.71445420374515, -0.098955479524274, 0
2088, 0.30572963200743, -0.026251095303565, 0
2089, 0.48576384940272, -0.17900828800754, 0
2090, 0.4858324821715, -0.17496633517346, 0
2091, 0.66583585538083, 0.22346138877271, 0
2092, 0.66328979439402, 0.21986576530927, 0
2093, 0.59775300170806, -0.25377756740168, 0
2094, 0.57601048878606, -0.27947929534791, 0
2095, 0.59839646831876, -0.27688878370084, 0
2096, 0.91313602444876, -0.087568515239988, 0
2097, 0.91701621328709, -0.14092449354578, 0
2098, 0.88651126454138, -0.11561456885416, 0
2099, 0.91507611886792, -0.11424650439288, 0
2100, 0.41480314417099, 0.26465126234847, 0
2101, 0.41670533635631, 0.26095450980717, 0
2102, 0.60346152803086, 0.27703167515319, 0
2103, 0.60399496190804, 0.2885158375766, 0
2104, 0.083438312891162, 0.087856630405575, 0
2105, 0.081485894676647, 0.14087862285865, 0
2106, 0.10964778408258, 0.1150077120595, 0
2107, 0.082462103783904, 0.11436762663211, 0
2108, 0.94750695397064, 0.27286454880369, 0
2109, 0.97375347698532, 0.27323561880452, 0
2110, 0.55947626784756, -0.26097210062422, 0
2111, 0.55763729357243, -0.28048605031211, 0
2112, 0.68653279124368, 0.076899462075967, 0
2113, 0.6899610858277, 0.074106066332082, 0
2114, 0.6867442452119, 0.073770355194327, 0
2115, 0.44318439444849, -0.25444262977534, 0
2116, 0.4437991125739, -0.27722131488767, 0
2117, 0.21014607556902, 0.23296449120815, 0
2118, 0.20631717537057, 0.27723761380232, 0
2119, 0.18200638082292, 0.27559335438038, 0
2120, 0.055017554410622, -0.21880406498038, 0
2121, 0.027508777205311, -0.21980172155619, 0
2122, 0.5582633361365, 0.29150402883559, 0
2123, 0.55068289160145, 0.28367276011218, 0
2124, 0.55049175379286, 0.29183638005609, 0
2125, 0.81942108774096, 0.25013642187459, 0
2126, 0.7950308031222, 0.27641558193926, 0
2127, 0.81919818560225, 0.27506821093729, 0
2128, 0.41623228838039, 0.28315169570735, 0
2129, 0.40859363779386, 0.29172347454632, 0
2130, 0.41673976271466, 0.29157584785368, 0
2131, 0.94546615037534, -0.21951156381792, 0
2132, 0.97273307518767, -0.22058208430428, 0
2133, 0.69529128408764, 0.063577388002505, 0
2134, 0.69184003233251, 0.06161376051109, 0
2135, 0.36045932845629, 0.27403920710436, 0
2136, 0.34830939394921, 0.28552325636295, 0
2137, 0.37108543292312, 0.28851595074141, 0
2138, 0.35969741343616, 0.28701960355218, 0
2139, 0.68519256108261, 0.28416349273951, 0
2140, 0.67130178136768, 0.27043053757981, 0
2141, 0.67203221416926, 0.2852152687899, 0
2142, 0.56659572020845, 0.29079690348212, 0
2143, 0.33608676449246, 0.26864795566937, 0
2144, 0.3210385625555, 0.28312469930641, 0
2145, 0.33467397825235, 0.28432397783468, 0
2146, 0.29280445106052, 0.23536116601834, 0
2147, 0.25019053136227, 0.28077177954106, 0
2148, 0.2289346164136, 0.27902023282435, 0
2149, 0.2567255377844, 0.23033763611581, 0
2150, 0.28782447175011, 0.28237675728805, 0
2151, 0.2697102021521, 0.28166025473323, 0
2152, 0.052800859701185, 0.21976723901818, 0
2153, 0.026400429850593, 0.2207287129199, 0
2154, 0.38083686148457, 0.27760656915214, 0
2155, 0.39107444357412, 0.28909061841073, 0
2156, 0.38107993824862, 0.28880328457607, 0
2157, 0.39905620921041, 0.28081409295705, 0
2158, 0.39983404068399, 0.29040704647852, 0
2159, 0.77464552583629, 0.25664873917755, 0
2160, 0.75234432916286, 0.28023315723828, 0
2161, 0.77368756614253, 0.27832436958877, 0
2162, 0.30585987477058, 0.26676653169473, 0
2163, 0.30455796218625, 0.28305749872734, 0
2164, 0.71623599642922, 0.2834770719881, 0
2165, 0.7010438258411, 0.26764056472761, 0
2166, 0.70071427875591, 0.2838202823638, 0
2167, 0.59732442759082, -0.20100108814883, 0
2168, 0.58679514292343, -0.21999556154261, 0
2169, 0.57189195279103, -0.20728513202303, 0
2170, 0.58242123745842, -0.18829065862924, 0
2171, 0.58460819019093, -0.20414311008593, 0
2172, 0.086372404829127, -0.079893851301332, 0
2173, 0.086620606028376, -0.023090561364031, 0
2174, 0.11523028959699, -0.05049330569617, 0
2175, 0.086496505428752, -0.051492206332681, 0
2176, 0.69050876512148, 0.095717022320819, 0
2177, 0.68648145405113, 0.096090986863382, 0
2178, 0.91951942845226, 0.24570992743167, 0
2179, 0.92123602886499, 0.27285496371584, 0
2180, 0.79340105718235, -0.15489822944142, 0
2181, 0.7743910002755, -0.13943232460591, 0
2182, 0.78724090218832, -0.11977369042929, 0
2183, 0.80625095909521, -0.13523959526483, 0
2184, 0.79032097968533, -0.13733595993535, 0
2185, 0.69047306076846, 0.080686757602975, 0
2186, 0.68639809678896, 0.08076245193001, 0
2187, 0.73536599071438, 0.26371022922638, 0
2188, 0.73429016279604, 0.28185511461319, 0
2189, 0.085547487226335, 0.033111691366907, 0
2190, 0.11467823425917, 0.0062888229905861, 0
2191, 0.086084046627356, 0.0050105650014379, 0
2192, 0.91564306849548, 0.19028432316932, 0
2193, 0.913653053031, 0.13330244443773, 0
2194, 0.88675318199247, 0.16187659565015, 0
2195, 0.91464806076324, 0.16179338380353, 0
2196, 0.6626433685597, -0.13430935642849, 0
2197, 0.65420651934137, -0.13642120047562, 0
2198, 0.65842494395054, -0.13536527845206, 0
2199, 0.61618286665405, -0.14399921822292, 0
2200, 0.60831199811076, -0.14598329034026, 0
2201, 0.6122474323824, -0.14499125428159, 0
2202, 0.29313225763661, 0.048968994753472, 0
2203, 0.29590182631399, 0.041678363406994, 0
2204, 0.2607669708768, 0.062792518535094, 0
2205, 0.32081059777171, -0.067486055911644, 0
2206, 0.24339862361718, -0.055867834658674, 0
2207, 0.31074282360541, -0.014003234551347, 0
2208, 0.29740132935519, -0.018827498317077, 0
2209, 0.86999399641256, -0.18955042349711, 0
2210, 0.89146292817276, -0.21746168863976, 0
2211, 0.86610876015315, -0.21480961149053, 0
2212, 0.085027274556864, -0.13621141628337, 0
2213, 0.11409056141688, -0.10746947446675, 0
2214, 0.085699839692996, -0.10805263379235, 0
2215, 0.30157541141354, -0.076420946749292, 0
2216, 0.30843143252366, -0.082703178888477, 0
2217, 0.27537135660927, 0.0058248250919918, 0
2218, 0.30781101707763, -0.077392628700785, 0
2219, 0.31354555636235, -0.10595508913935, 0
2220, 0.25450108206944, -0.04938879658898, 0
2221, 0.24377805606094, -0.12309750701301, 0
2222, 0.3093250318154, -0.034566825344316, 0
2223, 0.70109571544577, 0.14364851792035, 0
2224, 0.7049152011199, 0.13928522435889, 0
2225, 0.70059341789297, 0.13589083779692, 0
2226, 0.70084456666936, 0.13976967785863, 0
2227, 0.7013105706829, 0.15198868073786, 0
2228, 0.70120314306432, 0.1478185993291, 0
2229, 0.46538433178645, -0.18804949309717, 0
2230, 0.4693802031016, -0.17652730005698, 0
2231, 0.35642142783905, -0.2121538880817, 0
2232, 0.4660892117075, 0.28012037792896, 0
2233, 0.47101728418138, 0.28003072558071, 0
2234, 0.32990330282529, 0.22547137792667, 0
2235, 0.33486600887519, 0.22426746671259, 0
2236, 0.32922146046068, 0.21969895565741, 0
2237, 0.33204373466794, 0.221983211185, 0
2238, 0.49958724443082, 0.279233697866, 0
2239, 0.48948066643471, 0.28043440078534, 0
2240, 0.49453395543276, 0.27983404932567, 0
2241, 0.70403364875857, 0.17295319271884, 0
2242, 0.70052367874756, 0.16850464247596, 0
2243, 0.69914969677159, 0.17665541187423, 0
2244, 0.69983668775958, 0.17258002717509, 0
2245, 0.91692133228555, 0.021491023180743, 0
2246, 0.91682921577361, -0.03224578229477, 0
2247, 0.8895448610835, -0.0060841301599648, 0
2248, 0.91687527402958, -0.0053773795570137, 0
2249, 0.38095770832551, -0.14461964407236, 0
2250, 0.38930462912237, -0.14046848627302, 0
2251, 0.35818513557153, -0.13100838230539, 0
2252, 0.45245158634022, -0.17761409547897, 0
2253, 0.59415239464165, -0.15493404960884, 0
2254, 0.58850953927797, -0.15243105470773, 0
2255, 0.5924635969594, -0.15079659980676, 0
2256, 0.33246397780563, -0.099279995441173, 0
2257, 0.31337124196362, -0.078147685038486, 0
2258, 0.29783280457736, -0.063451356109922, 0
2259, 0.23202791091614, -0.063863108469954, 0
2260, 0.14478826570847, -0.018693350788388, 0
2261, 0.14262136420838, 0.037712768353093, 0
2262, 0.17273139565768, 0.012730594574118, 0
2263, 0.14370481495842, 0.0095097087823523, 0
2264, 0.46732614893614, -0.18400070817716, 0
2265, 0.37773591331839, -0.23375822381239, 0
2266, 0.69963965442021, 0.12778814011573, 0
2267, 0.70011653615659, 0.13183948895632, 0
2268, 0.71318656578874, 0.041982664487674, 0
2269, 0.71764659009005, 0.034568871425674, 0
2270, 0.7154165779394, 0.038275767956674, 0
2271, 0.51976616202093, -0.18593824314607, 0
2272, 0.51441999173034, -0.18211942936687, 0
2273, 0.52313729551273, -0.17999044846694, 0
2274, 0.51877864362153, -0.18105493891691, 0
2275, 0.56186078909679, -0.16512733928109, 0
2276, 0.55439507735911, -0.1690822941346, 0
2277, 0.55812793322795, -0.16710481670785, 0
2278, 0.74591253661355, -0.0095871854244062, 0
2279, 0.74287612508607, -0.015227226012125, 0
2280, 0.73999025270274, -0.0068299908024665, 0
2281, 0.7414331888943, -0.011028608407422, 0
2282, 0.63292907414552, 0.24568841729833, 0
2283, 0.63881074291247, 0.24821664249646, 0
2284, 0.64159351900552, 0.24202045652612, 0
2285, 0.63726129657552, 0.24385443691223, 0
2286, 0.494957368795, -0.18624227593845, 0
2287, 0.4908423386529, -0.18332742923997, 0
2288, 0.49793527335245, -0.18160474026355, 0
2289, 0.49438880600267, -0.18246608475176, 0
2290, 0.53870317996297, -0.17479572834327, 0
2291, 0.54688504555612, -0.17204611135347, 0
2292, 0.54279411275955, -0.17342091984837, 0
2293, 0.30327080052706, -0.053687256781215, 0
2294, 0.39383695591243, -0.1517541541687, 0
2295, 0.401373893559, -0.14764487647559, 0
2296, 0.58631531504159, -0.15677742034056, 0
2297, 0.58210026179024, -0.15386934315391, 0
2298, 0.58530490053411, -0.15315019893082, 0
2299, 0.68612219540869, -0.12605287572716, 0
2300, 0.69413633139527, -0.12291768256674, 0
2301, 0.69012926340198, -0.12448527914695, 0
2302, 0.33608945082615, 0.23073435751606, 0
2303, 0.3423197144716, 0.22874317471696, 0
2304, 0.3385928616734, 0.22650532071477, 0
2305, 0.67042418137882, -0.13185578565123, 0
2306, 0.67860365144207, -0.12896633528608, 0
2307, 0.67451391641044, -0.13041106046866, 0
2308, 0.35673353114788, 0.23503219850915, 0
2309, 0.34978131777812, 0.23172818518095, 0
2310, 0.353257424463, 0.23338019184505, 0
2311, 0.43848566816829, -0.17861538558722, 0
2312, 0.47177709075004, -0.18650809715902, 0
2313, 0.4187201410001, -0.15883177832683, 0
2314, 0.44779077760167, -0.20415843561972, 0
2315, 0.10999280197036, -0.21782923879977, 0
2316, 0.13796461135539, -0.19096606708866, 0
2317, 0.16473845799511, -0.218162764247, 0
2318, 0.13736562998274, -0.21799600152339, 0
2319, 0.35501490414539, -0.23247627564758, 0
2320, 0.72633595188226, 0.02579667290362, 0
2321, 0.72413815787828, 0.021038577026542, 0
2322, 0.72170743608099, 0.027787112673384, 0
2323, 0.72292279697963, 0.024412844849957, 0
2324, 0.25878113857108, 0.045975903564067, 0
2325, 0.26051638233675, -0.023112528538557, 0
2326, 0.30296713495909, 0.00069893923427359, 0
2327, 0.14528426473094, -0.077940294119292, 0
2328, 0.17484224084242, -0.04614033921151, 0
2329, 0.14503626521971, -0.04831682245384, 0
2330, 0.6233734665163, -0.14235935086158, 0
2331, 0.62032730568608, -0.14749001270712, 0
2332, 0.61977816658517, -0.14317928454225, 0
2333, 0.38975594149507, -0.15657869201214, 0
2334, 0.35209513159853, -0.1660523900377, 0
2335, 0.44903106325688, -0.16859345459412, 0
2336, 0.42492247022785, -0.19295193851641, 0
2337, 0.44129849342012, -0.16720905147454, 0
2338, 0.73222166010436, 0.17465467399816, 0
2339, 0.72408818175132, 0.1653127021286, 0
2340, 0.71524998754484, 0.174108716578, 0
2341, 0.72338346589792, 0.18345068844757, 0
2342, 0.7237358238246, 0.17438169528808, 0
2343, 0.32046301306672, -0.057504538786785, 0
2344, 0.30037776024889, -0.058343171427717, 0
2345, 0.31950954136422, -0.083173022644038, 0
2346, 0.74856600669269, -0.018398518560486, 0
2347, 0.74499998186519, -0.023720612835047, 0
2348, 0.74393805347574, -0.019473919423453, 0
2349, 0.75063268558534, -0.027224729544717, 0
2350, 0.74673109663703, -0.032310030528043, 0
2351, 0.74586553925111, -0.028015321681545, 0
2352, 0.37203631787671, -0.1379889397716, 0
2353, 0.23231211315863, 0.077593679704837, 0
2354, 0.29366512007322, 0.036411779126309, 0
2355, 0.28361216572363, 0.043786863034249, 0
2356, 0.28437594811793, 0.066738883590529, 0
2357, 0.20592401808648, 0.1099707808295, 0
2358, 0.26005112963743, 0.13479070331053, 0
2359, 0.24322383216502, 0.13286479567849, 0
2360, 0.18825764013256, 0.1781758703835, 0
2361, 0.56774518156592, -0.16794804611714, 0
2362, 0.56966651004442, -0.16227769104193, 0
2363, 0.5657636495706, -0.16370251516151, 0
2364, 0.48461016772204, 0.28020384726916, 0
2365, 0.45588618472249, 0.27866554601388, 0
2366, 0.460987698215, 0.27939296197142, 0
2367, 0.62723748173805, -0.14153361649607, 0
2368, 0.3233145813372, 0.22275194825746, 0
2369, 0.32138222081148, 0.21764460301307, 0
2370, 0.32530184063608, 0.21867177933524, 0
2371, 0.74770611437864, -0.050499790473943, 0
2372, 0.75218403708454, -0.055579656578289, 0
2373, 0.74654464697334, -0.059811460202171, 0
2374, 0.74712538067601, -0.055155625338064, 0
2375, 0.53636511533901, -0.18046982787702, 0
2376, 0.53127950538893, -0.17743384318423, 0
2377, 0.53499134267595, -0.17611478576375, 0
2378, 0.48166698172344, -0.18411999687274, 0
2379, 0.47647796484949, -0.18817193604404, 0
2380, 0.45461476764036, -0.19018125169308, 0
2381, 0.47705245752201, -0.18319302619357, 0
2382, 0.27400844761356, 0.043947221317392, 0
2383, 0.2895313045454, 0.058454287012101, 0
2384, 0.26879228434577, 0.092505467814, 0
2385, 0.33450536976236, -0.09447032884869, 0
2386, 0.32539296864156, -0.096409034857833, 0
2387, 0.50515070449001, -0.1823808140773, 0
2388, 0.50145116124769, -0.18584356372407, 0
2389, 0.50154298892123, -0.18199277717043, 0
2390, 0.37558805163528, -0.1649598910355, 0
2391, 0.43498695274761, -0.1946615849434, 0
2392, 0.86241772149318, 0.01781888689097, 0
2393, 0.86550777399079, -0.032972985289042, 0
2394, 0.83838063440047, -0.009069968238108, 0
2395, 0.86396274774199, -0.0075770491990363, 0
2396, 0.13319554502115, 0.14170308700755, 0
2397, 0.16459018531069, 0.1255665996249, 0
2398, 0.13978744840754, 0.092531961057989, 0
2399, 0.13682171673032, 0.11852285321229, 0
2400, 0.25060437834388, -0.19806461941451, 0
2401, 0.37255128192913, -0.19369849323955, 0
2402, 0.88617550671952, -0.060965257678945, 0
2403, 0.91498262011118, -0.059907148767379, 0
2404, 0.2754996252282, 0.030048262678152, 0
2405, 0.26580860664135, 0.084866657901542, 0
2406, 0.26444397453217, 0.090681424737066, 0
2407, 0.25956247618496, 0.033688509050838, 0
2408, 0.7297576053591, 0.019711415367115, 0
2409, 0.72883786156343, 0.015151014823827, 0
2410, 0.7264880097209, 0.018094795925232, 0
2411, 0.71502438149119, 0.047641551123817, 0
2412, 0.70923822826143, 0.048935679410713, 0
2413, 0.71121239702509, 0.045459171949193, 0
2414, 0.37771201109616, -0.21394158472878, 0
2415, 0.46049594737111, -0.17846974079596, 0
2416, 0.43302262857648, -0.18537594660486, 0
2417, 0.75565789361903, -0.0071130178744326, 0
2418, 0.75131715227166, -0.012971330708756, 0
2419, 0.75025327796096, -0.003728872590017, 0
2420, 0.75078521511634, -0.0083501016493561, 0
2421, 0.76112622628377, -0.024056345895747, 0
2422, 0.75689743345843, -0.030276936459655, 0
2423, 0.75486147841068, -0.021004138980809, 0
2424, 0.75587945593456, -0.025640537720232, 0
2425, 0.7011513836734, 0.15990910248149, 0
2426, 0.70530232213128, 0.15579939692358, 0
2427, 0.70123097717815, 0.15594889160967, 0
2428, 0.73440328963755, 0.013768242559639, 0
2429, 0.73252368462872, 0.0084410124058489, 0
2430, 0.73068077309609, 0.011796013614859, 0
2431, 0.31682199845366, -0.13372145083005, 0
2432, 0.3130217566154, -0.026985531841874, 0
2433, 0.45968055822755, -0.1730141053773, 0
2434, 0.50994968404936, -0.1870434756734, 0
2435, 0.50978534811018, -0.18225012172209, 0
2436, 0.25796330542404, 0.10467888131654, 0
2437, 0.27052184594346, 0.14218576018824, 0
2438, 0.27631426469508, 0.16233723332058, 0
2439, 0.19291328104673, -0.19275871307409, 0
2440, 0.22094923079417, -0.2208392210727, 0
2441, 0.19247464126389, -0.21922402070186, 0
2442, 0.75278407606259, -0.045814846758199, 0
2443, 0.74777862325231, -0.041242582060386, 0
2444, 0.74774236881547, -0.045871186267165, 0
2445, 0.2185054247766, 0.1226793685981, 0
2446, 0.50474149430775, 0.28156085445726, 0
2447, 0.50280486679129, 0.277017308242, 0
2448, 0.32129375482458, -0.071313082902517, 0
2449, 0.32271205581939, -0.0613873095996, 0
2450, 0.7983261597811, -0.19058063643543, 0
2451, 0.78138151400984, -0.17458896440467, 0
2452, 0.81034570295363, -0.17088990147219, 0
2453, 0.79586360848173, -0.17273943293843, 0
2454, 0.34858851045816, -0.13133370011125, 0
2455, 0.28208728551519, -0.032903066502411, 0
2456, 0.36653374975824, -0.12977815925905, 0
2457, 0.72367498484259, 0.032665305034376, 0
2458, 0.71967701308552, 0.031177992049529, 0
2459, 0.39243719424879, -0.16087637568714, 0
2460, 0.3677623975918, -0.14694720403563, 0
2461, 0.52720840045083, -0.17871214582558, 0
2462, 0.21924066356443, 0.18868494048394, 0
2463, 0.11242047317342, 0.061636146109036, 0
2464, 0.084492900058749, 0.060484160886241, 0
2465, 0.27923422838814, 0.18611659401616, 0
2466, 0.29941366959473, 0.22041334580256, 0
2467, 0.26941290505114, 0.12497796005686, 0
2468, 0.75039409146781, -0.065305252924894, 0
2469, 0.74433505403827, -0.06900369575481, 0
2470, 0.74543985050586, -0.06440757797853, 0
2471, 0.70311715300325, 0.12341217147686, 0
2472, 0.69849459185158, 0.12023616383514, 0
2473, 0.69906712313589, 0.12401215197543, 0
2474, 0.31543207980034, -0.057234351713239, 0
2475, 0.35618840682915, -0.12177456240893, 0
2476, 0.33228144229876, -0.11649381908395, 0
2477, 0.31398642796358, 0.21172172021981, 0
2478, 0.31768432438753, 0.21468316161644, 0
2479, 0.69704603187631, 0.11224180788565, 0
2480, 0.69777031186394, 0.11623898586039, 0
2481, 0.2949519251158, 0.19755430160495, 0
2482, 0.28791197373621, 0.19255808320533, 0
2483, 0.29146716313266, 0.19514386504188, 0
2484, 0.34403385406722, 0.23463362996819, 0
2485, 0.34605051612486, 0.23023567994895, 0
2486, 0.16810004454074, 0.070111976139875, 0
2487, 0.14070773403467, 0.065457433902158, 0
2488, 0.70872697913849, -0.12046709797629, 0
2489, 0.70225340852402, -0.11922955596423, 0
2490, 0.71004404408885, -0.11365557606539, 0
2491, 0.70614872630644, -0.11644256601481, 0
2492, 0.64646096776133, -0.13789811842897, 0
2493, 0.64243250134902, -0.1386218042068, 0
2494, 0.91482765482882, 0.076486145675916, 0
2495, 0.88585190858233, 0.10458435964812, 0
2496, 0.91424035392991, 0.10489429505682, 0
2497, 0.88805071372351, 0.048245485508992, 0
2498, 0.91587449355719, 0.048988584428329, 0
2499, 0.68357354466271, -0.13171578746178, 0
2500, 0.68236292342538, -0.12750960550662, 0
2501, 0.64916887547691, 0.23829215367337, 0
2502, 0.65679694028524, 0.23474658218211, 0
2503, 0.65298290788108, 0.23651936792774, 0
2504, 0.44552574265099, -0.21979311217109, 0
2505, 0.3534953605048, -0.19326243561907, 0
2506, 0.33987319963159, -0.14411565375693, 0
2507, 0.38137746003038, -0.140988952309, 0
2508, 0.75761262398988, -0.015576951128803, 0
2509, 0.75308931534123, -0.01698773484471, 0
2510, 0.29712276098779, -0.025128541587565, 0
2511, 0.36598385038513, -0.1523609438284, 0
2512, 0.263359108184, -0.055131801035181, 0
2513, 0.28430432939447, 0.038578979963302, 0
2514, 0.28241705605228, 0.069961206875573, 0
2515, 0.28627767413791, 0.063759470326341, 0
2516, 0.27504117379028, 0.050639956954913, 0
2517, 0.75887007722979, -0.05072155500444, 0
2518, 0.76379620242429, -0.056289305310206, 0
2519, 0.75711016227893, -0.061147406883955, 0
2520, 0.75799011975432, -0.055934480944158, 0
2521, 0.66302871171394, 0.23737524651964, 0
2522, 0.66479031469956, 0.2309136330394, 0
2523, 0.6607936274924, 0.23283010761076, 0
2524, 0.69980592694511, 0.19045059946876, 0
2525, 0.6968517413943, 0.18523959403431, 0
2526, 0.69409980401388, 0.19351731380267, 0
2527, 0.69547577270409, 0.18937845391849, 0
2528, 0.29907122952561, -0.050523715207104, 0
2529, 0.27348047231798, 0.00031209390719972, 0
2530, 0.27250175918819, -0.028552789686422, 0
2531, 0.30244414961687, 0.0082673907794183, 0
2532, 0.72406772824951, 0.14713311985137, 0
2533, 0.73214454140432, 0.13844463859703, 0
2534, 0.72369733630581, 0.12968869603128, 0
2535, 0.715620523151, 0.13837717728561, 0
2536, 0.72388253227766, 0.13841090794132, 0
2537, 0.30748524082929, 0.20772181598445, 0
2538, 0.30803361046637, 0.2135024482657, 0
2539, 0.31073583439644, 0.20972176810213, 0
2540, 0.27567453837663, 0.073184854076563, 0
2541, 0.23876162151566, 0.038376310754649, 0
2542, 0.75215663211019, -0.036301261850619, 0
2543, 0.74725485994467, -0.036776306294214, 0
2544, 0.30410570074591, -0.021799194991229, 0
2545, 0.28432115361777, -0.04781065959873, 0
2546, 0.45046951882067, 0.28076844438346, 0
2547, 0.45284563163273, 0.27632827456914, 0
2548, 0.24608842758069, 0.052257723203014, 0
2549, 0.25974141389146, 0.088561504710976, 0
2550, 0.70013310700871, -0.12548948843654, 0
2551, 0.69819486995964, -0.12107361926548, 0
2552, 0.2870809480956, 0.058831485221535, 0
2553, 0.58117154440344, -0.15915524027937, 0
2554, 0.57672255916711, -0.15781206250284, 0
2555, 0.57941141047867, -0.15584070282838, 0
2556, 0.71003736655184, 0.053713627428688, 0
2557, 0.70401155376306, 0.054763921501207, 0
2558, 0.70662489101225, 0.051849800455958, 0
2559, 0.694766159119, 0.092181424855621, 0
2560, 0.69958108061821, 0.088430152098821, 0
2561, 0.69532414637915, 0.084631619541049, 0
2562, 0.69504515274908, 0.088406522198335, 0
2563, 0.28160819238909, 0.17117353607209, 0
2564, 0.27179440622347, 0.14967700040565, 0
2565, 0.25781368069202, 0.10000548706871, 0
2566, 0.60718751283802, -0.18557430382528, 0
2567, 0.6216472540624, -0.19741927568652, 0
2568, 0.60948584082661, -0.19921018191767, 0
2569, 0.27435765427433, 0.18112425787122, 0
2570, 0.2696175130151, 0.12846269787123, 0
2571, 0.70083753121047, 0.16420687247872, 0
2572, 0.2268698184886, 0.15368712105093, 0
2573, 0.27287933660406, 0.1537089864796, 0
2574, 0.28047129931588, 0.073444160501573, 0
2575, 0.25274590135411, 0.12224437767488, 0
2576, 0.26623464757929, 0.11724816266513, 0
2577, 0.29114989471305, 0.022510483699059, 0
2578, 0.29260010809317, 0.027062823392378, 0
2579, 0.2969277094495, 0.020941562722745, 0
2580, 0.29476390877133, 0.024002193057562, 0
2581, 0.30848000829818, -0.067480442717938, 0
2582, 0.29615553081163, -0.038306203534467, 0
2583, 0.65098574542374, -0.14157782245859, 0
2584, 0.65033374355135, -0.1371596594523, 0
2585, 0.7423391801297, -0.0013049853806448, 0
2586, 0.73631752563833, 0.00086785057447738, 0
2587, 0.73815388917049, -0.0029810701140496, 0
2588, 0.69653821869825, 0.19919562892806, 0
2589, 0.69011577655544, 0.20181864952543, 0
2590, 0.69210779028467, 0.19766798166405, 0
2591, 0.27732459310906, -0.22613134625838, 0
2592, 0.24860518924234, -0.22274755382208, 0
2593, 0.29348682565434, 0.017372172261937, 0
2594, 0.29732429880415, 0.017827125515227, 0
2595, 0.69549518580346, 0.1049877561818, 0
2596, 0.69804739848262, 0.10131544053144, 0
2597, 0.69362887434228, 0.098968365979298, 0
2598, 0.69456203007287, 0.10197806108055, 0
2599, 0.26661751343953, 0.12059486008985, 0
2600, 0.26205683341429, 0.10512314648222, 0
2601, 0.28778240425802, 0.18509346499306, 0
2602, 0.18278623847099, 0.25062142285831, 0
2603, 0.31438562598822, -0.060823389580499, 0
2604, 0.32606770783212, -0.076007019395356, 0
2605, 0.31505336263336, -0.098858929881561, 0
2606, 0.72255509381704, -0.10928090185814, 0
2607, 0.71584599934836, -0.10771923254354, 0
2608, 0.72386424212143, -0.10355185962523, 0
2609, 0.7198551207349, -0.10563554608439, 0
2610, 0.69800071908296, 0.18094750295427, 0
2611, 0.57548361132177, -0.16415594321532, 0
2612, 0.57319453460576, -0.16004487677239, 0
2613, 0.3166913360159, -0.054047379419012, 0
2614, 0.25975076987324, -0.087049059357541, 0
2615, 0.31450319773578, -0.051561606853267, 0
2616, 0.28457941629969, -0.18345926863126, 0
2617, 0.32258094207362, -0.10746053380022, 0
2618, 0.85773453494821, 0.073018357077031, 0
2619, 0.82476452772698, 0.10253023662646, 0
2620, 0.85288190136115, 0.1340962391976, 0
2621, 0.85530821815468, 0.10355729813731, 0
2622, 0.36499540356018, 0.24415926187098, 0
2623, 0.36956817002665, 0.24204160786482, 0
2624, 0.36339215407963, 0.23889073524788, 0
2625, 0.36648016205314, 0.24046617155635, 0
2626, 0.25846005699045, 0.094267123442539, 0
2627, 0.25572833292432, 0.12024989358716, 0
2628, 0.26319279564131, 0.09570200369934, 0
2629, 0.35868380932859, 0.24113373719675, 0
2630, 0.36006284261375, 0.23696146687851, 0
2631, 0.33938301262207, -0.11913747460203, 0
2632, 0.33307401355246, -0.12029782078299, 0
2633, 0.76441487717391, -0.04528522544754, 0
2634, 0.75832887600671, -0.040378517201299, 0
2635, 0.75859947661825, -0.045550036102869, 0
2636, 0.20960209502294, 0.1472807556449, 0
2637, 0.25906107960831, 0.13850398717207, 0
2638, 0.83210154271788, 0.042591758459008, 0
2639, 0.86007612822069, 0.045418621984, 0
2640, 0.7344206051335, 0.0046544314901353, 0
2641, 0.30234666992521, 0.20813670329374, 0
2642, 0.30173134400076, 0.20148816534036, 0
2643, 0.30460829241503, 0.20460499066241, 0
2644, 0.34109376562024, -0.11136367606729, 0
2645, 0.29174862575664, -0.060759460480878, 0
2646, 0.38574145683657, -0.14207529743737, 0
2647, 0.39250555319928, -0.14161077136833, 0
2648, 0.26418461016239, 0.1242836875602, 0
2649, 0.25401830230751, 0.24552804611999, 0
2650, 0.73073818769423, -0.094613255911086, 0
2651, 0.72730121490783, -0.099082557768153, 0
2652, 0.31529907508282, -0.034909132849072, 0
2653, 0.34132039901679, -0.1043181265985, 0
2654, 0.13463869263233, 0.19271533363303, 0
2655, 0.10576386003376, 0.21917287829888, 0
2656, 0.15890011687917, 0.22320847861324, 0
2657, 0.13272368772802, 0.21959204070449, 0
2658, 0.26335657630366, 0.12637753674965, 0
2659, 0.26398366662286, 0.12035756710329, 0
2660, 0.32432212948273, -0.083334665207577, 0
2661, 0.28207358965877, -0.01127324012599, 0
2662, 0.70642954753828, 0.20249157952555, 0
2663, 0.70337858465227, 0.19629792623827, 0
2664, 0.69958918158423, 0.20538928221534, 0
2665, 0.70148388311826, 0.20084360422681, 0
2666, 0.32332961652596, -0.064910125270717, 0
2667, 0.28698072620358, 0.029076053597146, 0
2668, 0.29111877274297, 0.030918445659749, 0
2669, 0.89084026197318, -0.16661957985537, 0
2670, 0.84647062287353, -0.16758976148978, 0
2671, 0.86731688843415, -0.14465891784803, 0
2672, 0.86865544242335, -0.16710467067257, 0
2673, 0.64713640603165, 0.24434753380643, 0
2674, 0.64538119724122, 0.24015630509975, 0
2675, 0.10749763028556, 0.1670449666129, 0
2676, 0.16089548215536, 0.17309934938454, 0
2677, 0.13391711882674, 0.16720921032029, 0
2678, 0.26922656165612, 0.12138569940861, 0
2679, 0.26979281521249, 0.13186592913668, 0
2680, 0.24045718572888, 0.097006923725406, 0
2681, 0.75761315473257, -0.035327726830477, 0
2682, 0.66744463813017, -0.13745036452203, 0
2683, 0.66653377496926, -0.13308257103986, 0
2684, 0.22701454472123, 0.10425696705137, 0
2685, 0.23945320345749, 0.14664202591818, 0
2686, 0.24999810758761, 0.15080098496071, 0
2687, 0.27358705680988, 0.077573321448178, 0
2688, 0.27004286786024, 0.087496654798075, 0
2689, 0.23581320816421, 0.058974229403151, 0
2690, 0.83711302236442, -0.054144511521108, 0
2691, 0.86164426454197, -0.057554884600027, 0
2692, 0.2900269006323, -0.021562562872725, 0
2693, 0.29024688575058, -0.0099557373261232, 0
2694, 0.26232637754496, 0.12881677992589, 0
2695, 0.28901084037473, 0.2151466109573, 0
2696, 0.2952164915099, -0.088628753792178, 0
2697, 0.26875298677049, 0.17448467480444, 0
2698, 0.2325768883141, 0.095664722983481, 0
2699, 0.26160873933259, 0.024460598441945, 0
2700, 0.24198135487536, 0.071401572542884, 0
2701, 0.29014032202066, 0.048578897400222, 0
2702, 0.26110128185357, 0.081850418690582, 0
2703, 0.55230786511686, -0.17496080114014, 0
2704, 0.55064006145762, -0.17056420274404, 0
2705, 0.71541005195661, -0.11389904133133, 0
2706, 0.71294502171861, -0.11068740430447, 0
2707, 0.74105025239815, -0.077963235790067, 0
2708, 0.7434964790239, -0.084277448018702, 0
2709, 0.73656437978331, -0.086721294266035, 0
2710, 0.7388073160907, -0.082342265028021, 0
2711, 0.73802356307274, -0.093044151608512, 0
2712, 0.73365128373878, -0.090667275088569, 0
2713, 0.69209901616952, 0.20796017819724, 0
2714, 0.68545028958251, 0.20975966767001, 0
2715, 0.68778303306894, 0.20578915859771, 0
2716, 0.30436850905311, -0.011271528281614, 0
2717, 0.30303761108064, -0.046122181285125, 0
2718, 0.70617871679183, 0.059466842975138, 0
2719, 0.70136724419656, 0.061501526126022, 0
2720, 0.70268939897981, 0.058132723813615, 0
2721, 0.60777653883611, -0.16437733446862, 0
2722, 0.59993730466732, -0.1598100707554, 0
2723, 0.60381966306222, -0.15180018737256, 0
2724, 0.60579810094916, -0.15808876092059, 0
2725, 0.75478770729791, -0.071474069734435, 0
2726, 0.75594893478857, -0.066310738309334, 0
2727, 0.64455817185365, -0.19185917991948, 0
2728, 0.63599883311895, -0.20855653523938, 0
2729, 0.6302065927971, -0.18072192036662, 0
2730, 0.63310271295803, -0.194639227803, 0
2731, 0.19477919202601, 0.057856102224658, 0
2732, 0.19683683573361, 0.036145476442533, 0
2733, 0.76550380251786, 0.029327542861979, 0
2734, 0.75982460057208, 0.013811871262807, 0
2735, 0.74437758995571, 0.019620170845295, 0
2736, 0.75005679190149, 0.035135842444478, 0
2737, 0.75494069623676, 0.024473856853614, 0
2738, 0.67275471340112, 0.22525579779551, 0
2739, 0.6800785315001, 0.22544185034607, 0
2740, 0.67987911610982, 0.2177631657759, 0
2741, 0.67631691475553, 0.22150948178572, 0
2742, 0.26924642522073, 0.027911720216237, 0
2743, 0.27275212028407, 0.059265738619262, 0
2744, 0.26577466887573, 0.068608891237692, 0
2745, 0.28753051725245, 0.044117068203979, 0
2746, 0.48674547097362, -0.18843913810517, 0
2747, 0.48625466018817, -0.18372371305635, 0
2748, 0.57270716210388, 0.26178902208155, 0
2749, 0.57779847517139, 0.26527820663373, 0
2750, 0.58105194820403, 0.25974908719722, 0
2751, 0.57687955515395, 0.26076905463939, 0
2752, 0.39070648581443, -0.145625390852, 0
2753, 0.27753773361094, 0.20286718261426, 0
2754, 0.28061425447733, 0.19528607366045, 0
2755, 0.2643896470272, 0.20617693529592, 0
2756, 0.74134376889454, -0.19547410385426, 0
2757, 0.72601654765577, -0.17869567091409, 0
2758, 0.73773754191902, -0.16157177278291, 0
2759, 0.75306476315779, -0.17835020572308, 0
2760, 0.73954065540678, -0.17852293831858, 0
2761, 0.24715374674574, 0.09081093216725, 0
2762, 0.22587681034443, 0.11702396548488, 0
2763, 0.25317978206725, 0.092629807642948, 0
2764, 0.70024809828102, 0.10762849223434, 0
2765, 0.69627060883989, 0.10861478203373, 0
2766, 0.68688990002356, 0.21674798896356, 0
2767, 0.68266470284618, 0.21376141672296, 0
2768, 0.70512023962835, 0.085244764182424, 0
2769, 0.706841782029, 0.07404515245525, 0
2770, 0.70029558968411, 0.07894861005185, 0
2771, 0.70598101082868, 0.079644958318837, 0
2772, 0.083199292906486, -0.19119350570977, 0
2773, 0.082505178190491, -0.21831665189007, 0
2774, 0.16823867827769, -0.16505976098436, 0
2775, 0.26460978672097, -0.043147492624942, 0
2776, 0.22726281329653, -0.17154663122087, 0
2777, 0.1971856100676, -0.16756820806209, 0
2778, 0.24955949460719, 0.12485721137498, 0
2779, 0.74751907319845, -0.074842603465558, 0
2780, 0.74269265321823, -0.073483465772455, 0
2781, 0.38791078649288, -0.15251223649083, 0
2782, 0.39344324505493, -0.1435144117239, 0
2783, 0.73949848271378, 0.061080735672478, 0
2784, 0.73586748839395, 0.048417046804251, 0
2785, 0.72446091565053, 0.052977409100689, 0
2786, 0.72809190997037, 0.065641097968916, 0
2787, 0.73197969918216, 0.057029072386584, 0
2788, 0.71609375412192, 0.15562645919094, 0
2789, 0.72407795500042, 0.15622291098999, 0
2790, 0.11197327495537, -0.16327518752212, 0
2791, 0.14075742200963, -0.13641494711269, 0
2792, 0.13936101668251, -0.16369050710068, 0
2793, 0.25982199095371, 0.21695511482881, 0
2794, 0.30168153901425, 0.22917900320548, 0
2795, 0.28956254972818, 0.26481974401102, 0
2796, 0.25855536164726, 0.10927685325434, 0
2797, 0.29698864503514, 0.20381122709818, 0
2798, 0.29850196971838, 0.19970327681811, 0
2799, 0.73041638872205, 0.12081543927302, 0
2800, 0.72054727144691, 0.11300332452214, 0
2801, 0.71382821903067, 0.1218765812804, 0
2802, 0.72212230387636, 0.12134601027671, 0
2803, 0.91824420882997, -0.19200588413352, 0
2804, 0.91846453927404, -0.21848662622884, 0
2805, 0.69630966837143, -0.18344397735877, 0
2806, 0.68714206981669, -0.20148644734846, 0
2807, 0.6710810318857, -0.18919868090982, 0
2808, 0.68024863044045, -0.17115621092013, 0
2809, 0.68369535012857, -0.18632132913429, 0
2810, 0.30619869750269, -0.12477259139614, 0
2811, 0.45258689483402, -0.16911243729839, 0
2812, 0.37455265860089, -0.14804293798563, 0
2813, 0.21728309777543, 0.10588007994765, 0
2814, 0.27873712590522, 0.16678690817195, 0
2815, 0.27474499334755, -0.079057529518544, 0
2816, 0.3069253948018, 0.012920505064985, 0
2817, 0.28085406460719, -0.06376136485428, 0
2818, 0.65458784621413, -0.17614203022244, 0
2819, 0.65781960186968, -0.19052893041465, 0
2820, 0.67170917271978, 0.23270804206219, 0
2821, 0.66877251405033, 0.22808471541746, 0
2822, 0.29022510988976, -0.00074751833012635, 0
2823, 0.25534639820486, -0.062484833847553, 0
2824, 0.27774864591335, 0.010550495599239, 0
2825, 0.6978862683398, 0.0954327685141, 0
2826, 0.69419751673064, 0.09557489541746, 0
2827, 0.79453159760888, 0.18172524295626, 0
2828, 0.78621000009369, 0.16084677664876, 0
2829, 0.77303428296774, 0.17418695669346, 0
2830, 0.78135588048293, 0.19506542300096, 0
2831, 0.78378294028831, 0.17795609982486, 0
2832, 0.38829424090665, 0.25593435723508, 0
2833, 0.39278657277452, 0.25745418209833, 0
2834, 0.75150929850067, -0.080843293162504, 0
2835, 0.74704190393024, -0.091341281824772, 0
2836, 0.74927560121553, -0.0860922874937, 0
2837, 0.91763021105853, -0.16646518883965, 0
2838, 0.76329643896791, 0.16036174506637, 0
2839, 0.77676863211242, 0.14770081196232, 0
2840, 0.76574017552124, 0.13198530778362, 0
2841, 0.75226798237672, 0.14464624088767, 0
2842, 0.76451830724457, 0.146173526425, 0
2843, 0.17584600928774, -0.10953160360353, 0
2844, 0.14302084337029, -0.10717762061599, 0
2845, 0.079985068803888, 0.19302440911915, 0
2846, 0.079282359867472, 0.21947005865853, 0
2847, 0.30773951211106, -0.1087398926143, 0
2848, 0.30723976996311, -0.056438134325729, 0
2849, 0.22924861479237, -0.019323132367826, 0
2850, 0.22854224353488, 0.010549592299465, 0
2851, 0.24530354135848, -0.0033411689540255, 0
2852, 0.22889542916363, -0.0043867700341805, 0
2853, 0.35425280662587, -0.15760886163423, 0
2854, 0.4614176418627, -0.20977611458365, 0
2855, 0.33915418406671, -0.10853428258226, 0
2856, 0.39203995832002, -0.14857739792458, 0
2857, 0.32785853882418, -0.091429056326705, 0
2858, 0.3205502847121, -0.055417901513962, 0
2859, 0.31118745112901, -0.038393025837602, 0
2860, 0.24784059558338, -0.071543417065068, 0
2861, 0.084113283731675, -0.16370246099657, 0
2862, 0.76522582635559, -0.15982978350508, 0
2863, 0.76722313858381, -0.17646958506388, 0
2864, 0.84058873123617, 0.22103749448231, 0
2865, 0.81508483493629, 0.19902911755112, 0
2866, 0.79391719144111, 0.22812804494341, 0
2867, 0.81725296133863, 0.22458276971286, 0
2868, 0.69511934799106, 0.21468524221854, 0
2869, 0.69735426478765, 0.21003726221694, 0
2870, 0.28937962098942, 0.052203821055872, 0
2871, 0.27850573617962, 0.061608517748592, 0
2872, 0.25622438524429, -0.1772115312955, 0
2873, 0.69790044976648, 0.22250227007606, 0
2874, 0.70712769816804, 0.22452576594395, 0
2875, 0.46788442956209, -0.21625025402025, 0
2876, 0.45052589337686, -0.17304397806404, 0
2877, 0.47401570051711, -0.20050280560142, 0
2878, 0.47976247863359, -0.21279684184335, 0
2879, 0.47162856734712, -0.20809158377241, 0
2880, 0.74624503380588, -0.12937336075404, 0
2881, 0.74209729676119, -0.13851684670536, 0
2882, 0.72956579564246, -0.13338175890176, 0
2883, 0.73371353268712, -0.12423827295042, 0
2884, 0.73790541472419, -0.13137755982791, 0
2885, 0.26916124319684, 0.11397275891381, 0
2886, 0.2306808406083, 0.25796559004359, 0
2887, 0.7169264892787, -0.14933801083765, 0
2888, 0.70821607388924, -0.1639317165028, 0
2889, 0.70263583104167, -0.13948610409461, 0
2890, 0.70542595246546, -0.15170891029871, 0
2891, 0.26730702107931, 0.15695153534013, 0
2892, 0.28486742054266, 0.19777445940493, 0
2893, 0.080735481740268, 0.1669515159889, 0
2894, 0.8021295063398, -0.10471620865912, 0
2895, 0.77158243986081, -0.10617045466022, 0
2896, 0.78647104401226, -0.091112972890011, 0
2897, 0.78685597310015, -0.10544333165952, 0
2898, 0.50299111048233, -0.23997936529338, 0
2899, 0.47083348376316, -0.23734090828982, 0
2900, 0.48880509973103, -0.22350408878288, 0
2901, 0.48691229712274, -0.2386601367916, 0
2902, 0.49908489489319, -0.21255743353948, 0
2903, 0.49004227379575, -0.20185018659995, 0
2904, 0.48942368676339, -0.21267713769141, 0
2905, 0.24453816158045, 0.20690165058735, 0
2906, 0.26858579155035, 0.18543954054059, 0
2907, 0.2546417649608, 0.10941155869058, 0
2908, 0.82642552913727, -0.14985982413697, 0
2909, 0.82840816291358, -0.16923983148099, 0
2910, 0.2618288590679, -0.033237481454536, 0
2911, 0.24661817364387, -0.027567171155891, 0
2912, 0.2826096868185, -0.00069304374690164, 0
2913, 0.31094649924699, -0.058809700528904, 0
2914, 0.26579195115656, 0.010331161376078, 0
2915, 0.82097020431478, -0.11521915146384, 0
2916, 0.81870511924007, -0.099249633614483, 0
2917, 0.61667701402348, -0.17334393177026, 0
2918, 0.62190671107145, -0.15975107873102, 0
2919, 0.62605665193428, -0.17023649954882, 0
2920, 0.76085774374441, 0.19319823599915, 0
2921, 0.75111989974458, 0.17937302437206, 0
2922, 0.76207709135615, 0.17677999053276, 0
2923, 0.75877793260016, -0.077474759431401, 0
2924, 0.75314850289933, -0.076158681448508, 0
2925, 0.7152809036115, 0.25304160337697, 0
2926, 0.70086210737252, 0.25424215689283, 0
2927, 0.18600430407565, 0.15446661759401, 0
2928, 0.86323571280588, 0.1925476268806, 0
2929, 0.89075045774297, 0.21807635096161, 0
2930, 0.86566959448957, 0.21955692272196, 0
2931, 0.45462988481833, -0.21548541847876, 0
2932, 0.41517837224264, -0.17934716703474, 0
2933, 0.44667110840167, -0.17305110459193, 0
2934, 0.46260505920467, -0.17106266550148, 0
2935, 0.7111631080136, -0.18106982413643, 0
2936, 0.21287963616251, 0.020630994068222, 0
2937, 0.24037550235143, 0.025208150833891, 0
2938, 0.22727557414438, 0.023107392260146, 0
2939, 0.91758124847387, 0.2179971253005, 0
2940, 0.35521238025595, -0.25295680732944, 0
2941, 0.75140511011433, 0.047079192653719, 0
2942, 0.73451917018113, 0.03647369659503, 0
2943, 0.74296214014772, 0.041776444624362, 0
2944, 0.24232542870402, 0.10385139917337, 0
2945, 0.78516435295435, 0.091424592451969, 0
2946, 0.80496444034072, 0.096977414539276, 0
2947, 0.34184499642061, 0.24750960374419, 0
2948, 0.33896588045654, 0.25807877970678, 0
2949, 0.40868761323488, 0.26706358642765, 0
2950, 0.41143941391812, 0.27247121596462, 0
2951, 0.41755494485423, 0.27005889188543, 0
2952, 0.41312127904456, 0.26856123915654, 0
2953, 0.64135299160577, 0.25931715869982, 0
2954, 0.63599383870629, 0.26958610309643, 0
2955, 0.64417584516865, 0.2671767032137, 0
2956, 0.33105843276527, -0.15012119000795, 0
2957, 0.30464837069686, -0.22812581370198, 0
2958, 0.71099251591359, 0.10601205022134, 0
2959, 0.70440444838543, 0.1010967060557, 0
2960, 0.7056203070973, 0.10682027122784, 0
2961, 0.53993494860498, 0.27783855372684, 0
2962, 0.53422317419908, 0.27844109572159, 0
2963, 0.80280469863429, -0.018544326248738, 0
2964, 0.79150585011107, -0.031969080964525, 0
2965, 0.77581300899569, -0.019981325928328, 0
2966, 0.78711185751892, -0.0065565712125407, 0
2967, 0.78930885381499, -0.019262826088533, 0
2968, 0.30187771658191, -0.034251016518628, 0
2969, 0.31483194351089, -0.045356457060624, 0
2970, 0.64515941380588, 0.25168659767739, 0
2971, 0.64008186725912, 0.25376690059814, 0
2972, 0.51442137102964, 0.2823804507226, 0
2973, 0.51949903885218, 0.28118816946065, 0
2974, 0.48151882976935, -0.19611411976383, 0
2975, 0.47545216041591, -0.19403391172725, 0
2976, 0.32218332219757, -0.058066746709419, 0
2977, 0.66467470787179, -0.16381052605709, 0
2978, 0.65338262925747, -0.15334561976193, 0
2979, 0.6539852377358, -0.16474382499219, 0
2980, 0.30819973903153, 0.24034941540751, 0
2981, 0.30682105340649, 0.25261276573168, 0
2982, 0.66547689041236, 0.25003511891427, 0
2983, 0.66838933589002, 0.26023282824704, 0
2984, 0.28518703768909, -0.05747454407174, 0
2985, 0.33005521375843, -0.0953971038686, 0
2986, 0.2367895128827, -0.044994434333064, 0
2987, 0.31215112478038, -0.0487211626262, 0
2988, 0.32593635579041, -0.087396852235295, 0
2989, 0.37247827108486, 0.26656237892387, 0
2990, 0.3669059162735, 0.25523527390122, 0
2991, 0.36368262236489, 0.26463724050279, 0
2992, 0.77687117295856, 0.044760001346298, 0
2993, 0.76151853320615, 0.056450937640576, 0
2994, 0.77490133091053, 0.074143148744784, 0
2995, 0.77588625193455, 0.059451575045554, 0
2996, 0.77179125383412, 0.0040888386054362, 0
2997, 0.78358207584893, 0.019488637796587, 0
2998, 0.78534696668392, 0.0064660332920234, 0
2999, 0.60321836317525, 0.25484139956273, 0
3000, 0.60814134901581, 0.25795431152543, 0
3001, 0.61049035960898, 0.25206812245992, 0
3002, 0.60685436139211, 0.25345476101132, 0
3003, 0.20911340852333, 0.079261830904631, 0
3004, 0.23167115383931, 0.086553768756991, 0
3005, 0.22147887559527, 0.083514251325185, 0
3006, 0.76605006160038, 0.10221034635087, 0
3007, 0.75133008543273, 0.11475292131606, 0
3008, 0.76589511856081, 0.11709782706725, 0
3009, 0.23860436714351, 0.18305603095164, 0
3010, 0.21092628916279, 0.16374338622125, 0
3011, 0.26244819000711, 0.11334373686247, 0
3012, 0.71723337726967, 0.09705537402527, 0
3013, 0.71889032435829, 0.10502934927371, 0
3014, 0.82936443217456, 0.16476727042805, 0
3015, 0.85805880708351, 0.1633219330391, 0
3016, 0.54072913923865, -0.19302951914702, 0
3017, 0.53854712728883, -0.18674967351202, 0
3018, 0.5875484012083, 0.26288519417176, 0
3019, 0.58545716869724, 0.25838925077342, 0
3020, 0.69100873545118, -0.22184566471361, 0
3021, 0.47272112405278, -0.18200253118737, 0
3022, 0.44962775955707, -0.19268454697372, 0
3023, 0.3981639414271, -0.2151759366946, 0
3024, 0.50967299596613, -0.22276334631118, 0
3025, 0.5077109461395, -0.20126410441, 0
3026, 0.51829904721245, -0.21147001718171, 0
3027, 0.50869197105282, -0.21201372536059, 0
3028, 0.57580495961279, -0.24184456608771, 0
3029, 0.59227407231575, -0.23688656447215, 0
3030, 0.59882350441547, 0.26070521956305, 0
3031, 0.59838158916532, 0.2555059381667, 0
3032, 0.57411348021706, 0.27324773994663, 0
3033, 0.56858638074586, 0.26689333708189, 0
3034, 0.56461222181583, 0.27112594549077, 0
3035, 0.56936285101645, 0.2721868427187, 0
3036, 0.1928055159101, 0.01668079432117, 0
3037, 0.74978878644303, 0.21209829565289, 0
3038, 0.73763484381456, 0.20959503027597, 0
3039, 0.79494944628966, 0.034921096280943, 0
3040, 0.81352549450377, 0.038756427369976, 0
3041, 0.27374119072948, -0.03764999919357, 0
3042, 0.28363513411836, 0.0040329352047102, 0
3043, 0.29070521921388, 0.0034786664265603, 0
3044, 0.55136060016786, 0.27277677361653, 0
3045, 0.55330530708804, 0.26785354556147, 0
3046, 0.54632363937837, 0.27066200209583, 0
3047, 0.5498144732332, 0.26925777382865, 0
3048, 0.75101525757671, 0.24248617688884, 0
3049, 0.77028692318154, 0.21396548265471, 0
3050, 0.77246622450887, 0.23530711091611, 0
3051, 0.66956040129721, 0.24220154055141, 0
3052, 0.66425280106315, 0.24370518271696, 0
3053, 0.60947842092346, 0.26757384467357, 0
3054, 0.59280661152287, 0.27016305004268, 0
3055, 0.60114251622316, 0.26886844735812, 0
3056, 0.31999701544937, 0.23084644818088, 0
3057, 0.31076475132567, 0.23162718678853, 0
3058, 0.7243194789676, 0.19146267292304, 0
3059, 0.37423424701599, -0.15861438671949, 0
3060, 0.43755427427152, -0.17213170835623, 0
3061, 0.42811905173611, -0.16324765766126, 0
3062, 0.7514458512644, -0.1492682149302, 0
3063, 0.72838898741582, -0.15082040455807, 0
3064, 0.73991741934011, -0.15004430974414, 0
3065, 0.84114477435686, -0.129839380336, 0
3066, 0.82369786672604, -0.13253948780042, 0
3067, 0.52598907902901, -0.2003034301574, 0
3068, 0.54059822729598, -0.2132521287994, 0
3069, 0.52717424587267, -0.22067289782913, 0
3070, 0.52658166245084, -0.21048816399327, 0
3071, 0.3948870046608, -0.14241200426923, 0
3072, 0.34449740228111, -0.12725611452344, 0
3073, 0.29959358277438, -0.042417192014679, 0
3074, 0.28841544074807, -0.097110946683548, 0
3075, 0.58286174231104, 0.26818962798597, 0
3076, 0.57848761126405, 0.2707186839663, 0
3077, 0.73314808059413, 0.24776389013291, 0
3078, 0.78022662440381, 0.032124319571516, 0
3079, 0.24434630579159, 0.11871344285168, 0
3080, 0.19075747685054, 0.074772619630243, 0
3081, 0.41780428937867, -0.17221558481103, 0
3082, 0.30182617500597, -0.082305266661274, 0
3083, 0.33776657455231, -0.11563598328363, 0
3084, 0.82313161140832, -0.032652101449394, 0
3085, 0.82059266651738, -0.013807147243423, 0
3086, 0.74382991065583, -0.11534973388331, 0
3087, 0.72651012465851, -0.11695579006694, 0
3088, 0.73517001765716, -0.11615276197512, 0
3089, 0.45829250552521, -0.17576297179603, 0
3090, 0.2569312337039, 0.12719379523439, 0
3091, 0.70978247725276, 0.092028646121959, 0
3092, 0.7237587716098, 0.089267395492081, 0
3093, 0.71677062443128, 0.090648020807019, 0
3094, 0.74283035371928, 0.12981337599769, 0
3095, 0.74087323707739, 0.11778418029454, 0
3096, 0.55927989171554, 0.26962536075599, 0
3097, 0.55670169274846, 0.27739401432768, 0
3098, 0.56065695728215, 0.27425997990923, 0
3099, 0.58359065273129, -0.16569450000337, 0
3100, 0.58239653156711, -0.17249867551938, 0
3101, 0.57428949015758, -0.17096011873132, 0
3102, 0.57894007144444, -0.16832730936735, 0
3103, 0.26653248597442, 0.12605632342878, 0
3104, 0.33241329728618, -0.090865901463672, 0
3105, 0.35951110610374, -0.12465956651767, 0
3106, 0.41832154061776, -0.23707152856248, 0
3107, 0.4503497456293, -0.23262784764137, 0
3108, 0.43563350207629, -0.23617223967101, 0
3109, 0.69544450407341, 0.075003748113776, 0
3110, 0.69538432522628, 0.079817683827413, 0
3111, 0.63978775535746, -0.22738029100987, 0
3112, 0.40186380587624, 0.2678925915054, 0
3113, 0.40458782728215, 0.26397351281413, 0
3114, 0.61777590241612, 0.26744964084874, 0
3115, 0.6268848705612, 0.26851787197258, 0
3116, 0.696924593129, 0.07005320990045, 0
3117, 0.70300055323792, 0.067977348023971, 0
3118, 0.69914591866278, 0.065777368013236, 0
3119, 0.37036802613723, -0.13203707648836, 0
3120, 0.39893115702361, -0.2357016650365, 0
3121, 0.74220626189052, 0.14154543974235, 0
3122, 0.44038556521603, 0.28138038003393, 0
3123, 0.44542754201835, 0.28107441220869, 0
3124, 0.30937175212892, -0.0020006108468232, 0
3125, 0.43477664299705, 0.27975949933267, 0
3126, 0.74472530968558, -0.2173232154595, 0
3127, 0.24001765952695, 0.088821429027931, 0
3128, 0.33788011583814, 0.23980258706565, 0
3129, 0.34293942524392, 0.24107161685619, 0
3130, 0.31735881387883, -0.07024403231547, 0
3131, 0.37999736987496, 0.25846403891576, 0
3132, 0.38041711567976, 0.26803530403395, 0
3133, 0.51589792273617, -0.19453108735649, 0
3134, 0.52287762052497, -0.19312083665173, 0
3135, 0.70847268601696, 0.12264437637863, 0
3136, 0.26790959978182, 0.079021561900517, 0
3137, 0.77047569625545, 0.088176747547827, 0
3138, 0.27236086371251, -0.0059038485449276, 0
3139, 0.28031481413507, 0.014456860506205, 0
3140, 0.29699861889415, -0.0043477140112931, 0
3141, 0.2908423454098, -0.014728558873026, 0
3142, 0.6521841873406, -0.14746172111026, 0
3143, 0.58873442336943, -0.16331668006455, 0
3144, 0.59433586401838, -0.16156337540998, 0
3145, 0.58783417691696, 0.26917633901432, 0
3146, 0.62111700837876, -0.15362054571907, 0
3147, 0.39068077212077, -0.17273221530466, 0
3148, 0.28982884314692, -0.028780232011746, 0
3149, 0.17130228314962, 0.097768474693384, 0
3150, 0.27003123471619, 0.015879913091339, 0
3151, 0.80120047685361, -0.21382017816751, 0
3152, 0.70746519384583, -0.13079253361754, 0
3153, 0.70138446902519, -0.13248779626557, 0
3154, 0.31803052758081, -0.059064908553588, 0
3155, 0.39495613055786, -0.14573889329037, 0
3156, 0.60407558324715, -0.14701206315608, 0
3157, 0.5017627074527, -0.1937764927269, 0
3158, 0.50883031509443, -0.1941537900417, 0
3159, 0.21601406859178, -0.037489708448486, 0
3160, 0.23048385903533, -0.033528866048019, 0
3161, 0.27018733771264, 0.13866935397389, 0
3162, 0.24722515493838, 0.098170897097415, 0
3163, 0.56856541153789, 0.26237675711847, 0
3164, 0.73595218741634, 0.022527260868458, 0
3165, 0.73939043979663, 0.016694206702468, 0
3166, 0.23397187273358, 0.068208559501301, 0
3167, 0.47331308181793, -0.177764109303, 0
3168, 0.44235465270959, -0.17279551044471, 0
3169, 0.76669284993482, -0.013686272347608, 0
3170, 0.76846961763973, -0.022018835912038, 0
3171, 0.71026786213545, 0.13883120082225, 0
3172, 0.6699571522901, -0.14941747182863, 0
3173, 0.67510289136528, -0.16028684137438, 0
3174, 0.80180289177359, -0.046925019278818, 0
3175, 0.819457957069, -0.050534765399963, 0
3176, 0.71280160028034, 0.20442196643547, 0
3177, 0.63615611791085, -0.15004322493731, 0
3178, 0.49526891500001, -0.19417520494129, 0
3179, 0.48839387238468, -0.19514466235256, 0
3180, 0.37080096465498, 0.25061972396535, 0
3181, 0.37256471478907, 0.24568477997082, 0
3182, 0.35360305107858, -0.14258761970652, 0
3183, 0.70424331824261, 0.095214034038356, 0
3184, 0.70468177893548, 0.09022939911039, 0
3185, 0.55716767689609, 0.26600599104611, 0
3186, 0.3611003551787, 0.24877481180686, 0
3187, 0.35636021294252, 0.24635273749664, 0
3188, 0.54736989933547, -0.19772634799463, 0
3189, 0.55729929905185, -0.21615716647049, 0
3190, 0.54413641086443, -0.22304110646056, 0
3191, 0.54642759713132, -0.23424483463138, 0
3192, 0.68206597259469, 0.23610519536507, 0
3193, 0.68967100179899, 0.22456501682108, 0
3194, 0.68586848719684, 0.23033510609308, 0
3195, 0.68501139790731, -0.13774678237157, 0
3196, 0.54534179902085, 0.27905551940104, 0
3197, 0.54312929399167, 0.27425027791134, 0
3198, 0.71069803812659, 0.15571292805725, 0
3199, 0.70557030063621, 0.19062329039198, 0
3200, 0.40528964378329, -0.17325343278243, 0
3201, 0.46496989826372, -0.17826445682528, 0
3202, 0.75819590203425, -0.11484712916029, 0
3203, 0.74945549937787, -0.10091457076165, 0
3204, 0.7605189696193, -0.1035425127109, 0
3205, 0.32882129301104, -0.083492084170337, 0
3206, 0.30953977142019, -0.062975548909528, 0
3207, 0.31322269315234, -0.17140500336585, 0
3208, 0.28591464853513, 0.022011174376282, 0
3209, 0.28305439050602, 0.026585770313502, 0
3210, 0.7325305339395, 0.028612518404952, 0
3211, 0.72909707751186, 0.034569500814703, 0
3212, 0.752771466302, 0.0045006935642116, 0
3213, 0.74755532321591, 0.001597854091847, 0
3214, 0.7096418181517, 0.17353095464841, 0
3215, 0.38351546425705, 0.2536309323197, 0
3216, 0.77204327915263, -0.050895729009833, 0
3217, 0.77052996850996, -0.058306517258161, 0
3218, 0.26471484230033, 0.12276019607584, 0
3219, 0.60748202583706, -0.17497581914695, 0
3220, 0.77870387935384, -0.041411466829798, 0
3221, 0.77155937826388, -0.043348346138669, 0
3222, 0.719365082798, -0.12157392954008, 0
3223, 0.71810329750534, -0.13189936518134, 0
3224, 0.71341513832191, -0.12618323157881, 0
3225, 0.26682191475785, 0.12344865873501, 0
3226, 0.71619384161805, 0.056104013133705, 0
3227, 0.71974264857086, 0.050309480112254, 0
3228, 0.61643883050848, 0.25783010770059, 0
3229, 0.61468557134275, 0.25242593723196, 0
3230, 0.77407812615593, -0.08020661053752, 0
3231, 0.78679006314064, -0.078389672257078, 0
3232, 0.71617642064912, 0.067925033111437, 0
3233, 0.71233519185804, 0.061857228680155, 0
3234, 0.70958848694352, 0.067951190567703, 0
3235, 0.67581318694595, 0.23915336795824, 0
3236, 0.50958143266869, 0.28197065258993, 0
3237, 0.28498658761479, 0.0082494230480196, 0
3238, 0.66870089521014, -0.14343391817533, 0
3239, 0.76642802937792, -0.078840684984348, 0
3240, 0.55766820565642, -0.18858136192359, 0
3241, 0.55498803538664, -0.18177108153187, 0
3242, 0.53746665504383, -0.20505066945015, 0
3243, 0.62774910066945, 0.24872049103208, 0
3244, 0.32658573693745, 0.23356587785009, 0
3245, 0.3322329263878, 0.23668423245787, 0
3246, 0.72971162549141, 0.076499309773087, 0
3247, 0.72294402307027, 0.072212171442262, 0
3248, 0.73345979027686, 0.087029915552006, 0
3249, 0.35301307732852, -0.13492440887894, 0
3250, 0.30052195447773, 0.21337153353561, 0
3251, 0.30431761017411, 0.2167047936618, 0
3252, 0.86382801944912, -0.12272697459508, 0
3253, 0.74373953122529, -0.096979361185066, 0
3254, 0.40715052829941, 0.27755710574051, 0
3255, 0.4205211739991, 0.27806580593146, 0
3256, 0.41383585114926, 0.27781145583599, 0
3257, 0.39969395266723, -0.18077381505536, 0
3258, 0.74167077992447, 0.17701384918511, 0
3259, 0.40046000754332, 0.27435334223122, 0
3260, 0.79025338556372, -0.044168243054308, 0
3261, 0.1954281547171, -0.041815023829998, 0
3262, 0.53726679408451, -0.2363476940528, 0
3263, 0.5156794511743, -0.24606567866697, 0
3264, 0.53075953569608, -0.24779556192114, 0
3265, 0.76061102518435, -0.12887075603106, 0
3266, 0.76291842576998, -0.14435026976808, 0
3267, 0.80881119484715, 0.14746339583319, 0
3268, 0.79278991347979, 0.14758210389776, 0
3269, 0.57293796229282, -0.18246274476913, 0
3270, 0.57034157192937, -0.17520539544313, 0
3271, 0.65009773833438, 0.24928171751313, 0
3272, 0.52236133665811, -0.22884965968477, 0
3273, 0.51267622357022, -0.23441451248907, 0
3274, 0.58240888451277, -0.18039466707431, 0
3275, 0.76473811956411, -0.0052223390930664, 0
3276, 0.76228136006799, 0.0042947660847454, 0
3277, 0.69239517489506, 0.21962512951982, 0
3278, 0.28888992786566, 0.20030583223771, 0
3279, 0.29130499932902, 0.25008959215716, 0
3280, 0.55102174588465, 0.27822476686436, 0
3281, 0.81194801489172, 0.17324625669215, 0
3282, 0.33457013980295, -0.12478196934418, 0
3283, 0.42150094856017, 0.27324090845554, 0
3284, 0.75050850795997, 0.058765836656534, 0
3285, 0.72324614246058, -0.14135988486971, 0
3286, 0.53222051997859, -0.22851029594097, 0
3287, 0.76557233346296, 0.20358185932692, 0
3288, 0.3348526073448, -0.10981076788365, 0
3289, 0.25085208916496, 0.029853551146746, 0
3290, 0.36595065991684, 0.2496972678861, 0
3291, 0.33901810126708, -0.10120442258863, 0
3292, 0.28807222386847, 0.20732817839264, 0
3293, 0.32495015913733, 0.22815891305378, 0
3294, 0.55361559740297, -0.20424384145774, 0
3295, 0.29801746211212, 0.20866387358306, 0
3296, 0.72096008830756, -0.11542741569914, 0
3297, 0.75222046792009, -0.12211024495718, 0
3298, 0.61295862571596, 0.26270197618708, 0
3299, 0.71118627920494, 0.057785428054421, 0
3300, 0.49836003812385, -0.19000938433268, 0
3301, 0.4550386845329, -0.18234803901892, 0
3302, 0.73114406964929, 0.024161966886035, 0
3303, 0.45697356813661, -0.17282953853252, 0
3304, 0.70114535836261, 0.0982647372849, 0
3305, 0.58495298388644, -0.16123596017196, 0
3306, 0.28955185068966, 0.019166245830915, 0
3307, 0.46068234230944, -0.22502830072458, 0
3308, 0.76117537177699, -0.010399645110935, 0
3309, 0.69344283947835, 0.072079638116266, 0
3310, 0.32407844916856, -0.068552336568727, 0
3311, 0.39127709239762, 0.26771145963682, 0
3312, 0.69887590558508, 0.23652859548597, 0
3313, 0.62050948422355, 0.24981350025842, 0
3314, 0.4779293103542, 0.27817400663325, 0
3315, 0.35435030945164, -0.12793375029895, 0
3316, 0.56294607076083, -0.1774939283532, 0
3317, 0.72708646770633, 0.22586818764161, 0
3318, 0.37829781939545, 0.24840602086579, 0
3319, 0.56630808475276, 0.27932291812741, 0
3320, 0.29470930899934, -0.046905671831117, 0
3321, 0.25904426005205, 0.15379544040707, 0
3322, 0.23298813486095, 0.11365022051625, 0
3323, 0.42815252360581, 0.27542221499734, 0
3324, 0.81102097330303, 0.010903577128126, 0
3325, 0.66359034813279, -0.2178810702223, 0
3326, 0.68155702592383, 0.25317479106253, 0
3327, 0.71643425236644, -0.21233802608147, 0
3328, 0.46859934358856, -0.1801987490617, 0
3329, 0.77119070991797, -0.20798840422349, 0
3330, 0.68863524722096, -0.15154024791093, 0
3331, 0.35257926132911, 0.25806332943965, 0
3332, 0.36482068139632, -0.15868884416049, 0
3333, 0.22696512590503, 0.04707225532743, 0
3334, 0.61401778782481, -0.22476288804255, 0
3335, 0.32642059400313, 0.25050587113739, 0
3336, 0.58369870460401, 0.27703817465703, 0
3337, 0.74951991810204, 0.08005793963833, 0
3338, 0.52621721956069, 0.27775975487008, 0
3339, 0.21676165913512, 0.047218891296817, 0
3340, 0.63046000309795, 0.25710884660074, 0
3341, 0.81057544567353, -0.076090093030821, 0
3342, 0.65462834286078, 0.26032196404008, 0
3343, 0.20102352810005, -0.010309037918879, 0
3344, 0.29778612916403, -0.09571480976428, 0
3345, 0.63859281466111, -0.16285851824488, 0
3346, 0.79383461141256, 0.12459556579967, 0
3347, 0.59131460158151, 0.25495662784286, 0
3348, 0.35042459133821, 0.24125894517026, 0
3349, 0.80315115530658, 0.065021222130517, 0
3350, 0.25276930733966, 0.1152464617843, 0
3351, 0.32606145948607, -0.12077802010181, 0
3352, 0.70630480041613, 0.18231033816817, 0
3353, 0.83126665103407, -0.20453755934135, 0
3354, 0.85113354589923, -0.092238291274368, 0
3355, 0.30759336241455, 0.0092588324533008, 0
3356, 0.72330334874857, 0.20430625854765, 0
3357, 0.54487152126701, -0.18091499078741, 0
3358, 0.73603868049502, -0.10440850290059, 0
3359, 0.53084552541411, -0.18842667269901, 0
3360, 0.59785520034238, -0.14708654619995, 0
3361, 0.59489539259282, -0.17437566570475, 0
3362, 0.31311062741203, -0.068987084943226, 0
3363, 0.29228478327276, 0.010763862891891, 0
3364, 0.71387253084277, 0.19344240282509, 0
3365, 0.31871562734925, -0.045678842537671, 0
3366, 0.39947151176671, 0.25853232390066, 0
3367, 0.65626440068788, 0.24424667966814, 0
3368, 0.67639906139073, -0.1385914614117, 0
3369, 0.28291231423669, 0.20540738638631, 0
3370, 0.69262534806914, -0.13289289639856, 0
3371, 0.72272882222083, 0.041698074913129, 0
3372, 0.70820602966096, 0.21273271777308, 0
3373, 0.78445791262704, -0.060785835324817, 0
3374, 0.30821271620818, 0.0055449867456206, 0
3375, 0.27543904934494, 0.064710953172905, 0
3376, 0.27214942468269, -0.012587644130173, 0
3377, 0.70780207747251, 0.13084945479227, 0
3378, 0.66008950836624, -0.14398991597725, 0
3379, 0.70890309716015, 0.14724241176803, 0
3380, 0.7086348831607, 0.16436656747886, 0
3381, 0.39617329391909, -0.15511664373657, 0
3382, 0.73828747169963, 0.19435825120321, 0
3383, 0.25840258572443, 0.14285372798677, 0
3384, 0.26523725551098, 0.13530877875027, 0
3385, 0.31733333413902, -0.066244898576742, 0
3386, 0.62823124896615, -0.14962449099337, 0
3387, 0.61339592808143, -0.15367959811157, 0
3388, 0.70541471394789, 0.1149397265702, 0
3389, 0.76813051335824, -0.033502184851436, 0
3390, 0.74197719839769, 0.0080966274095625, 0
3391, 0.30966781619221, -0.045565328486883, 0
3392, 0.64363441409302, -0.14674724967566, 0
3393, 0.71525681324543, 0.081121739696734, 0
3394, 0.76612648402209, -0.068085047691029, 0
3395, 0.45453051340226, -0.20082986934781, 0
3396, 0.26761228113963, 0.044585896312917, 0
3397, 0.23867171455563, 0.22236315598342, 0
3398, 0.23022992719158, 0.13201848625023, 0
3399, 0.26177125767767, 0.0031883105382732, 0
3400, 0.56236846857789, 0.26225836894815, 0
3401, 0.73844534944688, 0.15756474077251, 0
3402, 0.76096460109236, -0.088868259775172, 0
3403, 0.7343040694336, 0.10245405141613, 0
3404, 0.35065821425976, -0.12453208387724, 0
3405, 0.31199650611726, 0.22075155503722, 0
3406, 0.30709118965194, -0.042103811754404, 0
3407, 0.27274928880057, -0.13840826315913, 0
3408, 0.24170716715274, -0.083564153799656, 0
3409, 0.36401464166, -0.14031488214811, 0
3410, 0.4265751447857, -0.16901232228298, 0
3411, 0.39922378491772, -0.15081033852283, 0
3412, 0.34581903512585, -0.11000778223836, 0
3413, 0.25141294066413, 0.17950675902284, 0
3414, 0.21005187718509, 0.06678617236109, 0
3415, 0.1750909499975, 0.042420759534531, 0
******* E L E M E N T S *************
*ELEMENT, type=CPS4, ELSET=Surface1
1, 19, 12, 1450, 1447
2, 1447, 1450, 1448, 532
3, 1450, 1449, 533, 1448
4, 12, 20, 1449, 1450
5, 603, 1453, 1454, 1451
6, 1451, 1454, 1452, 598
7, 1454, 50, 61, 1452
8, 1453, 60, 50, 1454
9, 150, 140, 1458, 1455
10, 1455, 1458, 1456, 556
11, 1458, 1457, 560, 1456
12, 140, 151, 1457, 1458
13, 607, 1461, 1462, 1459
14, 1459, 1462, 37, 45
15, 1462, 1460, 44, 37
16, 1461, 606, 1460, 1462
17, 560, 1457, 1465, 1463
18, 1463, 1465, 1464, 559
19, 1465, 141, 152, 1464
20, 1457, 151, 141, 1465
21, 539, 1468, 1469, 1466
22, 1466, 1469, 1467, 554
23, 1469, 137, 148, 1467
24, 1468, 147, 137, 1469
25, 152, 142, 1472, 1464
26, 1464, 1472, 1470, 559
27, 1472, 1471, 558, 1470
28, 142, 153, 1471, 1472
29, 608, 1474, 1475, 1473
30, 1473, 1475, 1453, 603
31, 1475, 49, 60, 1453
32, 1474, 59, 49, 1475
33, 497, 188, 1479, 1476
34, 1476, 1479, 1477, 1126
35, 1479, 1478, 1129, 1477
36, 188, 496, 1478, 1479
37, 548, 1482, 1483, 1480
38, 1480, 1483, 97, 108
39, 1483, 1481, 107, 97
40, 1482, 547, 1481, 1483
41, 402, 283, 1487, 1484
42, 1484, 1487, 1485, 656
43, 1487, 1486, 655, 1485
44, 283, 401, 1486, 1487
45, 9, 342, 1491, 1488
46, 1488, 1491, 1489, 536
47, 1491, 1490, 969, 1489
48, 342, 528, 1490, 1491
49, 1405, 1830, 3130, 3362
50, 852, 1695, 2455, 3041
51, 3140, 1544, 2822, 1360
52, 20, 13, 1497, 1449
53, 1449, 1497, 1495, 533
54, 1497, 1496, 534, 1495
55, 13, 21, 1496, 1497
56, 1621, 1587, 768, 765
57, 1593, 2295, 767, 3155
58, 3155, 767, 826, 2782
59, 65, 55, 1503, 1500
60, 1500, 1503, 1501, 594
61, 1503, 1502, 563, 1501
62, 55, 66, 1502, 1503
63, 380, 305, 1506, 1504
64, 1504, 1506, 1430, 908
65, 1506, 1505, 909, 1430
66, 305, 379, 1505, 1506
67, 554, 1467, 1509, 1507
68, 1507, 1509, 1508, 555
69, 1509, 138, 149, 1508
70, 1467, 148, 138, 1509
71, 373, 312, 1513, 1510
72, 1510, 1513, 1511, 915
73, 1513, 1512, 891, 1511
74, 312, 372, 1512, 1513
75, 969, 1490, 1516, 1514
76, 1514, 1516, 1515, 968
77, 1516, 157, 527, 1515
78, 1490, 528, 157, 1516
79, 1585, 2668, 2059, 2354
80, 1958, 1530, 2514, 2574
81, 681, 1358, 2202, 2701
82, 1517, 1518, 677, 2871
83, 62, 52, 1524, 1521
84, 1521, 1524, 1522, 597
85, 1524, 1523, 595, 1522
86, 52, 63, 1523, 1524
87, 1075, 1527, 1528, 1525
88, 1525, 1528, 1526, 1078
89, 1528, 197, 487, 1526
90, 1527, 488, 197, 1528
91, 2516, 1772, 1518, 1517
92, 1421, 724, 2763, 2761
93, 1955, 2384, 679, 1957
94, 2406, 2405, 2688, 2384
95, 42, 1534, 1535, 34
96, 34, 1535, 1532, 41
97, 1535, 1533, 601, 1532
98, 1534, 604, 1533, 1535
99, 798, 780, 795, 3207
100, 3023, 2414, 2265, 3120
101, 1702, 1739, 2591, 2957
102, 1123, 1540, 1541, 1538
103, 1538, 1541, 1539, 1125
104, 1541, 184, 500, 1539
105, 1540, 501, 184, 1541
106, 753, 2652, 238, 446
107, 2652, 844, 447, 238
108, 2257, 833, 1830, 1405
109, 2325, 1325, 743, 2911
110, 899, 1548, 1549, 1546
111, 1546, 1549, 1547, 902
112, 1549, 302, 382, 1547
113, 1548, 383, 302, 1549
114, 375, 310, 1553, 1550
115, 1550, 1553, 1551, 918
116, 1553, 1552, 916, 1551
117, 310, 374, 1552, 1553
118, 584, 1556, 1557, 1554
119, 1554, 1557, 1555, 583
120, 1557, 335, 349, 1555
121, 1556, 350, 335, 1557
122, 3119, 1862, 462, 223
123, 3332, 3059, 797, 2511
124, 787, 216, 468, 1620
125, 1127, 1562, 1563, 1561
126, 1561, 1563, 1476, 1126
127, 1563, 187, 497, 1476
128, 1562, 498, 187, 1563
129, 902, 1547, 1566, 1564
130, 1564, 1566, 1565, 901
131, 1566, 303, 381, 1565
132, 1547, 382, 303, 1566
133, 525, 160, 1570, 1567
134, 1567, 1570, 1568, 972
135, 1570, 1569, 974, 1568
136, 160, 524, 1569, 1570
137, 153, 143, 1573, 1471
138, 1471, 1573, 1571, 558
139, 1573, 1572, 557, 1571
140, 143, 154, 1572, 1573
141, 2414, 2231, 2319, 2265
142, 785, 3409, 800, 3182
143, 1589, 2877, 2975, 814
144, 3022, 2380, 1214, 1942
145, 495, 190, 1579, 1576
146, 1576, 1579, 1577, 1128
147, 1579, 1578, 1066, 1577
148, 190, 494, 1578, 1579
149, 353, 332, 1583, 1580
150, 1580, 1583, 1581, 589
151, 1583, 1582, 588, 1581
152, 332, 352, 1582, 1583
153, 679, 1584, 255, 429
154, 724, 2549, 2626, 2763
155, 722, 435, 250, 1618
156, 1735, 3375, 1958, 2540
157, 780, 1575, 2956, 795
158, 2230, 812, 1225, 766
159, 2319, 2940, 1560, 2265
160, 1907, 3201, 815, 2415
161, 3081, 756, 3410, 1659
162, 2931, 3307, 2875, 2854
163, 3168, 2933, 1768, 2337
164, 2264, 3328, 3201, 1907
165, 916, 1552, 1592, 1591
166, 1591, 1592, 1510, 915
167, 1592, 311, 373, 1510
168, 1552, 374, 311, 1592
169, 1289, 467, 218, 2295
170, 1765, 2401, 2414, 3023
171, 1671, 1674, 793, 3167
172, 605, 1596, 1597, 1595
173, 1595, 1597, 1460, 606
174, 1597, 36, 44, 1460
175, 1596, 43, 36, 1597
176, 61, 51, 1599, 1452
177, 1452, 1599, 1598, 598
178, 1599, 1521, 597, 1598
179, 51, 62, 1521, 1599
180, 408, 277, 1603, 1600
181, 1600, 1603, 1601, 629
182, 1603, 1602, 628, 1601
183, 277, 407, 1602, 1603
184, 1320, 2957, 796, 801
185, 3257, 3200, 1574, 3147
186, 1537, 776, 1644, 1702
187, 2853, 1443, 1586, 1575
188, 43, 1596, 1607, 35
189, 35, 1607, 1534, 42
190, 1607, 1606, 604, 1534
191, 1596, 605, 1606, 1607
192, 407, 278, 1610, 1602
193, 1602, 1610, 1608, 628
194, 1610, 1609, 627, 1608
195, 278, 406, 1609, 1610
196, 406, 279, 1613, 1609
197, 1609, 1613, 1611, 627
198, 1613, 1612, 638, 1611
199, 279, 405, 1612, 1613
200, 526, 159, 1616, 1614
201, 1614, 1616, 1615, 970
202, 1616, 1567, 972, 1615
203, 159, 525, 1567, 1616
204, 1420, 713, 724, 1421
205, 3375, 2871, 1530, 1958
206, 680, 1771, 2513, 2355
207, 2743, 1517, 2871, 3375
208, 2781, 2294, 2856, 772
209, 2957, 2591, 535, 796
210, 1376, 3108, 3107, 2504
211, 1215, 2252, 2876, 2933
212, 1073, 1624, 1625, 1622
213, 1622, 1625, 1623, 1074
214, 1625, 195, 489, 1623
215, 1624, 490, 195, 1625
216, 109, 1627, 1628, 98
217, 98, 1628, 1480, 108
218, 1628, 1626, 548, 1480
219, 1627, 550, 1626, 1628
220, 1056, 1631, 1632, 1629
221, 1629, 1632, 1630, 1055
222, 1632, 162, 522, 1630
223, 1631, 523, 162, 1632
224, 1069, 1634, 1635, 1633
225, 1633, 1635, 1624, 1073
226, 1635, 194, 490, 1624
227, 1634, 491, 194, 1635
228, 3207, 795, 1741, 784
229, 1537, 1702, 2957, 1320
230, 2456, 3119, 223, 461
231, 81, 70, 1641, 1638
232, 1638, 1641, 1639, 565
233, 1641, 1640, 564, 1639
234, 70, 82, 1640, 1641
235, 2475, 225, 459, 777
236, 2390, 790, 803, 3059
237, 1645, 1287, 1321, 1833
238, 974, 1569, 1647, 1646
239, 1646, 1647, 1631, 1056
240, 1647, 161, 523, 1631
241, 1569, 524, 161, 1647
242, 411, 274, 1651, 1648
243, 1648, 1651, 1649, 673
244, 1651, 1650, 672, 1649
245, 274, 410, 1650, 1651
246, 670, 1653, 1654, 1652
247, 1652, 1654, 1648, 673
248, 1654, 273, 411, 1648
249, 1653, 412, 273, 1654
250, 535, 1656, 1657, 1655
251, 1655, 1657, 14, 22
252, 1657, 1496, 21, 14
253, 1656, 534, 1496, 1657
254, 2933, 2876, 2335, 1768
255, 788, 1907, 2415, 1658
256, 1418, 3106, 3108, 1376
257, 766, 1225, 2934, 759
258, 3328, 2230, 766, 3201
259, 3410, 1943, 1226, 3061
260, 759, 2934, 1536, 2433
261, 812, 209, 475, 1225
262, 587, 1663, 1664, 1662
263, 1662, 1664, 1580, 589
264, 1664, 331, 353, 1580
265, 1663, 354, 331, 1664
266, 1066, 1578, 1667, 1665
267, 1665, 1667, 1666, 1068
268, 1667, 191, 493, 1666
269, 1578, 494, 191, 1667
270, 492, 193, 1670, 1668
271, 1668, 1670, 1669, 1070
272, 1670, 1634, 1069, 1669
273, 193, 491, 1634, 1670
274, 805, 1673, 1674, 1671
275, 1587, 789, 2313, 787
276, 2311, 763, 3168, 3060
277, 1673, 477, 208, 1674
278, 352, 333, 1677, 1582
279, 1582, 1677, 1675, 588
280, 1677, 1676, 585, 1675
281, 333, 351, 1676, 1677
282, 1120, 1680, 1681, 1678
283, 1678, 1681, 1679, 1121
284, 1681, 182, 502, 1679
285, 1680, 503, 182, 1681
286, 111, 1684, 1685, 100
287, 100, 1685, 1682, 110
288, 1685, 1683, 549, 1682
289, 1684, 553, 1683, 1685
290, 919, 1688, 1689, 1686
291, 1686, 1689, 1687, 917
292, 1689, 308, 376, 1687
293, 1688, 377, 308, 1689
294, 499, 186, 1692, 1690
295, 1690, 1692, 1691, 1124
296, 1692, 1562, 1127, 1691
297, 186, 498, 1562, 1692
298, 755, 2776, 2872, 825
299, 2474, 3154, 1693, 2613
300, 1871, 1405, 3362, 2581
301, 2582, 3073, 1696, 2968
302, 647, 1699, 1700, 1697
303, 1697, 1700, 1698, 646
304, 1700, 289, 395, 1698
305, 1699, 396, 289, 1700
306, 834, 2344, 2293, 2528
307, 2856, 1593, 3155, 2752
308, 3351, 2632, 2476, 1643
309, 505, 180, 1707, 1704
310, 1704, 1707, 1705, 1064
311, 1707, 1706, 1065, 1705
312, 180, 504, 1706, 1707
313, 3205, 231, 453, 2023
314, 1324, 3306, 3208, 859
315, 2859, 816, 844, 2652
316, 825, 2872, 2616, 784
317, 398, 287, 1715, 1712
318, 1712, 1715, 1713, 648
319, 1715, 1714, 649, 1713
320, 287, 397, 1714, 1715
321, 482, 203, 1719, 1716
322, 1716, 1719, 1717, 1095
323, 1719, 1718, 1098, 1717
324, 203, 481, 1718, 1719
325, 487, 198, 1722, 1526
326, 1526, 1722, 1720, 1078
327, 1722, 1721, 1087, 1720
328, 198, 486, 1721, 1722
329, 900, 1724, 1725, 1723
330, 1723, 1725, 1548, 899
331, 1725, 301, 383, 1548
332, 1724, 384, 301, 1725
333, 912, 1727, 1728, 1726
334, 1726, 1728, 1688, 919
335, 1728, 307, 377, 1688
336, 1727, 378, 307, 1728
337, 660, 1731, 1732, 1729
338, 1729, 1732, 1730, 659
339, 1732, 268, 416, 1730
340, 1731, 417, 268, 1732
341, 2699, 3150, 858, 2742
342, 1358, 436, 249, 2202
343, 404, 281, 1738, 1736
344, 1736, 1738, 1182, 642
345, 1738, 1737, 641, 1182
346, 281, 403, 1737, 1738
347, 3082, 2216, 2218, 2215
348, 3320, 2528, 2717, 3073
349, 896, 1745, 1746, 1743
350, 1743, 1746, 1744, 897
351, 1746, 298, 386, 1744
352, 1745, 387, 298, 1746
353, 555, 1508, 1748, 1747
354, 1747, 1748, 1455, 556
355, 1748, 139, 150, 1455
356, 1508, 149, 139, 1748
357, 531, 1750, 1751, 1749
358, 1749, 1751, 1447, 532
359, 1751, 11, 19, 1447
360, 1750, 18, 11, 1751
361, 547, 1753, 1754, 1481
362, 1481, 1754, 96, 107
363, 1754, 1752, 106, 96
364, 1753, 574, 1752, 1754
365, 3148, 2510, 2208, 2692
366, 2216, 1899, 2257, 2218
367, 854, 1642, 1855, 845
368, 2220, 2775, 2910, 750
369, 669, 1759, 1760, 1758
370, 1758, 1760, 1653, 670
371, 1760, 272, 412, 1653
372, 1759, 413, 272, 1760
373, 133, 122, 1764, 1761
374, 1761, 1764, 1762, 540
375, 1764, 1763, 542, 1762
376, 122, 134, 1763, 1764
377, 787, 2313, 469, 216
378, 1559, 811, 1589, 1416
379, 756, 813, 1943, 3410
380, 1214, 3301, 2252, 1215
381, 1374, 2752, 824, 2646
382, 1767, 1769, 15, 23
383, 1769, 1655, 22, 15
384, 1588, 786, 1375, 2352
385, 1772, 687, 1391, 1518
386, 2871, 677, 1529, 1530
387, 2574, 2514, 432, 253
388, 2701, 2202, 722, 2870
389, 410, 275, 1775, 1650
390, 1650, 1775, 1773, 672
391, 1775, 1774, 630, 1773
392, 275, 409, 1774, 1775
393, 807, 1778, 1779, 1776
394, 1776, 1779, 1777, 806
395, 1779, 206, 478, 1777
396, 1778, 479, 206, 1779
397, 1046, 1782, 1783, 1780
398, 1780, 1783, 1781, 1028
399, 1783, 166, 518, 1781
400, 1782, 519, 166, 1783
401, 1834, 1605, 1175, 1701
402, 770, 2855, 1856, 2653
403, 1854, 1643, 764, 1703
404, 889, 1788, 1789, 1786
405, 1786, 1789, 1787, 879
406, 1789, 315, 369, 1787
407, 1788, 370, 315, 1789
408, 379, 306, 1791, 1505
409, 1505, 1791, 1790, 909
410, 1791, 1727, 912, 1790
411, 306, 378, 1727, 1791
412, 586, 1793, 1794, 1792
413, 1792, 1794, 1663, 587
414, 1794, 330, 354, 1663
415, 1793, 355, 330, 1794
416, 496, 189, 1796, 1478
417, 1478, 1796, 1795, 1129
418, 1796, 1576, 1128, 1795
419, 189, 495, 1576, 1796
420, 576, 1799, 1800, 1797
421, 1797, 1800, 93, 104
422, 1800, 1798, 103, 93
423, 1799, 577, 1798, 1800
424, 444, 241, 2055, 2207
425, 1801, 1804, 1802, 691
426, 1804, 245, 439, 1802
427, 2544, 2088, 836, 820
428, 712, 1420, 2700, 1357
429, 2549, 2406, 2628, 2626
430, 2324, 3396, 1806, 1619
431, 1619, 723, 2744, 2204
432, 357, 328, 1810, 1807
433, 1807, 1810, 1808, 937
434, 1810, 1809, 580, 1808
435, 328, 356, 1809, 1810
436, 45, 38, 1813, 1459
437, 1459, 1813, 1811, 607
438, 1813, 1812, 609, 1811
439, 38, 46, 1812, 1813
440, 573, 1816, 1817, 1814
441, 1814, 1817, 77, 89
442, 1817, 1815, 88, 77
443, 1816, 572, 1815, 1817
444, 439, 246, 1820, 1802
445, 1802, 1820, 1818, 691
446, 1820, 1819, 690, 1818
447, 246, 438, 1819, 1820
448, 31, 1823, 1824, 27
449, 27, 1824, 1821, 30
450, 1824, 1822, 600, 1821
451, 1823, 599, 1822, 1824
452, 1074, 1623, 1826, 1825
453, 1825, 1826, 1527, 1075
454, 1826, 196, 488, 1527
455, 1623, 489, 196, 1826
456, 155, 145, 1828, 1827
457, 1827, 1828, 1750, 531
458, 1828, 10, 18, 1750
459, 145, 1, 10, 1828
460, 2581, 3362, 1266, 3206
461, 3074, 3344, 2696, 754
462, 835, 452, 233, 3310
463, 1189, 1863, 2258, 2645
464, 1068, 1666, 1831, 1314
465, 1314, 1831, 1668, 1070
466, 1831, 192, 492, 1668
467, 1666, 493, 192, 1831
468, 790, 2459, 2333, 803
469, 1299, 1323, 838, 1870
470, 2206, 2220, 750, 2986
471, 901, 1565, 1836, 1835
472, 1835, 1836, 1504, 908
473, 1836, 304, 380, 1504
474, 1565, 381, 304, 1836
475, 1028, 1781, 1839, 1837
476, 1837, 1839, 1838, 1031
477, 1839, 167, 517, 1838
478, 1781, 518, 167, 1839
479, 372, 313, 1841, 1512
480, 1512, 1841, 1168, 891
481, 1841, 1840, 892, 1168
482, 313, 371, 1840, 1841
483, 580, 1809, 1843, 1842
484, 1842, 1843, 1793, 586
485, 1843, 329, 355, 1793
486, 1809, 356, 329, 1843
487, 385, 300, 1845, 1844
488, 1844, 1845, 1247, 898
489, 1845, 1724, 900, 1247
490, 300, 384, 1724, 1845
491, 485, 200, 1849, 1846
492, 1846, 1849, 1847, 1090
493, 1849, 1848, 1089, 1847
494, 200, 484, 1848, 1849
495, 2437, 3161, 423, 262
496, 2011, 1852, 2648, 2658
497, 1906, 3072, 778, 3282
498, 2250, 2647, 220, 464
499, 3412, 227, 457, 1856
500, 3291, 2653, 228, 456
501, 1088, 1858, 1859, 1857
502, 1857, 1859, 1716, 1095
503, 1859, 202, 482, 1716
504, 1858, 483, 202, 1859
505, 484, 201, 1861, 1848
506, 1848, 1861, 1860, 1089
507, 1861, 1858, 1088, 1860
508, 201, 483, 1858, 1861
509, 1322, 770, 2653, 3291
510, 2222, 2859, 2652, 753
511, 1330, 454, 231, 3205
512, 2510, 2544, 1494, 2208
513, 1900, 1356, 235, 449
514, 3409, 757, 799, 800
515, 1053, 1868, 1869, 1866
516, 1866, 1869, 1867, 1045
517, 1869, 164, 520, 1867
518, 1868, 521, 164, 1869
519, 3406, 3391, 816, 2859
520, 2512, 841, 2775, 2220
521, 2455, 3148, 2692, 749
522, 2605, 1173, 854, 855
523, 595, 1523, 1874, 1872
524, 1872, 1874, 1873, 596
525, 1874, 53, 64, 1873
526, 1523, 63, 53, 1874
527, 641, 1737, 1876, 1875
528, 1875, 1876, 1484, 656
529, 1876, 282, 402, 1484
530, 1737, 403, 282, 1876
531, 2117, 699, 2886, 1381
532, 3161, 695, 261, 423
533, 2684, 702, 703, 3322
534, 707, 705, 2684, 2813
535, 41, 1532, 1882, 33
536, 33, 1882, 1880, 40
537, 1882, 1881, 602, 1880
538, 1532, 601, 1881, 1882
539, 110, 1682, 1884, 99
540, 99, 1884, 1627, 109
541, 1884, 1883, 550, 1627
542, 1682, 549, 1883, 1884
543, 1087, 1721, 1886, 1885
544, 1885, 1886, 1846, 1090
545, 1886, 199, 485, 1846
546, 1721, 486, 199, 1886
547, 527, 158, 1888, 1515
548, 1515, 1888, 1887, 968
549, 1888, 1614, 970, 1887
550, 158, 526, 1614, 1888
551, 409, 276, 1890, 1774
552, 1774, 1890, 1889, 630
553, 1890, 1600, 629, 1889
554, 276, 408, 1600, 1890
555, 658, 1893, 1894, 1891
556, 1891, 1894, 1892, 657
557, 1894, 270, 414, 1892
558, 1893, 415, 270, 1894
559, 649, 1714, 1895, 1199
560, 1199, 1895, 1699, 647
561, 1895, 288, 396, 1699
562, 1714, 397, 288, 1895
563, 736, 830, 2510, 3148
564, 2326, 2000, 693, 1544
565, 2000, 2531, 1425, 693
566, 2221, 3407, 1896, 1694
567, 2207, 820, 240, 444
568, 829, 229, 455, 2385
569, 2259, 2206, 2986, 747
570, 2984, 2645, 834, 860
571, 655, 1486, 1902, 1333
572, 1333, 1902, 1901, 651
573, 1902, 284, 400, 1901
574, 1486, 401, 284, 1902
575, 541, 1904, 1905, 1903
576, 1903, 1905, 1761, 540
577, 1905, 121, 133, 1761
578, 1904, 132, 121, 1905
579, 832, 2817, 2984, 1190
580, 795, 2956, 823, 1741
581, 507, 178, 1911, 1908
582, 1908, 1911, 1909, 1060
583, 1911, 1910, 1059, 1909
584, 178, 506, 1910, 1911
585, 516, 169, 1915, 1912
586, 1912, 1915, 1913, 1035
587, 1915, 1914, 1032, 1913
588, 169, 515, 1914, 1915
589, 1065, 1706, 1917, 1916
590, 1916, 1917, 1680, 1120
591, 1917, 181, 503, 1680
592, 1706, 504, 181, 1917
593, 575, 1919, 1920, 1918
594, 1918, 1920, 94, 105
595, 1920, 1797, 104, 94
596, 1919, 576, 1797, 1920
597, 2146, 2980, 2981, 3279
598, 2360, 2676, 730, 2927
599, 395, 290, 1925, 1698
600, 1698, 1925, 1923, 646
601, 1925, 1924, 644, 1923
602, 290, 394, 1924, 1925
603, 520, 165, 1927, 1867
604, 1867, 1927, 1926, 1045
605, 1927, 1782, 1046, 1926
606, 165, 519, 1782, 1927
607, 596, 1873, 1929, 1928
608, 1928, 1929, 1500, 594
609, 1929, 54, 65, 1500
610, 1873, 64, 54, 1929
611, 582, 1932, 1933, 1930
612, 1930, 1933, 1931, 581
613, 1933, 337, 347, 1931
614, 1932, 348, 337, 1933
615, 592, 1936, 1937, 1934
616, 1934, 1937, 1935, 591
617, 1937, 340, 344, 1935
618, 1936, 345, 340, 1937
619, 46, 39, 1939, 1812
620, 1812, 1939, 1938, 609
621, 1939, 47, 58, 1938
622, 39, 4, 47, 1939
623, 1055, 1630, 1941, 1940
624, 1940, 1941, 1868, 1053
625, 1941, 163, 521, 1868
626, 1630, 522, 163, 1941
627, 813, 2311, 3060, 1943
628, 1226, 791, 471, 214
629, 2313, 1417, 215, 469
630, 3395, 1559, 2380, 3022
631, 883, 1946, 1947, 1944
632, 1944, 1947, 1945, 882
633, 1947, 317, 367, 1945
634, 1946, 368, 317, 1947
635, 917, 1687, 1948, 1277
636, 1277, 1948, 1550, 918
637, 1948, 309, 375, 1550
638, 1687, 376, 309, 1948
639, 481, 204, 1951, 1718
640, 1718, 1951, 1949, 1098
641, 1951, 1950, 1096, 1949
642, 204, 480, 1950, 1951
643, 343, 156, 1954, 1952
644, 1952, 1954, 1953, 590
645, 1954, 1488, 536, 1953
646, 156, 9, 1488, 1954
647, 719, 1618, 2383, 1519
648, 1955, 1957, 1956, 711
649, 1957, 256, 428, 1956
650, 2745, 685, 1531, 681
651, 723, 1735, 1419, 2744
652, 2324, 1619, 2204, 1402
653, 3166, 2353, 728, 1250
654, 2356, 2515, 433, 252
655, 574, 1960, 1961, 1752
656, 1752, 1961, 95, 106
657, 1961, 1918, 105, 95
658, 1960, 575, 1918, 1961
659, 480, 205, 1963, 1950
660, 1950, 1963, 1962, 1096
661, 1963, 1778, 807, 1962
662, 205, 479, 1778, 1963
663, 500, 185, 1965, 1539
664, 1539, 1965, 1964, 1125
665, 1965, 1690, 1124, 1964
666, 185, 499, 1690, 1965
667, 359, 326, 1969, 1966
668, 1966, 1969, 1967, 936
669, 1969, 1968, 938, 1967
670, 326, 358, 1968, 1969
671, 932, 1972, 1973, 1970
672, 1970, 1973, 1971, 931
673, 1973, 321, 363, 1971
674, 1972, 364, 321, 1973
675, 2391, 758, 1377, 2416
676, 1974, 1975, 16, 24
677, 1975, 1767, 23, 16
678, 698, 2012, 2572, 2636
679, 3225, 2467, 2570, 3103
680, 1978, 2563, 419, 266
681, 1063, 1981, 1982, 1980
682, 1980, 1982, 1908, 1060
683, 1982, 177, 507, 1908
684, 1981, 508, 177, 1982
685, 1850, 427, 258, 2885
686, 2927, 730, 2397, 696
687, 2906, 704, 2697, 2569
688, 1192, 2573, 421, 264
689, 506, 179, 1986, 1910
690, 1910, 1986, 1985, 1059
691, 1986, 1704, 1064, 1985
692, 179, 505, 1704, 1986
693, 2944, 2013, 1197, 1422
694, 3149, 1877, 696, 2397
695, 1423, 1196, 2659, 1852
696, 714, 3090, 610, 2358
697, 512, 173, 1992, 1989
698, 1989, 1992, 1990, 1023
699, 1992, 1991, 1020, 1990
700, 173, 511, 1991, 1992
701, 510, 175, 1996, 1993
702, 1993, 1996, 1994, 1006
703, 1996, 1995, 1062, 1994
704, 175, 509, 1995, 1996
705, 358, 327, 1998, 1968
706, 1968, 1998, 1997, 938
707, 1998, 1807, 937, 1997
708, 327, 357, 1807, 1998
709, 1361, 2259, 747, 1329
710, 2910, 2325, 2911, 750
711, 1899, 2345, 833, 2257
712, 2693, 1360, 1442, 2661
713, 361, 324, 2005, 2002
714, 2002, 2005, 2003, 921
715, 2005, 2004, 935, 2003
716, 324, 360, 2004, 2005
717, 1121, 1679, 2007, 2006
718, 2006, 2007, 1540, 1123
719, 2007, 183, 501, 1540
720, 1679, 502, 183, 2007
721, 362, 323, 2010, 2008
722, 2008, 2010, 2009, 920
723, 2010, 2002, 921, 2009
724, 323, 361, 2002, 2010
725, 2885, 258, 426, 1853
726, 2462, 1879, 1922, 2360
727, 1877, 698, 2636, 696
728, 2697, 1987, 614, 1342
729, 2637, 2358, 1979, 674
730, 2680, 3162, 2013, 2944
731, 543, 1342, 2563, 1978
732, 935, 2004, 2016, 2015
733, 2015, 2016, 1966, 936
734, 2016, 325, 359, 1966
735, 2004, 360, 325, 2016
736, 1031, 1838, 2018, 2017
737, 2017, 2018, 1912, 1035
738, 2018, 168, 516, 1912
739, 1838, 517, 168, 2018
740, 66, 56, 2021, 1502
741, 1502, 2021, 2019, 563
742, 2021, 2020, 566, 2019
743, 56, 67, 2020, 2021
744, 2717, 1404, 3391, 3406
745, 2432, 753, 446, 239
746, 2824, 3139, 858, 3150
747, 600, 2025, 2026, 1821
748, 1821, 2026, 26, 30
749, 2026, 2024, 29, 26
750, 2025, 561, 2024, 2026
751, 363, 322, 2028, 1971
752, 1971, 2028, 2027, 931
753, 2028, 2008, 920, 2027
754, 322, 362, 2008, 2028
755, 369, 316, 2030, 1787
756, 1787, 2030, 2029, 879
757, 2030, 1946, 883, 2029
758, 316, 368, 1946, 2030
759, 365, 320, 2033, 2031
760, 2031, 2033, 2032, 934
761, 2033, 1972, 932, 2032
762, 320, 364, 1972, 2033
763, 711, 1956, 2035, 2034
764, 2034, 2035, 1850, 709
765, 2035, 257, 427, 1850
766, 1956, 428, 257, 2035
767, 572, 2037, 2038, 1815
768, 1815, 2038, 76, 88
769, 2038, 2036, 87, 76
770, 2037, 571, 2036, 2038
771, 537, 1236, 2041, 2039
772, 2039, 2041, 79, 6
773, 2041, 2040, 90, 79
774, 1236, 578, 2040, 2041
775, 405, 280, 2043, 1612
776, 1612, 2043, 2042, 638
777, 2043, 1736, 642, 2042
778, 280, 404, 1736, 2043
779, 651, 1901, 2046, 2044
780, 2044, 2046, 2045, 652
781, 2046, 285, 399, 2045
782, 1901, 400, 285, 2046
783, 705, 3005, 3004, 2698
784, 2569, 2697, 1342, 543
785, 1424, 3080, 3003, 707
786, 351, 334, 2049, 1676
787, 1676, 2049, 2048, 585
788, 2049, 1556, 584, 2048
789, 334, 350, 1556, 2049
790, 882, 1945, 2052, 2050
791, 2050, 2052, 2051, 880
792, 2052, 318, 366, 2051
793, 1945, 367, 318, 2052
794, 1020, 1991, 2054, 2053
795, 2053, 2054, 1993, 1006
796, 2054, 174, 510, 1993
797, 1991, 511, 174, 2054
798, 851, 850, 3140, 1301
799, 3374, 3355, 2531, 2000
800, 2815, 1543, 1403, 1492
801, 2604, 232, 452, 835
802, 1032, 1914, 2058, 2056
803, 2056, 2058, 2057, 1026
804, 2058, 170, 514, 2057
805, 1914, 515, 170, 2058
806, 438, 247, 2060, 1819
807, 1819, 2060, 2059, 690
808, 1520, 2552, 1734, 2515
809, 1026, 2057, 2063, 2061
810, 2061, 2063, 2062, 1024
811, 2063, 171, 513, 2062
812, 2057, 514, 171, 2063
813, 892, 1840, 2065, 2064
814, 2064, 2065, 1788, 889
815, 2065, 314, 370, 1788
816, 1840, 371, 314, 2065
817, 386, 299, 2067, 1744
818, 1744, 2067, 2066, 897
819, 2067, 1844, 898, 2066
820, 299, 385, 1844, 2067
821, 1133, 2070, 2071, 2068
822, 2068, 2071, 2069, 1132
823, 2071, 1561, 1126, 2069
824, 2070, 1127, 1561, 2071
825, 134, 123, 2073, 1763
826, 1763, 2073, 2072, 542
827, 2073, 135, 146, 2072
828, 123, 8, 135, 2073
829, 24, 17, 2076, 1974
830, 796, 535, 1655, 1769
831, 2076, 2075, 529, 2074
832, 17, 2, 2075, 2076
833, 414, 271, 2078, 1892
834, 1892, 2078, 2077, 657
835, 2078, 1759, 669, 2077
836, 271, 413, 1759, 2078
837, 659, 1730, 2080, 2079
838, 2079, 2080, 1893, 658
839, 2080, 269, 415, 1893
840, 1730, 416, 269, 2080
841, 2891, 1984, 2573, 1192
842, 2680, 3127, 2761, 3162
843, 1976, 2601, 617, 675
844, 7, 2082, 2083, 101
845, 101, 2083, 1684, 111
846, 2083, 2081, 553, 1684
847, 2082, 530, 2081, 2083
848, 513, 172, 2085, 2062
849, 2062, 2085, 2084, 1024
850, 2085, 1989, 1023, 2084
851, 172, 512, 1989, 2085
852, 509, 176, 2087, 1995
853, 1995, 2087, 2086, 1062
854, 2087, 1981, 1063, 2086
855, 176, 508, 1981, 2087
856, 751, 1268, 2345, 1899
857, 2645, 2258, 2344, 834
858, 1402, 712, 1357, 2548
859, 3376, 3138, 1427, 1325
860, 806, 1777, 2090, 2089
861, 2089, 2090, 1673, 805
862, 2090, 207, 477, 1673
863, 1777, 478, 207, 2090
864, 366, 319, 2092, 2051
865, 2051, 2092, 2091, 880
866, 2092, 2031, 934, 2091
867, 319, 365, 2031, 2092
868, 538, 2094, 2095, 2093
869, 2093, 2095, 1880, 602
870, 2095, 32, 40, 1880
871, 2094, 3, 32, 2095
872, 1001, 2098, 2099, 2096
873, 2096, 2099, 1451, 598
874, 2099, 2097, 603, 1451
875, 2098, 1150, 2097, 2099
876, 399, 286, 2101, 2045
877, 2045, 2101, 2100, 652
878, 2101, 1712, 648, 2100
879, 286, 398, 1712, 2101
880, 578, 2102, 2103, 2040
881, 2040, 2103, 78, 90
882, 2103, 1814, 89, 78
883, 2102, 573, 1814, 2103
884, 732, 2106, 2107, 2104
885, 2104, 2107, 1507, 555
886, 2107, 2105, 554, 1507
887, 2106, 731, 2105, 2107
888, 67, 57, 2109, 2020
889, 2020, 2109, 2108, 566
890, 2109, 68, 80, 2108
891, 57, 5, 68, 2109
892, 3, 2094, 2111, 28
893, 28, 2111, 1823, 31
894, 2111, 2110, 599, 1823
895, 2094, 538, 2110, 2111
896, 346, 339, 2114, 2112
897, 2112, 2114, 2113, 593
898, 2114, 1936, 592, 2113
899, 339, 345, 1936, 2114
900, 561, 2115, 2116, 2024
901, 2024, 2116, 25, 29
902, 2116, 2075, 2, 25
903, 2115, 529, 2075, 2116
904, 675, 1978, 266, 418
905, 2119, 120, 132, 1904
906, 2118, 131, 120, 2119
907, 154, 144, 2121, 1572
908, 1572, 2121, 2120, 557
909, 2121, 1827, 531, 2120
910, 144, 155, 1827, 2121
911, 577, 2123, 2124, 1798
912, 1798, 2124, 92, 103
913, 2124, 2122, 102, 92
914, 2123, 579, 2122, 2124
915, 82, 71, 2127, 1640
916, 1640, 2127, 2125, 564
917, 2127, 2126, 567, 2125
918, 71, 83, 2126, 2127
919, 530, 2082, 2130, 2128
920, 2128, 2130, 2129, 552
921, 2130, 112, 124, 2129
922, 2082, 7, 112, 2130
923, 609, 1938, 2132, 2131
924, 2131, 2132, 1474, 608
925, 2132, 48, 59, 1474
926, 1938, 58, 48, 2132
927, 591, 1935, 2134, 2133
928, 2133, 2134, 1952, 590
929, 2134, 341, 343, 1952
930, 1935, 344, 341, 2134
931, 546, 2137, 2138, 2135
932, 2135, 2138, 2136, 545
933, 2138, 115, 127, 2136
934, 2137, 126, 115, 2138
935, 86, 75, 2141, 2139
936, 2139, 2141, 2140, 570
937, 2141, 2036, 571, 2140
938, 75, 87, 2036, 2141
939, 579, 1185, 2142, 2122
940, 2122, 2142, 91, 102
941, 2142, 2039, 6, 91
942, 1185, 537, 2039, 2142
943, 545, 2136, 2145, 2143
944, 2143, 2145, 2144, 544
945, 2145, 116, 128, 2144
946, 2136, 127, 116, 2145
947, 2813, 2684, 3322, 2762
948, 2754, 625, 2465, 612
949, 2148, 119, 131, 2118
950, 2147, 130, 119, 2148
951, 3279, 2981, 2162, 2795
952, 2146, 3279, 1341, 1242
953, 2151, 118, 130, 2147
954, 2150, 129, 118, 2151
955, 542, 2072, 2153, 2152
956, 2152, 2153, 1468, 539
957, 2153, 136, 147, 1468
958, 2072, 146, 136, 2153
959, 551, 2155, 2156, 2154
960, 2154, 2156, 2137, 546
961, 2156, 114, 126, 2137
962, 2155, 125, 114, 2156
963, 552, 2129, 2158, 2157
964, 2157, 2158, 2155, 551
965, 2158, 113, 125, 2155
966, 2129, 124, 113, 2158
967, 83, 72, 2161, 2126
968, 2126, 2161, 2159, 567
969, 2161, 2160, 568, 2159
970, 72, 84, 2160, 2161
971, 544, 2144, 2163, 2162
972, 2695, 3292, 1191, 663
973, 2163, 117, 129, 2150
974, 2144, 128, 117, 2163
975, 85, 74, 2166, 2164
976, 2164, 2166, 2165, 569
977, 2166, 2139, 570, 2165
978, 74, 86, 2139, 2166
979, 1084, 2170, 2171, 2167
980, 2167, 2171, 2168, 1111
981, 2171, 2169, 1110, 2168
982, 2170, 1086, 2169, 2171
983, 741, 2174, 2175, 2172
984, 2172, 2175, 1463, 559
985, 2175, 2173, 560, 1463
986, 2174, 740, 2173, 2175
987, 583, 1555, 2177, 2176
988, 2176, 2177, 1932, 582
989, 2177, 336, 348, 1932
990, 1555, 349, 336, 2177
991, 566, 2108, 2179, 2178
992, 2178, 2179, 1638, 565
993, 2179, 69, 81, 1638
994, 2108, 80, 69, 2179
995, 1152, 2183, 2184, 2180
996, 2180, 2184, 2181, 1155
997, 2184, 2182, 1011, 2181
998, 2183, 1012, 2182, 2184
999, 347, 338, 2186, 1931
1000, 1931, 2186, 2185, 581
1001, 2186, 2112, 593, 2185
1002, 338, 346, 2112, 2186
1003, 84, 73, 2188, 2160
1004, 2160, 2188, 2187, 568
1005, 2188, 2164, 569, 2187
1006, 73, 85, 2164, 2188
1007, 740, 2190, 2191, 2173
1008, 2173, 2191, 1456, 560
1009, 2191, 2189, 556, 1456
1010, 2190, 733, 2189, 2191
1011, 872, 2194, 2195, 2192
1012, 2192, 2195, 1501, 563
1013, 2195, 2193, 594, 1501
1014, 2194, 996, 2193, 2195
1015, 1123, 1538, 2198, 2196
1016, 2196, 2198, 1365, 1122
1017, 2198, 2197, 1135, 1365
1018, 1538, 1125, 2197, 2198
1019, 1128, 1577, 2201, 2199
1020, 2199, 2201, 1388, 1130
1021, 2201, 2200, 1067, 1388
1022, 1577, 1066, 2200, 2201
1023, 2060, 247, 437, 684
1024, 1771, 725, 717, 2513
1025, 2204, 2744, 686, 1392
1026, 2407, 2699, 2742, 678
1027, 754, 2696, 1331, 1543
1028, 3141, 2693, 2661, 1355
1029, 861, 1383, 1299, 3344
1030, 1757, 1545, 2615, 2987
1031, 607, 2210, 2211, 1461
1032, 1461, 2211, 1293, 606
1033, 2211, 2209, 1158, 1293
1034, 2210, 1149, 2209, 2211
1035, 739, 2213, 2214, 2212
1036, 2212, 2214, 1470, 558
1037, 2214, 2172, 559, 1470
1038, 2213, 741, 2172, 2214
1039, 1897, 2815, 1492, 1359
1040, 841, 1190, 2545, 852
1041, 1301, 3140, 1360, 2693
1042, 243, 441, 3355, 3374
1043, 853, 2666, 2449, 840
1044, 2219, 1832, 2617, 1173
1045, 3206, 1266, 2603, 2913
1046, 2860, 1897, 1359, 2823
1047, 586, 1792, 2226, 2223
1048, 2223, 2226, 2224, 955
1049, 2226, 2225, 956, 2224
1050, 1792, 587, 2225, 2226
1051, 580, 1842, 2228, 2227
1052, 2227, 2228, 1370, 944
1053, 2228, 2223, 955, 1370
1054, 1842, 586, 2223, 2228
1055, 3249, 2251, 3315, 2454
1056, 1703, 764, 1287, 1645
1057, 1765, 3023, 1418, 1590
1058, 2505, 776, 1537, 2231
1059, 2380, 762, 3301, 1214
1060, 550, 2232, 2233, 1626
1061, 1626, 2233, 1171, 548
1062, 2233, 293, 391, 1171
1063, 2232, 392, 293, 2233
1064, 624, 2236, 2237, 2234
1065, 2234, 2237, 2235, 631
1066, 2237, 1649, 672, 2235
1067, 2236, 673, 1649, 2237
1068, 547, 2239, 2240, 1753
1069, 1753, 2240, 2238, 574
1070, 2240, 296, 388, 2238
1071, 2239, 389, 296, 2240
1072, 940, 2243, 2244, 2241
1073, 2241, 2244, 2242, 941
1074, 2244, 1967, 938, 2242
1075, 2243, 936, 1967, 2244
1076, 998, 2247, 2248, 2245
1077, 2245, 2248, 1522, 595
1078, 2248, 2246, 597, 1522
1079, 2247, 1003, 2246, 2248
1080, 3381, 1558, 3411, 2294
1081, 791, 2337, 213, 471
1082, 1594, 3147, 790, 2390
1083, 2249, 1374, 2646, 2507
1084, 1070, 1669, 2255, 1316
1085, 1316, 2255, 2253, 1071
1086, 2255, 2254, 1072, 2253
1087, 1669, 1069, 2254, 2255
1088, 2976, 450, 235, 1356
1089, 755, 857, 2777, 2776
1090, 3310, 233, 451, 2666
1091, 2205, 3310, 2666, 853
1092, 748, 2262, 2263, 2260
1093, 2260, 2263, 2190, 740
1094, 2263, 2261, 733, 2190
1095, 677, 718, 1520, 1529
1096, 3147, 1574, 2459, 790
1097, 1702, 1644, 2616, 1739
1098, 818, 3351, 1643, 1854
1099, 587, 1662, 2267, 2225
1100, 2225, 2267, 1364, 956
1101, 2267, 2266, 959, 1364
1102, 1662, 589, 2266, 2267
1103, 968, 1887, 2270, 2268
1104, 2268, 2270, 1346, 967
1105, 2270, 2269, 971, 1346
1106, 1887, 970, 2269, 2270
1107, 1097, 2273, 2274, 2271
1108, 2271, 2274, 2272, 1099
1109, 2274, 1717, 1098, 2272
1110, 2273, 1095, 1717, 2274
1111, 1078, 1720, 2277, 2275
1112, 2275, 2277, 1176, 1076
1113, 2277, 2276, 1077, 1176
1114, 1720, 1087, 2276, 2277
1115, 1044, 2280, 2281, 2278
1116, 2278, 2281, 2279, 1047
1117, 2281, 1926, 1046, 2279
1118, 2280, 1045, 1926, 2281
1119, 889, 1786, 2285, 2282
1120, 2282, 2285, 2283, 890
1121, 2285, 2284, 885, 2283
1122, 1786, 879, 2284, 2285
1123, 808, 2288, 2289, 2286
1124, 2286, 2289, 2287, 809
1125, 2289, 1776, 806, 2287
1126, 2288, 807, 1776, 2289
1127, 1092, 2291, 2292, 1307
1128, 1307, 2292, 2290, 1093
1129, 2292, 1847, 1089, 2290
1130, 2291, 1090, 1847, 2292
1131, 838, 751, 1899, 2216
1132, 1545, 2474, 2613, 2615
1133, 1494, 2544, 820, 2207
1134, 1766, 2416, 813, 756
1135, 815, 759, 2433, 774
1136, 2295, 218, 466, 767
1137, 1072, 2254, 2298, 2296
1138, 2296, 2298, 2297, 1082
1139, 2298, 1633, 1073, 2297
1140, 2254, 1069, 1633, 2298
1141, 1117, 2300, 2301, 1344
1142, 1344, 2301, 2299, 1116
1143, 2301, 1705, 1065, 2299
1144, 2300, 1064, 1705, 2301
1145, 672, 1773, 2304, 2235
1146, 2235, 2304, 2302, 631
1147, 2304, 2303, 632, 2302
1148, 1773, 630, 2303, 2304
1149, 1118, 2306, 2307, 1340
1150, 1340, 2307, 2305, 1119
1151, 2307, 1678, 1121, 2305
1152, 2306, 1120, 1678, 2307
1153, 633, 2309, 2310, 1278
1154, 1278, 2310, 2308, 634
1155, 2310, 1601, 628, 2308
1156, 2309, 629, 1601, 2310
1157, 2782, 826, 3071, 2647
1158, 3021, 3167, 2230, 3328
1159, 1416, 1589, 814, 2229
1160, 1417, 3061, 470, 215
1161, 532, 1448, 2318, 2315
1162, 2315, 2318, 2316, 738
1163, 2318, 2317, 734, 2316
1164, 1448, 533, 2317, 2318
1165, 1784, 2390, 3059, 3332
1166, 3023, 3120, 3106, 1418
1167, 1637, 217, 467, 1289
1168, 973, 2322, 2323, 2320
1169, 2320, 2323, 2321, 984
1170, 2323, 1568, 974, 2321
1171, 2322, 972, 1568, 2323
1172, 850, 2326, 1544, 3140
1173, 440, 245, 1804, 682
1174, 682, 1804, 1801, 1493
1175, 1709, 1426, 846, 3363
1176, 752, 2328, 2329, 2327
1177, 2327, 2329, 2174, 741
1178, 2329, 2260, 740, 2174
1179, 2328, 748, 2260, 2329
1180, 1129, 1795, 2332, 2330
1181, 2330, 2332, 2331, 1131
1182, 2332, 2199, 1130, 2331
1183, 1795, 1128, 2199, 2332
1184, 1574, 1621, 765, 2459
1185, 765, 768, 1558, 3381
1186, 2334, 2853, 1575, 780
1187, 3301, 1658, 1672, 2252
1188, 3089, 774, 2433, 3303
1189, 2932, 1766, 756, 3081
1190, 2335, 2811, 473, 212
1191, 866, 2341, 2342, 2338
1192, 2338, 2342, 2339, 868
1193, 2342, 2340, 942, 2339
1194, 2341, 939, 2340, 2342
1195, 2345, 2660, 745, 833
1196, 2987, 2615, 831, 2969
1197, 2454, 3315, 3404, 3072
1198, 3105, 460, 225, 2475
1199, 1047, 2279, 2348, 2346
1200, 2346, 2348, 2347, 1029
1201, 2348, 1780, 1028, 2347
1202, 2279, 1046, 1780, 2348
1203, 1029, 2347, 2351, 2349
1204, 2349, 2351, 2350, 1030
1205, 2351, 1837, 1031, 2350
1206, 2347, 1028, 1837, 2351
1207, 1765, 1590, 1498, 3257
1208, 1942, 1214, 1215, 763
1209, 1575, 1586, 2506, 2956
1210, 1288, 772, 1374, 2249
1211, 2324, 2407, 678, 3396
1212, 3396, 2382, 2516, 1806
1213, 2382, 680, 1772, 2516
1214, 3413, 1193, 1264, 704
1215, 707, 3003, 3005, 705
1216, 2467, 425, 260, 2570
1217, 1079, 2362, 2363, 2361
1218, 2361, 2363, 2275, 1076
1219, 2363, 1525, 1078, 2275
1220, 2362, 1075, 1525, 2363
1221, 390, 295, 2364, 1172
1222, 1172, 2364, 1482, 548
1223, 2364, 2239, 547, 1482
1224, 295, 389, 2239, 2364
1225, 393, 292, 2366, 2365
1226, 2365, 2366, 1883, 549
1227, 2366, 2232, 550, 1883
1228, 292, 392, 2232, 2366
1229, 1126, 1477, 2367, 2069
1230, 2069, 2367, 1385, 1132
1231, 2367, 2330, 1131, 1385
1232, 1477, 1129, 2330, 2367
1233, 671, 2369, 2370, 2368
1234, 2368, 2370, 2236, 624
1235, 2370, 1652, 673, 2236
1236, 2369, 670, 1652, 2370
1237, 1032, 2056, 2374, 2371
1238, 2371, 2374, 2372, 1033
1239, 2374, 2373, 1027, 2372
1240, 2056, 1026, 2373, 2374
1241, 1089, 1860, 2377, 2290
1242, 2290, 2377, 2375, 1093
1243, 2377, 2376, 1094, 2375
1244, 1860, 1088, 2376, 2377
1245, 805, 1671, 2381, 2378
1246, 2378, 2381, 2379, 810
1247, 789, 1659, 1417, 2313
1248, 1621, 1661, 789, 1587
1249, 1227, 3127, 3004, 2353
1250, 2870, 722, 1618, 719
1251, 1357, 2700, 3166, 2689
1252, 1530, 1529, 2356, 2514
1253, 3408, 2614, 1897, 2860
1254, 1404, 1757, 2987, 3391
1255, 2847, 771, 1832, 2219
1256, 2613, 1693, 1865, 1999
1257, 1096, 1962, 2389, 2387
1258, 2387, 2389, 2388, 1100
1259, 2389, 2288, 808, 2388
1260, 1962, 807, 2288, 2389
1261, 804, 1636, 463, 222
1262, 814, 2975, 2379, 2312
1263, 1590, 562, 2336, 1498
1264, 999, 2394, 2395, 2392
1265, 2392, 2395, 2247, 998
1266, 2395, 2393, 1003, 2247
1267, 2394, 1002, 2393, 2395
1268, 732, 2398, 2399, 2106
1269, 2106, 2399, 2396, 731
1270, 2399, 2397, 730, 2396
1271, 3383, 2637, 674, 1195
1272, 3083, 1701, 2644, 819
1273, 2258, 828, 1300, 2344
1274, 1003, 2402, 2403, 2246
1275, 2246, 2403, 1598, 597
1276, 2403, 2096, 598, 1598
1277, 2402, 1001, 2096, 2403
1278, 726, 2574, 253, 431
1279, 2699, 1440, 2914, 3150
1280, 2355, 2513, 685, 2745
1281, 984, 2321, 2410, 2408
1282, 2408, 2410, 2409, 985
1283, 2410, 1646, 1056, 2409
1284, 2321, 974, 1646, 2410
1285, 960, 2412, 2413, 2411
1286, 2411, 2413, 2268, 967
1287, 2413, 1514, 968, 2268
1288, 2412, 969, 1514, 2413
1289, 2854, 2875, 2879, 811
1290, 1590, 1418, 1376, 562
1291, 3303, 2433, 1536, 1213
1292, 1050, 2419, 2420, 2417
1293, 2417, 2420, 2418, 1049
1294, 2420, 2278, 1047, 2418
1295, 2419, 1044, 2278, 2420
1296, 1037, 2423, 2424, 2421
1297, 2421, 2424, 2422, 1038
1298, 2424, 2349, 1030, 2422
1299, 2423, 1029, 2349, 2424
1300, 937, 1808, 2427, 2425
1301, 2425, 2427, 2426, 943
1302, 2427, 2227, 944, 2426
1303, 1808, 580, 2227, 2427
1304, 985, 2409, 2430, 2428
1305, 2428, 2430, 2429, 1054
1306, 2430, 1629, 1055, 2429
1307, 2409, 1056, 1629, 2430
1308, 1741, 823, 2431, 781
1309, 1742, 853, 840, 3154
1310, 1098, 1949, 2435, 2272
1311, 2272, 2435, 2434, 1099
1312, 2435, 2387, 1100, 2434
1313, 1949, 1096, 2387, 2435
1314, 1263, 661, 2637, 3383
1315, 2907, 2796, 618, 710
1316, 2795, 2162, 2163, 2150
1317, 533, 1495, 2441, 2317
1318, 2317, 2441, 2439, 734
1319, 2441, 2440, 735, 2439
1320, 1495, 534, 2440, 2441
1321, 1034, 2443, 2444, 2442
1322, 2442, 2444, 2371, 1033
1323, 2444, 1913, 1032, 2371
1324, 2443, 1035, 1913, 2444
1325, 1983, 2437, 262, 422
1326, 2012, 2685, 1977, 2572
1327, 706, 709, 1243, 3011
1328, 896, 2446, 2447, 1745
1329, 1745, 2447, 297, 387
1330, 2447, 2238, 388, 297
1331, 2446, 574, 2238, 2447
1332, 817, 3288, 2855, 770
1333, 781, 2431, 1864, 2810
1334, 3130, 2448, 2205, 3385
1335, 821, 1871, 2581, 828
1336, 1159, 2452, 2453, 2450
1337, 2450, 2453, 2451, 1160
1338, 2453, 2180, 1155, 2451
1339, 2452, 1152, 2180, 2453
1340, 764, 1174, 1321, 1287
1341, 1832, 1703, 1645, 2617
1342, 971, 2269, 2458, 2457
1343, 2457, 2458, 2322, 973
1344, 2458, 1615, 972, 2322
1345, 2269, 970, 1615, 2458
1346, 2876, 794, 2811, 2335
1347, 792, 2781, 772, 1288
1348, 767, 466, 219, 826
1349, 1094, 2376, 2461, 1311
1350, 1311, 2461, 2273, 1097
1351, 2461, 1857, 1095, 2273
1352, 2376, 1088, 1857, 2461
1353, 709, 1850, 2885, 1243
1354, 695, 2679, 424, 261
1355, 698, 2445, 3398, 2012
1356, 2014, 711, 2034, 2600
1357, 556, 2189, 2464, 1747
1358, 1747, 2464, 2104, 555
1359, 2464, 2463, 732, 2104
1360, 2189, 733, 2463, 2464
1361, 2659, 2599, 3225, 3218
1362, 625, 2906, 2569, 2465
1363, 2795, 2150, 2151, 662
1364, 1196, 2576, 2599, 2659
1365, 1026, 2061, 2470, 2373
1366, 2373, 2470, 2468, 1027
1367, 2470, 2469, 1025, 2468
1368, 2061, 1024, 2469, 2470
1369, 589, 1581, 2473, 2266
1370, 2266, 2473, 2471, 959
1371, 2473, 2472, 958, 2471
1372, 1581, 588, 2472, 2473
1373, 3408, 2860, 2259, 1361
1374, 830, 2088, 2544, 2510
1375, 1999, 1865, 1900, 1542
1376, 816, 2969, 1384, 844
1377, 668, 2477, 2478, 1446
1378, 1446, 2478, 2369, 671
1379, 2478, 1758, 670, 2369
1380, 2477, 669, 1758, 2478
1381, 588, 1675, 2480, 2472
1382, 2472, 2480, 1394, 958
1383, 2480, 2479, 952, 1394
1384, 1675, 585, 2479, 2480
1385, 1244, 3369, 3292, 2695
1386, 2483, 1729, 659, 2481
1387, 2482, 660, 1729, 2483
1388, 630, 1889, 2485, 2303
1389, 2303, 2485, 2484, 632
1390, 2485, 2309, 633, 2484
1391, 1889, 629, 2309, 2485
1392, 733, 2261, 2487, 2463
1393, 2463, 2487, 2398, 732
1394, 1422, 1197, 3350, 1988
1395, 3415, 2486, 2487, 2261
1396, 1057, 2490, 2491, 2488
1397, 2488, 2491, 2489, 1058
1398, 2491, 1909, 1059, 2489
1399, 2490, 1060, 1909, 2491
1400, 1124, 1691, 2493, 2492
1401, 2492, 2493, 1406, 1136
1402, 2493, 2070, 1133, 1406
1403, 1691, 1127, 2070, 2493
1404, 594, 2193, 2496, 1928
1405, 1928, 2496, 2494, 596
1406, 2496, 2495, 997, 2494
1407, 2193, 996, 2495, 2496
1408, 596, 2494, 2498, 1872
1409, 1872, 2498, 2245, 595
1410, 2498, 2497, 998, 2245
1411, 2494, 997, 2497, 2498
1412, 1116, 2299, 2500, 2499
1413, 2499, 2500, 2306, 1118
1414, 2500, 1916, 1120, 2306
1415, 2299, 1065, 1916, 2500
1416, 883, 1944, 2503, 2501
1417, 2501, 2503, 1335, 884
1418, 2503, 2502, 886, 1335
1419, 1944, 882, 2502, 2503
1420, 2336, 2391, 2416, 1766
1421, 758, 3022, 1942, 1377
1422, 1499, 1785, 1784, 2334
1423, 1768, 2335, 212, 472
1424, 3060, 3168, 2337, 791
1425, 1049, 2418, 2509, 2508
1426, 2508, 2509, 2423, 1037
1427, 2509, 2346, 1029, 2423
1428, 2418, 1047, 2346, 2509
1429, 839, 2843, 737, 857
1430, 1642, 1833, 817, 1855
1431, 1323, 1740, 751, 838
1432, 837, 2857, 2988, 1268
1433, 684, 437, 248, 2203
1434, 1033, 2372, 2520, 2517
1435, 2517, 2520, 2518, 1040
1436, 2520, 2519, 1019, 2518
1437, 2372, 1027, 2519, 2520
1438, 882, 2050, 2523, 2502
1439, 2502, 2523, 2521, 886
1440, 2523, 2522, 881, 2521
1441, 2050, 880, 2522, 2523
1442, 925, 2526, 2527, 2524
1443, 2524, 2527, 2525, 922
1444, 2527, 2003, 935, 2525
1445, 2526, 921, 2003, 2527
1446, 1325, 1427, 2851, 743
1447, 2615, 2613, 1999, 831
1448, 3139, 859, 744, 858
1449, 954, 2535, 2536, 2532
1450, 2532, 2536, 2533, 978
1451, 2536, 2534, 977, 2533
1452, 2535, 957, 2534, 2536
1453, 657, 2077, 2539, 2537
1454, 2537, 2539, 2538, 667
1455, 2539, 2477, 668, 2538
1456, 2077, 669, 2477, 2539
1457, 1735, 2540, 2687, 1419
1458, 686, 3136, 2405, 2702
1459, 2742, 858, 744, 2404
1460, 1618, 250, 434, 2383
1461, 1030, 2350, 2543, 2542
1462, 2542, 2543, 2443, 1034
1463, 2543, 2017, 1035, 2443
1464, 2350, 1031, 2017, 2543
1465, 3344, 1299, 1870, 2696
1466, 3154, 840, 2343, 1693
1467, 840, 2449, 2976, 2343
1468, 2988, 1330, 3205, 2660
1469, 393, 2365, 2547, 291
1470, 291, 2547, 1924, 394
1471, 2547, 2546, 644, 1924
1472, 2365, 549, 2546, 2547
1473, 1584, 683, 430, 255
1474, 1734, 2383, 434, 251
1475, 1357, 2689, 721, 2548
1476, 2552, 1519, 2383, 1734
1477, 1059, 1985, 2551, 2489
1478, 2489, 2551, 2550, 1058
1479, 2551, 2300, 1117, 2550
1480, 1985, 1064, 2300, 2551
1481, 1619, 1806, 2743, 723
1482, 2407, 3289, 1440, 2699
1483, 716, 2541, 2937, 3289
1484, 713, 2702, 2549, 724
1485, 1082, 2297, 2555, 2553
1486, 2553, 2555, 2554, 1080
1487, 2555, 1622, 1074, 2554
1488, 2297, 1073, 1622, 2555
1489, 962, 2557, 2558, 2556
1490, 2556, 2558, 2412, 960
1491, 2558, 1489, 969, 2412
1492, 2557, 536, 1489, 2558
1493, 582, 1930, 2562, 2559
1494, 2559, 2562, 2560, 945
1495, 2562, 2561, 950, 2560
1496, 1930, 581, 2561, 2562
1497, 2462, 3009, 1265, 2905
1498, 1148, 2567, 2568, 1231
1499, 1231, 2568, 2167, 1111
1500, 2568, 2566, 1084, 2167
1501, 2567, 1142, 2566, 2568
1502, 1265, 700, 1285, 2755
1503, 2576, 1853, 2678, 2599
1504, 938, 1997, 2571, 2242
1505, 2242, 2571, 1373, 941
1506, 2571, 2425, 943, 1373
1507, 1997, 937, 2425, 2571
1508, 1979, 3384, 3161, 2437
1509, 3384, 1412, 695, 3161
1510, 2462, 2905, 3397, 1879
1511, 2462, 2360, 2927, 3010
1512, 2353, 3004, 3005, 728
1513, 1959, 2870, 719, 688
1514, 1195, 674, 1983, 2564
1515, 621, 2763, 2626, 2565
1516, 618, 3011, 1196, 1423
1517, 692, 2579, 2580, 2577
1518, 2577, 2580, 2578, 689
1519, 2580, 1818, 690, 2578
1520, 2579, 691, 1818, 2580
1521, 844, 1384, 237, 447
1522, 2603, 1742, 3154, 2474
1523, 2823, 2512, 2220, 2206
1524, 1693, 2343, 2858, 1865
1525, 1125, 1964, 2584, 2197
1526, 2197, 2584, 2583, 1135
1527, 2584, 2492, 1136, 2583
1528, 1964, 1124, 2492, 2584
1529, 1051, 2586, 2587, 2585
1530, 2585, 2587, 2280, 1044
1531, 2587, 1866, 1045, 2280
1532, 2586, 1053, 1866, 2587
1533, 929, 2589, 2590, 2588
1534, 2588, 2590, 2526, 925
1535, 2590, 2009, 921, 2526
1536, 2589, 920, 2009, 2590
1537, 773, 1906, 3282, 769
1538, 2591, 2592, 1656, 535
1539, 2592, 2440, 534, 1656
1540, 2985, 2385, 3104, 2857
1541, 859, 3208, 3209, 744
1542, 2593, 2594, 2579, 692
1543, 2594, 1801, 691, 2579
1544, 1898, 779, 2022, 843
1545, 584, 1554, 2598, 2595
1546, 2595, 2598, 2596, 951
1547, 2598, 2597, 946, 2596
1548, 1554, 583, 2597, 2598
1549, 2814, 2438, 420, 265
1550, 1191, 613, 2797, 3295
1551, 2358, 610, 3384, 1979
1552, 442, 243, 3374, 856
1553, 3391, 2987, 2969, 816
1554, 1694, 1896, 779, 1898
1555, 846, 2593, 3306, 1324
1556, 1008, 2608, 2609, 2606
1557, 2606, 2609, 2607, 1061
1558, 2609, 2086, 1063, 2607
1559, 2608, 1062, 2086, 2609
1560, 922, 2525, 2610, 1292
1561, 1292, 2610, 2243, 940
1562, 2610, 2015, 936, 2243
1563, 2525, 935, 2015, 2610
1564, 1080, 2554, 2612, 2611
1565, 2611, 2612, 2362, 1079
1566, 2612, 1825, 1075, 2362
1567, 2554, 1074, 1825, 2612
1568, 1542, 1900, 449, 236
1569, 1870, 838, 2216, 3082
1570, 2386, 845, 2256, 2985
1571, 2221, 839, 857, 755
1572, 996, 2620, 2621, 2495
1573, 2495, 2621, 2618, 997
1574, 2621, 2619, 994, 2618
1575, 2620, 979, 2619, 2621
1576, 637, 2624, 2625, 2622
1577, 2622, 2625, 2623, 639
1578, 2625, 1611, 638, 2623
1579, 2624, 627, 1611, 2625
1580, 680, 2355, 687, 1772
1581, 702, 2944, 1422, 703
1582, 3090, 615, 2694, 610
1583, 2540, 1958, 2574, 726
1584, 634, 2308, 2630, 2629
1585, 2629, 2630, 2624, 637
1586, 2630, 1608, 627, 2624
1587, 2308, 628, 1608, 2630
1588, 1833, 1321, 3288, 817
1589, 1864, 769, 3351, 818
1590, 1383, 2605, 1323, 1299
1591, 803, 2333, 2781, 792
1592, 1039, 2634, 2635, 2633
1593, 2633, 2635, 2517, 1040
1594, 2635, 2442, 1033, 2517
1595, 2634, 1034, 2442, 2635
1596, 662, 2151, 2147, 1382
1597, 2905, 1265, 2755, 2793
1598, 708, 3383, 1195, 1984
1599, 1286, 1423, 1852, 2011
1600, 2686, 1878, 708, 3321
1601, 997, 2618, 2639, 2497
1602, 2497, 2639, 2392, 998
1603, 2639, 2638, 999, 2392
1604, 2618, 994, 2638, 2639
1605, 1054, 2429, 2640, 1400
1606, 1400, 2640, 2586, 1051
1607, 2640, 1940, 1053, 2586
1608, 2429, 1055, 1940, 2640
1609, 665, 2642, 2643, 2641
1610, 2641, 2643, 2537, 667
1611, 2643, 1891, 657, 2537
1612, 2642, 658, 1891, 2643
1613, 2632, 2631, 3083, 2476
1614, 562, 1660, 2391, 2336
1615, 1174, 819, 3288, 1321
1616, 1865, 2858, 1356, 1900
1617, 757, 3119, 2456, 799
1618, 3105, 1604, 224, 460
1619, 3201, 766, 759, 815
1620, 697, 2778, 714, 661
1621, 1988, 3350, 2627, 2575
1622, 1007, 2650, 2651, 1308
1623, 1308, 2651, 2608, 1008
1624, 2651, 1994, 1062, 2608
1625, 2650, 1006, 1994, 2651
1626, 819, 2644, 2855, 3288
1627, 782, 2454, 3072, 1906
1628, 2344, 1300, 2848, 2293
1629, 2848, 2913, 1545, 1757
1630, 619, 2656, 2657, 2654
1631, 2654, 2657, 2655, 620
1632, 2657, 1903, 540, 2655
1633, 2656, 541, 1903, 2657
1634, 715, 3079, 2778, 697
1635, 2565, 2626, 2628, 2014
1636, 710, 618, 1423, 1286
1637, 611, 715, 697, 2359
1638, 841, 852, 3041, 2775
1639, 1544, 693, 3043, 2822
1640, 244, 440, 682, 2816
1641, 749, 1355, 1803, 2530
1642, 926, 2664, 2665, 2662
1643, 2662, 2665, 2663, 924
1644, 2665, 2588, 925, 2663
1645, 2664, 929, 2588, 2665
1646, 2333, 3381, 2294, 2781
1647, 2256, 829, 2385, 2985
1648, 1710, 3074, 754, 848
1649, 690, 2059, 2668, 2578
1650, 2578, 2668, 2667, 689
1651, 2687, 2540, 726, 1733
1652, 725, 3209, 2667, 717
1653, 1150, 2671, 2672, 2669
1654, 2669, 2672, 2209, 1149
1655, 2672, 2670, 1158, 2209
1656, 2671, 1151, 2670, 2672
1657, 879, 2029, 2674, 2284
1658, 2284, 2674, 2673, 885
1659, 2674, 2501, 884, 2673
1660, 2029, 883, 2501, 2674
1661, 730, 2676, 2677, 2396
1662, 2396, 2677, 2675, 731
1663, 2677, 2654, 620, 2675
1664, 2676, 619, 2654, 2677
1665, 3149, 2397, 2399, 2398
1666, 700, 2906, 625, 1285
1667, 3397, 2149, 2649, 699
1668, 2628, 1955, 711, 2014
1669, 1038, 2422, 2681, 1398
1670, 1398, 2681, 2634, 1039
1671, 2681, 2542, 1034, 2634
1672, 2422, 1030, 2542, 2681
1673, 1119, 2305, 2683, 2682
1674, 2682, 2683, 2196, 1122
1675, 2683, 2006, 1123, 2196
1676, 2305, 1121, 2006, 2683
1677, 2436, 2600, 706, 2796
1678, 3322, 703, 3079, 715
1679, 2355, 2745, 1617, 687
1680, 1391, 1959, 688, 718
1681, 1733, 726, 431, 254
1682, 1002, 2690, 2691, 2393
1683, 2393, 2691, 2402, 1003
1684, 2691, 1298, 1001, 2402
1685, 2690, 1014, 1298, 2691
1686, 1266, 3385, 1742, 2603
1687, 820, 836, 445, 240
1688, 2823, 1359, 832, 2512
1689, 443, 242, 3124, 849
1690, 660, 2482, 612, 2601
1691, 666, 622, 623, 1244
1692, 2860, 2823, 2206, 2259
1693, 3407, 1741, 781, 1896
1694, 2215, 2218, 1871, 821
1695, 1244, 623, 2753, 3369
1696, 2601, 612, 2465, 617
1697, 2564, 1983, 422, 263
1698, 2702, 2405, 2406, 2549
1699, 2324, 716, 3289, 2407
1700, 1077, 2276, 2704, 2703
1701, 2703, 2704, 2291, 1092
1702, 2704, 1885, 1090, 2291
1703, 2276, 1087, 1885, 2704
1704, 1061, 2607, 2706, 2705
1705, 2705, 2706, 2490, 1057
1706, 2706, 1980, 1060, 2490
1707, 2607, 1063, 1980, 2706
1708, 1023, 1990, 2710, 2707
1709, 2707, 2710, 2708, 1022
1710, 2710, 2709, 1021, 2708
1711, 1990, 1020, 2709, 2710
1712, 1020, 2053, 2712, 2709
1713, 2709, 2712, 2711, 1021
1714, 2712, 2650, 1007, 2711
1715, 2053, 1006, 2650, 2712
1716, 930, 2714, 2715, 2713
1717, 2713, 2715, 2589, 929
1718, 2715, 2027, 920, 2589
1719, 2714, 931, 2027, 2715
1720, 2221, 842, 1711, 839
1721, 2968, 1696, 2222, 1756
1722, 2055, 849, 851, 2716
1723, 693, 1425, 1441, 3043
1724, 963, 2719, 2720, 2718
1725, 2718, 2720, 2557, 962
1726, 2720, 1953, 536, 2557
1727, 2719, 590, 1953, 2720
1728, 1140, 1390, 2724, 2721
1729, 2721, 2724, 2722, 1081
1730, 2724, 2723, 1071, 2722
1731, 1390, 1067, 2723, 2724
1732, 1027, 2468, 2726, 2519
1733, 2519, 2726, 1414, 1019
1734, 2726, 2725, 1017, 1414
1735, 2468, 1025, 2725, 2726
1736, 1141, 2729, 2730, 2727
1737, 2727, 2730, 2728, 1147
1738, 2730, 2567, 1148, 2728
1739, 2729, 1142, 2567, 2730
1740, 3339, 3333, 1228, 729
1741, 3414, 1229, 1250, 728
1742, 1419, 2687, 1805, 3136
1743, 2732, 1249, 3339, 1248
1744, 987, 2736, 2737, 2733
1745, 2733, 2737, 2734, 986
1746, 2737, 2735, 1052, 2734
1747, 2736, 983, 2735, 2737
1748, 934, 2032, 2741, 2738
1749, 2738, 2741, 2739, 875
1750, 2741, 2740, 933, 2739
1751, 2032, 932, 2740, 2741
1752, 718, 688, 2552, 1520
1753, 1518, 1391, 718, 677
1754, 685, 1585, 2354, 1531
1755, 2745, 681, 2701, 1617
1756, 809, 2287, 2747, 2746
1757, 2746, 2747, 2378, 810
1758, 2747, 2089, 805, 2378
1759, 2287, 806, 2089, 2747
1760, 912, 1726, 2751, 2748
1761, 2748, 2751, 2749, 910
1762, 2751, 2750, 911, 2749
1763, 1726, 919, 2750, 2751
1764, 768, 1620, 1637, 1558
1765, 775, 2250, 464, 221
1766, 2264, 2312, 3021, 3328
1767, 3369, 2892, 3278, 3292
1768, 1284, 2695, 663, 2466
1769, 3279, 2795, 662, 1341
1770, 1197, 2907, 710, 3350
1771, 1156, 2759, 2760, 2756
1772, 2756, 2760, 2757, 1161
1773, 2760, 2758, 1143, 2757
1774, 2759, 1157, 2758, 2760
1775, 2762, 3322, 715, 611
1776, 2575, 2627, 615, 3090
1777, 1957, 679, 429, 256
1778, 585, 2048, 2765, 2479
1779, 2479, 2765, 2764, 952
1780, 2765, 2595, 951, 2764
1781, 2048, 584, 2595, 2765
1782, 933, 2740, 2767, 2766
1783, 2766, 2767, 2714, 930
1784, 2767, 1970, 931, 2714
1785, 2740, 932, 1970, 2767
1786, 950, 2770, 2771, 2768
1787, 2768, 2771, 1411, 949
1788, 2771, 2769, 966, 1411
1789, 2770, 964, 2769, 2771
1790, 557, 2120, 2773, 2772
1791, 2772, 2773, 2315, 738
1792, 2773, 1749, 532, 2315
1793, 2120, 531, 1749, 2773
1794, 734, 2439, 2777, 2774
1795, 833, 745, 1829, 1830
1796, 2439, 735, 2776, 2777
1797, 3149, 2398, 2487, 2486
1798, 704, 1264, 1987, 2697
1799, 2599, 2678, 2467, 3225
1800, 1264, 1851, 1194, 1987
1801, 1024, 2084, 2780, 2469
1802, 2469, 2780, 2779, 1025
1803, 2780, 2707, 1022, 2779
1804, 2084, 1023, 2707, 2780
1805, 615, 2011, 2658, 2694
1806, 1194, 3321, 2891, 694
1807, 1877, 2357, 2445, 698
1808, 2506, 802, 782, 822
1809, 1765, 1594, 1785, 2401
1810, 1559, 1416, 762, 2380
1811, 1785, 1594, 2390, 1784
1812, 990, 2786, 2787, 2783
1813, 2783, 2787, 2784, 988
1814, 2787, 2785, 989, 2784
1815, 2786, 961, 2785, 2787
1816, 942, 2788, 2789, 2339
1817, 2339, 2789, 1433, 868
1818, 2789, 2532, 978, 1433
1819, 2788, 954, 2532, 2789
1820, 734, 2774, 2792, 2316
1821, 2316, 2792, 2790, 738
1822, 2792, 2791, 739, 2790
1823, 2774, 737, 2791, 2792
1824, 622, 2793, 2755, 623
1825, 2685, 616, 1878, 2686
1826, 1879, 3397, 699, 2117
1827, 1242, 2149, 2793, 622
1828, 2797, 2798, 2642, 665
1829, 2798, 2079, 658, 2642
1830, 2481, 659, 2079, 2798
1831, 957, 2801, 2802, 2534
1832, 2534, 2802, 2799, 977
1833, 2802, 2800, 981, 2799
1834, 2801, 953, 2800, 2802
1835, 608, 2803, 2804, 2131
1836, 2131, 2804, 1811, 609
1837, 2804, 2210, 607, 1811
1838, 2803, 1149, 2210, 2804
1839, 1144, 2808, 2809, 2805
1840, 2805, 2809, 2806, 1145
1841, 2809, 2807, 1146, 2806
1842, 2808, 1139, 2807, 2809
1843, 1604, 2456, 461, 224
1844, 1499, 2334, 780, 798
1845, 2631, 1834, 1701, 3083
1846, 2360, 1922, 619, 2676
1847, 2678, 259, 425, 2467
1848, 2692, 3141, 1355, 749
1849, 1695, 827, 2582, 736
1850, 852, 2545, 827, 1695
1851, 827, 3320, 3073, 2582
1852, 1139, 2818, 2819, 2807
1853, 2807, 2819, 1206, 1146
1854, 2819, 2727, 1147, 1206
1855, 2818, 1141, 2727, 2819
1856, 880, 2091, 2821, 2522
1857, 2522, 2821, 2820, 881
1858, 2821, 2738, 875, 2820
1859, 2091, 934, 2738, 2821
1860, 3399, 2914, 1440, 720
1861, 2696, 1870, 3082, 1331
1862, 2912, 3042, 2217, 2529
1863, 856, 3374, 2000, 2326
1864, 946, 2597, 2826, 2825
1865, 2825, 2826, 2559, 945
1866, 2826, 2176, 582, 2559
1867, 2597, 583, 2176, 2826
1868, 862, 2830, 2831, 2827
1869, 2827, 2831, 2828, 870
1870, 2831, 2829, 869, 2828
1871, 2830, 865, 2829, 2831
1872, 2653, 1856, 457, 228
1873, 1267, 777, 1605, 1834
1874, 653, 2832, 2833, 1164
1875, 1164, 2833, 1334, 654
1876, 2833, 1485, 655, 1334
1877, 2832, 656, 1485, 2833
1878, 1022, 2708, 2836, 2834
1879, 2834, 2836, 1435, 1016
1880, 2836, 2835, 1005, 1435
1881, 2708, 1021, 2835, 2836
1882, 603, 2097, 2837, 1473
1883, 1473, 2837, 2803, 608
1884, 2837, 2669, 1149, 2803
1885, 2097, 1150, 2669, 2837
1886, 867, 2841, 2842, 2838
1887, 2838, 2842, 2839, 869
1888, 2842, 2840, 975, 2839
1889, 2841, 976, 2840, 2842
1890, 737, 2843, 2844, 2791
1891, 2791, 2844, 2213, 739
1892, 2844, 2327, 741, 2213
1893, 2843, 752, 2327, 2844
1894, 539, 2845, 2846, 2152
1895, 2152, 2846, 1762, 542
1896, 2846, 2655, 540, 1762
1897, 2845, 620, 2655, 2846
1898, 2605, 855, 1740, 1323
1899, 2545, 860, 3320, 827
1900, 2775, 3041, 2530, 2910
1901, 743, 2851, 2852, 2849
1902, 2849, 2852, 1260, 742
1903, 2852, 2850, 746, 1260
1904, 2851, 720, 2850, 2852
1905, 2616, 2872, 2400, 1739
1906, 2511, 797, 2812, 2460
1907, 860, 834, 2528, 3320
1908, 1898, 843, 3074, 1710
1909, 1383, 2219, 1173, 2605
1910, 738, 2790, 2861, 2772
1911, 2772, 2861, 1571, 557
1912, 2861, 2212, 558, 1571
1913, 2790, 739, 2212, 2861
1914, 1160, 2451, 2863, 1217
1915, 1217, 2863, 2759, 1156
1916, 2863, 2862, 1157, 2759
1917, 2451, 1155, 2862, 2863
1918, 564, 2125, 2867, 2864
1919, 2864, 2867, 2865, 871
1920, 2867, 2866, 862, 2865
1921, 2125, 567, 2866, 2867
1922, 928, 2868, 2869, 1350
1923, 1350, 2869, 2664, 926
1924, 2869, 2713, 929, 2664
1925, 2868, 930, 2713, 2869
1926, 1531, 2203, 1358, 681
1927, 2354, 684, 2203, 1531
1928, 2203, 248, 436, 1358
1929, 721, 3333, 727, 2541
1930, 723, 2743, 3375, 1735
1931, 1392, 686, 2702, 713
1932, 1421, 2761, 3127, 1227
1933, 2644, 3412, 1856, 2855
1934, 2416, 1377, 2311, 813
1935, 831, 1999, 1542, 3365
1936, 874, 1165, 2874, 1181
1937, 1181, 2874, 1351, 927
1938, 2874, 2873, 928, 1351
1939, 1165, 876, 2873, 2874
1940, 761, 2878, 2879, 2875
1941, 2252, 1672, 794, 2876
1942, 3395, 2854, 811, 1559
1943, 2878, 760, 2877, 2879
1944, 1010, 2883, 2884, 2880
1945, 2880, 2884, 2881, 1153
1946, 2884, 2882, 1154, 2881
1947, 2883, 1113, 2882, 2884
1948, 1381, 2118, 2119, 2602
1949, 2679, 2570, 260, 424
1950, 694, 2891, 1192, 2438
1951, 3162, 2761, 2763, 621
1952, 1114, 2889, 2890, 2887
1953, 2887, 2890, 2888, 1143
1954, 2890, 1220, 1144, 2888
1955, 2889, 1115, 1220, 2890
1956, 1341, 662, 1382, 2649
1957, 1853, 426, 259, 2678
1958, 2753, 1285, 625, 2754
1959, 623, 2755, 1285, 2753
1960, 554, 2105, 2893, 1466
1961, 1466, 2893, 2845, 539
1962, 2893, 2675, 620, 2845
1963, 2105, 731, 2675, 2893
1964, 1013, 2896, 2897, 2894
1965, 2894, 2897, 2182, 1012
1966, 2897, 2895, 1011, 2182
1967, 2896, 1004, 2895, 2897
1968, 1106, 2900, 2901, 2898
1969, 2898, 2901, 2025, 600
1970, 2901, 2899, 561, 2025
1971, 2900, 761, 2899, 2901
1972, 1104, 2903, 2904, 2902
1973, 2902, 2904, 2900, 1106
1974, 2904, 2878, 761, 2900
1975, 2903, 760, 2878, 2904
1976, 2602, 2119, 1904, 541
1977, 2565, 2014, 2600, 2436
1978, 674, 1979, 2437, 1983
1979, 1158, 2670, 2909, 1295
1980, 1295, 2909, 2452, 1159
1981, 2909, 2908, 1152, 2452
1982, 2670, 1151, 2908, 2909
1983, 1441, 3363, 2001, 3237
1984, 2218, 2257, 1405, 1871
1985, 2716, 851, 1301, 847
1986, 2448, 835, 3310, 2205
1987, 1014, 1254, 2916, 1297
1988, 1297, 2916, 2915, 1000
1989, 2916, 2894, 1012, 2915
1990, 1254, 1013, 2894, 2916
1991, 1134, 2918, 2919, 1271
1992, 1271, 2919, 2729, 1141
1993, 2919, 2917, 1142, 2729
1994, 2918, 1140, 2917, 2919
1995, 863, 2921, 2922, 2920
1996, 2920, 2922, 2829, 865
1997, 2922, 2838, 869, 2829
1998, 2921, 867, 2838, 2922
1999, 1025, 2779, 2924, 2725
2000, 2725, 2924, 2923, 1017
2001, 2924, 2834, 1016, 2923
2002, 2779, 1022, 2834, 2924
2003, 877, 1167, 2926, 1207
2004, 1207, 2926, 2165, 570
2005, 2926, 2925, 569, 2165
2006, 1167, 874, 2925, 2926
2007, 1731, 660, 2601, 1976
2008, 2627, 1286, 2011, 615
2009, 417, 1731, 1976, 267
2010, 872, 2929, 2930, 2928
2011, 2928, 2930, 2864, 871
2012, 2930, 1639, 564, 2864
2013, 2929, 565, 1639, 2930
2014, 2314, 3395, 3022, 758
2015, 2381, 1671, 3167, 3021
2016, 2504, 3107, 3307, 2931
2017, 762, 788, 1658, 3301
2018, 1143, 2888, 2935, 2757
2019, 2757, 2935, 1211, 1161
2020, 2935, 2805, 1145, 1211
2021, 2888, 1144, 2805, 2935
2022, 720, 2937, 2938, 2850
2023, 2850, 2938, 2936, 746
2024, 3396, 678, 1770, 2382
2025, 1249, 727, 3333, 3339
2026, 565, 2929, 2939, 2178
2027, 2178, 2939, 2019, 566
2028, 2939, 2192, 563, 2019
2029, 2929, 872, 2192, 2939
2030, 811, 2879, 2877, 1589
2031, 824, 2782, 2647, 2250
2032, 2940, 1975, 1974, 1560
2033, 988, 2784, 2943, 2941
2034, 2941, 2943, 2736, 987
2035, 2943, 2942, 983, 2736
2036, 2784, 989, 2942, 2943
2037, 3278, 2483, 2481, 613
2038, 3079, 1988, 2575, 2778
2039, 267, 1976, 675, 418
2040, 3010, 2927, 696, 2636
2041, 980, 2945, 2946, 1273
2042, 1273, 2946, 2619, 979
2043, 2946, 1283, 994, 2619
2044, 2945, 995, 1283, 2946
2045, 635, 2947, 2948, 1234
2046, 1234, 2948, 2143, 544
2047, 2948, 1222, 545, 2143
2048, 2947, 636, 1222, 2948
2049, 648, 2951, 2952, 2100
2050, 2100, 2952, 2949, 652
2051, 2952, 2950, 650, 2949
2052, 2951, 645, 2950, 2952
2053, 572, 2954, 2955, 2037
2054, 2037, 2955, 1259, 571
2055, 2955, 2953, 888, 1259
2056, 2954, 895, 2953, 2955
2057, 2853, 3332, 2511, 1443
2058, 1587, 787, 1620, 768
2059, 2265, 1560, 2074, 3120
2060, 953, 1393, 2960, 2958
2061, 2958, 2960, 2959, 947
2062, 2960, 2764, 951, 2959
2063, 1393, 952, 2764, 2960
2064, 900, 1723, 2962, 1246
2065, 1246, 2962, 1799, 576
2066, 2962, 2961, 577, 1799
2067, 1723, 899, 2961, 2962
2068, 1043, 2966, 2967, 2963
2069, 2963, 2967, 2964, 1041
2070, 2967, 2965, 1036, 2964
2071, 2966, 1048, 2965, 2967
2072, 1322, 3291, 829, 2256
2073, 3385, 2205, 853, 1742
2074, 1268, 2988, 2660, 2345
2075, 3291, 456, 229, 829
2076, 895, 1253, 2971, 2953
2077, 2953, 2971, 2970, 888
2078, 2971, 2283, 885, 2970
2079, 1253, 890, 2283, 2971
2080, 575, 2972, 2973, 1919
2081, 1919, 2973, 1245, 576
2082, 2973, 2066, 898, 1245
2083, 2972, 897, 2066, 2973
2084, 760, 2974, 2975, 2877
2085, 1660, 2314, 758, 2391
2086, 2974, 810, 2379, 2975
2087, 1644, 3207, 784, 2616
2088, 783, 818, 1854, 771
2089, 777, 459, 226, 1605
2090, 1138, 2978, 2979, 2977
2091, 2977, 2979, 2818, 1139
2092, 2979, 1270, 1141, 2818
2093, 2978, 1137, 1270, 2979
2094, 664, 1444, 3405, 1445
2095, 666, 1244, 2695, 1284
2096, 2981, 1233, 544, 2162
2097, 2980, 626, 1233, 2981
2098, 887, 2982, 2983, 1257
2099, 1257, 2983, 2140, 571
2100, 2983, 1209, 570, 2140
2101, 2982, 878, 1209, 2983
2102, 802, 3249, 2454, 782
2103, 772, 2856, 2752, 1374
2104, 3072, 3404, 1267, 778
2105, 2752, 3155, 2782, 824
2106, 2088, 1756, 2432, 836
2107, 2343, 2976, 1356, 2858
2108, 3104, 230, 454, 1330
2109, 1694, 1898, 1710, 1188
2110, 640, 2990, 2991, 1223
2111, 1223, 2991, 2135, 545
2112, 2991, 2989, 546, 2135
2113, 2990, 643, 2989, 2991
2114, 995, 2994, 2995, 1282
2115, 1282, 2995, 2992, 992
2116, 2995, 2993, 987, 2992
2117, 2994, 991, 2993, 2995
2118, 993, 2997, 2998, 1203
2119, 1203, 2998, 2966, 1043
2120, 2998, 2996, 1048, 2966
2121, 2997, 986, 2996, 2998
2122, 915, 3001, 3002, 1591
2123, 1591, 3002, 2999, 916
2124, 3002, 3000, 914, 2999
2125, 3001, 893, 3000, 3002
2126, 2732, 3036, 2936, 1249
2127, 2382, 1770, 1771, 680
2128, 3149, 1424, 2357, 1877
2129, 2658, 2648, 3103, 2047
2130, 976, 3007, 3008, 2840
2131, 2840, 3008, 1274, 975
2132, 3008, 3006, 980, 1274
2133, 3007, 982, 3006, 3008
2134, 2573, 2564, 263, 421
2135, 621, 2565, 2436, 701
2136, 2694, 2658, 2047, 1412
2137, 953, 2958, 3013, 2800
2138, 2800, 3013, 1437, 981
2139, 3013, 3012, 948, 1437
2140, 2958, 947, 3012, 3013
2141, 871, 3014, 3015, 2928
2142, 2928, 3015, 2194, 872
2143, 3015, 2620, 996, 2194
2144, 3014, 979, 2620, 3015
2145, 1091, 1306, 3017, 3016
2146, 3016, 3017, 1312, 1108
2147, 3017, 2375, 1094, 1312
2148, 1306, 1093, 2375, 3017
2149, 917, 1275, 3019, 1686
2150, 1686, 3019, 2750, 919
2151, 3019, 3018, 911, 2750
2152, 1275, 913, 3018, 3019
2153, 1381, 2886, 2148, 2118
2154, 3010, 2636, 2572, 676
2155, 1922, 1921, 2656, 619
2156, 1145, 2806, 3020, 1210
2157, 1210, 3020, 1533, 604
2158, 3020, 1204, 601, 1533
2159, 2806, 1146, 1204, 3020
2160, 1659, 3410, 3061, 1417
2161, 2312, 2379, 2381, 3021
2162, 2401, 2505, 2231, 2414
2163, 794, 3303, 1213, 2811
2164, 1105, 3026, 3027, 3024
2165, 3024, 3027, 2902, 1106
2166, 3027, 3025, 1104, 2902
2167, 3026, 1103, 3025, 3027
2168, 1111, 2168, 3029, 1230
2169, 1230, 3029, 2093, 602
2170, 3029, 3028, 538, 2093
2171, 2168, 1110, 3028, 3029
2172, 914, 3030, 3031, 2999
2173, 2999, 3031, 1551, 916
2174, 3031, 1276, 918, 1551
2175, 3030, 913, 1276, 3031
2176, 905, 3034, 3035, 1186
2177, 1186, 3035, 3032, 537
2178, 3035, 3033, 910, 3032
2179, 3034, 906, 3033, 3035
2180, 746, 2936, 3036, 1262
2181, 1262, 3036, 2262, 748
2182, 1229, 729, 1228, 1250
2183, 1248, 3339, 729, 1229
2184, 873, 1180, 3038, 3037
2185, 3037, 3038, 1378, 863
2186, 3038, 1304, 864, 1378
2187, 1180, 927, 1304, 3038
2188, 992, 3039, 3040, 1281
2189, 1281, 3040, 2638, 994
2190, 3040, 1201, 999, 2638
2191, 3039, 993, 1201, 3040
2192, 2666, 451, 234, 2449
2193, 3138, 2529, 3399, 1427
2194, 848, 754, 1543, 2815
2195, 903, 3046, 3047, 3044
2196, 3044, 3047, 3045, 907
2197, 3047, 1564, 901, 3045
2198, 3046, 902, 1564, 3047
2199, 873, 3049, 3050, 3048
2200, 3048, 3050, 2159, 568
2201, 3050, 2866, 567, 2159
2202, 3049, 862, 2866, 3050
2203, 878, 2982, 3052, 3051
2204, 3051, 3052, 2521, 881
2205, 3052, 1337, 886, 2521
2206, 2982, 887, 1337, 3052
2207, 578, 3054, 3055, 2102
2208, 2102, 3055, 3053, 573
2209, 3055, 3030, 914, 3053
2210, 3054, 913, 3030, 3055
2211, 1242, 1341, 2649, 2149
2212, 3057, 3056, 626, 2980
2213, 1445, 671, 3056, 3057
2214, 923, 1327, 3058, 1302
2215, 1302, 3058, 1380, 864
2216, 3058, 2341, 866, 1380
2217, 1327, 939, 2341, 3058
2218, 785, 2460, 1588, 3409
2219, 3059, 803, 792, 797
2220, 1674, 208, 476, 793
2221, 2812, 1288, 2249, 786
2222, 1154, 3063, 3064, 2881
2223, 2881, 3064, 3062, 1153
2224, 3064, 2758, 1157, 3062
2225, 3063, 1143, 2758, 3064
2226, 1012, 2183, 3066, 2915
2227, 2915, 3066, 3065, 1000
2228, 3066, 2908, 1151, 3065
2229, 2183, 1152, 2908, 3066
2230, 1105, 3069, 3070, 3026
2231, 3026, 3070, 3067, 1103
2232, 1110, 2169, 3189, 1107
2233, 3191, 3190, 3286, 3262
2234, 1855, 817, 770, 1322
2235, 823, 822, 773, 2431
2236, 1765, 3257, 3147, 1594
2237, 822, 782, 1906, 773
2238, 1331, 3082, 2215, 1755
2239, 2529, 2217, 2914, 3399
2240, 1740, 837, 1268, 751
2241, 904, 1238, 3076, 3075
2242, 3075, 3076, 2749, 911
2243, 3076, 3032, 910, 2749
2244, 1238, 537, 3032, 3076
2245, 874, 1179, 3077, 2925
2246, 2925, 3077, 2187, 569
2247, 3077, 3048, 568, 2187
2248, 1179, 873, 3048, 3077
2249, 992, 2992, 3078, 3039
2250, 3039, 3078, 2997, 993
2251, 3078, 2733, 986, 2997
2252, 2992, 987, 2733, 3078
2253, 2648, 3218, 3225, 3103
2254, 2465, 2569, 543, 617
2255, 663, 1191, 3295, 3250
2256, 2013, 701, 2907, 1197
2257, 701, 2436, 2796, 2907
2258, 3415, 2732, 1248, 2731
2259, 3003, 3414, 728, 3005
2260, 1443, 2511, 2460, 785
2261, 2431, 773, 769, 1864
2262, 1605, 226, 458, 1175
2263, 1190, 2984, 860, 2545
2264, 1002, 2394, 3085, 3084
2265, 3084, 3085, 2963, 1041
2266, 3085, 1202, 1043, 2963
2267, 2394, 999, 1202, 3085
2268, 1008, 3087, 3088, 1310
2269, 1310, 3088, 3086, 1009
2270, 3088, 2883, 1010, 3086
2271, 3087, 1113, 2883, 3088
2272, 2415, 815, 774, 3089
2273, 2231, 1537, 1320, 2319
2274, 2445, 2762, 611, 3398
2275, 2796, 706, 3011, 618
2276, 3011, 1243, 2576, 1196
2277, 3009, 676, 1193, 3413
2278, 949, 1409, 3093, 3091
2279, 3091, 3093, 3012, 947
2280, 3093, 3092, 948, 3012
2281, 1409, 965, 3092, 3093
2282, 976, 3094, 3095, 3007
2283, 3007, 3095, 1438, 982
2284, 3095, 2799, 981, 1438
2285, 3094, 977, 2799, 3095
2286, 905, 1187, 3098, 3034
2287, 3034, 3098, 3096, 906
2288, 3098, 3097, 907, 3096
2289, 1187, 579, 3097, 3098
2290, 1080, 2611, 3102, 3099
2291, 3099, 3102, 3100, 1083
2292, 3102, 3101, 1085, 3100
2293, 2611, 1079, 3101, 3102
2294, 616, 2359, 1263, 1878
2295, 1424, 707, 2813, 2357
2296, 2117, 1381, 2602, 1921
2297, 2563, 2814, 265, 419
2298, 2617, 1645, 1833, 1642
2299, 842, 1188, 2614, 3408
2300, 1443, 785, 3182, 1586
2301, 529, 2115, 3108, 3106
2302, 2505, 1499, 798, 776
2303, 2337, 1768, 472, 213
2304, 2115, 561, 3107, 3108
2305, 593, 3109, 3110, 2185
2306, 2185, 3110, 2561, 581
2307, 3110, 2770, 950, 2561
2308, 3109, 964, 2770, 3110
2309, 1147, 2728, 3111, 1205
2310, 1205, 3111, 1881, 601
2311, 3111, 1232, 602, 1881
2312, 2728, 1148, 1232, 3111
2313, 650, 3112, 3113, 2949
2314, 2949, 3113, 2044, 652
2315, 3113, 1332, 651, 2044
2316, 3112, 654, 1332, 3113
2317, 894, 1252, 3115, 3114
2318, 3114, 3115, 1816, 573
2319, 3115, 2954, 572, 1816
2320, 1252, 895, 2954, 3115
2321, 963, 3117, 3118, 2719
2322, 2719, 3118, 2133, 590
2323, 3118, 3116, 591, 2133
2324, 3117, 964, 3116, 3118
2325, 529, 3106, 3120, 2074
2326, 1560, 1974, 2076, 2074
2327, 786, 2249, 2507, 1375
2328, 1225, 475, 210, 2934
2329, 976, 2841, 3121, 3094
2330, 3094, 3121, 2533, 977
2331, 3121, 1432, 978, 2533
2332, 2841, 867, 1432, 3121
2333, 644, 2546, 3123, 1923
2334, 1923, 3123, 3122, 646
2335, 3123, 1683, 553, 3122
2336, 2546, 549, 1683, 3123
2337, 242, 442, 856, 3124
2338, 2217, 2824, 3150, 2914
2339, 717, 2667, 2668, 1585
2340, 2293, 2848, 1757, 1404
2341, 553, 2081, 3125, 3122
2342, 3122, 3125, 1697, 646
2343, 3125, 1198, 647, 1697
2344, 2081, 530, 1198, 3125
2345, 1156, 2756, 3126, 1216
2346, 1216, 3126, 1606, 605
2347, 3126, 1212, 604, 1606
2348, 2756, 1161, 1212, 3126
2349, 661, 714, 2358, 2637
2350, 3321, 708, 1984, 2891
2351, 2514, 2356, 252, 432
2352, 2548, 721, 2541, 716
2353, 635, 3128, 3129, 2947
2354, 2947, 3129, 1279, 636
2355, 3129, 2484, 633, 1279
2356, 3128, 632, 2484, 3129
2357, 1543, 1331, 1755, 1403
2358, 843, 861, 3344, 3074
2359, 1829, 2604, 835, 2448
2360, 2913, 2603, 2474, 1545
2361, 653, 1162, 3132, 3131
2362, 3131, 3132, 2989, 643
2363, 3132, 2154, 546, 2989
2364, 1162, 551, 2154, 3132
2365, 1103, 3067, 3134, 3133
2366, 3133, 3134, 2271, 1099
2367, 3134, 1313, 1097, 2271
2368, 3067, 1108, 1313, 3134
2369, 958, 1395, 3135, 2471
2370, 2471, 3135, 1363, 959
2371, 3135, 2801, 957, 1363
2372, 1395, 953, 2801, 3135
2373, 1770, 2404, 725, 1771
2374, 1806, 2516, 1517, 2743
2375, 1805, 2687, 1733, 683
2376, 1617, 2701, 2870, 1959
2377, 980, 3006, 3137, 2945
2378, 2945, 3137, 2994, 995
2379, 3137, 1240, 991, 2994
2380, 3006, 982, 1240, 3137
2381, 2530, 1803, 2325, 2910
2382, 1755, 2215, 821, 1863
2383, 2001, 1324, 859, 3139
2384, 2512, 832, 1190, 841
2385, 1494, 2716, 847, 2208
2386, 3042, 3237, 2824, 2217
2387, 3237, 2001, 3139, 2824
2388, 1136, 1407, 3142, 2583
2389, 2583, 3142, 1367, 1135
2390, 3142, 2978, 1138, 1367
2391, 1407, 1137, 2978, 3142
2392, 1072, 3143, 3144, 2253
2393, 2253, 3144, 2722, 1071
2394, 3144, 1317, 1081, 2722
2395, 3143, 1083, 1317, 3144
2396, 913, 3054, 3145, 3018
2397, 3018, 3145, 3075, 911
2398, 3145, 1237, 904, 3075
2399, 3054, 578, 1237, 3145
2400, 1130, 1389, 3146, 2331
2401, 2331, 3146, 1387, 1131
2402, 3146, 2918, 1134, 1387
2403, 1389, 1140, 2918, 3146
2404, 3282, 778, 2631, 2632
2405, 1701, 1175, 3412, 2644
2406, 855, 854, 845, 2386
2407, 2221, 1694, 1188, 842
2408, 1863, 821, 828, 2258
2409, 1493, 1801, 2594, 1426
2410, 441, 244, 2816, 3355
2411, 3363, 846, 1324, 2001
2412, 745, 2023, 2604, 1829
2413, 1412, 2047, 2679, 695
2414, 614, 694, 2438, 2814
2415, 2661, 1442, 3138, 3376
2416, 3355, 2816, 1708, 2531
2417, 241, 443, 849, 2055
2418, 2614, 848, 2815, 1897
2419, 605, 1595, 3151, 1218
2420, 1218, 3151, 2450, 1160
2421, 3151, 1294, 1159, 2450
2422, 1595, 606, 1294, 3151
2423, 1117, 1345, 3153, 2550
2424, 2550, 3153, 3152, 1058
2425, 3153, 2889, 1114, 3152
2426, 1345, 1115, 2889, 3153
2427, 1896, 781, 2810, 779
2428, 1384, 3365, 448, 237
2429, 1756, 2222, 753, 2432
2430, 828, 2581, 3206, 1300
2431, 801, 1767, 1975, 2940
2432, 1175, 458, 227, 3412
2433, 2956, 2506, 822, 823
2434, 1636, 775, 221, 463
2435, 1068, 1315, 3156, 1665
2436, 1665, 3156, 2200, 1066
2437, 3156, 2723, 1067, 2200
2438, 1315, 1071, 2723, 3156
2439, 1100, 3157, 3158, 2434
2440, 2434, 3158, 3133, 1099
2441, 3158, 3025, 1103, 3133
2442, 3157, 1104, 3025, 3158
2443, 742, 3159, 3160, 2849
2444, 2849, 3160, 2911, 743
2445, 3160, 2986, 750, 2911
2446, 3159, 747, 2986, 3160
2447, 1987, 1194, 694, 614
2448, 3149, 2486, 3080, 1424
2449, 617, 543, 1978, 675
2450, 910, 3033, 3163, 2748
2451, 2748, 3163, 1790, 912
2452, 3163, 1429, 909, 1790
2453, 3033, 906, 1429, 3163
2454, 1052, 2735, 3165, 1401
2455, 1401, 3165, 2428, 1054
2456, 3165, 3164, 985, 2428
2457, 2735, 983, 3164, 3165
2458, 683, 1733, 254, 430
2459, 1402, 2204, 1392, 712
2460, 2688, 1805, 683, 1584
2461, 1498, 2336, 1766, 2932
2462, 776, 798, 3207, 1644
2463, 1036, 2965, 3170, 1396
2464, 1396, 3170, 2421, 1038
2465, 3170, 3169, 1037, 2421
2466, 2965, 1048, 3169, 3170
2467, 2700, 1227, 2353, 3166
2468, 1420, 1421, 1227, 2700
2469, 2689, 3166, 1250, 1228
2470, 956, 1362, 3171, 2224
2471, 2224, 3171, 1369, 955
2472, 3171, 2535, 954, 1369
2473, 1362, 957, 2535, 3171
2474, 1139, 2808, 3173, 2977
2475, 2977, 3173, 3172, 1138
2476, 3173, 1221, 1112, 3172
2477, 2808, 1144, 1221, 3173
2478, 1015, 1256, 3175, 3174
2479, 3174, 3175, 3084, 1041
2480, 3175, 2690, 1002, 3084
2481, 1256, 1014, 2690, 3175
2482, 923, 1303, 3176, 1326
2483, 1326, 3176, 2662, 924
2484, 3176, 1349, 926, 2662
2485, 1303, 927, 1349, 3176
2486, 1132, 1386, 3177, 2068
2487, 2068, 3177, 1408, 1133
2488, 3177, 1269, 1137, 1408
2489, 1386, 1134, 1269, 3177
2490, 760, 2903, 3179, 2974
2491, 2974, 3179, 2746, 810
2492, 3179, 3178, 809, 2746
2493, 2903, 1104, 3178, 3179
2494, 642, 1183, 3181, 2042
2495, 2042, 3181, 2623, 638
2496, 3181, 3180, 639, 2623
2497, 1183, 643, 3180, 3181
2498, 1320, 801, 2940, 2319
2499, 2352, 1375, 804, 1862
2500, 2251, 1604, 3105, 3315
2501, 949, 3091, 3184, 2768
2502, 2768, 3184, 2560, 950
2503, 3184, 3183, 945, 2560
2504, 3091, 947, 3183, 3184
2505, 907, 3045, 3185, 3096
2506, 3096, 3185, 1428, 906
2507, 3185, 1835, 908, 1428
2508, 3045, 901, 1835, 3185
2509, 636, 1280, 3187, 1224
2510, 1224, 3187, 3186, 640
2511, 3187, 2629, 637, 3186
2512, 1280, 634, 2629, 3187
2513, 1101, 3191, 3262, 3264
2514, 3189, 3294, 3068, 3190
2515, 3190, 3068, 3069, 3286
2516, 1109, 1107, 3191, 1101
2517, 875, 2739, 3194, 3192
2518, 3192, 3194, 1166, 877
2519, 3194, 3193, 876, 1166
2520, 2739, 933, 3193, 3194
2521, 1118, 1338, 3195, 2499
2522, 2499, 3195, 1343, 1116
2523, 3195, 1219, 1115, 1343
2524, 1338, 1112, 1219, 3195
2525, 903, 3196, 3197, 3046
2526, 3046, 3197, 1546, 902
2527, 3197, 2961, 899, 1546
2528, 3196, 577, 2961, 3197
2529, 944, 1368, 3198, 2426
2530, 2426, 3198, 1372, 943
2531, 3198, 2788, 942, 1372
2532, 1368, 954, 2788, 3198
2533, 922, 1290, 3199, 2524
2534, 2524, 3199, 2663, 925
2535, 3199, 1328, 924, 2663
2536, 1290, 939, 1328, 3199
2537, 801, 796, 1769, 1767
2538, 1558, 1637, 1289, 3411
2539, 1620, 468, 217, 1637
2540, 1004, 1434, 3204, 2895
2541, 2895, 3204, 3202, 1011
2542, 3204, 3203, 1009, 3202
2543, 1434, 1005, 3203, 3204
2544, 1403, 1755, 1863, 1189
2545, 1492, 1403, 1189, 2817
2546, 2208, 847, 3141, 2692
2547, 843, 2022, 2847, 861
2548, 1711, 1361, 1329, 752
2549, 778, 1267, 1834, 2631
2550, 3041, 2455, 749, 2530
2551, 1359, 1492, 2817, 832
2552, 3136, 1805, 2688, 2405
2553, 3209, 3208, 689, 2667
2554, 1427, 3399, 720, 2851
2555, 973, 3210, 3211, 2457
2556, 2457, 3211, 1348, 971
2557, 3211, 2942, 989, 1348
2558, 3210, 983, 2942, 3211
2559, 1050, 3212, 3213, 2419
2560, 2419, 3213, 2585, 1044
2561, 3213, 1399, 1051, 2585
2562, 3212, 1052, 1399, 3213
2563, 941, 1371, 3214, 2241
2564, 2241, 3214, 1291, 940
2565, 3214, 2340, 939, 1291
2566, 1371, 942, 2340, 3214
2567, 653, 3131, 3215, 2832
2568, 2832, 3215, 1875, 656
2569, 3215, 1184, 641, 1875
2570, 3131, 643, 1184, 3215
2571, 1019, 1415, 3217, 2518
2572, 2518, 3217, 3216, 1040
2573, 3217, 1353, 1042, 3216
2574, 1415, 1018, 1353, 3217
2575, 3162, 621, 701, 2013
2576, 699, 2649, 1382, 2886
2577, 1984, 1195, 2564, 2573
2578, 1193, 1977, 1851, 1264
2579, 1142, 2917, 3219, 2566
2580, 2566, 3219, 1318, 1084
2581, 3219, 2721, 1081, 1318
2582, 2917, 1140, 2721, 3219
2583, 1042, 3220, 3221, 3216
2584, 3216, 3221, 2633, 1040
2585, 3221, 1397, 1039, 2633
2586, 3220, 1036, 1397, 3221
2587, 1114, 3223, 3224, 3152
2588, 3152, 3224, 2488, 1058
2589, 3224, 3222, 1057, 2488
2590, 3223, 1113, 3222, 3224
2591, 2698, 3004, 3127, 2680
2592, 3009, 3413, 700, 1265
2593, 2778, 2575, 3090, 714
2594, 800, 799, 2251, 3249
2595, 1862, 804, 222, 462
2596, 826, 219, 465, 3071
2597, 967, 1347, 3227, 2411
2598, 2411, 3227, 3226, 960
2599, 3227, 2785, 961, 3226
2600, 1347, 989, 2785, 3227
2601, 893, 3001, 3229, 3228
2602, 3228, 3229, 1169, 894
2603, 3229, 1511, 891, 1169
2604, 3001, 915, 1511, 3229
2605, 1018, 3230, 3231, 1352
2606, 1352, 3231, 1255, 1015
2607, 3231, 2896, 1013, 1255
2608, 3230, 1004, 2896, 3231
2609, 963, 3233, 3234, 3117
2610, 3117, 3234, 2769, 964
2611, 3234, 3232, 966, 2769
2612, 3233, 961, 3232, 3234
2613, 878, 3051, 3235, 1208
2614, 1208, 3235, 3192, 877
2615, 3235, 2820, 875, 3192
2616, 3051, 881, 2820, 3235
2617, 575, 1960, 3236, 2972
2618, 2972, 3236, 1743, 897
2619, 3236, 2446, 896, 1743
2620, 1960, 574, 2446, 3236
2621, 842, 3408, 1361, 1711
2622, 2531, 1708, 1709, 1425
2623, 847, 1301, 2693, 3141
2624, 836, 2432, 239, 445
2625, 1122, 1366, 3238, 2682
2626, 2682, 3238, 1339, 1119
2627, 3238, 3172, 1112, 1339
2628, 1366, 1138, 3172, 3238
2629, 1017, 2923, 3239, 1413
2630, 1413, 3239, 3230, 1018
2631, 3239, 1436, 1004, 3230
2632, 2923, 1016, 1436, 3239
2633, 1086, 1178, 3241, 3240
2634, 3240, 3241, 1305, 1091
2635, 3241, 2703, 1092, 1305
2636, 1178, 1077, 2703, 3241
2637, 1086, 3240, 3188, 3294
2638, 3240, 1091, 3016, 3188
2639, 3294, 3188, 3242, 3068
2640, 890, 1251, 3243, 2282
2641, 2282, 3243, 2064, 889
2642, 3243, 1170, 892, 2064
2643, 1251, 894, 1170, 3243
2644, 797, 792, 1288, 2812
2645, 1643, 2476, 1174, 764
2646, 2817, 1189, 2645, 2984
2647, 2857, 3104, 1330, 2988
2648, 631, 2302, 3245, 3244
2649, 3244, 3245, 1235, 626
2650, 3245, 3128, 635, 1235
2651, 2302, 632, 3128, 3245
2652, 965, 1410, 3247, 3246
2653, 3246, 3247, 2786, 990
2654, 3247, 3232, 961, 2786
2655, 1410, 966, 3232, 3247
2656, 965, 3246, 3248, 3092
2657, 3092, 3248, 1439, 948
2658, 3248, 1239, 982, 1439
2659, 3246, 990, 1239, 3248
2660, 3200, 1661, 1621, 1574
2661, 757, 2352, 1862, 3119
2662, 2294, 3411, 1593, 2856
2663, 1444, 3251, 2538, 668
2664, 3251, 3250, 667, 2538
2665, 1150, 2098, 3252, 2671
2666, 2671, 3252, 3065, 1151
2667, 3252, 1296, 1000, 3065
2668, 2098, 1001, 1296, 3252
2669, 845, 1855, 1322, 2256
2670, 2221, 755, 825, 3407
2671, 1021, 2711, 3253, 2835
2672, 2835, 3253, 3203, 1005
2673, 3253, 1309, 1009, 3203
2674, 2711, 1007, 1309, 3253
2675, 703, 1422, 1988, 3079
2676, 2466, 663, 3250, 3251
2677, 645, 3255, 3256, 2950
2678, 2950, 3256, 3254, 650
2679, 3256, 2128, 552, 3254
2680, 3255, 530, 2128, 3256
2681, 2229, 814, 2312, 2264
2682, 1661, 3081, 1659, 789
2683, 867, 2921, 3258, 1431
2684, 1431, 3258, 2338, 868
2685, 3258, 1379, 866, 2338
2686, 2921, 863, 1379, 3258
2687, 551, 1163, 3259, 2157
2688, 2157, 3259, 3254, 552
2689, 3259, 3112, 650, 3254
2690, 1163, 654, 3112, 3259
2691, 1042, 1354, 3260, 3220
2692, 3220, 3260, 2964, 1036
2693, 3260, 3174, 1041, 2964
2694, 1354, 1015, 3174, 3260
2695, 748, 2328, 3261, 1261
2696, 1261, 3261, 3159, 742
2697, 3261, 1329, 747, 3159
2698, 2328, 752, 1329, 3261
2699, 1102, 3263, 3264, 3262
2700, 3188, 3016, 1108, 3242
2701, 3028, 1110, 1107, 1109
2702, 3263, 600, 1822, 3264
2703, 1155, 2181, 3266, 2862
2704, 2862, 3266, 3062, 1157
2705, 3266, 3265, 1153, 3062
2706, 2181, 1011, 3265, 3266
2707, 975, 1272, 3268, 2839
2708, 2839, 3268, 2828, 869
2709, 3268, 3267, 870, 2828
2710, 1272, 979, 3267, 3268
2711, 1076, 1177, 3270, 2361
2712, 2361, 3270, 3101, 1079
2713, 3270, 3269, 1085, 3101
2714, 1177, 1086, 3269, 3270
2715, 888, 2970, 3271, 1258
2716, 1258, 3271, 1336, 887
2717, 3271, 2673, 884, 1336
2718, 2970, 885, 2673, 3271
2719, 1106, 2898, 3273, 3024
2720, 3024, 3273, 3272, 1105
2721, 3273, 3263, 1102, 3272
2722, 2898, 600, 3263, 3273
2723, 3350, 710, 1286, 2627
2724, 2462, 3010, 676, 3009
2725, 1085, 3269, 3274, 3100
2726, 3100, 3274, 1319, 1083
2727, 3274, 2170, 1084, 1319
2728, 3269, 1086, 2170, 3274
2729, 1050, 3275, 3276, 3212
2730, 3212, 3276, 2734, 1052
2731, 3276, 2996, 986, 2734
2732, 3275, 1048, 2996, 3276
2733, 933, 2766, 3277, 3193
2734, 3193, 3277, 2873, 876
2735, 3277, 2868, 928, 2873
2736, 2766, 930, 2868, 3277
2737, 2794, 664, 1445, 3057
2738, 903, 3044, 3280, 3196
2739, 3196, 3280, 2123, 577
2740, 3280, 3097, 579, 2123
2741, 3044, 907, 3097, 3280
2742, 870, 3267, 3281, 2827
2743, 2827, 3281, 2865, 862
2744, 3281, 3014, 871, 2865
2745, 3267, 979, 3014, 3281
2746, 649, 1200, 3283, 1713
2747, 1713, 3283, 2951, 648
2748, 3283, 3255, 645, 2951
2749, 1200, 530, 3255, 3283
2750, 988, 2941, 3284, 2783
2751, 2783, 3284, 1241, 990
2752, 3284, 2993, 991, 1241
2753, 2941, 987, 2993, 3284
2754, 1114, 2887, 3285, 3223
2755, 3223, 3285, 2882, 1113
2756, 3285, 3063, 1154, 2882
2757, 2887, 1143, 3063, 3285
2758, 1102, 3262, 3286, 3272
2759, 3272, 3286, 3069, 1105
2760, 2110, 1109, 1101, 599
2761, 3068, 3242, 3070, 3069
2762, 1107, 3189, 3190, 3191
2763, 538, 3028, 1109, 2110
2764, 865, 2830, 3287, 2920
2765, 2920, 3287, 3037, 863
2766, 3287, 3049, 873, 3037
2767, 2830, 862, 3049, 3287
2768, 2646, 824, 2250, 775
2769, 779, 2810, 783, 2022
2770, 771, 1854, 1703, 1832
2771, 2810, 1864, 818, 783
2772, 1300, 3206, 2913, 2848
2773, 562, 1376, 2504, 1660
2774, 2515, 1734, 251, 433
2775, 3289, 2937, 720, 1440
2776, 688, 719, 1519, 2552
2777, 639, 3180, 3290, 2622
2778, 2622, 3290, 3186, 637
2779, 3290, 2990, 640, 3186
2780, 3180, 643, 2990, 3290
2781, 2400, 735, 2440, 2592
2782, 3404, 2475, 777, 1267
2783, 1879, 2117, 1921, 1922
2784, 2685, 2686, 1851, 1977
2785, 3413, 704, 2906, 700
2786, 626, 3056, 3293, 3244
2787, 3244, 3293, 2234, 631
2788, 3293, 2368, 624, 2234
2789, 3056, 671, 2368, 3293
2790, 2169, 1086, 3294, 3189
2791, 3242, 1108, 3067, 3070
2792, 599, 1101, 3264, 1822
2793, 2892, 2754, 612, 2482
2794, 3250, 3295, 2641, 667
2795, 3295, 2797, 665, 2641
2796, 664, 2466, 3251, 1444
2797, 1113, 3087, 3296, 3222
2798, 3222, 3296, 2705, 1057
2799, 3296, 2606, 1061, 2705
2800, 3087, 1008, 2606, 3296
2801, 1011, 3202, 3297, 3265
2802, 3265, 3297, 2880, 1153
2803, 3297, 3086, 1010, 2880
2804, 3202, 1009, 3086, 3297
2805, 573, 3053, 3298, 3114
2806, 3114, 3298, 3228, 894
2807, 3298, 3000, 893, 3228
2808, 3053, 914, 3000, 3298
2809, 961, 3233, 3299, 3226
2810, 3226, 3299, 2556, 960
2811, 3299, 2718, 962, 2556
2812, 3233, 963, 2718, 3299
2813, 808, 2286, 3300, 2388
2814, 2388, 3300, 3157, 1100
2815, 3300, 3178, 1104, 3157
2816, 2286, 809, 3178, 3300
2817, 1672, 3089, 3303, 794
2818, 983, 3210, 3302, 3164
2819, 3164, 3302, 2408, 985
2820, 3302, 2320, 984, 2408
2821, 3210, 973, 2320, 3302
2822, 3411, 1289, 2295, 1593
2823, 1375, 2507, 1636, 804
2824, 2334, 1784, 3332, 2853
2825, 2934, 210, 474, 1536
2826, 947, 2959, 3304, 3183
2827, 3183, 3304, 2825, 945
2828, 3304, 2596, 946, 2825
2829, 2959, 951, 2596, 3304
2830, 1083, 3143, 3305, 3099
2831, 3099, 3305, 2553, 1080
2832, 3305, 2296, 1082, 2553
2833, 3143, 1072, 2296, 3305
2834, 3362, 3130, 3385, 1266
2835, 3208, 3306, 2577, 689
2836, 3306, 2593, 692, 2577
2837, 1425, 1709, 3363, 1441
2838, 561, 2899, 3307, 3107
2839, 1660, 2504, 2931, 2314
2840, 2229, 2264, 1907, 788
2841, 2899, 761, 2875, 3307
2842, 1048, 3275, 3308, 3169
2843, 3169, 3308, 2508, 1037
2844, 3308, 2417, 1049, 2508
2845, 3275, 1050, 2417, 3308
2846, 964, 3109, 3309, 3116
2847, 3116, 3309, 1934, 591
2848, 3309, 2113, 592, 1934
2849, 3109, 593, 2113, 3309
2850, 2023, 453, 232, 2604
2851, 857, 737, 2774, 2777
2852, 2816, 682, 1493, 1708
2853, 653, 1164, 3311, 1162
2854, 1162, 3311, 1163, 551
2855, 1164, 654, 1163, 3311
2856, 874, 1167, 3312, 1165
2857, 1165, 3312, 1166, 876
2858, 1167, 877, 1166, 3312
2859, 892, 1170, 3313, 1168
2860, 1168, 3313, 1169, 891
2861, 1170, 894, 1169, 3313
2862, 390, 1172, 3314, 294
2863, 294, 3314, 1171, 391
2864, 1172, 548, 1171, 3314
2865, 2528, 2293, 1404, 2717
2866, 1739, 2400, 2592, 2591
2867, 3315, 3105, 2475, 3404
2868, 1077, 1178, 3316, 1176
2869, 1176, 3316, 1177, 1076
2870, 1178, 1086, 1177, 3316
2871, 874, 1181, 3317, 1179
2872, 1179, 3317, 1180, 873
2873, 1181, 927, 1180, 3317
2874, 641, 1184, 3318, 1182
2875, 1182, 3318, 1183, 642
2876, 1184, 643, 1183, 3318
2877, 579, 1187, 3319, 1185
2878, 1185, 3319, 1186, 537
2879, 1187, 905, 1186, 3319
2880, 1695, 736, 3148, 2455
2881, 3407, 825, 784, 1741
2882, 2385, 455, 230, 3104
2883, 2146, 666, 1284, 2794
2884, 2686, 3321, 1194, 1851
2885, 1852, 2659, 3218, 2648
2886, 1921, 2602, 541, 2656
2887, 2012, 3398, 616, 2685
2888, 2905, 2793, 2149, 3397
2889, 1243, 2885, 1853, 2576
2890, 530, 1200, 3323, 1198
2891, 1198, 3323, 1199, 647
2892, 1200, 649, 1199, 3323
2893, 993, 1203, 3324, 1201
2894, 1201, 3324, 1202, 999
2895, 1203, 1043, 1202, 3324
2896, 1146, 1206, 3325, 1204
2897, 1204, 3325, 1205, 601
2898, 1206, 1147, 1205, 3325
2899, 570, 1209, 3326, 1207
2900, 1207, 3326, 1208, 877
2901, 1209, 878, 1208, 3326
2902, 604, 1212, 3327, 1210
2903, 1210, 3327, 1211, 1145
2904, 1212, 1161, 1211, 3327
2905, 3257, 1498, 2932, 3200
2906, 3167, 793, 812, 2230
2907, 605, 1218, 3329, 1216
2908, 1216, 3329, 1217, 1156
2909, 1218, 1160, 1217, 3329
2910, 1112, 1221, 3330, 1219
2911, 1219, 3330, 1220, 1115
2912, 1221, 1144, 1220, 3330
2913, 636, 1224, 3331, 1222
2914, 1222, 3331, 1223, 545
2915, 1224, 640, 1223, 3331
2916, 1377, 1942, 763, 2311
2917, 1943, 3060, 791, 1226
2918, 763, 1215, 2933, 3168
2919, 2936, 2938, 727, 1249
2920, 2059, 2060, 684, 2354
2921, 3415, 2262, 3036, 2732
2922, 602, 1232, 3334, 1230
2923, 1230, 3334, 1231, 1111
2924, 1232, 1148, 1231, 3334
2925, 626, 1235, 3335, 1233
2926, 1233, 3335, 1234, 544
2927, 1235, 635, 1234, 3335
2928, 537, 1238, 3336, 1236
2929, 1236, 3336, 1237, 578
2930, 1238, 904, 1237, 3336
2931, 990, 1241, 3337, 1239
2932, 1239, 3337, 1240, 982
2933, 1241, 991, 1240, 3337
2934, 2892, 2482, 2483, 3278
2935, 3292, 3278, 613, 1191
2936, 2146, 1242, 622, 666
2937, 898, 1247, 3338, 1245
2938, 1245, 3338, 1246, 576
2939, 1247, 900, 1246, 3338
2940, 3415, 2261, 2263, 2262
2941, 2731, 1248, 1229, 3414
2942, 890, 1253, 3340, 1251
2943, 1251, 3340, 1252, 894
2944, 1253, 895, 1252, 3340
2945, 1014, 1256, 3341, 1254
2946, 1254, 3341, 1255, 1013
2947, 1256, 1015, 1255, 3341
2948, 571, 1259, 3342, 1257
2949, 1257, 3342, 1258, 887
2950, 1259, 888, 1258, 3342
2951, 746, 1262, 3343, 1260
2952, 1260, 3343, 1261, 742
2953, 1262, 748, 1261, 3343
2954, 676, 2572, 1977, 1193
2955, 830, 2968, 1756, 2088
2956, 2476, 3083, 819, 1174
2957, 1134, 1271, 3345, 1269
2958, 1269, 3345, 1270, 1137
2959, 1271, 1141, 1270, 3345
2960, 975, 1274, 3346, 1272
2961, 1272, 3346, 1273, 979
2962, 1274, 980, 1273, 3346
2963, 917, 1277, 3347, 1275
2964, 1275, 3347, 1276, 913
2965, 1277, 918, 1276, 3347
2966, 634, 1280, 3348, 1278
2967, 1278, 3348, 1279, 633
2968, 1280, 636, 1279, 3348
2969, 994, 1283, 3349, 1281
2970, 1281, 3349, 1282, 992
2971, 1283, 995, 1282, 3349
2972, 3398, 611, 2359, 616
2973, 2357, 2813, 2762, 2445
2974, 769, 3282, 2632, 3351
2975, 3409, 1588, 2352, 757
2976, 2459, 765, 3381, 2333
2977, 922, 1292, 3352, 1290
2978, 1290, 3352, 1291, 939
2979, 1292, 940, 1291, 3352
2980, 1158, 1295, 3353, 1293
2981, 1293, 3353, 1294, 606
2982, 1295, 1159, 1294, 3353
2983, 1001, 1298, 3354, 1296
2984, 1296, 3354, 1297, 1000
2985, 1298, 1014, 1297, 3354
2986, 1803, 3376, 1325, 2325
2987, 736, 2582, 2968, 830
2988, 2207, 2055, 2716, 1494
2989, 864, 1304, 3356, 1302
2990, 1302, 3356, 1303, 923
2991, 1304, 927, 1303, 3356
2992, 1092, 1307, 3357, 1305
2993, 1305, 3357, 1306, 1091
2994, 1307, 1093, 1306, 3357
2995, 1008, 1310, 3358, 1308
2996, 1308, 3358, 1309, 1007
2997, 1310, 1009, 1309, 3358
2998, 1097, 1313, 3359, 1311
2999, 1311, 3359, 1312, 1094
3000, 1313, 1108, 1312, 3359
3001, 1070, 1316, 3360, 1314
3002, 1314, 3360, 1315, 1068
3003, 1316, 1071, 1315, 3360
3004, 1083, 1319, 3361, 1317
3005, 1317, 3361, 1318, 1081
3006, 1319, 1084, 1318, 3361
3007, 799, 2456, 1604, 2251
3008, 2314, 2931, 2854, 3395
3009, 2460, 2812, 786, 1588
3010, 2386, 2985, 2857, 837
3011, 3182, 800, 3249, 802
3012, 3073, 2717, 3406, 1696
3013, 2822, 3043, 3042, 2912
3014, 1442, 2912, 2529, 3138
3015, 924, 1328, 3364, 1326
3016, 1326, 3364, 1327, 923
3017, 1328, 939, 1327, 3364
3018, 855, 2386, 837, 1740
3019, 1830, 1829, 2448, 3130
3020, 3365, 1542, 236, 448
3021, 654, 1334, 3366, 1332
3022, 1332, 3366, 1333, 651
3023, 1334, 655, 1333, 3366
3024, 886, 1337, 3367, 1335
3025, 1335, 3367, 1336, 884
3026, 1337, 887, 1336, 3367
3027, 1118, 1340, 3368, 1338
3028, 1338, 3368, 1339, 1112
3029, 1340, 1119, 1339, 3368
3030, 2146, 2794, 3057, 2980
3031, 613, 2481, 2798, 2797
3032, 3369, 2753, 2754, 2892
3033, 1115, 1345, 3370, 1343
3034, 1343, 3370, 1344, 1116
3035, 1345, 1117, 1344, 3370
3036, 971, 1348, 3371, 1346
3037, 1346, 3371, 1347, 967
3038, 1348, 989, 1347, 3371
3039, 927, 1351, 3372, 1349
3040, 1349, 3372, 1350, 926
3041, 1351, 928, 1350, 3372
3042, 1015, 1354, 3373, 1352
3043, 1352, 3373, 1353, 1018
3044, 1354, 1042, 1353, 3373
3045, 678, 2742, 2404, 1770
3046, 1426, 2594, 2593, 846
3047, 2541, 727, 2938, 2937
3048, 2689, 1228, 3333, 721
3049, 2744, 1419, 3136, 686
3050, 1355, 2661, 3376, 1803
3051, 861, 2847, 2219, 1383
3052, 2202, 249, 435, 722
3053, 956, 1364, 3377, 1362
3054, 1362, 3377, 1363, 957
3055, 1364, 959, 1363, 3377
3056, 1135, 1367, 3378, 1365
3057, 1365, 3378, 1366, 1122
3058, 1367, 1138, 1366, 3378
3059, 944, 1370, 3379, 1368
3060, 1368, 3379, 1369, 954
3061, 1370, 955, 1369, 3379
3062, 941, 1373, 3380, 1371
3063, 1371, 3380, 1372, 942
3064, 1373, 943, 1372, 3380
3065, 1586, 3182, 802, 2506
3066, 2647, 3071, 465, 220
3067, 1658, 2415, 3089, 1672
3068, 793, 476, 209, 812
3069, 1416, 2229, 788, 762
3070, 864, 1380, 3382, 1378
3071, 1378, 3382, 1379, 863
3072, 1380, 866, 1379, 3382
3073, 2600, 2034, 709, 706
3074, 2886, 1382, 2147, 2148
3075, 2047, 3103, 2570, 2679
3076, 2660, 3205, 2023, 745
3077, 839, 1711, 752, 2843
3078, 1696, 3406, 2859, 2222
3079, 1131, 1387, 3386, 1385
3080, 1385, 3386, 1386, 1132
3081, 1387, 1134, 1386, 3386
3082, 1067, 1390, 3387, 1388
3083, 1388, 3387, 1389, 1130
3084, 1390, 1140, 1389, 3387
3085, 1529, 1520, 2515, 2356
3086, 712, 1392, 713, 1420
3087, 687, 1617, 1959, 1391
3088, 953, 1395, 3388, 1393
3089, 1393, 3388, 1394, 952
3090, 1395, 958, 1394, 3388
3091, 1038, 1398, 3389, 1396
3092, 1396, 3389, 1397, 1036
3093, 1398, 1039, 1397, 3389
3094, 1052, 1401, 3390, 1399
3095, 1399, 3390, 1400, 1051
3096, 1401, 1054, 1400, 3390
3097, 2324, 1402, 2548, 716
3098, 2404, 744, 3209, 725
3099, 1188, 1710, 848, 2614
3100, 1173, 2617, 1642, 854
3101, 1133, 1408, 3392, 1406
3102, 1406, 3392, 1407, 1136
3103, 1408, 1137, 1407, 3392
3104, 949, 1411, 3393, 1409
3105, 1409, 3393, 1410, 965
3106, 1411, 966, 1410, 3393
3107, 705, 2698, 702, 2684
3108, 1018, 1415, 3394, 1413
3109, 1413, 3394, 1414, 1017
3110, 1415, 1019, 1414, 3394
3111, 3200, 2932, 3081, 1661
3112, 3061, 1226, 214, 470
3113, 1213, 1536, 474, 211
3114, 2513, 717, 1585, 685
3115, 2628, 2406, 2384, 1955
3116, 2384, 2688, 1584, 679
3117, 1342, 614, 2814, 2563
3118, 2698, 2680, 2944, 702
3119, 1878, 1263, 3383, 708
3120, 2359, 697, 661, 1263
3121, 2022, 783, 771, 2847
3122, 1708, 1493, 1426, 1709
3123, 3043, 1441, 3237, 3042
3124, 908, 1430, 3400, 1428
3125, 1428, 3400, 1429, 906
3126, 1430, 909, 1429, 3400
3127, 868, 1433, 3401, 1431
3128, 1431, 3401, 1432, 867
3129, 1433, 978, 1432, 3401
3130, 1004, 1436, 3402, 1434
3131, 1434, 3402, 1435, 1005
3132, 1436, 1016, 1435, 3402
3133, 948, 1439, 3403, 1437
3134, 1437, 3403, 1438, 981
3135, 1439, 982, 1438, 3403
3136, 1360, 2822, 2912, 1442
3137, 3124, 856, 2326, 850
3138, 849, 3124, 850, 851
3139, 2872, 2776, 735, 2400
3140, 668, 1446, 3405, 1444
3141, 2794, 1284, 2466, 664
3142, 1446, 671, 1445, 3405
3143, 2449, 234, 450, 2976
3144, 2969, 831, 3365, 1384
3145, 2507, 2646, 775, 1636
3146, 2811, 1213, 211, 473
3147, 2401, 1785, 1499, 2505
3148, 610, 2694, 1412, 3384
3149, 2438, 1192, 264, 420
3150, 2731, 3414, 3003, 3080
3151, 3415, 2731, 3080, 2486
*ELSET,ELSET=contact_source
133, 134, 135, 136, 137, 138, 139, 140, 141, 142, 
143, 144, 145, 146, 147, 148, 149, 150, 151, 152, 
153, 154, 
*ELSET,ELSET=contact_drain
41, 42, 43, 44, 45, 46, 47, 48, 49, 50, 
51, 52, 53, 54, 55, 56, 57, 58, 59, 60, 
61, 62, 
*ELSET,ELSET=probe_A
87, 88, 89, 90, 91, 92, 93, 94, 95, 96, 
97, 98, 99, 100, 101, 102, 103, 104, 105, 106, 
107, 108, 
*ELSET,ELSET=probe_B
17, 18, 19, 20, 21, 22, 23, 24, 
*ELSET,ELSET=walls
1, 2, 3, 4, 5, 6, 7, 8, 9, 10, 
11, 12, 13, 14, 15, 16, 25, 26, 27, 28, 
29, 30, 31, 32, 33, 34, 35, 36, 37, 38, 
39, 40, 63, 64, 65, 66, 67, 68, 69, 70, 
71, 72, 73, 74, 75, 76, 77, 78, 79, 80, 
81, 82, 83, 84, 85, 86, 109, 110, 111, 112, 
113, 114, 115, 116, 117, 118, 119, 120, 121, 122, 
123, 124, 125, 126, 127, 128, 129, 130, 131, 132, 
155, 156, 157, 158, 159, 160, 161, 162, 163, 164, 
165, 166, 167, 168, 169, 170, 171, 172, 173, 174, 
175, 176, 177, 178, 179, 180, 181, 182, 183, 184, 
185, 186, 187, 188, 189, 190, 191, 192, 193, 194, 
195, 196, 197, 198, 199, 200, 201, 202, 203, 204, 
205, 206, 207, 208, 209, 210, 211, 212, 213, 214, 
215, 216, 217, 218, 219, 220, 221, 222, 223, 224, 
225, 226, 227, 228, 229, 230, 231, 232, 233, 234, 
235, 236, 237, 238, 239, 240, 241, 242, 243, 244, 
245, 246, 247, 248, 249, 250, 251, 252, 253, 254, 
255, 256, 257, 258, 259, 260, 261, 262, 263, 264, 
265, 266, 267, 268, 269, 270, 271, 272, 273, 274, 
275, 276, 277, 278, 279, 280, 281, 282, 283, 284, 
285, 286, 287, 288, 289, 290, 291, 292, 293, 294, 
295, 296, 297, 298, 299, 300, 301, 302, 303, 304, 
305, 306, 307, 308, 309, 310, 311, 312, 313, 314, 
315, 316, 317, 318, 319, 320, 321, 322, 323, 324, 
325, 326, 327, 328, 329, 330, 331, 332, 333, 334, 
335, 336, 337, 338, 339, 340, 341, 342, 343, 344, 
345, 346, 347, 348, 349, 350, 351, 352, 353, 354, 
355, 356, 357, 358, 359, 360, 361, 362, 363, 364, 
365, 366, 367, 368, 369, 370, 371, 372, 373, 374, 
375, 376, 377, 378, 379, 380, 381, 382, 383, 384, 
385, 386, 387, 388, 389, 390, 391, 392, 393, 394, 
395, 396, 397, 398, 399, 400, 401, 402, 403, 404, 
405, 406, 407, 408, 409, 410, 411, 412, 413, 414, 
415, 416, 417, 418, 419, 420, 421, 422, 423, 424, 
425, 426, 427, 428, 429, 430, 431, 432, 433, 434, 
435, 436, 437, 438, 439, 440, 441, 442, 443, 444, 
445, 446, 447, 448, 449, 450, 451, 452, 453, 454, 
455, 456, 457, 458, 459, 460, 461, 462, 463, 464, 
465, 466, 467, 468, 469, 470, 471, 472, 473, 474, 
475, 476, 477, 478, 479, 480, 481, 482, 483, 484, 
485, 486, 487, 488, 489, 490, 491, 492, 493, 494, 
495, 496, 497, 498, 499, 500, 501, 502, 503, 504, 
505, 506, 507, 508, 509, 510, 511, 512, 513, 514, 
515, 516, 517, 518, 519, 520, 521, 522, 523, 524, 
525, 526, 527, 528, 
*ELSET,ELSET=domain
529, 530, 531, 532, 533, 534, 535, 536, 537, 538, 
539, 540, 541, 542, 543, 544, 545, 546, 547, 548, 
549, 550, 551, 552, 553, 554, 555, 556, 557, 558, 
559, 560, 561, 562, 563, 564, 565, 566, 567, 568, 
569, 570, 571, 572, 573, 574, 575, 576, 577, 578, 
579, 580, 581, 582, 583, 584, 585, 586, 587, 588, 
589, 590, 591, 592, 593, 594, 595, 596, 597, 598, 
599, 600, 601, 602, 603, 604, 605, 606, 607, 608, 
609, 610, 611, 612, 613, 614, 615, 616, 617, 618, 
619, 620, 621, 622, 623, 624, 625, 626, 627, 628, 
629, 630, 631, 632, 633, 634, 635, 636, 637, 638, 
639, 640, 641, 642, 643, 644, 645, 646, 647, 648, 
649, 650, 651, 652, 653, 654, 655, 656, 657, 658, 
659, 660, 661, 662, 663, 664, 665, 666, 667, 668, 
669, 670, 671, 672, 673, 674, 675, 676, 677, 678, 
679, 680, 681, 682, 683, 684, 685, 686, 687, 688, 
689, 690, 691, 692, 693, 694, 695, 696, 697, 698, 
699, 700, 701, 702, 703, 704, 705, 706, 707, 708, 
709, 710, 711, 712, 713, 714, 715, 716, 717, 718, 
719, 720, 721, 722, 723, 724, 725, 726, 727, 728, 
729, 730, 731, 732, 733, 734, 735, 736, 737, 738, 
739, 740, 741, 742, 743, 744, 745, 746, 747, 748, 
749, 750, 751, 752, 753, 754, 755, 756, 757, 758, 
759, 760, 761, 762, 763, 764, 765, 766, 767, 768, 
769, 770, 771, 772, 773, 774, 775, 776, 777, 778, 
779, 780, 781, 782, 783, 784, 785, 786, 787, 788, 
789, 790, 791, 792, 793, 794, 795, 796, 797, 798, 
799, 800, 801, 802, 803, 804, 805, 806, 807, 808, 
809, 810, 811, 812, 813, 814, 815, 816, 817, 818, 
819, 820, 821, 822, 823, 824, 825, 826, 827, 828, 
829, 830, 831, 832, 833, 834, 835, 836, 837, 838, 
839, 840, 841, 842, 843, 844, 845, 846, 847, 848, 
849, 850, 851, 852, 853, 854, 855, 856, 857, 858, 
859, 860, 861, 862, 863, 864, 865, 866, 867, 868, 
869, 870, 871, 872, 873, 874, 875, 876, 877, 878, 
879, 880, 881, 882, 883, 884, 885, 886, 887, 888, 
889, 890, 891, 892, 893, 894, 895, 896, 897, 898, 
899, 900, 901, 902, 903, 904, 905, 906, 907, 908, 
909, 910, 911, 912, 913, 914, 915, 916, 917, 918, 
919, 920, 921, 922, 923, 924, 925, 926, 927, 928, 
929, 930, 931, 932, 933, 934, 935, 936, 937, 938, 
939, 940, 941, 942, 943, 944, 945, 946, 947, 948, 
949, 950, 951, 952, 953, 954, 955, 956, 957, 958, 
959, 960, 961, 962, 963, 964, 965, 966, 967, 968, 
969, 970, 971, 972, 973, 974, 975, 976, 977, 978, 
979, 980, 981, 982, 983, 984, 985, 986, 987, 988, 
989, 990, 991, 992, 993, 994, 995, 996, 997, 998, 
999, 1000, 1001, 1002, 1003, 1004, 1005, 1006, 1007, 1008, 
1009, 1010, 1011, 1012, 1013, 1014, 1015, 1016, 1017, 1018, 
1019, 1020, 1021, 1022, 1023, 1024, 1025, 1026, 1027, 1028, 
1029, 1030, 1031, 1032, 1033, 1034, 1035, 1036, 1037, 1038, 
1039, 1040, 1041, 1042, 1043, 1044, 1045, 1046, 1047, 1048, 
1049, 1050, 1051, 1052, 1053, 1054, 1055, 1056, 1057, 1058, 
1059, 1060, 1061, 1062, 1063, 1064, 1065, 1066, 1067, 1068, 
1069, 1070, 1071, 1072, 1073, 1074, 1075, 1076, 1077, 1078, 
1079, 1080, 1081, 1082, 1083, 1084, 1085, 1086, 1087, 1088, 
1089, 1090, 1091, 1092, 1093, 1094, 1095, 1096, 1097, 1098, 
1099, 1100, 1101, 1102, 1103, 1104, 1105, 1106, 1107, 1108, 
1109, 1110, 1111, 1112, 1113, 1114, 1115, 1116, 1117, 1118, 
1119, 1120, 1121, 1122, 1123, 1124, 1125, 1126, 1127, 1128, 
1129, 1130, 1131, 1132, 1133, 1134, 1135, 1136, 1137, 1138, 
1139, 1140, 1141, 1142, 1143, 1144, 1145, 1146, 1147, 1148, 
1149, 1150, 1151, 1152, 1153, 1154, 1155, 1156, 1157, 1158, 
1159, 1160, 1161, 1162, 1163, 1164, 1165, 1166, 1167, 1168, 
1169, 1170, 1171, 1172, 1173, 1174, 1175, 1176, 1177, 1178, 
1179, 1180, 1181, 1182, 1183, 1184, 1185, 1186, 1187, 1188, 
1189, 1190, 1191, 1192, 1193, 1194, 1195, 1196, 1197, 1198, 
1199, 1200, 1201, 1202, 1203, 1204, 1205, 1206, 1207, 1208, 
1209, 1210, 1211, 1212, 1213, 1214, 1215, 1216, 1217, 1218, 
1219, 1220, 1221, 1222, 1223, 1224, 1225, 1226, 1227, 1228, 
1229, 1230, 1231, 1232, 1233, 1234, 1235, 1236, 1237, 1238, 
1239, 1240, 1241, 1242, 1243, 1244, 1245, 1246, 1247, 1248, 
1249, 1250, 1251, 1252, 1253, 1254, 1255, 1256, 1257, 1258, 
1259, 1260, 1261, 1262, 1263, 1264, 1265, 1266, 1267, 1268, 
1269, 1270, 1271, 1272, 1273, 1274, 1275, 1276, 1277, 1278, 
1279, 1280, 1281, 1282, 1283, 1284, 1285, 1286, 1287, 1288, 
1289, 1290, 1291, 1292, 1293, 1294, 1295, 1296, 1297, 1298, 
1299, 1300, 1301, 1302, 1303, 1304, 1305, 1306, 1307, 1308, 
1309, 1310, 1311, 1312, 1313, 1314, 1315, 1316, 1317, 1318, 
1319, 1320, 1321, 1322, 1323, 1324, 1325, 1326, 1327, 1328, 
1329, 1330, 1331, 1332, 1333, 1334, 1335, 1336, 1337, 1338, 
1339, 1340, 1341, 1342, 1343, 1344, 1345, 1346, 1347, 1348, 
1349, 1350, 1351, 1352, 1353, 1354, 1355, 1356, 1357, 1358, 
1359, 1360, 1361, 1362, 1363, 1364, 1365, 1366, 1367, 1368, 
1369, 1370, 1371, 1372, 1373, 1374, 1375, 1376, 1377, 1378, 
1379, 1380, 1381, 1382, 1383, 1384, 1385, 1386, 1387, 1388, 
1389, 1390, 1391, 1392, 1393, 1394, 1395, 1396, 1397, 1398, 
1399, 1400, 1401, 1402, 1403, 1404, 1405, 1406, 1407, 1408, 
1409, 1410, 1411, 1412, 1413, 1414, 1415, 1416, 1417, 1418, 
1419, 1420, 1421, 1422, 1423, 1424, 1425, 1426, 1427, 1428, 
1429, 1430, 1431, 1432, 1433, 1434, 1435, 1436, 1437, 1438, 
1439, 1440, 1441, 1442, 1443, 1444, 1445, 1446, 1447, 1448, 
1449, 1450, 1451, 1452, 1453, 1454, 1455, 1456, 1457, 1458, 
1459, 1460, 1461, 1462, 1463, 1464, 1465, 1466, 1467, 1468, 
1469, 1470, 1471, 1472, 1473, 1474, 1475, 1476, 1477, 1478, 
1479, 1480, 1481, 1482, 1483, 1484, 1485, 1486, 1487, 1488, 
1489, 1490, 1491, 1492, 1493, 1494, 1495, 1496, 1497, 1498, 
1499, 1500, 1501, 1502, 1503, 1504, 1505, 1506, 1507, 1508, 
1509, 1510, 1511, 1512, 1513, 1514, 1515, 1516, 1517, 1518, 
1519, 1520, 1521, 1522, 1523, 1524, 1525, 1526, 1527, 1528, 
1529, 1530, 1531, 1532, 1533, 1534, 1535, 1536, 1537, 1538, 
1539, 1540, 1541, 1542, 1543, 1544, 1545, 1546, 1547, 1548, 
1549, 1550, 1551, 1552, 1553, 1554, 1555, 1556, 1557, 1558, 
1559, 1560, 1561, 1562, 1563, 1564, 1565, 1566, 1567, 1568, 
1569, 1570, 1571, 1572, 1573, 1574, 1575, 1576, 1577, 1578, 
1579, 1580, 1581, 1582, 1583, 1584, 1585, 1586, 1587, 1588, 
1589, 1590, 1591, 1592, 1593, 1594, 1595, 1596, 1597, 1598, 
1599, 1600, 1601, 1602, 1603, 1604, 1605, 1606, 1607, 1608, 
1609, 1610, 1611, 1612, 1613, 1614, 1615, 1616, 1617, 1618, 
1619, 1620, 1621, 1622, 1623, 1624, 1625, 1626, 1627, 1628, 
1629, 1630, 1631, 1632, 1633, 1634, 1635, 1636, 1637, 1638, 
1639, 1640, 1641, 1642, 1643, 1644, 1645, 1646, 1647, 1648, 
1649, 1650, 1651, 1652, 1653, 1654, 1655, 1656, 1657, 1658, 
1659, 1660, 1661, 1662, 1663, 1664, 1665, 1666, 1667, 1668, 
1669, 1670, 1671, 1672, 1673, 1674, 1675, 1676, 1677, 1678, 
1679, 1680, 1681, 1682, 1683, 1684, 1685, 1686, 1687, 1688, 
1689, 1690, 1691, 1692, 1693, 1694, 1695, 1696, 1697, 1698, 
1699, 1700, 1701, 1702, 1703, 1704, 1705, 1706, 1707, 1708, 
1709, 1710, 1711, 1712, 1713, 1714, 1715, 1716, 1717, 1718, 
1719, 1720, 1721, 1722, 1723, 1724, 1725, 1726, 1727, 1728, 
1729, 1730, 1731, 1732, 1733, 1734, 1735, 1736, 1737, 1738, 
1739, 1740, 1741, 1742, 1743, 1744, 1745, 1746, 1747, 1748, 
1749, 1750, 1751, 1752, 1753, 1754, 1755, 1756, 1757, 1758, 
1759, 1760, 1761, 1762, 1763, 1764, 1765, 1766, 1767, 1768, 
1769, 1770, 1771, 1772, 1773, 1774, 1775, 1776, 1777, 1778, 
1779, 1780, 1781, 1782, 1783, 1784, 1785, 1786, 1787, 1788, 
1789, 1790, 1791, 1792, 1793, 1794, 1795, 1796, 1797, 1798, 
1799, 1800, 1801, 1802, 1803, 1804, 1805, 1806, 1807, 1808, 
1809, 1810, 1811, 1812, 1813, 1814, 1815, 1816, 1817, 1818, 
1819, 1820, 1821, 1822, 1823, 1824, 1825, 1826, 1827, 1828, 
1829, 1830, 1831, 1832, 1833, 1834, 1835, 1836, 1837, 1838, 
1839, 1840, 1841, 1842, 1843, 1844, 1845, 1846, 1847, 1848, 
1849, 1850, 1851, 1852, 1853, 1854, 1855, 1856, 1857, 1858, 
1859, 1860, 1861, 1862, 1863, 1864, 1865, 1866, 1867, 1868, 
1869, 1870, 1871, 1872, 1873, 1874, 1875, 1876, 1877, 1878, 
1879, 1880, 1881, 1882, 1883, 1884, 1885, 1886, 1887, 1888, 
1889, 1890, 1891, 1892, 1893, 1894, 1895, 1896, 1897, 1898, 
1899, 1900, 1901, 1902, 1903, 1904, 1905, 1906, 1907, 1908, 
1909, 1910, 1911, 1912, 1913, 1914, 1915, 1916, 1917, 1918, 
1919, 1920, 1921, 1922, 1923, 1924, 1925, 1926, 1927, 1928, 
1929, 1930, 1931, 1932, 1933, 1934, 1935, 1936, 1937, 1938, 
1939, 1940, 1941, 1942, 1943, 1944, 1945, 1946, 1947, 1948, 
1949, 1950, 1951, 1952, 1953, 1954, 1955, 1956, 1957, 1958, 
1959, 1960, 1961, 1962, 1963, 1964, 1965, 1966, 1967, 1968, 
1969, 1970, 1971, 1972, 1973, 1974, 1975, 1976, 1977, 1978, 
1979, 1980, 1981, 1982, 1983, 1984, 1985, 1986, 1987, 1988, 
1989, 1990, 1991, 1992, 1993, 1994, 1995, 1996, 1997, 1998, 
1999, 2000, 2001, 2002, 2003, 2004, 2005, 2006, 2007, 2008, 
2009, 2010, 2011, 2012, 2013, 2014, 2015, 2016, 2017, 2018, 
2019, 2020, 2021, 2022, 2023, 2024, 2025, 2026, 2027, 2028, 
2029, 2030, 2031, 2032, 2033, 2034, 2035, 2036, 2037, 2038, 
2039, 2040, 2041, 2042, 2043, 2044, 2045, 2046, 2047, 2048, 
2049, 2050, 2051, 2052, 2053, 2054, 2055, 2056, 2057, 2058, 
2059, 2060, 2061, 2062, 2063, 2064, 2065, 2066, 2067, 2068, 
2069, 2070, 2071, 2072, 2073, 2074, 2075, 2076, 2077, 2078, 
2079, 2080, 2081, 2082, 2083, 2084, 2085, 2086, 2087, 2088, 
2089, 2090, 2091, 2092, 2093, 2094, 2095, 2096, 2097, 2098, 
2099, 2100, 2101, 2102, 2103, 2104, 2105, 2106, 2107, 2108, 
2109, 2110, 2111, 2112, 2113, 2114, 2115, 2116, 2117, 2118, 
2119, 2120, 2121, 2122, 2123, 2124, 2125, 2126, 2127, 2128, 
2129, 2130, 2131, 2132, 2133, 2134, 2135, 2136, 2137, 2138, 
2139, 2140, 2141, 2142, 2143, 2144, 2145, 2146, 2147, 2148, 
2149, 2150, 2151, 2152, 2153, 2154, 2155, 2156, 2157, 2158, 
2159, 2160, 2161, 2162, 2163, 2164, 2165, 2166, 2167, 2168, 
2169, 2170, 2171, 2172, 2173, 2174, 2175, 2176, 2177, 2178, 
2179, 2180, 2181, 2182, 2183, 2184, 2185, 2186, 2187, 2188, 
2189, 2190, 2191, 2192, 2193, 2194, 2195, 2196, 2197, 2198, 
2199, 2200, 2201, 2202, 2203, 2204, 2205, 2206, 2207, 2208, 
2209, 2210, 2211, 2212, 2213, 2214, 2215, 2216, 2217, 2218, 
2219, 2220, 2221, 2222, 2223, 2224, 2225, 2226, 2227, 2228, 
2229, 2230, 2231, 2232, 2233, 2234, 2235, 2236, 2237, 2238, 
2239, 2240, 2241, 2242, 2243, 2244, 2245, 2246, 2247, 2248, 
2249, 2250, 2251, 2252, 2253, 2254, 2255, 2256, 2257, 2258, 
2259, 2260, 2261, 2262, 2263, 2264, 2265, 2266, 2267, 2268, 
2269, 2270, 2271, 2272, 2273, 2274, 2275, 2276, 2277, 2278, 
2279, 2280, 2281, 2282, 2283, 2284, 2285, 2286, 2287, 2288, 
2289, 2290, 2291, 2292, 2293, 2294, 2295, 2296, 2297, 2298, 
2299, 2300, 2301, 2302, 2303, 2304, 2305, 2306, 2307, 2308, 
2309, 2310, 2311, 2312, 2313, 2314, 2315, 2316, 2317, 2318, 
2319, 2320, 2321, 2322, 2323, 2324, 2325, 2326, 2327, 2328, 
2329, 2330, 2331, 2332, 2333, 2334, 2335, 2336, 2337, 2338, 
2339, 2340, 2341, 2342, 2343, 2344, 2345, 2346, 2347, 2348, 
2349, 2350, 2351, 2352, 2353, 2354, 2355, 2356, 2357, 2358, 
2359, 2360, 2361, 2362, 2363, 2364, 2365, 2366, 2367, 2368, 
2369, 2370, 2371, 2372, 2373, 2374, 2375, 2376, 2377, 2378, 
2379, 2380, 2381, 2382, 2383, 2384, 2385, 2386, 2387, 2388, 
2389, 2390, 2391, 2392, 2393, 2394, 2395, 2396, 2397, 2398, 
2399, 2400, 2401, 2402, 2403, 2404, 2405, 2406, 2407, 2408, 
2409, 2410, 2411, 2412, 2413, 2414, 2415, 2416, 2417, 2418, 
2419, 2420, 2421, 2422, 2423, 2424, 2425, 2426, 2427, 2428, 
2429, 2430, 2431, 2432, 2433, 2434, 2435, 2436, 2437, 2438, 
2439, 2440, 2441, 2442, 2443, 2444, 2445, 2446, 2447, 2448, 
2449, 2450, 2451, 2452, 2453, 2454, 2455, 2456, 2457, 2458, 
2459, 2460, 2461, 2462, 2463, 2464, 2465, 2466, 2467, 2468, 
2469, 2470, 2471, 2472, 2473, 2474, 2475, 2476, 2477, 2478, 
2479, 2480, 2481, 2482, 2483, 2484, 2485, 2486, 2487, 2488, 
2489, 2490, 2491, 2492, 2493, 2494, 2495, 2496, 2497, 2498, 
2499, 2500, 2501, 2502, 2503, 2504, 2505, 2506, 2507, 2508, 
2509, 2510, 2511, 2512, 2513, 2514, 2515, 2516, 2517, 2518, 
2519, 2520, 2521, 2522, 2523, 2524, 2525, 2526, 2527, 2528, 
2529, 2530, 2531, 2532, 2533, 2534, 2535, 2536, 2537, 2538, 
2539, 2540, 2541, 2542, 2543, 2544, 2545, 2546, 2547, 2548, 
2549, 2550, 2551, 2552, 2553, 2554, 2555, 2556, 2557, 2558, 
2559, 2560, 2561, 2562, 2563, 2564, 2565, 2566, 2567, 2568, 
2569, 2570, 2571, 2572, 2573, 2574, 2575, 2576, 2577, 2578, 
2579, 2580, 2581, 2582, 2583, 2584, 2585, 2586, 2587, 2588, 
2589, 2590, 2591, 2592, 2593, 2594, 2595, 2596, 2597, 2598, 
2599, 2600, 2601, 2602, 2603, 2604, 2605, 2606, 2607, 2608, 
2609, 2610, 2611, 2612, 2613, 2614, 2615, 2616, 2617, 2618, 
2619, 2620, 2621, 2622, 2623, 2624, 2625, 2626, 2627, 2628, 
2629, 2630, 2631, 2632, 2633, 2634, 2635, 2636, 2637, 2638, 
2639, 2640, 2641, 2642, 2643, 2644, 2645, 2646, 2647, 2648, 
2649, 2650, 2651, 2652, 2653, 2654, 2655, 2656, 2657, 2658, 
2659, 2660, 2661, 2662, 2663, 2664, 2665, 2666, 2667, 2668, 
2669, 2670, 2671, 2672, 2673, 2674, 2675, 2676, 2677, 2678, 
2679, 2680, 2681, 2682, 2683, 2684, 2685, 2686, 2687, 2688, 
2689, 2690, 2691, 2692, 2693, 2694, 2695, 2696, 2697, 2698, 
2699, 2700, 2701, 2702, 2703, 2704, 2705, 2706, 2707, 2708, 
2709, 2710, 2711, 2712, 2713, 2714, 2715, 2716, 2717, 2718, 
2719, 2720, 2721, 2722, 2723, 2724, 2725, 2726, 2727, 2728, 
2729, 2730, 2731, 2732, 2733, 2734, 2735, 2736, 2737, 2738, 
2739, 2740, 2741, 2742, 2743, 2744, 2745, 2746, 2747, 2748, 
2749, 2750, 2751, 2752, 2753, 2754, 2755, 2756, 2757, 2758, 
2759, 2760, 2761, 2762, 2763, 2764, 2765, 2766, 2767, 2768, 
2769, 2770, 2771, 2772, 2773, 2774, 2775, 2776, 2777, 2778, 
2779, 2780, 2781, 2782, 2783, 2784, 2785, 2786, 2787, 2788, 
2789, 2790, 2791, 2792, 2793, 2794, 2795, 2796, 2797, 2798, 
2799, 2800, 2801, 2802, 2803, 2804, 2805, 2806, 2807, 2808, 
2809, 2810, 2811, 2812, 2813, 2814, 2815, 2816, 2817, 2818, 
2819, 2820, 2821, 2822, 2823, 2824, 2825, 2826, 2827, 2828, 
2829, 2830, 2831, 2832, 2833, 2834, 2835, 2836, 2837, 2838, 
2839, 2840, 2841, 2842, 2843, 2844, 2845, 2846, 2847, 2848, 
2849, 2850, 2851, 2852, 2853, 2854, 2855, 2856, 2857, 2858, 
2859, 2860, 2861, 2862, 2863, 2864, 2865, 2866, 2867, 2868, 
2869, 2870, 2871, 2872, 2873, 2874, 2875, 2876, 2877, 2878, 
2879, 2880, 2881, 2882, 2883, 2884, 2885, 2886, 2887, 2888, 
2889, 2890, 2891, 2892, 2893, 2894, 2895, 2896, 2897, 2898, 
2899, 2900, 2901, 2902, 2903, 2904, 2905, 2906, 2907, 2908, 
2909, 2910, 2911, 2912, 2913, 2914, 2915, 2916, 2917, 2918, 
2919, 2920, 2921, 2922, 2923, 2924, 2925, 2926, 2927, 2928, 
2929, 2930, 2931, 2932, 2933, 2934, 2935, 2936, 2937, 2938, 
2939, 2940, 2941, 2942, 2943, 2944, 2945, 2946, 2947, 2948, 
2949, 2950, 2951, 2952, 2953, 2954, 2955, 2956, 2957, 2958, 
2959, 2960, 2961, 2962, 2963, 2964, 2965, 2966, 2967, 2968, 
2969, 2970, 2971, 2972, 2973, 2974, 2975, 2976, 2977, 2978, 
2979, 2980, 2981, 2982, 2983, 2984, 2985, 2986, 2987, 2988, 
2989, 2990, 2991, 2992, 2993, 2994, 2995, 2996, 2997, 2998, 
2999, 3000, 3001, 3002, 3003, 3004, 3005, 3006, 3007, 3008, 
3009, 3010, 3011, 3012, 3013, 3014, 3015, 3016, 3017, 3018, 
3019, 3020, 3021, 3022, 3023, 3024, 3025, 3026, 3027, 3028, 
3029, 3030, 3031, 3032, 3033, 3034, 3035, 3036, 3037, 3038, 
3039, 3040, 3041, 3042, 3043, 3044, 3045, 3046, 3047, 3048, 
3049, 3050, 3051, 3052, 3053, 3054, 3055, 3056, 3057, 3058, 
3059, 3060, 3061, 3062, 3063, 3064, 3065, 3066, 3067, 3068, 
3069, 3070, 3071, 3072, 3073, 3074, 3075, 3076, 3077, 3078, 
3079, 3080, 3081, 3082, 3083, 3084, 3085, 3086, 3087, 3088, 
3089, 3090, 3091, 3092, 3093, 3094, 3095, 3096, 3097, 3098, 
3099, 3100, 3101, 3102, 3103, 3104, 3105, 3106, 3107, 3108, 
3109, 3110, 3111, 3112, 3113, 3114, 3115, 3116, 3117, 3118, 
3119, 3120, 3121, 3122, 3123, 3124, 3125, 3126, 3127, 3128, 
3129, 3130, 3131, 3132, 3133, 3134, 3135, 3136, 3137, 3138, 
3139, 3140, 3141, 3142, 3143, 3144, 3145, 3146, 3147, 3148, 
3149, 3150, 3151, 3152, 3153, 3154, 3155, 3156, 3157, 3158, 
3159, 3160, 3161, 3162, 3163, 3164, 3165, 3166, 3167, 3168, 
3169, 3170, 3171, 3172, 3173, 3174, 3175, 3176, 3177, 3178, 
3179, 3180, 3181, 3182, 3183, 3184, 3185, 3186, 3187, 3188, 
3189, 3190, 3191, 3192, 3193, 3194, 3195, 3196, 3197, 3198, 
3199, 3200, 3201, 3202, 3203, 3204, 3205, 3206, 3207, 3208, 
3209, 3210, 3211, 3212, 3213, 3214, 3215, 3216, 3217, 3218, 
3219, 3220, 3221, 3222, 3223, 3224, 3225, 3226, 3227, 3228, 
3229, 3230, 3231, 3232, 3233, 3234, 3235, 3236, 3237, 3238, 
3239, 3240, 3241, 3242, 3243, 3244, 3245, 3246, 3247, 3248, 
3249, 3250, 3251, 3252, 3253, 3254, 3255, 3256, 3257, 3258, 
3259, 3260, 3261, 3262, 3263, 3264, 3265, 3266, 3267, 3268, 
3269, 3270, 3271, 3272, 3273, 3274, 3275, 3276, 3277, 3278, 
3279, 3280, 3281, 3282, 3283, 3284, 3285, 3286, 3287, 3288, 
3289, 3290, 3291, 3292, 3293, 3294, 3295, 3296, 3297, 3298, 
3299, 3300, 3301, 3302, 3303, 3304, 3305, 3306, 3307, 3308, 
3309, 3310, 3311, 3312, 3313, 3314, 3315, 3316, 3317, 3318, 
3319, 3320, 3321, 3322, 3323, 3324, 3325, 3326, 3327, 3328, 
3329, 3330, 3331, 3332, 3333, 3334, 3335, 3336, 3337, 3338, 
3339, 3340, 3341, 3342, 3343, 3344, 3345, 3346, 3347, 3348, 
3349, 3350, 3351, 3352, 3353, 3354, 3355, 3356, 3357, 3358, 
3359, 3360, 3361, 3362, 3363, 3364, 3365, 3366, 3367, 3368, 
3369, 3370, 3371, 3372, 3373, 3374, 3375, 3376, 3377, 3378, 
3379, 3380, 3381, 3382, 3383, 3384, 3385, 3386, 3387, 3388, 
3389, 3390, 3391, 3392, 3393, 3394, 3395, 3396, 3397, 3398, 
3399, 3400, 3401, 3402, 3403, 3404, 3405, 3406, 3407, 3408, 
3409, 3410, 3411, 3412, 3413, 3414, 3415, 3416, 3417, 3418, 
3419, 3420, 3421, 3422, 3423, 3424, 3425, 3426, 3427, 3428, 
3429, 3430, 3431, 3432, 3433, 3434, 3435, 3436, 3437, 3438, 
3439, 3440, 3441, 3442, 3443, 3444, 3445, 3446, 3447, 3448, 
3449, 3450, 3451, 3452, 3453, 3454, 3455, 3456, 3457, 3458, 
3459, 3460, 3461, 3462, 3463, 3464, 3465, 3466, 3467, 3468, 
3469, 3470, 3471, 3472, 3473, 3474, 3475, 3476, 3477, 3478, 
3479, 3480, 3481, 3482, 3483, 3484, 3485, 3486, 3487, 3488, 
3489, 3490, 3491, 3492, 3493, 3494, 3495, 3496, 3497, 3498, 
3499, 3500, 3501, 3502, 3503, 3504, 3505, 3506, 3507, 3508, 
3509, 3510, 3511, 3512, 3513, 3514, 3515, 3516, 3517, 3518, 
3519, 3520, 3521, 3522, 3523, 3524, 3525, 3526, 3527, 3528, 
3529, 3530, 3531, 3532, 3533, 3534, 3535, 3536, 3537, 3538, 
3539, 3540, 3541, 3542, 3543, 3544, 3545, 3546, 3547, 3548, 
3549, 3550, 3551, 3552, 3553, 3554, 3555, 3556, 3557, 3558, 
3559, 3560, 3561, 3562, 3563, 3564, 3565, 3566, 3567, 3568, 
3569, 3570, 3571, 3572, 3573, 3574, 3575, 3576, 3577, 3578, 
3579, 3580, 3581, 3582, 3583, 3584, 3585, 3586, 3587, 3588, 
3589, 3590, 3591, 3592, 3593, 3594, 3595, 3596, 3597, 3598, 
3599, 3600, 3601, 3602, 3603, 3604, 3605, 3606, 3607, 3608, 
3609, 3610, 3611, 3612, 3613, 3614, 3615, 3616, 3617, 3618, 
3619, 3620, 3621, 3622, 3623, 3624, 3625, 3626, 3627, 3628, 
3629, 3630, 3631, 3632, 3633, 3634, 3635, 3636, 3637, 3638, 
3639, 3640, 3641, 3642, 3643, 3644, 3645, 3646, 3647, 3648, 
3649, 3650, 3651, 3652, 3653, 3654, 3655, 3656, 3657, 3658, 
3659, 3660, 3661, 3662, 3663, 3664, 3665, 3666, 3667, 3668, 
3669, 3670, 3671, 3672, 3673, 3674, 3675, 3676, 3677, 3678, 
3679, 
*NSET,NSET=contact_source
1, 8, 135, 136, 137, 138, 139, 140, 141, 142, 
143, 144, 145, 146, 147, 148, 149, 150, 151, 152, 
153, 154, 155, 
*NSET,NSET=contact_drain
4, 5, 47, 48, 49, 50, 51, 52, 53, 54, 
55, 56, 57, 58, 59, 60, 61, 62, 63, 64, 
65, 66, 67, 
*NSET,NSET=probe_A
6, 7, 91, 92, 93, 94, 95, 96, 97, 98, 
99, 100, 101, 102, 103, 104, 105, 106, 107, 108, 
109, 110, 111, 
*NSET,NSET=probe_B
2, 3, 25, 26, 27, 28, 29, 30, 31, 
*NSET,NSET=walls
1, 2, 3, 4, 5, 6, 7, 8, 9, 10, 
11, 12, 13, 14, 15, 16, 17, 18, 19, 20, 
21, 22, 23, 24, 32, 33, 34, 35, 36, 37, 
38, 39, 40, 41, 42, 43, 44, 45, 46, 68, 
69, 70, 71, 72, 73, 74, 75, 76, 77, 78, 
79, 80, 81, 82, 83, 84, 85, 86, 87, 88, 
89, 90, 112, 113, 114, 115, 116, 117, 118, 119, 
120, 121, 122, 123, 124, 125, 126, 127, 128, 129, 
130, 131, 132, 133, 134, 156, 157, 158, 159, 160, 
161, 162, 163, 164, 165, 166, 167, 168, 169, 170, 
171, 172, 173, 174, 175, 176, 177, 178, 179, 180, 
181, 182, 183, 184, 185, 186, 187, 188, 189, 190, 
191, 192, 193, 194, 195, 196, 197, 198, 199, 200, 
201, 202, 203, 204, 205, 206, 207, 208, 209, 210, 
211, 212, 213, 214, 215, 216, 217, 218, 219, 220, 
221, 222, 223, 224, 225, 226, 227, 228, 229, 230, 
231, 232, 233, 234, 235, 236, 237, 238, 239, 240, 
241, 242, 243, 244, 245, 246, 247, 248, 249, 250, 
251, 252, 253, 254, 255, 256, 257, 258, 259, 260, 
261, 262, 263, 264, 265, 266, 267, 268, 269, 270, 
271, 272, 273, 274, 275, 276, 277, 278, 279, 280, 
281, 282, 283, 284, 285, 286, 287, 288, 289, 290, 
291, 292, 293, 294, 295, 296, 297, 298, 299, 300, 
301, 302, 303, 304, 305, 306, 307, 308, 309, 310, 
311, 312, 313, 314, 315, 316, 317, 318, 319, 320, 
321, 322, 323, 324, 325, 326, 327, 328, 329, 330, 
331, 332, 333, 334, 335, 336, 337, 338, 339, 340, 
341, 342, 343, 344, 345, 346, 347, 348, 349, 350, 
351, 352, 353, 354, 355, 356, 357, 358, 359, 360, 
361, 362, 363, 364, 365, 366, 367, 368, 369, 370, 
371, 372, 373, 374, 375, 376, 377, 378, 379, 380, 
381, 382, 383, 384, 385, 386, 387, 388, 389, 390, 
391, 392, 393, 394, 395, 396, 397, 398, 399, 400, 
401, 402, 403, 404, 405, 406, 407, 408, 409, 410, 
411, 412, 413, 414, 415, 416, 417, 418, 419, 420, 
421, 422, 423, 424, 425, 426, 427, 428, 429, 430, 
431, 432, 433, 434, 435, 436, 437, 438, 439, 440, 
441, 442, 443, 444, 445, 446, 447, 448, 449, 450, 
451, 452, 453, 454, 455, 456, 457, 458, 459, 460, 
461, 462, 463, 464, 465, 466, 467, 468, 469, 470, 
471, 472, 473, 474, 475, 476, 477, 478, 479, 480, 
481, 482, 483, 484, 485, 486, 487, 488, 489, 490, 
491, 492, 493, 494, 495, 496, 497, 498, 499, 500, 
501, 502, 503, 504, 505, 506, 507, 508, 509, 510, 
511, 512, 513, 514, 515, 516, 517, 518, 519, 520, 
521, 522, 523, 524, 525, 526, 527, 528, 
*NSET,NSET=domain
1, 2, 3, 4, 5, 6, 7, 8, 9, 10, 
11, 12, 13, 14, 15, 16, 17, 18, 19, 20, 
21, 22, 23, 24, 25, 26, 27, 28, 29, 30, 
31, 32, 33, 34, 35, 36, 37, 38, 39, 40, 
41, 42, 43, 44, 45, 46, 47, 48, 49, 50, 
51, 52, 53, 54, 55, 56, 57, 58, 59, 60, 
61, 62, 63, 64, 65, 66, 67, 68, 69, 70, 
71, 72, 73, 74, 75, 76, 77, 78, 79, 80, 
81, 82, 83, 84, 85, 86, 87, 88, 89, 90, 
91, 92, 93, 94, 95, 96, 97, 98, 99, 100, 
101, 102, 103, 104, 105, 106, 107, 108, 109, 110, 
111, 112, 113, 114, 115, 116, 117, 118, 119, 120, 
121, 122, 123, 124, 125, 126, 127, 128, 129, 130, 
131, 132, 133, 134, 135, 136, 137, 138, 139, 140, 
141, 142, 143, 144, 145, 146, 147, 148, 149, 150, 
151, 152, 153, 154, 155, 156, 157, 158, 159, 160, 
161, 162, 163, 164, 165, 166, 167, 168, 169, 170, 
171, 172, 173, 174, 175, 176, 177, 178, 179, 180, 
181, 182, 183, 184, 185, 186, 187, 188, 189, 190, 
191, 192, 193, 194, 195, 196, 197, 198, 199, 200, 
201, 202, 203, 204, 205, 206, 207, 208, 209, 210, 
211, 212, 213, 214, 215, 216, 217, 218, 219, 220, 
221, 222, 223, 224, 225, 226, 227, 228, 229, 230, 
231, 232, 233, 234, 235, 236, 237, 238, 239, 240, 
241, 242, 243, 244, 245, 246, 247, 248, 249, 250, 
251, 252, 253, 254, 255, 256, 257, 258, 259, 260, 
261, 262, 263, 264, 265, 266, 267, 268, 269, 270, 
271, 272, 273, 274, 275, 276, 277, 278, 279, 280, 
281, 282, 283, 284, 285, 286, 287, 288, 289, 290, 
291, 292, 293, 294, 295, 296, 297, 298, 299, 300, 
301, 302, 303, 304, 305, 306, 307, 308, 309, 310, 
311, 312, 313, 314, 315, 316, 317, 318, 319, 320, 
321, 322, 323, 324, 325, 326, 327, 328, 329, 330, 
331, 332, 333, 334, 335, 336, 337, 338, 339, 340, 
341, 342, 343, 344, 345, 346, 347, 348, 349, 350, 
351, 352, 353, 354, 355, 356, 357, 358, 359, 360, 
361, 362, 363, 364, 365, 366, 367, 368, 369, 370, 
371, 372, 373, 374, 375, 376, 377, 378, 379, 380, 
381, 382, 383, 384, 385, 386, 387, 388, 389, 390, 
391, 392, 393, 394, 395, 396, 397, 398, 399, 400, 
401, 402, 403, 404, 405, 406, 407, 408, 409, 410, 
411, 412, 413, 414, 415, 416, 417, 418, 419, 420, 
421, 422, 423, 424, 425, 426, 427, 428, 429, 430, 
431, 432, 433, 434, 435, 436, 437, 438, 439, 440, 
441, 442, 443, 444, 445, 446, 447, 448, 449, 450, 
451, 452, 453, 454, 455, 456, 457, 458, 459, 460, 
461, 462, 463, 464, 465, 466, 467, 468, 469, 470, 
471, 472, 473, 474, 475, 476, 477, 478, 479, 480, 
481, 482, 483, 484, 485, 486, 487, 488, 489, 490, 
491, 492, 493, 494, 495, 496, 497, 498, 499, 500, 
501, 502, 503, 504, 505, 506, 507, 508, 509, 510, 
511, 512, 513, 514, 515, 516, 517, 518, 519, 520, 
521, 522, 523, 524, 525, 526, 527, 528, 529, 530, 
531, 532, 533, 534, 535, 536, 537, 538, 539, 540, 
541, 542, 543, 544, 545, 546, 547, 548, 549, 550, 
551, 552, 553, 554, 555, 556, 557, 558, 559, 560, 
561, 562, 563, 564, 565, 566, 567, 568, 569, 570, 
571, 572, 573, 574, 575, 576, 577, 578, 579, 580, 
581, 582, 583, 584, 585, 586, 587, 588, 589, 590, 
591, 592, 593, 594, 595, 596, 597, 598, 599, 600, 
601, 602, 603, 604, 605, 606, 607, 608, 609, 610, 
611, 612, 613, 614, 615, 616, 617, 618, 619, 620, 
621, 622, 623, 624, 625, 626, 627, 628, 629, 630, 
631, 632, 633, 634, 635, 636, 637, 638, 639, 640, 
641, 642, 643, 644, 645, 646, 647, 648, 649, 650, 
651, 652, 653, 654, 655, 656, 657, 658, 659, 660, 
661, 662, 663, 664, 665, 666, 667, 668, 669, 670, 
671, 672, 673, 674, 675, 676, 677, 678, 679, 680, 
681, 682, 683, 684, 685, 686, 687, 688, 689, 690, 
691, 692, 693, 694, 695, 696, 697, 698, 699, 700, 
701, 702, 703, 704, 705, 706, 707, 708, 709, 710, 
711, 712, 713, 714, 715, 716, 717, 718, 719, 720, 
721, 722, 723, 724, 725, 726, 727, 728, 729, 730, 
731, 732, 733, 734, 735, 736, 737, 738, 739, 740, 
741, 742, 743, 744, 745, 746, 747, 748, 749, 750, 
751, 752, 753, 754, 755, 756, 757, 758, 759, 760, 
761, 762, 763, 764, 765, 766, 767, 768, 769, 770, 
771, 772, 773, 774, 775, 776, 777, 778, 779, 780, 
781, 782, 783, 784, 785, 786, 787, 788, 789, 790, 
791, 792, 793, 794, 795, 796, 797, 798, 799, 800, 
801, 802, 803, 804, 805, 806, 807, 808, 809, 810, 
811, 812, 813, 814, 815, 816, 817, 818, 819, 820, 
821, 822, 823, 824, 825, 826, 827, 828, 829, 830, 
831, 832, 833, 834, 835, 836, 837, 838, 839, 840, 
841, 842, 843, 844, 845, 846, 847, 848, 849, 850, 
851, 852, 853, 854, 855, 856, 857, 858, 859, 860, 
861, 862, 863, 864, 865, 866, 867, 868, 869, 870, 
871, 872, 873, 874, 875, 876, 877, 878, 879, 880, 
881, 882, 883, 884, 885, 886, 887, 888, 889, 890, 
891, 892, 893, 894, 895, 896, 897, 898, 899, 900, 
901, 902, 903, 904, 905, 906, 907, 908, 909, 910, 
911, 912, 913, 914, 915, 916, 917, 918, 919, 920, 
921, 922, 923, 924, 925, 926, 927, 928, 929, 930, 
931, 932, 933, 934, 935, 936, 937, 938, 939, 940, 
941, 942, 943, 944, 945, 946, 947, 948, 949, 950, 
951, 952, 953, 954, 955, 956, 957, 958, 959, 960, 
961, 962, 963, 964, 965, 966, 967, 968, 969, 970, 
971, 972, 973, 974, 975, 976, 977, 978, 979, 980, 
981, 982, 983, 984, 985, 986, 987, 988, 989, 990, 
991, 992, 993, 994, 995, 996, 997, 998, 999, 1000, 
1001, 1002, 1003, 1004, 1005, 1006, 1007, 1008, 1009, 1010, 
1011, 1012, 1013, 1014, 1015, 1016, 1017, 1018, 1019, 1020, 
1021, 1022, 1023, 1024, 1025, 1026, 1027, 1028, 1029, 1030, 
1031, 1032, 1033, 1034, 1035, 1036, 1037, 1038, 1039, 1040, 
1041, 1042, 1043, 1044, 1045, 1046, 1047, 1048, 1049, 1050, 
1051, 1052, 1053, 1054, 1055, 1056, 1057, 1058, 1059, 1060, 
1061, 1062, 1063, 1064, 1065, 1066, 1067, 1068, 1069, 1070, 
1071, 1072, 1073, 1074, 1075, 1076, 1077, 1078, 1079, 1080, 
1081, 1082, 1083, 1084, 1085, 1086, 1087, 1088, 1089, 1090, 
1091, 1092, 1093, 1094, 1095, 1096, 1097, 1098, 1099, 1100, 
1101, 1102, 1103, 1104, 1105, 1106, 1107, 1108, 1109, 1110, 
1111, 1112, 1113, 1114, 1115, 1116, 1117, 1118, 1119, 1120, 
1121, 1122, 1123, 1124, 1125, 1126, 1127, 1128, 1129, 1130, 
1131, 1132, 1133, 1134, 1135, 1136, 1137, 1138, 1139, 1140, 
1141, 1142, 1143, 1144, 1145, 1146, 1147, 1148, 1149, 1150, 
1151, 1152, 1153, 1154, 1155, 1156, 1157, 1158, 1159, 1160, 
1161, 1162, 1163, 1164, 1165, 1166, 1167, 1168, 1169, 1170, 
1171, 1172, 1173, 1174, 1175, 1176, 1177, 1178, 1179, 1180, 
1181, 1182, 1183, 1184, 1185, 1186, 1187, 1188, 1189, 1190, 
1191, 1192, 1193, 1194, 1195, 1196, 1197, 1198, 1199, 1200, 
1201, 1202, 1203, 1204, 1205, 1206, 1207, 1208, 1209, 1210, 
1211, 1212, 1213, 1214, 1215, 1216, 1217, 1218, 1219, 1220, 
1221, 1222, 1223, 1224, 1225, 1226, 1227, 1228, 1229, 1230, 
1231, 1232, 1233, 1234, 1235, 1236, 1237, 1238, 1239, 1240, 
1241, 1242, 1243, 1244, 1245, 1246, 1247, 1248, 1249, 1250, 
1251, 1252, 1253, 1254, 1255, 1256, 1257, 1258, 1259, 1260, 
1261, 1262, 1263, 1264, 1265, 1266, 1267, 1268, 1269, 1270, 
1271, 1272, 1273, 1274, 1275, 1276, 1277, 1278, 1279, 1280, 
1281, 1282, 1283, 1284, 1285, 1286, 1287, 1288, 1289, 1290, 
1291, 1292, 1293, 1294, 1295, 1296, 1297, 1298, 1299, 1300, 
1301, 1302, 1303, 1304, 1305, 1306, 1307, 1308, 1309, 1310, 
1311, 1312, 1313, 1314, 1315, 1316, 1317, 1318, 1319, 1320, 
1321, 1322, 1323, 1324, 1325, 1326, 1327, 1328, 1329, 1330, 
1331, 1332, 1333, 1334, 1335, 1336, 1337, 1338, 1339, 1340, 
1341, 1342, 1343, 1344, 1345, 1346, 1347, 1348, 1349, 1350, 
1351, 1352, 1353, 1354, 1355, 1356, 1357, 1358, 1359, 1360, 
1361, 1362, 1363, 1364, 1365, 1366, 1367, 1368, 1369, 1370, 
1371, 1372, 1373, 1374, 1375, 1376, 1377, 1378, 1379, 1380, 
1381, 1382, 1383, 1384, 1385, 1386, 1387, 1388, 1389, 1390, 
1391, 1392, 1393, 1394, 1395, 1396, 1397, 1398, 1399, 1400, 
1401, 1402, 1403, 1404, 1405, 1406, 1407, 1408, 1409, 1410, 
1411, 1412, 1413, 1414, 1415, 1416, 1417, 1418, 1419, 1420, 
1421, 1422, 1423, 1424, 1425, 1426, 1427, 1428, 1429, 1430, 
1431, 1432, 1433, 1434, 1435, 1436, 1437, 1438, 1439, 1440, 
1441, 1442, 1443, 1444, 1445, 1446, 1447, 1448, 1449, 1450, 
1451, 1452, 1453, 1454, 1455, 1456, 1457, 1458, 1459, 1460, 
1461, 1462, 1463, 1464, 1465, 1466, 1467, 1468, 1469, 1470, 
1471, 1472, 1473, 1474, 1475, 1476, 1477, 1478, 1479, 1480, 
1481, 1482, 1483, 1484, 1485, 1486, 1487, 1488, 1489, 1490, 
1491, 1492, 1493, 1494, 1495, 1496, 1497, 1498, 1499, 1500, 
1501, 1502, 1503, 1504, 1505, 1506, 1507, 1508, 1509, 1510, 
1511, 1512, 1513, 1514, 1515, 1516, 1517, 1518, 1519, 1520, 
1521, 1522, 1523, 1524, 1525, 1526, 1527, 1528, 1529, 1530, 
1531, 1532, 1533, 1534, 1535, 1536, 1537, 1538, 1539, 1540, 
1541, 1542, 1543, 1544, 1545, 1546, 1547, 1548, 1549, 1550, 
1551, 1552, 1553, 1554, 1555, 1556, 1557, 1558, 1559, 1560, 
1561, 1562, 1563, 1564, 1565, 1566, 1567, 1568, 1569, 1570, 
1571, 1572, 1573, 1574, 1575, 1576, 1577, 1578, 1579, 1580, 
1581, 1582, 1583, 1584, 1585, 1586, 1587, 1588, 1589, 1590, 
1591, 1592, 1593, 1594, 1595, 1596, 1597, 1598, 1599, 1600, 
1601, 1602, 1603, 1604, 1605, 1606, 1607, 1608, 1609, 1610, 
1611, 1612, 1613, 1614, 1615, 1616, 1617, 1618, 1619, 1620, 
1621, 1622, 1623, 1624, 1625, 1626, 1627, 1628, 1629, 1630, 
1631, 1632, 1633, 1634, 1635, 1636, 1637, 1638, 1639, 1640, 
1641, 1642, 1643, 1644, 1645, 1646, 1647, 1648, 1649, 1650, 
1651, 1652, 1653, 1654, 1655, 1656, 1657, 1658, 1659, 1660, 
1661, 1662, 1663, 1664, 1665, 1666, 1667, 1668, 1669, 1670, 
1671, 1672, 1673, 1674, 1675, 1676, 1677, 1678, 1679, 1680, 
1681, 1682, 1683, 1684, 1685, 1686, 1687, 1688, 1689, 1690, 
1691, 1692, 1693, 1694, 1695, 1696, 1697, 1698, 1699, 1700, 
1701, 1702, 1703, 1704, 1705, 1706, 1707, 1708, 1709, 1710, 
1711, 1712, 1713, 1714, 1715, 1716, 1717, 1718, 1719, 1720, 
1721, 1722, 1723, 1724, 1725, 1726, 1727, 1728, 1729, 1730, 
1731, 1732, 1733, 1734, 1735, 1736, 1737, 1738, 1739, 1740, 
1741, 1742, 1743, 1744, 1745, 1746, 1747, 1748, 1749, 1750, 
1751, 1752, 1753, 1754, 1755, 1756, 1757, 1758, 1759, 1760, 
1761, 1762, 1763, 1764, 1765, 1766, 1767, 1768, 1769, 1770, 
1771, 1772, 1773, 1774, 1775, 1776, 1777, 1778, 1779, 1780, 
1781, 1782, 1783, 1784, 1785, 1786, 1787, 1788, 1789, 1790, 
1791, 1792, 1793, 1794, 1795, 1796, 1797, 1798, 1799, 1800, 
1801, 1802, 1803, 1804, 1805, 1806, 1807, 1808, 1809, 1810, 
1811, 1812, 1813, 1814, 1815, 1816, 1817, 1818, 1819, 1820, 
1821, 1822, 1823, 1824, 1825, 1826, 1827, 1828, 1829, 1830, 
1831, 1832, 1833, 1834, 1835, 1836, 1837, 1838, 1839, 1840, 
1841, 1842, 1843, 1844, 1845, 1846, 1847, 1848, 1849, 1850, 
1851, 1852, 1853, 1854, 1855, 1856, 1857, 1858, 1859, 1860, 
1861, 1862, 1863, 1864, 1865, 1866, 1867, 1868, 1869, 1870, 
1871, 1872, 1873, 1874, 1875, 1876, 1877, 1878, 1879, 1880, 
1881, 1882, 1883, 1884, 1885, 1886, 1887, 1888, 1889, 1890, 
1891, 1892, 1893, 1894, 1895, 1896, 1897, 1898, 1899, 1900, 
1901, 1902, 1903, 1904, 1905, 1906, 1907, 1908, 1909, 1910, 
1911, 1912, 1913, 1914, 1915, 1916, 1917, 1918, 1919, 1920, 
1921, 1922, 1923, 1924, 1925, 1926, 1927, 1928, 1929, 1930, 
1931, 1932, 1933, 1934, 1935, 1936, 1937, 1938, 1939, 1940, 
1941, 1942, 1943, 1944, 1945, 1946, 1947, 1948, 1949, 1950, 
1951, 1952, 1953, 1954, 1955, 1956, 1957, 1958, 1959, 1960, 
1961, 1962, 1963, 1964, 1965, 1966, 1967, 1968, 1969, 1970, 
1971, 1972, 1973, 1974, 1975, 1976, 1977, 1978, 1979, 1980, 
1981, 1982, 1983, 1984, 1985, 1986, 1987, 1988, 1989, 1990, 
1991, 1992, 1993, 1994, 1995, 1996, 1997, 1998, 1999, 2000, 
2001, 2002, 2003, 2004, 2005, 2006, 2007, 2008, 2009, 2010, 
2011, 2012, 2013, 2014, 2015, 2016, 2017, 2018, 2019, 2020, 
2021, 2022, 2023, 2024, 2025, 2026, 2027, 2028, 2029, 2030, 
2031, 2032, 2033, 2034, 2035, 2036, 2037, 2038, 2039, 2040, 
2041, 2042, 2043, 2044, 2045, 2046, 2047, 2048, 2049, 2050, 
2051, 2052, 2053, 2054, 2055, 2056, 2057, 2058, 2059, 2060, 
2061, 2062, 2063, 2064, 2065, 2066, 2067, 2068, 2069, 2070, 
2071, 2072, 2073, 2074, 2075, 2076, 2077, 2078, 2079, 2080, 
2081, 2082, 2083, 2084, 2085, 2086, 2087, 2088, 2089, 2090, 
2091, 2092, 2093, 2094, 2095, 2096, 2097, 2098, 2099, 2100, 
2101, 2102, 2103, 2104, 2105, 2106, 2107, 2108, 2109, 2110, 
2111, 2112, 2113, 2114, 2115, 2116, 2117, 2118, 2119, 2120, 
2121, 2122, 2123, 2124, 2125, 2126, 2127, 2128, 2129, 2130, 
2131, 2132, 2133, 2134, 2135, 2136, 2137, 2138, 2139, 2140, 
2141, 2142, 2143, 2144, 2145, 2146, 2147, 2148, 2149, 2150, 
2151, 2152, 2153, 2154, 2155, 2156, 2157, 2158, 2159, 2160, 
2161, 2162, 2163, 2164, 2165, 2166, 2167, 2168, 2169, 2170, 
2171, 2172, 2173, 2174, 2175, 2176, 2177, 2178, 2179, 2180, 
2181, 2182, 2183, 2184, 2185, 2186, 2187, 2188, 2189, 2190, 
2191, 2192, 2193, 2194, 2195, 2196, 2197, 2198, 2199, 2200, 
2201, 2202, 2203, 2204, 2205, 2206, 2207, 2208, 2209, 2210, 
2211, 2212, 2213, 2214, 2215, 2216, 2217, 2218, 2219, 2220, 
2221, 2222, 2223, 2224, 2225, 2226, 2227, 2228, 2229, 2230, 
2231, 2232, 2233, 2234, 2235, 2236, 2237, 2238, 2239, 2240, 
2241, 2242, 2243, 2244, 2245, 2246, 2247, 2248, 2249, 2250, 
2251, 2252, 2253, 2254, 2255, 2256, 2257, 2258, 2259, 2260, 
2261, 2262, 2263, 2264, 2265, 2266, 2267, 2268, 2269, 2270, 
2271, 2272, 2273, 2274, 2275, 2276, 2277, 2278, 2279, 2280, 
2281, 2282, 2283, 2284, 2285, 2286, 2287, 2288, 2289, 2290, 
2291, 2292, 2293, 2294, 2295, 2296, 2297, 2298, 2299, 2300, 
2301, 2302, 2303, 2304, 2305, 2306, 2307, 2308, 2309, 2310, 
2311, 2312, 2313, 2314, 2315, 2316, 2317, 2318, 2319, 2320, 
2321, 2322, 2323, 2324, 2325, 2326, 2327, 2328, 2329, 2330, 
2331, 2332, 2333, 2334, 2335, 2336, 2337, 2338, 2339, 2340, 
2341, 2342, 2343, 2344, 2345, 2346, 2347, 2348, 2349, 2350, 
2351, 2352, 2353, 2354, 2355, 2356, 2357, 2358, 2359, 2360, 
2361, 2362, 2363, 2364, 2365, 2366, 2367, 2368, 2369, 2370, 
2371, 2372, 2373, 2374, 2375, 2376, 2377, 2378, 2379, 2380, 
2381, 2382, 2383, 2384, 2385, 2386, 2387, 2388, 2389, 2390, 
2391, 2392, 2393, 2394, 2395, 2396, 2397, 2398, 2399, 2400, 
2401, 2402, 2403, 2404, 2405, 2406, 2407, 2408, 2409, 2410, 
2411, 2412, 2413, 2414, 2415, 2416, 2417, 2418, 2419, 2420, 
2421, 2422, 2423, 2424, 2425, 2426, 2427, 2428, 2429, 2430, 
2431, 2432, 2433, 2434, 2435, 2436, 2437, 2438, 2439, 2440, 
2441, 2442, 2443, 2444, 2445, 2446, 2447, 2448, 2449, 2450, 
2451, 2452, 2453, 2454, 2455, 2456, 2457, 2458, 2459, 2460, 
2461, 2462, 2463, 2464, 2465, 2466, 2467, 2468, 2469, 2470, 
2471, 2472, 2473, 2474, 2475, 2476, 2477, 2478, 2479, 2480, 
2481, 2482, 2483, 2484, 2485, 2486, 2487, 2488, 2489, 2490, 
2491, 2492, 2493, 2494, 2495, 2496, 2497, 2498, 2499, 2500, 
2501, 2502, 2503, 2504, 2505, 2506, 2507, 2508, 2509, 2510, 
2511, 2512, 2513, 2514, 2515, 2516, 2517, 2518, 2519, 2520, 
2521, 2522, 2523, 2524, 2525, 2526, 2527, 2528, 2529, 2530, 
2531, 2532, 2533, 2534, 2535, 2536, 2537, 2538, 2539, 2540, 
2541, 2542, 2543, 2544, 2545, 2546, 2547, 2548, 2549, 2550, 
2551, 2552, 2553, 2554, 2555, 2556, 2557, 2558, 2559, 2560, 
2561, 2562, 2563, 2564, 2565, 2566, 2567, 2568, 2569, 2570, 
2571, 2572, 2573, 2574, 2575, 2576, 2577, 2578, 2579, 2580, 
2581, 2582, 2583, 2584, 2585, 2586, 2587, 2588, 2589, 2590, 
2591, 2592, 2593, 2594, 2595, 2596, 2597, 2598, 2599, 2600, 
2601, 2602, 2603, 2604, 2605, 2606, 2607, 2608, 2609, 2610, 
2611, 2612, 2613, 2614, 2615, 2616, 2617, 2618, 2619, 2620, 
2621, 2622, 2623, 2624, 2625, 2626, 2627, 2628, 2629, 2630, 
2631, 2632, 2633, 2634, 2635, 2636, 2637, 2638, 2639, 2640, 
2641, 2642, 2643, 2644, 2645, 2646, 2647, 2648, 2649, 2650, 
2651, 2652, 2653, 2654, 2655, 2656, 2657, 2658, 2659, 2660, 
2661, 2662, 2663, 2664, 2665, 2666, 2667, 2668, 2669, 2670, 
2671, 2672, 2673, 2674, 2675, 2676, 2677, 2678, 2679, 2680, 
2681, 2682, 2683, 2684, 2685, 2686, 2687, 2688, 2689, 2690, 
2691, 2692, 2693, 2694, 2695, 2696, 2697, 2698, 2699, 2700, 
2701, 2702, 2703, 2704, 2705, 2706, 2707, 2708, 2709, 2710, 
2711, 2712, 2713, 2714, 2715, 2716, 2717, 2718, 2719, 2720, 
2721, 2722, 2723, 2724, 2725, 2726, 2727, 2728, 2729, 2730, 
2731, 2732, 2733, 2734, 2735, 2736, 2737, 2738, 2739, 2740, 
2741, 2742, 2743, 2744, 2745, 2746, 2747, 2748, 2749, 2750, 
2751, 2752, 2753, 2754, 2755, 2756, 2757, 2758, 2759, 2760, 
2761, 2762, 2763, 2764, 2765, 2766, 2767, 2768, 2769, 2770, 
2771, 2772, 2773, 2774, 2775, 2776, 2777, 2778, 2779, 2780, 
2781, 2782, 2783, 2784, 2785, 2786, 2787, 2788, 2789, 2790, 
2791, 2792, 2793, 2794, 2795, 2796, 2797, 2798, 2799, 2800, 
2801, 2802, 2803, 2804, 2805, 2806, 2807, 2808, 2809, 2810, 
2811, 2812, 2813, 2814, 2815, 2816, 2817, 2818, 2819, 2820, 
2821, 2822, 2823, 2824, 2825, 2826, 2827, 2828, 2829, 2830, 
2831, 2832, 2833, 2834, 2835, 2836, 2837, 2838, 2839, 2840, 
2841, 2842, 2843, 2844, 2845, 2846, 2847, 2848, 2849, 2850, 
2851, 2852, 2853, 2854, 2855, 2856, 2857, 2858, 2859, 2860, 
2861, 2862, 2863, 2864, 2865, 2866, 2867, 2868, 2869, 2870, 
2871, 2872, 2873, 2874, 2875, 2876, 2877, 2878, 2879, 2880, 
2881, 2882, 2883, 2884, 2885, 2886, 2887, 2888, 2889, 2890, 
2891, 2892, 2893, 2894, 2895, 2896, 2897, 2898, 2899, 2900, 
2901, 2902, 2903, 2904, 2905, 2906, 2907, 2908, 2909, 2910, 
2911, 2912, 2913, 2914, 2915, 2916, 2917, 2918, 2919, 2920, 
2921, 2922, 2923, 2924, 2925, 2926, 2927, 2928, 2929, 2930, 
2931, 2932, 2933, 2934, 2935, 2936, 2937, 2938, 2939, 2940, 
2941, 2942, 2943, 2944, 2945, 2946, 2947, 2948, 2949, 2950, 
2951, 2952, 2953, 2954, 2955, 2956, 2957, 2958, 2959, 2960, 
2961, 2962, 2963, 2964, 2965, 2966, 2967, 2968, 2969, 2970, 
2971, 2972, 2973, 2974, 2975, 2976, 2977, 2978, 2979, 2980, 
2981, 2982, 2983, 2984, 2985, 2986, 2987, 2988, 2989, 2990, 
2991, 2992, 2993, 2994, 2995, 2996, 2997, 2998, 2999, 3000, 
3001, 3002, 3003, 3004, 3005, 3006, 3007, 3008, 3009, 3010, 
3011, 3012, 3013, 3014, 3015, 3016, 3017, 3018, 3019, 3020, 
3021, 3022, 3023, 3024, 3025, 3026, 3027, 3028, 3029, 3030, 
3031, 3032, 3033, 3034, 3035, 3036, 3037, 3038, 3039, 3040, 
3041, 3042, 3043, 3044, 3045, 3046, 3047, 3048, 3049, 3050, 
3051, 3052, 3053, 3054, 3055, 3056, 3057, 3058, 3059, 3060, 
3061, 3062, 3063, 3064, 3065, 3066, 3067, 3068, 3069, 3070, 
3071, 3072, 3073, 3074, 3075, 3076, 3077, 3078, 3079, 3080, 
3081, 3082, 3083, 3084, 3085, 3086, 3087, 3088, 3089, 3090, 
3091, 3092, 3093, 3094, 3095, 3096, 3097, 3098, 3099, 3100, 
3101, 3102, 3103, 3104, 3105, 3106, 3107, 3108, 3109, 3110, 
3111, 3112, 3113, 3114, 3115, 3116, 3117, 3118, 3119, 3120, 
3121, 3122, 3123, 3124, 3125, 3126, 3127, 3128, 3129, 3130, 
3131, 3132, 3133, 3134, 3135, 3136, 3137, 3138, 3139, 3140, 
3141, 3142, 3143, 3144, 3145, 3146, 3147, 3148, 3149, 3150, 
3151, 3152, 3153, 3154, 3155, 3156, 3157, 3158, 3159, 3160, 
3161, 3162, 3163, 3164, 3165, 3166, 3167, 3168, 3169, 3170, 
3171, 3172, 3173, 3174, 3175, 3176, 3177, 3178, 3179, 3180, 
3181, 3182, 3183, 3184, 3185, 3186, 3187, 3188, 3189, 3190, 
3191, 3192, 3193, 3194, 3195, 3196, 3197, 3198, 3199, 3200, 
3201, 3202, 3203, 3204, 3205, 3206, 3207, 3208, 3209, 3210, 
3211, 3212, 3213, 3214, 3215, 3216, 3217, 3218, 3219, 3220, 
3221, 3222, 3223, 3224, 3225, 3226, 3227, 3228, 3229, 3230, 
3231, 3232, 3233, 3234, 3235, 3236, 3237, 3238, 3239, 3240, 
3241, 3242, 3243, 3244, 3245, 3246, 3247, 3248, 3249, 3250, 
3251, 3252, 3253, 3254, 3255, 3256, 3257, 3258, 3259, 3260, 
3261, 3262, 3263, 3264, 3265, 3266, 3267, 3268, 3269, 3270, 
3271, 3272, 3273, 3274, 3275, 3276, 3277, 3278, 3279, 3280, 
3281, 3282, 3283, 3284, 3285, 3286, 3287, 3288, 3289, 3290, 
3291, 3292, 3293, 3294, 3295, 3296, 3297, 3298, 3299, 3300, 
3301, 3302, 3303, 3304, 3305, 3306, 3307, 3308, 3309, 3310, 
3311, 3312, 3313, 3314, 3315, 3316, 3317, 3318, 3319, 3320, 
3321, 3322, 3323, 3324, 3325, 3326, 3327, 3328, 3329, 3330, 
3331, 3332, 3333, 3334, 3335, 3336, 3337, 3338, 3339, 3340, 
3341, 3342, 3343, 3344, 3345, 3346, 3347, 3348, 3349, 3350, 
3351, 3352, 3353, 3354, 3355, 3356, 3357, 3358, 3359, 3360, 
3361, 3362, 3363, 3364, 3365, 3366, 3367, 3368, 3369, 3370, 
3371, 3372, 3373, 3374, 3375, 3376, 3377, 3378, 3379, 3380, 
3381, 3382, 3383, 3384, 3385, 3386, 3387, 3388, 3389, 3390, 
3391, 3392, 3393, 3394, 3395, 3396, 3397, 3398, 3399, 3400, 
3401, 3402, 3403, 3404, 3405, 3406, 3407, 3408, 3409, 3410, 
3411, 3412, 3413, 3414, 3415, 
