*Heading
 /Users/juliagao/geometry-optimization-net/scripts/../runs/grid/shape_8.inp
*NODE
1, 0, -0.3, 0
2, 0.425, -0.3, 0
3, 0.575, -0.3, 0
4, 1, -0.3, 0
5, 1, 0.3, 0
6, 0.575, 0.3, 0
7, 0.425, 0.3, 0
8, 0, 0.3, 0
9, 0.616, 0.028, 0
10, 0.025862299598281, -0.3, 0
11, 0.078518276112428, -0.3, 0
12, 0.1329243567838, -0.3, 0
13, 0.18773639434332, -0.3, 0
14, 0.24191143242399, -0.3, 0
15, 0.29595278119545, -0.3, 0
16, 0.3490660704607, -0.3, 0
17, 0.40005670761558, -0.3, 0
18, 0.051724599196562, -0.3, 0
19, 0.10531195302829, -0.3, 0
20, 0.16053676053931, -0.3, 0
21, 0.21493602814732, -0.3, 0
22, 0.26888683670066, -0.3, 0
23, 0.32301872569023, -0.3, 0
24, 0.37511341523117, -0.3, 0
25, 0.44992776910236, -0.3, 0
26, 0.49967027499678, -0.3, 0
27, 0.54974250589442, -0.3, 0
28, 0.47485553820472, -0.3, 0
29, 0.52448501178884, -0.3, 0
30, 0.59789287602847, -0.3, 0
31, 0.64419016007955, -0.3, 0
32, 0.69137405270711, -0.3, 0
33, 0.7391708678703, -0.3, 0
34, 0.78704480801742, -0.3, 0
35, 0.83452282437527, -0.3, 0
36, 0.8816450864111, -0.3, 0
37, 0.92880515361148, -0.3, 0
38, 0.97623218277249, -0.3, 0
39, 0.62078575205694, -0.3, 0
40, 0.66759456810216, -0.3, 0
41, 0.71515353731206, -0.3, 0
42, 0.76318819842854, -0.3, 0
43, 0.81090141760631, -0.3, 0
44, 0.85814423114423, -0.3, 0
45, 0.90514594167797, -0.3, 0
46, 0.95246436554499, -0.3, 0
47, 1, -0.27374333095466, 0
48, 1, -0.22066075658078, 0
49, 1, -0.1666020555954, 0
50, 1, -0.11176445985621, 0
51, 1, -0.056427936228066, 0
52, 1, -0.00096589388614321, 0
53, 1, 0.054523609167403, 0
54, 1, 0.11010947565112, 0
55, 1, 0.16575885386155, 0
56, 1, 0.22066084209255, 0
57, 1, 0.2738700671697, 0
58, 1, -0.24748666190932, 0
59, 1, -0.19383485125225, 0
60, 1, -0.13936925993856, 0
61, 1, -0.084159659773855, 0
62, 1, -0.028696212682278, 0
63, 1, 0.026764424909991, 0
64, 1, 0.082282793424814, 0
65, 1, 0.13793615787742, 0
66, 1, 0.19358154984569, 0
67, 1, 0.2477401343394, 0
68, 0.97388024179667, 0.3, 0
69, 0.9206691711463, 0.3, 0
70, 0.8656322689908, 0.3, 0
71, 0.81048749532567, 0.3, 0
72, 0.75736254165258, 0.3, 0
73, 0.70544164105454, 0.3, 0
74, 0.65293124259277, 0.3, 0
75, 0.60070798750632, 0.3, 0
76, 0.94776048359334, 0.3, 0
77, 0.89357785869926, 0.3, 0
78, 0.83768667928235, 0.3, 0
79, 0.78328831136899, 0.3, 0
80, 0.73143677193618, 0.3, 0
81, 0.6794465101729, 0.3, 0
82, 0.62641597501264, 0.3, 0
83, 0.55046611459226, 0.3, 0
84, 0.50113591135624, 0.3, 0
85, 0.45066979676397, 0.3, 0
86, 0.52593222918453, 0.3, 0
87, 0.47633959352795, 0.3, 0
88, 0.39879327717882, 0.3, 0
89, 0.34586244910408, 0.3, 0
90, 0.29226789892541, 0.3, 0
91, 0.2381712092426, 0.3, 0
92, 0.18376811295249, 0.3, 0
93, 0.13004561720605, 0.3, 0
94, 0.077424598377221, 0.3, 0
95, 0.025674611881206, 0.3, 0
96, 0.37258655435764, 0.3, 0
97, 0.31913834385052, 0.3, 0
98, 0.2653974540003, 0.3, 0
99, 0.21094496448491, 0.3, 0
100, 0.15659126142007, 0.3, 0
101, 0.10349997299203, 0.3, 0
102, 0.051349223762412, 0.3, 0
103, 0, 0.2737440117224, 0
104, 0, 0.22027711917304, 0
105, 0, 0.1657768481282, 0
106, 0, 0.11147622905942, 0
107, 0, 0.057139174766031, 0
108, 0, 0.0021062078584548, 0
109, 0, -0.053487958283811, 0
110, 0, -0.10926288959558, 0
111, 0, -0.16499647896958, 0
112, 0, -0.2200702265367, 0
113, 0, -0.2736491574046, 0
114, 0, 0.2474880234448, 0
115, 0, 0.19306621490129, 0
116, 0, 0.13848748135512, 0
117, 0, 0.084464976763723, 0
118, 0, 0.029813372768339, 0
119, 0, -0.02560095705143, 0
120, 0, -0.081374959516192, 0
121, 0, -0.13715081967496, 0
122, 0, -0.1928421382642, 0
123, 0, -0.2472983148092, 0
124, 0.61300524307687, 0.054188069294775, 0
125, 0.58998691938892, 0.1012007799592, 0
126, 0.54926894559651, 0.13301700318342, 0
127, 0.49919529067773, 0.14399720852864, 0
128, 0.44808014993631, 0.13173200621963, 0
129, 0.40729696907432, 0.097729103663034, 0
130, 0.38614016328179, 0.050179665365945, 0
131, 0.38782502915244, -0.0015427783701015, 0
132, 0.41194847620591, -0.047517740621242, 0
133, 0.45310827027811, -0.078099790488447, 0
134, 0.5022495544999, -0.087978184748619, 0
135, 0.55081786938473, -0.076276286830975, 0
136, 0.59057644355314, -0.044470047695759, 0
137, 0.61306235751907, 0.0020596217658122, 0
138, 0.60417560186615, 0.079023953481045, 0
139, 0.57116293348817, 0.11960696937952, 0
140, 0.52496139257828, 0.14128251726478, 0
141, 0.47346933498769, 0.14092530181327, 0
142, 0.42550429386061, 0.11691788163457, 0
143, 0.3939102278971, 0.0749143913374, 0
144, 0.38405784971867, 0.024336979214642, 0
145, 0.39729393730657, -0.025920910240975, 0
146, 0.43106041750394, -0.065291660353976, 0
147, 0.4774217976455, -0.085781478167441, 0
148, 0.52697345278684, -0.08482035654331, 0
149, 0.57223938443492, -0.062760516234767, 0
150, 0.60439821830012, -0.022566904767343, 0
151, 0.41799377247114, -0.24404066608598, 0
152, 0.43184799728, 0.24394925700607, 0
153, 0.052865867679119, -0.24818037383533, 0
154, 0.10597715986174, -0.24990126084492, 0
155, 0.19895985495243, 0.0028869470357383, 0
156, 0.22999009603137, -0.03209371001968, 0
157, 0.33696522952249, -0.24742991444846, 0
158, 0.47190587867536, -0.24339445150778, 0
159, 0.21589375248148, -0.14416976725433, 0
160, 0.32222265872888, -0.19529017802904, 0
161, 0.66116160806497, 0.028582827907323, 0
162, 0.57895526560785, 0.24737024789201, 0
163, 0.74504301428477, -0.26308622221712, 0
164, 0.68261049720285, -0.071251553525179, 0
165, 0.67889666831099, -0.14375889269074, 0
166, 0.73575560715419, -0.24131949890679, 0
167, 0.86141586236002, -0.032554470988981, 0
168, 0.25174205369831, -0.13397588674294, 0
169, 0.21992935880158, 0.1793800417879, 0
170, 0.055045376216992, 0.13420326021031, 0
171, 0.083917649294141, 0.047476397436114, 0
172, 0.16394101644038, 0.18313595607568, 0
173, 0.054160469975003, 0.18981733155083, 0
174, 0.1087351774016, 0.18656951954217, 0
175, 0.10646821092796, 0.24344152836765, 0
176, 0.052983586273752, 0.24518944148235, 0
177, 0.1606706871238, 0.24173960227529, 0
178, 0.21561145242257, 0.24001429498531, 0
179, 0.36620576531839, 0.17195852446151, 0
180, 0.27102015842659, 0.23848002433925, 0
181, 0.37810494530503, 0.12783385875794, 0
182, 0.32649643119292, 0.23788696795538, 0
183, 0.38083264862696, 0.23981728625157, 0
184, 0.47992530400915, 0.24688490792353, 0
185, 0.44249517781408, 0.19064582010868, 0
186, 0.48297743259722, 0.19654796723666, 0
187, 0.27955673413372, 0.1430466658186, 0
188, 0.30944391547695, 0.13951360761036, 0
189, 0.33584023077688, 0.17200286958702, 0
190, 0.3454617996219, -0.1011628317629, 0
191, 0.082906199924842, -0.091454023999478, 0
192, 0.34064699027652, 0.0083632625368541, 0
193, 0.1111681437607, 0.10098338913363, 0
194, 0.25878536030044, -0.0071959317184219, 0
195, 0.19486449899442, 0.12143739180664, 0
196, 0.053529617759342, -0.19571439454251, 0
197, 0.23507358034542, -0.25326002318741, 0
198, 0.16972476175408, 0.0075388479170849, 0
199, 0.26552962883567, -0.1842072403947, 0
200, 0.23219122250724, -0.23071620589749, 0
201, 0.15870212318804, -0.20399467791473, 0
202, 0.1067302985913, -0.19949873245512, 0
203, 0.10840611021466, -0.14824934471032, 0
204, 0.31808108718296, -0.015854853320098, 0
205, 0.054357907906926, -0.14230911300916, 0
206, 0.25219419452472, 0.11481387467116, 0
207, 0.1367652420762, -0.12610638535424, 0
208, 0.16139575188863, -0.1557911877371, 0
209, 0.11151394437984, -0.068102388280894, 0
210, 0.054819955745095, -0.11524998271842, 0
211, 0.16847753272064, 0.065688449047993, 0
212, 0.055658227963327, 0.078581895943566, 0
213, 0.4101711947665, -0.18671934766979, 0
214, 0.4697151025374, -0.18694359661509, 0
215, 0.36944798065458, -0.27291939887061, 0
216, 0.18467418563302, -0.25273526016035, 0
217, 0.23012053919232, -0.093194248360217, 0
218, 0.15964848792548, -0.1800260747393, 0
219, 0.47091575987551, -0.13235462837679, 0
220, 0.40032822629761, -0.12092669635205, 0
221, 0.36429203073269, -0.070937662501216, 0
222, 0.1104811185622, 0.12950575605598, 0
223, 0.055959762912781, 0.022884831640321, 0
224, 0.33855005261205, 0.066897146580431, 0
225, 0.83658906642829, 0.19439037738973, 0
226, 0.77978783358048, 0.14374314668702, 0
227, 0.83492331969451, 0.13998080319392, 0
228, 0.89010820471937, 0.1382913523414, 0
229, 0.94512811392865, 0.13778700380699, 0
230, 0.89109505829211, 0.19304308769563, 0
231, 0.94562964489446, 0.19275452418334, 0
232, 0.94632631025468, 0.24677072041815, 0
233, 0.89210085591472, 0.24680747300088, 0
234, 0.83761838722716, 0.24748781971996, 0
235, 0.73103984156759, 0.20119148267681, 0
236, 0.78279735157472, 0.19707527949592, 0
237, 0.78399213332305, 0.24876613478074, 0
238, 0.73206305461756, 0.25036640155803, 0
239, 0.68344048575437, 0.20493234689099, 0
240, 0.68168664689462, 0.25123278135298, 0
241, 0.63862958419427, 0.2014260533599, 0
242, 0.63134053078275, 0.24972950463925, 0
243, 0.52805882897785, 0.24761761556356, 0
244, 0.58052806995894, 0.18747339929549, 0
245, 0.52701534680636, 0.1966902956277, 0
246, 0.66960391176323, 0.14748643899393, 0
247, 0.65392168901033, 0.16189898193165, 0
248, 0.68002870313431, 0.16482163104663, 0
249, 0.64846690876842, 0.091765828801969, 0
250, 0.7258017175169, 0.15141788863782, 0
251, 0.71667704419078, 0.027982505185195, 0
252, 0.77628784244139, 0.086712026058699, 0
253, 0.83328641714221, 0.083623662625302, 0
254, 0.77499325930259, 0.026241282824083, 0
255, 0.83254158706587, 0.025494829458018, 0
256, 0.88929863885315, 0.082409079702858, 0
257, 0.94478104763924, 0.082152384407426, 0
258, 0.88901554915063, 0.025593359300469, 0
259, 0.94469634232438, 0.026117766429902, 0
260, 0.94580096665182, -0.086002090905547, 0
261, 0.85298036053837, -0.25209472665993, 0
262, 0.94499486885053, -0.030054845682451, 0
263, 0.88951019046055, -0.03164462319026, 0
264, 0.58334607993184, -0.12105297179114, 0
265, 0.52590586259898, -0.18593047852303, 0
266, 0.58001735374422, -0.21257333796944, 0
267, 0.68267881606336, -0.247319586913, 0
268, 0.52695870352418, -0.13162732777637, 0
269, 0.62535968305556, -0.27149601275897, 0
270, 0.68560673124286, -0.036634853950197, 0
271, 0.58206885924115, -0.18255500463944, 0
272, 0.60776088228531, -0.21202376309752, 0
273, 0.77669388334724, -0.0980786024264, 0
274, 0.72101810728059, -0.27861305715663, 0
275, 0.71373330298399, -0.10499063745098, 0
276, 0.86217227585744, -0.061540251451826, 0
277, 0.87482078251304, -0.22555201120804, 0
278, 0.77492534891258, -0.035540759442314, 0
279, 0.52475062186203, -0.2713957959007, 0
280, 0.80866834089719, -0.12473683008898, 0
281, 0.83189632126897, -0.27703659887793, 0
282, 0.94716045784105, -0.14122255942644, 0
283, 0.82120242305289, -0.20640215460125, 0
284, 0.80417197653822, -0.034551180684367, 0
285, 0.66493303336789, -0.21431941055339, 0
286, 0.7144166235641, -0.18366595775487, 0
287, 0.5264550783217, -0.15820982230993, 0
288, 0.78331114661066, -0.25928884854416, 0
289, 0.94892806053237, -0.19525535633526, 0
290, 0.90349946899645, -0.27479842028187, 0
291, 0.55456631160236, -0.15565436581548, 0
292, 0.95079128016515, -0.24804194223409, 0
293, 0.27302446920806, -0.20493019784798, 0
294, 0.40700006982491, 0.14437357373434, 0
295, 0.41952659265132, -0.094045682715758, 0
296, 0.37613586750449, -0.095638720646321, 0
297, 0.39228301115839, -0.066579439678167, 0
298, 0.55764838506708, 0.16234163839136, 0
299, 0.52469267003827, 0.17242630449334, 0
300, 0.55074518958784, 0.19586215287699, 0
301, 0.63623740011733, 0.15103291080531, 0
302, 0.63137755559445, 0.11828685344554, 0
303, 0.67918624400024, 0.10225664025485, 0
304, 0.69266628192391, 0.13324081639502, 0
305, 0.71595149808458, 0.09391861834766, 0
306, 0.28884660979581, -0.011858946880909, 0
307, 0.084078095076145, 0.019390449585885, 0
308, 0.13928498392342, 0.098060153814434, 0
309, 0.779412792215, -0.23925620357243, 0
310, 0.80492908522973, -0.064843166713247, 0
311, 0.61359860467766, -0.14801188672516, 0
312, 0.86498189161054, -0.11872136179014, 0
313, 0.45166398624211, 0.16640890447981, 0
314, 0.46270170265298, 0.19590615624818, 0
315, 0.48260057517545, 0.17262681167159, 0
316, 0.89238026912599, -0.11666392228758, 0
317, 0.76298468824893, -0.26200487113691, 0
318, 0.74233707798205, -0.28065590203051, 0
319, 0.69387675192748, -0.21925521211401, 0
320, 0.82545822803228, -0.2306264748227, 0
321, 0.83715319238342, -0.12135029875304, 0
322, 0.11236300616525, 0.015719484184896, 0
323, 0.027425308013588, -0.11222054750472, 0
324, 0.055608389712309, -0.060434713619508, 0
325, 0.082697720795692, 0.13189954944891, 0
326, 0.97252494925138, -0.02935651432828, 0
327, 0.97292659893899, -0.085014276711424, 0
328, 0.94532886940377, -0.058086066442938, 0
329, 0.97269224179562, -0.057220426352505, 0
330, 0.94478897909304, -0.0019708020906778, 0
331, 0.97237082568481, 0.026439971359691, 0
332, 0.97241979051412, -0.0014606021275501, 0
333, 0.027201230632243, -0.13969230490079, 0
334, 0.083886013385112, -0.036474791450399, 0
335, 0.22477263097397, 0.087935368956679, 0
336, 0.35392609547272, -0.045799820011075, 0
337, 0.9446983506402, 0.054169387628438, 0
338, 0.97240752547591, 0.082202126317899, 0
339, 0.97237010352351, 0.05433308146159, 0
340, 0.28126628807064, 0.11078052028046, 0
341, 0.11210467584264, -0.040443761094356, 0
342, 0.21033586610174, -0.1656612791557, 0
343, 0.68053111195381, 0.27548356849824, 0
344, 0.65668050624232, 0.25082171322926, 0
345, 0.62890781336623, 0.27477994683725, 0
346, 0.6547858213014, 0.27526563853221, 0
347, 0.027798471412679, 0.081513522763024, 0
348, 0.11061549761138, -0.095322503662075, 0
349, 0.33832179163301, 0.037001000867699, 0
350, 0.55144382684365, -0.24239268101138, 0
351, 0.83985195847764, -0.14952329328737, 0
352, 0.78550636821406, -0.27951092870243, 0
353, 0.65628936341894, -0.035206254466858, 0
354, 0.57779876690851, -0.24205538584253, 0
355, 0.89110075355713, -0.08859239110994, 0
356, 0.94492978896326, 0.11003580061571, 0
357, 0.97257519676752, 0.13781186797617, 0
358, 0.97247818729868, 0.11004012786457, 0
359, 0.86482832079998, 0.24707125775302, 0
360, 0.83780908699778, 0.27377959410011, 0
361, 0.89270239467816, 0.27344097069511, 0
362, 0.8652409684607, 0.27357083293483, 0
363, 0.13249744425513, -0.25090246416788, 0
364, 0.15847048632254, -0.22791276741232, 0
365, 0.10573721232488, -0.27496688208182, 0
366, 0.1326631557918, -0.27545512905613, 0
367, 0.053915787861177, -0.16913777648059, 0
368, 0.026782150739051, -0.19414640264687, 0
369, 0.026981808080396, -0.16701345036162, 0
370, 0.32263609975942, 0.26911713291797, 0
371, 0.2987856959158, 0.23798216285544, 0
372, 0.2681073561085, 0.26935119525473, 0
373, 0.29541561941136, 0.26913735434336, 0
374, 0.16382127512739, -0.13089947221522, 0
375, 0.30084353780248, -0.073308094315891, 0
376, 0.27306956003445, -0.15404370905545, 0
377, 0.23834582378297, -0.27645331501026, 0
378, 0.052250369539195, 0.27264730944486, 0
379, 0.026451379992305, 0.24619233336781, 0
380, 0.026087767900122, 0.27315753932813, 0
381, 0.92622603530512, -0.24865282794788, 0
382, 0.95166672760474, -0.27407223689198, 0
383, 0.92755927032373, -0.27437805402679, 0
384, 0.3539595601145, 0.23843387206717, 0
385, 0.37635659507075, 0.26998172360018, 0
386, 0.34966137745547, 0.26938031439903, 0
387, 0.94536284578607, 0.16537345606685, 0
388, 0.97283172265047, 0.19299127544274, 0
389, 0.97269316909036, 0.16548355573852, 0
390, 0.14094049404728, -0.016678996099912, 0
391, 0.19716768050647, 0.06190889006088, 0
392, 0.38161397908026, -0.046052394145446, 0
393, 0.87727159822858, -0.25061498596268, 0
394, 0.7458910540816, -0.10154768087726, 0
395, 0.74528717898579, -0.036375717797716, 0
396, 0.97359585408796, -0.14017154826323, 0
397, 0.94641497902057, -0.11373533775745, 0
398, 0.97322927058243, -0.11267324528864, 0
399, 0.85564935146167, -0.27609238380125, 0
400, 0.65679243343131, -0.24412603215762, 0
401, 0.71388223445666, -0.14136472926469, 0
402, 0.86708338079467, -0.14654797566699, 0
403, 0.79621196024126, -0.21152033803815, 0
404, 0.71541348897375, -0.036848948012119, 0
405, 0.027045588552936, 0.19143051146186, 0
406, 0.054635975465013, 0.16201526516978, 0
407, 0.027284684907648, 0.16391872865999, 0
408, 0.97446461515274, -0.19441297809092, 0
409, 0.94801050226384, -0.16839844780965, 0
410, 0.97401305389509, -0.16740143068828, 0
411, 0.63041812439896, -0.24254573963461, 0
412, 0.74789891639187, -0.13472602884462, 0
413, 0.75242601107887, -0.16764220382025, 0
414, 0.47335999110941, -0.27169427842163, 0
415, 0.49853685661874, -0.24313185039306, 0
416, 0.49908365301817, -0.27155214390467, 0
417, 0.24327737373664, 0.23919767479795, 0
418, 0.21330261508986, 0.27007103099109, 0
419, 0.24070261455535, 0.26968261759189, 0
420, 0.28564337245271, 0.018163651503059, 0
421, 0.34072758798681, -0.16341048783576, 0
422, 0.25138133941662, -0.20843968949411, 0
423, 0.25358440304145, 0.083846949523717, 0
424, 0.97538793558388, -0.24763963777985, 0
425, 0.97582411863757, -0.27386550524761, 0
426, 0.10510032731021, 0.27175774251233, 0
427, 0.079648838703482, 0.24429502700287, 0
428, 0.078600339134547, 0.27218915916028, 0
429, 0.18806499988646, 0.24087692822501, 0
430, 0.15877214067859, 0.27091235415257, 0
431, 0.18597555518383, 0.2704861040856, 0
432, 0.13347464006606, 0.24259091840265, 0
433, 0.13184380543448, 0.27133260607838, 0
434, 0.80634952994761, -0.095010227475113, 0
435, 0.55043187783716, -0.27123682535796, 0
436, 0.82897859245371, -0.25402136043857, 0
437, 0.15950952103011, -0.27592393474694, 0
438, 0.23083950172043, -0.062490342075805, 0
439, 0.026412432248854, -0.24757125906507, 0
440, 0.052445591524286, -0.27413092954784, 0
441, 0.026179881253758, -0.27383767632569, 0
442, 0.70672440883416, 0.25100150546044, 0
443, 0.7318413329457, 0.27514709878683, 0
444, 0.70613885802613, 0.27541582476984, 0
445, 0.89979198081691, -0.22391614585012, 0
446, 0.42158349064082, -0.27206106793114, 0
447, 0.44505651740272, -0.24364650763743, 0
448, 0.44752099030851, -0.2718464739295, 0
449, 0.57723292679643, 0.27383860168884, 0
450, 0.5530140294146, 0.24750298328444, 0
451, 0.52712915245262, 0.27374438906435, 0
452, 0.55196045492519, 0.27377388880712, 0
453, 0.78392110782773, 0.27440763877425, 0
454, 0.75780574082619, 0.24956742264205, 0
455, 0.75772842136525, 0.2747843673918, 0
456, 0.22866448931271, -0.0020733020476054, 0
457, 0.18451554889679, -0.18340301568061, 0
458, 0.20836240641018, -0.23044843710249, 0
459, 0.78332820809821, -0.15915778426525, 0
460, 0.89015093187897, -0.060210382775485, 0
461, 0.55377223776216, -0.18444169961603, 0
462, 0.67457108406561, -0.27369851464501, 0
463, 0.84313121659883, -0.1766652641786, 0
464, 0.97320776695597, 0.24706367653828, 0
465, 0.94686972251516, 0.27344108120533, 0
466, 0.97349446907183, 0.27359452949924, 0
467, 0.50379918329045, 0.24744712268007, 0
468, 0.47801899897104, 0.27326730721657, 0
469, 0.50253256723066, 0.27360258790958, 0
470, 0.45607837073426, 0.24576396072018, 0
471, 0.42815093105756, 0.27181510396352, 0
472, 0.4532462011862, 0.27267215965606, 0
473, 0.40681827810836, 0.24180971310678, 0
474, 0.4025129855371, 0.27084924402994, 0
475, 0.91734612764184, -0.030813702291884, 0
476, 0.91855279693778, -0.087174797837815, 0
477, 0.91784045491979, -0.059069702746606, 0
478, 0.94593954478532, 0.21987809222479, 0
479, 0.97299683906389, 0.22014783379828, 0
480, 0.027904889128563, -0.029182974625831, 0
481, 0.3106758431276, 0.10580104385973, 0
482, 0.0276616624664, 0.10897146567218, 0
483, 0.23859522355124, -0.15381984154191, 0
484, 0.079409098398084, -0.24898188376482, 0
485, 0.079025270597772, -0.27451667604994, 0
486, 0.91692810597194, 0.025824283568334, 0
487, 0.88907162667081, 0.054091194020223, 0
488, 0.91708924449149, 0.082199479444363, 0
489, 0.91694631812668, 0.05407205203172, 0
490, 0.2299359138851, -0.20925158554401, 0
491, 0.18604666574309, -0.27631763070683, 0
492, 0.81063895617549, 0.24805862531088, 0
493, 0.81071042587007, 0.27406211560381, 0
494, 0.6053923430171, 0.2483426283542, 0
495, 0.60305216204381, 0.27421832517467, 0
496, 0.08144402428003, -0.14513057715239, 0
497, 0.20783670739266, -0.18672020063435, 0
498, 0.22602754949383, 0.057787295683937, 0
499, 0.10626227848855, -0.22476903467694, 0
500, 0.13296716955667, -0.20168734990861, 0
501, 0.1904236144033, -0.13675054444693, 0
502, 0.13255586677694, -0.22632975394304, 0
503, 0.64749506388667, -0.1091646614823, 0
504, 0.86252950567927, 0.13894686690476, 0
505, 0.88965974569521, 0.11048779057351, 0
506, 0.86137748347424, 0.082852541606851, 0
507, 0.83403879867823, 0.11206040520242, 0
508, 0.86190015092164, 0.11108799447767, 0
509, 0.91764063760263, 0.13792888555649, 0
510, 0.91732997341746, 0.11016347919639, 0
511, 0.88914382513917, -0.0030116059654906, 0
512, 0.9170499851883, -0.0024914185038729, 0
513, 0.053612438340281, 0.21755549871543, 0
514, 0.026769145056622, 0.218873377773, 0
515, 0.86089621621762, 0.02546799422606, 0
516, 0.83277478649875, 0.05473057724079, 0
517, 0.86102861619927, 0.054286767619628, 0
518, 0.16654261994684, 0.12431379546547, 0
519, 0.027952147041165, 0.026319164602312, 0
520, 0.38566966319473, -0.21686324973175, 0
521, 0.027489889128209, 0.13640937294317, 0
522, 0.69841756083295, -0.27595648927776, 0
523, 0.64976632957033, -0.071225637129851, 0
524, 0.72729258558951, -0.25871324132823, 0
525, 0.86334346183392, -0.090319569870492, 0
526, 0.053193493670274, -0.22205210166518, 0
527, 0.026599749622499, -0.22096680005144, 0
528, 0.91927790767179, 0.24670315260836, 0
529, 0.91988177476397, 0.27339502857497, 0
530, 0.89059710839203, 0.1658077875977, 0
531, 0.91838093637715, 0.19277685651305, 0
532, 0.91799600419992, 0.16547140335252, 0
533, 0.58089848728106, -0.089584771624438, 0
534, 0.76269585338143, -0.19550258652103, 0
535, 0.63605687645903, -0.21235101285927, 0
536, 0.64546575645454, -0.14537288506275, 0
537, 0.74712641250822, -0.24971935814454, 0
538, 0.47061381618313, -0.21511421732587, 0
539, 0.49803376240699, -0.1867706163534, 0
540, 0.80557424611486, -0.2564504227423, 0
541, 0.49814295866602, -0.2148103282098, 0
542, 0.61125598614278, -0.1807856018822, 0
543, 0.81650561958695, -0.18081559490427, 0
544, 0.27402159191137, 0.20720273065269, 0
545, 0.33086714113719, 0.20579715145147, 0
546, 0.30238551441748, 0.20621421679042, 0
547, 0.94986789069553, -0.22178594748155, 0
548, 0.97492915438962, -0.22113126346903, 0
549, 0.80165533984742, -0.23443427815703, 0
550, 0.71425981753257, -0.070369312438549, 0
551, 0.525022218102, -0.24279142829128, 0
552, 0.73188622041002, 0.22571724273046, 0
553, 0.70660104520524, 0.2033895461339, 0
554, 0.68274856695721, 0.22756669506825, 0
555, 0.70699215777839, 0.22693957839096, 0
556, 0.92064115552316, -0.14256847937014, 0
557, 0.64181957394921, -0.17995153912061, 0
558, 0.91949125750982, -0.11503736705212, 0
559, 0.28364718180576, 0.048386172779259, 0
560, 0.37194434386819, -0.022399824128713, 0
561, 0.14088638643679, 0.011798138036362, 0
562, 0.084075359083523, -0.0086214988394991, 0
563, 0.16238621130299, 0.212475913487, 0
564, 0.13624765886433, 0.18487951789596, 0
565, 0.10767013715094, 0.21503611500777, 0
566, 0.13493783462503, 0.21376965001419, 0
567, 0.16758947458299, 0.09495436145337, 0
568, 0.26168245566213, -0.037961791656931, 0
569, 0.52721132259131, -0.10689972843864, 0
570, 0.8351528515457, -0.092436575527184, 0
571, 0.68073247409167, -0.10722559728145, 0
572, 0.55366578145181, -0.10056932529219, 0
573, 0.24828531103545, 0.17739645049262, 0
574, 0.21783996616789, 0.20979316165011, 0
575, 0.24583855039914, 0.20845119123055, 0
576, 0.33023009248499, -0.22135909889691, 0
577, 0.34037387241724, 0.099083974935905, 0
578, 0.027630122626257, -0.08463122612417, 0
579, 0.76035128948019, -0.24478187488273, 0
580, 0.89779827620486, -0.19791893218086, 0
581, 0.83259912925099, -0.0039637957428401, 0
582, 0.86101004412646, -0.0035126240270133, 0
583, 0.62446404611245, 0.084627330689397, 0
584, 0.59315695710309, 0.1295479557968, 0
585, 0.6099204161785, 0.10888845251832, 0
586, 0.22730663472423, 0.02782610886949, 0
587, 0.31189598325132, -0.16904625149754, 0
588, 0.22891141945942, -0.18929653818054, 0
589, 0.343089785342, -0.27361614417113, 0
590, 0.37201495901352, -0.15899070674542, 0
591, 0.32461522239868, -0.044595702901254, 0
592, 0.19951217985672, -0.026450634720434, 0
593, 0.21008125122241, -0.25327844318032, 0
594, 0.47399802796722, -0.10762927028416, 0
595, 0.49931793745248, -0.1332688120705, 0
596, 0.50077148381295, -0.10921040885812, 0
597, 0.3796554149088, -0.18838259099636, 0
598, 0.16960250974833, -0.04985232876838, 0
599, 0.50445833079398, 0.19665674684996, 0
600, 0.50302769270691, 0.17167627870009, 0
601, 0.055847340850589, -0.0327572936824, 0
602, 0.31677802126121, -0.27444282494578, 0
603, 0.055255689755377, -0.087941340096266, 0
604, 0.74521545388004, -0.068718785015792, 0
605, 0.44013680768484, -0.12873980475255, 0
606, 0.44670701605617, -0.1022121268603, 0
607, 0.28239778775027, 0.079188595836404, 0
608, 0.1397835648973, -0.072597815229114, 0
609, 0.29043179767717, -0.27530895292293, 0
610, 0.66126653755552, 0.20469946422303, 0
611, 0.63431436820878, 0.22507045514736, 0
612, 0.65879751411749, 0.22705758825141, 0
613, 0.63699532298033, 0.028218951233972, 0
614, 0.65782807800577, 0.060064837477555, 0
615, 0.63362782902558, 0.056989420565687, 0
616, 0.39083707149328, -0.24476629038246, 0
617, 0.36927609900273, 0.089022509930849, 0
618, 0.19182754261801, 0.18130031275025, 0
619, 0.190021198843, 0.21114138797268, 0
620, 0.7469436701758, 0.089515093599367, 0
621, 0.77540326820406, 0.056717650134052, 0
622, 0.74584348402438, 0.02702950220191, 0
623, 0.71623577952273, 0.060532499559062, 0
624, 0.74610324566716, 0.058426062256953, 0
625, 0.66036903099265, -0.0027121037364474, 0
626, 0.63517416879575, -0.00088102663371581, 0
627, 0.41421211882808, -0.21572639743474, 0
628, 0.44051229945099, -0.18669847471774, 0
629, 0.44264570193073, -0.21530369912582, 0
630, 0.11237137150186, -0.012479554301274, 0
631, 0.18379378356066, -0.22936921651803, 0
632, 0.28671100893995, -0.17653880871189, 0
633, 0.25565595585853, -0.1664576264409, 0
634, 0.16992560046166, -0.021290027803475, 0
635, 0.16532868401389, 0.15373205829686, 0
636, 0.22180928409239, 0.14885538201634, 0
637, 0.15879012147948, -0.25188599474615, 0
638, 0.19344956246103, 0.15137170303082, 0
639, 0.055386716590148, 0.10639756895861, 0
640, 0.027956761935696, -0.0014247722980324, 0
641, 0.055854902901816, 0.050746725731506, 0
642, 0.59892104916315, 0.16192249338814, 0
643, 0.57528479991446, 0.14749903629909, 0
644, 0.33371626338987, -0.073023913330434, 0
645, 0.22340975659351, 0.11831789326778, 0
646, 0.28500027911921, -0.25105627139439, 0
647, 0.26552182572708, -0.07057873331009, 0
648, 0.77238895119493, -0.21863502302252, 0
649, 0.75133434989504, -0.22841299510082, 0
650, 0.89581839386465, -0.17139407729877, 0
651, 0.90170739440459, -0.24949352191277, 0
652, 0.78361892739895, 0.22302568112796, 0
653, 0.75654441454825, 0.19898703513703, 0
654, 0.75745761335767, 0.2243317243344, 0
655, 0.36108785506483, -0.12909049188317, 0
656, 0.24745050159242, -0.18967783488691, 0
657, 0.20744613595065, -0.20823658047539, 0
658, 0.41988301064374, 0.184151678982, 0
659, 0.43124677001324, 0.1563957751641, 0
660, 0.8372025478263, 0.22105350680185, 0
661, 0.80953994423448, 0.19554706253672, 0
662, 0.81024775107418, 0.22192000429925, 0
663, 0.18363944932311, -0.20627445017569, 0
664, 0.26431315663595, -0.2760299469313, 0
665, 0.31193433153122, -0.1051261229766, 0
666, 0.082190885518207, -0.11846780700752, 0
667, 0.027897328267369, 0.053948398873687, 0
668, 0.16642513555003, -0.10496319179002, 0
669, 0.71638980574652, -0.0042449276602418, 0
670, 0.7748406242428, -0.0045250218936132, 0
671, 0.83299107767783, -0.033533651294178, 0
672, 0.74559303686355, -0.004515679231508, 0
673, 0.081381163268793, 0.18820833311251, 0
674, 0.10967108947127, 0.15804986442178, 0
675, 0.082088232095267, 0.16006415688697, 0
676, 0.36376402755641, -0.24590701908902, 0
677, 0.19814787711618, -0.0843582499134, 0
678, 0.61324229781716, 0.19587139700136, 0
679, 0.58022793290012, 0.21973525006532, 0
680, 0.60828369109562, 0.2221778627218, 0
681, 0.080570439544618, 0.21629165057773, 0
682, 0.083212289082312, 0.10375077958064, 0
683, 0.11172460625279, 0.072498843556933, 0
684, 0.31167540555037, 0.042979950908948, 0
685, 0.30412345084055, -0.22440142336687, 0
686, 0.68805668559438, 0.028722630191493, 0
687, 0.65006991266722, -0.27226566037271, 0
688, 0.68772929874332, -0.0036807685484917, 0
689, 0.13740948366581, 0.15594425325684, 0
690, 0.18675703939877, -0.16042193392052, 0
691, 0.35014448946113, -0.19133250184773, 0
692, 0.39556446877554, -0.27240537168295, 0
693, 0.65300338685403, 0.13051113181346, 0
694, 0.70088270182039, 0.15753797592184, 0
695, 0.72083313024612, 0.12444448865751, 0
696, 0.14061047402346, -0.044853982960914, 0
697, 0.16920410485264, 0.036544027079189, 0
698, 0.83581022129904, 0.16739731178648, 0
699, 0.80732144021706, 0.14151876211921, 0
700, 0.78150218721881, 0.17073736652115, 0
701, 0.80853999228189, 0.16880037412977, 0
702, 0.080203550252167, -0.1975093644467, 0
703, 0.079770938452828, -0.22332503864339, 0
704, 0.92337482927776, -0.1963952510673, 0
705, 0.9248183966777, -0.22269170533362, 0
706, 0.89158889061228, 0.22002792624429, 0
707, 0.91879778504527, 0.2198450238913, 0
708, 0.77789122203748, 0.11578980538393, 0
709, 0.80496534113781, 0.084847959181075, 0
710, 0.80604772570998, 0.1135550881915, 0
711, 0.89397505966968, -0.14429821107893, 0
712, 0.77543172341386, -0.06677318948265, 0
713, 0.52541122675986, -0.21424232528167, 0
714, 0.87220492909138, -0.19995347839527, 0
715, 0.80391144810702, 0.025733857021178, 0
716, 0.80425773832046, 0.055508679188113, 0
717, 0.25991100657242, -0.25250640783928, 0
718, 0.32821618623508, -0.13492670388053, 0
719, 0.36410725740202, 0.058763739055678, 0
720, 0.13513445447449, -0.15175301064647, 0
721, 0.10744378735905, -0.17403882420406, 0
722, 0.13382105869026, -0.17689145242532, 0
723, 0.080763866598229, -0.17145456403837, 0
724, 0.86380762123254, 0.19356998391547, 0
725, 0.86435651478783, 0.22042846301084, 0
726, 0.60407097822747, -0.24200152122956, 0
727, 0.80387418823019, -0.0043207850522983, 0
728, 0.4817199558609, 0.22119343622699, 0
729, 0.52820278562787, 0.22180232594148, 0
730, 0.50458184481057, 0.22175035412233, 0
731, 0.36270429521461, 0.030610547290118, 0
732, 0.16849859891268, -0.077884241681167, 0
733, 0.86318558294423, 0.16643018710067, 0
734, 0.46961719831156, -0.15915260925052, 0
735, 0.73678978862732, -0.20939741651569, 0
736, 0.49837618502198, -0.15938882274012, 0
737, 0.55304099840537, 0.2212234085303, 0
738, 0.2565942715444, 0.02304059017899, 0
739, 0.25559685817587, -0.2297811330405, 0
740, 0.2964526942693, -0.20010649682542, 0
741, 0.31092171350213, 0.073654043715663, 0
742, 0.34587557414324, -0.019292122079418, 0
743, 0.22342746184972, -0.12049625768107, 0
744, 0.13842890782055, -0.099738771920544, 0
745, 0.11213043962914, 0.044054794063578, 0
746, 0.84663268446353, -0.20268496924162, 0
747, 0.43641552692018, 0.21669432851996, 0
748, 0.4592449452537, 0.21978453798764, 0
749, 0.70655253748593, -0.25269664186518, 0
750, 0.80844076285591, -0.27820294186274, 0
751, 0.5526345430491, -0.21343467538552, 0
752, 0.29368391744914, -0.042147398630048, 0
753, 0.083621065813881, 0.075598329057844, 0
754, 0.35753676498721, -0.21877181860426, 0
755, 0.57589365398271, -0.27113229972172, 0
756, 0.5546812084671, -0.12749545546054, 0
757, 0.61275762541482, -0.070026253038463, 0
758, 0.8338032709196, -0.063083651549847, 0
759, 0.76347583257522, -0.28061106754225, 0
760, 0.6282132259919, -0.031383974218033, 0
761, 0.027794757033804, -0.056941210815157, 0
762, 0.92195787041357, -0.16969519852657, 0
763, 0.78965219720387, -0.18670425663863, 0
764, 0.71798773229826, -0.23010958010029, 0
765, 0.77914386644425, -0.12912173852951, 0
766, 0.19944258351841, -0.055637976718263, 0
767, 0.055963412898867, -0.0049622240318747, 0
768, 0.310676815644, -0.24923332695452, 0
769, 0.68588752966303, 0.062325828335751, 0
770, 0.67479273971138, -0.18060404395535, 0
771, 0.60069219503086, -0.27117707955768, 0
772, 0.8795314961706, -0.27535871408004, 0
773, 0.64515573070201, 0.1800428875326, 0
774, 0.68308559594722, 0.18387097645724, 0
775, 0.66392540921673, 0.18506882609571, 0
776, 0.61435383952035, -0.11284744312115, 0
777, 0.58337673124529, -0.15202172185162, 0
778, 0.14054722639071, 0.040442227488003, 0
779, 0.34111971279741, 0.13500093480125, 0
780, 0.083490606547943, -0.064113068247456, 0
781, 0.75247469778261, 0.14692270202163, 0
782, 0.72915977485558, 0.17660081407552, 0
783, 0.75490990100385, 0.17332072195965, 0
784, 0.38652787478889, 0.20911584486167, 0
785, 0.306095775417, 0.17346850844506, 0
786, 0.35919350952835, 0.20649317617372, 0
787, 0.31388032315804, 0.01326971315252, 0
788, 0.13842244384104, 0.12699334992486, 0
789, 0.13999991113548, 0.069207376914554, 0
790, 0.10951987350402, -0.12203518881742, 0
791, 0.25046374772019, 0.14610331515423, 0
792, 0.74949254161614, 0.11916425114695, 0
793, 0.27933063040493, -0.2274494833777, 0
794, 0.40572296565824, -0.15609438525896, 0
795, 0.21232108986391, -0.27652798765072, 0
796, 0.43920235678805, -0.15775166715538, 0
797, 0.41229062237601, 0.21285514954004, 0
798, 0.19608954203918, 0.091602606344233, 0
799, 0.19813013526162, 0.032334422113241, 0
800, 0.39451895726041, 0.17731065874127, 0
801, 0.62360964270561, 0.1721032584172, 0
802, 0.70492846327087, 0.18039006394515, 0
803, 0.19471711903012, -0.11153912666692, 0
804, 0.27696459155975, 0.17537771773704, 0
805, 0.39727188379329, -0.085567794787417, 0
806, 0.54426533184436, 0.17601249018015, 0
807, 0.61501186482517, 0.1402720033302, 0
808, 0.66595530298704, 0.17052923099865, 0
809, 0.86955533117702, -0.17364251061279, 0
810, 0.84998194244891, -0.22773073107054, 0
811, 0.46598542683317, 0.17717598699263, 0
812, 0.81207781875476, -0.15354006509432, 0
813, 0.36534992904355, 0.0034437996327433, 0
814, 0.25494047343053, 0.053286507966688, 0
815, 0.24444037400832, -0.17575818459213, 0
816, 0.2304758082052, -0.17114336657151, 0
817, 0.29729132974516, -0.14181986283259, 0
818, 0.27130063275362, -0.10899599612312, 0
******* E L E M E N T S *************
*ELEMENT, type=CPS4, ELSET=Surface1
1, 262, 328, 329, 326
2, 326, 329, 51, 62
3, 329, 327, 61, 51
4, 328, 260, 327, 329
5, 63, 331, 332, 52
6, 52, 332, 326, 62
7, 332, 330, 262, 326
8, 331, 259, 330, 332
9, 206, 340, 187, 791
10, 635, 689, 788, 518
11, 64, 338, 339, 53
12, 53, 339, 331, 63
13, 339, 337, 259, 331
14, 338, 257, 337, 339
15, 560, 392, 132, 145
16, 519, 118, 108, 640
17, 498, 814, 423, 335
18, 446, 692, 17, 2
19, 81, 74, 346, 343
20, 343, 346, 344, 240
21, 346, 345, 242, 344
22, 74, 82, 345, 346
23, 741, 224, 577, 481
24, 793, 739, 717, 646
25, 207, 744, 348, 790
26, 630, 562, 334, 341
27, 401, 412, 394, 275
28, 714, 277, 445, 580
29, 353, 270, 688, 625
30, 279, 29, 27, 435
31, 771, 30, 39, 269
32, 291, 756, 268, 287
33, 65, 357, 358, 54
34, 54, 358, 338, 64
35, 358, 356, 257, 338
36, 357, 229, 356, 358
37, 233, 361, 362, 359
38, 359, 362, 360, 234
39, 362, 70, 78, 360
40, 361, 77, 70, 362
41, 154, 365, 366, 363
42, 598, 634, 390, 696
43, 500, 502, 364, 201
44, 365, 19, 12, 366
45, 121, 111, 369, 333
46, 333, 369, 367, 205
47, 369, 368, 196, 367
48, 111, 122, 368, 369
49, 98, 372, 373, 90
50, 90, 373, 370, 97
51, 373, 371, 182, 370
52, 372, 180, 371, 373
53, 194, 738, 586, 456
54, 198, 697, 778, 561
55, 293, 422, 739, 793
56, 159, 501, 690, 342
57, 102, 95, 380, 378
58, 378, 380, 379, 176
59, 380, 103, 114, 379
60, 95, 8, 103, 380
61, 540, 288, 352, 750
62, 381, 383, 382, 292
63, 383, 37, 46, 382
64, 351, 402, 312, 321
65, 183, 385, 386, 384
66, 384, 386, 370, 182
67, 386, 89, 97, 370
68, 385, 96, 89, 386
69, 65, 55, 389, 357
70, 357, 389, 387, 229
71, 389, 388, 231, 387
72, 55, 66, 388, 389
73, 333, 323, 110, 121
74, 482, 106, 117, 347
75, 571, 164, 523, 503
76, 533, 149, 135, 572
77, 164, 550, 404, 270
78, 273, 434, 310, 712
79, 61, 327, 398, 50
80, 50, 398, 396, 60
81, 398, 397, 282, 396
82, 327, 260, 397, 398
83, 402, 809, 650, 711
84, 312, 316, 355, 525
85, 445, 277, 393, 651
86, 272, 726, 411, 535
87, 649, 166, 537, 579
88, 758, 276, 167, 671
89, 115, 105, 407, 405
90, 405, 407, 406, 173
91, 740, 293, 793, 685
92, 60, 396, 410, 49
93, 49, 410, 408, 59
94, 410, 409, 289, 408
95, 396, 282, 409, 410
96, 286, 770, 285, 319
97, 726, 771, 269, 411
98, 551, 279, 435, 350
99, 570, 525, 276, 758
100, 26, 416, 414, 28
101, 416, 415, 158, 414
102, 180, 372, 419, 417
103, 417, 419, 418, 178
104, 419, 91, 99, 418
105, 372, 98, 91, 419
106, 213, 597, 520, 627
107, 644, 221, 336, 591
108, 794, 590, 597, 213
109, 437, 20, 13, 491
110, 347, 117, 107, 667
111, 577, 617, 181, 779
112, 720, 207, 790, 203
113, 780, 334, 601, 324
114, 46, 38, 425, 382
115, 382, 425, 424, 292
116, 425, 47, 58, 424
117, 38, 4, 47, 425
118, 101, 94, 428, 426
119, 426, 428, 427, 175
120, 428, 378, 176, 427
121, 94, 102, 378, 428
122, 99, 92, 431, 418
123, 418, 431, 429, 178
124, 431, 430, 177, 429
125, 92, 100, 430, 431
126, 100, 93, 433, 430
127, 430, 433, 432, 177
128, 433, 426, 175, 432
129, 93, 101, 426, 433
130, 648, 309, 549, 403
131, 604, 712, 278, 395
132, 274, 41, 33, 318
133, 525, 355, 460, 276
134, 752, 591, 204, 306
135, 376, 633, 199, 632
136, 456, 586, 799, 155
137, 803, 668, 374, 501
138, 123, 113, 441, 439
139, 439, 441, 440, 153
140, 441, 10, 18, 440
141, 113, 1, 10, 441
142, 238, 443, 444, 442
143, 442, 444, 343, 240
144, 444, 73, 81, 343
145, 443, 80, 73, 444
146, 320, 549, 540, 436
147, 267, 462, 522, 749
148, 399, 281, 35, 44
149, 2, 25, 448, 446
150, 446, 448, 447, 151
151, 448, 414, 158, 447
152, 25, 28, 414, 448
153, 6, 83, 452, 449
154, 449, 452, 450, 162
155, 452, 451, 243, 450
156, 83, 86, 451, 452
157, 79, 72, 455, 453
158, 453, 455, 454, 237
159, 455, 443, 238, 454
160, 72, 80, 443, 455
161, 657, 458, 200, 490
162, 668, 744, 207, 374
163, 720, 722, 218, 208
164, 637, 437, 491, 216
165, 269, 39, 31, 687
166, 317, 163, 318, 759
167, 536, 503, 776, 311
168, 67, 57, 466, 464
169, 464, 466, 465, 232
170, 466, 68, 76, 465
171, 57, 5, 68, 466
172, 243, 451, 469, 467
173, 467, 469, 468, 184
174, 469, 84, 87, 468
175, 451, 86, 84, 469
176, 184, 468, 472, 470
177, 470, 472, 471, 152
178, 472, 85, 7, 471
179, 468, 87, 85, 472
180, 152, 471, 474, 473
181, 473, 474, 385, 183
182, 474, 88, 96, 385
183, 471, 7, 88, 474
184, 263, 460, 477, 475
185, 475, 477, 328, 262
186, 477, 476, 260, 328
187, 416, 26, 29, 279
188, 66, 56, 479, 388
189, 388, 479, 478, 231
190, 479, 464, 232, 478
191, 56, 67, 464, 479
192, 813, 560, 145, 131
193, 222, 325, 682, 193
194, 646, 717, 664, 609
195, 153, 440, 485, 484
196, 484, 485, 365, 154
197, 485, 11, 19, 365
198, 440, 18, 11, 485
199, 257, 488, 489, 337
200, 337, 489, 486, 259
201, 489, 487, 258, 486
202, 488, 256, 487, 489
203, 677, 766, 598, 732
204, 697, 211, 789, 778
205, 215, 589, 16, 24
206, 616, 676, 215, 692
207, 78, 71, 493, 360
208, 360, 493, 492, 234
209, 493, 453, 237, 492
210, 71, 79, 453, 493
211, 82, 75, 495, 345
212, 345, 495, 494, 242
213, 495, 449, 162, 494
214, 75, 6, 449, 495
215, 374, 207, 720, 208
216, 199, 656, 422, 293
217, 603, 324, 761, 578
218, 778, 745, 322, 561
219, 154, 363, 502, 499
220, 499, 502, 500, 202
221, 718, 817, 587, 421
222, 738, 814, 498, 586
223, 535, 411, 400, 285
224, 268, 569, 596, 595
225, 411, 269, 687, 400
226, 735, 649, 648, 534
227, 227, 507, 508, 504
228, 504, 508, 505, 228
229, 508, 506, 256, 505
230, 507, 253, 506, 508
231, 229, 509, 510, 356
232, 356, 510, 488, 257
233, 510, 505, 256, 488
234, 509, 228, 505, 510
235, 259, 486, 512, 330
236, 330, 512, 475, 262
237, 512, 511, 263, 475
238, 486, 258, 511, 512
239, 176, 379, 514, 513
240, 513, 514, 405, 173
241, 514, 104, 115, 405
242, 379, 114, 104, 514
243, 256, 506, 517, 487
244, 487, 517, 515, 258
245, 517, 516, 255, 515
246, 506, 253, 516, 517
247, 617, 143, 129, 181
248, 641, 667, 519, 223
249, 816, 588, 656, 815
250, 307, 223, 767, 562
251, 261, 436, 281, 399
252, 759, 318, 33, 42
253, 542, 271, 266, 272
254, 122, 112, 527, 368
255, 368, 527, 526, 196
256, 527, 439, 153, 526
257, 112, 123, 439, 527
258, 232, 465, 529, 528
259, 528, 529, 361, 233
260, 529, 69, 77, 361
261, 465, 76, 69, 529
262, 229, 387, 532, 509
263, 509, 532, 530, 228
264, 532, 531, 230, 530
265, 387, 231, 531, 532
266, 167, 263, 511, 582
267, 271, 461, 751, 266
268, 354, 755, 771, 726
269, 557, 536, 311, 542
270, 772, 399, 44, 36
271, 765, 280, 434, 273
272, 277, 810, 261, 393
273, 264, 533, 572, 756
274, 280, 321, 570, 434
275, 393, 261, 399, 772
276, 287, 268, 595, 736
277, 316, 558, 476, 355
278, 415, 541, 538, 158
279, 541, 539, 214, 538
280, 649, 579, 309, 648
281, 275, 550, 164, 571
282, 401, 275, 571, 165
283, 651, 393, 772, 290
284, 809, 714, 580, 650
285, 179, 786, 545, 189
286, 294, 659, 658, 800
287, 546, 371, 180, 544
288, 545, 182, 371, 546
289, 59, 408, 548, 48
290, 48, 548, 424, 58
291, 548, 547, 292, 424
292, 408, 289, 547, 548
293, 461, 291, 287, 265
294, 286, 735, 534, 413
295, 350, 435, 755, 354
296, 275, 394, 604, 550
297, 760, 626, 137, 150
298, 713, 551, 350, 751
299, 810, 320, 436, 261
300, 355, 476, 477, 460
301, 240, 554, 555, 442
302, 442, 555, 552, 238
303, 555, 553, 235, 552
304, 554, 239, 553, 555
305, 260, 476, 558, 397
306, 397, 558, 556, 282
307, 402, 711, 316, 312
308, 290, 772, 36, 45
309, 633, 815, 656, 199
310, 813, 131, 144, 731
311, 322, 307, 562, 630
312, 209, 341, 334, 780
313, 177, 432, 566, 563
314, 563, 566, 564, 172
315, 566, 565, 174, 564
316, 432, 175, 565, 566
317, 567, 308, 789, 211
318, 568, 194, 456, 156
319, 520, 754, 676, 616
320, 645, 636, 638, 195
321, 569, 572, 135, 148
322, 543, 283, 746, 463
323, 785, 546, 544, 804
324, 573, 575, 574, 169
325, 575, 417, 178, 574
326, 544, 180, 417, 575
327, 497, 657, 490, 588
328, 194, 306, 420, 738
329, 521, 116, 106, 482
330, 639, 482, 347, 212
331, 770, 165, 536, 557
332, 757, 136, 149, 533
333, 413, 459, 765, 412
334, 581, 582, 515, 255
335, 582, 511, 258, 515
336, 352, 759, 42, 34
337, 248, 774, 775, 808
338, 583, 585, 125, 138
339, 585, 584, 139, 125
340, 693, 301, 807, 302
341, 597, 691, 754, 520
342, 634, 198, 561, 390
343, 201, 364, 631, 663
344, 799, 391, 211, 697
345, 151, 616, 692, 446
346, 218, 201, 663, 457
347, 501, 374, 208, 690
348, 342, 497, 588, 816
349, 219, 595, 596, 594
350, 594, 596, 134, 147
351, 596, 569, 148, 134
352, 436, 540, 750, 281
353, 795, 21, 14, 377
354, 217, 438, 766, 677
355, 208, 218, 457, 690
356, 691, 160, 576, 754
357, 140, 299, 600, 127
358, 127, 600, 315, 141
359, 600, 599, 186, 315
360, 299, 245, 599, 600
361, 294, 142, 128, 659
362, 181, 179, 189, 779
363, 179, 800, 784, 786
364, 189, 545, 546, 785
365, 276, 460, 263, 167
366, 283, 320, 810, 746
367, 220, 605, 606, 295
368, 295, 606, 133, 146
369, 606, 594, 147, 133
370, 605, 219, 594, 606
371, 761, 480, 119, 109
372, 390, 630, 341, 696
373, 645, 206, 791, 636
374, 240, 344, 612, 554
375, 554, 612, 610, 239
376, 612, 611, 241, 610
377, 344, 242, 611, 612
378, 161, 614, 615, 613
379, 613, 615, 124, 9
380, 615, 583, 138, 124
381, 305, 623, 624, 620
382, 195, 518, 567, 798
383, 743, 803, 501, 159
384, 340, 481, 188, 187
385, 178, 429, 619, 574
386, 574, 619, 618, 169
387, 619, 563, 172, 618
388, 429, 177, 563, 619
389, 584, 807, 642, 643
390, 620, 624, 621, 252
391, 624, 622, 254, 621
392, 623, 251, 622, 624
393, 9, 137, 626, 613
394, 613, 626, 625, 161
395, 311, 776, 264, 777
396, 395, 278, 670, 672
397, 151, 447, 629, 627
398, 627, 629, 628, 213
399, 629, 538, 214, 628
400, 447, 158, 538, 629
401, 192, 742, 560, 813
402, 578, 761, 109, 120
403, 205, 210, 323, 333
404, 438, 156, 592, 766
405, 588, 490, 422, 656
406, 204, 742, 192, 787
407, 502, 363, 637, 364
408, 336, 221, 297, 392
409, 635, 638, 618, 172
410, 638, 636, 169, 618
411, 308, 193, 683, 789
412, 364, 637, 216, 631
413, 325, 170, 639, 682
414, 348, 209, 780, 191
415, 407, 105, 116, 521
416, 244, 298, 643, 642
417, 781, 783, 782, 250
418, 643, 126, 139, 584
419, 298, 140, 126, 643
420, 323, 578, 120, 110
421, 458, 593, 197, 200
422, 420, 787, 684, 559
423, 335, 423, 206, 645
424, 627, 520, 616, 151
425, 168, 743, 159, 483
426, 491, 13, 21, 795
427, 220, 655, 590, 794
428, 461, 265, 713, 751
429, 750, 352, 34, 43
430, 278, 284, 727, 670
431, 687, 31, 40, 462
432, 756, 572, 569, 268
433, 270, 404, 669, 688
434, 579, 537, 163, 317
435, 237, 454, 654, 652
436, 652, 654, 653, 236
437, 654, 552, 235, 653
438, 454, 238, 552, 654
439, 754, 576, 157, 676
440, 818, 647, 438, 217
441, 457, 663, 657, 497
442, 377, 14, 22, 664
443, 804, 544, 575, 573
444, 157, 768, 602, 589
445, 659, 313, 185, 658
446, 128, 141, 313, 659
447, 234, 492, 662, 660
448, 660, 662, 661, 225
449, 662, 652, 236, 661
450, 492, 237, 652, 662
451, 690, 457, 497, 342
452, 589, 602, 23, 16
453, 818, 168, 376, 817
454, 366, 12, 20, 437
455, 306, 204, 787, 420
456, 193, 682, 753, 683
457, 674, 675, 325, 222
458, 767, 640, 480, 601
459, 462, 40, 32, 522
460, 669, 672, 622, 251
461, 672, 670, 254, 622
462, 735, 764, 166, 649
463, 722, 500, 201, 218
464, 406, 675, 673, 173
465, 675, 674, 174, 673
466, 481, 577, 779, 188
467, 768, 646, 609, 602
468, 602, 609, 15, 23
469, 576, 685, 768, 157
470, 216, 491, 795, 593
471, 242, 494, 680, 611
472, 611, 680, 678, 241
473, 680, 679, 244, 678
474, 494, 162, 679, 680
475, 175, 427, 681, 565
476, 565, 681, 673, 174
477, 681, 513, 173, 673
478, 427, 176, 513, 681
479, 814, 559, 607, 423
480, 683, 753, 171, 745
481, 788, 222, 193, 308
482, 375, 644, 591, 752
483, 812, 543, 463, 351
484, 625, 688, 686, 161
485, 688, 669, 251, 686
486, 404, 395, 672, 669
487, 172, 564, 689, 635
488, 742, 336, 392, 560
489, 564, 174, 674, 689
490, 631, 216, 593, 458
491, 156, 456, 155, 592
492, 665, 190, 644, 375
493, 586, 498, 391, 799
494, 695, 792, 781, 250
495, 303, 693, 302, 249
496, 247, 808, 775, 773
497, 301, 247, 773, 801
498, 593, 795, 377, 197
499, 217, 677, 803, 743
500, 392, 297, 146, 132
501, 798, 567, 211, 391
502, 236, 700, 701, 661
503, 661, 701, 698, 225
504, 701, 699, 227, 698
505, 700, 226, 699, 701
506, 196, 526, 703, 702
507, 702, 703, 499, 202
508, 703, 484, 154, 499
509, 526, 153, 484, 703
510, 770, 557, 535, 285
511, 412, 765, 273, 394
512, 705, 547, 289, 704
513, 381, 292, 547, 705
514, 231, 478, 707, 531
515, 531, 707, 706, 230
516, 707, 528, 233, 706
517, 478, 232, 528, 707
518, 252, 709, 710, 708
519, 708, 710, 699, 226
520, 710, 507, 227, 699
521, 709, 253, 507, 710
522, 777, 264, 756, 291
523, 705, 445, 651, 381
524, 381, 651, 290, 383
525, 266, 354, 726, 272
526, 580, 445, 705, 704
527, 253, 709, 716, 516
528, 516, 716, 715, 255
529, 716, 621, 254, 715
530, 709, 252, 621, 716
531, 647, 568, 156, 438
532, 223, 519, 640, 767
533, 324, 601, 480, 761
534, 655, 718, 421, 590
535, 203, 721, 722, 720
536, 732, 598, 696, 608
537, 609, 664, 22, 15
538, 721, 202, 500, 722
539, 202, 721, 723, 702
540, 702, 723, 367, 196
541, 723, 496, 205, 367
542, 721, 203, 496, 723
543, 230, 706, 725, 724
544, 724, 725, 660, 225
545, 725, 359, 234, 660
546, 706, 233, 359, 725
547, 255, 715, 727, 581
548, 746, 810, 277, 714
549, 715, 254, 670, 727
550, 245, 729, 730, 599
551, 599, 730, 728, 186
552, 730, 467, 184, 728
553, 729, 243, 467, 730
554, 732, 608, 744, 668
555, 676, 157, 589, 215
556, 592, 155, 198, 634
557, 225, 698, 733, 724
558, 724, 733, 530, 230
559, 733, 504, 228, 530
560, 698, 227, 504, 733
561, 539, 736, 734, 214
562, 736, 595, 219, 734
563, 413, 534, 763, 459
564, 162, 450, 737, 679
565, 679, 737, 300, 244
566, 737, 729, 245, 300
567, 450, 243, 729, 737
568, 731, 144, 130, 719
569, 498, 335, 798, 391
570, 203, 790, 666, 496
571, 192, 813, 731, 349
572, 738, 420, 559, 814
573, 790, 348, 191, 666
574, 675, 406, 170, 325
575, 423, 607, 340, 206
576, 638, 635, 518, 195
577, 561, 322, 630, 390
578, 591, 336, 742, 204
579, 650, 580, 704, 762
580, 549, 309, 288, 540
581, 557, 542, 272, 535
582, 186, 728, 748, 314
583, 314, 748, 747, 185
584, 748, 470, 152, 747
585, 728, 184, 470, 748
586, 463, 746, 714, 809
587, 711, 650, 762, 556
588, 170, 521, 482, 639
589, 406, 407, 521, 170
590, 789, 683, 745, 778
591, 155, 799, 697, 198
592, 524, 274, 318, 163
593, 286, 319, 764, 735
594, 503, 523, 757, 776
595, 711, 556, 558, 316
596, 394, 273, 712, 604
597, 286, 401, 165, 770
598, 435, 27, 3, 755
599, 349, 731, 719, 224
600, 766, 592, 634, 598
601, 568, 752, 306, 194
602, 667, 107, 118, 519
603, 282, 556, 762, 409
604, 409, 762, 704, 289
605, 541, 415, 551, 713
606, 403, 549, 320, 283
607, 764, 749, 524, 166
608, 288, 317, 759, 352
609, 351, 463, 809, 402
610, 286, 413, 412, 401
611, 400, 687, 462, 267
612, 310, 758, 671, 284
613, 518, 788, 308, 567
614, 590, 421, 691, 597
615, 559, 684, 741, 607
616, 302, 807, 584, 585
617, 623, 769, 686, 251
618, 769, 614, 161, 686
619, 246, 248, 808, 247
620, 383, 290, 45, 37
621, 550, 604, 395, 404
622, 281, 750, 43, 35
623, 776, 757, 533, 264
624, 522, 32, 41, 274
625, 542, 311, 777, 271
626, 755, 3, 30, 771
627, 165, 571, 503, 536
628, 271, 777, 291, 461
629, 285, 400, 267, 319
630, 304, 694, 248, 246
631, 773, 775, 610, 241
632, 775, 774, 239, 610
633, 249, 302, 585, 583
634, 760, 353, 625, 626
635, 757, 523, 353, 760
636, 751, 350, 354, 266
637, 712, 310, 284, 278
638, 459, 763, 543, 812
639, 459, 812, 280, 765
640, 284, 671, 581, 727
641, 666, 191, 603, 210
642, 187, 804, 573, 791
643, 335, 645, 195, 798
644, 235, 782, 783, 653
645, 653, 783, 700, 236
646, 783, 781, 226, 700
647, 305, 620, 792, 695
648, 181, 129, 142, 294
649, 545, 786, 384, 182
650, 786, 784, 183, 384
651, 779, 189, 785, 188
652, 483, 816, 815, 633
653, 224, 719, 617, 577
654, 190, 296, 221, 644
655, 745, 171, 307, 322
656, 719, 130, 143, 617
657, 608, 696, 341, 209
658, 817, 376, 632, 587
659, 607, 741, 481, 340
660, 636, 791, 573, 169
661, 160, 740, 685, 576
662, 181, 294, 800, 179
663, 265, 287, 736, 539
664, 166, 524, 163, 537
665, 812, 351, 321, 280
666, 226, 781, 792, 708
667, 708, 792, 620, 252
668, 694, 802, 774, 248
669, 304, 695, 250, 694
670, 483, 159, 342, 816
671, 200, 197, 717, 739
672, 168, 483, 633, 376
673, 663, 631, 458, 657
674, 219, 605, 796, 734
675, 734, 796, 628, 214
676, 796, 794, 213, 628
677, 605, 220, 794, 796
678, 183, 784, 797, 473
679, 473, 797, 747, 152
680, 797, 658, 185, 747
681, 188, 785, 804, 187
682, 640, 108, 119, 480
683, 753, 212, 641, 171
684, 682, 639, 212, 753
685, 171, 641, 223, 307
686, 562, 767, 601, 334
687, 197, 377, 664, 717
688, 677, 732, 668, 803
689, 212, 347, 667, 641
690, 800, 658, 797, 784
691, 632, 199, 293, 740
692, 191, 780, 324, 603
693, 241, 678, 801, 773
694, 303, 304, 246, 693
695, 303, 249, 614, 769
696, 678, 244, 642, 801
697, 774, 802, 553, 239
698, 802, 782, 235, 553
699, 249, 583, 615, 614
700, 321, 312, 525, 570
701, 749, 522, 274, 524
702, 309, 579, 317, 288
703, 319, 267, 749, 764
704, 490, 200, 739, 422
705, 363, 366, 437, 637
706, 787, 192, 349, 684
707, 818, 217, 743, 168
708, 587, 632, 740, 160
709, 744, 608, 209, 348
710, 146, 297, 805, 295
711, 295, 805, 296, 220
712, 297, 221, 296, 805
713, 244, 300, 806, 298
714, 298, 806, 299, 140
715, 300, 245, 299, 806
716, 303, 769, 623, 305
717, 807, 301, 801, 642
718, 693, 246, 247, 301
719, 303, 305, 695, 304
720, 250, 782, 802, 694
721, 684, 349, 224, 741
722, 689, 674, 222, 788
723, 265, 539, 541, 713
724, 757, 760, 150, 136
725, 534, 648, 403, 763
726, 523, 164, 270, 353
727, 141, 315, 811, 313
728, 313, 811, 314, 185
729, 315, 186, 314, 811
730, 671, 167, 582, 581
731, 434, 570, 758, 310
732, 415, 416, 279, 551
733, 763, 403, 283, 543
734, 692, 215, 24, 17
735, 210, 603, 578, 323
736, 647, 375, 752, 568
737, 421, 587, 160, 691
738, 685, 793, 646, 768
739, 496, 666, 210, 205
740, 818, 665, 375, 647
741, 190, 655, 220, 296
742, 665, 718, 655, 190
743, 818, 817, 718, 665
*ELSET,ELSET=contact_source
101, 102, 103, 104, 105, 106, 107, 108, 109, 110, 
111, 112, 113, 114, 115, 116, 117, 118, 119, 120, 
121, 122, 
*ELSET,ELSET=contact_drain
41, 42, 43, 44, 45, 46, 47, 48, 49, 50, 
51, 52, 53, 54, 55, 56, 57, 58, 59, 60, 
61, 62, 
*ELSET,ELSET=probe_A
79, 80, 81, 82, 83, 84, 
*ELSET,ELSET=probe_B
17, 18, 19, 20, 21, 22, 
*ELSET,ELSET=walls
1, 2, 3, 4, 5, 6, 7, 8, 9, 10, 
11, 12, 13, 14, 15, 16, 23, 24, 25, 26, 
27, 28, 29, 30, 31, 32, 33, 34, 35, 36, 
37, 38, 39, 40, 63, 64, 65, 66, 67, 68, 
69, 70, 71, 72, 73, 74, 75, 76, 77, 78, 
85, 86, 87, 88, 89, 90, 91, 92, 93, 94, 
95, 96, 97, 98, 99, 100, 123, 124, 125, 126, 
127, 128, 129, 130, 131, 132, 133, 134, 135, 136, 
137, 138, 139, 140, 141, 142, 143, 144, 145, 146, 
147, 148, 149, 150, 
*ELSET,ELSET=domain
151, 152, 153, 154, 155, 156, 157, 158, 159, 160, 
161, 162, 163, 164, 165, 166, 167, 168, 169, 170, 
171, 172, 173, 174, 175, 176, 177, 178, 179, 180, 
181, 182, 183, 184, 185, 186, 187, 188, 189, 190, 
191, 192, 193, 194, 195, 196, 197, 198, 199, 200, 
201, 202, 203, 204, 205, 206, 207, 208, 209, 210, 
211, 212, 213, 214, 215, 216, 217, 218, 219, 220, 
221, 222, 223, 224, 225, 226, 227, 228, 229, 230, 
231, 232, 233, 234, 235, 236, 237, 238, 239, 240, 
241, 242, 243, 244, 245, 246, 247, 248, 249, 250, 
251, 252, 253, 254, 255, 256, 257, 258, 259, 260, 
261, 262, 263, 264, 265, 266, 267, 268, 269, 270, 
271, 272, 273, 274, 275, 276, 277, 278, 279, 280, 
281, 282, 283, 284, 285, 286, 287, 288, 289, 290, 
291, 292, 293, 294, 295, 296, 297, 298, 299, 300, 
301, 302, 303, 304, 305, 306, 307, 308, 309, 310, 
311, 312, 313, 314, 315, 316, 317, 318, 319, 320, 
321, 322, 323, 324, 325, 326, 327, 328, 329, 330, 
331, 332, 333, 334, 335, 336, 337, 338, 339, 340, 
341, 342, 343, 344, 345, 346, 347, 348, 349, 350, 
351, 352, 353, 354, 355, 356, 357, 358, 359, 360, 
361, 362, 363, 364, 365, 366, 367, 368, 369, 370, 
371, 372, 373, 374, 375, 376, 377, 378, 379, 380, 
381, 382, 383, 384, 385, 386, 387, 388, 389, 390, 
391, 392, 393, 394, 395, 396, 397, 398, 399, 400, 
401, 402, 403, 404, 405, 406, 407, 408, 409, 410, 
411, 412, 413, 414, 415, 416, 417, 418, 419, 420, 
421, 422, 423, 424, 425, 426, 427, 428, 429, 430, 
431, 432, 433, 434, 435, 436, 437, 438, 439, 440, 
441, 442, 443, 444, 445, 446, 447, 448, 449, 450, 
451, 452, 453, 454, 455, 456, 457, 458, 459, 460, 
461, 462, 463, 464, 465, 466, 467, 468, 469, 470, 
471, 472, 473, 474, 475, 476, 477, 478, 479, 480, 
481, 482, 483, 484, 485, 486, 487, 488, 489, 490, 
491, 492, 493, 494, 495, 496, 497, 498, 499, 500, 
501, 502, 503, 504, 505, 506, 507, 508, 509, 510, 
511, 512, 513, 514, 515, 516, 517, 518, 519, 520, 
521, 522, 523, 524, 525, 526, 527, 528, 529, 530, 
531, 532, 533, 534, 535, 536, 537, 538, 539, 540, 
541, 542, 543, 544, 545, 546, 547, 548, 549, 550, 
551, 552, 553, 554, 555, 556, 557, 558, 559, 560, 
561, 562, 563, 564, 565, 566, 567, 568, 569, 570, 
571, 572, 573, 574, 575, 576, 577, 578, 579, 580, 
581, 582, 583, 584, 585, 586, 587, 588, 589, 590, 
591, 592, 593, 594, 595, 596, 597, 598, 599, 600, 
601, 602, 603, 604, 605, 606, 607, 608, 609, 610, 
611, 612, 613, 614, 615, 616, 617, 618, 619, 620, 
621, 622, 623, 624, 625, 626, 627, 628, 629, 630, 
631, 632, 633, 634, 635, 636, 637, 638, 639, 640, 
641, 642, 643, 644, 645, 646, 647, 648, 649, 650, 
651, 652, 653, 654, 655, 656, 657, 658, 659, 660, 
661, 662, 663, 664, 665, 666, 667, 668, 669, 670, 
671, 672, 673, 674, 675, 676, 677, 678, 679, 680, 
681, 682, 683, 684, 685, 686, 687, 688, 689, 690, 
691, 692, 693, 694, 695, 696, 697, 698, 699, 700, 
701, 702, 703, 704, 705, 706, 707, 708, 709, 710, 
711, 712, 713, 714, 715, 716, 717, 718, 719, 720, 
721, 722, 723, 724, 725, 726, 727, 728, 729, 730, 
731, 732, 733, 734, 735, 736, 737, 738, 739, 740, 
741, 742, 743, 744, 745, 746, 747, 748, 749, 750, 
751, 752, 753, 754, 755, 756, 757, 758, 759, 760, 
761, 762, 763, 764, 765, 766, 767, 768, 769, 770, 
771, 772, 773, 774, 775, 776, 777, 778, 779, 780, 
781, 782, 783, 784, 785, 786, 787, 788, 789, 790, 
791, 792, 793, 794, 795, 796, 797, 798, 799, 800, 
801, 802, 803, 804, 805, 806, 807, 808, 809, 810, 
811, 812, 813, 814, 815, 816, 817, 818, 819, 820, 
821, 822, 823, 824, 825, 826, 827, 828, 829, 830, 
831, 832, 833, 834, 835, 836, 837, 838, 839, 840, 
841, 842, 843, 844, 845, 846, 847, 848, 849, 850, 
851, 852, 853, 854, 855, 856, 857, 858, 859, 860, 
861, 862, 863, 864, 865, 866, 867, 868, 869, 870, 
871, 872, 873, 874, 875, 876, 877, 878, 879, 880, 
881, 882, 883, 884, 885, 886, 887, 888, 889, 890, 
891, 892, 893, 
*NSET,NSET=contact_source
1, 8, 103, 104, 105, 106, 107, 108, 109, 110, 
111, 112, 113, 114, 115, 116, 117, 118, 119, 120, 
121, 122, 123, 
*NSET,NSET=contact_drain
4, 5, 47, 48, 49, 50, 51, 52, 53, 54, 
55, 56, 57, 58, 59, 60, 61, 62, 63, 64, 
65, 66, 67, 
*NSET,NSET=probe_A
6, 7, 83, 84, 85, 86, 87, 
*NSET,NSET=probe_B
2, 3, 25, 26, 27, 28, 29, 
*NSET,NSET=walls
1, 2, 3, 4, 5, 6, 7, 8, 9, 10, 
11, 12, 13, 14, 15, 16, 17, 18, 19, 20, 
21, 22, 23, 24, 30, 31, 32, 33, 34, 35, 
36, 37, 38, 39, 40, 41, 42, 43, 44, 45, 
46, 68, 69, 70, 71, 72, 73, 74, 75, 76, 
77, 78, 79, 80, 81, 82, 88, 89, 90, 91, 
92, 93, 94, 95, 96, 97, 98, 99, 100, 101, 
102, 124, 125, 126, 127, 128, 129, 130, 131, 132, 
133, 134, 135, 136, 137, 138, 139, 140, 141, 142, 
143, 144, 145, 146, 147, 148, 149, 150, 
*NSET,NSET=domain
1, 2, 3, 4, 5, 6, 7, 8, 9, 10, 
11, 12, 13, 14, 15, 16, 17, 18, 19, 20, 
21, 22, 23, 24, 25, 26, 27, 28, 29, 30, 
31, 32, 33, 34, 35, 36, 37, 38, 39, 40, 
41, 42, 43, 44, 45, 46, 47, 48, 49, 50, 
51, 52, 53, 54, 55, 56, 57, 58, 59, 60, 
61, 62, 63, 64, 65, 66, 67, 68, 69, 70, 
71, 72, 73, 74, 75, 76, 77, 78, 79, 80, 
81, 82, 83, 84, 85, 86, 87, 88, 89, 90, 
91, 92, 93, 94, 95, 96, 97, 98, 99, 100, 
101, 102, 103, 104, 105, 106, 107, 108, 109, 110, 
111, 112, 113, 114, 115, 116, 117, 118, 119, 120, 
121, 122, 123, 124, 125, 126, 127, 128, 129, 130, 
131, 132, 133, 134, 135, 136, 137, 138, 139, 140, 
141, 142, 143, 144, 145, 146, 147, 148, 149, 150, 
151, 152, 153, 154, 155, 156, 157, 158, 159, 160, 
161, 162, 163, 164, 165, 166, 167, 168, 169, 170, 
171, 172, 173, 174, 175, 176, 177, 178, 179, 180, 
181, 182, 183, 184, 185, 186, 187, 188, 189, 190, 
191, 192, 193, 194, 195, 196, 197, 198, 199, 200, 
201, 202, 203, 204, 205, 206, 207, 208, 209, 210, 
211, 212, 213, 214, 215, 216, 217, 218, 219, 220, 
221, 222, 223, 224, 225, 226, 227, 228, 229, 230, 
231, 232, 233, 234, 235, 236, 237, 238, 239, 240, 
241, 242, 243, 244, 245, 246, 247, 248, 249, 250, 
251, 252, 253, 254, 255, 256, 257, 258, 259, 260, 
261, 262, 263, 264, 265, 266, 267, 268, 269, 270, 
271, 272, 273, 274, 275, 276, 277, 278, 279, 280, 
281, 282, 283, 284, 285, 286, 287, 288, 289, 290, 
291, 292, 293, 294, 295, 296, 297, 298, 299, 300, 
301, 302, 303, 304, 305, 306, 307, 308, 309, 310, 
311, 312, 313, 314, 315, 316, 317, 318, 319, 320, 
321, 322, 323, 324, 325, 326, 327, 328, 329, 330, 
331, 332, 333, 334, 335, 336, 337, 338, 339, 340, 
341, 342, 343, 344, 345, 346, 347, 348, 349, 350, 
351, 352, 353, 354, 355, 356, 357, 358, 359, 360, 
361, 362, 363, 364, 365, 366, 367, 368, 369, 370, 
371, 372, 373, 374, 375, 376, 377, 378, 379, 380, 
381, 382, 383, 384, 385, 386, 387, 388, 389, 390, 
391, 392, 393, 394, 395, 396, 397, 398, 399, 400, 
401, 402, 403, 404, 405, 406, 407, 408, 409, 410, 
411, 412, 413, 414, 415, 416, 417, 418, 419, 420, 
421, 422, 423, 424, 425, 426, 427, 428, 429, 430, 
431, 432, 433, 434, 435, 436, 437, 438, 439, 440, 
441, 442, 443, 444, 445, 446, 447, 448, 449, 450, 
451, 452, 453, 454, 455, 456, 457, 458, 459, 460, 
461, 462, 463, 464, 465, 466, 467, 468, 469, 470, 
471, 472, 473, 474, 475, 476, 477, 478, 479, 480, 
481, 482, 483, 484, 485, 486, 487, 488, 489, 490, 
491, 492, 493, 494, 495, 496, 497, 498, 499, 500, 
501, 502, 503, 504, 505, 506, 507, 508, 509, 510, 
511, 512, 513, 514, 515, 516, 517, 518, 519, 520, 
521, 522, 523, 524, 525, 526, 527, 528, 529, 530, 
531, 532, 533, 534, 535, 536, 537, 538, 539, 540, 
541, 542, 543, 544, 545, 546, 547, 548, 549, 550, 
551, 552, 553, 554, 555, 556, 557, 558, 559, 560, 
561, 562, 563, 564, 565, 566, 567, 568, 569, 570, 
571, 572, 573, 574, 575, 576, 577, 578, 579, 580, 
581, 582, 583, 584, 585, 586, 587, 588, 589, 590, 
591, 592, 593, 594, 595, 596, 597, 598, 599, 600, 
601, 602, 603, 604, 605, 606, 607, 608, 609, 610, 
611, 612, 613, 614, 615, 616, 617, 618, 619, 620, 
621, 622, 623, 624, 625, 626, 627, 628, 629, 630, 
631, 632, 633, 634, 635, 636, 637, 638, 639, 640, 
641, 642, 643, 644, 645, 646, 647, 648, 649, 650, 
651, 652, 653, 654, 655, 656, 657, 658, 659, 660, 
661, 662, 663, 664, 665, 666, 667, 668, 669, 670, 
671, 672, 673, 674, 675, 676, 677, 678, 679, 680, 
681, 682, 683, 684, 685, 686, 687, 688, 689, 690, 
691, 692, 693, 694, 695, 696, 697, 698, 699, 700, 
701, 702, 703, 704, 705, 706, 707, 708, 709, 710, 
711, 712, 713, 714, 715, 716, 717, 718, 719, 720, 
721, 722, 723, 724, 725, 726, 727, 728, 729, 730, 
731, 732, 733, 734, 735, 736, 737, 738, 739, 740, 
741, 742, 743, 744, 745, 746, 747, 748, 749, 750, 
751, 752, 753, 754, 755, 756, 757, 758, 759, 760, 
761, 762, 763, 764, 765, 766, 767, 768, 769, 770, 
771, 772, 773, 774, 775, 776, 777, 778, 779, 780, 
781, 782, 783, 784, 785, 786, 787, 788, 789, 790, 
791, 792, 793, 794, 795, 796, 797, 798, 799, 800, 
801, 802, 803, 804, 805, 806, 807, 808, 809, 810, 
811, 812, 813, 814, 815, 816, 817, 818, 
