*Heading
 /Users/juliagao/geometry-optimization-net/scripts/../runs/grid/shape_32.inp
*NODE
1, 0, -0.3, 0
2, 0.425, -0.3, 0
3, 0.575, -0.3, 0
4, 1, -0.3, 0
5, 1, 0.3, 0
6, 0.575, 0.3, 0
7, 0.425, 0.3, 0
8, 0, 0.3, 0
9, 0.616, 0.14, 0
10, 0.026147973077723, -0.3, 0
11, 0.078290448791305, -0.3, 0
12, 0.13041732165746, -0.3, 0
13, 0.18380120031279, -0.3, 0
14, 0.2388298324501, -0.3, 0
15, 0.29396937000803, -0.3, 0
16, 0.34795202497736, -0.3, 0
17, 0.39978613305052, -0.3, 0
18, 0.052295946155445, -0.3, 0
19, 0.10428495142716, -0.3, 0
20, 0.15654969188776, -0.3, 0
21, 0.21105270873782, -0.3, 0
22, 0.26660695616238, -0.3, 0
23, 0.32133178385368, -0.3, 0
24, 0.37457226610103, -0.3, 0
25, 0.44965467865348, -0.3, 0
26, 0.49889336545754, -0.3, 0
27, 0.54923868680406, -0.3, 0
28, 0.47430935730697, -0.3, 0
29, 0.52347737360812, -0.3, 0
30, 0.60117212523476, -0.3, 0
31, 0.65408977446744, -0.3, 0
32, 0.70799010882826, -0.3, 0
33, 0.76232826462434, -0.3, 0
34, 0.81666915029491, -0.3, 0
35, 0.87026024972129, -0.3, 0
36, 0.92248635597512, -0.3, 0
37, 0.97413945151997, -0.3, 0
38, 0.62734425046951, -0.3, 0
39, 0.68083529846536, -0.3, 0
40, 0.73514491919116, -0.3, 0
41, 0.78951161005752, -0.3, 0
42, 0.84382669053229, -0.3, 0
43, 0.8966938089103, -0.3, 0
44, 0.94827890303994, -0.3, 0
45, 1, -0.27395376043604, 0
46, 1, -0.22185215224398, 0
47, 1, -0.16890347348947, 0
48, 1, -0.11435284542245, 0
49, 1, -0.059015555543843, 0
50, 1, -0.0034533398747852, 0
51, 1, 0.052454641587971, 0
52, 1, 0.108551224887, 0
53, 1, 0.16466940970496, 0
54, 1, 0.22001847346633, 0
55, 1, 0.27366009898854, 0
56, 1, -0.24790752087208, 0
57, 1, -0.19579678361588, 0
58, 1, -0.14201016336306, 0
59, 1, -0.086695527481842, 0
60, 1, -0.031335583605845, 0
61, 1, 0.024428903856274, 0
62, 1, 0.080480379319667, 0
63, 1, 0.13662207045433, 0
64, 1, 0.19271674895559, 0
65, 1, 0.24732019797707, 0
66, 0.97399117861734, 0.3, 0
67, 0.92103250648999, 0.3, 0
68, 0.86621851459145, 0.3, 0
69, 0.81072771958344, 0.3, 0
70, 0.75629533454375, 0.3, 0
71, 0.70326740303301, 0.3, 0
72, 0.65109678558873, 0.3, 0
73, 0.60007418423483, 0.3, 0
74, 0.94798235723468, 0.3, 0
75, 0.8940826557453, 0.3, 0
76, 0.8383543734376, 0.3, 0
77, 0.78310106572928, 0.3, 0
78, 0.72948960335822, 0.3, 0
79, 0.6770452027078, 0.3, 0
80, 0.62514836846966, 0.3, 0
81, 0.54981896406806, 0.3, 0
82, 0.49973829705567, 0.3, 0
83, 0.44991933298761, 0.3, 0
84, 0.52463792813612, 0.3, 0
85, 0.47483866597522, 0.3, 0
86, 0.39955300348055, 0.3, 0
87, 0.34766855693618, 0.3, 0
88, 0.29403246556835, 0.3, 0
89, 0.23911534280989, 0.3, 0
90, 0.1841708442304, 0.3, 0
91, 0.13033458906414, 0.3, 0
92, 0.077547144610314, 0.3, 0
93, 0.025684969079395, 0.3, 0
94, 0.37410600696109, 0.3, 0
95, 0.32123110691128, 0.3, 0
96, 0.26683382422542, 0.3, 0
97, 0.21139686139436, 0.3, 0
98, 0.15694482706644, 0.3, 0
99, 0.10372435106184, 0.3, 0
100, 0.051369938158791, 0.3, 0
101, 0, 0.27364863397058, 0
102, 0, 0.22024289460573, 0
103, 0, 0.16575858972632, 0
104, 0, 0.11064085616379, 0
105, 0, 0.055253146391761, 0
106, 0, 8.0733218117579e-05, 0
107, 0, -0.055014528808706, 0
108, 0, -0.11004333157153, 0
109, 0, -0.16467140754426, 0
110, 0, -0.21907197742714, 0
111, 0, -0.27312525874672, 0
112, 0, 0.24729726794116, 0
113, 0, 0.19318852127031, 0
114, 0, 0.13832865818232, 0
115, 0, 0.082953054145263, 0
116, 0, 0.027553238638258, 0
117, 0, -0.027391772202023, 0
118, 0, -0.08263728541539, 0
119, 0, -0.13744937772766, 0
120, 0, -0.19189343736085, 0
121, 0, -0.24625051749343, 0
122, 0.61288461325315, 0.16670325974845, 0
123, 0.58970423388787, 0.21354692552515, 0
124, 0.55064234155162, 0.2443616456546, 0
125, 0.50374526482909, 0.25593952274192, 0
126, 0.4559253942563, 0.24730064829951, 0
127, 0.414650450505, 0.21855860486188, 0
128, 0.38880044765575, 0.17302513306046, 0
129, 0.38569244809451, 0.12025706627114, 0
130, 0.40636489352047, 0.071527620042198, 0
131, 0.4469992625699, 0.036816077719942, 0
132, 0.4985435052109, 0.024009144771655, 0
133, 0.54936359304751, 0.035027452981666, 0
134, 0.58993832569964, 0.066739523523239, 0
135, 0.6129529694775, 0.11358737706058, 0
136, 0.60370579052309, 0.19197219413534, 0
137, 0.57129271363195, 0.23150600495179, 0
138, 0.52776505661136, 0.2526281563026, 0
139, 0.47956183845274, 0.25418529406351, 0
140, 0.43427414023245, 0.2355830069294, 0
141, 0.39930768311401, 0.19759389927015, 0
142, 0.38419388096861, 0.14670392622285, 0
143, 0.39315174270886, 0.09483973134215, 0
144, 0.4245746190961, 0.051869347493161, 0
145, 0.47229714039597, 0.027356529096066, 0
146, 0.52486564962299, 0.026696428542118, 0
147, 0.57140525799123, 0.048581790083128, 0
148, 0.60397195253901, 0.088562338961071, 0
149, 0.10383417311689, -0.028046706659496, 0
150, 0.44728029993503, -0.17283152612972, 0
151, 0.23575586048869, -0.13986642548871, 0
152, 0.76604336368415, -0.0035555270450782, 0
153, 0.15588775681005, 0.13884875413964, 0
154, 0.31574160668467, -0.16886437528537, 0
155, 0.15543501183511, 0.083135045669053, 0
156, 0.28797384783116, -0.1145449079392, 0
157, 0.12954816786545, 0.027234578336624, 0
158, 0.26559027062031, -0.27359068112479, 0
159, 0.69204922831188, 0.083342322318227, 0
160, 0.078164591881247, -0.11031178187689, 0
161, 0.65658783682711, -0.22225540053127, 0
162, 0.81662820593286, -0.19393331820427, 0
163, 0.8700034004104, -0.0027887587450454, 0
164, 0.38159621842827, 0.23206101754905, 0
165, 0.89583640865748, -0.085643561527459, 0
166, 0.94795729498229, 0.052700517658736, 0
167, 0.66091966066244, -0.008684774516271, 0
168, 0.86916658263897, 0.1369224984832, 0
169, 0.52695806631235, 0.26393173039535, 0
170, 0.47546142186339, 0.29389267809749, 0
171, 0.18238372036572, -0.084195078707211, 0
172, 0.716434690393, 0.083152324079639, 0
173, 0.10423922855179, 0.24663247819577, 0
174, 0.4760789097358, 0.28784282735, 0
175, 0.026139201548517, -0.2730707120819, 0
176, 0.86980759333858, 0.081049587376368, 0
177, 0.30684887987949, 0.1171891696081, 0
178, 0.86870750658022, 0.16464975993983, 0
179, 0.55034820613608, 0.27199455245657, 0
180, 0.4238509516573, -0.27438729739418, 0
181, 0.84243880018331, 0.16521244182592, 0
182, 0.21104593842449, -0.27336203995481, 0
183, 0.86819503493711, 0.19215441259312, 0
184, 0.68319363780247, -0.22186904705003, 0
185, 0.81701562525227, 0.13809092865685, 0
186, 0.078376210374403, -0.27305779738478, 0
187, 0.34150811802762, -0.14344602485858, 0
188, 0.71213455122228, -0.088581906555736, 0
189, 0.10416804176279, 0.1927289398581, 0
190, 0.025958670959134, 0.13806234488105, 0
191, 0.025916628888198, 0.055195968134498, 0
192, 0.15625408434432, -0.08376322410064, 0
193, 0.31311250527095, -0.061374320728118, 0
194, 0.051924674838401, 0.24659387549394, 0
195, 0.052098327852658, -0.11016202250128, 0
196, 0.28289412304982, 0.11577435256841, 0
197, 0.3143983509446, -0.11571139665963, 0
198, 0.078351243236597, -0.16484878039586, 0
199, 0.026137506242123, -0.24610517916306, 0
200, 0.077869482497703, -0.027864307885414, 0
201, 0.15544478016927, 0.027180114907898, 0
202, 0.12956830285002, 0.082919746928465, 0
203, 0.36897204399866, 0.1195204581027, 0
204, 0.55157413155003, -0.005403046680343, 0
205, 0.65769126626156, -0.17024395354708, 0
206, 0.39837930690824, -0.27427880506792, 0
207, 0.12996628006846, -0.055904294819223, 0
208, 0.6331006766541, -0.039813739091299, 0
209, 0.18388353202479, -0.21971780836627, 0
210, 0.10452180012841, -0.16501671060936, 0
211, 0.30866237655351, 0.055374654049096, 0
212, 0.57890998651539, -0.096864513621055, 0
213, 0.051927903454079, 0.13793659835496, 0
214, 0.7649033411176, -0.086870339302935, 0
215, 0.33960627437244, -0.063337191570345, 0
216, 0.025982198900466, -0.055123153272298, 0
217, 0.23830525180697, -0.27346924273658, 0
218, 0.44615710427115, -0.073827974358976, 0
219, 0.21053180472663, -0.21998633201742, 0
220, 0.18400670852221, -0.27327021238974, 0
221, 0.2097799339138, -0.16630789935531, 0
222, 0.18146898131407, 0.11159596284369, 0
223, 0.18336936083499, -0.1658810748494, 0
224, 0.3324540226965, 0.1514678395182, 0
225, 0.026134937262722, -0.21901964610817, 0
226, 0.18185905006415, 0.13957236699374, 0
227, 0.44804668856606, -0.22350149106746, 0
228, 0.28606369101446, -0.031843385390822, 0
229, 0.55168890300993, -0.19824959908084, 0
230, 0.20711708947455, 0.026986254706571, 0
231, 0.3429535465524, -0.19587038838027, 0
232, 0.36856983063644, -0.17058519173419, 0
233, 0.26275048186247, -0.16739893448412, 0
234, 0.3948844649741, -0.17142957679548, 0
235, 0.21016338798262, -0.19320664884934, 0
236, 0.3438614071816, -0.22195260797069, 0
237, 0.29271851348991, -0.2737239815104, 0
238, 0.41929736206751, -0.046541340920089, 0
239, 0.86994266369458, 0.053068206109539, 0
240, 0.6349533270454, 0.017883638151316, 0
241, 0.71125045118237, -0.14230011220065, 0
242, 0.84331133941388, -0.2735357519305, 0
243, 0.92190170099921, -0.085753475126133, 0
244, 0.84301769686576, -0.22047585889668, 0
245, 0.89575373371051, -0.11295303615984, 0
246, 0.89532616613285, 0.13660956039844, 0
247, 0.42591556901145, 0.29155448798735, 0
248, 0.94799915743013, 0.024797809851558, 0
249, 0.73787458601125, 0.17136089902834, 0
250, 0.7373516616541, -0.16824333930997, 0
251, 0.741004503013, 0.11231933736873, 0
252, 0.97397518483885, -0.19496956546282, 0
253, 0.43015525292754, 0.25892217074546, 0
254, 0.39220632792873, 0.20726162707647, 0
255, 0.86993578852104, -0.030547775300846, 0
256, 0.59290184949452, 0.22415716271289, 0
257, 0.52544033371437, 0.2877702062668, 0
258, 0.47845814277068, 0.26474832188548, 0
259, 0.52571543699636, -0.075679657985576, 0
260, 0.89429070048648, 0.21912119276205, 0
261, 0.89593415624203, 0.052931034304572, 0
262, 0.81785890741926, -0.030839164860755, 0
263, 0.94790086362818, -0.14062598469323, 0
264, 0.71262703746488, -0.061238132713674, 0
265, 0.81621707740232, 0.16604841025985, 0
266, 0.40184200342197, 0.27907842833527, 0
267, 0.62389733434918, 0.25974835583182, 0
268, 0.68424485876635, -0.16949513104857, 0
269, 0.41989263805814, -0.096396305288174, 0
270, 0.4289946474254, 0.26691562282826, 0
271, 0.84343460681651, -0.11301811245192, 0
272, 0.78991098759962, -0.22069990220646, 0
273, 0.59929557950835, 0.2788613655813, 0
274, 0.60615760914649, -0.016666816954708, 0
275, 0.5782528857901, 0.0019347593620062, 0
276, 0.89499617996214, 0.16430620704891, 0
277, 0.7356478537853, -0.27376206024359, 0
278, 0.66234694422056, 0.020935342147498, 0
279, 0.25810840627231, 0.11442827126766, 0
280, 0.71476675715278, 0.023813646815134, 0
281, 0.63373924426388, -0.011923416291126, 0
282, 0.57684749386671, 0.026922295920666, 0
283, 0.89591332267714, -0.058174187027416, 0
284, 0.47396945124804, -0.24909361568391, 0
285, 0.30709892037586, 0.086254906080828, 0
286, 0.47241195639179, -0.030338722957646, 0
287, 0.81651233608867, -0.22055641287555, 0
288, 0.077758578239328, 0.082756075543192, 0
289, 0.57899098758242, -0.047257324471048, 0
290, 0.65898894122255, -0.091313273146011, 0
291, 0.44666234474195, -0.12274832587823, 0
292, 0.57880502965755, -0.0226523982321, 0
293, 0.94795195843477, -0.085978511160949, 0
294, 0.89598228031797, -0.030568405378112, 0
295, 0.97395994795497, -0.14116316688653, 0
296, 0.79063852522511, -0.14060556019687, 0
297, 0.89563797653953, -0.19389154834314, 0
298, 0.97397958040091, 0.052583312933762, 0
299, 0.55013662509247, -0.2745090398202, 0
300, 0.43140670334506, 0.25103304575984, 0
301, 0.68254712366512, -0.24794378080257, 0
302, 0.52580276800397, -0.12370911886435, 0
303, 0.8956396638183, -0.1670752715945, 0
304, 0.76456047379412, -0.11406936625172, 0
305, 0.92201209307182, -0.0029059300021672, 0
306, 0.94729735294412, 0.24627851329094, 0
307, 0.84404855619569, 0.025138812391877, 0
308, 0.79037890744109, -0.16744977479626, 0
309, 0.26048885580051, -0.058675178368033, 0
310, 0.73246357392518, 0.25223990636702, 0
311, 0.6581402838443, -0.14410162773332, 0
312, 0.55225124803434, -0.12302293709037, 0
313, 0.6876005590122, -0.0065461529238046, 0
314, 0.025927785661615, -2.2403447687142e-05, 0
315, 0.078259851054426, -0.13762965257065, 0
316, 0.1046330253781, -0.24614766549987, 0
317, 0.74001484432317, -0.0041627273032927, 0
318, 0.75787417248561, 0.27525524472559, 0
319, 0.79108061820829, 0.13904546299662, 0
320, 0.6030135154476, -0.24868299751597, 0
321, 0.68416622895037, 0.18072291633734, 0
322, 0.78756982473143, 0.22208369169464, 0
323, 0.051994621470728, 0.2196802457853, 0
324, 0.18402281544655, -0.24651346216992, 0
325, 0.28272943729423, 0.085631749051788, 0
326, 0.71390429800951, -0.0051095103479624, 0
327, 0.55023264919855, 0.27896942939368, 0
328, 0.55230138000551, -0.074213667984452, 0
329, 0.31649649197719, -0.19523085081657, 0
330, 0.078430086491437, -0.24609164323554, 0
331, 0.28859974010269, -0.14141627941952, 0
332, 0.10376322332984, 0.11048621129277, 0
333, 0.10363909723118, 0.055063348821515, 0
334, 0.81741600979423, -0.085967231087043, 0
335, 0.3634659510575, 0.020013636635191, 0
336, 0.49948693676832, -0.14852227892181, 0
337, 0.89568955934715, -0.14010468809635, 0
338, 0.86954549409878, -0.24704906817566, 0
339, 0.47901901661147, 0.25936892706309, 0
340, 0.38595160960801, 0.21855286558179, 0
341, 0.94806801892256, -0.24748967450651, 0
342, 0.57876273745233, -0.12193385815149, 0
343, 0.26104608575329, -0.086277000023393, 0
344, 0.051880105872302, 0.11040012048066, 0
345, 0.28526774963922, -0.0032912982153674, 0
346, 0.34085855878553, -0.11705835367718, 0
347, 0.18272585093, -0.11156992864628, 0
348, 0.025951927842678, -0.02756370118091, 0
349, 0.12953596363531, 0.055095823640696, 0
350, 0.79091103712275, -0.11357899078634, 0
351, 0.7896031314219, -0.27360863242191, 0
352, 0.76395123468017, 0.16895605021474, 0
353, 0.94767571667495, 0.13640577989512, 0
354, 0.97377238369374, 0.1643536500725, 0
355, 0.67766680412927, 0.28051767304123, 0
356, 0.92150154800594, 0.13644367531549, 0
357, 0.97389696236737, 0.10853030451997, 0
358, 0.7635682337647, -0.194413273608, 0
359, 0.49923141996505, -0.27455967916559, 0
360, 0.97400562417961, -0.0032204539210526, 0
361, 0.94753769938694, 0.16417094514056, 0
362, 0.70868371822549, -0.27386439372172, 0
363, 0.35236186030304, 0.15110287218016, 0
364, 0.15578736495742, -0.02852788166933, 0
365, 0.078054201889147, 0.19257417007559, 0
366, 0.07802264236338, 0.24654364554691, 0
367, 0.42111891622656, -0.17219379684348, 0
368, 0.49891896546884, -0.031596887554284, 0
369, 0.71080752705423, -0.16882438126664, 0
370, 0.97410973020195, -0.27390482465269, 0
371, 0.94788827005048, 0.080627890732183, 0
372, 0.26402043839875, -0.22065895858424, 0
373, 0.39629218164766, -0.22283355814373, 0
374, 0.026075507859003, -0.13742897139085, 0
375, 0.052278075411838, -0.24606945853035, 0
376, 0.57682467966597, -0.24888697941962, 0
377, 0.49954329862029, -0.17342122326977, 0
378, 0.84096763210441, 0.2199525560227, 0
379, 0.31377198876374, -0.08874172374372, 0
380, 0.47413957975329, -0.27453301059002, 0
381, 0.84314442810019, -0.16704121140047, 0
382, 0.026046512524826, -0.11007323164362, 0
383, 0.84360749997524, -0.085751340348899, 0
384, 0.6558915808115, -0.24819108867539, 0
385, 0.13060045418991, 0.24686526678761, 0
386, 0.078080853836312, 0.21964452923774, 0
387, 0.10439027151106, -0.13782438106423, 0
388, 0.68374933584891, -0.19572600611016, 0
389, 0.79120517553248, -0.086354327584481, 0
390, 0.78885482864477, 0.19497909705969, 0
391, 0.47231357622836, 0.0098288452671878, 0
392, 0.10372644760956, -0.00039364058213862, 0
393, 0.7653274186829, 0.14030158652027, 0
394, 0.92199243439232, 0.024925943717848, 0
395, 0.65856333667812, -0.11781978345668, 0
396, 0.8165148125782, -0.27355994602577, 0
397, 0.94779956609077, 0.108538150213, 0
398, 0.97402086117426, -0.22144232309123, 0
399, 0.97400378469891, -0.031017958591601, 0
400, 0.97378515284184, 0.27337023576449, 0
401, 0.73102234508537, 0.27646048979439, 0
402, 0.7922062099107, 0.082008652473237, 0
403, 0.84376176146548, -0.05828398263114, 0
404, 0.55221145165, -0.050534860962842, 0
405, 0.65506540055396, -0.27410766150696, 0
406, 0.4734104562473, -0.17325545078624, 0
407, 0.89569469068711, -0.22055940760948, 0
408, 0.50076134691081, 0.28839748890803, 0
409, 0.60532749028598, -0.12058302759232, 0
410, 0.71483085928395, 0.14381712138664, 0
411, 0.89580823033422, 0.080862182183157, 0
412, 0.65119699489093, 0.22543938641033, 0
413, 0.49956506653425, -0.1985338573521, 0
414, 0.15679316403869, -0.13838624262954, 0
415, 0.052215701972998, -0.16473781399747, 0
416, 0.92219931524393, -0.27365118830242, 0
417, 0.12965063508276, -0.00055545460284601, 0
418, 0.50126662747952, 0.28267317643759, 0
419, 0.13054726504239, 0.27347977946597, 0
420, 0.35025838200637, 0.11911256476619, 0
421, 0.29165295777903, -0.24741275022118, 0
422, 0.55083454397259, 0.015658662553364, 0
423, 0.60217296368944, -0.27433981037194, 0
424, 0.68469693965334, -0.14313108469893, 0
425, 0.60558146705278, -0.094985744513816, 0
426, 0.6511584566127, 0.28349922353966, 0
427, 0.1042467208102, 0.21976928718232, 0
428, 0.52504760082793, 0.29388049855361, 0
429, 0.62335624780335, 0.084213502969357, 0
430, 0.68676445724053, -0.034958673565526, 0
431, 0.73814380234762, -0.11471883719141, 0
432, 0.077905104143032, 0.13793343973608, 0
433, 0.26159247425709, -0.11356543241322, 0
434, 0.026123304273643, -0.1918778585506, 0
435, 0.44695643923624, -0.14768749514101, 0
436, 0.63008327780226, -0.22266007724502, 0
437, 0.67830557647605, 0.26014946362189, 0
438, 0.33886545220369, -0.0356530595361, 0
439, 0.74057935925268, 0.024488454882645, 0
440, 0.60599563332073, -0.043356718091456, 0
441, 0.94796948708333, -0.22103038214692, 0
442, 0.28674708203523, -0.059845074534455, 0
443, 0.13057461608676, -0.13806386955502, 0
444, 0.077738463690696, 0.055083221595042, 0
445, 0.74133761175758, 0.082827655122849, 0
446, 0.81759627862382, 0.10991920349761, 0
447, 0.025937122403759, 0.24681162534537, 0
448, 0.86938228868172, -0.1937993057357, 0
449, 0.47285163848789, -0.099269631510225, 0
450, 0.40065499659248, 0.28947172866593, 0
451, 0.43277286523117, 0.24325172843344, 0
452, 0.051830416838127, 0.027476883693287, 0
453, 0.31504921611146, -0.14238352994954, 0
454, 0.52501883959851, -0.24912855290646, 0
455, 0.15652765771513, -0.11114113114121, 0
456, 0.10409897883681, -0.083133114070945, 0
457, 0.23250696386098, 0.084398308055707, 0
458, 0.25807801034639, 0.055625590499856, 0
459, 0.86961323546902, -0.11292180458685, 0
460, 0.97399514269775, -0.058699098789661, 0
461, 0.92073283441394, 0.24616346534069, 0
462, 0.76085931351998, 0.22398189030097, 0
463, 0.84351465970877, 0.10941788631185, 0
464, 0.76325482545768, -0.22091542310136, 0
465, 0.92194725578378, -0.058255311426614, 0
466, 0.52542737500279, -0.030629200081211, 0
467, 0.42163102187669, -0.19767364291304, 0
468, 0.84308926575142, -0.24704188229488, 0
469, 0.73581850906319, 0.19986867719495, 0
470, 0.97413364828133, -0.24790168521469, 0
471, 0.2338201422144, -0.029890329108719, 0
472, 0.73854751081259, -0.087597059150495, 0
473, 0.10395156354599, -0.055643070406056, 0
474, 0.94800413075911, -0.0030313530522601, 0
475, 0.92187268220174, -0.22074129796809, 0
476, 0.86942338394522, -0.16699743560717, 0
477, 0.23332756048252, -0.0016998943858977, 0
478, 0.71167620064468, -0.11556394537974, 0
479, 0.7087804962222, 0.20442522448203, 0
480, 0.94791269548524, -0.19443673990805, 0
481, 0.37017389903764, -0.222410317029, 0
482, 0.15716954292996, -0.27319353497583, 0
483, 0.20816281093499, -0.057134054852877, 0
484, 0.63265559749741, -0.066691279485467, 0
485, 0.86764805049642, 0.21942029454935, 0
486, 0.84398673455778, 0.053218812871296, 0
487, 0.47378988056091, -0.22370392541944, 0
488, 0.89559874267626, 0.1087789392163, 0
489, 0.10366948699379, 0.082796274256409, 0
490, 0.26216378512303, -0.14057770974641, 0
491, 0.025919122168395, 0.082850579526875, 0
492, 0.20777257256421, 0.14058965566187, 0
493, 0.94797926669769, -0.058439178049332, 0
494, 0.73985974220669, 0.14189193163013, 0
495, 0.78624836627113, 0.24852414057596, 0
496, 0.37600746853031, 0.27357526810702, 0
497, 0.71320438488776, -0.033448019548811, 0
498, 0.57899810081011, -0.071978086456543, 0
499, 0.52559784346571, -0.052656536821546, 0
500, 0.59797233463269, 0.25742686724824, 0
501, 0.47788165832164, 0.2703067160328, 0
502, 0.25863739066752, 0.026478276511737, 0
503, 0.97399767815829, 0.024643944409263, 0
504, 0.9219951429048, -0.030642245224374, 0
505, 0.86663646893469, 0.27327487893679, 0
506, 0.63157847098549, -0.14514245369306, 0
507, 0.5744090840056, 0.27451523622419, 0
508, 0.37492598837829, 0.28677647533831, 0
509, 0.92184773793134, 0.080718393516622, 0
510, 0.6454513394973, 0.083382570256632, 0
511, 0.92127685945889, 0.16415297702217, 0
512, 0.65111058416643, 0.24771110425116, 0
513, 0.87000742732069, 0.025100545937035, 0
514, 0.97394545354033, 0.080551904462242, 0
515, 0.89463916965316, 0.19181814353386, 0
516, 0.71156686513207, 0.17491369526824, 0
517, 0.61727263376648, 0.21478707782229, 0
518, 0.59691116882535, 0.24638307302015, 0
519, 0.23281791900641, 0.11326457526107, 0
520, 0.55082436579106, -0.24904049799992, 0
521, 0.49865621605978, 0.0073658701486849, 0
522, 0.4195709246463, -0.071395839468286, 0
523, 0.79013227730243, -0.19413591704504, 0
524, 0.76625200190394, 0.11136825405566, 0
525, 0.47360248201563, -0.19840792263564, 0
526, 0.73947416723679, -0.032375802763137, 0
527, 0.6322954419456, -0.093070676516446, 0
528, 0.20779375101205, -0.029291690813624, 0
529, 0.81765784468438, -0.058523437225578, 0
530, 0.051965250165067, -0.05525821977002, 0
531, 0.69248856589316, 0.1141534102447, 0
532, 0.13052082284566, 0.22008482828745, 0
533, 0.69056561977744, 0.14589424407308, 0
534, 0.63019443075734, 0.11365293838892, 0
535, 0.79149011699653, -0.0588788634145, 0
536, 0.44904218861382, -0.27447501710567, 0
537, 0.42790753802821, 0.2750161081192, 0
538, 0.5519511755911, -0.1730041054114, 0
539, 0.55010460159263, 0.28596960684573, 0
540, 0.42295756797488, -0.24878667584651, 0
541, 0.94816493040557, -0.27376288316428, 0
542, 0.45069622391418, 0.2930159205026, 0
543, 0.60634885061013, 0.012075083096097, 0
544, 0.84401446035082, -0.002831003117311, 0
545, 0.52446194942571, -0.27454974715718, 0
546, 0.81719262084678, -0.1132241277762, 0
547, 0.97367719049494, 0.219466921198, 0
548, 0.9219985742449, -0.24725227447798, 0
549, 0.28994538784414, -0.19464063093384, 0
550, 0.10365305602704, 0.027313099937368, 0
551, 0.62280816808042, 0.24548530905164, 0
552, 0.052001898666833, 0.19259955211286, 0
553, 0.57410900338003, 0.2659979477808, 0
554, 0.92179641570823, -0.16728439415256, 0
555, 0.81318667868835, 0.24751782098529, 0
556, 0.31021634978243, 0.024883333722314, 0
557, 0.20695664739786, 0.083877202844288, 0
558, 0.051830412054263, 0.055133497736655, 0
559, 0.44588239341272, -0.0045984602504135, 0
560, 0.65945538896657, -0.064443420859293, 0
561, 0.92193387730399, 0.052818732932224, 0
562, 0.5257135443086, -0.17333919547278, 0
563, 0.18119576688302, 0.055255618794555, 0
564, 0.23674196019531, -0.19362032219111, 0
565, 0.31737335159149, -0.22149534937874, 0
566, 0.025842405266779, 0.27345162809607, 0
567, 0.39335624650219, -0.094361836803091, 0
568, 0.07778792525054, -0.00026282749773462, 0
569, 0.13092683118832, -0.24624005818809, 0
570, 0.26475688498065, -0.2471465697228, 0
571, 0.30895359207418, 0.14869191634124, 0
572, 0.12980470921539, -0.028265111082351, 0
573, 0.3402468027603, -0.090393688339743, 0
574, 0.36047641360761, 0.053776982559289, 0
575, 0.026103215580862, -0.16468076566454, 0
576, 0.18364740402149, -0.1928549315942, 0
577, 0.1830638054472, -0.13878527278772, 0
578, 0.79230909420318, 0.053480145081732, 0
579, 0.1296979436889, 0.1107030343072, 0
580, 0.18124662170121, 0.083455099628114, 0
581, 0.23357514926704, 0.14197040907538, 0
582, 0.79179509311994, -0.031175010571212, 0
583, 0.15702215213505, -0.16552847013166, 0
584, 0.73401194816569, 0.22683671693345, 0
585, 0.81802755007001, -0.0029504249450337, 0
586, 0.051749926493055, 0.273340353117, 0
587, 0.23624169037236, -0.16681785137874, 0
588, 0.61106239839135, 0.2024224463075, 0
589, 0.71034942471799, -0.19521186616253, 0
590, 0.28343505515969, 0.055619687075333, 0
591, 0.40646478856032, 0.24824256624275, 0
592, 0.45147063696833, 0.28611976828113, 0
593, 0.50275758354821, 0.26615806485746, 0
594, 0.37923075439741, 0.24664143831464, 0
595, 0.57790861830584, -0.19788083822685, 0
596, 0.37740461430779, 0.26026067334496, 0
597, 0.1307558196726, -0.27313238741418, 0
598, 0.45301108445051, 0.27265040925651, 0
599, 0.18207458124862, -0.056615208146648, 0
600, 0.54996603808504, 0.29298439515569, 0
601, 0.55230994359026, -0.098425038261272, 0
602, 0.13087223060965, -0.19232294367567, 0
603, 0.84174426900731, 0.19273319484096, 0
604, 0.50176701136714, 0.27704033226671, 0
605, 0.47303539693388, -0.12357421177391, 0
606, 0.76421391702105, -0.14102020453547, 0
607, 0.76263326844433, -0.27367592967962, 0
608, 0.13037277591882, -0.11079506117595, 0
609, 0.15721458653042, -0.19256170422619, 0
610, 0.39204262992134, -0.015424636025874, 0
611, 0.73774501387805, -0.14157865516341, 0
612, 0.52582210404226, 0.28169675869748, 0
613, 0.49943805972012, -0.24914947390117, 0
614, 0.52657518890891, 0.26975778394771, 0
615, 0.64918461430272, 0.11426285129313, 0
616, 0.15716741730458, 0.27370300319154, 0
617, 0.25927473841571, -0.002321898222529, 0
618, 0.28737234841586, -0.087376658018297, 0
619, 0.34495597274375, -0.2479934117536, 0
620, 0.23258920848902, 0.055545284525981, 0
621, 0.15539432446611, 0.055161031575748, 0
622, 0.49930536816099, -0.099730198638118, 0
623, 0.94745839506694, 0.27319526851409, 0
624, 0.60467374483797, -0.17177242814369, 0
625, 0.39381920314116, -0.12007394413132, 0
626, 0.50025151011639, 0.29418342642426, 0
627, 0.1309499468126, -0.2193111646495, 0
628, 0.12989116016834, 0.13836035103905, 0
629, 0.3184147967754, -0.24769810847611, 0
630, 0.23478401556179, -0.08540259030289, 0
631, 0.10451217545359, -0.27308655395838, 0
632, 0.76527346884512, -0.059412969402292, 0
633, 0.63116139727924, -0.17102402916821, 0
634, 0.052256104670159, -0.19191139258236, 0
635, 0.52578350776943, -0.14839416389602, 0
636, 0.23726269114029, -0.22030018927139, 0
637, 0.20938630740732, -0.13927374791767, 0
638, 0.4723431303362, -0.0094875345897713, 0
639, 0.5521363617977, -0.14791804783487, 0
640, 0.66006286307562, -0.037024108288751, 0
641, 0.81647011102633, -0.24709280923662, 0
642, 0.73696132825424, -0.19476773104976, 0
643, 0.89387772180308, 0.27315481140012, 0
644, 0.92184653682329, -0.11309726013631, 0
645, 0.49940617231402, -0.12390681850207, 0
646, 0.81678420044753, -0.16718127940985, 0
647, 0.79181794858568, 0.11056653612392, 0
648, 0.70985174505773, -0.22149262495913, 0
649, 0.60503544589072, -0.14617862541628, 0
650, 0.97368961325828, 0.24661418855535, 0
651, 0.55132696526296, -0.22361348708904, 0
652, 0.1046580203978, -0.21917040297195, 0
653, 0.41992920827969, 0.029082561614216, 0
654, 0.34630334806073, -0.27401094133272, 0
655, 0.6855975004037, -0.089795126288184, 0
656, 0.47668963018052, 0.28187779499219, 0
657, 0.025917360917216, 0.027547496898585, 0
658, 0.051861873262682, -0.00013150141035687, 0
659, 0.92180800364527, -0.19409435002746, 0
660, 0.45451591708358, 0.25969567671651, 0
661, 0.47729129021378, 0.27602410957684, 0
662, 0.15690713862165, 0.22062683116814, 0
663, 0.89600765186054, -0.0028208606499588, 0
664, 0.49953825661614, -0.22378729243634, 0
665, 0.79223311053941, 0.025054890430203, 0
666, 0.97398246876001, -0.086300388102351, 0
667, 0.76663403160692, 0.05354581185012, 0
668, 0.97396908199306, -0.11380611204914, 0
669, 0.4552379334047, 0.2534290611574, 0
670, 0.37262850350169, -0.27415281784516, 0
671, 0.49878158001367, -0.011259265189957, 0
672, 0.2085501076845, -0.084740552134722, 0
673, 0.37124751109719, -0.24828516366378, 0
674, 0.81698473334885, -0.14029523946747, 0
675, 0.86941468130364, -0.22047712951461, 0
676, 0.8430428305985, -0.19381317844627, 0
677, 0.36793391605851, -0.14459742189785, 0
678, 0.60423424145283, -0.19739139390791, 0
679, 0.86954049746955, 0.109031381639, 0
680, 0.50226352289253, 0.27152684675979, 0
681, 0.63066480625469, -0.19684682749756, 0
682, 0.39552339914723, -0.19713374215391, 0
683, 0.75937165476174, 0.25002007216675, 0
684, 0.10409265060111, 0.27335573475639, 0
685, 0.36734462431549, -0.11853617858804, 0
686, 0.33071964447912, 0.086892712420367, 0
687, 0.9210466000393, 0.19169334735874, 0
688, 0.86711600052997, 0.24644496929363, 0
689, 0.45224283142194, 0.27932644216164, 0
690, 0.57463959187412, 0.28301202594162, 0
691, 0.052027013018156, -0.082755501478672, 0
692, 0.23428765789177, -0.057811658550844, 0
693, 0.89584761410851, -0.2471146433589, 0
694, 0.63194514279812, -0.1191758437671, 0
695, 0.81812737700731, 0.025125800755279, 0
696, 0.44596341995758, -0.050067819465967, 0
697, 0.59972129828263, 0.28943572078151, 0
698, 0.4192326279946, 0.0032097797365596, 0
699, 0.31968866358558, -0.27386596149719, 0
700, 0.25780998960394, 0.084999670843069, 0
701, 0.078411567279404, -0.19199856073711, 0
702, 0.02593641006191, 0.11048718042583, 0
703, 0.36479301738613, -0.010389881085772, 0
704, 0.52497547135499, 0.0093282903600983, 0
705, 0.052271735885685, -0.27305015115689, 0
706, 0.36678102013694, -0.092310432964777, 0
707, 0.34218651684014, -0.16970887653385, 0
708, 0.44585392038426, -0.026939495755728, 0
709, 0.55060213496544, 0.25124579609608, 0
710, 0.8698350404347, -0.058162476593379, 0
711, 0.57603085591401, -0.27443771400566, 0
712, 0.33406523082574, 0.054832809167391, 0
713, 0.39432895512838, -0.14573986812718, 0
714, 0.7365542809886, -0.22117727062959, 0
715, 0.49905734746294, -0.053316636659168, 0
716, 0.52578085216955, -0.099423661363328, 0
717, 0.23525744027574, -0.11275837370245, 0
718, 0.20896874057654, -0.11210141155282, 0
719, 0.89600613561352, 0.025013641173597, 0
720, 0.57236966803314, 0.24017353440442, 0
721, 0.84383811329116, 0.081315093557219, 0
722, 0.07773762039181, 0.027386987230159, 0
723, 0.052158415780605, -0.13749620390637, 0
724, 0.68515204957629, -0.11660751184047, 0
725, 0.052278290874625, -0.21901966909211, 0
726, 0.62848640345361, -0.27422944542659, 0
727, 0.3114215964962, -0.0047581741810721, 0
728, 0.8393016624433, 0.27350204909079, 0
729, 0.37469448573508, 0.089655884507724, 0
730, 0.39247459211001, -0.042406535747247, 0
731, 0.89613876023803, -0.27357836824753, 0
732, 0.45377095331785, 0.26610396607997, 0
733, 0.68178491982123, -0.27398426269657, 0
734, 0.68611859278976, -0.062635663571393, 0
735, 0.7638884392382, -0.16779384248907, 0
736, 0.81795032621279, 0.081642854851064, 0
737, 0.40468723260331, 0.25851160733088, 0
738, 0.8120204510484, 0.27386891302453, 0
739, 0.15560933970162, 0.11106470010191, 0
740, 0.026011892759881, -0.08265226145973, 0
741, 0.078053086906127, -0.082918343608962, 0
742, 0.18130072481429, 0.027101367439763, 0
743, 0.29074116714253, -0.22106089770256, 0
744, 0.33788259710031, -0.0069906745851678, 0
745, 0.79204823580041, -0.0031844518333433, 0
746, 0.078444333037279, -0.21907202756658, 0
747, 0.26335160457651, -0.19409573933531, 0
748, 0.15711928156083, 0.2472804529111, 0
749, 0.57482795725652, 0.2915023631839, 0
750, 0.70546902476645, 0.25548962673942, 0
751, 0.57827507297595, -0.17247246846178, 0
752, 0.84389927270019, -0.030635508013862, 0
753, 0.42066406882377, -0.14681210466595, 0
754, 0.52536351751664, -0.22375779027094, 0
755, 0.4726828114325, -0.075478003211024, 0
756, 0.81426644960932, 0.22080408034405, 0
757, 0.92169584359858, 0.10861543829167, 0
758, 0.47322141766325, -0.14827866267357, 0
759, 0.62497790406475, 0.28677651257433, 0
760, 0.63117020237079, 0.14304393222813, 0
761, 0.84306105828335, 0.13739646890929, 0
762, 0.49918826632588, -0.076120652061957, 0
763, 0.86950225311858, -0.14003837683328, 0
764, 0.077853512323284, 0.27330971237, 0
765, 0.52520383115155, -0.0098647798404046, 0
766, 0.86981437732561, -0.27354185576388, 0
767, 0.20722996163373, 0.11232184760115, 0
768, 0.33643571702012, 0.023145895207454, 0
769, 0.70930523063849, -0.24770594883915, 0
770, 0.50325089732534, 0.26095605202487, 0
771, 0.57743862799899, -0.223366780755, 0
772, 0.44764056493672, -0.19811658463664, 0
773, 0.78481318091647, 0.27443019467571, 0
774, 0.64807909444384, 0.14608635296485, 0
775, 0.41139908813203, 0.22811116985181, 0
776, 0.28925333943605, -0.16808999554553, 0
777, 0.02598022443821, 0.21988446091273, 0
778, 0.20742076703161, -0.0012591174569707, 0
779, 0.39722109479789, -0.248557621383, 0
780, 0.76566773123855, -0.03165876890876, 0
781, 0.36622182252549, -0.065762285702569, 0
782, 0.18150800936584, -0.00095294590196399, 0
783, 0.44638939016148, -0.098108349648679, 0
784, 0.13033965865887, 0.1930749183908, 0
785, 0.32952181155445, 0.11846400332321, 0
786, 0.81810481528416, 0.053358003521532, 0
787, 0.051911941109709, -0.027704943404438, 0
788, 0.18177680835328, -0.028865007302567, 0
789, 0.57855360781365, -0.14714480531441, 0
790, 0.9208472746961, 0.21902881754419, 0
791, 0.36927881794575, 0.1490221434231, 0
792, 0.20695748139137, 0.055414067698307, 0
793, 0.86972825865978, -0.085628700216248, 0
794, 0.57370624637243, 0.25744084851713, 0
795, 0.89400774560717, 0.2462201345737, 0
796, 0.10461047676586, -0.19213566938798, 0
797, 0.15600253871607, -0.056225251237113, 0
798, 0.71632971545341, 0.11328690245937, 0
799, 0.59873636118273, 0.26821365003128, 0
800, 0.67915855233728, 0.2378582915522, 0
801, 0.97383723460465, 0.13647936605298, 0
802, 0.97395944709587, -0.16817388691626, 0
803, 0.62512071458931, 0.17390936090695, 0
804, 0.92077513091214, 0.27312805501593, 0
805, 0.94792196650815, -0.11338561936366, 0
806, 0.94799830794738, -0.03078803987335, 0
807, 0.78973320544864, -0.24718219151715, 0
808, 0.52735268513426, 0.258219705832, 0
809, 0.36559123427828, -0.038645631044296, 0
810, 0.15736722737384, -0.24636201398664, 0
811, 0.077821549869612, 0.1103920582004, 0
812, 0.76640476850019, 0.024847413644075, 0
813, 0.1042539713788, -0.11052124696208, 0
814, 0.077953995463089, -0.055428851285922, 0
815, 0.62936884303863, -0.24844762565301, 0
816, 0.23288581095039, 0.026791339989859, 0
817, 0.62118081400124, 0.22965830933891, 0
818, 0.41913750932751, -0.021740554709276, 0
819, 0.60580407380043, -0.069307030992485, 0
820, 0.25917338146582, 0.14378147823331, 0
821, 0.62458068131834, 0.27341722034051, 0
822, 0.42223590867768, -0.22320461953456, 0
823, 0.97371324089159, 0.1920840129947, 0
824, 0.40865901792063, 0.23804316473841, 0
825, 0.051842355828637, 0.082781902194697, 0
826, 0.84328446333134, -0.14011981305143, 0
827, 0.15735077444344, -0.21949331550483, 0
828, 0.35334113899554, 0.087755857098361, 0
829, 0.21084264080454, -0.24669475215279, 0
830, 0.36930044635128, -0.19651759998109, 0
831, 0.76294425255645, -0.2473274776005, 0
832, 0.42025464088015, -0.12154556152306, 0
833, 0.7361197701879, -0.24750047245942, 0
834, 0.025988398993269, 0.19279293203937, 0
835, 0.81528895058287, 0.1936414222802, 0
836, 0.47253104880661, -0.052423025386874, 0
837, 0.94740494188747, 0.19177263503334, 0
838, 0.94789366047204, -0.1676352079148, 0
839, 0.44612133492996, 0.016846113641612, 0
840, 0.28440230963221, 0.14605501006892, 0
841, 0.31236313213167, -0.033440274827448, 0
842, 0.40316788622938, 0.26877153409939, 0
843, 0.1307415947549, -0.16524222398122, 0
844, 0.23778629517635, -0.24690617879056, 0
845, 0.44850595898426, -0.24897268565886, 0
846, 0.9473083941844, 0.21913746218418, 0
847, 0.92181068543912, -0.14028421496641, 0
848, 0.52558032887407, -0.19847309282525, 0
849, 0.13016447999143, -0.083410851760002, 0
850, 0.55045001901941, 0.26505068061689, 0
851, 0.76664680512807, 0.082410500242932, 0
852, 0.73898107531447, -0.060164502143246, 0
853, 0.55199190484749, -0.027530943474146, 0
854, 0.39290961247534, -0.068545889654427, 0
855, 0.28436550664171, 0.025887006519119, 0
856, 0.65717997094037, -0.19628196445849, 0
857, 0.1565859145813, 0.1936683574466, 0
858, 0.18406895607337, 0.27405168991734, 0
859, 0.18381424854137, 0.24792115128746, 0
860, 0.18341793626231, 0.22146412317569, 0
861, 0.18290684965322, 0.19457744197026, 0
862, 0.21114861106611, 0.27457988815114, 0
863, 0.21069593675338, 0.24889461553179, 0
864, 0.21008747280971, 0.22273029513793, 0
865, 0.20933276763788, 0.19593596759941, 0
866, 0.23849524276555, 0.27537312563652, 0
867, 0.23779646409283, 0.25034360042606, 0
868, 0.23694931731364, 0.22460276626493, 0
869, 0.235892395637, 0.19791962459122, 0
870, 0.265974626258, 0.27653585946497, 0
871, 0.26513855161841, 0.25249754512076, 0
872, 0.26411278580509, 0.22740813042379, 0
873, 0.26272280380633, 0.20087129871657, 0
874, 0.29342160048856, 0.27819934331956, 0
875, 0.29274242583124, 0.25566926001811, 0
876, 0.29176754675605, 0.2316752071484, 0
877, 0.2901577681221, 0.20544166806827, 0
878, 0.32091446700656, 0.28050929078411, 0
879, 0.32066575169134, 0.26025284248057, 0
880, 0.32018081392483, 0.2382590474945, 0
881, 0.31890382202036, 0.21300958609692, 0
882, 0.57315027796408, 0.24882934661039, 0
883, 0.59530180137143, 0.23518115523325, 0
884, 0.84015257576562, 0.24685712454313, 0
885, 0.52619843513453, 0.27568533711943, 0
886, 0.42688360260487, 0.28322801295774, 0
887, 0.55053607089465, 0.25813702865592, 0
888, 0.79004401794698, 0.16726073153496, 0
889, 0.68069521443207, 0.21200118553958, 0
890, 0.70685145202277, 0.23117965007238, 0
891, 0.76240653499657, 0.19694098528639, 0
892, 0.70433242530789, 0.27817106359817, 0
893, 0.65115736997035, 0.26637650626472, 0
894, 0.37677142812328, 0.17950246857852, 0
895, 0.36362485604735, 0.18706525300385, 0
896, 0.10389394811887, 0.13806689854466, 0
897, 0.15559061262885, -0.00072226381600121, 0
898, 0.25990339671694, -0.030701365224457, 0
899, 0.60369148874963, -0.22303198984659, 0
900, 0.34811257203408, 0.283467084458, 0
901, 0.34863898365197, 0.2664452648273, 0
902, 0.34919804380902, 0.24806258052397, 0
903, 0.34955350970796, 0.22642107377519, 0
904, 0.025980502298079, 0.16549205995503, 0
905, 0.051973309136332, 0.16534242346646, 0
906, 0.077994045768187, 0.16533998528099, 0
907, 0.10404145899047, 0.16549405753891, 0
908, 0.13011948071644, 0.16583285324314, 0
909, 0.15623823155909, 0.1664110988546, 0
910, 0.18237102374173, 0.16727225781038, 0
911, 0.20852261425909, 0.16852147011131, 0
912, 0.23470541799084, 0.17030674071556, 0
913, 0.26096803286586, 0.17284697158971, 0
914, 0.28756416589546, 0.17658841980278, 0
915, 0.31545707774708, 0.18268858168591, 0
916, 0.34880873230302, 0.19577024440469, 0
917, 0.63814384992811, 0.18257633785395, 0
918, 0.68877269170707, 0.022733232674699, 0
919, 0.66835362780236, 0.083348380306162, 0
920, 0.66993732174351, 0.11460852077902, 0
921, 0.66758505500412, 0.14765370520929, 0
922, 0.65216966216684, 0.19303017818122, 0
923, 0.39154856162893, 0.013881930638857, 0
924, 0.390677027243, 0.051560208584754, 0
925, 0.74107842286933, 0.053529774813323, 0
926, 0.71569463024725, 0.053304416532951, 0
927, 0.69036086817296, 0.052823889889019, 0
928, 0.66479636236613, 0.051955188639782, 0
929, 0.63803012299438, 0.050554899004029, 0
930, 0.60685740897796, 0.048082270115143, 0
******* E L E M E N T S *************
*ELEMENT, type=T3D2, ELSET=Line1
1, 1, 10
2, 10, 18
3, 18, 11
4, 11, 19
5, 19, 12
6, 12, 20
7, 20, 13
8, 13, 21
9, 21, 14
10, 14, 22
11, 22, 15
12, 15, 23
13, 23, 16
14, 16, 24
15, 24, 17
16, 17, 2
*ELEMENT, type=T3D2, ELSET=Line2
17, 2, 25
18, 25, 28
19, 28, 26
20, 26, 29
21, 29, 27
22, 27, 3
*ELEMENT, type=T3D2, ELSET=Line3
23, 3, 30
24, 30, 38
25, 38, 31
26, 31, 39
27, 39, 32
28, 32, 40
29, 40, 33
30, 33, 41
31, 41, 34
32, 34, 42
33, 42, 35
34, 35, 43
35, 43, 36
36, 36, 44
37, 44, 37
38, 37, 4
*ELEMENT, type=T3D2, ELSET=Line4
39, 4, 45
40, 45, 56
41, 56, 46
42, 46, 57
43, 57, 47
44, 47, 58
45, 58, 48
46, 48, 59
47, 59, 49
48, 49, 60
49, 60, 50
50, 50, 61
51, 61, 51
52, 51, 62
53, 62, 52
54, 52, 63
55, 63, 53
56, 53, 64
57, 64, 54
58, 54, 65
59, 65, 55
60, 55, 5
*ELEMENT, type=T3D2, ELSET=Line5
61, 5, 66
62, 66, 74
63, 74, 67
64, 67, 75
65, 75, 68
66, 68, 76
67, 76, 69
68, 69, 77
69, 77, 70
70, 70, 78
71, 78, 71
72, 71, 79
73, 79, 72
74, 72, 80
75, 80, 73
76, 73, 6
*ELEMENT, type=T3D2, ELSET=Line6
77, 6, 81
78, 81, 84
79, 84, 82
80, 82, 85
81, 85, 83
82, 83, 7
*ELEMENT, type=T3D2, ELSET=Line7
83, 7, 86
84, 86, 94
85, 94, 87
86, 87, 95
87, 95, 88
88, 88, 96
89, 96, 89
90, 89, 97
91, 97, 90
92, 90, 98
93, 98, 91
94, 91, 99
95, 99, 92
96, 92, 100
97, 100, 93
98, 93, 8
*ELEMENT, type=T3D2, ELSET=Line8
99, 8, 101
100, 101, 112
101, 112, 102
102, 102, 113
103, 113, 103
104, 103, 114
105, 114, 104
106, 104, 115
107, 115, 105
108, 105, 116
109, 116, 106
110, 106, 117
111, 117, 107
112, 107, 118
113, 118, 108
114, 108, 119
115, 119, 109
116, 109, 120
117, 120, 110
118, 110, 121
119, 121, 111
120, 111, 1
*ELEMENT, type=T3D2, ELSET=Line9
121, 9, 122
122, 122, 136
123, 136, 123
124, 123, 137
125, 137, 124
126, 124, 138
127, 138, 125
128, 125, 139
129, 139, 126
130, 126, 140
131, 140, 127
132, 127, 141
133, 141, 128
134, 128, 142
135, 142, 129
136, 129, 143
137, 143, 130
138, 130, 144
139, 144, 131
140, 131, 145
141, 145, 132
142, 132, 146
143, 146, 133
144, 133, 147
145, 147, 134
146, 134, 148
147, 148, 135
148, 135, 9
*ELEMENT, type=CPS4, ELSET=Surface1
149, 615, 534, 429, 510
150, 351, 41, 34, 396
151, 398, 252, 480, 441
152, 528, 788, 599, 483
153, 490, 151, 587, 233
154, 621, 155, 202, 349
155, 713, 677, 232, 234
156, 407, 693, 548, 475
157, 325, 196, 279, 700
158, 504, 465, 493, 806
159, 653, 924, 923, 698
160, 506, 633, 205, 311
161, 711, 299, 27, 3
162, 369, 589, 642, 250
163, 846, 306, 461, 790
164, 802, 295, 263, 838
165, 533, 531, 798, 410
166, 451, 775, 127, 140
167, 354, 823, 837, 361
168, 61, 51, 298, 503
169, 633, 681, 856, 205
170, 401, 318, 70, 78
171, 771, 651, 520, 376
172, 698, 923, 610, 818
173, 345, 617, 898, 228
174, 391, 145, 131, 839
175, 219, 209, 324, 829
176, 157, 550, 392, 417
177, 331, 490, 233, 776
178, 841, 228, 442, 193
179, 343, 630, 717, 433
180, 273, 697, 749, 690
181, 661, 656, 689, 598
182, 889, 479, 890, 800
183, 786, 695, 307, 486
184, 577, 414, 583, 223
185, 707, 154, 329, 231
186, 809, 438, 215, 781
187, 420, 363, 224, 785
188, 687, 790, 260, 515
189, 353, 361, 511, 356
190, 188, 478, 431, 472
191, 291, 832, 753, 435
192, 286, 708, 696, 836
193, 741, 691, 195, 160
194, 727, 345, 228, 841
195, 791, 142, 128, 894
196, 356, 511, 276, 246
197, 317, 526, 780, 152
198, 475, 548, 341, 441
199, 4, 45, 370, 37
200, 904, 834, 113, 103
201, 483, 599, 171, 672
202, 575, 109, 120, 434
203, 426, 355, 79, 72
204, 48, 59, 666, 668
205, 306, 623, 804, 461
206, 823, 547, 846, 837
207, 313, 430, 497, 326
208, 257, 428, 626, 408
209, 555, 884, 728, 738
210, 374, 119, 109, 575
211, 517, 883, 256, 588
212, 648, 769, 833, 714
213, 751, 538, 229, 595
214, 757, 356, 246, 488
215, 298, 514, 371, 166
216, 361, 837, 687, 511
217, 478, 241, 611, 431
218, 646, 162, 676, 381
219, 57, 47, 802, 252
220, 834, 777, 102, 113
221, 254, 894, 128, 141
222, 197, 156, 331, 453
223, 598, 689, 537, 270
224, 377, 406, 525, 413
225, 446, 736, 721, 463
226, 498, 328, 601, 212
227, 832, 625, 713, 753
228, 714, 833, 831, 464
229, 388, 184, 648, 589
230, 150, 367, 467, 772
231, 622, 449, 605, 645
232, 275, 204, 853, 292
233, 790, 461, 795, 260
234, 393, 524, 647, 319
235, 51, 62, 514, 298
236, 657, 116, 106, 314
237, 924, 729, 828, 574
238, 417, 392, 149, 572
239, 282, 147, 133, 422
240, 704, 521, 671, 765
241, 387, 315, 198, 210
242, 691, 740, 382, 195
243, 563, 580, 155, 621
244, 408, 626, 170, 174
245, 626, 82, 85, 170
246, 812, 152, 745, 665
247, 728, 505, 68, 76
248, 305, 504, 806, 474
249, 928, 278, 918, 927
250, 645, 605, 758, 336
251, 218, 522, 269, 783
252, 597, 631, 19, 12
253, 637, 577, 223, 221
254, 258, 660, 669, 339
255, 556, 855, 345, 727
256, 917, 517, 588, 803
257, 247, 7, 86, 450
258, 756, 378, 884, 555
259, 267, 821, 273, 799
260, 324, 810, 482, 220
261, 154, 776, 549, 329
262, 561, 166, 371, 509
263, 196, 840, 820, 279
264, 853, 466, 499, 404
265, 459, 763, 337, 245
266, 416, 36, 44, 541
267, 380, 536, 25, 28
268, 844, 829, 182, 217
269, 335, 768, 744, 703
270, 803, 588, 136, 122
271, 158, 217, 14, 22
272, 239, 261, 411, 176
273, 514, 357, 397, 371
274, 801, 354, 361, 353
275, 399, 360, 474, 806
276, 207, 473, 456, 849
277, 261, 719, 394, 561
278, 898, 471, 692, 309
279, 202, 579, 332, 489
280, 447, 566, 101, 112
281, 759, 80, 73, 697
282, 742, 201, 897, 782
283, 183, 515, 260, 485
284, 804, 67, 75, 643
285, 526, 852, 632, 780
286, 274, 292, 289, 440
287, 837, 846, 790, 687
288, 415, 575, 434, 634
289, 673, 619, 654, 670
290, 179, 327, 612, 885
291, 462, 322, 495, 683
292, 383, 271, 459, 793
293, 181, 761, 168, 178
294, 738, 728, 76, 69
295, 660, 300, 451, 669
296, 745, 582, 262, 585
297, 191, 105, 116, 657
298, 578, 665, 695, 786
299, 347, 455, 414, 577
300, 62, 52, 357, 514
301, 681, 436, 161, 856
302, 688, 795, 643, 505
303, 540, 779, 206, 180
304, 817, 518, 883, 517
305, 227, 822, 540, 845
306, 525, 772, 227, 487
307, 472, 431, 304, 214
308, 424, 268, 369, 241
309, 678, 595, 771, 899
310, 852, 472, 214, 632
311, 312, 302, 635, 639
312, 758, 435, 150, 406
313, 360, 503, 248, 474
314, 384, 405, 733, 301
315, 786, 486, 721, 736
316, 558, 825, 491, 191
317, 828, 420, 785, 686
318, 414, 443, 843, 583
319, 706, 573, 346, 685
320, 336, 758, 406, 377
321, 292, 853, 404, 289
322, 761, 463, 679, 168
323, 496, 508, 900, 901
324, 928, 927, 159, 919
325, 391, 839, 559, 638
326, 629, 421, 237, 699
327, 712, 211, 556, 768
328, 850, 614, 169, 887
329, 440, 289, 498, 819
330, 413, 525, 487, 664
331, 733, 39, 32, 362
332, 765, 671, 368, 466
333, 432, 906, 905, 213
334, 285, 177, 196, 325
335, 785, 224, 571, 177
336, 557, 767, 222, 580
337, 212, 601, 312, 342
338, 530, 216, 740, 691
339, 670, 654, 16, 24
340, 430, 734, 264, 497
341, 886, 247, 450, 266
342, 819, 498, 212, 425
343, 422, 704, 765, 204
344, 187, 453, 154, 707
345, 787, 348, 216, 530
346, 350, 296, 674, 546
347, 476, 448, 297, 303
348, 752, 403, 710, 255
349, 368, 286, 836, 715
350, 452, 657, 314, 658
351, 156, 433, 490, 331
352, 249, 494, 393, 352
353, 775, 254, 141, 127
354, 359, 380, 28, 26
355, 546, 674, 826, 271
356, 46, 57, 252, 398
357, 678, 899, 436, 681
358, 410, 798, 251, 494
359, 296, 308, 646, 674
360, 529, 334, 383, 403
361, 671, 638, 286, 368
362, 262, 529, 403, 752
363, 277, 40, 33, 607
364, 437, 750, 892, 355
365, 572, 149, 473, 207
366, 375, 199, 175, 705
367, 327, 539, 257, 612
368, 352, 888, 390, 891
369, 668, 666, 293, 805
370, 531, 159, 172, 798
371, 817, 551, 500, 518
372, 818, 610, 730, 238
373, 690, 749, 600, 539
374, 607, 33, 41, 351
375, 268, 388, 589, 369
376, 888, 319, 185, 265
377, 794, 553, 179, 850
378, 605, 291, 435, 758
379, 561, 394, 248, 166
380, 295, 668, 805, 263
381, 205, 856, 388, 268
382, 406, 150, 772, 525
383, 547, 650, 306, 846
384, 630, 672, 718, 717
385, 516, 249, 469, 479
386, 816, 230, 778, 477
387, 426, 72, 80, 759
388, 516, 410, 494, 249
389, 604, 418, 656, 661
390, 45, 56, 470, 370
391, 649, 624, 633, 506
392, 553, 507, 327, 179
393, 53, 64, 823, 354
394, 54, 65, 650, 547
395, 922, 921, 533, 321
396, 165, 245, 644, 243
397, 544, 752, 255, 163
398, 685, 346, 187, 677
399, 457, 519, 767, 557
400, 887, 169, 808, 709
401, 594, 596, 902, 903
402, 300, 824, 775, 451
403, 266, 450, 508, 496
404, 208, 484, 560, 640
405, 675, 338, 693, 407
406, 591, 164, 340, 824
407, 708, 818, 238, 696
408, 243, 644, 805, 293
409, 251, 445, 851, 524
410, 239, 513, 719, 261
411, 512, 800, 437, 893
412, 807, 351, 396, 641
413, 376, 520, 299, 711
414, 554, 659, 480, 838
415, 831, 607, 351, 807
416, 431, 611, 606, 304
417, 611, 250, 735, 606
418, 883, 882, 720, 256
419, 650, 400, 623, 306
420, 456, 741, 160, 813
421, 625, 685, 677, 713
422, 890, 584, 310, 750
423, 428, 84, 82, 626
424, 281, 208, 640, 167
425, 674, 646, 381, 826
426, 808, 770, 125, 138
427, 352, 393, 319, 888
428, 820, 913, 912, 581
429, 338, 766, 731, 693
430, 779, 673, 670, 206
431, 628, 908, 907, 896
432, 693, 731, 416, 548
433, 570, 844, 217, 158
434, 482, 597, 12, 20
435, 403, 383, 793, 710
436, 599, 797, 192, 171
437, 582, 535, 529, 262
438, 304, 606, 296, 350
439, 579, 628, 896, 332
440, 453, 331, 776, 154
441, 631, 186, 11, 19
442, 390, 835, 756, 322
443, 378, 485, 688, 884
444, 149, 200, 814, 473
445, 272, 807, 641, 287
446, 232, 707, 231, 830
447, 735, 358, 523, 308
448, 719, 663, 305, 394
449, 283, 165, 243, 465
450, 854, 781, 706, 567
451, 409, 342, 789, 649
452, 316, 330, 186, 631
453, 715, 836, 755, 762
454, 259, 762, 622, 716
455, 519, 581, 492, 767
456, 705, 175, 10, 18
457, 731, 43, 36, 416
458, 847, 554, 838, 263
459, 346, 197, 453, 187
460, 922, 817, 517, 917
461, 884, 688, 505, 728
462, 800, 890, 750, 437
463, 634, 434, 225, 725
464, 256, 720, 137, 123
465, 309, 692, 630, 343
466, 193, 442, 618, 379
467, 339, 669, 126, 139
468, 468, 242, 766, 338
469, 236, 565, 629, 619
470, 222, 226, 153, 739
471, 269, 567, 625, 832
472, 253, 270, 737, 591
473, 920, 615, 510, 919
474, 773, 738, 69, 77
475, 794, 850, 887, 882
476, 778, 782, 788, 528
477, 566, 93, 8, 101
478, 608, 813, 387, 443
479, 849, 456, 813, 608
480, 617, 477, 471, 898
481, 507, 690, 539, 327
482, 683, 495, 773, 318
483, 768, 556, 727, 744
484, 826, 381, 476, 763
485, 223, 583, 609, 576
486, 543, 275, 292, 274
487, 663, 294, 504, 305
488, 265, 185, 761, 181
489, 824, 340, 254, 775
490, 198, 415, 634, 701
491, 689, 592, 886, 537
492, 798, 172, 445, 251
493, 299, 545, 29, 27
494, 789, 639, 538, 751
495, 642, 714, 464, 358
496, 492, 911, 910, 226
497, 443, 387, 210, 843
498, 477, 778, 528, 471
499, 730, 809, 781, 854
500, 250, 642, 358, 735
501, 666, 460, 493, 293
502, 856, 161, 184, 388
503, 649, 789, 751, 624
504, 340, 895, 894, 254
505, 692, 483, 672, 630
506, 319, 647, 446, 185
507, 602, 796, 652, 627
508, 925, 667, 851, 445
509, 333, 489, 288, 444
510, 489, 332, 811, 288
511, 238, 730, 854, 522
512, 767, 492, 226, 222
513, 332, 896, 432, 811
514, 373, 481, 673, 779
515, 581, 912, 911, 492
516, 311, 205, 268, 424
517, 287, 641, 468, 244
518, 64, 54, 547, 823
519, 726, 38, 31, 405
520, 584, 462, 683, 310
521, 348, 117, 107, 216
522, 679, 176, 411, 488
523, 717, 718, 637, 151
524, 782, 897, 364, 788
525, 676, 244, 675, 448
526, 703, 744, 438, 809
527, 701, 634, 725, 746
528, 444, 558, 452, 722
529, 729, 203, 420, 828
530, 349, 202, 489, 333
531, 627, 652, 316, 569
532, 288, 811, 344, 825
533, 930, 282, 275, 543
534, 333, 444, 722, 550
535, 242, 42, 35, 766
536, 358, 464, 272, 523
537, 930, 429, 148, 134
538, 290, 395, 724, 655
539, 665, 745, 585, 695
540, 899, 771, 376, 320
541, 394, 305, 474, 248
542, 439, 317, 152, 812
543, 454, 613, 359, 545
544, 925, 439, 812, 667
545, 60, 50, 360, 399
546, 694, 506, 311, 395
547, 511, 687, 515, 276
548, 725, 225, 199, 375
549, 576, 609, 827, 209
550, 621, 349, 157, 201
551, 433, 717, 151, 490
552, 405, 31, 39, 733
553, 37, 370, 541, 44
554, 920, 919, 159, 531
555, 170, 85, 83, 542
556, 458, 700, 457, 620
557, 203, 791, 363, 420
558, 796, 701, 746, 652
559, 155, 739, 579, 202
560, 270, 537, 842, 737
561, 253, 591, 824, 300
562, 505, 643, 75, 68
563, 592, 542, 247, 886
564, 922, 321, 889, 412
565, 777, 447, 112, 102
566, 174, 170, 542, 592
567, 186, 705, 18, 11
568, 301, 733, 362, 769
569, 470, 398, 441, 341
570, 640, 560, 734, 430
571, 754, 664, 613, 454
572, 770, 339, 139, 125
573, 636, 219, 829, 844
574, 518, 794, 882, 883
575, 732, 253, 300, 660
576, 523, 272, 287, 162
577, 712, 686, 285, 211
578, 199, 121, 111, 175
579, 724, 424, 241, 478
580, 497, 264, 852, 526
581, 280, 326, 317, 439
582, 184, 301, 769, 648
583, 342, 312, 639, 789
584, 363, 895, 916, 224
585, 793, 459, 245, 165
586, 644, 847, 263, 805
587, 669, 451, 140, 126
588, 788, 364, 797, 599
589, 737, 842, 596, 594
590, 469, 891, 462, 584
591, 813, 160, 315, 387
592, 922, 412, 551, 817
593, 381, 676, 448, 476
594, 438, 841, 193, 215
595, 667, 578, 402, 851
596, 573, 379, 197, 346
597, 217, 182, 21, 14
598, 211, 590, 855, 556
599, 591, 737, 594, 164
600, 500, 799, 507, 553
601, 55, 5, 66, 400
602, 732, 598, 270, 253
603, 228, 898, 309, 442
604, 308, 523, 162, 646
605, 249, 352, 891, 469
606, 485, 260, 795, 688
607, 442, 309, 343, 618
608, 723, 374, 575, 415
609, 792, 557, 580, 563
610, 466, 368, 715, 499
611, 302, 645, 336, 635
612, 289, 404, 328, 498
613, 484, 527, 290, 560
614, 240, 281, 167, 278
615, 893, 426, 759, 821
616, 600, 81, 84, 428
617, 461, 804, 643, 795
618, 164, 594, 903, 916
619, 421, 570, 158, 237
620, 930, 134, 147, 282
621, 825, 344, 702, 491
622, 896, 907, 906, 432
623, 314, 106, 117, 348
624, 702, 190, 114, 104
625, 182, 220, 13, 21
626, 564, 235, 219, 636
627, 569, 316, 631, 597
628, 897, 417, 572, 364
629, 297, 407, 475, 659
630, 558, 191, 657, 452
631, 379, 618, 156, 197
632, 658, 314, 348, 787
633, 349, 333, 550, 157
634, 230, 742, 782, 778
635, 463, 721, 176, 679
636, 655, 724, 478, 188
637, 357, 801, 353, 397
638, 47, 58, 295, 802
639, 216, 107, 118, 740
640, 792, 563, 742, 230
641, 192, 849, 608, 455
642, 163, 255, 294, 663
643, 355, 892, 71, 79
644, 320, 423, 726, 815
645, 845, 540, 180, 536
646, 848, 413, 664, 754
647, 747, 564, 636, 372
648, 839, 653, 698, 559
649, 449, 783, 291, 605
650, 535, 389, 334, 529
651, 588, 256, 123, 136
652, 479, 469, 584, 890
653, 364, 572, 207, 797
654, 680, 501, 258, 593
655, 211, 285, 325, 590
656, 434, 120, 110, 225
657, 620, 792, 230, 816
658, 234, 232, 830, 682
659, 840, 914, 913, 820
660, 444, 288, 825, 558
661, 153, 909, 908, 628
662, 574, 828, 686, 712
663, 781, 215, 573, 706
664, 549, 747, 372, 743
665, 744, 727, 841, 438
666, 225, 110, 121, 199
667, 620, 457, 557, 792
668, 465, 243, 293, 493
669, 652, 746, 330, 316
670, 695, 585, 544, 307
671, 65, 55, 400, 650
672, 499, 715, 762, 259
673, 921, 920, 531, 533
674, 169, 593, 770, 808
675, 467, 682, 373, 822
676, 536, 180, 2, 25
677, 229, 848, 754, 651
678, 538, 562, 848, 229
679, 321, 533, 410, 516
680, 181, 178, 183, 603
681, 624, 751, 595, 678
682, 487, 227, 845, 284
683, 885, 612, 418, 604
684, 587, 221, 235, 564
685, 612, 257, 408, 418
686, 160, 195, 723, 315
687, 580, 222, 739, 155
688, 521, 132, 145, 391
689, 755, 218, 783, 449
690, 700, 279, 519, 457
691, 810, 569, 597, 482
692, 226, 910, 909, 153
693, 206, 670, 24, 17
694, 261, 561, 509, 411
695, 200, 787, 530, 814
696, 672, 171, 347, 718
697, 337, 303, 554, 847
698, 746, 725, 375, 330
699, 750, 310, 401, 892
700, 412, 512, 267, 551
701, 322, 756, 555, 495
702, 372, 636, 844, 570
703, 545, 359, 26, 29
704, 926, 280, 439, 925
705, 635, 336, 377, 562
706, 423, 30, 38, 726
707, 382, 108, 119, 374
708, 827, 627, 569, 810
709, 235, 576, 209, 219
710, 171, 192, 455, 347
711, 697, 73, 6, 749
712, 753, 713, 234, 367
713, 562, 377, 413, 848
714, 593, 258, 339, 770
715, 524, 851, 402, 647
716, 888, 265, 835, 390
717, 656, 174, 592, 689
718, 370, 470, 341, 541
719, 664, 487, 284, 613
720, 167, 640, 430, 313
721, 460, 399, 806, 493
722, 749, 6, 81, 600
723, 161, 384, 301, 184
724, 63, 53, 354, 801
725, 613, 284, 380, 359
726, 815, 726, 405, 384
727, 842, 266, 496, 596
728, 501, 661, 598, 732
729, 450, 86, 94, 508
730, 551, 267, 799, 500
731, 334, 546, 271, 383
732, 677, 187, 707, 232
733, 224, 916, 915, 571
734, 491, 702, 104, 115
735, 610, 703, 809, 730
736, 783, 269, 832, 291
737, 718, 347, 577, 637
738, 422, 133, 146, 704
739, 326, 497, 526, 317
740, 899, 320, 815, 436
741, 614, 680, 593, 169
742, 400, 66, 74, 623
743, 448, 675, 407, 297
744, 734, 655, 188, 264
745, 58, 48, 668, 295
746, 659, 475, 441, 480
747, 855, 502, 617, 345
748, 195, 382, 374, 723
749, 502, 816, 477, 617
750, 151, 637, 221, 587
751, 843, 210, 796, 602
752, 175, 111, 1, 10
753, 647, 402, 736, 446
754, 709, 808, 138, 124
755, 559, 698, 818, 708
756, 578, 786, 736, 402
757, 396, 34, 42, 242
758, 481, 236, 619, 673
759, 330, 375, 705, 186
760, 214, 304, 350, 389
761, 614, 885, 604, 680
762, 882, 887, 709, 720
763, 164, 916, 895, 340
764, 891, 390, 322, 462
765, 501, 732, 660, 258
766, 893, 437, 355, 426
767, 821, 759, 697, 273
768, 518, 500, 553, 794
769, 392, 568, 200, 149
770, 618, 343, 433, 156
771, 653, 144, 130, 924
772, 56, 46, 398, 470
773, 397, 353, 356, 757
774, 624, 678, 681, 633
775, 210, 198, 701, 796
776, 177, 571, 840, 196
777, 550, 722, 568, 392
778, 567, 706, 685, 625
779, 520, 454, 545, 299
780, 513, 163, 663, 719
781, 623, 74, 67, 804
782, 178, 168, 246, 276
783, 682, 830, 481, 373
784, 836, 696, 218, 755
785, 811, 432, 213, 344
786, 563, 621, 201, 742
787, 423, 711, 3, 30
788, 255, 710, 283, 294
789, 318, 773, 77, 70
790, 168, 679, 488, 246
791, 418, 408, 174, 656
792, 185, 446, 463, 761
793, 265, 181, 603, 835
794, 537, 886, 266, 842
795, 704, 146, 132, 521
796, 509, 757, 488, 411
797, 409, 649, 506, 694
798, 221, 223, 576, 235
799, 209, 827, 810, 324
800, 486, 307, 513, 239
801, 850, 179, 885, 614
802, 52, 63, 801, 357
803, 927, 918, 280, 926
804, 241, 369, 250, 611
805, 50, 61, 503, 360
806, 603, 183, 485, 378
807, 606, 735, 308, 296
808, 722, 452, 658, 568
809, 310, 683, 318, 401
810, 231, 329, 565, 236
811, 303, 297, 659, 554
812, 220, 482, 20, 13
813, 244, 468, 338, 675
814, 791, 894, 895, 363
815, 762, 755, 449, 622
816, 486, 239, 176, 721
817, 924, 130, 143, 729
818, 829, 324, 220, 182
819, 763, 476, 303, 337
820, 162, 287, 244, 676
821, 435, 753, 367, 150
822, 641, 396, 242, 468
823, 585, 262, 752, 544
824, 49, 60, 399, 460
825, 772, 467, 822, 227
826, 282, 422, 204, 275
827, 639, 635, 562, 538
828, 527, 694, 395, 290
829, 245, 337, 847, 644
830, 638, 559, 708, 286
831, 830, 231, 236, 481
832, 152, 780, 582, 745
833, 595, 229, 651, 771
834, 601, 716, 302, 312
835, 412, 889, 800, 512
836, 362, 32, 40, 277
837, 720, 709, 124, 137
838, 539, 600, 428, 257
839, 927, 926, 172, 159
840, 328, 259, 716, 601
841, 203, 129, 142, 791
842, 294, 283, 465, 504
843, 425, 212, 342, 409
844, 307, 544, 163, 513
845, 271, 826, 763, 459
846, 344, 213, 190, 702
847, 473, 814, 741, 456
848, 686, 785, 177, 285
849, 740, 118, 108, 382
850, 521, 391, 638, 671
851, 729, 143, 129, 203
852, 710, 793, 165, 283
853, 252, 802, 838, 480
854, 560, 290, 655, 734
855, 589, 648, 714, 642
856, 548, 416, 541, 341
857, 929, 928, 919, 510
858, 395, 311, 424, 724
859, 822, 373, 779, 540
860, 835, 603, 378, 756
861, 329, 549, 743, 565
862, 680, 604, 661, 501
863, 471, 528, 483, 692
864, 215, 193, 379, 573
865, 596, 496, 901, 902
866, 619, 629, 699, 654
867, 892, 401, 78, 71
868, 651, 754, 454, 520
869, 371, 397, 757, 509
870, 367, 234, 682, 467
871, 436, 815, 384, 161
872, 180, 206, 17, 2
873, 769, 362, 277, 833
874, 264, 188, 472, 852
875, 522, 854, 567, 269
876, 716, 622, 645, 302
877, 930, 929, 510, 429
878, 839, 131, 144, 653
879, 609, 602, 627, 827
880, 632, 214, 389, 535
881, 315, 723, 415, 198
882, 191, 491, 115, 105
883, 667, 812, 665, 578
884, 534, 135, 148, 429
885, 320, 376, 711, 423
886, 503, 298, 166, 248
887, 321, 516, 479, 889
888, 739, 153, 628, 579
889, 926, 925, 445, 172
890, 780, 632, 535, 582
891, 814, 530, 691, 741
892, 190, 904, 103, 114
893, 583, 843, 602, 609
894, 571, 915, 914, 840
895, 59, 49, 460, 666
896, 495, 555, 738, 773
897, 833, 277, 607, 831
898, 696, 238, 522, 218
899, 918, 313, 326, 280
900, 929, 240, 278, 928
901, 201, 157, 417, 897
902, 464, 831, 807, 272
903, 512, 893, 821, 267
904, 743, 372, 570, 421
905, 455, 608, 443, 414
906, 699, 237, 15, 23
907, 404, 499, 259, 328
908, 565, 743, 421, 629
909, 458, 620, 816, 502
910, 508, 94, 87, 900
911, 494, 251, 524, 393
912, 799, 273, 690, 507
913, 797, 207, 849, 192
914, 178, 276, 515, 183
915, 237, 158, 22, 15
916, 279, 820, 581, 519
917, 213, 905, 904, 190
918, 766, 35, 43, 731
919, 233, 587, 564, 747
920, 542, 83, 7, 247
921, 389, 350, 546, 334
922, 568, 658, 787, 200
923, 654, 699, 23, 16
924, 590, 325, 700, 458
925, 923, 335, 703, 610
926, 776, 233, 747, 549
927, 590, 458, 502, 855
928, 278, 167, 313, 918
929, 204, 765, 466, 853
930, 284, 845, 536, 380
931, 586, 100, 93, 566
932, 194, 586, 566, 447
933, 323, 194, 447, 777
934, 552, 323, 777, 834
935, 905, 552, 834, 904
936, 764, 92, 100, 586
937, 366, 764, 586, 194
938, 386, 366, 194, 323
939, 365, 386, 323, 552
940, 906, 365, 552, 905
941, 684, 99, 92, 764
942, 173, 684, 764, 366
943, 427, 173, 366, 386
944, 189, 427, 386, 365
945, 907, 189, 365, 906
946, 419, 91, 99, 684
947, 385, 419, 684, 173
948, 532, 385, 173, 427
949, 784, 532, 427, 189
950, 908, 784, 189, 907
951, 616, 98, 91, 419
952, 748, 616, 419, 385
953, 662, 748, 385, 532
954, 857, 662, 532, 784
955, 909, 857, 784, 908
956, 858, 90, 98, 616
957, 859, 858, 616, 748
958, 860, 859, 748, 662
959, 861, 860, 662, 857
960, 910, 861, 857, 909
961, 862, 97, 90, 858
962, 863, 862, 858, 859
963, 864, 863, 859, 860
964, 865, 864, 860, 861
965, 911, 865, 861, 910
966, 866, 89, 97, 862
967, 867, 866, 862, 863
968, 868, 867, 863, 864
969, 869, 868, 864, 865
970, 912, 869, 865, 911
971, 870, 96, 89, 866
972, 871, 870, 866, 867
973, 872, 871, 867, 868
974, 873, 872, 868, 869
975, 913, 873, 869, 912
976, 874, 88, 96, 870
977, 875, 874, 870, 871
978, 876, 875, 871, 872
979, 877, 876, 872, 873
980, 914, 877, 873, 913
981, 878, 95, 88, 874
982, 879, 878, 874, 875
983, 880, 879, 875, 876
984, 881, 880, 876, 877
985, 915, 881, 877, 914
986, 900, 87, 95, 878
987, 901, 900, 878, 879
988, 902, 901, 879, 880
989, 903, 902, 880, 881
990, 916, 903, 881, 915
991, 760, 9, 135, 534
992, 774, 760, 534, 615
993, 921, 774, 615, 920
994, 803, 122, 9, 760
995, 917, 803, 760, 774
996, 922, 917, 774, 921
997, 574, 712, 768, 335
998, 924, 574, 335, 923
999, 425, 409, 694, 527
1000, 819, 425, 527, 484
1001, 440, 819, 484, 208
1002, 274, 440, 208, 281
1003, 543, 274, 281, 240
1004, 930, 543, 240, 929
*ELSET,ELSET=contact_source
99, 100, 101, 102, 103, 104, 105, 106, 107, 108, 
109, 110, 111, 112, 113, 114, 115, 116, 117, 118, 
119, 120, 
*ELSET,ELSET=contact_drain
39, 40, 41, 42, 43, 44, 45, 46, 47, 48, 
49, 50, 51, 52, 53, 54, 55, 56, 57, 58, 
59, 60, 
*ELSET,ELSET=probe_A
77, 78, 79, 80, 81, 82, 
*ELSET,ELSET=probe_B
17, 18, 19, 20, 21, 22, 
*ELSET,ELSET=walls
1, 2, 3, 4, 5, 6, 7, 8, 9, 10, 
11, 12, 13, 14, 15, 16, 23, 24, 25, 26, 
27, 28, 29, 30, 31, 32, 33, 34, 35, 36, 
37, 38, 61, 62, 63, 64, 65, 66, 67, 68, 
69, 70, 71, 72, 73, 74, 75, 76, 83, 84, 
85, 86, 87, 88, 89, 90, 91, 92, 93, 94, 
95, 96, 97, 98, 121, 122, 123, 124, 125, 126, 
127, 128, 129, 130, 131, 132, 133, 134, 135, 136, 
137, 138, 139, 140, 141, 142, 143, 144, 145, 146, 
147, 148, 
*ELSET,ELSET=domain
149, 150, 151, 152, 153, 154, 155, 156, 157, 158, 
159, 160, 161, 162, 163, 164, 165, 166, 167, 168, 
169, 170, 171, 172, 173, 174, 175, 176, 177, 178, 
179, 180, 181, 182, 183, 184, 185, 186, 187, 188, 
189, 190, 191, 192, 193, 194, 195, 196, 197, 198, 
199, 200, 201, 202, 203, 204, 205, 206, 207, 208, 
209, 210, 211, 212, 213, 214, 215, 216, 217, 218, 
219, 220, 221, 222, 223, 224, 225, 226, 227, 228, 
229, 230, 231, 232, 233, 234, 235, 236, 237, 238, 
239, 240, 241, 242, 243, 244, 245, 246, 247, 248, 
249, 250, 251, 252, 253, 254, 255, 256, 257, 258, 
259, 260, 261, 262, 263, 264, 265, 266, 267, 268, 
269, 270, 271, 272, 273, 274, 275, 276, 277, 278, 
279, 280, 281, 282, 283, 284, 285, 286, 287, 288, 
289, 290, 291, 292, 293, 294, 295, 296, 297, 298, 
299, 300, 301, 302, 303, 304, 305, 306, 307, 308, 
309, 310, 311, 312, 313, 314, 315, 316, 317, 318, 
319, 320, 321, 322, 323, 324, 325, 326, 327, 328, 
329, 330, 331, 332, 333, 334, 335, 336, 337, 338, 
339, 340, 341, 342, 343, 344, 345, 346, 347, 348, 
349, 350, 351, 352, 353, 354, 355, 356, 357, 358, 
359, 360, 361, 362, 363, 364, 365, 366, 367, 368, 
369, 370, 371, 372, 373, 374, 375, 376, 377, 378, 
379, 380, 381, 382, 383, 384, 385, 386, 387, 388, 
389, 390, 391, 392, 393, 394, 395, 396, 397, 398, 
399, 400, 401, 402, 403, 404, 405, 406, 407, 408, 
409, 410, 411, 412, 413, 414, 415, 416, 417, 418, 
419, 420, 421, 422, 423, 424, 425, 426, 427, 428, 
429, 430, 431, 432, 433, 434, 435, 436, 437, 438, 
439, 440, 441, 442, 443, 444, 445, 446, 447, 448, 
449, 450, 451, 452, 453, 454, 455, 456, 457, 458, 
459, 460, 461, 462, 463, 464, 465, 466, 467, 468, 
469, 470, 471, 472, 473, 474, 475, 476, 477, 478, 
479, 480, 481, 482, 483, 484, 485, 486, 487, 488, 
489, 490, 491, 492, 493, 494, 495, 496, 497, 498, 
499, 500, 501, 502, 503, 504, 505, 506, 507, 508, 
509, 510, 511, 512, 513, 514, 515, 516, 517, 518, 
519, 520, 521, 522, 523, 524, 525, 526, 527, 528, 
529, 530, 531, 532, 533, 534, 535, 536, 537, 538, 
539, 540, 541, 542, 543, 544, 545, 546, 547, 548, 
549, 550, 551, 552, 553, 554, 555, 556, 557, 558, 
559, 560, 561, 562, 563, 564, 565, 566, 567, 568, 
569, 570, 571, 572, 573, 574, 575, 576, 577, 578, 
579, 580, 581, 582, 583, 584, 585, 586, 587, 588, 
589, 590, 591, 592, 593, 594, 595, 596, 597, 598, 
599, 600, 601, 602, 603, 604, 605, 606, 607, 608, 
609, 610, 611, 612, 613, 614, 615, 616, 617, 618, 
619, 620, 621, 622, 623, 624, 625, 626, 627, 628, 
629, 630, 631, 632, 633, 634, 635, 636, 637, 638, 
639, 640, 641, 642, 643, 644, 645, 646, 647, 648, 
649, 650, 651, 652, 653, 654, 655, 656, 657, 658, 
659, 660, 661, 662, 663, 664, 665, 666, 667, 668, 
669, 670, 671, 672, 673, 674, 675, 676, 677, 678, 
679, 680, 681, 682, 683, 684, 685, 686, 687, 688, 
689, 690, 691, 692, 693, 694, 695, 696, 697, 698, 
699, 700, 701, 702, 703, 704, 705, 706, 707, 708, 
709, 710, 711, 712, 713, 714, 715, 716, 717, 718, 
719, 720, 721, 722, 723, 724, 725, 726, 727, 728, 
729, 730, 731, 732, 733, 734, 735, 736, 737, 738, 
739, 740, 741, 742, 743, 744, 745, 746, 747, 748, 
749, 750, 751, 752, 753, 754, 755, 756, 757, 758, 
759, 760, 761, 762, 763, 764, 765, 766, 767, 768, 
769, 770, 771, 772, 773, 774, 775, 776, 777, 778, 
779, 780, 781, 782, 783, 784, 785, 786, 787, 788, 
789, 790, 791, 792, 793, 794, 795, 796, 797, 798, 
799, 800, 801, 802, 803, 804, 805, 806, 807, 808, 
809, 810, 811, 812, 813, 814, 815, 816, 817, 818, 
819, 820, 821, 822, 823, 824, 825, 826, 827, 828, 
829, 830, 831, 832, 833, 834, 835, 836, 837, 838, 
839, 840, 841, 842, 843, 844, 845, 846, 847, 848, 
849, 850, 851, 852, 853, 854, 855, 856, 857, 858, 
859, 860, 861, 862, 863, 864, 865, 866, 867, 868, 
869, 870, 871, 872, 873, 874, 875, 876, 877, 878, 
879, 880, 881, 882, 883, 884, 885, 886, 887, 888, 
889, 890, 891, 892, 893, 894, 895, 896, 897, 898, 
899, 900, 901, 902, 903, 904, 905, 906, 907, 908, 
909, 910, 911, 912, 913, 914, 915, 916, 917, 918, 
919, 920, 921, 922, 923, 924, 925, 926, 927, 928, 
929, 930, 931, 932, 933, 934, 935, 936, 937, 938, 
939, 940, 941, 942, 943, 944, 945, 946, 947, 948, 
949, 950, 951, 952, 953, 954, 955, 956, 957, 958, 
959, 960, 961, 962, 963, 964, 965, 966, 967, 968, 
969, 970, 971, 972, 973, 974, 975, 976, 977, 978, 
979, 980, 981, 982, 983, 984, 985, 986, 987, 988, 
989, 990, 991, 992, 993, 994, 995, 996, 997, 998, 
999, 1000, 1001, 1002, 1003, 1004, 
*NSET,NSET=contact_source
1, 8, 101, 102, 103, 104, 105, 106, 107, 108, 
109, 110, 111, 112, 113, 114, 115, 116, 117, 118, 
119, 120, 121, 
*NSET,NSET=contact_drain
4, 5, 45, 46, 47, 48, 49, 50, 51, 52, 
53, 54, 55, 56, 57, 58, 59, 60, 61, 62, 
63, 64, 65, 
*NSET,NSET=probe_A
6, 7, 81, 82, 83, 84, 85, 
*NSET,NSET=probe_B
2, 3, 25, 26, 27, 28, 29, 
*NSET,NSET=walls
1, 2, 3, 4, 5, 6, 7, 8, 9, 10, 
11, 12, 13, 14, 15, 16, 17, 18, 19, 20, 
21, 22, 23, 24, 30, 31, 32, 33, 34, 35, 
36, 37, 38, 39, 40, 41, 42, 43, 44, 66, 
67, 68, 69, 70, 71, 72, 73, 74, 75, 76, 
77, 78, 79, 80, 86, 87, 88, 89, 90, 91, 
92, 93, 94, 95, 96, 97, 98, 99, 100, 122, 
123, 124, 125, 126, 127, 128, 129, 130, 131, 132, 
133, 134, 135, 136, 137, 138, 139, 140, 141, 142, 
143, 144, 145, 146, 147, 148, 
*NSET,NSET=domain
1, 2, 3, 4, 5, 6, 7, 8, 9, 10, 
11, 12, 13, 14, 15, 16, 17, 18, 19, 20, 
21, 22, 23, 24, 25, 26, 27, 28, 29, 30, 
31, 32, 33, 34, 35, 36, 37, 38, 39, 40, 
41, 42, 43, 44, 45, 46, 47, 48, 49, 50, 
51, 52, 53, 54, 55, 56, 57, 58, 59, 60, 
61, 62, 63, 64, 65, 66, 67, 68, 69, 70, 
71, 72, 73, 74, 75, 76, 77, 78, 79, 80, 
81, 82, 83, 84, 85, 86, 87, 88, 89, 90, 
91, 92, 93, 94, 95, 96, 97, 98, 99, 100, 
101, 102, 103, 104, 105, 106, 107, 108, 109, 110, 
111, 112, 113, 114, 115, 116, 117, 118, 119, 120, 
121, 122, 123, 124, 125, 126, 127, 128, 129, 130, 
131, 132, 133, 134, 135, 136, 137, 138, 139, 140, 
141, 142, 143, 144, 145, 146, 147, 148, 149, 150, 
151, 152, 153, 154, 155, 156, 157, 158, 159, 160, 
161, 162, 163, 164, 165, 166, 167, 168, 169, 170, 
171, 172, 173, 174, 175, 176, 177, 178, 179, 180, 
181, 182, 183, 184, 185, 186, 187, 188, 189, 190, 
191, 192, 193, 194, 195, 196, 197, 198, 199, 200, 
201, 202, 203, 204, 205, 206, 207, 208, 209, 210, 
211, 212, 213, 214, 215, 216, 217, 218, 219, 220, 
221, 222, 223, 224, 225, 226, 227, 228, 229, 230, 
231, 232, 233, 234, 235, 236, 237, 238, 239, 240, 
241, 242, 243, 244, 245, 246, 247, 248, 249, 250, 
251, 252, 253, 254, 255, 256, 257, 258, 259, 260, 
261, 262, 263, 264, 265, 266, 267, 268, 269, 270, 
271, 272, 273, 274, 275, 276, 277, 278, 279, 280, 
281, 282, 283, 284, 285, 286, 287, 288, 289, 290, 
291, 292, 293, 294, 295, 296, 297, 298, 299, 300, 
301, 302, 303, 304, 305, 306, 307, 308, 309, 310, 
311, 312, 313, 314, 315, 316, 317, 318, 319, 320, 
321, 322, 323, 324, 325, 326, 327, 328, 329, 330, 
331, 332, 333, 334, 335, 336, 337, 338, 339, 340, 
341, 342, 343, 344, 345, 346, 347, 348, 349, 350, 
351, 352, 353, 354, 355, 356, 357, 358, 359, 360, 
361, 362, 363, 364, 365, 366, 367, 368, 369, 370, 
371, 372, 373, 374, 375, 376, 377, 378, 379, 380, 
381, 382, 383, 384, 385, 386, 387, 388, 389, 390, 
391, 392, 393, 394, 395, 396, 397, 398, 399, 400, 
401, 402, 403, 404, 405, 406, 407, 408, 409, 410, 
411, 412, 413, 414, 415, 416, 417, 418, 419, 420, 
421, 422, 423, 424, 425, 426, 427, 428, 429, 430, 
431, 432, 433, 434, 435, 436, 437, 438, 439, 440, 
441, 442, 443, 444, 445, 446, 447, 448, 449, 450, 
451, 452, 453, 454, 455, 456, 457, 458, 459, 460, 
461, 462, 463, 464, 465, 466, 467, 468, 469, 470, 
471, 472, 473, 474, 475, 476, 477, 478, 479, 480, 
481, 482, 483, 484, 485, 486, 487, 488, 489, 490, 
491, 492, 493, 494, 495, 496, 497, 498, 499, 500, 
501, 502, 503, 504, 505, 506, 507, 508, 509, 510, 
511, 512, 513, 514, 515, 516, 517, 518, 519, 520, 
521, 522, 523, 524, 525, 526, 527, 528, 529, 530, 
531, 532, 533, 534, 535, 536, 537, 538, 539, 540, 
541, 542, 543, 544, 545, 546, 547, 548, 549, 550, 
551, 552, 553, 554, 555, 556, 557, 558, 559, 560, 
561, 562, 563, 564, 565, 566, 567, 568, 569, 570, 
571, 572, 573, 574, 575, 576, 577, 578, 579, 580, 
581, 582, 583, 584, 585, 586, 587, 588, 589, 590, 
591, 592, 593, 594, 595, 596, 597, 598, 599, 600, 
601, 602, 603, 604, 605, 606, 607, 608, 609, 610, 
611, 612, 613, 614, 615, 616, 617, 618, 619, 620, 
621, 622, 623, 624, 625, 626, 627, 628, 629, 630, 
631, 632, 633, 634, 635, 636, 637, 638, 639, 640, 
641, 642, 643, 644, 645, 646, 647, 648, 649, 650, 
651, 652, 653, 654, 655, 656, 657, 658, 659, 660, 
661, 662, 663, 664, 665, 666, 667, 668, 669, 670, 
671, 672, 673, 674, 675, 676, 677, 678, 679, 680, 
681, 682, 683, 684, 685, 686, 687, 688, 689, 690, 
691, 692, 693, 694, 695, 696, 697, 698, 699, 700, 
701, 702, 703, 704, 705, 706, 707, 708, 709, 710, 
711, 712, 713, 714, 715, 716, 717, 718, 719, 720, 
721, 722, 723, 724, 725, 726, 727, 728, 729, 730, 
731, 732, 733, 734, 735, 736, 737, 738, 739, 740, 
741, 742, 743, 744, 745, 746, 747, 748, 749, 750, 
751, 752, 753, 754, 755, 756, 757, 758, 759, 760, 
761, 762, 763, 764, 765, 766, 767, 768, 769, 770, 
771, 772, 773, 774, 775, 776, 777, 778, 779, 780, 
781, 782, 783, 784, 785, 786, 787, 788, 789, 790, 
791, 792, 793, 794, 795, 796, 797, 798, 799, 800, 
801, 802, 803, 804, 805, 806, 807, 808, 809, 810, 
811, 812, 813, 814, 815, 816, 817, 818, 819, 820, 
821, 822, 823, 824, 825, 826, 827, 828, 829, 830, 
831, 832, 833, 834, 835, 836, 837, 838, 839, 840, 
841, 842, 843, 844, 845, 846, 847, 848, 849, 850, 
851, 852, 853, 854, 855, 856, 857, 858, 859, 860, 
861, 862, 863, 864, 865, 866, 867, 868, 869, 870, 
871, 872, 873, 874, 875, 876, 877, 878, 879, 880, 
881, 882, 883, 884, 885, 886, 887, 888, 889, 890, 
891, 892, 893, 894, 895, 896, 897, 898, 899, 900, 
901, 902, 903, 904, 905, 906, 907, 908, 909, 910, 
911, 912, 913, 914, 915, 916, 917, 918, 919, 920, 
921, 922, 923, 924, 925, 926, 927, 928, 929, 930, 
