*Heading
 /Users/juliagao/geometry-optimization-net/scripts/../runs/grid/shape_5.inp
*NODE
1, 0, -0.3, 0
2, 0.425, -0.3, 0
3, 0.575, -0.3, 0
4, 1, -0.3, 0
5, 1, 0.3, 0
6, 0.575, 0.3, 0
7, 0.425, 0.3, 0
8, 0, 0.3, 0
9, 0.724, 5.4794449583317e-22, 0
10, 0.025613292263452, -0.3, 0
11, 0.078140376258032, -0.3, 0
12, 0.13316152184962, -0.3, 0
13, 0.18941827904153, -0.3, 0
14, 0.24483497938784, -0.3, 0
15, 0.29796068597483, -0.3, 0
16, 0.34913082128227, -0.3, 0
17, 0.3997212735088, -0.3, 0
18, 0.051226584526905, -0.3, 0
19, 0.10505416798916, -0.3, 0
20, 0.16126887571008, -0.3, 0
21, 0.21756768237297, -0.3, 0
22, 0.27210227640271, -0.3, 0
23, 0.32381909554695, -0.3, 0
24, 0.3744425470176, -0.3, 0
25, 0.44970515388049, -0.3, 0
26, 0.49954267326374, -0.3, 0
27, 0.54983751938325, -0.3, 0
28, 0.47441030776098, -0.3, 0
29, 0.5246750387665, -0.3, 0
30, 0.60050076695509, -0.3, 0
31, 0.65112665526377, -0.3, 0
32, 0.70207403127863, -0.3, 0
33, 0.75517255463157, -0.3, 0
34, 0.81060068488953, -0.3, 0
35, 0.86688074031107, -0.3, 0
36, 0.92189522476229, -0.3, 0
37, 0.97439075767914, -0.3, 0
38, 0.62600153391018, -0.3, 0
39, 0.67625177661736, -0.3, 0
40, 0.72789628593991, -0.3, 0
41, 0.78244882332322, -0.3, 0
42, 0.83875254645583, -0.3, 0
43, 0.89500893416631, -0.3, 0
44, 0.94878151535827, -0.3, 0
45, 1, -0.27360359681365, 0
46, 1, -0.22005600997271, 0
47, 1, -0.16543235336237, 0
48, 1, -0.11082953442941, 0
49, 1, -0.056262736542782, 0
50, 1, -0.0013054990411315, 0
51, 1, 0.053575174242695, 0
52, 1, 0.10846088588997, 0
53, 1, 0.16419826299517, 0
54, 1, 0.22005456595419, 0
55, 1, 0.27384965788184, 0
56, 1, -0.24720719362731, 0
57, 1, -0.19290482631812, 0
58, 1, -0.13795988040662, 0
59, 1, -0.083699188452211, 0
60, 1, -0.028826284633352, 0
61, 1, 0.026215286551089, 0
62, 1, 0.080935061934301, 0
63, 1, 0.13598670984564, 0
64, 1, 0.19240981614469, 0
65, 1, 0.24769931576369, 0
66, 0.97430218777694, 0.3, 0
67, 0.92236156747531, 0.3, 0
68, 0.86914406677754, 0.3, 0
69, 0.81480437612643, 0.3, 0
70, 0.76001755959276, 0.3, 0
71, 0.70602027186567, 0.3, 0
72, 0.65334499586671, 0.3, 0
73, 0.60112259454654, 0.3, 0
74, 0.94860437555387, 0.3, 0
75, 0.89611875939675, 0.3, 0
76, 0.84216937415833, 0.3, 0
77, 0.78743937809453, 0.3, 0
78, 0.73259574109099, 0.3, 0
79, 0.67944480264035, 0.3, 0
80, 0.62724518909308, 0.3, 0
81, 0.55029569964438, 0.3, 0
82, 0.50045779393923, 0.3, 0
83, 0.45016209429485, 0.3, 0
84, 0.52559139928876, 0.3, 0
85, 0.4753241885897, 0.3, 0
86, 0.39865963531658, 0.3, 0
87, 0.34640889577825, 0.3, 0
88, 0.2939484345097, 0.3, 0
89, 0.23999465956591, 0.3, 0
90, 0.18523057711757, 0.3, 0
91, 0.13086971788471, 0.3, 0
92, 0.077636350114028, 0.3, 0
93, 0.02570172382901, 0.3, 0
94, 0.37231927063316, 0.3, 0
95, 0.32049852092334, 0.3, 0
96, 0.26739834809606, 0.3, 0
97, 0.21259097103575, 0.3, 0
98, 0.15787018319939, 0.3, 0
99, 0.10386925257003, 0.3, 0
100, 0.051403447658021, 0.3, 0
101, 0, 0.27378359583737, 0
102, 0, 0.21982691074586, 0
103, 0, 0.16392621631599, 0
104, 0, 0.10825119831321, 0
105, 0, 0.053350589492423, 0
106, 0, -0.0015571930203031, 0
107, 0, -0.056434793590421, 0
108, 0, -0.1109191021625, 0
109, 0, -0.16556521330283, 0
110, 0, -0.22017367850575, 0
111, 0, -0.27363225938201, 0
112, 0, 0.24756719167473, 0
113, 0, 0.19208662981699, 0
114, 0, 0.13576580281499, 0
115, 0, 0.080736593811419, 0
116, 0, 0.025964585173426, 0
117, 0, -0.029078971214032, 0
118, 0, -0.08379061596681, 0
119, 0, -0.1380475883582, 0
120, 0, -0.19308283824747, 0
121, 0, -0.24726451876403, 0
122, 0.72220374953971, 0.028310655797613, 0
123, 0.7074959279942, -0.084388622905538, 0
124, 0.67922998847623, -0.13436000392075, 0
125, 0.63933100194711, -0.17539347709077, 0
126, 0.59140974777765, -0.20450001850662, 0
127, 0.53874885257066, -0.22062304010672, 0
128, 0.48396983790236, -0.2234256782634, 0
129, 0.43023153939842, -0.21285760940535, 0
130, 0.38019337270874, -0.18926798862854, 0
131, 0.33643278651018, -0.15304171490295, 0
132, 0.30285705771085, -0.10635158546885, 0
133, 0.28232262265576, -0.052844672108236, 0
134, 0.27603516566554, 0.0039689251662115, 0
135, 0.28411136168044, 0.059733539503927, 0
136, 0.30565202715201, 0.11137713006704, 0
137, 0.33977167814775, 0.15653397219006, 0
138, 0.38388077430719, 0.19155240876633, 0
139, 0.4343561522926, 0.21416555438269, 0
140, 0.48843489093987, 0.2237012467252, 0
141, 0.54307415606364, 0.21981951011409, 0
142, 0.59515827826288, 0.20278289339972, 0
143, 0.64222773576584, 0.17305279699657, 0
144, 0.68104279068147, 0.13190719431626, 0
145, 0.7081801456999, 0.082686313165987, 0
146, 0.72213609691134, -0.028836681997687, 0
147, 0.71684380957526, 0.056167265007109, 0
148, 0.69628723756405, 0.10792275071899, 0
149, 0.66288422862457, 0.15376842225768, 0
150, 0.61930761336118, 0.18958294477896, 0
151, 0.5695724851025, 0.21292174458001, 0
152, 0.51593220462507, 0.22343268480413, 0
153, 0.46111186984837, 0.22059853291521, 0
154, 0.40859112510628, 0.20450040867554, 0
155, 0.36097148364581, 0.17563334421246, 0
156, 0.32117193605166, 0.13489448805577, 0
157, 0.29320728105907, 0.086097452764532, 0
158, 0.27836199089652, 0.032443681876568, 0
159, 0.27735163277734, -0.024570395507583, 0
160, 0.29086898482869, -0.080250968788306, 0
161, 0.31808640627218, -0.13070365055566, 0
162, 0.35750304396828, -0.17283118036554, 0
163, 0.40475811543392, -0.20274363906671, 0
164, 0.4567494719939, -0.2197848761753, 0
165, 0.51143115421264, -0.22370813188565, 0
166, 0.56548289700535, -0.21421482118116, 0
167, 0.61594005990863, -0.19166090458908, 0
168, 0.66046779540222, -0.15628847094367, 0
169, 0.69501712263076, -0.11020127862282, 0
170, 0.71657540771991, -0.057193462836341, 0
171, 0.59270819389411, -0.22034385712996, 0
172, 0.31995270736534, 0.25515423673921, 0
173, 0.10374206278832, -0.24035235343767, 0
174, 0.051342841389067, -0.24378086175655, 0
175, 0.15772190444557, -0.23654876456021, 0
176, 0.21358055697863, -0.23250930412727, 0
177, 0.9003764714475, -0.1679082070031, 0
178, 0.57179612027913, 0.25590881434756, 0
179, 0.38137213230752, -0.27350407469806, 0
180, 0.59790141857711, -0.26800660253212, 0
181, 0.20966763046809, 0.17547902657543, 0
182, 0.022754558376216, -0.10780296624985, 0
183, 0.20978875625615, 0.0081967394727002, 0
184, 0.050624635983473, 0.18760822383082, 0
185, 0.10178155462772, 0.18332419814381, 0
186, 0.15427972662679, 0.17912292969227, 0
187, 0.051504713407198, 0.24427837911176, 0
188, 0.10371612430555, 0.2420033598014, 0
189, 0.1572513329725, 0.24035534007889, 0
190, 0.21260955896268, 0.24030972604387, 0
191, 0.2692699637288, 0.24505439253281, 0
192, 0.36171639923311, 0.25430783994648, 0
193, 0.38686724315624, 0.2517281717272, 0
194, 0.46835459823743, 0.25970132014144, 0
195, 0.27649692199615, 0.1744458651798, 0
196, 0.41498097721531, 0.25466912772376, 0
197, 0.047691877582322, 0.102440556057, 0
198, 0.04197625670864, -0.052914883150194, 0
199, 0.15183278752581, -0.17350845782068, 0
200, 0.060686595061965, -0.028378410815552, 0
201, 0.11972994158248, 0.091159735245915, 0
202, 0.074827242675085, -0.18435487766671, 0
203, 0.020789083217084, -0.028796513759365, 0
204, 0.080991777443964, -0.009154169971836, 0
205, 0.19360253610865, -0.09912530460028, 0
206, 0.021893867109275, -0.081054417745603, 0
207, 0.30379872488707, -0.22981795859242, 0
208, 0.2319774854446, 0.13795198937037, 0
209, 0.12711819047662, -0.0052178898040083, 0
210, 0.021028347244987, -0.0027996959494459, 0
211, 0.094255086496007, -0.12313081412686, 0
212, 0.022442902677501, 0.050505228000201, 0
213, 0.21787166262504, 0.072958075247166, 0
214, 0.2377443649988, -0.058172439820708, 0
215, 0.044763168658349, 0.047423204818478, 0
216, 0.28401381920969, 0.12221461575191, 0
217, 0.23614292990965, 0.037845977818692, 0
218, 0.049783420718864, -0.18738081669239, 0
219, 0.62437238516008, -0.28213070159623, 0
220, 0.47060238981546, -0.25942673812719, 0
221, 0.73292416558918, 0.094539379438968, 0
222, 0.77032963016957, 0.069794285406306, 0
223, 0.74511754172698, 0.1984206370438, 0
224, 0.89003137232875, 0.13441650061955, 0
225, 0.94527339410453, 0.13497711142001, 0
226, 0.94614715813799, 0.19114783505389, 0
227, 0.83993237402733, 0.21984475572634, 0
228, 0.89215308364388, 0.19112527025694, 0
229, 0.94717696088077, 0.24614134107857, 0
230, 0.84081264809075, 0.24657860811554, 0
231, 0.89402255777783, 0.2459714012319, 0
232, 0.73691934939765, 0.2448881491551, 0
233, 0.78848681143045, 0.2472029106908, 0
234, 0.67590564198408, 0.23380939253892, 0
235, 0.6215848969334, 0.24924356203812, 0
236, 0.52059061958492, 0.26020161014732, 0
237, 0.784704167805, 0.17244948169656, 0
238, 0.66769739398914, 0.18812875555999, 0
239, 0.83091824111348, 0.073061627791267, 0
240, 0.80032535477866, 0.10696575701219, 0
241, 0.88889067437197, 0.075308013815276, 0
242, 0.94489384989322, 0.078146763426775, 0
243, 0.89802154320966, -0.071135494651924, 0
244, 0.8659066985577, -0.051889605695773, 0
245, 0.94543045173251, 0.021129921794837, 0
246, 0.83198662129396, 0.0080189366997756, 0
247, 0.77790615124, -0.12545015482596, 0
248, 0.9495638982875, -0.088924901457297, 0
249, 0.94717113622625, -0.035121164092928, 0
250, 0.87845330539859, -0.14275503481524, 0
251, 0.88055935964465, -0.12000218651325, 0
252, 0.88057375036238, -0.099308837590706, 0
253, 0.76801080423726, -0.060571569809952, 0
254, 0.55211126699967, -0.28704197085136, 0
255, 0.66727244063134, -0.21201921042856, 0
256, 0.72243465206643, -0.18557593775137, 0
257, 0.67317178049958, -0.25636267991348, 0
258, 0.84715525860385, -0.19173961433099, 0
259, 0.89874042421631, -0.19364786624261, 0
260, 0.94941197263404, -0.19358837239647, 0
261, 0.95025239551009, -0.14100265890391, 0
262, 0.77288564705896, -0.028549518545085, 0
263, 0.86032791935209, -0.11895914872999, 0
264, 0.79163666736138, -0.18788860487996, 0
265, 0.72746664599584, -0.24815429477502, 0
266, 0.78563627630944, -0.24523045629422, 0
267, 0.84195293771828, -0.24573915925395, 0
268, 0.89603945117819, -0.24649495838824, 0
269, 0.94849566055439, -0.24677517295771, 0
270, 0.65158476846686, 0.20814303779357, 0
271, 0.61816364444005, 0.22426745581962, 0
272, 0.64656420082725, 0.24570177641612, 0
273, 0.19981610735475, -0.131970022586, 0
274, 0.18475454771326, 0.011084414064672, 0
275, 0.18749448611697, -0.064927913655699, 0
276, 0.77721866915913, 0.14619919665037, 0
277, 0.7878265426624, 0.19690694153956, 0
278, 0.73800082241353, 0.13843321405828, 0
279, 0.30899972661798, -0.18429901717514, 0
280, 0.27257424239031, -0.22930535527128, 0
281, 0.32340398807342, 0.23474930704612, 0
282, 0.35289703438026, 0.23261111666509, 0
283, 0.34074864210147, 0.25763750044589, 0
284, 0.56726139460334, -0.22826221088478, 0
285, 0.67070244516189, -0.2343380506127, 0
286, 0.39676271306191, -0.22463083071749, 0
287, 0.024918960463609, 0.16153546644952, 0
288, 0.097474265521913, -0.15180801889051, 0
289, 0.19895461674072, 0.10926038241452, 0
290, 0.070601835917491, -0.12769703832078, 0
291, 0.13465298105607, 0.025352042002975, 0
292, 0.80585137967469, -0.13034417315749, 0
293, 0.75949362884287, -0.091327304769231, 0
294, 0.84026122908469, -0.11135207506468, 0
295, 0.70942278311111, 0.24091145491274, 0
296, 0.69167097269592, 0.20369389740392, 0
297, 0.73666419708467, 0.17279069502522, 0
298, 0.66257781440085, -0.18916420127393, 0
299, 0.69392522433854, -0.16635265649588, 0
300, 0.69205474495096, -0.20414551462688, 0
301, 0.7493047568715, -0.12090437178192, 0
302, 0.83250855098159, -0.026121918068704, 0
303, 0.90252334883258, -0.11888326779773, 0
304, 0.37624009658723, 0.22078100391398, 0
305, 0.40972198912753, 0.22984855876111, 0
306, 0.54883258875574, -0.26187372823941, 0
307, 0.32817281029172, -0.26802960113785, 0
308, 0.41524171401909, -0.25328956212092, 0
309, 0.069426152943969, 0.071026571416098, 0
310, 0.14805729132347, 0.11725212935693, 0
311, 0.14418296917939, 0.086589224853932, 0
312, 0.34260364372233, -0.20224626246155, 0
313, 0.64335049766448, -0.22045613542856, 0
314, 0.35508260380037, -0.27074950584068, 0
315, 0.67496455327808, -0.27819746736413, 0
316, 0.5289139683725, -0.26890320318312, 0
317, 0.59930709796992, -0.28395839472191, 0
318, 0.36747294045357, 0.27709258940115, 0
319, 0.31955203197618, 0.27720369475558, 0
320, 0.34338679851488, 0.27806488752212, 0
321, 0.62464493055812, 0.27441582851943, 0
322, 0.67841795325122, 0.26955561597091, 0
323, 0.65076400399575, 0.27234611267346, 0
324, 0.97504632525941, -0.1395766249168, 0
325, 0.95018499826684, -0.11500098266503, 0
326, 0.97465643432842, -0.0862129978545, 0
327, 0.97497334328614, -0.11292540926954, 0
328, 0.071557811361943, 0.099102975062553, 0
329, 0.098574362575857, -0.014648595315866, 0
330, 0.1514966567669, 0.14812088489712, 0
331, 0.21293366947569, 0.041146169058431, 0
332, 0.21925608581625, -0.094239412461245, 0
333, 0.074894303299415, 0.15651815532272, 0
334, 0.06698971511945, 0.0437778475336, 0
335, 0.97276102103003, 0.023734447242798, 0
336, 0.94502786944681, 0.049621337185058, 0
337, 0.97249967667165, 0.079585536068741, 0
338, 0.97256707109761, 0.051648389205706, 0
339, 0.051601316456328, 0.27221789873302, 0
340, 0.025710771695741, 0.24569420719507, 0
341, 0.025756784835161, 0.27294039050287, 0
342, 0.97357251260031, -0.03182039529032, 0
343, 0.94613882053437, -0.007195226427016, 0
344, 0.97309638187571, -0.0041350398032294, 0
345, 0.24133921544736, 0.068591972765123, 0
346, 0.25646793695796, -0.02529495868619, 0
347, 0.024440423961495, 0.13333616057901, 0
348, 0.023576466918333, -0.13496319259061, 0
349, 0.21267934066442, 0.2704949181987, 0
350, 0.1846760621222, 0.24000376762706, 0
351, 0.15776043960304, 0.27030947060744, 0
352, 0.18509983311346, 0.27021965414554, 0
353, 0.97470644391885, -0.19324115576112, 0
354, 0.94992620711491, -0.16718699519125, 0
355, 0.9749270553287, -0.16636688029525, 0
356, 0.048873510192347, 0.13062602298133, 0
357, 0.062177850898949, -0.050614110881178, 0
358, 0.21321752639521, -0.061145126453567, 0
359, 0.81447527071093, 0.24699843175382, 0
360, 0.787991016151, 0.27342376752152, 0
361, 0.8414725183696, 0.27328103474015, 0
362, 0.81468517465496, 0.27342631736655, 0
363, 0.24098001664525, 0.24176974245248, 0
364, 0.26786422941067, 0.27293304570615, 0
365, 0.24038035406866, 0.27133747261261, 0
366, 0.5969193423756, 0.25259453237149, 0
367, 0.57352062416563, 0.27780498345013, 0
368, 0.59904386769311, 0.27619167826764, 0
369, 0.76279546242901, 0.24672670157205, 0
370, 0.73446996468847, 0.27211715558391, 0
371, 0.76133094217115, 0.27305996005976, 0
372, 0.97267126862504, 0.1355422893411, 0
373, 0.94567872223529, 0.16318247957347, 0
374, 0.97309320486121, 0.19162539443603, 0
375, 0.97286372842548, 0.16363873978931, 0
376, 0.043569014248736, -0.078143798701673, 0
377, 0.29153758154931, -0.14504772505214, 0
378, 0.085954596801957, -0.069734310121708, 0
379, 0.57476548858679, -0.28563151705241, 0
380, 0.33400627960728, -0.23563202283705, 0
381, 0.36206215952524, -0.24227619314041, 0
382, 0.94843208709366, -0.062386676473588, 0
383, 0.97413850521558, -0.05919007927825, 0
384, 0.15965975497255, -0.2682487962641, 0
385, 0.18537311112225, -0.23453074473682, 0
386, 0.21565098738846, -0.26635842694567, 0
387, 0.18754468269613, -0.26727381126211, 0
388, 0.025291245871565, 0.18978951706615, 0
389, 0.1778088897868, 0.14509257074525, 0
390, 0.095545120078908, 0.095354790662625, 0
391, 0.81411466095438, -0.24532666555008, 0
392, 0.84022729194253, -0.27288303416784, 0
393, 0.78405144481514, -0.2728223982745, 0
394, 0.81225112775658, -0.272751419077, 0
395, 0.94499063897525, 0.10662117600371, 0
396, 0.97254156238931, 0.10756068355634, 0
397, 0.1256325055646, 0.15103428085844, 0
398, 0.024879565992276, -0.19023754610364, 0
399, 0.64567935090336, -0.24059746503096, 0
400, 0.47848149875936, -0.24070409874516, 0
401, 0.54082765292302, -0.23459273898861, 0
402, 0.86737179672129, 0.24619847633071, 0
403, 0.89495255052608, 0.273032945824, 0
404, 0.86823343126118, 0.2731263716182, 0
405, 0.1302883527618, 0.2410737119527, 0
406, 0.10402978000691, 0.27106407659102, 0
407, 0.13075256789169, 0.27061960225752, 0
408, 0.41995825863736, 0.27771047664853, 0
409, 0.39323139183771, 0.27660181241423, 0
410, 0.13052392012364, -0.23849834864532, 0
411, 0.10473686447371, -0.27016012937689, 0
412, 0.13203869154965, -0.26922072322941, 0
413, 0.86923095297986, -0.24617516330416, 0
414, 0.89524172128354, -0.27322017410506, 0
415, 0.86790865988209, -0.27306599119271, 0
416, 0.077483532534648, 0.24307282268482, 0
417, 0.077699145858936, 0.27159847283421, 0
418, 0.70703827891141, 0.27063943218642, 0
419, 0.064937572427523, -0.074587960475696, 0
420, 0.064344082151685, 0.017873075235163, 0
421, 0.072921266460784, -0.15578211852664, 0
422, 0.098865713893922, -0.041333972422116, 0
423, 0.29608342397029, 0.25028315173452, 0
424, 0.29441161707482, 0.27516267383545, 0
425, 0.94837680267004, -0.27339230598453, 0
426, 0.97430672731708, -0.2468880141919, 0
427, 0.97426642524903, -0.27347129114622, 0
428, 0.025604017439403, -0.24545139322908, 0
429, 0.051587484331881, -0.27191505186006, 0
430, 0.025706113377849, -0.27276560062752, 0
431, 0.27220997915629, -0.26535484298782, 0
432, 0.48857083131222, -0.27966528096005, 0
433, 0.30041675245906, -0.26597411775363, 0
434, 0.75660152672317, -0.24594444445144, 0
435, 0.7280598856439, -0.27443698120167, 0
436, 0.75594336628766, -0.27330917340061, 0
437, 0.26228930067394, -0.15384582170661, 0
438, 0.13649292545004, -0.080570784105978, 0
439, 0.22428320702145, 0.10476941194527, 0
440, 0.2425317709992, -0.23062855639799, 0
441, 0.24384029201244, -0.26563411537635, 0
442, 0.69955450335858, -0.25224928589644, 0
443, 0.70111982009158, -0.27622747173559, 0
444, 0.94664450321909, 0.21880009411786, 0
445, 0.97362043571671, 0.24664649377798, 0
446, 0.97334437045928, 0.21928540871225, 0
447, 0.94779151579272, 0.27315416677209, 0
448, 0.97393420657686, 0.27341968474393, 0
449, 0.077371625176188, -0.24210255893532, 0
450, 0.077979840370248, -0.27105227825165, 0
451, 0.9224226594166, -0.2466787022504, 0
452, 0.92198455162222, -0.27332228825274, 0
453, 0.57030807598774, 0.23435633940903, 0
454, 0.51821427165568, 0.24127605285003, 0
455, 0.54634078599289, 0.2585772668138, 0
456, 0.54453654309826, 0.23874424456391, 0
457, 0.88921639809483, 0.10511454988283, 0
458, 0.91774616580634, 0.13453593491356, 0
459, 0.91706647448177, 0.076693502505112, 0
460, 0.91725381463985, 0.10575787251986, 0
461, 0.049856156780379, 0.15907769855118, 0
462, 0.043148990258286, 0.021065274573774, 0
463, 0.090405162882637, -0.095482719472078, 0
464, 0.26831030362202, -0.085053475748605, 0
465, 0.92063559429223, 0.24594176242494, 0
466, 0.92143783372864, 0.27303464006777, 0
467, 0.920690364103, -0.039065673138345, 0
468, 0.91785523374627, 0.018269966158381, 0
469, 0.91896416710658, -0.010711063885568, 0
470, 0.79775126322502, -0.062873042512185, 0
471, 0.92501106701686, -0.09195139811308, 0
472, 0.92578797179816, -0.14220027078392, 0
473, 0.92590418811018, -0.11704303577504, 0
474, 0.051174289022343, 0.21604139741651, 0
475, 0.025555633504346, 0.21785604461275, 0
476, 0.74114041743254, -0.058754246679679, 0
477, 0.7215451279862, -0.11556850489672, 0
478, 0.73263417244542, -0.087736498130701, 0
479, 0.70059667909054, 0.14494338158766, 0
480, 0.70554369591138, 0.18005425619017, 0
481, 0.8385634923369, 0.19288820212739, 0
482, 0.74834713785886, 0.18308622075065, 0
483, 0.38886895110382, -0.24830965963457, 0
484, 0.45956828641731, -0.2791949153716, 0
485, 0.61730099232635, -0.21062739827745, 0
486, 0.57379878920679, -0.27131494144982, 0
487, 0.94888795543865, -0.22014420110214, 0
488, 0.97447477606489, -0.22008373892877, 0
489, 0.050716932074694, -0.21557242445135, 0
490, 0.025320442469166, -0.21788167857134, 0
491, 0.71702789398256, 0.2138512913137, 0
492, 0.74088612365808, 0.2197591299916, 0
493, 0.80980186066585, 0.16803484441082, 0
494, 0.047079542978731, -0.13156845863207, 0
495, 0.27854586234371, -0.11438227098876, 0
496, 0.7744948836088, 0.0035671206966724, 0
497, 0.70825694396387, -0.14227348613413, 0
498, 0.048564037737716, -0.1593075855013, 0
499, 0.023865363589839, 0.10545510274781, 0
500, 0.23356936664585, -0.15994966878748, 0
501, 0.23346271450891, 0.0063575408400041, 0
502, 0.88909919578597, 0.04522833993362, 0
503, 0.91725138099671, 0.04747989256107, 0
504, 0.74812480419579, 0.0016842012829332, 0
505, 0.77355888984549, 0.035849763035571, 0
506, 0.74668624214194, 0.03214300389364, 0
507, 0.15616495968443, 0.20995601203888, 0
508, 0.12779977580491, 0.18119721455973, 0
509, 0.10297386752655, 0.21274911457971, 0
510, 0.12933896655923, 0.21126021264295, 0
511, 0.041763072828593, -0.0042079531618352, 0
512, 0.30102777718549, 0.15213553289634, 0
513, 0.073378991071576, 0.1276701835964, 0
514, 0.80270375939199, 0.0055229818939386, 0
515, 0.74634385807849, -0.028730769033079, 0
516, 0.13986554219755, 0.056010376504167, 0
517, 0.25802806393923, 0.03495819455847, 0
518, 0.081326098104175, -0.047215105999361, 0
519, 0.62091271680014, -0.24660903099747, 0
520, 0.42297506437071, -0.23221543687898, 0
521, 0.5230519028133, 0.27988514571548, 0
522, 0.54831829468324, 0.27908025860319, 0
523, 0.10219642813792, -0.2106192775967, 0
524, 0.021146660377315, -0.054734989443514, 0
525, 0.15516764375711, -0.20492870190884, 0
526, 0.12845796303162, -0.207872552246, 0
527, 0.84418867146761, -0.21862071505186, 0
528, 0.87318302035599, -0.19301272739104, 0
529, 0.89723891918165, -0.2199196153843, 0
530, 0.87097475729129, -0.21942327397988, 0
531, 0.90182470870625, -0.14294099798653, 0
532, 0.92298603401865, -0.066185777327791, 0
533, 0.49455971860385, 0.26059334913146, 0
534, 0.47188021094177, 0.27979678992926, 0
535, 0.49752802535452, 0.28013349720194, 0
536, 0.51409896700915, -0.28272488088681, 0
537, 0.37038040642434, -0.21479282669084, 0
538, 0.40733163807004, -0.27593798432671, 0
539, 0.76440064219521, 0.22174878935545, 0
540, 0.83380151282361, 0.13630025123417, 0
541, 0.78866889002556, 0.22165976420066, 0
542, 0.83140074364982, 0.10534203126253, 0
543, 0.8052654532816, 0.13950870791723, 0
544, 0.023194790222185, 0.077811354211658, 0
545, 0.21194639466367, 0.20874083061385, 0
546, 0.18142550413437, 0.17717664477525, 0
547, 0.18361483544893, 0.20900128716631, 0
548, 0.59512225934871, 0.22887263214513, 0
549, 0.86206797046424, 0.13486778264299, 0
550, 0.75370125494676, 0.15898427473299, 0
551, 0.86522233082058, 0.19172996054104, 0
552, 0.89108738486502, 0.16307282883225, 0
553, 0.86372499694755, 0.16375440260979, 0
554, 0.91915728551513, 0.1909624537996, 0
555, 0.91842089962316, 0.16294698212431, 0
556, 0.46475447804151, 0.239909301642, 0
557, 0.49154989219214, 0.24168819473515, 0
558, 0.44986556520853, -0.23763952393692, 0
559, 0.44192536697522, 0.25761797534962, 0
560, 0.44607867662457, 0.27892836717779, 0
561, 0.11605214588936, 0.061759726232965, 0
562, 0.20565571042861, -0.16488136383921, 0
563, 0.16885795451432, 0.081876675400771, 0
564, 0.17345017044474, 0.11335133120332, 0
565, 0.24430200345887, -0.089676710039379, 0
566, 0.61905827008839, -0.22874951978894, 0
567, 0.271163346785, -0.1905174225815, 0
568, 0.64952079620841, -0.28019041481108, 0
569, 0.64087022894692, -0.19961154997935, 0
570, 0.33882289587244, 0.24176259303246, 0
571, 0.16417852263673, 0.050058098074513, 0
572, 0.64773370769088, -0.26044312466247, 0
573, 0.62270564340313, -0.26436900489193, 0
574, 0.43326505356235, -0.27787093955639, 0
575, 0.30981962147685, 0.1993116383199, 0
576, 0.32448200519628, 0.17656584678121, 0
577, 0.43775874095614, 0.23596874146469, 0
578, 0.55231310022156, -0.27439348565163, 0
579, 0.21044535640559, -0.19848095751754, 0
580, 0.18243439144779, -0.2018043257009, 0
581, 0.82018870479695, -0.1898989786854, 0
582, 0.78785373778696, -0.21691592106683, 0
583, 0.81660036753673, -0.21765681015561, 0
584, 0.092627896743783, 0.066781808322726, 0
585, 0.26351870557597, 0.064127570212937, 0
586, 0.82522976028563, -0.16252745774764, 0
587, 0.87577457084541, -0.16728798274228, 0
588, 0.73754834977801, -0.15093887986295, 0
589, 0.83172617613632, -0.13611169039309, 0
590, 0.076089078643363, 0.18546323008155, 0
591, 0.076950729046344, 0.21434807869279, 0
592, 0.76331035975162, 0.17829994003089, 0
593, 0.83136542392293, 0.040662280024364, 0
594, 0.80214736706167, 0.038490564992144, 0
595, 0.86273484926446, -0.0201421921337, 0
596, 0.8898555305368, 0.015069177176477, 0
597, 0.78766402628414, -0.095423813025695, 0
598, 0.79789035845015, -0.15889002822146, 0
599, 0.18876392290602, 0.045101407133682, 0
600, 0.078287923388481, -0.028202758877107, 0
601, 0.893124780419, 0.21870915139277, 0
602, 0.91989406652089, 0.21860739101669, 0
603, 0.26083513257046, -0.055464686871921, 0
604, 0.085217526697802, 0.013409547576926, 0
605, 0.089204059525668, 0.039177770007302, 0
606, 0.92410569493044, -0.19378210120081, 0
607, 0.92316739624059, -0.22012821140537, 0
608, 0.10012532499663, 0.15383757694276, 0
609, 0.076311181776243, -0.21317358704003, 0
610, 0.14768462986474, -0.14235415516601, 0
611, 0.12291197604699, 0.12097041802341, 0
612, 0.021671348259543, 0.023614774853309, 0
613, 0.20463549256025, 0.14183967336319, 0
614, 0.24891184479244, 0.099469460067046, 0
615, 0.2400956561384, 0.17427919155244, 0
616, 0.098036441762704, 0.12445317757293, 0
617, 0.045372066683452, -0.10442866713691, 0
618, 0.44197054235883, -0.25705008832659, 0
619, 0.23963742090349, -0.19484009361906, 0
620, 0.68431323648148, 0.16678201264962, 0
621, 0.83649050135374, 0.16527555497141, 0
622, 0.86641648645881, 0.21912176493899, 0
623, 0.25273052057784, -0.12106467906335, 0
624, 0.90158078567541, -0.095415011923725, 0
625, 0.92506644814519, -0.16777145142294, 0
626, 0.061884667564996, -0.0061261447587314, 0
627, 0.22632142260128, -0.12674668401865, 0
628, 0.27208729848081, 0.2145486401611, 0
629, 0.241496805861, 0.2099558887153, 0
630, 0.14269091947806, -0.1114131393993, 0
631, 0.041194238172628, -0.028572141642447, 0
632, 0.024293303566669, -0.16251853986967, 0
633, 0.85543495215898, -0.14080432735716, 0
634, 0.80174035338178, -0.028056151111681, 0
635, 0.30056139058193, 0.22516646040873, 0
636, 0.15904968625607, 0.016258850290351, 0
637, 0.11160784112256, 0.033167337728712, 0
638, 0.11393437359912, -0.027802169406585, 0
639, 0.72596890541169, -0.21989832771495, 0
640, 0.76039167058723, -0.18623501251456, 0
641, 0.75757818433804, -0.21713476078025, 0
642, 0.8602236079106, 0.074079315824375, 0
643, 0.86046330112589, 0.042921263453742, 0
644, 0.8125528682754, 0.19466546800978, 0
645, 0.76520059324248, 0.19884037762655, 0
646, 0.86071200485902, 0.10488392757215, 0
647, 0.2555780742065, 0.0050285107161415, 0
648, 0.86124527133048, 0.011544882888653, 0
649, 0.76864212355204, -0.15522617757528, 0
650, 0.81608252260845, -0.10126116784333, 0
651, 0.89387829339599, -0.044225920442721, 0
652, 0.89131528210936, -0.01494302729937, 0
653, 0.04631516374589, 0.074637384398931, 0
654, 0.19355539675537, 0.077330491954356, 0
655, 0.10011343883727, -0.18105570922408, 0
656, 0.80086033579191, 0.072036328543849, 0
657, 0.74195385809087, 0.063051225017177, 0
658, 0.69685871295741, -0.22796893424001, 0
659, 0.72608643619576, 0.19118131914878, 0
660, 0.85294365895657, -0.090133509881758, 0
661, 0.63885305333832, 0.22512424198324, 0
662, 0.25939609611518, 0.13232985066495, 0
663, 0.717106630401, 0.1217208835479, 0
664, 0.5718113924103, -0.25701256962034, 0
665, 0.3485558272616, 0.19684381311952, 0
666, 0.59619336266821, -0.2520972036765, 0
667, 0.27201758621154, 0.092989828374026, 0
668, 0.067895256183152, -0.10046213115074, 0
669, 0.85094478274756, -0.16554702667372, 0
670, 0.81391528704505, 0.22079073050419, 0
671, 0.6831220978948, -0.18559076271836, 0
672, 0.87408318549356, -0.078330713046721, 0
673, 0.33421947386014, 0.21611613164427, 0
674, 0.53329289986211, -0.28705081451696, 0
675, 0.59437154687596, -0.23620522505429, 0
676, 0.56939431541283, -0.24263614875253, 0
677, 0.54385293974141, -0.24871922074678, 0
678, 0.51021152303196, -0.24051458594175, 0
679, 0.53826053195243, -0.27699798024305, 0
680, 0.50839682650026, -0.25963162695734, 0
681, 0.71997522691845, 0.15902022267406, 0
682, 0.7637689035281, 0.11112355912304, 0
683, 0.86479169045691, -0.10301188033234, 0
684, 0.83316765625295, -0.066558006290454, 0
685, 0.23383538326054, -0.025946159013416, 0
686, 0.2093499935646, -0.026507346572665, 0
687, 0.18251655199865, -0.026977272027763, 0
688, 0.12782607742475, -0.050078101687166, 0
689, 0.11312029391583, -0.088995634542375, 0
690, 0.1182092121452, -0.11769450555987, 0
691, 0.12235436430176, -0.14731597566624, 0
692, 0.12575079590581, -0.17743730566204, 0
693, 0.17844053642271, -0.16932044513435, 0
694, 0.17352511296036, -0.13713924579266, 0
695, 0.16786723519081, -0.10481208498554, 0
696, 0.16123668930016, -0.070781999472771, 0
697, 0.092002063011703, -0.028061438582045, 0
698, 0.10591128553541, 0.006567449941397, 0
699, 0.10672611056041, -0.06242913131109, 0
700, 0.15150969227322, -0.027366481044202, 0
******* E L E M E N T S *************
*ELEMENT, type=CPS4, ELSET=Surface1
1, 280, 440, 441, 431
2, 483, 381, 314, 179
3, 313, 399, 285, 255
4, 399, 572, 257, 285
5, 3, 30, 317, 379
6, 675, 666, 519, 566
7, 519, 573, 572, 399
8, 94, 87, 320, 318
9, 304, 665, 155, 138
10, 87, 95, 319, 320
11, 234, 322, 323, 272
12, 272, 323, 321, 235
13, 323, 72, 80, 321
14, 322, 79, 72, 323
15, 58, 48, 327, 324
16, 324, 327, 325, 261
17, 327, 326, 248, 325
18, 48, 59, 326, 327
19, 667, 157, 136, 216
20, 687, 686, 183, 274
21, 209, 291, 637, 698
22, 627, 500, 437, 623
23, 330, 186, 508, 397
24, 626, 511, 631, 200
25, 61, 51, 338, 335
26, 335, 338, 336, 245
27, 338, 337, 242, 336
28, 51, 62, 337, 338
29, 100, 93, 341, 339
30, 339, 341, 340, 187
31, 341, 101, 112, 340
32, 93, 8, 101, 341
33, 60, 50, 344, 342
34, 342, 344, 343, 249
35, 344, 335, 245, 343
36, 50, 61, 335, 344
37, 638, 329, 697, 422
38, 461, 287, 347, 356
39, 437, 567, 279, 377
40, 97, 90, 352, 349
41, 349, 352, 350, 190
42, 352, 351, 189, 350
43, 90, 98, 351, 352
44, 57, 47, 355, 353
45, 353, 355, 354, 260
46, 355, 324, 261, 354
47, 47, 58, 324, 355
48, 185, 590, 333, 608
49, 388, 113, 103, 287
50, 508, 185, 608, 397
51, 599, 331, 213, 654
52, 230, 361, 362, 359
53, 359, 362, 360, 233
54, 362, 69, 77, 360
55, 361, 76, 69, 362
56, 191, 364, 365, 363
57, 363, 365, 349, 190
58, 365, 89, 97, 349
59, 364, 96, 89, 365
60, 80, 73, 368, 321
61, 321, 368, 366, 235
62, 368, 367, 178, 366
63, 73, 6, 367, 368
64, 77, 70, 371, 360
65, 360, 371, 369, 233
66, 371, 370, 232, 369
67, 70, 78, 370, 371
68, 64, 374, 375, 53
69, 53, 375, 372, 63
70, 375, 373, 225, 372
71, 374, 226, 373, 375
72, 217, 517, 585, 345
73, 291, 516, 561, 637
74, 346, 159, 134, 647
75, 171, 485, 167, 126
76, 286, 163, 130, 537
77, 680, 678, 400, 220
78, 381, 537, 312, 380
79, 248, 326, 383, 382
80, 382, 383, 342, 249
81, 383, 49, 60, 342
82, 326, 59, 49, 383
83, 20, 13, 387, 384
84, 384, 387, 385, 175
85, 387, 386, 176, 385
86, 13, 21, 386, 387
87, 489, 218, 398, 490
88, 204, 626, 200, 600
89, 565, 623, 495, 464
90, 636, 571, 516, 291
91, 266, 393, 394, 391
92, 391, 394, 392, 267
93, 394, 34, 42, 392
94, 393, 41, 34, 394
95, 242, 337, 396, 395
96, 395, 396, 372, 225
97, 396, 52, 63, 372
98, 337, 62, 52, 396
99, 498, 494, 348, 632
100, 562, 579, 619, 500
101, 306, 578, 486, 664
102, 179, 314, 16, 24
103, 678, 165, 128, 400
104, 680, 220, 484, 432
105, 231, 403, 404, 402
106, 402, 404, 361, 230
107, 404, 68, 76, 361
108, 403, 75, 68, 404
109, 98, 91, 407, 351
110, 351, 407, 405, 189
111, 407, 406, 188, 405
112, 91, 99, 406, 407
113, 7, 86, 409, 408
114, 665, 673, 575, 576
115, 192, 318, 320, 283
116, 86, 94, 318, 409
117, 173, 411, 412, 410
118, 410, 412, 384, 175
119, 412, 12, 20, 384
120, 411, 19, 12, 412
121, 42, 35, 415, 392
122, 392, 415, 413, 267
123, 415, 414, 268, 413
124, 35, 43, 414, 415
125, 99, 92, 417, 406
126, 406, 417, 416, 188
127, 417, 339, 187, 416
128, 92, 100, 339, 417
129, 78, 71, 418, 370
130, 370, 418, 295, 232
131, 418, 322, 234, 295
132, 71, 79, 322, 418
133, 329, 204, 600, 697
134, 700, 636, 291, 209
135, 499, 104, 115, 544
136, 516, 311, 201, 561
137, 673, 281, 635, 575
138, 423, 424, 364, 191
139, 424, 88, 96, 364
140, 319, 95, 88, 424
141, 44, 37, 427, 425
142, 425, 427, 426, 269
143, 427, 45, 56, 426
144, 37, 4, 45, 427
145, 121, 111, 430, 428
146, 428, 430, 429, 174
147, 430, 10, 18, 429
148, 111, 1, 10, 430
149, 22, 15, 433, 431
150, 524, 203, 117, 107
151, 279, 567, 280, 207
152, 678, 401, 127, 165
153, 265, 435, 436, 434
154, 434, 436, 393, 266
155, 436, 33, 41, 393
156, 435, 40, 33, 436
157, 206, 524, 107, 118
158, 571, 563, 311, 516
159, 275, 205, 332, 358
160, 358, 332, 565, 214
161, 21, 14, 441, 386
162, 386, 441, 440, 176
163, 14, 22, 431, 441
164, 257, 315, 443, 442
165, 442, 443, 435, 265
166, 443, 32, 40, 435
167, 315, 39, 32, 443
168, 64, 54, 446, 374
169, 374, 446, 444, 226
170, 446, 445, 229, 444
171, 54, 65, 445, 446
172, 65, 55, 448, 445
173, 445, 448, 447, 229
174, 448, 66, 74, 447
175, 55, 5, 66, 448
176, 174, 429, 450, 449
177, 449, 450, 411, 173
178, 450, 11, 19, 411
179, 429, 18, 11, 450
180, 43, 36, 452, 414
181, 414, 452, 451, 268
182, 452, 425, 269, 451
183, 36, 44, 425, 452
184, 178, 455, 456, 453
185, 453, 456, 141, 151
186, 456, 454, 152, 141
187, 455, 236, 454, 456
188, 241, 459, 460, 457
189, 457, 460, 458, 224
190, 460, 395, 225, 458
191, 459, 242, 395, 460
192, 215, 212, 612, 462
193, 218, 498, 632, 398
194, 347, 114, 104, 499
195, 229, 447, 466, 465
196, 465, 466, 403, 231
197, 466, 67, 75, 403
198, 447, 74, 67, 466
199, 249, 343, 469, 467
200, 586, 581, 258, 669
201, 587, 177, 531, 250
202, 343, 245, 468, 469
203, 648, 596, 502, 643
204, 684, 660, 672, 244
205, 473, 325, 248, 471
206, 472, 261, 325, 473
207, 187, 340, 475, 474
208, 474, 475, 388, 184
209, 475, 102, 113, 388
210, 340, 112, 102, 475
211, 169, 477, 478, 123
212, 123, 478, 476, 170
213, 649, 588, 256, 640
214, 595, 652, 596, 648
215, 553, 551, 481, 621
216, 479, 681, 480, 620
217, 657, 147, 122, 506
218, 221, 663, 148, 145
219, 485, 569, 125, 167
220, 558, 164, 129, 520
221, 618, 558, 520, 308
222, 219, 568, 572, 573
223, 269, 426, 488, 487
224, 487, 488, 353, 260
225, 488, 46, 57, 353
226, 426, 56, 46, 488
227, 686, 358, 214, 685
228, 274, 183, 331, 599
229, 490, 428, 174, 489
230, 110, 121, 428, 490
231, 276, 543, 493, 237
232, 620, 480, 296, 238
233, 681, 297, 659, 480
234, 240, 542, 540, 543
235, 356, 347, 499, 197
236, 290, 668, 617, 494
237, 310, 330, 397, 611
238, 420, 462, 511, 626
239, 251, 303, 624, 252
240, 299, 497, 124, 168
241, 497, 477, 169, 124
242, 589, 586, 669, 633
243, 390, 328, 309, 584
244, 647, 134, 158, 517
245, 612, 116, 106, 210
246, 184, 388, 287, 461
247, 377, 279, 131, 161
248, 526, 692, 655, 523
249, 623, 437, 377, 495
250, 690, 689, 463, 211
251, 245, 336, 503, 468
252, 598, 264, 581, 586
253, 503, 459, 241, 502
254, 336, 242, 459, 503
255, 650, 597, 247, 292
256, 504, 506, 122, 9
257, 238, 296, 234, 270
258, 670, 359, 233, 541
259, 189, 405, 510, 507
260, 507, 510, 508, 186
261, 510, 509, 185, 508
262, 405, 188, 509, 510
263, 376, 198, 524, 206
264, 605, 334, 420, 604
265, 348, 182, 108, 119
266, 668, 419, 376, 617
267, 496, 505, 506, 504
268, 476, 515, 146, 170
269, 515, 504, 9, 146
270, 177, 625, 472, 531
271, 202, 421, 498, 218
272, 328, 197, 653, 309
273, 603, 464, 160, 133
274, 674, 254, 578, 679
275, 38, 31, 568, 219
276, 380, 312, 279, 207
277, 680, 316, 306, 677
278, 29, 27, 254, 674
279, 6, 81, 522, 367
280, 367, 522, 455, 178
281, 522, 521, 236, 455
282, 81, 84, 521, 522
283, 175, 525, 526, 410
284, 410, 526, 523, 173
285, 378, 518, 357, 419
286, 616, 513, 328, 390
287, 267, 413, 530, 527
288, 527, 530, 528, 258
289, 530, 529, 259, 528
290, 413, 268, 529, 530
291, 247, 301, 588, 649
292, 598, 649, 640, 264
293, 532, 382, 249, 467
294, 471, 248, 382, 532
295, 84, 82, 535, 521
296, 521, 535, 533, 236
297, 535, 534, 194, 533
298, 82, 85, 534, 535
299, 316, 679, 578, 306
300, 536, 26, 29, 674
301, 380, 207, 433, 307
302, 618, 308, 538, 574
303, 542, 646, 549, 540
304, 663, 479, 144, 148
305, 240, 656, 239, 542
306, 644, 670, 541, 277
307, 480, 659, 491, 296
308, 622, 402, 230, 227
309, 682, 240, 543, 276
310, 143, 238, 270, 150
311, 563, 564, 310, 311
312, 500, 619, 567, 437
313, 571, 599, 654, 563
314, 288, 211, 290, 421
315, 189, 507, 547, 350
316, 350, 547, 545, 190
317, 547, 546, 181, 545
318, 507, 186, 546, 547
319, 151, 142, 548, 453
320, 453, 548, 366, 178
321, 548, 271, 235, 366
322, 142, 150, 271, 548
323, 224, 552, 553, 549
324, 493, 644, 277, 237
325, 592, 645, 223, 482
326, 552, 228, 551, 553
327, 226, 554, 555, 373
328, 373, 555, 458, 225
329, 555, 552, 224, 458
330, 554, 228, 552, 555
331, 194, 556, 557, 533
332, 533, 557, 454, 236
333, 557, 140, 152, 454
334, 556, 153, 140, 557
335, 307, 433, 15, 23
336, 30, 38, 219, 317
337, 31, 39, 315, 568
338, 483, 286, 537, 381
339, 7, 408, 560, 83
340, 83, 560, 534, 85
341, 560, 559, 194, 534
342, 282, 192, 283, 570
343, 511, 210, 203, 631
344, 309, 653, 215, 334
345, 691, 690, 211, 288
346, 331, 217, 345, 213
347, 567, 619, 440, 280
348, 608, 333, 513, 616
349, 484, 574, 2, 25
350, 569, 298, 168, 125
351, 317, 219, 573, 180
352, 312, 162, 131, 279
353, 680, 432, 536, 316
354, 304, 305, 196, 193
355, 282, 570, 281, 673
356, 305, 577, 559, 196
357, 209, 698, 329, 638
358, 332, 627, 623, 565
359, 211, 463, 668, 290
360, 389, 613, 181, 546
361, 308, 483, 179, 538
362, 490, 398, 120, 110
363, 316, 536, 674, 679
364, 254, 379, 486, 578
365, 574, 538, 17, 2
366, 664, 486, 180, 666
367, 666, 180, 573, 519
368, 520, 129, 163, 286
369, 400, 128, 164, 558
370, 379, 317, 180, 486
371, 283, 172, 281, 570
372, 196, 559, 560, 408
373, 576, 512, 156, 137
374, 575, 195, 512, 576
375, 153, 556, 577, 139
376, 304, 138, 154, 305
377, 172, 423, 635, 281
378, 556, 194, 559, 577
379, 677, 306, 664, 676
380, 401, 284, 166, 127
381, 538, 179, 24, 17
382, 422, 697, 600, 518
383, 175, 385, 580, 525
384, 564, 289, 613, 389
385, 523, 655, 202, 609
386, 385, 176, 579, 580
387, 264, 582, 583, 581
388, 581, 583, 527, 258
389, 583, 391, 267, 527
390, 582, 266, 391, 583
391, 688, 638, 422, 699
392, 584, 309, 334, 605
393, 700, 687, 274, 636
394, 633, 250, 251, 263
395, 597, 293, 301, 247
396, 684, 302, 634, 470
397, 660, 294, 263, 683
398, 188, 416, 591, 509
399, 509, 591, 590, 185
400, 591, 474, 184, 590
401, 416, 187, 474, 591
402, 259, 606, 625, 177
403, 542, 239, 642, 646
404, 551, 622, 227, 481
405, 684, 650, 294, 660
406, 651, 243, 532, 467
407, 528, 259, 177, 587
408, 514, 594, 505, 496
409, 246, 648, 643, 593
410, 564, 389, 330, 310
411, 654, 213, 439, 289
412, 333, 461, 356, 513
413, 345, 585, 667, 614
414, 231, 601, 602, 465
415, 465, 602, 444, 229
416, 602, 554, 226, 444
417, 601, 228, 554, 602
418, 611, 616, 390, 201
419, 563, 654, 289, 564
420, 182, 206, 118, 108
421, 398, 632, 109, 120
422, 268, 451, 607, 529
423, 529, 607, 606, 259
424, 607, 487, 260, 606
425, 451, 269, 487, 607
426, 197, 499, 544, 653
427, 585, 135, 157, 667
428, 609, 449, 173, 523
429, 489, 174, 449, 609
430, 637, 605, 604, 698
431, 357, 200, 631, 198
432, 561, 584, 605, 637
433, 617, 376, 206, 182
434, 201, 390, 584, 561
435, 421, 290, 494, 498
436, 662, 216, 512, 195
437, 614, 667, 216, 662
438, 284, 171, 126, 166
439, 440, 619, 579, 176
440, 636, 274, 599, 571
441, 207, 280, 431, 433
442, 276, 237, 592, 550
443, 221, 145, 147, 657
444, 149, 620, 238, 143
445, 144, 479, 620, 149
446, 228, 601, 622, 551
447, 277, 541, 539, 645
448, 237, 277, 645, 592
449, 601, 231, 402, 622
450, 311, 310, 611, 201
451, 517, 158, 135, 585
452, 462, 612, 210, 511
453, 263, 251, 252, 683
454, 302, 246, 514, 634
455, 625, 354, 261, 472
456, 606, 260, 354, 625
457, 419, 357, 198, 376
458, 699, 422, 518, 378
459, 216, 136, 156, 512
460, 685, 214, 603, 346
461, 181, 615, 629, 545
462, 545, 629, 363, 190
463, 629, 628, 191, 363
464, 615, 195, 628, 629
465, 205, 273, 627, 332
466, 609, 202, 218, 489
467, 501, 647, 517, 217
468, 698, 604, 204, 329
469, 700, 209, 638, 688
470, 655, 288, 421, 202
471, 544, 115, 105, 212
472, 314, 307, 23, 16
473, 513, 356, 197, 328
474, 686, 685, 501, 183
475, 301, 477, 497, 588
476, 634, 514, 496, 262
477, 531, 472, 473, 303
478, 470, 253, 293, 597
479, 191, 628, 635, 423
480, 665, 576, 137, 155
481, 304, 282, 673, 665
482, 628, 195, 575, 635
483, 210, 106, 117, 203
484, 495, 377, 161, 132
485, 604, 420, 626, 204
486, 289, 439, 208, 613
487, 389, 546, 186, 330
488, 590, 184, 461, 333
489, 692, 691, 288, 655
490, 264, 640, 641, 582
491, 582, 641, 434, 266
492, 641, 639, 265, 434
493, 640, 256, 639, 641
494, 682, 221, 657, 222
495, 642, 643, 502, 241
496, 246, 593, 594, 514
497, 669, 587, 250, 633
498, 645, 539, 492, 223
499, 491, 492, 232, 295
500, 659, 223, 492, 491
501, 481, 227, 670, 644
502, 541, 233, 369, 539
503, 549, 646, 457, 224
504, 646, 642, 241, 457
505, 222, 505, 594, 656
506, 463, 378, 419, 668
507, 213, 345, 614, 439
508, 214, 565, 464, 603
509, 244, 672, 243, 651
510, 292, 247, 649, 598
511, 294, 589, 633, 263
512, 292, 598, 586, 589
513, 258, 528, 587, 669
514, 293, 478, 477, 301
515, 303, 473, 471, 624
516, 250, 531, 303, 251
517, 302, 595, 648, 246
518, 596, 468, 503, 502
519, 660, 683, 252, 672
520, 672, 252, 624, 243
521, 653, 544, 212, 215
522, 334, 215, 462, 420
523, 685, 346, 647, 501
524, 212, 105, 116, 612
525, 273, 562, 500, 627
526, 346, 603, 133, 159
527, 518, 600, 200, 357
528, 568, 315, 257, 572
529, 632, 348, 119, 109
530, 432, 28, 26, 536
531, 566, 519, 399, 313
532, 682, 276, 550, 278
533, 621, 481, 644, 493
534, 550, 592, 482, 297
535, 222, 657, 506, 505
536, 257, 442, 658, 285
537, 285, 658, 300, 255
538, 658, 639, 256, 300
539, 442, 265, 639, 658
540, 297, 482, 223, 659
541, 239, 593, 643, 642
542, 227, 230, 359, 670
543, 540, 549, 553, 621
544, 253, 476, 478, 293
545, 650, 292, 589, 294
546, 253, 262, 515, 476
547, 243, 624, 471, 532
548, 234, 272, 661, 270
549, 270, 661, 271, 150
550, 272, 235, 271, 661
551, 464, 495, 132, 160
552, 198, 631, 203, 524
553, 397, 608, 616, 611
554, 296, 491, 295, 234
555, 539, 369, 232, 492
556, 656, 594, 593, 239
557, 432, 484, 25, 28
558, 220, 618, 574, 484
559, 304, 193, 192, 282
560, 320, 319, 172, 283
561, 193, 196, 408, 409
562, 308, 520, 286, 483
563, 27, 3, 379, 254
564, 537, 130, 162, 312
565, 287, 103, 114, 347
566, 494, 617, 182, 348
567, 689, 699, 378, 463
568, 439, 614, 662, 208
569, 613, 208, 615, 181
570, 652, 469, 468, 596
571, 262, 496, 504, 515
572, 470, 634, 262, 253
573, 682, 222, 656, 240
574, 543, 540, 621, 493
575, 278, 550, 297, 681
576, 255, 300, 671, 298
577, 298, 671, 299, 168
578, 300, 256, 299, 671
579, 684, 470, 597, 650
580, 588, 497, 299, 256
581, 651, 467, 469, 652
582, 193, 409, 318, 192
583, 305, 154, 139, 577
584, 319, 424, 423, 172
585, 220, 400, 558, 618
586, 381, 380, 307, 314
587, 676, 664, 666, 675
588, 183, 501, 217, 331
589, 208, 662, 195, 615
590, 313, 255, 298, 569
591, 566, 313, 569, 485
592, 675, 566, 485, 171
593, 676, 675, 171, 284
594, 677, 676, 284, 401
595, 680, 677, 401, 678
596, 278, 681, 479, 663
597, 682, 278, 663, 221
598, 244, 651, 652, 595
599, 684, 244, 595, 302
600, 687, 275, 358, 686
601, 693, 580, 579, 562
602, 694, 693, 562, 273
603, 695, 694, 273, 205
604, 696, 695, 205, 275
605, 700, 696, 275, 687
606, 199, 692, 526, 525
607, 693, 199, 525, 580
608, 610, 691, 692, 199
609, 694, 610, 199, 693
610, 630, 690, 691, 610
611, 695, 630, 610, 694
612, 438, 689, 690, 630
613, 696, 438, 630, 695
614, 688, 699, 689, 438
615, 700, 688, 438, 696
*ELSET,ELSET=contact_source
99, 100, 101, 102, 103, 104, 105, 106, 107, 108, 
109, 110, 111, 112, 113, 114, 115, 116, 117, 118, 
119, 120, 
*ELSET,ELSET=contact_drain
39, 40, 41, 42, 43, 44, 45, 46, 47, 48, 
49, 50, 51, 52, 53, 54, 55, 56, 57, 58, 
59, 60, 
*ELSET,ELSET=probe_A
77, 78, 79, 80, 81, 82, 
*ELSET,ELSET=probe_B
17, 18, 19, 20, 21, 22, 
*ELSET,ELSET=walls
1, 2, 3, 4, 5, 6, 7, 8, 9, 10, 
11, 12, 13, 14, 15, 16, 23, 24, 25, 26, 
27, 28, 29, 30, 31, 32, 33, 34, 35, 36, 
37, 38, 61, 62, 63, 64, 65, 66, 67, 68, 
69, 70, 71, 72, 73, 74, 75, 76, 83, 84, 
85, 86, 87, 88, 89, 90, 91, 92, 93, 94, 
95, 96, 97, 98, 121, 122, 123, 124, 125, 126, 
127, 128, 129, 130, 131, 132, 133, 134, 135, 136, 
137, 138, 139, 140, 141, 142, 143, 144, 145, 146, 
147, 148, 149, 150, 151, 152, 153, 154, 155, 156, 
157, 158, 159, 160, 161, 162, 163, 164, 165, 166, 
167, 168, 169, 170, 
*ELSET,ELSET=domain
171, 172, 173, 174, 175, 176, 177, 178, 179, 180, 
181, 182, 183, 184, 185, 186, 187, 188, 189, 190, 
191, 192, 193, 194, 195, 196, 197, 198, 199, 200, 
201, 202, 203, 204, 205, 206, 207, 208, 209, 210, 
211, 212, 213, 214, 215, 216, 217, 218, 219, 220, 
221, 222, 223, 224, 225, 226, 227, 228, 229, 230, 
231, 232, 233, 234, 235, 236, 237, 238, 239, 240, 
241, 242, 243, 244, 245, 246, 247, 248, 249, 250, 
251, 252, 253, 254, 255, 256, 257, 258, 259, 260, 
261, 262, 263, 264, 265, 266, 267, 268, 269, 270, 
271, 272, 273, 274, 275, 276, 277, 278, 279, 280, 
281, 282, 283, 284, 285, 286, 287, 288, 289, 290, 
291, 292, 293, 294, 295, 296, 297, 298, 299, 300, 
301, 302, 303, 304, 305, 306, 307, 308, 309, 310, 
311, 312, 313, 314, 315, 316, 317, 318, 319, 320, 
321, 322, 323, 324, 325, 326, 327, 328, 329, 330, 
331, 332, 333, 334, 335, 336, 337, 338, 339, 340, 
341, 342, 343, 344, 345, 346, 347, 348, 349, 350, 
351, 352, 353, 354, 355, 356, 357, 358, 359, 360, 
361, 362, 363, 364, 365, 366, 367, 368, 369, 370, 
371, 372, 373, 374, 375, 376, 377, 378, 379, 380, 
381, 382, 383, 384, 385, 386, 387, 388, 389, 390, 
391, 392, 393, 394, 395, 396, 397, 398, 399, 400, 
401, 402, 403, 404, 405, 406, 407, 408, 409, 410, 
411, 412, 413, 414, 415, 416, 417, 418, 419, 420, 
421, 422, 423, 424, 425, 426, 427, 428, 429, 430, 
431, 432, 433, 434, 435, 436, 437, 438, 439, 440, 
441, 442, 443, 444, 445, 446, 447, 448, 449, 450, 
451, 452, 453, 454, 455, 456, 457, 458, 459, 460, 
461, 462, 463, 464, 465, 466, 467, 468, 469, 470, 
471, 472, 473, 474, 475, 476, 477, 478, 479, 480, 
481, 482, 483, 484, 485, 486, 487, 488, 489, 490, 
491, 492, 493, 494, 495, 496, 497, 498, 499, 500, 
501, 502, 503, 504, 505, 506, 507, 508, 509, 510, 
511, 512, 513, 514, 515, 516, 517, 518, 519, 520, 
521, 522, 523, 524, 525, 526, 527, 528, 529, 530, 
531, 532, 533, 534, 535, 536, 537, 538, 539, 540, 
541, 542, 543, 544, 545, 546, 547, 548, 549, 550, 
551, 552, 553, 554, 555, 556, 557, 558, 559, 560, 
561, 562, 563, 564, 565, 566, 567, 568, 569, 570, 
571, 572, 573, 574, 575, 576, 577, 578, 579, 580, 
581, 582, 583, 584, 585, 586, 587, 588, 589, 590, 
591, 592, 593, 594, 595, 596, 597, 598, 599, 600, 
601, 602, 603, 604, 605, 606, 607, 608, 609, 610, 
611, 612, 613, 614, 615, 616, 617, 618, 619, 620, 
621, 622, 623, 624, 625, 626, 627, 628, 629, 630, 
631, 632, 633, 634, 635, 636, 637, 638, 639, 640, 
641, 642, 643, 644, 645, 646, 647, 648, 649, 650, 
651, 652, 653, 654, 655, 656, 657, 658, 659, 660, 
661, 662, 663, 664, 665, 666, 667, 668, 669, 670, 
671, 672, 673, 674, 675, 676, 677, 678, 679, 680, 
681, 682, 683, 684, 685, 686, 687, 688, 689, 690, 
691, 692, 693, 694, 695, 696, 697, 698, 699, 700, 
701, 702, 703, 704, 705, 706, 707, 708, 709, 710, 
711, 712, 713, 714, 715, 716, 717, 718, 719, 720, 
721, 722, 723, 724, 725, 726, 727, 728, 729, 730, 
731, 732, 733, 734, 735, 736, 737, 738, 739, 740, 
741, 742, 743, 744, 745, 746, 747, 748, 749, 750, 
751, 752, 753, 754, 755, 756, 757, 758, 759, 760, 
761, 762, 763, 764, 765, 766, 767, 768, 769, 770, 
771, 772, 773, 774, 775, 776, 777, 778, 779, 780, 
781, 782, 783, 784, 785, 
*NSET,NSET=contact_source
1, 8, 101, 102, 103, 104, 105, 106, 107, 108, 
109, 110, 111, 112, 113, 114, 115, 116, 117, 118, 
119, 120, 121, 
*NSET,NSET=contact_drain
4, 5, 45, 46, 47, 48, 49, 50, 51, 52, 
53, 54, 55, 56, 57, 58, 59, 60, 61, 62, 
63, 64, 65, 
*NSET,NSET=probe_A
6, 7, 81, 82, 83, 84, 85, 
*NSET,NSET=probe_B
2, 3, 25, 26, 27, 28, 29, 
*NSET,NSET=walls
1, 2, 3, 4, 5, 6, 7, 8, 9, 10, 
11, 12, 13, 14, 15, 16, 17, 18, 19, 20, 
21, 22, 23, 24, 30, 31, 32, 33, 34, 35, 
36, 37, 38, 39, 40, 41, 42, 43, 44, 66, 
67, 68, 69, 70, 71, 72, 73, 74, 75, 76, 
77, 78, 79, 80, 86, 87, 88, 89, 90, 91, 
92, 93, 94, 95, 96, 97, 98, 99, 100, 122, 
123, 124, 125, 126, 127, 128, 129, 130, 131, 132, 
133, 134, 135, 136, 137, 138, 139, 140, 141, 142, 
143, 144, 145, 146, 147, 148, 149, 150, 151, 152, 
153, 154, 155, 156, 157, 158, 159, 160, 161, 162, 
163, 164, 165, 166, 167, 168, 169, 170, 
*NSET,NSET=domain
1, 2, 3, 4, 5, 6, 7, 8, 9, 10, 
11, 12, 13, 14, 15, 16, 17, 18, 19, 20, 
21, 22, 23, 24, 25, 26, 27, 28, 29, 30, 
31, 32, 33, 34, 35, 36, 37, 38, 39, 40, 
41, 42, 43, 44, 45, 46, 47, 48, 49, 50, 
51, 52, 53, 54, 55, 56, 57, 58, 59, 60, 
61, 62, 63, 64, 65, 66, 67, 68, 69, 70, 
71, 72, 73, 74, 75, 76, 77, 78, 79, 80, 
81, 82, 83, 84, 85, 86, 87, 88, 89, 90, 
91, 92, 93, 94, 95, 96, 97, 98, 99, 100, 
101, 102, 103, 104, 105, 106, 107, 108, 109, 110, 
111, 112, 113, 114, 115, 116, 117, 118, 119, 120, 
121, 122, 123, 124, 125, 126, 127, 128, 129, 130, 
131, 132, 133, 134, 135, 136, 137, 138, 139, 140, 
141, 142, 143, 144, 145, 146, 147, 148, 149, 150, 
151, 152, 153, 154, 155, 156, 157, 158, 159, 160, 
161, 162, 163, 164, 165, 166, 167, 168, 169, 170, 
171, 172, 173, 174, 175, 176, 177, 178, 179, 180, 
181, 182, 183, 184, 185, 186, 187, 188, 189, 190, 
191, 192, 193, 194, 195, 196, 197, 198, 199, 200, 
201, 202, 203, 204, 205, 206, 207, 208, 209, 210, 
211, 212, 213, 214, 215, 216, 217, 218, 219, 220, 
221, 222, 223, 224, 225, 226, 227, 228, 229, 230, 
231, 232, 233, 234, 235, 236, 237, 238, 239, 240, 
241, 242, 243, 244, 245, 246, 247, 248, 249, 250, 
251, 252, 253, 254, 255, 256, 257, 258, 259, 260, 
261, 262, 263, 264, 265, 266, 267, 268, 269, 270, 
271, 272, 273, 274, 275, 276, 277, 278, 279, 280, 
281, 282, 283, 284, 285, 286, 287, 288, 289, 290, 
291, 292, 293, 294, 295, 296, 297, 298, 299, 300, 
301, 302, 303, 304, 305, 306, 307, 308, 309, 310, 
311, 312, 313, 314, 315, 316, 317, 318, 319, 320, 
321, 322, 323, 324, 325, 326, 327, 328, 329, 330, 
331, 332, 333, 334, 335, 336, 337, 338, 339, 340, 
341, 342, 343, 344, 345, 346, 347, 348, 349, 350, 
351, 352, 353, 354, 355, 356, 357, 358, 359, 360, 
361, 362, 363, 364, 365, 366, 367, 368, 369, 370, 
371, 372, 373, 374, 375, 376, 377, 378, 379, 380, 
381, 382, 383, 384, 385, 386, 387, 388, 389, 390, 
391, 392, 393, 394, 395, 396, 397, 398, 399, 400, 
401, 402, 403, 404, 405, 406, 407, 408, 409, 410, 
411, 412, 413, 414, 415, 416, 417, 418, 419, 420, 
421, 422, 423, 424, 425, 426, 427, 428, 429, 430, 
431, 432, 433, 434, 435, 436, 437, 438, 439, 440, 
441, 442, 443, 444, 445, 446, 447, 448, 449, 450, 
451, 452, 453, 454, 455, 456, 457, 458, 459, 460, 
461, 462, 463, 464, 465, 466, 467, 468, 469, 470, 
471, 472, 473, 474, 475, 476, 477, 478, 479, 480, 
481, 482, 483, 484, 485, 486, 487, 488, 489, 490, 
491, 492, 493, 494, 495, 496, 497, 498, 499, 500, 
501, 502, 503, 504, 505, 506, 507, 508, 509, 510, 
511, 512, 513, 514, 515, 516, 517, 518, 519, 520, 
521, 522, 523, 524, 525, 526, 527, 528, 529, 530, 
531, 532, 533, 534, 535, 536, 537, 538, 539, 540, 
541, 542, 543, 544, 545, 546, 547, 548, 549, 550, 
551, 552, 553, 554, 555, 556, 557, 558, 559, 560, 
561, 562, 563, 564, 565, 566, 567, 568, 569, 570, 
571, 572, 573, 574, 575, 576, 577, 578, 579, 580, 
581, 582, 583, 584, 585, 586, 587, 588, 589, 590, 
591, 592, 593, 594, 595, 596, 597, 598, 599, 600, 
601, 602, 603, 604, 605, 606, 607, 608, 609, 610, 
611, 612, 613, 614, 615, 616, 617, 618, 619, 620, 
621, 622, 623, 624, 625, 626, 627, 628, 629, 630, 
631, 632, 633, 634, 635, 636, 637, 638, 639, 640, 
641, 642, 643, 644, 645, 646, 647, 648, 649, 650, 
651, 652, 653, 654, 655, 656, 657, 658, 659, 660, 
661, 662, 663, 664, 665, 666, 667, 668, 669, 670, 
671, 672, 673, 674, 675, 676, 677, 678, 679, 680, 
681, 682, 683, 684, 685, 686, 687, 688, 689, 690, 
691, 692, 693, 694, 695, 696, 697, 698, 699, 700, 
