*Heading
 /Users/juliagao/geometry-optimization-net/scripts/../runs/grid/shape_26.inp
*NODE
1, 0, -0.3, 0
2, 0.425, -0.3, 0
3, 0.575, -0.3, 0
4, 1, -0.3, 0
5, 1, 0.3, 0
6, 0.575, 0.3, 0
7, 0.425, 0.3, 0
8, 0, 0.3, 0
9, 0.616, 0.112, 0
10, 0.025510774891032, -0.3, 0
11, 0.077547308967373, -0.3, 0
12, 0.13204183024496, -0.3, 0
13, 0.18829891330509, -0.3, 0
14, 0.24379831899724, -0.3, 0
15, 0.29727409265823, -0.3, 0
16, 0.34914138610394, -0.3, 0
17, 0.39987199530649, -0.3, 0
18, 0.051021549782065, -0.3, 0
19, 0.10407306815268, -0.3, 0
20, 0.16001059233724, -0.3, 0
21, 0.21658723427293, -0.3, 0
22, 0.27100940372156, -0.3, 0
23, 0.3235387815949, -0.3, 0
24, 0.37474399061297, -0.3, 0
25, 0.44972377491581, -0.3, 0
26, 0.49961206545157, -0.3, 0
27, 0.54988829053576, -0.3, 0
28, 0.47444754983162, -0.3, 0
29, 0.52477658107152, -0.3, 0
30, 0.60044383680278, -0.3, 0
31, 0.65266458049316, -0.3, 0
32, 0.70682441207727, -0.3, 0
33, 0.76167779865299, -0.3, 0
34, 0.81635921171268, -0.3, 0
35, 0.87003589755085, -0.3, 0
36, 0.92246071934613, -0.3, 0
37, 0.97420990324184, -0.3, 0
38, 0.62588767360555, -0.3, 0
39, 0.67944148738077, -0.3, 0
40, 0.73420733677377, -0.3, 0
41, 0.78914826053222, -0.3, 0
42, 0.84357016289314, -0.3, 0
43, 0.89650163220857, -0.3, 0
44, 0.94841980648368, -0.3, 0
45, 1, -0.27412230050903, 0
46, 1, -0.22159184783482, 0
47, 1, -0.16745647168292, 0
48, 1, -0.1122857651071, 0
49, 1, -0.056865877398011, 0
50, 1, -0.0013750756919141, 0
51, 1, 0.054164986168587, 0
52, 1, 0.10980917592523, 0
53, 1, 0.16539754868174, 0
54, 1, 0.22016278783175, 0
55, 1, 0.27360138986279, 0
56, 1, -0.24824460101806, 0
57, 1, -0.19493909465158, 0
58, 1, -0.13997384871425, 0
59, 1, -0.08459768149995, 0
60, 1, -0.029134073296072, 0
61, 1, 0.026383921912244, 0
62, 1, 0.08194605042493, 0
63, 1, 0.13767230142554, 0
64, 1, 0.19312279593794, 0
65, 1, 0.24720277972557, 0
66, 0.97379343587256, 0.3, 0
67, 0.92112189878271, 0.3, 0
68, 0.86781267300402, 0.3, 0
69, 0.81371138426729, 0.3, 0
70, 0.75897012568268, 0.3, 0
71, 0.70473692041832, 0.3, 0
72, 0.65207357595571, 0.3, 0
73, 0.60057960704664, 0.3, 0
74, 0.94758687174511, 0.3, 0
75, 0.89465692582032, 0.3, 0
76, 0.84096842018772, 0.3, 0
77, 0.78645434834686, 0.3, 0
78, 0.7314859030185, 0.3, 0
79, 0.67798793781814, 0.3, 0
80, 0.62615921409328, 0.3, 0
81, 0.54969102972995, 0.3, 0
82, 0.49928942770522, 0.3, 0
83, 0.44959839797527, 0.3, 0
84, 0.5243820594599, 0.3, 0
85, 0.47419679595054, 0.3, 0
86, 0.40001703772576, 0.3, 0
87, 0.34866796705948, 0.3, 0
88, 0.29528283055188, 0.3, 0
89, 0.24109933419079, 0.3, 0
90, 0.18686603756456, 0.3, 0
91, 0.13262074826372, 0.3, 0
92, 0.078699394713454, 0.3, 0
93, 0.025977251041665, 0.3, 0
94, 0.37503407545151, 0.3, 0
95, 0.32230185866744, 0.3, 0
96, 0.26826380243632, 0.3, 0
97, 0.21393486594527, 0.3, 0
98, 0.15979720918386, 0.3, 0
99, 0.10544428734358, 0.3, 0
100, 0.051954502083331, 0.3, 0
101, 0, 0.2735289315418, 0
102, 0, 0.21979481204327, 0
103, 0, 0.16475070368, 0
104, 0, 0.10900894386165, 0
105, 0, 0.053544345338915, 0
106, 0, -0.0007749747715286, 0
107, 0, -0.05520663123859, 0
108, 0, -0.11096723838589, 0
109, 0, -0.16699027878844, 0
110, 0, -0.22174819330266, 0
111, 0, -0.27431372108884, 0
112, 0, 0.24705786308359, 0
113, 0, 0.19253176100294, 0
114, 0, 0.13696964635706, 0
115, 0, 0.081048241366245, 0
116, 0, 0.026040449311585, 0
117, 0, -0.027590398854642, 0
118, 0, -0.082822863622537, 0
119, 0, -0.13911161314925, 0
120, 0, -0.19486894442763, 0
121, 0, -0.24862744217769, 0
122, 0.61310410204271, 0.13775775587647, 0
123, 0.59095930603003, 0.18398892026603, 0
124, 0.55197996013029, 0.21570189823255, 0
125, 0.50388996644455, 0.22793475802704, 0
126, 0.45387844743358, 0.21843684627095, 0
127, 0.4113498216621, 0.18681407510771, 0
128, 0.38714108905064, 0.13881168062518, 0
129, 0.38697313508399, 0.085905407955277, 0
130, 0.41001185443503, 0.038800727424093, 0
131, 0.45172968456697, 0.0065202547942254, 0
132, 0.5029978835806, -0.0039612545573116, 0
133, 0.55265079988211, 0.008637079792773, 0
134, 0.59154612193755, 0.040758807487757, 0
135, 0.61316612556031, 0.086516124868795, 0
136, 0.60456099834522, 0.16222944833155, 0
137, 0.57290644384191, 0.20222555250519, 0
138, 0.52866026175429, 0.22440368881612, 0
139, 0.47893869410548, 0.22607200028927, 0
140, 0.43117059121445, 0.20537297482464, 0
141, 0.3963864696096, 0.16415588453795, 0
142, 0.38400000128915, 0.11201729291343, 0
143, 0.3957477173414, 0.061132904485404, 0
144, 0.42897195704008, 0.020288402938146, 0
145, 0.47702531872984, -0.0017020844306066, 0
146, 0.52881902399125, -0.00036308872468157, 0
147, 0.57394333002307, 0.02262224108189, 0
148, 0.6048029660231, 0.062277387292912, 0
149, 0.42714875131089, -0.24317484544458, 0
150, 0.58173145084203, -0.248488739063, 0
151, 0.40792524790014, 0.24985037289427, 0
152, 0.3482705403253, 0.056128166664326, 0
153, 0.36007309614227, 0.11392446711117, 0
154, 0.026802978624086, -0.21995679760289, 0
155, 0.21310299009178, -0.039003401424126, 0
156, 0.10757162076144, -0.19365646295414, 0
157, 0.47775310796942, -0.24331796887937, 0
158, 0.15981382121216, -0.063089951688021, 0
159, 0.05246215146433, -0.0041037229377376, 0
160, 0.84716980861179, 0.076180308961123, 0
161, 0.59626063754249, 0.2488230219532, 0
162, 0.52841996579904, -0.24470317949414, 0
163, 0.63574520302335, -0.24526436515691, 0
164, 0.68635706404729, -0.24429077430715, 0
165, 0.946467131206, -0.11128130330997, 0
166, 0.75705264219309, -0.13159187230682, 0
167, 0.7837254702995, -0.13338192108384, 0
168, 0.78829442825277, -0.24512671794061, 0
169, 0.17755081573315, 0.072615026333531, 0
170, 0.025904269521804, 0.052366167181292, 0
171, 0.32415900431985, 0.058107443420839, 0
172, 0.29492524398692, 0.091545739555513, 0
173, 0.27122710970192, -0.19338184388306, 0
174, 0.22547028423353, 0.15836922939261, 0
175, 0.37234558002425, 0.055778553214161, 0
176, 0.18856614685272, -0.27404534195964, 0
177, 0.21643763677967, -0.19450487622703, 0
178, 0.052705073870643, 0.24567634708816, 0
179, 0.10487668739369, 0.2457043307134, 0
180, 0.15679747900826, 0.24564975598063, 0
181, 0.20846572568928, 0.24538546801008, 0
182, 0.25968825071161, 0.24476407410449, 0
183, 0.35807063781359, 0.23535379012271, 0
184, 0.31004200283035, 0.24288294002102, 0
185, 0.46787896176146, 0.26231629952589, 0
186, 0.079161452605753, -0.059871272667212, 0
187, 0.35742444278138, -0.13779502028125, 0
188, 0.26610660595656, -0.016102097225965, 0
189, 0.40774323698892, 0.0053012217157362, 0
190, 0.27022035445693, -0.24640739736341, 0
191, 0.052096380062394, 0.023440994722165, 0
192, 0.30111075070886, -0.066191556850725, 0
193, 0.31555212006615, 0.12072868969057, 0
194, 0.29969499528118, -0.16633011197511, 0
195, 0.2409849462856, -0.040199446113466, 0
196, 0.244227833771, -0.16790342697229, 0
197, 0.10654171494585, -0.27348601598973, 0
198, 0.2999646566386, 0.060861517392075, 0
199, 0.21592316874616, -0.090657133039885, 0
200, 0.12846885298962, 0.047259023870131, 0
201, 0.17633284026086, 0.13085312100535, 0
202, 0.053288573289235, -0.2728674835264, 0
203, 0.32935286113625, 0.21164693729048, 0
204, 0.077002354341499, 0.16238022926537, 0
205, 0.29506400445092, -0.017742811586239, 0
206, 0.30780924551008, 0.03191497995192, 0
207, 0.389236290833, -0.11060442346652, 0
208, 0.30161921438348, -0.11530392498212, 0
209, 0.2952053344032, 0.15430299857165, 0
210, 0.30076001486651, -0.1405750271574, 0
211, 0.27291744296495, -0.11603043922496, 0
212, 0.27255325353761, -0.1414586692772, 0
213, 0.31697476150377, 0.0053009118729987, 0
214, 0.39230198958437, -0.086152108254686, 0
215, 0.10236930466362, 0.1618469764553, 0
216, 0.1891235459189, -0.19468822114519, 0
217, 0.12752158093586, 0.075535447132909, 0
218, 0.052576313313577, -0.031455215198399, 0
219, 0.54930110890736, -0.13010230012282, 0
220, 0.44827503249499, -0.10902066256129, 0
221, 0.24783870754784, 0.12685512287849, 0
222, 0.24454572607108, -0.11637286662202, 0
223, 0.34652664805513, 0.0034713512431716, 0
224, 0.47905205400774, -0.1088940140925, 0
225, 0.24318930388938, -0.24694015786625, 0
226, 0.16177988745279, -0.16817020172902, 0
227, 0.46306390139541, -0.022464444205733, 0
228, 0.32908020509568, -0.13934605012609, 0
229, 0.1618825465816, -0.19456162759818, 0
230, 0.027002634456506, -0.24646957458069, 0
231, 0.36129823655424, 0.027889293316667, 0
232, 0.33751357953097, 0.11815048112913, 0
233, 0.026144390345721, 0.024793850779125, 0
234, 0.27590986545956, 0.1861567046818, 0
235, 0.13366821871166, -0.2738538747371, 0
236, 0.49730752024806, -0.046292340804067, 0
237, 0.45840405094089, -0.064086920378216, 0
238, 0.07822044513349, 0.21812381819616, 0
239, 0.82328148311476, 0.13436815872966, 0
240, 0.62500093035205, 0.18656047886589, 0
241, 0.82665499710736, 0.1049996821697, 0
242, 0.76760548865787, 0.18840562622867, 0
243, 0.89820054254936, 0.13459638765148, 0
244, 0.94880969577012, 0.13552947056643, 0
245, 0.94786912680423, 0.19118328095855, 0
246, 0.73885799581993, 0.054332044463292, 0
247, 0.89610570239884, 0.19077790073116, 0
248, 0.94698152466781, 0.24579552425157, 0
249, 0.89438993140746, 0.24577902529083, 0
250, 0.84174389119046, 0.24597109443393, 0
251, 0.78918115580952, 0.24562956844056, 0
252, 0.73782254511275, 0.24377296606537, 0
253, 0.66119507160278, 0.13961887441239, 0
254, 0.69018365298837, 0.23938402176847, 0
255, 0.64500291901328, 0.23311744080294, 0
256, 0.53717720191311, 0.26171523078402, 0
257, 0.79824627559163, 0.13408429037662, 0
258, 0.84152309625585, 0.021221904107771, 0
259, 0.89203731339921, -0.057952491994987, 0
260, 0.68328014452203, 0.10466150355448, 0
261, 0.70301523937381, 0.14013247438091, 0
262, 0.81449334828347, 0.02137725174058, 0
263, 0.83765206946498, -0.13581983517519, 0
264, 0.9467469125773, -0.27250757803758, 0
265, 0.94873112273841, 0.079032587092353, 0
266, 0.89780917424282, 0.077307554943056, 0
267, 0.78773848351833, -0.21702450374995, 0
268, 0.81516610220613, -0.27286959532103, 0
269, 0.97354365779628, -0.057436175941327, 0
270, 0.92143041526308, 0.022552675001033, 0
271, 0.73065699693462, -0.12949113598748, 0
272, 0.7703111547187, 0.077001657117351, 0
273, 0.83639964126132, -0.057196960756659, 0
274, 0.80916701140262, -0.10810150164378, 0
275, 0.86434544168436, -0.057721170481305, 0
276, 0.89182319406261, -0.11055552549317, 0
277, 0.91922372888987, -0.11093434029148, 0
278, 0.49370238280161, -0.066057433394126, 0
279, 0.60647365264344, -0.023359294835815, 0
280, 0.8367722584106, -0.10924513691596, 0
281, 0.6658293420195, -0.022329525198626, 0
282, 0.66187998898317, -0.072062971148855, 0
283, 0.54311358296407, -0.10363312188709, 0
284, 0.52406739312948, -0.084263311562151, 0
285, 0.61383590559715, -0.19360245082542, 0
286, 0.5246617137401, -0.13041988506256, 0
287, 0.46094945435325, -0.043078740765526, 0
288, 0.43267033819241, -0.18748676511606, 0
289, 0.67920399355672, -0.12537486644051, 0
290, 0.56290919392698, -0.16674158558875, 0
291, 0.63880304963491, -0.18844417153207, 0
292, 0.68668103020141, -0.18542010898064, 0
293, 0.89177172122878, -0.08421822357878, 0
294, 0.69239522537715, -0.073482677045872, 0
295, 0.91992419543341, -0.031377457290994, 0
296, 0.94692672852611, -0.030918496709991, 0
297, 0.72207864924465, -0.076178303615767, 0
298, 0.97348103908229, -0.084592424066556, 0
299, 0.83734797945154, -0.031341639756195, 0
300, 0.7854603429669, -0.16091324265315, 0
301, 0.86622038417657, -0.21771364244485, 0
302, 0.44165250584459, -0.13396081828705, 0
303, 0.60085855842978, -0.050862553840471, 0
304, 0.97340179649609, -0.13877834934673, 0
305, 0.9463654947961, -0.16478971025607, 0
306, 0.29952824294037, 0.18471654630508, 0
307, 0.27193242519965, -0.16725303241557, 0
308, 0.36175015850485, -0.088120891300371, 0
309, 0.66238532339128, 0.10585926266822, 0
310, 0.84425865632546, 0.048313256316196, 0
311, 0.63620905811798, -0.022517038009917, 0
312, 0.58302990613222, 0.22460901201581, 0
313, 0.62307919621117, 0.24471358105877, 0
314, 0.61724668231963, 0.2046611674295, 0
315, 0.81183211464446, -0.16200664430082, 0
316, 0.70977566233107, -0.2727225120932, 0
317, 0.86573210081843, -0.19042784389051, 0
318, 0.42171327255184, 0.22675548706918, 0
319, 0.3863784224483, 0.20739343023878, 0
320, 0.38031270357391, 0.2462736383768, 0
321, 0.35510290316774, -0.16376216263648, 0
322, 0.18880747659912, -0.24764670194887, 0
323, 0.31760491819198, 0.088969799920827, 0
324, 0.33453732864003, 0.24062031849976, 0
325, 0.20144700215975, 0.15928022461135, 0
326, 0.20232160513543, 0.070836281454136, 0
327, 0.56937884286806, -0.13735745869053, 0
328, 0.63291868719055, 0.16379040650354, 0
329, 0.8481811265131, 0.13441492907591, 0
330, 0.49834558337923, -0.026494569931919, 0
331, 0.53291457523222, -0.023230553115657, 0
332, 0.2432705632336, -0.27349500247255, 0
333, 0.53111183309434, -0.063432996690487, 0
334, 0.43672808440886, -0.16033046277366, 0
335, 0.46974653271797, -0.13351413857424, 0
336, 0.68803647342498, 0.035088413559003, 0
337, 0.76977024556991, 0.16029215668876, 0
338, 0.1826714910652, 0.24553038021327, 0
339, 0.15830383695292, 0.2731105548894, 0
340, 0.21100533185693, 0.27301586804587, 0
341, 0.18468808980408, 0.27305636576406, 0
342, 0.13086455241677, 0.24572313981519, 0
343, 0.10546229613122, 0.27307471957287, 0
344, 0.13187874295828, 0.27314340470978, 0
345, 0.97308079380547, -0.27284186452433, 0
346, 0.699292548797, 0.17490057636806, 0
347, 0.72590423813741, -0.10209922324442, 0
348, 0.79631649983503, 0.075910995785459, 0
349, 0.97378035409304, -0.0028474457010769, 0
350, 0.76221973205188, -0.27287256745509, 0
351, 0.89327321019875, -0.24506926027919, 0
352, 0.91937538141091, -0.21795869690051, 0
353, 0.75376851280003, -0.10449970043028, 0
354, 0.8652795560037, -0.16335459251215, 0
355, 0.10400453376659, 0.21801196666437, 0
356, 0.21668010209307, -0.14224532893577, 0
357, 0.15261583917009, 0.074164516684188, 0
358, 0.079557679834277, -0.11344652955827, 0
359, 0.97431099810227, 0.080284638438305, 0
360, 0.94914047935849, 0.10728635659811, 0
361, 0.97433599862435, 0.13643661101089, 0
362, 0.97448026198011, 0.10837484004915, 0
363, 0.94825157756057, 0.051077325742313, 0
364, 0.97412879872303, 0.052378650311514, 0
365, 0.22439471587752, 0.12839987499575, 0
366, 0.080131802664823, -0.16660552337954, 0
367, 0.13274567799728, -0.062065751504162, 0
368, 0.2440986432758, -0.090955075454191, 0
369, 0.26321315549663, 0.27276806279153, 0
370, 0.23415014181768, 0.24516045399596, 0
371, 0.23721210151689, 0.27294200748729, 0
372, 0.75118121099805, -0.078498872104374, 0
373, 0.94775610793232, 0.023449132385869, 0
374, 0.86409099135514, -0.083796436296916, 0
375, 0.78778630072333, 0.2731038893511, 0
376, 0.76323864219445, 0.24496861390654, 0
377, 0.73547112414278, 0.272405360572, 0
378, 0.7613940275624, 0.27289165283154, 0
379, 0.45250045362946, -0.24311087357495, 0
380, 0.47575993545538, -0.27157755367153, 0
381, 0.42562770378464, -0.27146610233004, 0
382, 0.45071328067892, -0.2714119665587, 0
383, 0.13449990747363, -0.16774703345966, 0
384, 0.29767254418019, -0.21901977994279, 0
385, 0.13421019682833, -0.14137073295508, 0
386, 0.026113326390505, -0.084472380876018, 0
387, 0.68380676433136, -0.27263476543591, 0
388, 0.80817250294004, -0.056300592808024, 0
389, 0.81060930979139, -0.13478929031396, 0
390, 0.35369882563965, 0.20723102167699, 0
391, 0.15517043573843, 0.2177315390614, 0
392, 0.051828876373893, 0.19075748108846, 0
393, 0.81540901725106, 0.24592724639256, 0
394, 0.8410515408012, 0.27314930043337, 0
395, 0.81439296012937, 0.27318339735441, 0
396, 0.28502248611949, 0.24409442628191, 0
397, 0.31389504411062, 0.27190708008153, 0
398, 0.28886047157853, 0.27247451840567, 0
399, 0.52623968981354, -0.27217420817501, 0
400, 0.55450818176608, -0.24643621291099, 0
401, 0.57868860020488, -0.27372443884536, 0
402, 0.55206601320461, -0.27281546080574, 0
403, 0.81285963619147, -0.18959896472891, 0
404, 0.7110104672141, -0.18588860070445, 0
405, 0.86653388612334, -0.0053003083626134, 0
406, 0.94839529101979, 0.16350178150619, 0
407, 0.97389660849502, 0.19185664083579, 0
408, 0.97416907910004, 0.16427986747775, 0
409, 0.50298294907389, -0.24380451481322, 0
410, 0.50089057952202, -0.27184363656275, 0
411, 0.89273830430447, -0.21779150968014, 0
412, 0.94729926368737, -0.0038657703876217, 0
413, 0.86808375995295, 0.24588934508356, 0
414, 0.89415770964719, 0.27297533379202, 0
415, 0.86765094320972, 0.27306676518794, 0
416, 0.68655732421615, 0.27061460992328, 0
417, 0.6672700305609, 0.23734569361826, 0
418, 0.64187481478722, 0.26874206949307, 0
419, 0.66353339494381, 0.26976464564005, 0
420, 0.72146147632903, -0.0511314117081, 0
421, 0.7886619031265, -0.27288862439642, 0
422, 0.92055739448786, -0.27242691823733, 0
423, 0.052662445765637, -0.11263341509167, 0
424, 0.28857576455793, 0.0076219373873852, 0
425, 0.22692910877308, 0.068778806167767, 0
426, 0.24296277783211, -0.065631262524466, 0
427, 0.25138522682584, 0.066408249565844, 0
428, 0.080618188722771, -0.24633141648224, 0
429, 0.29705582497001, -0.24580630181709, 0
430, 0.051685338536612, 0.051163859070794, 0
431, 0.026356224581804, -0.0025818085763351, 0
432, 0.076883770898822, 0.077936430001955, 0
433, 0.30504454143363, 0.21407144752146, 0
434, 0.32324417754166, -0.27247519600941, 0
435, 0.076628177648353, 0.10607886604397, 0
436, 0.2702463188612, -0.2731595445095, 0
437, 0.94622908145274, -0.19157864302924, 0
438, 0.7868170987647, -0.18886854637293, 0
439, 0.83984878117939, -0.21761768107681, 0
440, 0.052815885671324, 0.2728818667223, 0
441, 0.026438691242841, 0.24595137634915, 0
442, 0.026538179557707, 0.27290905383974, 0
443, 0.84058604210886, -0.24522161007724, 0
444, 0.92059444882323, -0.0045771648803886, 0
445, 0.13470401296477, -0.19419554209793, 0
446, 0.37718467053489, 0.0029878628543992, 0
447, 0.32587943349417, -0.19145684570029, 0
448, 0.25581461945897, 0.21631146433478, 0
449, 0.13447938895757, -0.24732946269357, 0
450, 0.94735532405699, 0.21859470352318, 0
451, 0.9733989112612, 0.2461539229129, 0
452, 0.97361939968308, 0.21913036663376, 0
453, 0.078831731641389, 0.24566949297602, 0
454, 0.07910803184748, 0.27299004012087, 0
455, 0.38568323115787, -0.1360298387349, 0
456, 0.34620081094556, 0.17907229524273, 0
457, 0.9469247905806, 0.27289606339808, 0
458, 0.97332426765355, 0.27302283372556, 0
459, 0.12700038668494, 0.13270776859233, 0
460, 0.25200517488564, 0.18717039086656, 0
461, 0.36010268725946, 0.26936570221573, 0
462, 0.3378980506781, 0.27096829233263, 0
463, 0.71357930267934, 0.24109898657987, 0
464, 0.71053645096196, 0.27135148498095, 0
465, 0.13089612263563, -0.0081698071674235, 0
466, 0.13337068639478, -0.088611522272617, 0
467, 0.080708248910739, -0.21969373927292, 0
468, 0.66122496640783, -0.2445419280347, 0
469, 0.63196567402647, -0.27271866174392, 0
470, 0.65792428116791, -0.27264968932779, 0
471, 0.36933846644435, 0.16805718544041, 0
472, 0.2727306064084, -0.09094883588155, 0
473, 0.60936091037576, -0.24676231933352, 0
474, 0.6056494652773, -0.27308330104499, 0
475, 0.15869152569106, -0.036516093101751, 0
476, 0.10663089124233, -0.1142562344422, 0
477, 0.051359711625818, 0.079047959789017, 0
478, 0.20477136160744, 0.042164288781888, 0
479, 0.10194896659551, 0.13349759287298, 0
480, 0.10310367702049, 0.19004400940066, 0
481, 0.84633162809313, 0.16283085648542, 0
482, 0.89367645191868, -0.0050521239952722, 0
483, 0.77962953124922, -0.054969513217022, 0
484, 0.89203198404845, -0.13706445796929, 0
485, 0.59226497584528, 0.27408028577743, 0
486, 0.61803620347243, 0.27235569627188, 0
487, 0.9462099410372, -0.24535050300878, 0
488, 0.84165615140635, -0.27274475093323, 0
489, 0.94612963680979, -0.21841457694507, 0
490, 0.70859591979225, -0.15632964337003, 0
491, 0.41010933362632, 0.27423334042457, 0
492, 0.38420961813512, 0.27280468121078, 0
493, 0.92067307374784, 0.24571607661058, 0
494, 0.92056595304611, 0.27290099652487, 0
495, 0.94667235442368, -0.057785675456625, 0
496, 0.97301391123114, -0.21946085137589, 0
497, 0.10295073608123, 0.048631368613482, 0
498, 0.29690157985267, -0.27280175407868, 0
499, 0.89639462831233, 0.049318646234559, 0
500, 0.92323050181816, 0.078070059026128, 0
501, 0.92234460648039, 0.050090067242062, 0
502, 0.23809365823054, -0.01437581759056, 0
503, 0.18903600215214, -0.1421971974248, 0
504, 0.69195597850353, -0.048526578534705, 0
505, 0.91969459635016, -0.24508586766957, 0
506, 0.68733968186207, -0.21516978544871, 0
507, 0.75073670724996, -0.053204737408567, 0
508, 0.66197330066444, -0.047586403713454, 0
509, 0.63134836520004, -0.048157901135635, 0
510, 0.53369989757159, 0.27978054428416, 0
511, 0.56893219655961, 0.25587686841167, 0
512, 0.56434435830389, 0.27716025569714, 0
513, 0.36123319946071, -0.041701444700033, 0
514, 0.12966680598221, 0.019340521105355, 0
515, 0.051222761776976, 0.13504441553058, 0
516, 0.10227484070728, 0.076776897276534, 0
517, 0.8136710384519, -0.21740944554127, 0
518, 0.97317216806654, -0.19269991268476, 0
519, 0.68407950297298, -0.15529316209084, 0
520, 0.97394775127253, 0.024670427952442, 0
521, 0.46860438868083, 0.27994523747031, 0
522, 0.50261062983177, 0.26421554573177, 0
523, 0.50114664481824, 0.28094539773356, 0
524, 0.21602827893612, -0.27380927816518, 0
525, 0.29895349623299, -0.04205307490075, 0
526, 0.34995090833861, -0.2445561822513, 0
527, 0.20775661717287, 0.014311361036445, 0
528, 0.43574653480388, 0.25673494162736, 0
529, 0.43800018560136, 0.27730001309713, 0
530, 0.79099049607239, 0.2178721026197, 0
531, 0.81797033668111, 0.048218848549442, 0
532, 0.67185881310923, 0.20568401199183, 0
533, 0.76534959510829, 0.21674429412951, 0
534, 0.53111644156961, -0.21725056273571, 0
535, 0.53459941259389, -0.1893662582677, 0
536, 0.58428229747402, -0.22380868880727, 0
537, 0.55696142354096, -0.22031180166412, 0
538, 0.89910132458432, 0.10591869749298, 0
539, 0.92342756060048, 0.13493286024355, 0
540, 0.923996239101, 0.10648920626793, 0
541, 0.75940641560878, -0.15953196474579, 0
542, 0.73682457657974, -0.24464100745048, 0
543, 0.45878959730249, -0.18725944296118, 0
544, 0.61311900611064, -0.099421294412984, 0
545, 0.48459456462943, -0.18717026212807, 0
546, 0.59086933411473, -0.0019158363137001, 0
547, 0.50986242650511, -0.18759048184688, 0
548, 0.18872641032558, -0.11614141892712, 0
549, 0.34926241524754, -0.27214943074066, 0
550, 0.15726485716403, -0.0095840826729072, 0
551, 0.36308424019741, 0.084573124850661, 0
552, 0.38257205966024, -0.16225653304126, 0
553, 0.92194441147109, 0.1908629906756, 0
554, 0.89719367422292, 0.16286082500368, 0
555, 0.92273758629029, 0.1630538574798, 0
556, 0.026186611386606, 0.21880188066994, 0
557, 0.3940212592333, -0.062595251232522, 0
558, 0.17708771346082, 0.16005302412912, 0
559, 0.051444701674803, 0.16298056733002, 0
560, 0.31770150844773, 0.15220631053964, 0
561, 0.24381862616347, -0.19405721281989, 0
562, 0.12751963174832, 0.16131359361755, 0
563, 0.62490242196341, 0.047699122355367, 0
564, 0.60910846706749, 0.020807283075077, 0
565, 0.84296835028559, 0.21853274482561, 0
566, 0.82184234032382, 0.075850579084801, 0
567, 0.8169249168112, 0.21839704801117, 0
568, 0.61102325547946, -0.13605871578482, 0
569, 0.64107837111554, -0.096826093298844, 0
570, 0.16155795006797, -0.14188422349296, 0
571, 0.025949459959205, 0.19139852040965, 0
572, 0.15243365814394, 0.16072348745359, 0
573, 0.58948593940656, -0.14922259430247, 0
574, 0.48061503665149, -0.21519083245951, 0
575, 0.42948770377679, -0.21515626100351, 0
576, 0.45514957424479, -0.21503993225084, 0
577, 0.89224535521029, -0.16377526240077, 0
578, 0.94642921883404, -0.1380248961777, 0
579, 0.85035899130515, 0.10521673328533, 0
580, 0.97333806787507, -0.16579226060951, 0
581, 0.64045314708848, 0.10750850311858, 0
582, 0.67782069688382, 0.17349503397323, 0
583, 0.6356887837192, 0.077268609815045, 0
584, 0.82090950335115, 0.1626834557138, 0
585, 0.83918308150645, -0.19009871398851, 0
586, 0.94652582121618, -0.08454999055737, 0
587, 0.71830078766732, 0.066829649497934, 0
588, 0.74030289072674, 0.21477496278151, 0
589, 0.025722195553171, 0.080117902255994, 0
590, 0.21074152483039, -0.012687091902921, 0
591, 0.20054441773808, 0.12972014440148, 0
592, 0.30187913596131, -0.090538701129476, 0
593, 0.15180514565834, 0.13183784042849, 0
594, 0.25581800939725, 0.037507785321839, 0
595, 0.21482378619614, -0.064919178161033, 0
596, 0.81436678294628, -0.24524362539914, 0
597, 0.73374856122408, -0.15795005737131, 0
598, 0.53408132919955, 0.24396513204756, 0
599, 0.4725777169109, 0.24504213604395, 0
600, 0.50351330241018, 0.24723110900091, 0
601, 0.15557517265003, 0.017824208475435, 0
602, 0.73683201450797, -0.21589253608475, 0
603, 0.70218396973573, 0.0037076850216171, 0
604, 0.87246507049916, 0.076684208964677, 0
605, 0.87037983560933, 0.048719483999086, 0
606, 0.76210879693451, -0.216498262857, 0
607, 0.76111817214485, -0.1879338154573, 0
608, 0.71149065865307, -0.24439292389756, 0
609, 0.35121789855941, -0.21724558325855, 0
610, 0.67686331506485, 0.069799697902714, 0
611, 0.65094449546087, 0.0051451078984681, 0
612, 0.62651201933688, 0.006388394921751, 0
613, 0.65581160848932, 0.17214618926406, 0
614, 0.10587462501418, -0.060995742466976, 0
615, 0.078541940186767, -0.0054829728475233, 0
616, 0.1805632910943, 0.21750647652339, 0
617, 0.44446129767298, 0.23796808252668, 0
618, 0.079361667390163, -0.086735344004951, 0
619, 0.051176810247818, 0.10703630271589, 0
620, 0.1072848051235, -0.16717414661057, 0
621, 0.24342695813786, -0.2204276952415, 0
622, 0.29339297545007, 0.12301531219371, 0
623, 0.077964049161036, 0.022101958420198, 0
624, 0.23420403854959, 0.012257390517093, 0
625, 0.37982641265645, -0.18907023990086, 0
626, 0.27571697087732, 0.06373337251922, 0
627, 0.56797574156366, -0.057256226549406, 0
628, 0.46359633764566, -0.15995888355944, 0
629, 0.61412500136665, -0.16578114252663, 0
630, 0.27168359412732, -0.066100375038803, 0
631, 0.026188382025808, -0.057146599445838, 0
632, 0.052612190247129, -0.085688019842957, 0
633, 0.33442688760974, 0.029338688500144, 0
634, 0.63879256354841, 0.13692701832385, 0
635, 0.076678377553325, 0.1342587171332, 0
636, 0.1618433062195, -0.22105753295845, 0
637, 0.27236312618057, 0.15594662388655, 0
638, 0.37595503495557, -0.24395911526904, 0
639, 0.68232781728656, 0.13957319036804, 0
640, 0.87312754739342, 0.13445123188557, 0
641, 0.87452915980302, 0.10551182092354, 0
642, 0.13474388720214, -0.22073474524295, 0
643, 0.026545813185058, -0.19324873977904, 0
644, 0.22487612659329, 0.098388003091391, 0
645, 0.24451812620529, -0.14200685810514, 0
646, 0.2162061665599, -0.22089801290316, 0
647, 0.63729716040612, -0.15829398535409, 0
648, 0.50587044336877, -0.21579075552429, 0
649, 0.56128503497304, 0.23630407291021, 0
650, 0.33062480858757, -0.11414215053568, 0
651, 0.35297641127522, -0.1902832422085, 0
652, 0.21662634162782, -0.1682779706978, 0
653, 0.37497854554905, -0.27186412320168, 0
654, 0.73371046796091, 0.026513440644978, 0
655, 0.77983237756819, -0.080474927162198, 0
656, 0.80815503458098, -0.082002979721674, 0
657, 0.28053329912492, 0.21546729228084, 0
658, 0.22780604798066, 0.18792753627512, 0
659, 0.35745539263683, -0.019550782851418, 0
660, 0.23023385759254, 0.039982769981923, 0
661, 0.026894496885332, -0.27295190923967, 0
662, 0.17648514132066, 0.10162051462252, 0
663, 0.053437164414882, -0.19288843390474, 0
664, 0.12846227153971, 0.18974642029601, 0
665, 0.2706044611882, -0.21979063137793, 0
666, 0.20083358008403, 0.10012540201803, 0
667, 0.35986451829241, -0.11253761762822, 0
668, 0.053833624368929, -0.24608211900865, 0
669, 0.38765834466158, 0.028949974553085, 0
670, 0.053089249148225, -0.16623352639656, 0
671, 0.24858276513124, 0.096372210676097, 0
672, 0.052839390525067, -0.13948307047411, 0
673, 0.16063380528304, -0.089432031573171, 0
674, 0.48807536305066, -0.086655547066871, 0
675, 0.83845695721623, -0.16279957856465, 0
676, 0.86432837812951, -0.11002934927014, 0
677, 0.052283612770418, 0.21832286927234, 0
678, 0.10770487024613, -0.22020826030967, 0
679, 0.18900205341443, -0.22113922927261, 0
680, 0.66273263666928, -0.18604407376, 0
681, 0.63802837277179, -0.21729915815802, 0
682, 0.66284978582538, -0.21570450204388, 0
683, 0.07755662356308, 0.19035438675138, 0
684, 0.080474244115756, -0.19313593458207, 0
685, 0.97293327391451, -0.24613196330489, 0
686, 0.89496489159583, 0.021889669653084, 0
687, 0.91926271946187, -0.084443154532707, 0
688, 0.59207439948742, -0.11572233183863, 0
689, 0.61207176160525, -0.22041441209726, 0
690, 0.69772878065025, 0.068698900988157, 0
691, 0.91948543921582, -0.057959480226127, 0
692, 0.64400619378157, 0.03821668838749, 0
693, 0.71064908075623, 0.033429043919988, 0
694, 0.76015933536682, 0.023752993940374, 0
695, 0.79310307820641, 0.18996478688371, 0
696, 0.65626883381641, 0.071782666896924, 0
697, 0.73591096664276, -0.27279467172632, 0
698, 0.72324661757563, -0.026066271052735, 0
699, 0.8648087415865, -0.13654327793561, 0
700, 0.86514566456019, -0.031622498279935, 0
701, 0.32946637889047, -0.042314162471547, 0
702, 0.10696527980404, -0.14072484023795, 0
703, 0.15392971693207, 0.045756526966143, 0
704, 0.18571659923945, -0.037762043813987, 0
705, 0.63149050700334, -0.12675220705861, 0
706, 0.49010639140151, -0.15936300487904, 0
707, 0.58640769744361, -0.19945141455944, 0
708, 0.62997021439428, -0.072519811792237, 0
709, 0.51096779162965, -0.10688377054681, 0
710, 0.76243023662742, -0.24491869244826, 0
711, 0.7046424784101, -0.12716358102039, 0
712, 0.53533693694151, -0.043165862728181, 0
713, 0.56111615159889, -0.079618894488844, 0
714, 0.24911832003817, 0.15727479432465, 0
715, 0.32456365239302, -0.21816282427281, 0
716, 0.32292068277051, 0.18256566579491, 0
717, 0.053741586787039, -0.21947817388367, 0
718, 0.077360999080218, 0.049921267951249, 0
719, 0.89510614143356, 0.21839855362881, 0
720, 0.92119923640988, 0.21839670777596, 0
721, 0.026296796013674, -0.02985285597885, 0
722, 0.026285834326785, -0.16628360742613, 0
723, 0.02574400905613, 0.16374626951613, 0
724, 0.10628746967486, -0.087704761094624, 0
725, 0.34011606543972, 0.086665314369783, 0
726, 0.1891472748198, -0.16836942666492, 0
727, 0.17935340132655, 0.044074467560642, 0
728, 0.33134051801554, -0.065726401497289, 0
729, 0.29860462522152, -0.19250250741323, 0
730, 0.13383958901648, -0.11501640017379, 0
731, 0.18384661160702, -0.011086437346682, 0
732, 0.21602531606643, -0.24737883638563, 0
733, 0.10380843657102, 0.020750686360223, 0
734, 0.87032119812474, 0.19081203840243, 0
735, 0.86903559656719, 0.21848256779434, 0
736, 0.32535062444143, -0.01904752195402, 0
737, 0.15362779615466, 0.18939824335926, 0
738, 0.21649386384699, -0.11639246744185, 0
739, 0.26107412213665, 0.010004641146368, 0
740, 0.15186301708854, 0.10291901947996, 0
741, 0.1053508533834, -0.034055019168818, 0
742, 0.025636322297815, 0.13591897234109, 0
743, 0.20332619233058, 0.18851351645415, 0
744, 0.18812799654139, -0.09013114014886, 0
745, 0.16160338600211, -0.24759234403134, 0
746, 0.32744683575733, -0.16515383520225, 0
747, 0.36263508090646, 0.14229774777253, 0
748, 0.79146638457386, 0.048727374932339, 0
749, 0.8034172760827, 0.10485845135819, 0
750, 0.83914361263155, -0.0052765146779893, 0
751, 0.8445601774414, 0.19083145527114, 0
752, 0.87173909378041, 0.16282723675793, 0
753, 0.8092452688973, -0.0306933294275, 0
754, 0.7119300497749, -0.21535466851022, 0
755, 0.89266404050947, -0.031616650756832, 0
756, 0.78082993794327, -0.029596082487054, 0
757, 0.75571242065392, -0.0024844822984755, 0
758, 0.78362768737635, -0.0039895237640409, 0
759, 0.86690156444418, -0.24513573283218, 0
760, 0.02606214780299, -0.11181979554141, 0
761, 0.1611921421753, -0.11566272297869, 0
762, 0.13192706082588, -0.035282486848955, 0
763, 0.66959849705511, -0.097354594689036, 0
764, 0.89435226833723, -0.27249172200017, 0
765, 0.78150694575914, -0.10652482716092, 0
766, 0.37759040990078, -0.2163379830663, 0
767, 0.3236449644397, -0.2451887527397, 0
768, 0.36237652298423, -0.064526612201754, 0
769, 0.1074851333854, -0.24683543713817, 0
770, 0.079777229612625, -0.27310134781839, 0
771, 0.8114935726952, -0.0048838360002459, 0
772, 0.91926520037428, -0.13750825545897, 0
773, 0.73582808537009, -0.18688084416292, 0
774, 0.97344767607341, -0.11170341124954, 0
775, 0.70411895398681, 0.10425361986652, 0
776, 0.78729336163183, 0.022121169171242, 0
777, 0.91930069685716, -0.19100311281653, 0
778, 0.97364147235531, -0.030202600306795, 0
779, 0.026152017643711, -0.13911870168435, 0
780, 0.69784835218166, -0.099344447288546, 0
781, 0.65459989086057, -0.12480759182234, 0
782, 0.53982102600628, -0.16048443037661, 0
783, 0.18158164314258, 0.01615942935503, 0
784, 0.078912985112387, -0.032803526319508, 0
785, 0.75213618039842, -0.028022301880436, 0
786, 0.83622579629318, -0.083087984910228, 0
787, 0.89245333879709, -0.19068664254147, 0
788, 0.91929763315721, -0.16419322877943, 0
789, 0.37804166957437, 0.18993294422665, 0
790, 0.33999466610076, 0.14928211545124, 0
791, 0.58809984425095, -0.17505498800552, 0
792, 0.20581485606288, 0.21723232742217, 0
793, 0.69472421105951, -0.02311996027881, 0
794, 0.28163305945103, 0.034769549213568, 0
795, 0.17859031993876, 0.18899074507343, 0
796, 0.10467151104388, -0.0068168832643108, 0
797, 0.02560150265004, 0.10800581027297, 0
798, 0.18714378671572, -0.064053674305836, 0
799, 0.3941437005897, -0.039897616004353, 0
800, 0.33156689890137, -0.089617840160943, 0
801, 0.66559545497979, 0.036116991690998, 0
802, 0.23090408048058, 0.2168616894384, 0
803, 0.59653869518018, -0.076471184919613, 0
804, 0.81880918759973, 0.19064499453618, 0
805, 0.67651830096454, 0.0047360795448879, 0
806, 0.27193241633845, 0.094072383834463, 0
807, 0.79539629552338, 0.16205246089483, 0
808, 0.76484051212421, 0.050441033303946, 0
809, 0.57245472329973, -0.034617023569643, 0
810, 0.45444404659786, -0.085898131722688, 0
811, 0.72808680477208, -0.00038516907205793, 0
812, 0.26953319222445, -0.041266338637713, 0
813, 0.12699671342669, 0.10406509271529, 0
814, 0.71693015673335, 0.21002612079755, 0
815, 0.66030355154943, -0.15556552969997, 0
816, 0.1019108022876, 0.10510219565463, 0
817, 0.64883641802344, 0.20279747785635, 0
818, 0.56437485283198, -0.014142888661721, 0
819, 0.49770901749399, -0.13216579563391, 0
820, 0.5595571137653, -0.19397343696615, 0
821, 0.12965149320038, 0.21790455817066, 0
822, 0.27084065893634, 0.12506248959664, 0
823, 0.57336309727417, -0.10199853119873, 0
824, 0.86805310686318, -0.27259813886531, 0
825, 0.16105570427876, -0.27400111173678, 0
826, 0.7727026809987, 0.13294569321435, 0
827, 0.60841792219847, 0.22329099247737, 0
828, 0.86833949197506, 0.021433003504546, 0
829, 0.39543664785844, 0.22546963277596, 0
830, 0.052594098647656, -0.058635493890922, 0
831, 0.079823199994197, -0.14005605479471, 0
832, 0.51569590028067, -0.1590549681856, 0
833, 0.69438377052349, 0.20773114724, 0
834, 0.78043254478011, 0.10483194977224, 0
835, 0.39188224579073, -0.018476199636161, 0
836, 0.40040964399112, -0.2716099062224, 0
837, 0.40166528606777, -0.24343901353267, 0
838, 0.4036634459969, -0.21553584018819, 0
839, 0.40638072904251, -0.18796578596766, 0
840, 0.40977438149684, -0.16083665184368, 0
841, 0.41375517304217, -0.13430588629753, 0
842, 0.41866247659296, -0.10870179261678, 0
843, 0.42307807610011, -0.084233061198605, 0
844, 0.42583892974333, -0.060578622327338, 0
845, 0.42728356951483, -0.037391330870942, 0
846, 0.42860606183937, -0.014801406986574, 0
847, 0.74451242246862, 0.15622584356419, 0
848, 0.74275613586935, 0.18550658756976, 0
849, 0.72053729109834, 0.17750523427523, 0
850, 0.72319840480311, 0.14248565095, 0
851, 0.75639861229703, 0.10491866245137, 0
852, 0.74362309955281, 0.081762540502384, 0
853, 0.7460771096796, 0.12810882161732, 0
854, 0.72462083057624, 0.1043673779324, 0
******* E L E M E N T S *************
*ELEMENT, type=CPS4, ELSET=Surface1
1, 181, 340, 341, 338
2, 338, 341, 339, 180
3, 341, 90, 98, 339
4, 340, 97, 90, 341
5, 98, 91, 344, 339
6, 339, 344, 342, 180
7, 344, 343, 179, 342
8, 91, 99, 343, 344
9, 542, 602, 754, 608
10, 585, 675, 315, 403
11, 388, 753, 756, 483
12, 58, 48, 774, 304
13, 294, 504, 508, 282
14, 277, 687, 293, 276
15, 444, 270, 686, 482
16, 788, 772, 484, 577
17, 304, 774, 165, 578
18, 481, 329, 640, 752
19, 271, 347, 780, 711
20, 778, 349, 412, 296
21, 721, 117, 107, 631
22, 193, 560, 209, 622
23, 816, 479, 635, 435
24, 206, 198, 626, 794
25, 63, 361, 362, 52
26, 52, 362, 359, 62
27, 362, 360, 265, 359
28, 361, 244, 360, 362
29, 62, 359, 364, 51
30, 496, 518, 437, 489
31, 264, 487, 505, 422
32, 359, 265, 363, 364
33, 658, 802, 792, 743
34, 803, 823, 688, 544
35, 769, 428, 770, 197
36, 760, 108, 119, 779
37, 181, 370, 371, 340
38, 340, 371, 89, 97
39, 371, 369, 96, 89
40, 370, 182, 369, 371
41, 351, 411, 301, 759
42, 352, 777, 787, 411
43, 541, 166, 271, 597
44, 41, 421, 350, 33
45, 77, 70, 378, 375
46, 375, 378, 376, 251
47, 378, 377, 252, 376
48, 70, 78, 377, 378
49, 149, 381, 382, 379
50, 379, 382, 380, 157
51, 382, 25, 28, 380
52, 381, 2, 25, 382
53, 214, 308, 667, 207
54, 779, 119, 109, 722
55, 790, 456, 716, 560
56, 838, 766, 638, 837
57, 46, 57, 518, 496
58, 772, 277, 276, 484
59, 520, 364, 363, 373
60, 33, 350, 697, 40
61, 152, 725, 323, 171
62, 228, 210, 194, 746
63, 683, 238, 677, 392
64, 726, 226, 229, 216
65, 250, 394, 395, 393
66, 393, 395, 375, 251
67, 395, 69, 77, 375
68, 394, 76, 69, 395
69, 184, 397, 398, 396
70, 396, 398, 369, 182
71, 398, 88, 96, 369
72, 397, 95, 88, 398
73, 29, 27, 402, 399
74, 399, 402, 400, 162
75, 402, 401, 150, 400
76, 27, 3, 401, 402
77, 824, 759, 443, 488
78, 438, 300, 541, 607
79, 353, 372, 297, 347
80, 276, 293, 374, 676
81, 63, 53, 408, 361
82, 361, 408, 406, 244
83, 408, 407, 245, 406
84, 53, 64, 407, 408
85, 157, 380, 410, 409
86, 409, 410, 399, 162
87, 410, 26, 29, 399
88, 380, 28, 26, 410
89, 710, 606, 602, 542
90, 37, 345, 264, 44
91, 268, 596, 168, 421
92, 274, 656, 655, 765
93, 249, 414, 415, 413
94, 413, 415, 394, 250
95, 415, 68, 76, 394
96, 414, 75, 68, 415
97, 79, 72, 419, 416
98, 416, 419, 417, 254
99, 419, 418, 255, 417
100, 72, 80, 418, 419
101, 61, 51, 364, 520
102, 606, 607, 773, 602
103, 300, 167, 166, 541
104, 259, 755, 700, 275
105, 423, 760, 779, 672
106, 392, 677, 556, 571
107, 475, 762, 367, 158
108, 204, 683, 392, 559
109, 792, 181, 338, 616
110, 189, 669, 231, 446
111, 433, 184, 396, 657
112, 643, 120, 110, 154
113, 356, 503, 726, 652
114, 789, 319, 183, 390
115, 201, 558, 572, 593
116, 622, 209, 637, 822
117, 197, 770, 11, 19
118, 551, 129, 142, 153
119, 571, 556, 102, 113
120, 684, 663, 717, 467
121, 45, 56, 685, 345
122, 754, 404, 292, 506
123, 484, 276, 676, 699
124, 811, 757, 694, 654
125, 100, 93, 442, 440
126, 440, 442, 441, 178
127, 442, 101, 112, 441
128, 93, 8, 101, 442
129, 257, 749, 241, 239
130, 518, 580, 305, 437
131, 807, 257, 239, 584
132, 195, 155, 595, 426
133, 205, 424, 739, 188
134, 784, 218, 830, 186
135, 838, 837, 149, 575
136, 368, 199, 738, 222
137, 445, 156, 678, 642
138, 198, 172, 806, 626
139, 467, 717, 668, 428
140, 64, 54, 452, 407
141, 407, 452, 450, 245
142, 452, 451, 248, 450
143, 54, 65, 451, 452
144, 99, 92, 454, 343
145, 343, 454, 453, 179
146, 454, 440, 178, 453
147, 92, 100, 440, 454
148, 225, 732, 524, 332
149, 155, 704, 798, 595
150, 190, 225, 332, 436
151, 207, 667, 187, 455
152, 65, 55, 458, 451
153, 451, 458, 457, 248
154, 458, 66, 74, 457
155, 55, 5, 66, 458
156, 391, 180, 342, 821
157, 355, 179, 453, 238
158, 733, 497, 718, 623
159, 663, 643, 154, 717
160, 183, 461, 462, 324
161, 324, 462, 397, 184
162, 462, 87, 95, 397
163, 461, 94, 87, 462
164, 78, 71, 464, 377
165, 377, 464, 463, 252
166, 464, 416, 254, 463
167, 71, 79, 416, 464
168, 797, 742, 114, 104
169, 174, 658, 743, 325
170, 841, 455, 552, 840
171, 199, 744, 548, 738
172, 163, 469, 470, 468
173, 468, 470, 387, 164
174, 470, 31, 39, 387
175, 469, 38, 31, 470
176, 747, 128, 141, 471
177, 171, 323, 172, 198
178, 216, 229, 636, 679
179, 615, 159, 218, 784
180, 150, 401, 474, 473
181, 473, 474, 469, 163
182, 474, 30, 38, 469
183, 401, 3, 30, 474
184, 203, 324, 184, 433
185, 170, 589, 115, 105
186, 591, 325, 558, 201
187, 326, 666, 662, 169
188, 514, 200, 497, 733
189, 671, 221, 365, 644
190, 472, 368, 222, 211
191, 665, 621, 225, 190
192, 40, 697, 316, 32
193, 267, 438, 607, 606
194, 315, 389, 167, 300
195, 412, 373, 270, 444
196, 80, 73, 486, 418
197, 418, 486, 313, 255
198, 486, 485, 161, 313
199, 73, 6, 485, 486
200, 566, 160, 579, 241
201, 48, 59, 298, 774
202, 578, 165, 277, 772
203, 687, 691, 259, 293
204, 151, 491, 492, 320
205, 320, 492, 461, 183
206, 492, 86, 94, 461
207, 491, 7, 86, 492
208, 248, 457, 494, 493
209, 493, 494, 414, 249
210, 494, 67, 75, 414
211, 457, 74, 67, 494
212, 272, 348, 749, 834
213, 35, 824, 488, 42
214, 293, 259, 275, 374
215, 603, 793, 698, 811
216, 153, 747, 790, 232
217, 186, 830, 632, 618
218, 609, 715, 767, 526
219, 714, 460, 658, 174
220, 265, 500, 501, 363
221, 774, 298, 586, 165
222, 421, 168, 710, 350
223, 500, 266, 499, 501
224, 306, 433, 657, 234
225, 594, 427, 425, 660
226, 429, 190, 436, 498
227, 222, 738, 356, 645
228, 765, 655, 372, 353
229, 607, 541, 597, 773
230, 439, 585, 403, 517
231, 507, 785, 698, 420
232, 281, 311, 509, 508
233, 706, 545, 547, 832
234, 311, 279, 303, 509
235, 256, 511, 512, 510
236, 510, 512, 81, 84
237, 512, 485, 6, 81
238, 511, 161, 485, 512
239, 618, 632, 423, 358
240, 502, 624, 527, 590
241, 471, 141, 127, 789
242, 845, 799, 557, 844
243, 275, 700, 299, 273
244, 50, 61, 520, 349
245, 685, 496, 489, 487
246, 443, 439, 517, 596
247, 185, 522, 523, 521
248, 521, 523, 82, 85
249, 523, 510, 84, 82
250, 522, 256, 510, 523
251, 159, 191, 233, 431
252, 703, 357, 217, 200
253, 431, 233, 116, 106
254, 795, 616, 391, 737
255, 7, 491, 529, 83
256, 83, 529, 521, 85
257, 529, 528, 185, 521
258, 491, 151, 528, 529
259, 251, 376, 533, 530
260, 753, 299, 750, 771
261, 693, 336, 805, 603
262, 853, 851, 834, 826
263, 162, 400, 537, 534
264, 832, 547, 535, 782
265, 545, 574, 648, 547
266, 400, 150, 536, 537
267, 244, 539, 540, 360
268, 360, 540, 500, 265
269, 540, 538, 266, 500
270, 539, 243, 538, 540
271, 437, 305, 788, 777
272, 263, 280, 274, 389
273, 350, 710, 542, 697
274, 841, 840, 334, 302
275, 330, 132, 145, 227
276, 823, 283, 286, 219
277, 331, 818, 133, 146
278, 708, 282, 508, 509
279, 810, 843, 842, 220
280, 818, 546, 147, 133
281, 432, 435, 619, 477
282, 837, 836, 381, 149
283, 156, 684, 467, 678
284, 678, 467, 428, 769
285, 247, 554, 555, 553
286, 553, 555, 406, 245
287, 555, 539, 244, 406
288, 554, 243, 539, 555
289, 718, 432, 477, 430
290, 761, 730, 385, 570
291, 717, 154, 230, 668
292, 284, 333, 278, 674
293, 175, 551, 725, 152
294, 830, 631, 386, 632
295, 449, 769, 197, 235
296, 210, 212, 307, 194
297, 147, 546, 564, 134
298, 134, 564, 563, 148
299, 852, 272, 834, 851
300, 239, 241, 579, 329
301, 251, 530, 567, 393
302, 393, 567, 565, 250
303, 246, 808, 272, 852
304, 854, 587, 246, 852
305, 647, 629, 285, 291
306, 333, 712, 236, 278
307, 803, 713, 283, 823
308, 219, 782, 290, 327
309, 386, 118, 108, 760
310, 737, 391, 821, 664
311, 232, 790, 560, 193
312, 705, 568, 629, 647
313, 809, 279, 546, 818
314, 544, 705, 781, 569
315, 576, 379, 157, 574
316, 575, 149, 379, 576
317, 270, 501, 499, 686
318, 420, 698, 793, 504
319, 751, 481, 752, 734
320, 160, 604, 641, 579
321, 148, 563, 583, 135
322, 135, 583, 581, 9
323, 258, 828, 605, 310
324, 533, 242, 695, 530
325, 586, 495, 691, 687
326, 489, 437, 777, 352
327, 60, 50, 349, 778
328, 253, 613, 328, 634
329, 639, 582, 613, 253
330, 610, 696, 692, 801
331, 231, 152, 171, 633
332, 704, 475, 158, 798
333, 498, 436, 22, 15
334, 385, 702, 620, 383
335, 560, 716, 306, 209
336, 661, 111, 1, 10
337, 428, 668, 202, 770
338, 233, 170, 105, 116
339, 329, 579, 641, 640
340, 372, 507, 420, 297
341, 577, 484, 699, 354
342, 297, 420, 504, 294
343, 256, 522, 600, 598
344, 598, 600, 125, 138
345, 600, 599, 139, 125
346, 522, 185, 599, 600
347, 728, 192, 592, 800
348, 630, 426, 368, 472
349, 715, 384, 429, 767
350, 821, 342, 179, 355
351, 266, 604, 605, 499
352, 755, 482, 405, 700
353, 691, 295, 755, 259
354, 854, 775, 690, 587
355, 848, 847, 337, 242
356, 565, 751, 734, 735
357, 168, 267, 606, 710
358, 347, 297, 294, 780
359, 435, 635, 515, 619
360, 626, 806, 671, 427
361, 217, 813, 816, 516
362, 635, 204, 559, 515
363, 328, 240, 123, 136
364, 530, 695, 804, 567
365, 804, 584, 481, 751
366, 603, 805, 281, 793
367, 358, 423, 672, 831
368, 192, 630, 472, 592
369, 175, 143, 129, 551
370, 631, 107, 118, 386
371, 151, 318, 617, 528
372, 528, 617, 599, 185
373, 617, 126, 139, 599
374, 318, 140, 126, 617
375, 844, 557, 214, 843
376, 383, 620, 156, 445
377, 812, 195, 426, 630
378, 660, 425, 326, 478
379, 215, 480, 683, 204
380, 173, 561, 621, 665
381, 677, 178, 441, 556
382, 223, 633, 206, 213
383, 525, 812, 630, 192
384, 176, 825, 20, 13
385, 767, 429, 498, 434
386, 835, 446, 223, 659
387, 158, 367, 466, 673
388, 331, 146, 132, 330
389, 836, 17, 2, 381
390, 625, 651, 609, 766
391, 619, 515, 742, 797
392, 670, 722, 643, 663
393, 756, 753, 771, 758
394, 634, 122, 9, 581
395, 463, 814, 588, 252
396, 196, 652, 177, 561
397, 513, 701, 728, 768
398, 842, 207, 455, 841
399, 592, 472, 211, 208
400, 243, 640, 641, 538
401, 538, 641, 604, 266
402, 346, 833, 532, 582
403, 690, 610, 801, 336
404, 425, 644, 666, 326
405, 226, 383, 445, 229
406, 497, 516, 432, 718
407, 325, 743, 795, 558
408, 615, 623, 191, 159
409, 736, 213, 424, 205
410, 666, 591, 201, 662
411, 332, 524, 21, 14
412, 220, 302, 335, 224
413, 287, 227, 846, 845
414, 648, 409, 162, 534
415, 574, 157, 409, 648
416, 138, 124, 649, 598
417, 598, 649, 511, 256
418, 649, 312, 161, 511
419, 124, 137, 312, 649
420, 651, 447, 715, 609
421, 200, 217, 516, 497
422, 479, 215, 204, 635
423, 745, 449, 235, 825
424, 590, 527, 783, 731
425, 384, 665, 190, 429
426, 650, 208, 210, 228
427, 645, 356, 652, 196
428, 374, 275, 273, 786
429, 280, 786, 656, 274
430, 504, 793, 281, 508
431, 580, 304, 578, 305
432, 235, 197, 19, 12
433, 669, 130, 143, 175
434, 742, 723, 103, 114
435, 367, 614, 724, 466
436, 727, 169, 357, 703
437, 782, 535, 820, 290
438, 667, 650, 228, 187
439, 172, 622, 822, 806
440, 436, 332, 14, 22
441, 595, 798, 744, 199
442, 846, 189, 446, 835
443, 744, 673, 761, 548
444, 646, 679, 322, 732
445, 159, 431, 721, 218
446, 783, 727, 703, 601
447, 234, 657, 448, 460
448, 230, 121, 111, 661
449, 802, 370, 181, 792
450, 798, 158, 673, 744
451, 322, 745, 825, 176
452, 825, 235, 12, 20
453, 551, 153, 232, 725
454, 227, 145, 131, 846
455, 187, 228, 746, 321
456, 465, 514, 733, 796
457, 290, 820, 707, 791
458, 517, 403, 438, 267
459, 773, 597, 490, 404
460, 411, 787, 317, 301
461, 34, 268, 421, 41
462, 456, 390, 203, 716
463, 550, 601, 514, 465
464, 229, 445, 642, 636
465, 446, 231, 633, 223
466, 291, 681, 682, 680
467, 680, 682, 506, 292
468, 682, 468, 164, 506
469, 681, 163, 468, 682
470, 636, 642, 449, 745
471, 285, 707, 536, 689
472, 766, 609, 526, 638
473, 57, 47, 580, 518
474, 301, 317, 585, 439
475, 305, 578, 772, 788
476, 803, 303, 627, 713
477, 689, 473, 163, 681
478, 536, 150, 473, 689
479, 487, 489, 352, 505
480, 699, 676, 280, 263
481, 389, 274, 765, 167
482, 711, 780, 763, 289
483, 260, 309, 696, 610
484, 613, 817, 240, 328
485, 656, 388, 483, 655
486, 655, 483, 507, 372
487, 482, 686, 828, 405
488, 404, 490, 519, 292
489, 488, 443, 596, 268
490, 664, 821, 355, 480
491, 194, 307, 173, 729
492, 323, 193, 622, 172
493, 221, 714, 174, 365
494, 815, 647, 291, 680
495, 707, 820, 537, 536
496, 674, 278, 237, 810
497, 568, 573, 791, 629
498, 629, 791, 707, 285
499, 713, 284, 709, 283
500, 781, 705, 647, 815
501, 823, 219, 327, 688
502, 49, 60, 778, 269
503, 764, 351, 759, 824
504, 597, 271, 711, 490
505, 675, 263, 389, 315
506, 365, 174, 325, 591
507, 839, 838, 575, 288
508, 557, 768, 308, 214
509, 177, 216, 679, 646
510, 593, 572, 562, 459
511, 846, 131, 144, 189
512, 249, 719, 720, 493
513, 493, 720, 450, 248
514, 720, 553, 245, 450
515, 719, 247, 553, 720
516, 426, 595, 199, 368
517, 477, 619, 797, 589
518, 516, 816, 435, 432
519, 556, 441, 112, 102
520, 562, 664, 480, 215
521, 357, 740, 813, 217
522, 843, 214, 207, 842
523, 202, 661, 10, 18
524, 616, 338, 180, 391
525, 480, 355, 238, 683
526, 460, 448, 802, 658
527, 503, 570, 226, 726
528, 448, 182, 370, 802
529, 208, 211, 212, 210
530, 459, 562, 215, 479
531, 390, 183, 324, 203
532, 637, 234, 460, 714
533, 601, 703, 200, 514
534, 247, 719, 735, 734
535, 808, 748, 348, 272
536, 735, 413, 250, 565
537, 719, 249, 413, 735
538, 466, 724, 476, 730
539, 286, 832, 782, 219
540, 561, 177, 646, 621
541, 747, 471, 456, 790
542, 209, 306, 234, 637
543, 789, 127, 140, 319
544, 839, 625, 766, 838
545, 723, 571, 113, 103
546, 730, 476, 702, 385
547, 527, 478, 727, 783
548, 701, 525, 192, 728
549, 548, 761, 570, 503
550, 729, 173, 665, 384
551, 652, 726, 216, 177
552, 724, 618, 358, 476
553, 188, 739, 624, 502
554, 558, 795, 737, 572
555, 740, 593, 459, 813
556, 515, 559, 723, 742
557, 679, 636, 745, 322
558, 260, 639, 253, 309
559, 696, 583, 563, 692
560, 611, 612, 279, 311
561, 336, 801, 611, 805
562, 309, 581, 583, 696
563, 734, 752, 554, 247
564, 752, 640, 243, 554
565, 337, 826, 257, 807
566, 584, 239, 329, 481
567, 587, 693, 654, 246
568, 59, 49, 269, 298
569, 588, 848, 242, 533
570, 165, 586, 687, 277
571, 596, 517, 267, 168
572, 373, 363, 501, 270
573, 567, 804, 751, 565
574, 776, 262, 531, 748
575, 775, 260, 610, 690
576, 242, 337, 807, 695
577, 602, 773, 404, 754
578, 786, 273, 388, 656
579, 56, 46, 496, 685
580, 296, 412, 444, 295
581, 212, 645, 196, 307
582, 799, 513, 768, 557
583, 796, 733, 623, 615
584, 189, 144, 130, 669
585, 686, 499, 605, 828
586, 490, 711, 289, 519
587, 582, 532, 817, 613
588, 262, 258, 310, 531
589, 762, 741, 614, 367
590, 738, 548, 503, 356
591, 741, 784, 186, 614
592, 476, 358, 831, 702
593, 672, 779, 722, 670
594, 154, 110, 121, 230
595, 732, 322, 176, 524
596, 589, 797, 104, 115
597, 213, 206, 794, 424
598, 669, 175, 152, 231
599, 549, 434, 23, 16
600, 366, 670, 663, 684
601, 345, 685, 487, 264
602, 44, 264, 422, 36
603, 403, 315, 300, 438
604, 316, 608, 164, 387
605, 495, 296, 295, 691
606, 505, 352, 411, 351
607, 750, 405, 828, 258
608, 47, 58, 304, 580
609, 269, 778, 296, 495
610, 32, 316, 387, 39
611, 354, 699, 263, 675
612, 673, 466, 730, 761
613, 659, 223, 213, 736
614, 430, 477, 589, 170
615, 211, 222, 645, 212
616, 608, 754, 506, 164
617, 780, 294, 282, 763
618, 676, 374, 786, 280
619, 289, 781, 815, 519
620, 334, 288, 543, 628
621, 191, 430, 170, 233
622, 746, 194, 729, 447
623, 434, 498, 15, 23
624, 552, 321, 651, 625
625, 794, 626, 427, 594
626, 422, 505, 351, 764
627, 43, 764, 824, 35
628, 317, 354, 675, 585
629, 483, 756, 785, 507
630, 349, 520, 373, 412
631, 777, 788, 577, 787
632, 624, 660, 478, 527
633, 237, 287, 845, 844
634, 770, 202, 18, 11
635, 743, 792, 616, 795
636, 725, 232, 193, 323
637, 424, 794, 594, 739
638, 284, 674, 224, 709
639, 570, 385, 383, 226
640, 447, 729, 384, 715
641, 771, 750, 258, 262
642, 787, 577, 354, 317
643, 310, 605, 604, 160
644, 759, 301, 439, 443
645, 840, 552, 625, 839
646, 768, 728, 800, 308
647, 333, 627, 809, 712
648, 526, 767, 434, 549
649, 218, 721, 631, 830
650, 471, 789, 390, 456
651, 321, 746, 447, 651
652, 688, 327, 573, 568
653, 642, 678, 769, 449
654, 524, 176, 13, 21
655, 644, 365, 591, 666
656, 822, 637, 714, 221
657, 309, 253, 634, 581
658, 785, 756, 758, 757
659, 42, 488, 268, 34
660, 295, 444, 482, 755
661, 836, 653, 24, 17
662, 662, 201, 593, 740
663, 653, 549, 16, 24
664, 668, 230, 661, 202
665, 810, 237, 844, 843
666, 236, 330, 227, 287
667, 547, 648, 534, 535
668, 283, 709, 819, 286
669, 748, 531, 566, 348
670, 612, 564, 546, 279
671, 826, 834, 749, 257
672, 348, 566, 241, 749
673, 535, 534, 537, 820
674, 813, 459, 479, 816
675, 427, 671, 644, 425
676, 543, 576, 574, 545
677, 166, 353, 347, 271
678, 758, 771, 262, 776
679, 847, 853, 826, 337
680, 273, 299, 753, 388
681, 806, 822, 221, 671
682, 569, 781, 289, 763
683, 519, 815, 680, 292
684, 854, 852, 851, 853
685, 695, 807, 584, 804
686, 694, 776, 748, 808
687, 698, 785, 757, 811
688, 800, 592, 208, 650
689, 478, 326, 169, 727
690, 632, 386, 760, 423
691, 633, 171, 198, 206
692, 654, 694, 808, 246
693, 531, 310, 160, 566
694, 842, 841, 302, 220
695, 153, 142, 128, 747
696, 614, 186, 618, 724
697, 623, 718, 430, 191
698, 628, 543, 545, 706
699, 252, 588, 533, 376
700, 240, 314, 137, 123
701, 587, 690, 336, 693
702, 817, 255, 314, 240
703, 627, 303, 279, 809
704, 840, 839, 288, 334
705, 544, 688, 568, 705
706, 803, 544, 569, 708
707, 335, 628, 706, 819
708, 620, 366, 684, 156
709, 702, 831, 366, 620
710, 739, 594, 660, 624
711, 328, 136, 122, 634
712, 833, 814, 463, 254
713, 532, 417, 255, 817
714, 638, 526, 549, 653
715, 455, 187, 321, 552
716, 708, 569, 763, 282
717, 837, 638, 653, 836
718, 712, 809, 818, 331
719, 238, 453, 178, 677
720, 327, 290, 791, 573
721, 291, 285, 689, 681
722, 712, 331, 330, 236
723, 167, 765, 353, 166
724, 298, 269, 495, 586
725, 692, 563, 564, 612
726, 831, 672, 670, 366
727, 731, 783, 601, 550
728, 559, 392, 571, 723
729, 299, 700, 405, 750
730, 757, 758, 776, 694
731, 801, 692, 612, 611
732, 137, 314, 827, 312
733, 312, 827, 313, 161
734, 314, 255, 313, 827
735, 697, 542, 608, 316
736, 4, 45, 345, 37
737, 36, 422, 764, 43
738, 151, 320, 829, 318
739, 318, 829, 319, 140
740, 320, 183, 319, 829
741, 722, 109, 120, 643
742, 431, 106, 117, 721
743, 572, 737, 664, 562
744, 307, 196, 561, 173
745, 657, 396, 182, 448
746, 308, 800, 650, 667
747, 803, 708, 509, 303
748, 713, 627, 333, 284
749, 693, 603, 811, 654
750, 532, 833, 254, 417
751, 674, 810, 220, 224
752, 819, 706, 832, 286
753, 288, 575, 576, 543
754, 621, 646, 732, 225
755, 169, 662, 740, 357
756, 709, 224, 335, 819
757, 302, 334, 628, 335
758, 278, 236, 287, 237
759, 716, 203, 433, 306
760, 805, 611, 311, 281
761, 796, 615, 784, 741
762, 465, 796, 741, 762
763, 550, 465, 762, 475
764, 731, 550, 475, 704
765, 590, 731, 704, 155
766, 502, 590, 155, 195
767, 188, 502, 195, 812
768, 205, 188, 812, 525
769, 736, 205, 525, 701
770, 659, 736, 701, 513
771, 835, 659, 513, 799
772, 846, 835, 799, 845
773, 261, 346, 582, 639
774, 775, 261, 639, 260
775, 849, 814, 833, 346
776, 850, 849, 346, 261
777, 854, 850, 261, 775
778, 849, 848, 588, 814
779, 850, 847, 848, 849
780, 854, 853, 847, 850
*ELSET,ELSET=contact_source
99, 100, 101, 102, 103, 104, 105, 106, 107, 108, 
109, 110, 111, 112, 113, 114, 115, 116, 117, 118, 
119, 120, 
*ELSET,ELSET=contact_drain
39, 40, 41, 42, 43, 44, 45, 46, 47, 48, 
49, 50, 51, 52, 53, 54, 55, 56, 57, 58, 
59, 60, 
*ELSET,ELSET=probe_A
77, 78, 79, 80, 81, 82, 
*ELSET,ELSET=probe_B
17, 18, 19, 20, 21, 22, 
*ELSET,ELSET=walls
1, 2, 3, 4, 5, 6, 7, 8, 9, 10, 
11, 12, 13, 14, 15, 16, 23, 24, 25, 26, 
27, 28, 29, 30, 31, 32, 33, 34, 35, 36, 
37, 38, 61, 62, 63, 64, 65, 66, 67, 68, 
69, 70, 71, 72, 73, 74, 75, 76, 83, 84, 
85, 86, 87, 88, 89, 90, 91, 92, 93, 94, 
95, 96, 97, 98, 121, 122, 123, 124, 125, 126, 
127, 128, 129, 130, 131, 132, 133, 134, 135, 136, 
137, 138, 139, 140, 141, 142, 143, 144, 145, 146, 
147, 148, 
*ELSET,ELSET=domain
149, 150, 151, 152, 153, 154, 155, 156, 157, 158, 
159, 160, 161, 162, 163, 164, 165, 166, 167, 168, 
169, 170, 171, 172, 173, 174, 175, 176, 177, 178, 
179, 180, 181, 182, 183, 184, 185, 186, 187, 188, 
189, 190, 191, 192, 193, 194, 195, 196, 197, 198, 
199, 200, 201, 202, 203, 204, 205, 206, 207, 208, 
209, 210, 211, 212, 213, 214, 215, 216, 217, 218, 
219, 220, 221, 222, 223, 224, 225, 226, 227, 228, 
229, 230, 231, 232, 233, 234, 235, 236, 237, 238, 
239, 240, 241, 242, 243, 244, 245, 246, 247, 248, 
249, 250, 251, 252, 253, 254, 255, 256, 257, 258, 
259, 260, 261, 262, 263, 264, 265, 266, 267, 268, 
269, 270, 271, 272, 273, 274, 275, 276, 277, 278, 
279, 280, 281, 282, 283, 284, 285, 286, 287, 288, 
289, 290, 291, 292, 293, 294, 295, 296, 297, 298, 
299, 300, 301, 302, 303, 304, 305, 306, 307, 308, 
309, 310, 311, 312, 313, 314, 315, 316, 317, 318, 
319, 320, 321, 322, 323, 324, 325, 326, 327, 328, 
329, 330, 331, 332, 333, 334, 335, 336, 337, 338, 
339, 340, 341, 342, 343, 344, 345, 346, 347, 348, 
349, 350, 351, 352, 353, 354, 355, 356, 357, 358, 
359, 360, 361, 362, 363, 364, 365, 366, 367, 368, 
369, 370, 371, 372, 373, 374, 375, 376, 377, 378, 
379, 380, 381, 382, 383, 384, 385, 386, 387, 388, 
389, 390, 391, 392, 393, 394, 395, 396, 397, 398, 
399, 400, 401, 402, 403, 404, 405, 406, 407, 408, 
409, 410, 411, 412, 413, 414, 415, 416, 417, 418, 
419, 420, 421, 422, 423, 424, 425, 426, 427, 428, 
429, 430, 431, 432, 433, 434, 435, 436, 437, 438, 
439, 440, 441, 442, 443, 444, 445, 446, 447, 448, 
449, 450, 451, 452, 453, 454, 455, 456, 457, 458, 
459, 460, 461, 462, 463, 464, 465, 466, 467, 468, 
469, 470, 471, 472, 473, 474, 475, 476, 477, 478, 
479, 480, 481, 482, 483, 484, 485, 486, 487, 488, 
489, 490, 491, 492, 493, 494, 495, 496, 497, 498, 
499, 500, 501, 502, 503, 504, 505, 506, 507, 508, 
509, 510, 511, 512, 513, 514, 515, 516, 517, 518, 
519, 520, 521, 522, 523, 524, 525, 526, 527, 528, 
529, 530, 531, 532, 533, 534, 535, 536, 537, 538, 
539, 540, 541, 542, 543, 544, 545, 546, 547, 548, 
549, 550, 551, 552, 553, 554, 555, 556, 557, 558, 
559, 560, 561, 562, 563, 564, 565, 566, 567, 568, 
569, 570, 571, 572, 573, 574, 575, 576, 577, 578, 
579, 580, 581, 582, 583, 584, 585, 586, 587, 588, 
589, 590, 591, 592, 593, 594, 595, 596, 597, 598, 
599, 600, 601, 602, 603, 604, 605, 606, 607, 608, 
609, 610, 611, 612, 613, 614, 615, 616, 617, 618, 
619, 620, 621, 622, 623, 624, 625, 626, 627, 628, 
629, 630, 631, 632, 633, 634, 635, 636, 637, 638, 
639, 640, 641, 642, 643, 644, 645, 646, 647, 648, 
649, 650, 651, 652, 653, 654, 655, 656, 657, 658, 
659, 660, 661, 662, 663, 664, 665, 666, 667, 668, 
669, 670, 671, 672, 673, 674, 675, 676, 677, 678, 
679, 680, 681, 682, 683, 684, 685, 686, 687, 688, 
689, 690, 691, 692, 693, 694, 695, 696, 697, 698, 
699, 700, 701, 702, 703, 704, 705, 706, 707, 708, 
709, 710, 711, 712, 713, 714, 715, 716, 717, 718, 
719, 720, 721, 722, 723, 724, 725, 726, 727, 728, 
729, 730, 731, 732, 733, 734, 735, 736, 737, 738, 
739, 740, 741, 742, 743, 744, 745, 746, 747, 748, 
749, 750, 751, 752, 753, 754, 755, 756, 757, 758, 
759, 760, 761, 762, 763, 764, 765, 766, 767, 768, 
769, 770, 771, 772, 773, 774, 775, 776, 777, 778, 
779, 780, 781, 782, 783, 784, 785, 786, 787, 788, 
789, 790, 791, 792, 793, 794, 795, 796, 797, 798, 
799, 800, 801, 802, 803, 804, 805, 806, 807, 808, 
809, 810, 811, 812, 813, 814, 815, 816, 817, 818, 
819, 820, 821, 822, 823, 824, 825, 826, 827, 828, 
829, 830, 831, 832, 833, 834, 835, 836, 837, 838, 
839, 840, 841, 842, 843, 844, 845, 846, 847, 848, 
849, 850, 851, 852, 853, 854, 855, 856, 857, 858, 
859, 860, 861, 862, 863, 864, 865, 866, 867, 868, 
869, 870, 871, 872, 873, 874, 875, 876, 877, 878, 
879, 880, 881, 882, 883, 884, 885, 886, 887, 888, 
889, 890, 891, 892, 893, 894, 895, 896, 897, 898, 
899, 900, 901, 902, 903, 904, 905, 906, 907, 908, 
909, 910, 911, 912, 913, 914, 915, 916, 917, 918, 
919, 920, 921, 922, 923, 924, 925, 926, 927, 928, 
*NSET,NSET=contact_source
1, 8, 101, 102, 103, 104, 105, 106, 107, 108, 
109, 110, 111, 112, 113, 114, 115, 116, 117, 118, 
119, 120, 121, 
*NSET,NSET=contact_drain
4, 5, 45, 46, 47, 48, 49, 50, 51, 52, 
53, 54, 55, 56, 57, 58, 59, 60, 61, 62, 
63, 64, 65, 
*NSET,NSET=probe_A
6, 7, 81, 82, 83, 84, 85, 
*NSET,NSET=probe_B
2, 3, 25, 26, 27, 28, 29, 
*NSET,NSET=walls
1, 2, 3, 4, 5, 6, 7, 8, 9, 10, 
11, 12, 13, 14, 15, 16, 17, 18, 19, 20, 
21, 22, 23, 24, 30, 31, 32, 33, 34, 35, 
36, 37, 38, 39, 40, 41, 42, 43, 44, 66, 
67, 68, 69, 70, 71, 72, 73, 74, 75, 76, 
77, 78, 79, 80, 86, 87, 88, 89, 90, 91, 
92, 93, 94, 95, 96, 97, 98, 99, 100, 122, 
123, 124, 125, 126, 127, 128, 129, 130, 131, 132, 
133, 134, 135, 136, 137, 138, 139, 140, 141, 142, 
143, 144, 145, 146, 147, 148, 
*NSET,NSET=domain
1, 2, 3, 4, 5, 6, 7, 8, 9, 10, 
11, 12, 13, 14, 15, 16, 17, 18, 19, 20, 
21, 22, 23, 24, 25, 26, 27, 28, 29, 30, 
31, 32, 33, 34, 35, 36, 37, 38, 39, 40, 
41, 42, 43, 44, 45, 46, 47, 48, 49, 50, 
51, 52, 53, 54, 55, 56, 57, 58, 59, 60, 
61, 62, 63, 64, 65, 66, 67, 68, 69, 70, 
71, 72, 73, 74, 75, 76, 77, 78, 79, 80, 
81, 82, 83, 84, 85, 86, 87, 88, 89, 90, 
91, 92, 93, 94, 95, 96, 97, 98, 99, 100, 
101, 102, 103, 104, 105, 106, 107, 108, 109, 110, 
111, 112, 113, 114, 115, 116, 117, 118, 119, 120, 
121, 122, 123, 124, 125, 126, 127, 128, 129, 130, 
131, 132, 133, 134, 135, 136, 137, 138, 139, 140, 
141, 142, 143, 144, 145, 146, 147, 148, 149, 150, 
151, 152, 153, 154, 155, 156, 157, 158, 159, 160, 
161, 162, 163, 164, 165, 166, 167, 168, 169, 170, 
171, 172, 173, 174, 175, 176, 177, 178, 179, 180, 
181, 182, 183, 184, 185, 186, 187, 188, 189, 190, 
191, 192, 193, 194, 195, 196, 197, 198, 199, 200, 
201, 202, 203, 204, 205, 206, 207, 208, 209, 210, 
211, 212, 213, 214, 215, 216, 217, 218, 219, 220, 
221, 222, 223, 224, 225, 226, 227, 228, 229, 230, 
231, 232, 233, 234, 235, 236, 237, 238, 239, 240, 
241, 242, 243, 244, 245, 246, 247, 248, 249, 250, 
251, 252, 253, 254, 255, 256, 257, 258, 259, 260, 
261, 262, 263, 264, 265, 266, 267, 268, 269, 270, 
271, 272, 273, 274, 275, 276, 277, 278, 279, 280, 
281, 282, 283, 284, 285, 286, 287, 288, 289, 290, 
291, 292, 293, 294, 295, 296, 297, 298, 299, 300, 
301, 302, 303, 304, 305, 306, 307, 308, 309, 310, 
311, 312, 313, 314, 315, 316, 317, 318, 319, 320, 
321, 322, 323, 324, 325, 326, 327, 328, 329, 330, 
331, 332, 333, 334, 335, 336, 337, 338, 339, 340, 
341, 342, 343, 344, 345, 346, 347, 348, 349, 350, 
351, 352, 353, 354, 355, 356, 357, 358, 359, 360, 
361, 362, 363, 364, 365, 366, 367, 368, 369, 370, 
371, 372, 373, 374, 375, 376, 377, 378, 379, 380, 
381, 382, 383, 384, 385, 386, 387, 388, 389, 390, 
391, 392, 393, 394, 395, 396, 397, 398, 399, 400, 
401, 402, 403, 404, 405, 406, 407, 408, 409, 410, 
411, 412, 413, 414, 415, 416, 417, 418, 419, 420, 
421, 422, 423, 424, 425, 426, 427, 428, 429, 430, 
431, 432, 433, 434, 435, 436, 437, 438, 439, 440, 
441, 442, 443, 444, 445, 446, 447, 448, 449, 450, 
451, 452, 453, 454, 455, 456, 457, 458, 459, 460, 
461, 462, 463, 464, 465, 466, 467, 468, 469, 470, 
471, 472, 473, 474, 475, 476, 477, 478, 479, 480, 
481, 482, 483, 484, 485, 486, 487, 488, 489, 490, 
491, 492, 493, 494, 495, 496, 497, 498, 499, 500, 
501, 502, 503, 504, 505, 506, 507, 508, 509, 510, 
511, 512, 513, 514, 515, 516, 517, 518, 519, 520, 
521, 522, 523, 524, 525, 526, 527, 528, 529, 530, 
531, 532, 533, 534, 535, 536, 537, 538, 539, 540, 
541, 542, 543, 544, 545, 546, 547, 548, 549, 550, 
551, 552, 553, 554, 555, 556, 557, 558, 559, 560, 
561, 562, 563, 564, 565, 566, 567, 568, 569, 570, 
571, 572, 573, 574, 575, 576, 577, 578, 579, 580, 
581, 582, 583, 584, 585, 586, 587, 588, 589, 590, 
591, 592, 593, 594, 595, 596, 597, 598, 599, 600, 
601, 602, 603, 604, 605, 606, 607, 608, 609, 610, 
611, 612, 613, 614, 615, 616, 617, 618, 619, 620, 
621, 622, 623, 624, 625, 626, 627, 628, 629, 630, 
631, 632, 633, 634, 635, 636, 637, 638, 639, 640, 
641, 642, 643, 644, 645, 646, 647, 648, 649, 650, 
651, 652, 653, 654, 655, 656, 657, 658, 659, 660, 
661, 662, 663, 664, 665, 666, 667, 668, 669, 670, 
671, 672, 673, 674, 675, 676, 677, 678, 679, 680, 
681, 682, 683, 684, 685, 686, 687, 688, 689, 690, 
691, 692, 693, 694, 695, 696, 697, 698, 699, 700, 
701, 702, 703, 704, 705, 706, 707, 708, 709, 710, 
711, 712, 713, 714, 715, 716, 717, 718, 719, 720, 
721, 722, 723, 724, 725, 726, 727, 728, 729, 730, 
731, 732, 733, 734, 735, 736, 737, 738, 739, 740, 
741, 742, 743, 744, 745, 746, 747, 748, 749, 750, 
751, 752, 753, 754, 755, 756, 757, 758, 759, 760, 
761, 762, 763, 764, 765, 766, 767, 768, 769, 770, 
771, 772, 773, 774, 775, 776, 777, 778, 779, 780, 
781, 782, 783, 784, 785, 786, 787, 788, 789, 790, 
791, 792, 793, 794, 795, 796, 797, 798, 799, 800, 
801, 802, 803, 804, 805, 806, 807, 808, 809, 810, 
811, 812, 813, 814, 815, 816, 817, 818, 819, 820, 
821, 822, 823, 824, 825, 826, 827, 828, 829, 830, 
831, 832, 833, 834, 835, 836, 837, 838, 839, 840, 
841, 842, 843, 844, 845, 846, 847, 848, 849, 850, 
851, 852, 853, 854, 
