*Heading
 /Users/juliagao/geometry-optimization-net/scripts/../runs/grid/shape_16.inp
*NODE
1, 0, -0.3, 0
2, 0.425, -0.3, 0
3, 0.575, -0.3, 0
4, 1, -0.3, 0
5, 1, 0.3, 0
6, 0.575, 0.3, 0
7, 0.425, 0.3, 0
8, 0, 0.3, 0
9, 0.688, 0.056, 0
10, 0.025706779140012, -0.3, 0
11, 0.078170206749044, -0.3, 0
12, 0.13284486497785, -0.3, 0
13, 0.18855936673585, -0.3, 0
14, 0.24320341785671, -0.3, 0
15, 0.29629364255318, -0.3, 0
16, 0.34858472936256, -0.3, 0
17, 0.39981657529906, -0.3, 0
18, 0.051413558280025, -0.3, 0
19, 0.10492685521806, -0.3, 0
20, 0.16076287473765, -0.3, 0
21, 0.21635585873405, -0.3, 0
22, 0.27005097697938, -0.3, 0
23, 0.32253630812699, -0.3, 0
24, 0.37463315059813, -0.3, 0
25, 0.44980612559509, -0.3, 0
26, 0.49931393322139, -0.3, 0
27, 0.5495078076263, -0.3, 0
28, 0.47461225119017, -0.3, 0
29, 0.52401561525261, -0.3, 0
30, 0.60162352840497, -0.3, 0
31, 0.65493579235949, -0.3, 0
32, 0.70802490011606, -0.3, 0
33, 0.7618584338642, -0.3, 0
34, 0.81692526017589, -0.3, 0
35, 0.87142069621734, -0.3, 0
36, 0.92401567074702, -0.3, 0
37, 0.97487443700291, -0.3, 0
38, 0.62824705680994, -0.3, 0
39, 0.68162452790905, -0.3, 0
40, 0.73442527232307, -0.3, 0
41, 0.78929159540533, -0.3, 0
42, 0.84455892494644, -0.3, 0
43, 0.89828246748824, -0.3, 0
44, 0.94974887400581, -0.3, 0
45, 1, -0.27468477370861, 0
46, 1, -0.22295771495778, 0
47, 1, -0.16897618626712, 0
48, 1, -0.11268119115119, 0
49, 1, -0.054704505268823, 0
50, 1, 0.0028656200610002, 0
51, 1, 0.058403944223997, 0
52, 1, 0.11253328938008, 0
53, 1, 0.16651975227767, 0
54, 1, 0.22054584917623, 0
55, 1, 0.27374762125123, 0
56, 1, -0.24936954741723, 0
57, 1, -0.19654588249833, 0
58, 1, -0.14140649003591, 0
59, 1, -0.083955892266469, 0
60, 1, -0.025453118271177, 0
61, 1, 0.031184358393177, 0
62, 1, 0.085623530054817, 0
63, 1, 0.13944304870533, 0
64, 1, 0.19359645585, 0
65, 1, 0.24749524250246, 0
66, 0.97411618694774, 0.3, 0
67, 0.92206111136075, 0.3, 0
68, 0.86881924091817, 0.3, 0
69, 0.81429500271081, 0.3, 0
70, 0.75976364608816, 0.3, 0
71, 0.70617235513998, 0.3, 0
72, 0.65332212547365, 0.3, 0
73, 0.60099273021619, 0.3, 0
74, 0.94823237389549, 0.3, 0
75, 0.89588984882601, 0.3, 0
76, 0.84174863301032, 0.3, 0
77, 0.78684137241129, 0.3, 0
78, 0.73268591976503, 0.3, 0
79, 0.67965879051493, 0.3, 0
80, 0.62698546043237, 0.3, 0
81, 0.54968344273406, 0.3, 0
82, 0.49972559189715, 0.3, 0
83, 0.45004214916309, 0.3, 0
84, 0.52436688546811, 0.3, 0
85, 0.47508429832618, 0.3, 0
86, 0.39920086572849, 0.3, 0
87, 0.3466675094179, 0.3, 0
88, 0.29224311139327, 0.3, 0
89, 0.23641612700527, 0.3, 0
90, 0.18121454158851, 0.3, 0
91, 0.12827485528734, 0.3, 0
92, 0.076904800345706, 0.3, 0
93, 0.025704827345468, 0.3, 0
94, 0.37340173145699, 0.3, 0
95, 0.31993328737881, 0.3, 0
96, 0.26455293540773, 0.3, 0
97, 0.20827931860281, 0.3, 0
98, 0.1541497645742, 0.3, 0
99, 0.10239994600048, 0.3, 0
100, 0.051409654690937, 0.3, 0
101, 0, 0.27519537790649, 0
102, 0, 0.22511583662617, 0
103, 0, 0.17494210309172, 0
104, 0, 0.12553438806727, 0
105, 0, 0.075690227971165, 0
106, 0, 0.024599508006402, 0
107, 0, -0.026455807537584, 0
108, 0, -0.076559569660045, 0
109, 0, -0.12588347326703, 0
110, 0, -0.1750829199064, 0
111, 0, -0.22486911164239, 0
112, 0, -0.27498792661102, 0
113, 0, 0.25039075581299, 0
114, 0, 0.19984091743934, 0
115, 0, 0.15004328874409, 0
116, 0, 0.10102548739046, 0
117, 0, 0.050354968551874, 0
118, 0, -0.0011559525390711, 0
119, 0, -0.051755662536098, 0
120, 0, -0.10136347678399, 0
121, 0, -0.15040346975007, 0
122, 0, -0.19976237006274, 0
123, 0, -0.24997585322204, 0
124, 0.68596065051018, 0.083615867589353, 0
125, 0.66971998063454, -0.024864874012264, 0
126, 0.63908060417456, -0.070493420253526, 0
127, 0.59657551561001, -0.10529838662183, 0
128, 0.54661347242978, -0.1261295796893, 0
129, 0.49462991178789, -0.13192328720883, 0
130, 0.44296716777566, -0.12314032472601, 0
131, 0.3948224356197, -0.099825799741895, 0
132, 0.35524949562485, -0.063963707403456, 0
133, 0.32733445706697, -0.018368070554059, 0
134, 0.31322332672873, 0.034587987780314, 0
135, 0.31510105342023, 0.090005575490173, 0
136, 0.33220241447752, 0.14078189809001, 0
137, 0.3615559176038, 0.18318976385219, 0
138, 0.40100052777988, 0.21582210243449, 0
139, 0.44754780271205, 0.23653466935779, 0
140, 0.49723206232698, 0.24397962159733, 0
141, 0.54739661294104, 0.23792734991644, 0
142, 0.59604800353312, 0.21761305845129, 0
143, 0.63876111515272, 0.18284381274628, 0
144, 0.66984314509784, 0.13660586693808, 0
145, 0.68592719795124, 0.02815979692245, 0
146, 0.67988684765813, 0.11063260580843, 0
147, 0.65607289831063, 0.16081054519489, 0
148, 0.61836676860055, 0.20205926104953, 0
149, 0.57171814580037, 0.22978293228539, 0
150, 0.52219287319864, 0.24268550124274, 0
151, 0.4723201766283, 0.24195114180161, 0
152, 0.42372968638545, 0.2278337536582, 0
153, 0.3801225537803, 0.20082195098601, 0
154, 0.34555735400234, 0.16319826794906, 0
155, 0.32207984063719, 0.11673233500562, 0
156, 0.31211395215584, 0.062544688807316, 0
157, 0.31846947935407, 0.0071055240693423, 0
158, 0.33975343872199, -0.042310933290894, 0
159, 0.37364912348781, -0.083210113834301, 0
160, 0.41815140837862, -0.11324776991582, 0
161, 0.46893456265796, -0.12941558287688, 0
162, 0.52042653182572, -0.13088701553457, 0
163, 0.57186615277497, -0.11772177780117, 0
164, 0.61919485170193, -0.089384273188994, 0
165, 0.65600598354301, -0.048910118945371, 0
166, 0.6797544994077, 0.00093349895661763, 0
167, 0.72607899591493, -0.25702093684548, 0
168, 0.41190544200833, -0.22693825826295, 0
169, 0.10451219724556, -0.2471568587216, 0
170, 0.051789323654893, -0.24862082399744, 0
171, 0.21341115450144, -0.24451610684317, 0
172, 0.15849127800442, -0.24567076813359, 0
173, 0.26903365531957, -0.24432489611958, 0
174, 0.32516877818248, -0.24592651357623, 0
175, 0.7365115367557, 0.053081268577207, 0
176, 0.4546567040452, -0.27650678885027, 0
177, 0.40736656477845, -0.250917218028, 0
178, 0.68553124056132, -0.14735316082849, 0
179, 0.86176982188136, -0.1727417906061, 0
180, 0.69194558482836, -0.27565659757965, 0
181, 0.10154592901881, 0.008636612247858, 0
182, 0.047358366038638, -0.095946019968744, 0
183, 0.27040278063398, -0.059692374546648, 0
184, 0.066892396648016, -0.043344734011197, 0
185, 0.024553840853848, 0.22397465598798, 0
186, 0.023654526496942, 0.17338807293927, 0
187, 0.050641381530048, 0.2742504921327, 0
188, 0.11267438878483, 0.11284940596467, 0
189, 0.062686802321343, 0.04784939207556, 0
190, 0.064053620580711, 0.070770475358792, 0
191, 0.13289431334408, 0.026929973587283, 0
192, 0.047293887305145, 0.17166912537319, 0
193, 0.23023148070532, 0.24064405932564, 0
194, 0.25818777554598, 0.23903124513999, 0
195, 0.32338707791444, 0.23442935638705, 0
196, 0.37687579124039, 0.25472970721725, 0
197, 0.4245652320823, 0.26430001795028, 0
198, 0.094781158749277, -0.08970947260158, 0
199, 0.27338812287894, 0.061960510229077, 0
200, 0.30715383271756, -0.022315074072943, 0
201, 0.12691676770294, 0.27277546212679, 0
202, 0.22095105134004, 0.18258596478454, 0
203, 0.14588248551652, 0.0478163878971, 0
204, 0.15279553391771, 0.27221435182029, 0
205, 0.20319934997328, 0.24205519156628, 0
206, 0.049899016976112, 0.2485141221317, 0
207, 0.075936503201887, 0.27378533035036, 0
208, 0.23366361220682, 0.27026007087237, 0
209, 0.051004103444252, -0.19732385785656, 0
210, 0.26713031281118, -0.18670738984442, 0
211, 0.2097998611968, -0.18813845363288, 0
212, 0.15532147397934, -0.1910785784567, 0
213, 0.25987265529877, -0.12535629640027, 0
214, 0.20325595891309, -0.1305087865019, 0
215, 0.10258920836091, -0.19432272099809, 0
216, 0.099363712041515, -0.14166713445911, 0
217, 0.049499449504576, -0.14638348156519, 0
218, 0.27819715651941, 0.0027965282069623, 0
219, 0.043999408584968, 0.096869653523642, 0
220, 0.10507291626897, 0.064526119998572, 0
221, 0.27576325780836, 0.090960550169611, 0
222, 0.067625301774281, 0.11912573736544, 0
223, 0.1503260226974, -0.13622867004935, 0
224, 0.041931545040782, 0.025293077437472, 0
225, 0.090104577977901, 0.11630780138598, 0
226, 0.065807914366278, 0.094575098497402, 0
227, 0.15577207787744, -0.020736290573626, 0
228, 0.084775113747317, 0.068268611611107, 0
229, 0.021549738715437, 0.074167930329677, 0
230, 0.092518757626803, 0.14168502653818, 0
231, 0.085702838658838, -0.016332062048975, 0
232, 0.3642589093993, -0.16777135986682, 0
233, 0.37725843201584, -0.27453806560412, 0
234, 0.32860048508212, -0.18982069429733, 0
235, 0.021329222732477, 0.00034841780877479, 0
236, 0.35952615473927, -0.19452097788196, 0
237, 0.43881176361625, -0.22916918028625, 0
238, 0.2961284731503, -0.15639822796625, 0
239, 0.78339836973438, 0.18051778956443, 0
240, 0.78829181467635, 0.12055543420515, 0
241, 0.84265283737486, 0.12830429174604, 0
242, 0.89527605394522, 0.13325206028872, 0
243, 0.94762943148868, 0.13662100485176, 0
244, 0.94731040084873, 0.19107216910885, 0
245, 0.83997862844642, 0.18490487957002, 0
246, 0.89419124589179, 0.18834973164588, 0
247, 0.94744904496404, 0.24565982511841, 0
248, 0.89428211230332, 0.24412659360522, 0
249, 0.83982605668666, 0.24241677560941, 0
250, 0.72199783170679, 0.17518593882914, 0
251, 0.78333782967756, 0.24051718679687, 0
252, 0.71877752120969, 0.20697656818185, 0
253, 0.63901427373405, 0.2210531856093, 0
254, 0.68871847470183, 0.23954351903262, 0
255, 0.8473790835597, 0.075252958901839, 0
256, 0.73205659750667, 0.11496527600819, 0
257, 0.8465103623213, 0.029427689357706, 0
258, 0.79834903233612, 0.051891828287037, 0
259, 0.94797366689043, 0.082581862565285, 0
260, 0.89667075556667, 0.079697789413848, 0
261, 0.89602502145665, 0.027235288004045, 0
262, 0.9476556614026, 0.028336317924035, 0
263, 0.5569162226867, -0.2763244975642, 0
264, 0.945527535149, -0.084410477503453, 0
265, 0.8929776707484, -0.027764603580826, 0
266, 0.94657159338515, -0.027373406611716, 0
267, 0.76993930493089, -0.089387624974451, 0
268, 0.7852708310017, -0.23678566651882, 0
269, 0.7827713623369, -0.019711076027941, 0
270, 0.83877305635918, -0.025710179996057, 0
271, 0.72691879335903, -0.011708669342614, 0
272, 0.62040939510742, -0.14361513142598, 0
273, 0.69222047959273, -0.096402866492076, 0
274, 0.485711712642, -0.2538710597326, 0
275, 0.67665931875735, -0.24858845529056, 0
276, 0.64753579573778, -0.16257151920676, 0
277, 0.51791136465957, -0.23121552152029, 0
278, 0.49157413630611, -0.23136603399727, 0
279, 0.89124129888147, -0.19766578079624, 0
280, 0.94527207278947, -0.14106112711742, 0
281, 0.78920839710811, -0.27887510150717, 0
282, 0.77170459220929, -0.19053671264595, 0
283, 0.74538916748741, -0.26170583503411, 0
284, 0.6479367343227, -0.24846848697128, 0
285, 0.83117611646673, -0.11756368078661, 0
286, 0.86083411100428, -0.14465081221347, 0
287, 0.94600732716209, -0.19589608931307, 0
288, 0.86187776387611, -0.085941367779098, 0
289, 0.89427692486958, -0.24960990040693, 0
290, 0.94750632139306, -0.24863934849279, 0
291, 0.25160554803055, 0.06203310719461, 0
292, 0.30902671134404, -0.085032033269857, 0
293, 0.34916911538277, 0.21357597472761, 0
294, 0.35257717209179, 0.24967227998728, 0
295, 0.38001659849018, 0.23216970251587, 0
296, 0.30848157049301, 0.20151257977723, 0
297, 0.19964255362897, 0.2133887541961, 0
298, 0.11504112302981, -0.06004557513197, 0
299, 0.67482083785807, -0.18742879245748, 0
300, 0.80699045348949, -0.20770359701312, 0
301, 0.89013751377521, -0.17062845350345, 0
302, 0.71709530530176, -0.2777918408933, 0
303, 0.80227698709684, -0.087752049262248, 0
304, 0.23088756086462, -0.1278194893616, 0
305, 0.072808598099577, -0.11845339181547, 0
306, 0.2063643930033, -0.0058792682429287, 0
307, 0.68806236814993, 0.17073167847576, 0
308, 0.61159147097431, 0.23346689983316, 0
309, 0.2991294732909, 0.0050885705808356, 0
310, 0.1185917307906, 0.16508423450575, 0
311, 0.18720299457058, 0.12823311116779, 0
312, 0.89023307599278, -0.085344318815727, 0
313, 0.8136426709516, -0.25488296360477, 0
314, 0.76422962518027, -0.2800346432143, 0
315, 0.024261308526762, -0.12354528649969, 0
316, 0.074887070543628, 0.24761419232231, 0
317, 0.14844416115384, 0.21697708042335, 0
318, 0.42433569160256, 0.24634278875526, 0
319, 0.49949805392109, 0.2859334640251, 0
320, 0.86730793776933, -0.25076341103399, 0
321, 0.5717381347817, -0.22841992422513, 0
322, 0.17055780412973, 0.18731905128376, 0
323, 0.28532200017054, -0.026161655155426, 0
324, 0.59154368713219, -0.25113516416562, 0
325, 0.88953323414926, -0.14279077261592, 0
326, 0.83523336495119, -0.20286374394378, 0
327, 0.84968457283005, 0.052389940463432, 0
328, 0.82286069915721, 0.034466858639788, 0
329, 0.82369447693127, 0.069965381777863, 0
330, 0.84059447445012, 0.27122407171379, 0
331, 0.81190971117035, 0.24147356133704, 0
332, 0.78497193022115, 0.27033880127374, 0
333, 0.81294558793702, 0.2707738013256, 0
334, 0.61410779205575, 0.27837244521159, 0
335, 0.52389905598451, 0.28658084104712, 0
336, 0.58832675655012, 0.28133541197023, 0
337, 0.57562251684359, 0.26507005730141, 0
338, 0.071023738078981, -0.093005646279707, 0
339, 0.08747908235896, 0.091697305450853, 0
340, 0.024741551697138, -0.14847245595242, 0
341, 0.15357444421224, 0.075680727332845, 0
342, 0.17922930944609, 0.27160754995259, 0
343, 0.22520227983392, -0.097827798976488, 0
344, 0.042163190470908, 0.048799764655097, 0
345, 0.2800293955996, 0.20609062243297, 0
346, 0.94743122239305, 0.16380139221555, 0
347, 0.97367921693662, 0.19232554319986, 0
348, 0.97381047351868, 0.13807563560428, 0
349, 0.97372782554183, 0.16518180912551, 0
350, 0.94784002450285, 0.10956130136153, 0
351, 0.97394850673463, 0.084038012324307, 0
352, 0.97389737687768, 0.11105389533951, 0
353, 0.1309381996606, 0.08263236503224, 0
354, 0.26185812366982, 0.26956770746946, 0
355, 0.097253322910508, -0.11555476951777, 0
356, 0.17387348216914, 0.21523629712127, 0
357, 0.26948252012206, -0.27227697525771, 0
358, 0.29708136723679, -0.24485856493209, 0
359, 0.32373561885497, -0.27304554074506, 0
360, 0.29664876341249, -0.27254812722358, 0
361, 0.28077830646447, 0.11912012521647, 0
362, 0.12526857781489, 0.24563306406616, 0
363, 0.098428527976078, 0.22012023123897, 0
364, 0.26452545985764, 0.14902139196999, 0
365, 0.13291046509353, -0.028894534684657, 0
366, 0.16311985898641, 0.13174230068297, 0
367, 0.29451534098743, 0.033498672144068, 0
368, 0.022054867567507, 0.098902785736668, 0
369, 0.42934058873721, -0.16017233370826, 0
370, 0.43620335321355, -0.14077174828348, 0
371, 0.42287916237387, -0.18122555037105, 0
372, 0.72782535202297, 0.26984641920992, 0
373, 0.69841231504239, 0.27025253293444, 0
374, 0.97329863096068, -0.026622316005602, 0
375, 0.97281006006531, -0.084090373183287, 0
376, 0.94598866130911, -0.055820437388811, 0
377, 0.97302528908688, -0.055311080147682, 0
378, 0.94850452460559, -0.27440884238274, 0
379, 0.97380674075502, -0.24874524780345, 0
380, 0.97430272958586, -0.27446008524164, 0
381, 0.091974508140338, -0.064334650811173, 0
382, 0.2316984805997, -0.0023818675718268, 0
383, 0.25249683143848, -0.094256370522775, 0
384, 0.62885589275773, -0.22311902734155, 0
385, 0.63777034019768, -0.27458726584554, 0
386, 0.58555649728722, -0.17942499974608, 0
387, 0.050330712536613, -0.17179819212269, 0
388, 0.025469209634765, -0.19864400331828, 0
389, 0.025146981630642, -0.17351150150893, 0
390, 0.86531937121049, -0.22560851332278, 0
391, 0.80274902710533, -0.18154615353577, 0
392, 0.66522293982922, -0.27456848338577, 0
393, 0.60788374866184, -0.19981106382664, 0
394, 0.41705654381231, -0.20360457756573, 0
395, 0.59493045961218, -0.12945568380759, 0
396, 0.76517079687138, -0.26072908834997, 0
397, 0.1426581617982, 0.16237937761734, 0
398, 0.16237543098556, -0.0488512931118, 0
399, 0.51161934986443, -0.25390137724123, 0
400, 0.38894746014038, -0.19941455329821, 0
401, 0.42915968497148, -0.27599823844203, 0
402, 0.94730823007321, 0.21837659871625, 0
403, 0.97376179953096, 0.24647599959372, 0
404, 0.97368694799297, 0.2194356283687, 0
405, 0.75379664881408, 0.23964045289593, 0
406, 0.75666511900603, 0.2699839098838, 0
407, 0.10496676227601, -0.27357982218992, 0
408, 0.13135989443007, -0.24639865398, 0
409, 0.15966368150868, -0.27284946002183, 0
410, 0.13220335027721, -0.27320416730917, 0
411, 0.21478850227925, -0.27231390953739, 0
412, 0.18584869298594, -0.24501810656472, 0
413, 0.18721171860714, -0.27253961077397, 0
414, 0.86724750877073, 0.24330345323089, 0
415, 0.8948572435223, 0.2720712593632, 0
416, 0.8678740819508, 0.27165921292436, 0
417, 0.32175902291231, 0.16859009566915, 0
418, 0.2880081438765, 0.14645584182267, 0
419, 0.08888858751443, -0.039735561456629, 0
420, 0.023088966564546, -0.073812170704866, 0
421, 0.2188954025417, -0.067907615915496, 0
422, 0.32064866401295, 0.26978321079305, 0
423, 0.37473322219272, 0.27727736514761, 0
424, 0.34872865468679, 0.27428449436763, 0
425, 0.97379601067979, 0.029513822605353, 0
426, 0.94793559585289, 0.055563389962762, 0
427, 0.97392418114205, 0.056883216937679, 0
428, 0.84241385862844, -0.27632004461263, 0
429, 0.71996190766101, -0.18230347404756, 0
430, 0.28801215150854, 0.23707748623995, 0
431, 0.29081656469948, 0.26910632279572, 0
432, 0.24112856539764, -0.24424900188241, 0
433, 0.24215926455189, -0.27221081057438, 0
434, 0.94552559636167, -0.16874111988769, 0
435, 0.97269419215931, -0.14094737866907, 0
436, 0.97305709873968, -0.19590008680112, 0
437, 0.97281973324177, -0.16864268284382, 0
438, 0.53092044958039, -0.27671166543245, 0
439, 0.38283618629072, -0.11898987760415, 0
440, 0.54157323426071, -0.14574065836872, 0
441, 0.61039955118249, -0.27511276522523, 0
442, 0.89609126332718, -0.27488517771305, 0
443, 0.5833316004044, -0.27576005468633, 0
444, 0.92100475387624, -0.24892535335633, 0
445, 0.92241758521021, -0.27454657852364, 0
446, 0.021188194671776, 0.049557073358376, 0
447, 0.22583548904906, 0.21138536909466, 0
448, 0.94716615141218, 0.00069606837802322, 0
449, 0.97357249318676, 0.0016179003342165, 0
450, 0.94527321103975, -0.11288792571142, 0
451, 0.97269212268312, -0.11265718613277, 0
452, 0.51506980233732, -0.14896057137484, 0
453, 0.54454829587537, -0.23021931869188, 0
454, 0.74855019848128, -0.24763845573165, 0
455, 0.94774902453917, 0.27285714234425, 0
456, 0.97390646182218, 0.27327762559879, 0
457, 0.23101611250087, 0.093381630557975, 0
458, 0.10131195309536, 0.2732975997525, 0
459, 0.23762881102925, -0.033490605043203, 0
460, 0.20610243096493, 0.270956565277, 0
461, 0.39456767385396, -0.17536148421425, 0
462, 0.40973044134741, -0.13182784497786, 0
463, 0.078005075242662, -0.24790247260347, 0
464, 0.051816255606152, -0.27431015140254, 0
465, 0.078237565721833, -0.27395010823176, 0
466, 0.48884709042546, -0.14918340573279, 0
467, 0.45632551857045, -0.16517766767276, 0
468, 0.4745517133571, 0.28519357574588, 0
469, 0.56078802234628, 0.2512760809348, 0
470, 0.66918502359559, 0.27219995418529, 0
471, 0.91980763388497, -0.027777096903743, 0
472, 0.91804890365288, -0.08483675459627, 0
473, 0.8914348255213, -0.056379407615584, 0
474, 0.91882383340203, -0.056195966124659, 0
475, 0.92098142110304, 0.24489893415554, 0
476, 0.92141127699888, 0.27246373137951, 0
477, 0.025832031582755, -0.24930277062003, 0
478, 0.025836516565755, -0.27465287099838, 0
479, 0.26838659429053, -0.21589742734595, 0
480, 0.32680707184946, -0.21835580996407, 0
481, 0.29744067699134, -0.21662333854915, 0
482, 0.25569710316884, 0.00034688231148068, 0
483, 0.20712977566936, 0.095638244865734, 0
484, 0.074345655643396, -0.14412164545482, 0
485, 0.022441133970144, -0.049028290524983, 0
486, 0.94667641965634, -0.2224964288781, 0
487, 0.97338962156746, -0.22252268213128, 0
488, 0.14697143860464, -0.10885044191062, 0
489, 0.24638069117779, 0.18005472376241, 0
490, 0.69149309356097, -0.22033599485548, 0
491, 0.38049398510371, -0.24923242157713, 0
492, 0.70509844485487, 0.11286654426136, 0
493, 0.72718577789457, 0.14483573820958, 0
494, 0.69783250513032, 0.14141797585547, 0
495, 0.70200933167725, -0.0055972834382409, 0
496, 0.71613732952028, -0.046847483374566, 0
497, 0.67360848533358, -0.068711388588103, 0
498, 0.69113583297562, -0.036235884353979, 0
499, 0.505386660448, -0.27687605617462, 0
500, 0.55749205208997, -0.18427949563299, 0
501, 0.35063759673905, -0.27374056449126, 0
502, 0.1588258138382, 0.10382596586447, 0
503, 0.31861318923885, -0.048991011886619, 0
504, 0.021818511315034, -0.024266598072954, 0
505, 0.2282805997136, 0.062601079817189, 0
506, 0.74069471612848, -0.20567904977882, 0
507, 0.40149181010676, -0.15256788360121, 0
508, 0.35540592013145, -0.10041082815926, 0
509, 0.86931450797593, -0.27546235565989, 0
510, 0.5377645244198, -0.2534228934166, 0
511, 0.051496292784323, -0.2229448763634, 0
512, 0.025701513286685, -0.22394484427018, 0
513, 0.25398675658691, 0.091918291264233, 0
514, 0.33410325548155, -0.075185726736767, 0
515, 0.11580737083975, 0.13872439659546, 0
516, 0.60048694427478, 0.25944183482085, 0
517, 0.67485425489279, 0.20437321772072, 0
518, 0.71098495525767, 0.054462610921953, 0
519, 0.73552307848607, 0.084606864007108, 0
520, 0.70965340846252, 0.083997694032359, 0
521, 0.44428578160086, -0.20675137884415, 0
522, 0.3530529018711, -0.24747400517578, 0
523, 0.92145620684423, 0.13504574482032, 0
524, 0.89461936804184, 0.16066361799802, 0
525, 0.92083807954488, 0.18976878704322, 0
526, 0.92107914964472, 0.16232110192999, 0
527, 0.73343139571293, 0.02088092424684, 0
528, 0.70845417855228, 0.024491233088724, 0
529, 0.54381842157954, 0.2873970748203, 0
530, 0.6561229831554, 0.24545505374552, 0
531, 0.81549494714291, -0.2774902927407, 0
532, 0.59974053161177, -0.22594937355861, 0
533, 0.83791112527619, -0.22815484508006, 0
534, 0.1179920356918, 0.039032594272079, 0
535, 0.83270079331224, -0.086695163226834, 0
536, 0.79982614743173, -0.15250935152149, 0
537, 0.83115127436167, -0.14762059326819, 0
538, 0.27186731327958, 0.1771651521425, 0
539, 0.25255513038169, 0.20907750447764, 0
540, 0.92217089407616, 0.081173013258433, 0
541, 0.89603620806971, 0.10623317983593, 0
542, 0.92187147363174, 0.10799628601749, 0
543, 0.48290339917184, -0.16780657468017, 0
544, 0.56323499416813, -0.16164405010679, 0
545, 0.38434119265018, -0.22414254634985, 0
546, 0.42472266032071, 0.28216411509923, 0
547, 0.58598872734291, 0.2433752212226, 0
548, 0.049110311076673, 0.22278502536384, 0
549, 0.14570712806776, 0.18959044628455, 0
550, 0.14675133741465, 0.006740519068875, 0
551, 0.063061787978966, 0.0033835948580655, 0
552, 0.40049509125959, 0.25967906861632, 0
553, 0.39977268447368, 0.27986841619046, 0
554, 0.62710501831712, 0.25277223689413, 0
555, 0.56381529315597, 0.2840836689515, 0
556, 0.021089466109017, 0.024956579274461, 0
557, 0.069359206035965, 0.14423040516843, 0
558, 0.27410917754255, 0.032343834607913, 0
559, 0.18280318063527, 0.099078266701573, 0
560, 0.1184181425977, 0.014169023093835, 0
561, 0.86601081474129, -0.027161395462091, 0
562, 0.83271565901872, -0.17611926772357, 0
563, 0.83538981262793, -0.055835568587732, 0
564, 0.86369011541309, -0.056292630071907, 0
565, 0.1233162126865, 0.21860876150277, 0
566, 0.19146153696374, 0.15669048030031, 0
567, 0.098596927311559, 0.026238602599288, 0
568, 0.062209675367641, 0.025618818057868, 0
569, 0.044743936689697, -0.046330192201429, 0
570, 0.293572056063, 0.062164285419883, 0
571, 0.10615205161206, -0.011852396882274, 0
572, 0.83958397475901, 0.21361482180582, 0
573, 0.81210155899865, 0.18281232652369, 0
574, 0.78262613567666, 0.21051669650544, 0
575, 0.81154282389014, 0.21211951489886, 0
576, 0.10370346833332, -0.2207283620151, 0
577, 0.12877510461244, -0.19270376708308, 0
578, 0.15708103692582, -0.21841530939685, 0
579, 0.13023181940846, -0.21956191277481, 0
580, 0.13548790314679, 0.10864845926593, 0
581, 0.25844955668325, 0.12080364572153, 0
582, 0.29534644236918, -0.05496726107798, 0
583, 0.043452423598819, -0.022049207954719, 0
584, 0.082907922171828, 0.0054850000933754, 0
585, 0.024123220883834, 0.19858584324108, 0
586, 0.40127372375105, 0.23909790046929, 0
587, 0.87167093300837, 0.077915780845577, 0
588, 0.84481392972225, 0.10097849259743, 0
589, 0.86904927875053, 0.13107542896787, 0
590, 0.87037066974993, 0.10403344270447, 0
591, 0.022603079066092, 0.12356745127995, 0
592, 0.048506186450647, -0.12109311441458, 0
593, 0.73659969085613, -0.23863496130219, 0
594, 0.47100993419706, -0.20872428024426, 0
595, 0.76332054118245, -0.24259192804673, 0
596, 0.56436288336651, -0.25246752229491, 0
597, 0.89266097593925, -0.22394034540811, 0
598, 0.76597767330332, -0.12593938305215, 0
599, 0.8946134024188, 0.00016897739419819, 0
600, 0.92168477961641, 0.027553157618248, 0
601, 0.92083150770561, 0.00017122280621515, 0
602, 0.89682050261572, 0.053545131151269, 0
603, 0.92216552320645, 0.054452371906454, 0
604, 0.0814072444495, 0.025942716364873, 0
605, 0.070959875136626, 0.16973555705095, 0
606, 0.16779533105024, -0.076990230057819, 0
607, 0.201523510707, 0.029088600057222, 0
608, 0.40336408375601, -0.27531990108293, 0
609, 0.45015539115729, -0.18533394348174, 0
610, 0.37125498077401, -0.14149758428598, 0
611, 0.17679248621815, 0.24333719712589, 0
612, 0.072408102482071, 0.19552410567896, 0
613, 0.21184059510507, -0.21648114544726, 0
614, 0.1822861266382, -0.18951207891017, 0
615, 0.18427245375198, -0.21735725190912, 0
616, 0.57891871822534, -0.20409903552077, 0
617, 0.23799953383257, -0.18710908652248, 0
618, 0.23985600637537, -0.21593397644616, 0
619, 0.62183299577845, -0.1153045397632, 0
620, 0.65246568899817, -0.12713151080129, 0
621, 0.64864005390626, -0.095616428198979, 0
622, 0.45982187508598, -0.25333499779276, 0
623, 0.47691670841421, -0.18770412353293, 0
624, 0.87088591815228, 0.027639387734947, 0
625, 0.87232591174232, 0.052848441527576, 0
626, 0.917605179214, -0.1416563663554, 0
627, 0.91761823129331, -0.11341115558193, 0
628, 0.13840462983783, -0.054856346227317, 0
629, 0.14301865115572, -0.081657640557641, 0
630, 0.81584977225551, 0.12473943663068, 0
631, 0.78542383694063, 0.15062454352849, 0
632, 0.84102293778753, 0.15640499443118, 0
633, 0.8135727533513, 0.15365714025723, 0
634, 0.20699609371521, -0.15944910181591, 0
635, 0.15308713094927, -0.16365967213671, 0
636, 0.17646636999376, -0.1333418456097, 0
637, 0.17971846503704, -0.16148465756499, 0
638, 0.26459894682029, -0.1564880947577, 0
639, 0.23514655888845, -0.15770009666092, 0
640, 0.89406858166934, 0.21619851964012, 0
641, 0.92079376210478, 0.21731731949953, 0
642, 0.33503224628166, 0.19229534472704, 0
643, 0.09997714902663, 0.24666043368833, 0
644, 0.75426681887832, -0.016183392259004, 0
645, 0.76495827828067, 0.052141208625928, 0
646, 0.7892805192636, 0.01379475656156, 0
647, 0.76063936089512, 0.017569559112742, 0
648, 0.9187616076383, -0.19646129519514, 0
649, 0.9197816558546, -0.2229463356823, 0
650, 0.84257089245658, 0.0030263437284501, 0
651, 0.86853997882765, 0.00095859396045986, 0
652, 0.64105215223421, 0.27517834176444, 0
653, 0.10910459862312, 0.087860454735413, 0
654, 0.29722086686362, 0.17354165364266, 0
655, 0.76004468959862, 0.11735107219808, 0
656, 0.79201842923935, 0.08923816625952, 0
657, 0.7632307823001, 0.085983292141209, 0
658, 0.04824601613758, 0.19713968325382, 0
659, 0.1956478384695, 0.18498044137951, 0
660, 0.21249233256911, -0.037612766672255, 0
661, 0.042936339264152, 0.072616505172337, 0
662, 0.082445181610983, 0.046406251814007, 0
663, 0.25197398037409, 0.031202951264504, 0
664, 0.86728233972853, 0.186744859386, 0
665, 0.86703444132262, 0.21497476111356, 0
666, 0.86797795966666, 0.15872451958227, 0
667, 0.46263653360557, -0.14649405539398, 0
668, 0.55118240925559, -0.20715657095912, 0
669, 0.59113187842465, -0.15439209905809, 0
670, 0.24477548190271, -0.063836092496238, 0
671, 0.16697025818499, 0.15952544307181, 0
672, 0.91800782278622, -0.16936831939266, 0
673, 0.24045522685751, 0.15148873787709, 0
674, 0.291585150005, -0.12318614666128, 0
675, 0.33154770412026, -0.12178651786738, 0
676, 0.04608528157151, -0.0709917924503, 0
677, 0.046251595891575, 0.14642647125968, 0
678, 0.17785606384475, 0.067849516132654, 0
679, 0.12194284360193, -0.11235465871929, 0
680, 0.11873950404176, -0.085944070702615, 0
681, 0.076682449466812, -0.19586944807056, 0
682, 0.077475348456239, -0.22186597970499, 0
683, 0.35594810607902, -0.22109721279714, 0
684, 0.43376772562347, -0.25232679767478, 0
685, 0.045139056523955, 0.12148374668391, 0
686, 0.096664953421039, 0.19372738266366, 0
687, 0.15083647954785, 0.24452653768601, 0
688, 0.3106117495494, 0.14366546169048, 0
689, 0.28044780161102, -0.090300868605745, 0
690, 0.29738189432652, -0.18737114228426, 0
691, 0.04242864327571, 0.0017758507908344, 0
692, 0.74063790274624, -0.27994111395727, 0
693, 0.86086688972939, -0.11557432476382, 0
694, 0.86339163269322, -0.19969149992985, 0
695, 0.73425243239888, -0.092184280268649, 0
696, 0.56811504707151, -0.13938892381332, 0
697, 0.53028431466636, -0.18721346521594, 0
698, 0.21136748119883, 0.12523322533118, 0
699, 0.26203663795014, -0.029812340484869, 0
700, 0.77638347593354, -0.053586725196191, 0
701, 0.74589843494708, -0.051432125354695, 0
702, 0.70324343203697, -0.25173734030664, 0
703, 0.75353825300682, 0.1780711920148, 0
704, 0.75224542608924, 0.20883267622902, 0
705, 0.53612177884345, -0.16611623995247, 0
706, 0.78817965705712, -0.25784648763617, 0
707, 0.10114490465649, -0.16795204984158, 0
708, 0.075637404448079, -0.16994332659559, 0
709, 0.75654201191988, 0.14772130723577, 0
710, 0.17246940005612, -0.10514964410454, 0
711, 0.094705213969771, 0.16754720746588, 0
712, 0.073713145782025, 0.22150897458984, 0
713, 0.29617143679391, 0.090347682842693, 0
714, 0.33040153542613, -0.15907121579597, 0
715, 0.75474199857536, -0.2251479848114, 0
716, 0.49754237626839, -0.20946585467903, 0
717, 0.30201472383547, 0.11771194568484, 0
718, 0.71775684878177, -0.22793718587339, 0
719, 0.48003279937847, -0.27680632361738, 0
720, 0.63904121682054, -0.19434134281914, 0
721, 0.1210839203971, 0.19174262268381, 0
722, 0.06902737428178, -0.067907528046614, 0
723, 0.13930407154291, 0.13536025401309, 0
724, 0.81107250723788, -0.023181975257831, 0
725, 0.81640624077518, 0.0071415337530268, 0
726, 0.12465883079027, -0.13902698872666, 0
727, 0.12693653484526, -0.16584580270916, 0
728, 0.84030337243571, -0.25249033898612, 0
729, 0.81902491965404, 0.096356158409394, 0
730, 0.23522395167749, 0.12279887268102, 0
731, 0.10104173465012, 0.043903850014032, 0
732, 0.80632198257377, -0.054945407073095, 0
733, 0.2160311478504, 0.15400861891954, 0
734, 0.72700736967088, -0.13595306137675, 0
735, 0.50940161804204, -0.16813204569829, 0
736, 0.023143512225486, 0.14835289929362, 0
737, 0.11081918303866, -0.035092777285587, 0
738, 0.20352244199028, 0.064155026597555, 0
739, 0.36035805148331, 0.23089982863684, 0
740, 0.88956146011919, -0.11426957521207, 0
741, 0.023705611609565, -0.098675780823655, 0
742, 0.72264831420632, 0.23907261434233, 0
743, 0.064790377579834, -0.019534391572638, 0
744, 0.22797555097521, 0.030115646005004, 0
745, 0.44957294668014, 0.28396595356572, 0
746, 0.65942729663354, -0.22056156239813, 0
747, 0.81087138674492, -0.23183382347069, 0
748, 0.83141027598213, 0.052234555083864, 0
749, 0.024950359003913, 0.24940267684406, 0
750, 0.025325225612955, 0.27471296385546, 0
751, 0.49942743270536, 0.27186814392378, 0
752, 0.47401634609094, 0.27047125414851, 0
753, 0.44906969433017, 0.26798796324879, 0
754, 0.44843023398078, 0.25216445843944, 0
755, 0.47329980276446, 0.25598519494173, 0
756, 0.49911115758196, 0.25782544039241, 0
757, 0.54022157689911, 0.27672123973367, 0
758, 0.55271709217044, 0.27011866622876, 0
759, 0.5250986526924, 0.27309090789317, 0
760, 0.53198094581178, 0.25905627946117, 0
761, 0.77945238555249, -0.21492087952325, 0
762, 0.52417132318455, -0.20894726533561, 0
763, 0.76521240367883, -0.16131391750946, 0
764, 0.50352139556172, -0.18833832934254, 0
765, 0.61514475767017, -0.17240781314156, 0
766, 0.61943364843518, -0.24965009384873, 0
767, 0.79989657180488, -0.12070232855397, 0
768, 0.46528738187874, -0.23067199388681, 0
769, 0.19854558410541, -0.10143805647399, 0
770, 0.19314124872331, -0.072281120855936, 0
771, 0.18715133574667, -0.042668603008319, 0
772, 0.18026164766256, -0.011314754267815, 0
773, 0.11174818043568, 0.026485109302396, 0
774, 0.12516327084446, 0.058482765443715, 0
775, 0.12624772833825, -0.0049712141433791, 0
776, 0.17045006472112, 0.028028377471744, 0
******* E L E M E N T S *************
*ELEMENT, type=CPS4, ELSET=Surface1
1, 76, 69, 333, 330
2, 330, 333, 331, 249
3, 333, 332, 251, 331
4, 69, 77, 332, 333
5, 760, 469, 337, 758
6, 319, 335, 84, 82
7, 253, 517, 254, 530
8, 547, 149, 142, 308
9, 726, 679, 355, 216
10, 551, 568, 224, 691
11, 585, 114, 103, 186
12, 382, 459, 699, 482
13, 315, 741, 120, 109
14, 207, 316, 643, 458
15, 418, 688, 417, 654
16, 92, 207, 458, 99
17, 243, 348, 349, 346
18, 346, 349, 347, 244
19, 349, 53, 64, 347
20, 348, 63, 53, 349
21, 259, 351, 352, 350
22, 350, 352, 348, 243
23, 352, 52, 63, 348
24, 351, 62, 52, 352
25, 750, 749, 206, 187
26, 686, 612, 605, 711
27, 688, 136, 154, 417
28, 744, 382, 482, 663
29, 22, 15, 360, 357
30, 357, 360, 358, 173
31, 360, 359, 174, 358
32, 15, 23, 359, 360
33, 225, 222, 226, 339
34, 181, 567, 604, 584
35, 203, 774, 534, 191
36, 559, 483, 698, 311
37, 457, 513, 581, 730
38, 699, 183, 582, 323
39, 222, 685, 219, 226
40, 97, 460, 208, 89
41, 359, 23, 16, 501
42, 543, 735, 452, 466
43, 735, 705, 440, 452
44, 453, 277, 399, 510
45, 78, 71, 373, 372
46, 250, 493, 709, 703
47, 470, 79, 72, 652
48, 266, 376, 377, 374
49, 374, 377, 49, 60
50, 377, 375, 59, 49
51, 376, 264, 375, 377
52, 44, 37, 380, 378
53, 378, 380, 379, 290
54, 380, 45, 56, 379
55, 37, 4, 45, 380
56, 566, 659, 322, 671
57, 343, 304, 213, 383
58, 698, 730, 673, 733
59, 514, 508, 159, 132
60, 314, 692, 40, 33
61, 392, 31, 39, 180
62, 391, 300, 326, 562
63, 268, 595, 396, 706
64, 217, 340, 389, 387
65, 387, 389, 388, 209
66, 389, 110, 122, 388
67, 340, 121, 110, 389
68, 429, 506, 282, 763
69, 300, 747, 533, 326
70, 734, 695, 273, 178
71, 313, 706, 281, 531
72, 467, 667, 370, 369
73, 531, 281, 41, 34
74, 395, 619, 164, 127
75, 499, 26, 29, 438
76, 355, 198, 338, 305
77, 228, 190, 189, 662
78, 515, 230, 225, 188
79, 353, 653, 220, 774
80, 668, 500, 697, 762
81, 667, 161, 130, 370
82, 544, 669, 395, 696
83, 461, 507, 610, 232
84, 64, 54, 404, 347
85, 347, 404, 402, 244
86, 404, 403, 247, 402
87, 54, 65, 403, 404
88, 77, 70, 406, 332
89, 332, 406, 405, 251
90, 307, 147, 144, 494
91, 70, 78, 372, 406
92, 20, 409, 410, 12
93, 12, 410, 407, 19
94, 410, 408, 169, 407
95, 409, 172, 408, 410
96, 171, 412, 413, 411
97, 411, 413, 13, 21
98, 413, 409, 20, 13
99, 412, 172, 409, 413
100, 248, 415, 416, 414
101, 414, 416, 330, 249
102, 416, 68, 76, 330
103, 415, 75, 68, 416
104, 341, 502, 580, 353
105, 570, 156, 135, 713
106, 217, 592, 315, 340
107, 89, 208, 354, 96
108, 460, 205, 193, 208
109, 365, 775, 571, 737
110, 90, 342, 460, 97
111, 192, 186, 736, 677
112, 196, 423, 424, 294
113, 294, 424, 422, 195
114, 424, 87, 95, 422
115, 423, 94, 87, 424
116, 61, 51, 427, 425
117, 425, 427, 426, 262
118, 427, 351, 259, 426
119, 51, 62, 351, 427
120, 537, 286, 693, 285
121, 442, 509, 35, 43
122, 734, 598, 267, 695
123, 96, 354, 431, 88
124, 88, 431, 422, 95
125, 431, 430, 195, 422
126, 354, 194, 430, 431
127, 21, 14, 433, 411
128, 411, 433, 432, 171
129, 433, 357, 173, 432
130, 14, 22, 357, 433
131, 287, 436, 437, 434
132, 434, 437, 435, 280
133, 437, 47, 58, 435
134, 436, 57, 47, 437
135, 506, 715, 761, 282
136, 684, 401, 176, 622
137, 522, 501, 233, 491
138, 767, 285, 535, 303
139, 537, 562, 179, 286
140, 536, 537, 285, 767
141, 302, 32, 40, 692
142, 43, 36, 445, 442
143, 442, 445, 444, 289
144, 445, 378, 290, 444
145, 36, 44, 378, 445
146, 671, 322, 549, 397
147, 421, 343, 383, 670
148, 548, 658, 612, 712
149, 611, 687, 317, 356
150, 60, 50, 449, 374
151, 374, 449, 448, 266
152, 449, 425, 262, 448
153, 50, 61, 425, 449
154, 280, 435, 451, 450
155, 450, 451, 375, 264
156, 451, 48, 59, 375
157, 435, 58, 48, 451
158, 286, 325, 740, 693
159, 282, 761, 300, 391
160, 766, 441, 385, 284
161, 176, 25, 28, 719
162, 65, 55, 456, 403
163, 403, 456, 455, 247
164, 456, 66, 74, 455
165, 55, 5, 66, 456
166, 447, 193, 205, 297
167, 188, 225, 339, 653
168, 483, 457, 730, 698
169, 200, 503, 158, 133
170, 628, 365, 737, 298
171, 711, 605, 557, 230
172, 98, 204, 342, 90
173, 178, 273, 620, 276
174, 719, 28, 26, 499
175, 370, 130, 160, 462
176, 168, 177, 684, 237
177, 170, 464, 465, 463
178, 463, 465, 407, 169
179, 465, 11, 19, 407
180, 464, 18, 11, 465
181, 284, 385, 392, 275
182, 236, 683, 545, 400
183, 439, 131, 159, 508
184, 452, 440, 128, 162
185, 652, 72, 80, 334
186, 547, 308, 554, 516
187, 554, 652, 334, 516
188, 337, 336, 555, 758
189, 265, 473, 474, 471
190, 471, 474, 376, 266
191, 474, 472, 264, 376
192, 263, 27, 3, 443
193, 247, 455, 476, 475
194, 475, 476, 415, 248
195, 476, 67, 75, 415
196, 455, 74, 67, 476
197, 123, 112, 478, 477
198, 477, 478, 464, 170
199, 478, 10, 18, 464
200, 112, 1, 10, 478
201, 173, 358, 481, 479
202, 717, 155, 136, 688
203, 420, 485, 119, 108
204, 358, 174, 480, 481
205, 190, 661, 344, 189
206, 305, 338, 182, 592
207, 776, 772, 306, 607
208, 678, 738, 483, 559
209, 290, 379, 487, 486
210, 486, 487, 436, 287
211, 487, 46, 57, 436
212, 379, 56, 46, 487
213, 203, 341, 353, 774
214, 99, 458, 201, 91
215, 317, 565, 721, 549
216, 466, 129, 161, 667
217, 232, 714, 234, 236
218, 616, 386, 500, 668
219, 256, 493, 494, 492
220, 492, 494, 144, 146
221, 759, 757, 529, 335
222, 165, 497, 498, 125
223, 125, 498, 495, 166
224, 498, 496, 271, 495
225, 497, 273, 496, 498
226, 278, 768, 622, 274
227, 608, 17, 2, 401
228, 596, 263, 443, 324
229, 616, 668, 453, 321
230, 218, 323, 200, 309
231, 198, 381, 722, 338
232, 733, 673, 489, 202
233, 607, 744, 505, 738
234, 609, 371, 394, 521
235, 765, 272, 669, 386
236, 491, 233, 608, 177
237, 232, 610, 675, 714
238, 401, 2, 25, 176
239, 609, 467, 369, 371
240, 122, 111, 512, 388
241, 388, 512, 511, 209
242, 512, 477, 170, 511
243, 111, 123, 477, 512
244, 584, 604, 568, 551
245, 229, 105, 117, 446
246, 558, 367, 570, 199
247, 216, 355, 305, 484
248, 253, 148, 143, 517
249, 742, 405, 406, 372
250, 307, 494, 493, 250
251, 530, 470, 652, 554
252, 175, 519, 520, 518
253, 518, 520, 124, 9
254, 520, 492, 146, 124
255, 519, 256, 492, 520
256, 400, 545, 168, 394
257, 718, 702, 167, 593
258, 189, 344, 224, 568
259, 179, 694, 279, 301
260, 244, 525, 526, 346
261, 346, 526, 523, 243
262, 526, 524, 242, 523
263, 525, 246, 524, 526
264, 271, 527, 528, 495
265, 495, 528, 145, 166
266, 528, 518, 9, 145
267, 527, 175, 518, 528
268, 197, 753, 745, 546
269, 751, 759, 335, 319
270, 555, 6, 81, 529
271, 758, 555, 529, 757
272, 506, 718, 593, 715
273, 312, 472, 474, 473
274, 429, 734, 178, 299
275, 298, 737, 419, 381
276, 560, 773, 567, 181
277, 311, 566, 671, 366
278, 714, 238, 690, 234
279, 763, 536, 767, 598
280, 533, 747, 313, 728
281, 393, 616, 321, 532
282, 687, 362, 565, 317
283, 292, 675, 508, 514
284, 296, 642, 293, 195
285, 259, 350, 542, 540
286, 540, 542, 541, 260
287, 542, 523, 242, 541
288, 350, 243, 523, 542
289, 174, 359, 501, 522
290, 716, 594, 768, 278
291, 762, 697, 764, 716
292, 760, 758, 757, 759
293, 254, 373, 470, 530
294, 546, 745, 83, 7
295, 752, 751, 319, 468
296, 558, 218, 309, 367
297, 557, 677, 685, 222
298, 187, 206, 316, 207
299, 489, 538, 345, 539
300, 94, 423, 553, 86
301, 86, 553, 546, 7
302, 553, 552, 197, 546
303, 423, 196, 552, 553
304, 469, 547, 516, 337
305, 516, 334, 336, 337
306, 308, 142, 148, 253
307, 468, 319, 82, 85
308, 743, 551, 691, 583
309, 673, 364, 538, 489
310, 569, 583, 504, 485
311, 323, 582, 503, 200
312, 417, 154, 137, 642
313, 205, 611, 356, 297
314, 662, 189, 568, 604
315, 270, 563, 564, 561
316, 561, 564, 473, 265
317, 393, 765, 386, 616
318, 629, 628, 298, 680
319, 769, 710, 636, 214
320, 91, 201, 204, 98
321, 381, 419, 184, 722
322, 539, 345, 430, 194
323, 660, 421, 670, 459
324, 505, 291, 513, 457
325, 249, 331, 575, 572
326, 572, 575, 573, 245
327, 575, 574, 239, 573
328, 331, 251, 574, 575
329, 172, 578, 579, 408
330, 408, 579, 576, 169
331, 579, 577, 215, 576
332, 578, 212, 577, 579
333, 571, 181, 584, 231
334, 191, 534, 773, 560
335, 182, 676, 420, 741
336, 713, 135, 155, 717
337, 368, 116, 105, 229
338, 221, 713, 717, 361
339, 741, 420, 108, 120
340, 339, 226, 190, 228
341, 196, 295, 586, 552
342, 552, 586, 318, 197
343, 586, 138, 152, 318
344, 295, 153, 138, 586
345, 260, 541, 590, 587
346, 587, 590, 588, 255
347, 590, 589, 241, 588
348, 541, 242, 589, 590
349, 653, 339, 228, 220
350, 712, 612, 686, 363
351, 582, 292, 514, 503
352, 366, 671, 397, 723
353, 706, 396, 314, 281
354, 693, 740, 312, 288
355, 694, 390, 597, 279
356, 490, 275, 702, 718
357, 288, 564, 563, 535
358, 303, 732, 700, 267
359, 180, 39, 32, 302
360, 266, 448, 601, 471
361, 471, 601, 599, 265
362, 601, 600, 261, 599
363, 448, 262, 600, 601
364, 262, 426, 603, 600
365, 600, 603, 602, 261
366, 603, 540, 260, 602
367, 426, 259, 540, 603
368, 367, 134, 156, 570
369, 663, 482, 218, 558
370, 731, 662, 604, 567
371, 383, 213, 674, 689
372, 696, 395, 127, 163
373, 233, 24, 17, 608
374, 234, 480, 683, 236
375, 429, 763, 598, 734
376, 678, 559, 502, 341
377, 592, 182, 741, 315
378, 658, 585, 186, 192
379, 769, 214, 304, 343
380, 211, 614, 615, 613
381, 613, 615, 412, 171
382, 615, 578, 172, 412
383, 614, 212, 578, 615
384, 285, 693, 288, 535
385, 275, 392, 180, 702
386, 535, 563, 732, 303
387, 210, 617, 618, 479
388, 479, 618, 432, 173
389, 618, 613, 171, 432
390, 617, 211, 613, 618
391, 272, 620, 621, 619
392, 619, 621, 126, 164
393, 621, 497, 165, 126
394, 620, 273, 497, 621
395, 371, 461, 400, 394
396, 371, 369, 507, 461
397, 177, 608, 401, 684
398, 369, 370, 462, 507
399, 261, 602, 625, 624
400, 624, 625, 327, 257
401, 625, 587, 255, 327
402, 602, 260, 587, 625
403, 264, 472, 627, 450
404, 450, 627, 626, 280
405, 438, 29, 27, 263
406, 648, 279, 597, 649
407, 310, 711, 230, 515
408, 488, 629, 680, 679
409, 534, 731, 567, 773
410, 241, 632, 633, 630
411, 630, 633, 631, 240
412, 633, 573, 239, 631
413, 632, 245, 573, 633
414, 214, 636, 637, 634
415, 634, 637, 614, 211
416, 637, 635, 212, 614
417, 636, 223, 635, 637
418, 213, 304, 639, 638
419, 638, 639, 617, 210
420, 639, 634, 211, 617
421, 304, 214, 634, 639
422, 244, 402, 641, 525
423, 525, 641, 640, 246
424, 641, 475, 248, 640
425, 402, 247, 475, 641
426, 201, 362, 687, 204
427, 291, 199, 221, 513
428, 204, 687, 611, 342
429, 591, 104, 116, 368
430, 269, 646, 647, 644
431, 644, 647, 527, 271
432, 647, 645, 175, 527
433, 646, 258, 645, 647
434, 289, 444, 649, 597
435, 509, 428, 42, 35
436, 649, 486, 287, 648
437, 444, 290, 486, 649
438, 257, 650, 651, 624
439, 624, 651, 599, 261
440, 651, 561, 265, 599
441, 650, 270, 561, 651
442, 252, 704, 405, 742
443, 334, 80, 73, 336
444, 745, 468, 85, 83
445, 252, 250, 703, 704
446, 220, 228, 662, 731
447, 685, 591, 368, 219
448, 689, 674, 675, 292
449, 776, 203, 191, 550
450, 175, 645, 657, 519
451, 519, 657, 655, 256
452, 657, 656, 240, 655
453, 645, 258, 656, 657
454, 208, 193, 194, 354
455, 605, 192, 677, 557
456, 736, 115, 104, 591
457, 643, 363, 565, 362
458, 316, 712, 363, 643
459, 607, 306, 382, 744
460, 185, 585, 658, 548
461, 246, 640, 665, 664
462, 664, 665, 572, 245
463, 665, 414, 249, 572
464, 640, 248, 414, 665
465, 245, 632, 666, 664
466, 664, 666, 524, 246
467, 666, 589, 242, 524
468, 632, 241, 589, 666
469, 462, 160, 131, 439
470, 500, 544, 705, 697
471, 683, 522, 491, 545
472, 428, 531, 34, 42
473, 100, 187, 207, 92
474, 642, 137, 153, 293
475, 306, 660, 459, 382
476, 102, 114, 585, 185
477, 280, 626, 672, 434
478, 434, 672, 648, 287
479, 288, 312, 473, 564
480, 610, 439, 508, 675
481, 238, 638, 210, 690
482, 309, 200, 133, 157
483, 772, 771, 660, 306
484, 663, 558, 199, 291
485, 446, 117, 106, 556
486, 169, 576, 682, 463
487, 463, 682, 511, 170
488, 682, 681, 209, 511
489, 576, 215, 681, 682
490, 501, 16, 24, 233
491, 622, 176, 719, 274
492, 768, 237, 684, 622
493, 286, 179, 301, 325
494, 676, 569, 485, 420
495, 231, 584, 551, 743
496, 345, 296, 195, 430
497, 419, 231, 743, 184
498, 223, 488, 679, 726
499, 364, 418, 654, 538
500, 710, 488, 223, 636
501, 342, 611, 205, 460
502, 679, 680, 198, 355
503, 338, 722, 676, 182
504, 324, 443, 441, 766
505, 320, 728, 428, 509
506, 597, 390, 320, 289
507, 440, 696, 163, 128
508, 326, 533, 390, 694
509, 550, 191, 560, 775
510, 340, 315, 109, 121
511, 186, 103, 115, 736
512, 183, 689, 292, 582
513, 267, 700, 701, 695
514, 695, 701, 496, 273
515, 701, 644, 271, 496
516, 700, 269, 644, 701
517, 626, 325, 301, 672
518, 385, 38, 31, 392
519, 281, 314, 33, 41
520, 441, 30, 38, 385
521, 308, 253, 530, 554
522, 405, 704, 574, 251
523, 704, 703, 239, 574
524, 517, 307, 250, 252
525, 390, 533, 728, 320
526, 396, 283, 692, 314
527, 594, 521, 237, 768
528, 466, 452, 162, 129
529, 217, 387, 708, 484
530, 484, 708, 707, 216
531, 708, 681, 215, 707
532, 387, 209, 681, 708
533, 239, 703, 709, 631
534, 631, 709, 655, 240
535, 709, 493, 256, 655
536, 517, 252, 742, 254
537, 559, 311, 366, 502
538, 504, 235, 118, 107
539, 458, 643, 362, 201
540, 583, 691, 235, 504
541, 674, 213, 638, 238
542, 690, 210, 479, 481
543, 199, 570, 713, 221
544, 226, 219, 661, 190
545, 202, 447, 297, 659
546, 356, 317, 549, 322
547, 776, 678, 341, 203
548, 566, 733, 202, 659
549, 744, 663, 291, 505
550, 749, 185, 548, 206
551, 680, 298, 381, 198
552, 737, 571, 231, 419
553, 715, 595, 268, 761
554, 543, 466, 667, 467
555, 443, 3, 30, 441
556, 384, 766, 284, 746
557, 594, 623, 609, 521
558, 598, 767, 303, 267
559, 206, 548, 712, 316
560, 489, 539, 447, 202
561, 367, 309, 157, 134
562, 113, 102, 185, 749
563, 747, 268, 706, 313
564, 167, 302, 692, 283
565, 274, 719, 499, 399
566, 728, 313, 531, 428
567, 507, 462, 439, 610
568, 669, 272, 619, 395
569, 219, 368, 229, 661
570, 485, 504, 107, 119
571, 670, 383, 689, 183
572, 363, 686, 721, 565
573, 738, 505, 457, 483
574, 549, 721, 310, 397
575, 513, 221, 361, 581
576, 539, 194, 193, 447
577, 257, 328, 725, 650
578, 650, 725, 724, 270
579, 725, 646, 269, 724
580, 328, 258, 646, 725
581, 746, 284, 275, 490
582, 429, 490, 718, 506
583, 212, 635, 727, 577
584, 577, 727, 707, 215
585, 727, 726, 216, 707
586, 635, 223, 726, 727
587, 761, 268, 747, 300
588, 740, 325, 626, 627
589, 536, 391, 562, 537
590, 240, 656, 729, 630
591, 630, 729, 588, 241
592, 729, 329, 255, 588
593, 656, 258, 329, 729
594, 502, 366, 723, 580
595, 677, 736, 591, 685
596, 184, 743, 583, 569
597, 722, 184, 569, 676
598, 269, 700, 732, 724
599, 724, 732, 563, 270
600, 595, 454, 283, 396
601, 289, 320, 509, 442
602, 723, 515, 188, 580
603, 482, 699, 323, 218
604, 776, 607, 738, 678
605, 612, 658, 192, 605
606, 394, 168, 237, 521
607, 702, 180, 302, 167
608, 461, 232, 236, 400
609, 545, 491, 177, 168
610, 480, 174, 522, 683
611, 705, 544, 696, 440
612, 763, 282, 391, 536
613, 344, 446, 556, 224
614, 361, 717, 688, 418
615, 661, 229, 446, 344
616, 730, 581, 364, 673
617, 675, 674, 238, 714
618, 234, 690, 481, 480
619, 771, 770, 421, 660
620, 93, 750, 187, 100
621, 775, 560, 181, 571
622, 397, 310, 515, 723
623, 153, 295, 739, 293
624, 293, 739, 294, 195
625, 295, 196, 294, 739
626, 297, 356, 322, 659
627, 538, 654, 296, 345
628, 721, 686, 711, 310
629, 277, 278, 274, 399
630, 510, 438, 263, 596
631, 672, 301, 279, 648
632, 386, 669, 544, 500
633, 740, 627, 472, 312
634, 770, 769, 343, 421
635, 503, 514, 132, 158
636, 311, 698, 733, 566
637, 753, 752, 468, 745
638, 517, 143, 147, 307
639, 254, 742, 372, 373
640, 459, 670, 183, 699
641, 235, 556, 106, 118
642, 581, 361, 418, 364
643, 562, 326, 694, 179
644, 720, 393, 532, 384
645, 580, 188, 653, 353
646, 230, 557, 222, 225
647, 654, 417, 642, 296
648, 335, 529, 81, 84
649, 373, 71, 79, 470
650, 336, 73, 6, 555
651, 399, 499, 438, 510
652, 321, 596, 324, 532
653, 697, 705, 735, 764
654, 774, 220, 731, 534
655, 691, 224, 556, 235
656, 484, 305, 592, 217
657, 429, 299, 746, 490
658, 299, 178, 276, 720
659, 532, 324, 766, 384
660, 255, 329, 748, 327
661, 327, 748, 328, 257
662, 329, 258, 328, 748
663, 101, 113, 749, 750
664, 8, 101, 750, 93
665, 469, 141, 149, 547
666, 760, 150, 141, 469
667, 754, 318, 152, 139
668, 755, 754, 139, 151
669, 756, 755, 151, 140
670, 760, 756, 140, 150
671, 754, 753, 197, 318
672, 755, 752, 753, 754
673, 756, 751, 752, 755
674, 760, 759, 751, 756
675, 716, 764, 623, 594
676, 764, 735, 543, 623
677, 715, 593, 454, 595
678, 593, 167, 283, 454
679, 453, 510, 596, 321
680, 299, 720, 384, 746
681, 623, 543, 467, 609
682, 720, 276, 765, 393
683, 276, 620, 272, 765
684, 668, 762, 277, 453
685, 762, 716, 278, 277
686, 606, 629, 488, 710
687, 770, 606, 710, 769
688, 398, 628, 629, 606
689, 771, 398, 606, 770
690, 227, 365, 628, 398
691, 772, 227, 398, 771
692, 550, 775, 365, 227
693, 776, 550, 227, 772
*ELSET,ELSET=contact_source
99, 100, 101, 102, 103, 104, 105, 106, 107, 108, 
109, 110, 111, 112, 113, 114, 115, 116, 117, 118, 
119, 120, 121, 122, 
*ELSET,ELSET=contact_drain
39, 40, 41, 42, 43, 44, 45, 46, 47, 48, 
49, 50, 51, 52, 53, 54, 55, 56, 57, 58, 
59, 60, 
*ELSET,ELSET=probe_A
77, 78, 79, 80, 81, 82, 
*ELSET,ELSET=probe_B
17, 18, 19, 20, 21, 22, 
*ELSET,ELSET=walls
1, 2, 3, 4, 5, 6, 7, 8, 9, 10, 
11, 12, 13, 14, 15, 16, 23, 24, 25, 26, 
27, 28, 29, 30, 31, 32, 33, 34, 35, 36, 
37, 38, 61, 62, 63, 64, 65, 66, 67, 68, 
69, 70, 71, 72, 73, 74, 75, 76, 83, 84, 
85, 86, 87, 88, 89, 90, 91, 92, 93, 94, 
95, 96, 97, 98, 123, 124, 125, 126, 127, 128, 
129, 130, 131, 132, 133, 134, 135, 136, 137, 138, 
139, 140, 141, 142, 143, 144, 145, 146, 147, 148, 
149, 150, 151, 152, 153, 154, 155, 156, 157, 158, 
159, 160, 161, 162, 163, 164, 165, 166, 
*ELSET,ELSET=domain
167, 168, 169, 170, 171, 172, 173, 174, 175, 176, 
177, 178, 179, 180, 181, 182, 183, 184, 185, 186, 
187, 188, 189, 190, 191, 192, 193, 194, 195, 196, 
197, 198, 199, 200, 201, 202, 203, 204, 205, 206, 
207, 208, 209, 210, 211, 212, 213, 214, 215, 216, 
217, 218, 219, 220, 221, 222, 223, 224, 225, 226, 
227, 228, 229, 230, 231, 232, 233, 234, 235, 236, 
237, 238, 239, 240, 241, 242, 243, 244, 245, 246, 
247, 248, 249, 250, 251, 252, 253, 254, 255, 256, 
257, 258, 259, 260, 261, 262, 263, 264, 265, 266, 
267, 268, 269, 270, 271, 272, 273, 274, 275, 276, 
277, 278, 279, 280, 281, 282, 283, 284, 285, 286, 
287, 288, 289, 290, 291, 292, 293, 294, 295, 296, 
297, 298, 299, 300, 301, 302, 303, 304, 305, 306, 
307, 308, 309, 310, 311, 312, 313, 314, 315, 316, 
317, 318, 319, 320, 321, 322, 323, 324, 325, 326, 
327, 328, 329, 330, 331, 332, 333, 334, 335, 336, 
337, 338, 339, 340, 341, 342, 343, 344, 345, 346, 
347, 348, 349, 350, 351, 352, 353, 354, 355, 356, 
357, 358, 359, 360, 361, 362, 363, 364, 365, 366, 
367, 368, 369, 370, 371, 372, 373, 374, 375, 376, 
377, 378, 379, 380, 381, 382, 383, 384, 385, 386, 
387, 388, 389, 390, 391, 392, 393, 394, 395, 396, 
397, 398, 399, 400, 401, 402, 403, 404, 405, 406, 
407, 408, 409, 410, 411, 412, 413, 414, 415, 416, 
417, 418, 419, 420, 421, 422, 423, 424, 425, 426, 
427, 428, 429, 430, 431, 432, 433, 434, 435, 436, 
437, 438, 439, 440, 441, 442, 443, 444, 445, 446, 
447, 448, 449, 450, 451, 452, 453, 454, 455, 456, 
457, 458, 459, 460, 461, 462, 463, 464, 465, 466, 
467, 468, 469, 470, 471, 472, 473, 474, 475, 476, 
477, 478, 479, 480, 481, 482, 483, 484, 485, 486, 
487, 488, 489, 490, 491, 492, 493, 494, 495, 496, 
497, 498, 499, 500, 501, 502, 503, 504, 505, 506, 
507, 508, 509, 510, 511, 512, 513, 514, 515, 516, 
517, 518, 519, 520, 521, 522, 523, 524, 525, 526, 
527, 528, 529, 530, 531, 532, 533, 534, 535, 536, 
537, 538, 539, 540, 541, 542, 543, 544, 545, 546, 
547, 548, 549, 550, 551, 552, 553, 554, 555, 556, 
557, 558, 559, 560, 561, 562, 563, 564, 565, 566, 
567, 568, 569, 570, 571, 572, 573, 574, 575, 576, 
577, 578, 579, 580, 581, 582, 583, 584, 585, 586, 
587, 588, 589, 590, 591, 592, 593, 594, 595, 596, 
597, 598, 599, 600, 601, 602, 603, 604, 605, 606, 
607, 608, 609, 610, 611, 612, 613, 614, 615, 616, 
617, 618, 619, 620, 621, 622, 623, 624, 625, 626, 
627, 628, 629, 630, 631, 632, 633, 634, 635, 636, 
637, 638, 639, 640, 641, 642, 643, 644, 645, 646, 
647, 648, 649, 650, 651, 652, 653, 654, 655, 656, 
657, 658, 659, 660, 661, 662, 663, 664, 665, 666, 
667, 668, 669, 670, 671, 672, 673, 674, 675, 676, 
677, 678, 679, 680, 681, 682, 683, 684, 685, 686, 
687, 688, 689, 690, 691, 692, 693, 694, 695, 696, 
697, 698, 699, 700, 701, 702, 703, 704, 705, 706, 
707, 708, 709, 710, 711, 712, 713, 714, 715, 716, 
717, 718, 719, 720, 721, 722, 723, 724, 725, 726, 
727, 728, 729, 730, 731, 732, 733, 734, 735, 736, 
737, 738, 739, 740, 741, 742, 743, 744, 745, 746, 
747, 748, 749, 750, 751, 752, 753, 754, 755, 756, 
757, 758, 759, 760, 761, 762, 763, 764, 765, 766, 
767, 768, 769, 770, 771, 772, 773, 774, 775, 776, 
777, 778, 779, 780, 781, 782, 783, 784, 785, 786, 
787, 788, 789, 790, 791, 792, 793, 794, 795, 796, 
797, 798, 799, 800, 801, 802, 803, 804, 805, 806, 
807, 808, 809, 810, 811, 812, 813, 814, 815, 816, 
817, 818, 819, 820, 821, 822, 823, 824, 825, 826, 
827, 828, 829, 830, 831, 832, 833, 834, 835, 836, 
837, 838, 839, 840, 841, 842, 843, 844, 845, 846, 
847, 848, 849, 850, 851, 852, 853, 854, 855, 856, 
857, 858, 859, 
*NSET,NSET=contact_source
1, 8, 101, 102, 103, 104, 105, 106, 107, 108, 
109, 110, 111, 112, 113, 114, 115, 116, 117, 118, 
119, 120, 121, 122, 123, 
*NSET,NSET=contact_drain
4, 5, 45, 46, 47, 48, 49, 50, 51, 52, 
53, 54, 55, 56, 57, 58, 59, 60, 61, 62, 
63, 64, 65, 
*NSET,NSET=probe_A
6, 7, 81, 82, 83, 84, 85, 
*NSET,NSET=probe_B
2, 3, 25, 26, 27, 28, 29, 
*NSET,NSET=walls
1, 2, 3, 4, 5, 6, 7, 8, 9, 10, 
11, 12, 13, 14, 15, 16, 17, 18, 19, 20, 
21, 22, 23, 24, 30, 31, 32, 33, 34, 35, 
36, 37, 38, 39, 40, 41, 42, 43, 44, 66, 
67, 68, 69, 70, 71, 72, 73, 74, 75, 76, 
77, 78, 79, 80, 86, 87, 88, 89, 90, 91, 
92, 93, 94, 95, 96, 97, 98, 99, 100, 124, 
125, 126, 127, 128, 129, 130, 131, 132, 133, 134, 
135, 136, 137, 138, 139, 140, 141, 142, 143, 144, 
145, 146, 147, 148, 149, 150, 151, 152, 153, 154, 
155, 156, 157, 158, 159, 160, 161, 162, 163, 164, 
165, 166, 
*NSET,NSET=domain
1, 2, 3, 4, 5, 6, 7, 8, 9, 10, 
11, 12, 13, 14, 15, 16, 17, 18, 19, 20, 
21, 22, 23, 24, 25, 26, 27, 28, 29, 30, 
31, 32, 33, 34, 35, 36, 37, 38, 39, 40, 
41, 42, 43, 44, 45, 46, 47, 48, 49, 50, 
51, 52, 53, 54, 55, 56, 57, 58, 59, 60, 
61, 62, 63, 64, 65, 66, 67, 68, 69, 70, 
71, 72, 73, 74, 75, 76, 77, 78, 79, 80, 
81, 82, 83, 84, 85, 86, 87, 88, 89, 90, 
91, 92, 93, 94, 95, 96, 97, 98, 99, 100, 
101, 102, 103, 104, 105, 106, 107, 108, 109, 110, 
111, 112, 113, 114, 115, 116, 117, 118, 119, 120, 
121, 122, 123, 124, 125, 126, 127, 128, 129, 130, 
131, 132, 133, 134, 135, 136, 137, 138, 139, 140, 
141, 142, 143, 144, 145, 146, 147, 148, 149, 150, 
151, 152, 153, 154, 155, 156, 157, 158, 159, 160, 
161, 162, 163, 164, 165, 166, 167, 168, 169, 170, 
171, 172, 173, 174, 175, 176, 177, 178, 179, 180, 
181, 182, 183, 184, 185, 186, 187, 188, 189, 190, 
191, 192, 193, 194, 195, 196, 197, 198, 199, 200, 
201, 202, 203, 204, 205, 206, 207, 208, 209, 210, 
211, 212, 213, 214, 215, 216, 217, 218, 219, 220, 
221, 222, 223, 224, 225, 226, 227, 228, 229, 230, 
231, 232, 233, 234, 235, 236, 237, 238, 239, 240, 
241, 242, 243, 244, 245, 246, 247, 248, 249, 250, 
251, 252, 253, 254, 255, 256, 257, 258, 259, 260, 
261, 262, 263, 264, 265, 266, 267, 268, 269, 270, 
271, 272, 273, 274, 275, 276, 277, 278, 279, 280, 
281, 282, 283, 284, 285, 286, 287, 288, 289, 290, 
291, 292, 293, 294, 295, 296, 297, 298, 299, 300, 
301, 302, 303, 304, 305, 306, 307, 308, 309, 310, 
311, 312, 313, 314, 315, 316, 317, 318, 319, 320, 
321, 322, 323, 324, 325, 326, 327, 328, 329, 330, 
331, 332, 333, 334, 335, 336, 337, 338, 339, 340, 
341, 342, 343, 344, 345, 346, 347, 348, 349, 350, 
351, 352, 353, 354, 355, 356, 357, 358, 359, 360, 
361, 362, 363, 364, 365, 366, 367, 368, 369, 370, 
371, 372, 373, 374, 375, 376, 377, 378, 379, 380, 
381, 382, 383, 384, 385, 386, 387, 388, 389, 390, 
391, 392, 393, 394, 395, 396, 397, 398, 399, 400, 
401, 402, 403, 404, 405, 406, 407, 408, 409, 410, 
411, 412, 413, 414, 415, 416, 417, 418, 419, 420, 
421, 422, 423, 424, 425, 426, 427, 428, 429, 430, 
431, 432, 433, 434, 435, 436, 437, 438, 439, 440, 
441, 442, 443, 444, 445, 446, 447, 448, 449, 450, 
451, 452, 453, 454, 455, 456, 457, 458, 459, 460, 
461, 462, 463, 464, 465, 466, 467, 468, 469, 470, 
471, 472, 473, 474, 475, 476, 477, 478, 479, 480, 
481, 482, 483, 484, 485, 486, 487, 488, 489, 490, 
491, 492, 493, 494, 495, 496, 497, 498, 499, 500, 
501, 502, 503, 504, 505, 506, 507, 508, 509, 510, 
511, 512, 513, 514, 515, 516, 517, 518, 519, 520, 
521, 522, 523, 524, 525, 526, 527, 528, 529, 530, 
531, 532, 533, 534, 535, 536, 537, 538, 539, 540, 
541, 542, 543, 544, 545, 546, 547, 548, 549, 550, 
551, 552, 553, 554, 555, 556, 557, 558, 559, 560, 
561, 562, 563, 564, 565, 566, 567, 568, 569, 570, 
571, 572, 573, 574, 575, 576, 577, 578, 579, 580, 
581, 582, 583, 584, 585, 586, 587, 588, 589, 590, 
591, 592, 593, 594, 595, 596, 597, 598, 599, 600, 
601, 602, 603, 604, 605, 606, 607, 608, 609, 610, 
611, 612, 613, 614, 615, 616, 617, 618, 619, 620, 
621, 622, 623, 624, 625, 626, 627, 628, 629, 630, 
631, 632, 633, 634, 635, 636, 637, 638, 639, 640, 
641, 642, 643, 644, 645, 646, 647, 648, 649, 650, 
651, 652, 653, 654, 655, 656, 657, 658, 659, 660, 
661, 662, 663, 664, 665, 666, 667, 668, 669, 670, 
671, 672, 673, 674, 675, 676, 677, 678, 679, 680, 
681, 682, 683, 684, 685, 686, 687, 688, 689, 690, 
691, 692, 693, 694, 695, 696, 697, 698, 699, 700, 
701, 702, 703, 704, 705, 706, 707, 708, 709, 710, 
711, 712, 713, 714, 715, 716, 717, 718, 719, 720, 
721, 722, 723, 724, 725, 726, 727, 728, 729, 730, 
731, 732, 733, 734, 735, 736, 737, 738, 739, 740, 
741, 742, 743, 744, 745, 746, 747, 748, 749, 750, 
751, 752, 753, 754, 755, 756, 757, 758, 759, 760, 
761, 762, 763, 764, 765, 766, 767, 768, 769, 770, 
771, 772, 773, 774, 775, 776, 
