*Heading
 /Users/juliagao/geometry-optimization-net/scripts/../runs/grid/shape_14.inp
*NODE
1, 0, -0.3, 0
2, 0.425, -0.3, 0
3, 0.575, -0.3, 0
4, 1, -0.3, 0
5, 1, 0.3, 0
6, 0.575, 0.3, 0
7, 0.425, 0.3, 0
8, 0, 0.3, 0
9, 0.616, 0.056, 0
10, 0.024804542361197, -0.3, 0
11, 0.075028099284147, -0.3, 0
12, 0.12694019539599, -0.3, 0
13, 0.18105263277603, -0.3, 0
14, 0.23670003442085, -0.3, 0
15, 0.29220680214137, -0.3, 0
16, 0.34648160671099, -0.3, 0
17, 0.39913884468748, -0.3, 0
18, 0.049609084722394, -0.3, 0
19, 0.1004471138459, -0.3, 0
20, 0.15343327694607, -0.3, 0
21, 0.20867198860599, -0.3, 0
22, 0.26472808023572, -0.3, 0
23, 0.31968552404702, -0.3, 0
24, 0.37327768937495, -0.3, 0
25, 0.45048469621659, -0.3, 0
26, 0.50067656023198, -0.3, 0
27, 0.55019186401539, -0.3, 0
28, 0.47596939243318, -0.3, 0
29, 0.52538372803077, -0.3, 0
30, 0.60080296564347, -0.3, 0
31, 0.65366784588263, -0.3, 0
32, 0.70739058813112, -0.3, 0
33, 0.76049153717007, -0.3, 0
34, 0.81358042442519, -0.3, 0
35, 0.86694368965074, -0.3, 0
36, 0.92031338993965, -0.3, 0
37, 0.973484295436, -0.3, 0
38, 0.62660593128695, -0.3, 0
39, 0.68072976047831, -0.3, 0
40, 0.73405141578393, -0.3, 0
41, 0.7869316585562, -0.3, 0
42, 0.84022919029417, -0.3, 0
43, 0.8936581890073, -0.3, 0
44, 0.946968590872, -0.3, 0
45, 1, -0.2734521880487, 0
46, 1, -0.21980084770337, 0
47, 1, -0.16507602335629, 0
48, 1, -0.10966130426315, 0
49, 1, -0.053988819497762, 0
50, 1, 0.001916994720236, 0
51, 1, 0.058032400223001, 0
52, 1, 0.11382017963904, 0
53, 1, 0.16849834848708, 0
54, 1, 0.22174438311132, 0
55, 1, 0.27400568769676, 0
56, 1, -0.24690437609741, 0
57, 1, -0.19269731930934, 0
58, 1, -0.13745472740325, 0
59, 1, -0.08186788112304, 0
60, 1, -0.026109757872483, 0
61, 1, 0.029943747312955, 0
62, 1, 0.086121053133047, 0
63, 1, 0.14151930614503, 0
64, 1, 0.19547739082912, 0
65, 1, 0.24801137539352, 0
66, 0.97386751595093, 0.3, 0
67, 0.92105655567752, 0.3, 0
68, 0.86797144787735, 0.3, 0
69, 0.81545170874538, 0.3, 0
70, 0.76239748793602, 0.3, 0
71, 0.70814358425954, 0.3, 0
72, 0.65378561326206, 0.3, 0
73, 0.60087021634391, 0.3, 0
74, 0.94773503190186, 0.3, 0
75, 0.89437807945318, 0.3, 0
76, 0.84156481630151, 0.3, 0
77, 0.78933860118926, 0.3, 0
78, 0.73545637468279, 0.3, 0
79, 0.68083079383629, 0.3, 0
80, 0.62674043268782, 0.3, 0
81, 0.55007435564038, 0.3, 0
82, 0.50051898270489, 0.3, 0
83, 0.45044462706451, 0.3, 0
84, 0.52514871128075, 0.3, 0
85, 0.47588925412902, 0.3, 0
86, 0.39940994749013, 0.3, 0
87, 0.34741355522306, 0.3, 0
88, 0.29400051276853, 0.3, 0
89, 0.23987497349837, 0.3, 0
90, 0.18578678662511, 0.3, 0
91, 0.13210103507961, 0.3, 0
92, 0.078885616475137, 0.3, 0
93, 0.02619329955786, 0.3, 0
94, 0.37381989498026, 0.3, 0
95, 0.32100721546587, 0.3, 0
96, 0.26699381007119, 0.3, 0
97, 0.21275613692556, 0.3, 0
98, 0.15881743632467, 0.3, 0
99, 0.10538463383455, 0.3, 0
100, 0.052386599115721, 0.3, 0
101, 0, 0.27355825553535, 0
102, 0, 0.2200128454458, 0
103, 0, 0.16531369964917, 0
104, 0, 0.11011408828838, 0
105, 0, 0.054830902251656, 0
106, 0, -0.00061852594136874, 0
107, 0, -0.055940759561194, 0
108, 0, -0.111088688948, 0
109, 0, -0.16668947080331, 0
110, 0, -0.22169317139119, 0
111, 0, -0.27434607961804, 0
112, 0, 0.24711651107069, 0
113, 0, 0.19290917982091, 0
114, 0, 0.13771821947743, 0
115, 0, 0.082509957099334, 0
116, 0, 0.027151847403978, 0
117, 0, -0.028388899286715, 0
118, 0, -0.083492619835672, 0
119, 0, -0.13868475806033, 0
120, 0, -0.19469418354628, 0
121, 0, -0.24869215923609, 0
122, 0.61305117694027, 0.081989061257394, 0
123, 0.59058329938811, 0.12846147813116, 0
124, 0.55049337154181, 0.16043380330909, 0
125, 0.49967155151505, 0.17199953495444, 0
126, 0.44774384599659, 0.15956299701385, 0
127, 0.40665313443168, 0.12486481412996, 0
128, 0.38575404095932, 0.076096285140933, 0
129, 0.38835995668004, 0.024496020536421, 0
130, 0.41240798665064, -0.020050240790302, 0
131, 0.4527016182358, -0.049919134130884, 0
132, 0.50168575717265, -0.05998774968771, 0
133, 0.5506859364253, -0.048340479634814, 0
134, 0.59062147931502, -0.016413724075766, 0
135, 0.61307433266387, 0.03011187149428, 0
136, 0.60435463061309, 0.10665679531112, 0
137, 0.57233468212692, 0.14668458369644, 0
138, 0.52615259429743, 0.16901345824746, 0
139, 0.4732078449054, 0.1688635478035, 0
140, 0.42513387752228, 0.14460622814279, 0
141, 0.39324529066253, 0.10138096472092, 0
142, 0.38416725780503, 0.049772987127759, 0
143, 0.39799945426547, 0.00075609967940219, 0
144, 0.430985923092, -0.037236565276745, 0
145, 0.47664028910884, -0.057623606064923, 0
146, 0.52665193879371, -0.056896741075169, 0
147, 0.57226834657778, -0.034737456709419, 0
148, 0.60444490842823, 0.0055296032584172, 0
149, 0.68133527958283, -0.19274192810224, 0
150, 0.23211093192776, -0.088967113045599, 0
151, 0.17789073653349, 0.15148982130355, 0
152, 0.05102688085255, -0.24673935879971, 0
153, 0.44554568967222, -0.25292811364059, 0
154, 0.63236282319036, -0.1749262346846, 0
155, 0.30900787206644, -0.24932847929796, 0
156, 0.62851644560321, -0.0045908680822642, 0
157, 0.69221833451961, -0.039738110772692, 0
158, 0.41043380301434, -0.18491167250943, 0
159, 0.18030750839823, -0.064816701067372, 0
160, 0.66765788142745, 0.048688619762686, 0
161, 0.33192879729401, 0.22876187914466, 0
162, 0.2572704968673, -0.24921278909841, 0
163, 0.72244483524798, -0.068990744673282, 0
164, 0.8694887418948, -0.27310505161816, 0
165, 0.33567449403142, -0.05866475854828, 0
166, 0.20764561029283, -0.039283573593911, 0
167, 0.8439842157138, -0.047411809738948, 0
168, 0.48949295622076, 0.22525050333926, 0
169, 0.2537969720834, 0.08766790013239, 0
170, 0.44182835166947, 0.21527815061516, 0
171, 0.30832605977314, 0.037629203428108, 0
172, 0.046921950318779, 0.1324241312354, 0
173, 0.092473437838967, 0.12800578732349, 0
174, 0.092241686703607, 0.18775506489099, 0
175, 0.047049570496202, 0.19026234956267, 0
176, 0.048901752081973, 0.24686509801855, 0
177, 0.096496682820733, 0.24625385993937, 0
178, 0.35415348784082, 0.058930404458278, 0
179, 0.40069648652213, 0.19949719007879, 0
180, 0.41623434500511, 0.23324894941724, 0
181, 0.17774864763159, 0.18339078402813, 0
182, 0.1427492507499, 0.2457351187401, 0
183, 0.42878892980406, 0.24962348026844, 0
184, 0.32201098358757, 0.20258444848672, 0
185, 0.17403702789492, 0.27396700955098, 0
186, 0.56905603712413, 0.2527238279148, 0
187, 0.24632257171803, 0.27440787449905, 0
188, 0.19849262070926, 0.15047800366402, 0
189, 0.31790320151495, 0.1754211043184, 0
190, 0.29832872781358, 0.24889233450325, 0
191, 0.40753751027943, 0.2612182899041, 0
192, 0.2181259642506, 0.18284174697327, 0
193, 0.32334793388203, 0.0170620673208, 0
194, 0.26121068550873, 0.010005148748378, 0
195, 0.20880265576715, 0.088343666501518, 0
196, 0.16290627610884, 0.091939427786976, 0
197, 0.20398512727047, 0.0094990831753785, 0
198, 0.15041107912822, 0.011659499020901, 0
199, 0.095554943257845, 0.070079181323619, 0
200, 0.047903423070511, 0.075395802457194, 0
201, 0.049068876854093, 0.020119538582715, 0
202, 0.099075831055936, 0.015246976283587, 0
203, 0.25796398282324, -0.087821280197845, 0
204, 0.05038059745466, -0.19371542870481, 0
205, 0.12773192192673, -0.27415173323506, 0
206, 0.44150022100763, -0.18909341546403, 0
207, 0.35581211646794, -0.20063245141726, 0
208, 0.26035253779353, -0.27502240263524, 0
209, 0.12741187834397, -0.090208767308179, 0
210, 0.25379490621823, -0.16897950360434, 0
211, 0.12742445947097, -0.064335655692445, 0
212, 0.050052384740321, -0.14047249239411, 0
213, 0.049815022121649, -0.03375201765291, 0
214, 0.44755845957304, -0.2757732351292, 0
215, 0.0500767955773, -0.087128056904689, 0
216, 0.56774999895497, -0.22941214004093, 0
217, 0.20403841525095, -0.14253568967, 0
218, 0.20598089871473, -0.089891509700918, 0
219, 0.4401940950095, -0.16871288376245, 0
220, 0.20487596565311, -0.11602945499793, 0
221, 0.26344459471436, -0.036382478638163, 0
222, 0.75331485384643, -0.18787647534625, 0
223, 0.20708559463821, -0.014865195487018, 0
224, 0.12727691198299, -0.19518466926804, 0
225, 0.57107161125225, -0.20757871744166, 0
226, 0.30603472418885, -0.22329884552039, 0
227, 0.63406719142377, -0.14976099706509, 0
228, 0.69979434286579, -0.070723929164744, 0
229, 0.30419742416045, -0.19687134903555, 0
230, 0.15366819711087, -0.24846667651144, 0
231, 0.38132913445817, -0.18007290338757, 0
232, 0.76688631804246, -0.27302785624516, 0
233, 0.47358409774601, -0.1723840502162, 0
234, 0.38492997608561, -0.0577341048644, 0
235, 0.37886969652289, -0.13199483439098, 0
236, 0.32872399805647, -0.11729021209391, 0
237, 0.80306056651981, 0.18769475573636, 0
238, 0.75774137043556, 0.18959216935636, 0
239, 0.76536632903295, 0.13329948170386, 0
240, 0.75828410559005, 0.10858850641081, 0
241, 0.94862622175947, 0.13625001061433, 0
242, 0.89705987375574, 0.13369531519649, 0
243, 0.85035172397357, 0.18797273282304, 0
244, 0.89905937524181, 0.18922252879287, 0
245, 0.94884786123495, 0.19124366896816, 0
246, 0.94808814566844, 0.24625101512317, 0
247, 0.84803626687356, 0.2451889602495, 0
248, 0.89766140438838, 0.24556986148946, 0
249, 0.7987968769223, 0.24566278327563, 0
250, 0.74911327903485, 0.2472475815483, 0
251, 0.66024534561407, 0.22849775616857, 0
252, 0.69760825434104, 0.2482557756313, 0
253, 0.3914386265597, 0.24208257490042, 0
254, 0.56063912279552, 0.24240371619286, 0
255, 0.6356964314275, 0.16373415565641, 0
256, 0.3719399578758, 0.10646640874848, 0
257, 0.67589570975665, 0.13110733148394, 0
258, 0.10184400522004, -0.27379746233295, 0
259, 0.78125181211159, 0.033931688851987, 0
260, 0.79221132927703, 0.13212289260468, 0
261, 0.81877022302216, 0.13190578935743, 0
262, 0.75199513054132, 0.036735606461563, 0
263, 0.75136096516554, 0.061148155235746, 0
264, 0.89477153624335, 0.080616468609131, 0
265, 0.94818839886166, 0.082234440982063, 0
266, 0.94806573111345, 0.028826811458999, 0
267, 0.8941996685187, 0.028865833317168, 0
268, 0.74702348728874, -0.24544486259665, 0
269, 0.94896952273052, -0.079473532333554, 0
270, 0.9483929864697, -0.024856071766338, 0
271, 0.47277522220096, -0.15346908516312, 0
272, 0.71548248311191, -0.0389602879366, 0
273, 0.5064691507502, -0.11830844309868, 0
274, 0.68160734451107, -0.0091084710758427, 0
275, 0.79939059774384, -0.21663483643925, 0
276, 0.35410275637047, -0.1754910256258, 0
277, 0.71581090430802, -0.2734339843448, 0
278, 0.12709235843664, -0.038575811036741, 0
279, 0.70689617359312, -0.13166033063188, 0
280, 0.25436947852321, -0.14181519669037, 0
281, 0.84927761181787, -0.13109623324524, 0
282, 0.30770080616319, -0.08671002996728, 0
283, 0.84621091756444, -0.074746119266965, 0
284, 0.75445806200602, 0.011768639308685, 0
285, 0.59838127904699, -0.068883715412594, 0
286, 0.77045341662764, -0.070083761983644, 0
287, 0.84368138832365, -0.27306286059579, 0
288, 0.72721320242831, -0.099278556123043, 0
289, 0.72678976329147, -0.21764775036675, 0
290, 0.80137616340216, -0.15845384090528, 0
291, 0.89810503777987, -0.21775916634138, 0
292, 0.32833941237931, -0.17190813298046, 0
293, 0.94932180994168, -0.13499202471752, 0
294, 0.82139336111913, -0.24522816429558, 0
295, 0.89899935614269, -0.13307678386793, 0
296, 0.70568828728104, -0.19033136833681, 0
297, 0.84804416475099, -0.1026944506384, 0
298, 0.27909829584285, -0.19622326238502, 0
299, 0.80051682314663, -0.12920851853583, 0
300, 0.94904789041469, -0.19079895946108, 0
301, 0.94808175138941, -0.24604905190417, 0
302, 0.77175693987607, -0.24518773260419, 0
303, 0.26070010877147, -0.061568569233095, 0
304, 0.72562089920269, 0.014862350960346, 0
305, 0.23846810264757, 0.15089542715413, 0
306, 0.25786669927656, 0.15327810522568, 0
307, 0.39889025298145, 0.18296904219788, 0
308, 0.81767699837111, -0.045653797896869, 0
309, 0.12710295906165, -0.14245165855427, 0
310, 0.68216693942077, -0.10603256678139, 0
311, 0.60378178741218, -0.089939069711212, 0
312, 0.22984299331316, -0.22280058292846, 0
313, 0.57426868347471, -0.10416108387133, 0
314, 0.30490752551153, -0.11493773001001, 0
315, 0.89462421260653, 0.0029071417625717, 0
316, 0.7766168158443, -0.12861671385908, 0
317, 0.65927874280235, -0.012295963682345, 0
318, 0.79538551435598, -0.07157149869947, 0
319, 0.4067051956471, -0.11873715853965, 0
320, 0.74138650485743, -0.27318826441591, 0
321, 0.44276292221956, -0.20982032897077, 0
322, 0.10142313856836, -0.089508955321518, 0
323, 0.43924148312931, -0.089035516381257, 0
324, 0.81798172992, -0.2730317780788, 0
325, 0.83972180111512, 0.080462196002255, 0
326, 0.72276894245015, 0.040315750492037, 0
327, 0.83864787369487, 0.030377589324202, 0
328, 0.87317494121475, -0.10392508020912, 0
329, 0.3788307538248, -0.1073032721269, 0
330, 0.33984030403041, -0.27494904586824, 0
331, 0.27779376024258, 0.18952061935688, 0
332, 0.35504898290053, 0.027304135314793, 0
333, 0.18083165037784, 0.12012083904359, 0
334, 0.52384644862805, 0.21381753896736, 0
335, 0.29892164601759, 0.19507407802103, 0
336, 0.36753074574394, 0.18153323554719, 0
337, 0.89692528782305, -0.24566612415444, 0
338, 0.17852246954049, -0.14276288598039, 0
339, 0.18036873594971, -0.27480817321865, 0
340, 0.38325470075956, -0.20371557601072, 0
341, 0.54265945636656, -0.13253161922898, 0
342, 0.35956858727228, 0.23492968481169, 0
343, 0.49397357862876, 0.28327202458707, 0
344, 0.6101772984338, 0.15089601286136, 0
345, 0.83865908047113, 0.05541374914153, 0
346, 0.78672093866334, 0.10674394716165, 0
347, 0.81466258890924, 0.10600830031397, 0
348, 0.35709634635782, -0.068601159752727, 0
349, 0.47144496794343, -0.097801059064736, 0
350, 0.86731733925346, 0.0037921052805097, 0
351, 0.53953886959024, -0.21037755138121, 0
352, 0.023686365183084, 0.13490487942563, 0
353, 0.047338354514326, 0.10371662829381, 0
354, 0.024023270289062, 0.078605676057056, 0
355, 0.023831411503894, 0.10665087211636, 0
356, 0.60702077868317, 0.17712231629841, 0
357, 0.2315527267638, 0.24590231567051, 0
358, 0.15972254348466, 0.21543791101051, 0
359, 0.40664525390452, 0.21644124966699, 0
360, 0.024711929649185, -0.031300376267264, 0
361, 0.024418909960209, 0.023257799435026, 0
362, 0.049502887478879, -0.0069319232042935, 0
363, 0.024568487713695, -0.0040927451015334, 0
364, 0.69126669684462, 0.27466811338042, 0
365, 0.74335877847074, 0.27410526519424, 0
366, 0.72357757702527, 0.24814401870719, 0
367, 0.71731111813677, 0.27445026007168, 0
368, 0.97462304869825, -0.13608693448128, 0
369, 0.94920392456612, -0.10714820433333, 0
370, 0.9745450109047, -0.080545945442483, 0
371, 0.97460898484566, -0.10828397422604, 0
372, 0.97433372527062, 0.083775389315289, 0
373, 0.97432578379106, 0.029264875625101, 0
374, 0.94808841994728, 0.055509640791603, 0
375, 0.97434496495538, 0.056525673600753, 0
376, 0.47490667067276, -0.2533674883932, 0
377, 0.94746062663287, -0.27322245004632, 0
378, 0.18037103829232, -0.039615382938381, 0
379, 0.92269084583989, -0.051150878349876, 0
380, 0.81446791530141, -0.018963641779724, 0
381, 0.92242211702708, -0.24584010015252, 0
382, 0.37982681281154, -0.15622169626452, 0
383, 0.94867798165961, -0.052033014191321, 0
384, 0.97439173812787, -0.025417498227905, 0
385, 0.97446276478237, -0.052917483171121, 0
386, 0.048512127521601, 0.047534397521456, 0
387, 0.024230314867077, 0.050809050775757, 0
388, 0.024786817958668, -0.13964438434767, 0
389, 0.050098445304204, -0.16711811961869, 0
390, 0.024990337136898, -0.19373699107996, 0
391, 0.024765505450738, -0.16674544956943, 0
392, 0.046779854781268, 0.16135206397862, 0
393, 0.023802113157814, 0.19155697456376, 0
394, 0.023644225539671, 0.16326543896739, 0
395, 0.94816714212669, 0.002073203212222, 0
396, 0.97434197300274, 0.001966382081118, 0
397, 0.89539419958927, -0.2731366364734, 0
398, 0.65868192326896, -0.16927774975751, 0
399, 0.34827062510239, 0.21179592626092, 0
400, 0.11979418411425, 0.24596923802247, 0
401, 0.10042249958681, 0.27390855806796, 0
402, 0.12513612418326, 0.2738917553228, 0
403, 0.29448925070884, 0.095372003633026, 0
404, 0.42717704639951, 0.28011530046747, 0
405, 0.54290787247215, -0.15132438581822, 0
406, 0.17826678832082, -0.16929548266011, 0
407, 0.15273553354103, -0.16913742457969, 0
408, 0.41009297173078, -0.074980041230523, 0
409, 0.024845226855174, -0.08547838934438, 0
410, 0.050006780727198, -0.060459692727559, 0
411, 0.024815603463099, -0.058409778470863, 0
412, 0.94928687377192, -0.1629112276411, 0
413, 0.97442379066447, -0.19158545735808, 0
414, 0.97457949598162, -0.16388315909814, 0
415, 0.072863458255224, 0.24656417730048, 0
416, 0.050474194829219, 0.27397110249443, 0
417, 0.075533437179282, 0.27394449734873, 0
418, 0.26378846568205, 0.12089024166228, 0
419, 0.62752631655541, 0.27116655273498, 0
420, 0.47194436680872, 0.19880881651767, 0
421, 0.92410469272463, -0.13402086948429, 0
422, 0.40881256353159, -0.16291940460876, 0
423, 0.89654862583804, -0.050137570557603, 0
424, 0.87186992381785, -0.076150572800727, 0
425, 0.82340440253201, 0.24524511980703, 0
426, 0.79469449565031, 0.2733224441541, 0
427, 0.84534895837823, 0.27299265450072, 0
428, 0.82005306020404, 0.27301757459096, 0
429, 0.72222965625819, -0.24592344182055, 0
430, 0.72988437911934, -0.12945728739356, 0
431, 0.5035892812097, -0.081192494743247, 0
432, 0.025549934037509, -0.24700176706234, 0
433, 0.050916508902421, -0.27328825121596, 0
434, 0.025644249085853, -0.27336038867931, 0
435, 0.050083479659373, -0.11379888092, 0
436, 0.024844336014056, -0.11255141018985, 0
437, 0.9737963740048, 0.2468578493174, 0
438, 0.94767753930335, 0.27333749631745, 0
439, 0.9736530872304, 0.27348326293839, 0
440, 0.069829804439658, 0.13015566854599, 0
441, 0.093805145804272, 0.098682060056536, 0
442, 0.071725503759684, 0.072609529842883, 0
443, 0.070639769391775, 0.10110693593875, 0
444, 0.322186329091, 0.25089978821703, 0
445, 0.24276688020327, 0.21591839009292, 0
446, 0.13814971583735, 0.21601325589659, 0
447, 0.62340437777771, 0.1904687069787, 0
448, 0.17838438824375, -0.19591892892211, 0
449, 0.38882135983444, -0.25110336345537, 0
450, 0.94840543659142, 0.10912059383708, 0
451, 0.97433163518569, 0.13833126557931, 0
452, 0.97435362837878, 0.11103800276047, 0
453, 0.97420715281744, 0.19288908486985, 0
454, 0.94851993096369, 0.21884692823519, 0
455, 0.97398791822164, 0.2199901089501, 0
456, 0.89622627650377, 0.27316455988578, 0
457, 0.87277092016433, 0.24532398269119, 0
458, 0.87072470152914, 0.27305681703683, 0
459, 0.67666656017339, 0.23913066841136, 0
460, 0.6491029445212, 0.26917985628512, 0
461, 0.66849299470797, 0.27188084111913, 0
462, 0.024619549106811, 0.24709940892249, 0
463, 0.025276766405417, 0.27395457878425, 0
464, 0.28327184523427, -0.086834604561765, 0
465, 0.54137821921323, -0.11405880472579, 0
466, 0.22881760500797, -0.16909582094448, 0
467, 0.94880600548472, 0.16364445292953, 0
468, 0.97429206265328, 0.16562478293949, 0
469, 0.19824015450971, 0.27405904904024, 0
470, 0.18089377641483, 0.215014605653, 0
471, 0.25343454792247, 0.24650356159111, 0
472, 0.19810981480155, 0.18283224813993, 0
473, 0.15288041456467, -0.1956298759028, 0
474, 0.87029661440416, -0.048906446490168, 0
475, 0.62942718173642, -0.19988452934, 0
476, 0.35824763354716, -0.22550079400494, 0
477, 0.41427582565294, -0.22931822134044, 0
478, 0.43774755268731, -0.10870249518471, 0
479, 0.7914738272943, -0.043694054963002, 0
480, 0.25407197311181, -0.19602222506817, 0
481, 0.29568829612895, -0.0096920834501471, 0
482, 0.1531727123475, -0.11651345265983, 0
483, 0.97392717006682, -0.24635218599639, 0
484, 0.97363922920246, -0.27330810064528, 0
485, 0.075253592482479, -0.035763482758293, 0
486, 0.073943589608611, 0.017495436725483, 0
487, 0.23141078683554, -0.24922846136313, 0
488, 0.074743832865713, -0.0092787817395703, 0
489, 0.37596110612208, 0.25708795676383, 0
490, 0.63893595873887, 0.23950336804493, 0
491, 0.37106606650937, 0.20195515741455, 0
492, 0.22232218833402, 0.2742116981508, 0
493, 0.77410279943292, 0.24635817890158, 0
494, 0.76914764080181, 0.273721372548, 0
495, 0.43660389497492, 0.20101674562922, 0
496, 0.63383605406836, 0.21304356667332, 0
497, 0.57294572082554, 0.26507459683124, 0
498, 0.52879734970196, 0.27055470071342, 0
499, 0.47419831652522, -0.19171296340989, 0
500, 0.47191940497158, -0.1348531632317, 0
501, 0.12783545608126, -0.24797247662202, 0
502, 0.076521620285978, -0.24697881326152, 0
503, 0.5341286805034, -0.077056934020182, 0
504, 0.076267088043696, -0.27346598425659, 0
505, 0.60684087644158, -0.13492881760306, 0
506, 0.36358176843133, -0.040501536501066, 0
507, 0.62518841532657, -0.22473347274685, 0
508, 0.77757690590777, -0.15815942064937, 0
509, 0.17907263343567, -0.11643778142472, 0
510, 0.10029892384818, -0.011219651958978, 0
511, 0.69006576981078, -0.27378469116632, 0
512, 0.27709849344186, 0.15787965679303, 0
513, 0.17262847693111, 0.036207876808796, 0
514, 0.1471869679471, 0.038018853182892, 0
515, 0.52095835520201, 0.2590698748343, 0
516, 0.29448247123264, 0.27503527622976, 0
517, 0.12453238139773, 0.013305324921514, 0
518, 0.39408399175546, -0.035511386943659, 0
519, 0.65115446290349, -0.057148745520996, 0
520, 0.1525742421653, -0.013972072262729, 0
521, 0.59713829412771, -0.22716106423587, 0
522, 0.87313010872941, -0.21742013669006, 0
523, 0.9227453075173, 0.24589124077435, 0
524, 0.92187838225702, 0.27329414688245, 0
525, 0.70454149949572, -0.10144823911989, 0
526, 0.89885877836993, -0.18958264663689, 0
527, 0.42018026173865, -0.27552395543579, 0
528, 0.10162024575281, -0.19464061364758, 0
529, 0.097410598556377, 0.042286127093978, 0
530, 0.072887971651241, 0.044749016235341, 0
531, 0.17957336438244, -0.2488712092843, 0
532, 0.538690761209, -0.095716393219656, 0
533, 0.50793824554588, -0.15450452765753, 0
534, 0.17948437104844, -0.014703540852004, 0
535, 0.44405008882268, -0.23103572461735, 0
536, 0.66407600659154, -0.274173290432, 0
537, 0.92133981359971, 0.028683828449373, 0
538, 0.27909305078853, -0.14185109570368, 0
539, 0.94863588556444, -0.21854665148134, 0
540, 0.97420211633512, -0.21909436800115, 0
541, 0.047749439046461, 0.2188696739465, 0
542, 0.024121234703264, 0.21956636354321, 0
543, 0.11945230770985, 0.06770756339722, 0
544, 0.23153571190118, 0.087411558161047, 0
545, 0.12214839528446, 0.040053425239113, 0
546, 0.54238796593173, -0.17052534251075, 0
547, 0.5847520020254, -0.27487579411388, 0
548, 0.17975317315231, -0.090428613037001, 0
549, 0.23536323548206, -0.038239479933133, 0
550, 0.92165994445238, 0.081227027923217, 0
551, 0.89425038617635, 0.054696597007082, 0
552, 0.92137564093175, 0.054916728164394, 0
553, 0.15323768363281, -0.22211721994667, 0
554, 0.36638161449404, -0.27504615269831, 0
555, 0.10211618603577, -0.24745084140767, 0
556, 0.15285633769498, -0.14273868660773, 0
557, 0.8115977720462, 0.0068116961992458, 0
558, 0.84948125816112, -0.1884977525796, 0
559, 0.86664517244306, 0.029411109516587, 0
560, 0.10138437094434, -0.16826201504968, 0
561, 0.050733794284592, -0.22024927961214, 0
562, 0.025260909650888, -0.22048870032721, 0
563, 0.897586504195, -0.077378148553865, 0
564, 0.82512982645531, -0.18801898496629, 0
565, 0.82544609717689, -0.15903986998899, 0
566, 0.27860590958964, -0.16917734744957, 0
567, 0.56305406064137, -0.066462089735296, 0
568, 0.20550268121377, -0.2491045998646, 0
569, 0.84979646175273, 0.216771899073, 0
570, 0.82648859170932, 0.18765081199766, 0
571, 0.80181740964563, 0.21710248380318, 0
572, 0.82570122874207, 0.21673339998821, 0
573, 0.4801462170902, 0.21277174760542, 0
574, 0.27556896170149, 0.24745661067882, 0
575, 0.56593464148677, 0.17758474036701, 0
576, 0.23790809827493, 0.18372702425242, 0
577, 0.79239089477451, -0.27300436914616, 0
578, 0.28311168451141, -0.24921568780625, 0
579, 0.15375089483214, -0.064818052039877, 0
580, 0.65192340930117, -0.22242077259949, 0
581, 0.86748542791415, 0.080352092201048, 0
582, 0.86669549180469, 0.054846108769583, 0
583, 0.10134536265038, -0.063425544223794, 0
584, 0.12725232864123, -0.11624927694481, 0
585, 0.78317868277591, 0.009044904958976, 0
586, 0.79652346049863, -0.24514834268198, 0
587, 0.20705838244864, -0.064275657459487, 0
588, 0.15907246569297, 0.1219065486211, 0
589, 0.34209801300079, 0.18788971688472, 0
590, 0.55772434366415, -0.27516360139901, 0
591, 0.33510239263697, -0.24964350543106, 0
592, 0.30355621320509, -0.14272815222223, 0
593, 0.63554186712372, 0.10531434053731, 0
594, 0.64723231439216, 0.13724028197457, 0
595, 0.62278524207521, 0.12979410335292, 0
596, 0.50747801293303, 0.20179610584899, 0
597, 0.34779899992878, 0.25360870162466, 0
598, 0.28031669685273, 0.034481901026636, 0
599, 0.75430158385665, 0.21930409148843, 0
600, 0.73565419964219, 0.19210359142011, 0
601, 0.70460195742101, 0.22236903358458, 0
602, 0.73004517137089, 0.22116248863585, 0
603, 0.92157800566818, 0.0023573472526722, 0
604, 0.82475238830168, -0.13009549842659, 0
605, 0.87158665244247, -0.24550937117048, 0
606, 0.78014370813084, 0.18825461530601, 0
607, 0.77808454114598, 0.21793402814542, 0
608, 0.11423313067773, 0.18654039146321, 0
609, 0.093760362303064, 0.21739079233861, 0
610, 0.11616096955588, 0.2166765560055, 0
611, 0.68342206464965, -0.16452897185095, 0
612, 0.84640967691482, -0.2453556979796, 0
613, 0.38043894952199, -0.08229847872066, 0
614, 0.31156396387422, 0.10572093351326, 0
615, 0.14967115470019, 0.27391049828106, 0
616, 0.53100711966788, 0.28352795652436, 0
617, 0.75308040608075, -0.12858487676142, 0
618, 0.075625082676886, -0.088472053859446, 0
619, 0.43792190354993, -0.12856737111696, 0
620, 0.075612657438626, -0.14125059789701, 0
621, 0.075628882958527, -0.11484508179767, 0
622, 0.64246980927947, 0.048427314714267, 0
623, 0.66595672808909, 0.078579059842385, 0
624, 0.64069744886064, 0.07807636317392, 0
625, 0.56341457513546, -0.25184146290936, 0
626, 0.075530373115409, -0.06212797418793, 0
627, 0.8483547752692, -0.21709698931508, 0
628, 0.87406131318805, -0.18903139637245, 0
629, 0.76552957914643, -0.04168715039382, 0
630, 0.35289924536312, -0.12361038714279, 0
631, 0.10100943215079, -0.037370286087714, 0
632, 0.69723902163056, -0.24664815881431, 0
633, 0.47478142484496, -0.23204949730533, 0
634, 0.15353975610077, -0.090528887515391, 0
635, 0.41680064953007, -0.25208260836115, 0
636, 0.32755810374738, 0.12156702259282, 0
637, 0.29674104716203, 0.16522095192104, 0
638, 0.30733402570816, 0.22379854139048, 0
639, 0.4842293912122, 0.26944503309531, 0
640, 0.63303336811782, -0.098747339485997, 0
641, 0.50518361046883, -0.10014823397644, 0
642, 0.92287600342421, 0.13478964450117, 0
643, 0.89826000181045, 0.16115976402162, 0
644, 0.92381681285766, 0.19010306477565, 0
645, 0.92347587727964, 0.16224283656938, 0
646, 0.57357185937408, -0.1861825382867, 0
647, 0.50740034884843, -0.13631262191039, 0
648, 0.60403729189394, -0.18082459910569, 0
649, 0.89581284788504, 0.10687885233253, 0
650, 0.92222420917558, 0.10780293569289, 0
651, 0.65924187078345, -0.11422584042195, 0
652, 0.319074208417, -0.030434923602014, 0
653, 0.57023587111506, -0.084934046809055, 0
654, 0.84978146864653, -0.15976350968188, 0
655, 0.20363846869408, -0.16925195581129, 0
656, 0.74008238641672, -0.039931142610025, 0
657, 0.82311957187484, -0.10140493067449, 0
658, 0.47458277184201, -0.21155996732123, 0
659, 0.59183982921626, -0.25074152573436, 0
660, 0.64201966006264, -0.029188105858155, 0
661, 0.23369227677629, -0.2750761551151, 0
662, 0.47131919867226, -0.11638035907178, 0
663, 0.45917736973583, 0.28180681376021, 0
664, 0.24399655349327, 0.11849855284688, 0
665, 0.40721302335177, -0.096609396609555, 0
666, 0.6708426488754, -0.044165371708452, 0
667, 0.87113888762912, 0.13284723028853, 0
668, 0.84506193549534, 0.13222270423941, 0
669, 0.86913086606579, 0.10625411443135, 0
670, 0.37004496212207, 0.27715662154507, 0
671, 0.25766948953694, 0.18583335594857, 0
672, 0.75043598307246, -0.098723456833185, 0
673, 0.69703976212542, 0.017928881625865, 0
674, 0.25578105340716, -0.11468531352417, 0
675, 0.75098501087998, -0.21695311121794, 0
676, 0.89549721847273, -0.023383786627129, 0
677, 0.68377642278007, -0.13566649519355, 0
678, 0.89915680431791, -0.16130208459849, 0
679, 0.70238945345537, -0.21879492725165, 0
680, 0.2043929076644, -0.22270865711519, 0
681, 0.22898022488725, -0.19602959255591, 0
682, 0.64602341867878, -0.24851727734181, 0
683, 0.5753136082536, -0.16513888010897, 0
684, 0.92207798362086, -0.024219648968074, 0
685, 0.23554399774818, -0.014278883357806, 0
686, 0.53710590923464, 0.18104537455571, 0
687, 0.20231653834299, 0.11871258536861, 0
688, 0.30336780445508, -0.17002917480492, 0
689, 0.79847996193134, -0.10016371464197, 0
690, 0.82377959373778, -0.21681901945691, 0
691, 0.57602945691884, -0.12405199561618, 0
692, 0.78094920625815, 0.058329632232295, 0
693, 0.75402319105856, -0.1583674749059, 0
694, 0.70659412801854, -0.0097682685512586, 0
695, 0.22342872082039, 0.11800635611189, 0
696, 0.18765545643022, 0.24550729769884, 0
697, 0.28264461256111, 0.12608461596201, 0
698, 0.51066875185998, 0.24804240200271, 0
699, 0.069850096779204, 0.18899651304977, 0
700, 0.070956226369862, 0.2181303468829, 0
701, 0.41222892193601, -0.20699063858912, 0
702, 0.69430301976651, 0.044520537375007, 0
703, 0.53037544815779, -0.27549858323524, 0
704, 0.31339123518497, -0.27492530475491, 0
705, 0.22934031670684, -0.14215598592081, 0
706, 0.89844659772346, -0.10505763208743, 0
707, 0.75990346089007, -0.014314572021516, 0
708, 0.65979979104421, -0.14203974970416, 0
709, 0.54124826982824, -0.19018999354419, 0
710, 0.39312038595345, -0.27522897121065, 0
711, 0.62929051371609, -0.073400332725576, 0
712, 0.58900368477196, -0.049999798786204, 0
713, 0.31231844975213, -0.058305866289809, 0
714, 0.32797838643312, -0.14500132817364, 0
715, 0.89865549610943, 0.21750111486659, 0
716, 0.9234404749741, 0.2180887639243, 0
717, 0.15391187556359, -0.27450091625272, 0
718, 0.77708627452566, -0.18756682237162, 0
719, 0.35307914556405, -0.14988481487382, 0
720, 0.92330270753971, -0.078459765145807, 0
721, 0.50281480922697, -0.27569825283407, 0
722, 0.20699198037014, -0.27496951684534, 0
723, 0.60111826854088, -0.20390228836361, 0
724, 0.10138032396796, -0.11567718235933, 0
725, 0.82068313426965, -0.073188740695537, 0
726, 0.091863867631964, 0.15781496542831, 0
727, 0.069502355549772, 0.1595513686663, 0
728, 0.87456181992904, 0.18851682545761, 0
729, 0.87411265230435, 0.21705555807461, 0
730, 0.13556993179449, 0.15445602993199, 0
731, 0.38770765885598, 0.13161163958222, 0
732, 0.34400608542831, 0.27620081615951, 0
733, 0.73290894123117, -0.011820497559316, 0
734, 0.29160176903309, -0.033698060212443, 0
735, 0.23048635659676, -0.11537772584604, 0
736, 0.78717067517341, -0.016771553601152, 0
737, 0.11488667036458, 0.12591694097484, 0
738, 0.11388548623176, 0.15611580258413, 0
739, 0.49982753634733, 0.23689045098084, 0
740, 0.40997343597407, 0.15452874561032, 0
741, 0.46052004949595, 0.24296775117155, 0
742, 0.075963822099316, -0.19409487008263, 0
743, 0.076300868568844, -0.22052993527516, 0
744, 0.1569096826553, 0.15287922611885, 0
745, 0.56782273157006, 0.2806406079321, 0
746, 0.92138466006022, -0.27317630953402, 0
747, 0.67754498041984, -0.22040468548195, 0
748, 0.47046066783376, 0.18431286039055, 0
749, 0.13708561095013, 0.1238725951513, 0
750, 0.22227671733812, 0.21509204862185, 0
751, 0.11688223551332, 0.096358417620489, 0
752, 0.23203740711407, 0.0092791372916264, 0
753, 0.30085364351761, 0.13503339330476, 0
754, 0.25244048707921, 0.033458078129604, 0
755, 0.21869050530868, 0.15013907859831, 0
756, 0.16536274782402, 0.24557157898518, 0
757, 0.84806526786225, 0.15956039941449, 0
758, 0.87312900071566, 0.160276089007, 0
759, 0.60630714047369, -0.11218424550357, 0
760, 0.92327395303914, -0.21812437220135, 0
761, 0.29167672933057, 0.012222603302711, 0
762, 0.39761353207881, 0.27849340548465, 0
763, 0.10132940574088, -0.14193534500459, 0
764, 0.075689043060469, -0.16766838205576, 0
765, 0.58723459485154, 0.17337927155084, 0
766, 0.47241992577736, 0.25627182642476, 0
767, 0.20171188598365, 0.21485315535452, 0
768, 0.53760322996, 0.22379754292606, 0
769, 0.37915739344514, 0.22230167496644, 0
770, 0.63789908250968, -0.2743657382782, 0
771, 0.40745981256334, -0.14088119165449, 0
772, 0.53723234943614, -0.23118235563332, 0
773, 0.64285678601863, 0.018839071172695, 0
774, 0.38567236389031, -0.22733169154865, 0
775, 0.74606692737902, -0.069049968025304, 0
776, 0.12621575369425, -0.01278907651731, 0
777, 0.77421847387075, -0.099167064995, 0
778, 0.31895351647292, 0.2755320427518, 0
779, 0.13581895555999, 0.18537007153364, 0
780, 0.69871171164092, 0.17569753147677, 0
781, 0.67183763375325, 0.18852848049649, 0
782, 0.68603395251213, 0.20649745745292, 0
783, 0.81008312580025, 0.056511433859476, 0
784, 0.79810360413179, 0.15899251993655, 0
785, 0.82305797385991, 0.15907355749502, 0
786, 0.84166152865659, -0.020799119052819, 0
787, 0.73062976897696, -0.15931977796548, 0
788, 0.70720994242903, -0.1612884544339, 0
789, 0.92380472906783, -0.10611003517971, 0
790, 0.65039461408439, 0.19262319364966, 0
791, 0.3196792827457, 0.14799768720799, 0
792, 0.10192626862084, -0.22104890254749, 0
793, 0.41691810361581, -0.054772691086222, 0
794, 0.33181271151525, -0.22408594609811, 0
795, 0.33101582834031, -0.088563300694889, 0
796, 0.60597776791838, -0.15784125300195, 0
797, 0.50604321289942, -0.23210445258233, 0
798, 0.36163068623383, -0.25025934687413, 0
799, 0.62226441079718, -0.049381178413458, 0
800, 0.43891411911625, -0.14856460242911, 0
801, 0.61094587598499, -0.028716778437272, 0
802, 0.12758243913333, -0.22161132955772, 0
803, 0.17684119500005, 0.010354840045083, 0
804, 0.12708930429654, -0.16877833829377, 0
805, 0.65606623107429, -0.19603534541382, 0
806, 0.7295804269909, -0.1887463267776, 0
807, 0.80100592192884, -0.18766770119369, 0
808, 0.34418544260487, -0.027667101872935, 0
809, 0.50806670816166, -0.17307505605203, 0
810, 0.23391776988554, -0.063172098973324, 0
811, 0.32961702612665, -0.19821377070158, 0
812, 0.2806210462274, -0.11433841082623, 0
813, 0.17885181185414, -0.22250034560068, 0
814, 0.25521393460439, -0.22281484790435, 0
815, 0.63441146744185, -0.12433931037285, 0
816, 0.61937569021351, -0.24958806766759, 0
817, 0.61148148282819, -0.27459116855907, 0
818, 0.84210883654225, 0.10592837371692, 0
819, 0.69178640267065, 0.096931716040774, 0
820, 0.69278909039532, 0.071229004423977, 0
821, 0.20375622690236, -0.19602830295056, 0
822, 0.71289521442523, 0.19642572437319, 0
823, 0.66248352953013, 0.10840835616629, 0
824, 0.68663218379784, 0.1548659052828, 0
825, 0.74830483790736, 0.16157372545717, 0
826, 0.71165668113825, 0.1425038102396, 0
827, 0.72346258144388, 0.166037832513, 0
828, 0.13990743069242, 0.094103368909057, 0
829, 0.35397750641311, -0.096506709727692, 0
830, 0.47289511783736, -0.078627473193852, 0
831, 0.77514852046301, -0.2166390893519, 0
832, 0.50460362874724, -0.25329887491164, 0
833, 0.15353251399472, -0.039346935287339, 0
834, 0.87436104944056, -0.16053214861918, 0
835, 0.87404260304024, -0.13210507054509, 0
836, 0.19858643016706, 0.034710001910125, 0
837, 0.53423381440993, -0.25277791560087, 0
838, 0.28057071056402, -0.22292807543132, 0
839, 0.32733313439877, -0.004614531125447, 0
840, 0.78234802632856, 0.082425801832178, 0
841, 0.72169212982981, 0.065335072930616, 0
842, 0.26503685609234, -0.012685113161124, 0
843, 0.6693329949102, 0.019960075420701, 0
844, 0.86868315443283, -0.022262927326617, 0
845, 0.81137641691116, 0.081069684802914, 0
846, 0.72957678519736, 0.11233773539463, 0
847, 0.72222981511746, 0.089422101133533, 0
848, 0.44354256320103, -0.069601140675325, 0
849, 0.83964664987958, 0.0050745884570759, 0
850, 0.57621845786008, -0.14441761278245, 0
851, 0.77319015214309, 0.15962317114232, 0
852, 0.75259077766672, 0.084965415866572, 0
853, 0.70140584440479, 0.1192813264077, 0
854, 0.66134958018321, 0.16055530719987, 0
855, 0.28691203674036, -0.27496452665955, 0
856, 0.45000078891998, 0.22929749268173, 0
857, 0.67189930908676, -0.24756316908348, 0
858, 0.65659089619236, -0.085834327966301, 0
859, 0.92414022617594, -0.16207969644522, 0
860, 0.67811658244064, -0.075527446373742, 0
861, 0.50710919536716, -0.21177734652757, 0
862, 0.50778734576709, -0.192136875497, 0
863, 0.73834894880902, 0.1362506389002, 0
864, 0.92385837097063, -0.19015869914683, 0
865, 0.27034784834501, 0.27469586037406, 0
866, 0.44342191874484, 0.26561038046184, 0
867, 0.47516122708957, -0.2758276985484, 0
868, 0.28704273876165, -0.059727965199747, 0
869, 0.50332886480328, 0.18742978774543, 0
870, 0.81017889521707, 0.031848796260842, 0
871, 0.36166945584236, 0.081385900250837, 0
872, 0.54983197038698, 0.23306123510045, 0
873, 0.36889480228985, 0.1619681577046, 0
874, 0.27504840283241, 0.089909202199618, 0
875, 0.34582913342329, 0.14081398056235, 0
876, 0.43834732337411, 0.17279717265778, 0
877, 0.33492769521928, 0.044558374743125, 0
878, 0.15699094699359, 0.18428964198662, 0
879, 0.20968514166746, 0.2456009672171, 0
880, 0.22516952100801, 0.033696508991705, 0
881, 0.28478391421588, 0.22008546982144, 0
882, 0.34120951644597, 0.16383812219141, 0
883, 0.18588414905782, 0.089957932323087, 0
884, 0.26346096944922, 0.21751294671738, 0
885, 0.37530010608347, -0.014438268852972, 0
886, 0.35877978956983, 0.0036937276079171, 0
887, 0.43476876958077, 0.18656014850707, 0
888, 0.40165233266852, 0.1675743405174, 0
889, 0.37546154470972, 0.14465946384564, 0
890, 0.35610295674145, 0.12073061563769, 0
891, 0.34169658849116, 0.098223123558095, 0
892, 0.32930706386951, 0.07923187822924, 0
893, 0.3124686452861, 0.0674648317352, 0
894, 0.29069869094481, 0.061753546221425, 0
895, 0.26662393750441, 0.059460989721694, 0
896, 0.2417913658612, 0.059122219585801, 0
897, 0.21688075982217, 0.059942474291544, 0
898, 0.1921590420444, 0.061445591120726, 0
899, 0.16769749049963, 0.063339980480098, 0
900, 0.14347924158493, 0.065455279434774, 0
901, 0.55891518756813, 0.20079208449024, 0
902, 0.57629313654016, 0.20606803132516, 0
903, 0.59033829940311, 0.2125148363625, 0
904, 0.60153598134827, 0.221656108669, 0
905, 0.60878150162833, 0.23516064195836, 0
906, 0.61083020647368, 0.25280435729634, 0
907, 0.6008747785523, 0.27533097251749, 0
908, 0.53593727975229, 0.1947792660394, 0
******* E L E M E N T S *************
*ELEMENT, type=T3D2, ELSET=Line1
1, 1, 10
2, 10, 18
3, 18, 11
4, 11, 19
5, 19, 12
6, 12, 20
7, 20, 13
8, 13, 21
9, 21, 14
10, 14, 22
11, 22, 15
12, 15, 23
13, 23, 16
14, 16, 24
15, 24, 17
16, 17, 2
*ELEMENT, type=T3D2, ELSET=Line2
17, 2, 25
18, 25, 28
19, 28, 26
20, 26, 29
21, 29, 27
22, 27, 3
*ELEMENT, type=T3D2, ELSET=Line3
23, 3, 30
24, 30, 38
25, 38, 31
26, 31, 39
27, 39, 32
28, 32, 40
29, 40, 33
30, 33, 41
31, 41, 34
32, 34, 42
33, 42, 35
34, 35, 43
35, 43, 36
36, 36, 44
37, 44, 37
38, 37, 4
*ELEMENT, type=T3D2, ELSET=Line4
39, 4, 45
40, 45, 56
41, 56, 46
42, 46, 57
43, 57, 47
44, 47, 58
45, 58, 48
46, 48, 59
47, 59, 49
48, 49, 60
49, 60, 50
50, 50, 61
51, 61, 51
52, 51, 62
53, 62, 52
54, 52, 63
55, 63, 53
56, 53, 64
57, 64, 54
58, 54, 65
59, 65, 55
60, 55, 5
*ELEMENT, type=T3D2, ELSET=Line5
61, 5, 66
62, 66, 74
63, 74, 67
64, 67, 75
65, 75, 68
66, 68, 76
67, 76, 69
68, 69, 77
69, 77, 70
70, 70, 78
71, 78, 71
72, 71, 79
73, 79, 72
74, 72, 80
75, 80, 73
76, 73, 6
*ELEMENT, type=T3D2, ELSET=Line6
77, 6, 81
78, 81, 84
79, 84, 82
80, 82, 85
81, 85, 83
82, 83, 7
*ELEMENT, type=T3D2, ELSET=Line7
83, 7, 86
84, 86, 94
85, 94, 87
86, 87, 95
87, 95, 88
88, 88, 96
89, 96, 89
90, 89, 97
91, 97, 90
92, 90, 98
93, 98, 91
94, 91, 99
95, 99, 92
96, 92, 100
97, 100, 93
98, 93, 8
*ELEMENT, type=T3D2, ELSET=Line8
99, 8, 101
100, 101, 112
101, 112, 102
102, 102, 113
103, 113, 103
104, 103, 114
105, 114, 104
106, 104, 115
107, 115, 105
108, 105, 116
109, 116, 106
110, 106, 117
111, 117, 107
112, 107, 118
113, 118, 108
114, 108, 119
115, 119, 109
116, 109, 120
117, 120, 110
118, 110, 121
119, 121, 111
120, 111, 1
*ELEMENT, type=T3D2, ELSET=Line9
121, 9, 122
122, 122, 136
123, 136, 123
124, 123, 137
125, 137, 124
126, 124, 138
127, 138, 125
128, 125, 139
129, 139, 126
130, 126, 140
131, 140, 127
132, 127, 141
133, 141, 128
134, 128, 142
135, 142, 129
136, 129, 143
137, 143, 130
138, 130, 144
139, 144, 131
140, 131, 145
141, 145, 132
142, 132, 146
143, 146, 133
144, 133, 147
145, 147, 134
146, 134, 148
147, 148, 135
148, 135, 9
*ELEMENT, type=CPS4, ELSET=Surface1
149, 795, 236, 630, 829
150, 640, 815, 651, 858
151, 405, 546, 683, 850
152, 115, 354, 355, 104
153, 104, 355, 352, 114
154, 355, 353, 172, 352
155, 354, 200, 353, 355
156, 491, 336, 179, 359
157, 686, 908, 596, 869
158, 873, 889, 888, 307
159, 856, 170, 168, 739
160, 213, 362, 363, 360
161, 360, 363, 106, 117
162, 363, 361, 116, 106
163, 362, 201, 361, 363
164, 252, 366, 367, 364
165, 364, 367, 71, 79
166, 367, 365, 78, 71
167, 366, 250, 365, 367
168, 59, 370, 371, 48
169, 48, 371, 368, 58
170, 371, 369, 293, 368
171, 370, 269, 369, 371
172, 265, 374, 375, 372
173, 372, 375, 51, 62
174, 375, 373, 61, 51
175, 374, 266, 373, 375
176, 630, 719, 382, 235
177, 233, 499, 862, 809
178, 231, 340, 701, 158
179, 585, 736, 380, 557
180, 294, 324, 287, 612
181, 157, 228, 163, 272
182, 886, 129, 142, 332
183, 815, 227, 708, 651
184, 60, 384, 385, 49
185, 49, 385, 370, 59
186, 385, 383, 269, 370
187, 384, 270, 383, 385
188, 116, 361, 387, 105
189, 105, 387, 354, 115
190, 387, 386, 200, 354
191, 361, 201, 386, 387
192, 119, 109, 391, 388
193, 388, 391, 389, 212
194, 391, 390, 204, 389
195, 109, 120, 390, 391
196, 175, 393, 394, 392
197, 392, 394, 352, 172
198, 394, 103, 114, 352
199, 393, 113, 103, 394
200, 61, 373, 396, 50
201, 50, 396, 384, 60
202, 396, 395, 270, 384
203, 373, 266, 395, 396
204, 216, 625, 659, 521
205, 829, 630, 235, 329
206, 862, 861, 351, 709
207, 380, 308, 167, 786
208, 905, 904, 447, 496
209, 343, 639, 498, 616
210, 402, 401, 177, 400
211, 91, 99, 401, 402
212, 331, 512, 637, 335
213, 876, 887, 888, 740
214, 190, 881, 638, 444
215, 732, 444, 597, 670
216, 635, 527, 214, 153
217, 533, 809, 546, 405
218, 475, 507, 580, 805
219, 230, 501, 205, 717
220, 215, 410, 411, 409
221, 409, 411, 107, 118
222, 411, 360, 117, 107
223, 410, 213, 360, 411
224, 300, 413, 414, 412
225, 412, 414, 368, 293
226, 414, 47, 58, 368
227, 413, 57, 47, 414
228, 99, 92, 417, 401
229, 401, 417, 415, 177
230, 417, 416, 176, 415
231, 92, 100, 416, 417
232, 170, 495, 573, 168
233, 169, 895, 894, 874
234, 638, 335, 184, 161
235, 140, 740, 731, 127
236, 565, 564, 558, 654
237, 220, 509, 338, 217
238, 656, 775, 286, 629
239, 268, 320, 232, 302
240, 247, 427, 428, 425
241, 425, 428, 426, 249
242, 428, 69, 77, 426
243, 427, 76, 69, 428
244, 690, 294, 612, 627
245, 482, 584, 309, 556
246, 707, 629, 479, 736
247, 632, 511, 277, 429
248, 121, 111, 434, 432
249, 432, 434, 433, 152
250, 434, 10, 18, 433
251, 111, 1, 10, 434
252, 119, 388, 436, 108
253, 108, 436, 409, 118
254, 436, 435, 215, 409
255, 388, 212, 435, 436
256, 65, 55, 439, 437
257, 437, 439, 438, 246
258, 439, 66, 74, 438
259, 55, 5, 66, 439
260, 200, 442, 443, 353
261, 353, 443, 440, 172
262, 443, 441, 173, 440
263, 442, 199, 441, 443
264, 498, 515, 186, 497
265, 404, 191, 866, 663
266, 663, 866, 639, 343
267, 198, 514, 545, 517
268, 683, 646, 648, 796
269, 746, 36, 44, 377
270, 501, 555, 258, 205
271, 304, 733, 707, 284
272, 62, 52, 452, 372
273, 372, 452, 450, 265
274, 452, 451, 241, 450
275, 52, 63, 451, 452
276, 64, 54, 455, 453
277, 453, 455, 454, 245
278, 455, 437, 246, 454
279, 54, 65, 437, 455
280, 75, 68, 458, 456
281, 456, 458, 457, 248
282, 458, 427, 247, 457
283, 68, 76, 427, 458
284, 79, 72, 461, 364
285, 364, 461, 459, 252
286, 461, 460, 251, 459
287, 72, 80, 460, 461
288, 100, 93, 463, 416
289, 416, 463, 462, 176
290, 463, 101, 112, 462
291, 93, 8, 101, 463
292, 651, 708, 677, 310
293, 816, 817, 770, 682
294, 587, 159, 548, 218
295, 568, 531, 339, 722
296, 63, 53, 468, 451
297, 451, 468, 467, 241
298, 468, 453, 245, 467
299, 53, 64, 453, 468
300, 127, 731, 256, 141
301, 492, 879, 357, 187
302, 766, 741, 698, 515
303, 197, 836, 513, 803
304, 603, 684, 270, 395
305, 678, 526, 864, 859
306, 528, 742, 743, 792
307, 225, 216, 521, 723
308, 315, 676, 684, 603
309, 681, 821, 680, 312
310, 557, 380, 786, 849
311, 627, 612, 605, 522
312, 292, 688, 229, 811
313, 812, 674, 280, 538
314, 477, 635, 153, 535
315, 776, 510, 631, 278
316, 44, 37, 484, 377
317, 377, 484, 483, 301
318, 484, 45, 56, 483
319, 37, 4, 45, 484
320, 217, 338, 406, 655
321, 485, 488, 362, 213
322, 488, 486, 201, 362
323, 407, 804, 224, 473
324, 866, 183, 766, 639
325, 741, 856, 739, 698
326, 444, 638, 161, 597
327, 588, 196, 883, 333
328, 871, 891, 892, 178
329, 168, 573, 334, 768
330, 332, 877, 171, 193
331, 95, 516, 778, 87
332, 249, 426, 494, 493
333, 493, 494, 365, 250
334, 494, 70, 78, 365
335, 426, 77, 70, 494
336, 141, 256, 871, 128
337, 872, 768, 902, 903
338, 88, 865, 516, 95
339, 670, 597, 489, 762
340, 619, 800, 271, 500
341, 763, 620, 764, 560
342, 203, 150, 735, 674
343, 631, 485, 626, 583
344, 152, 433, 504, 502
345, 408, 665, 478, 323
346, 801, 799, 660, 156
347, 433, 18, 11, 504
348, 858, 651, 310, 860
349, 211, 583, 322, 209
350, 207, 476, 774, 340
351, 535, 153, 376, 633
352, 350, 315, 267, 559
353, 585, 557, 870, 259
354, 722, 339, 13, 21
355, 291, 337, 381, 760
356, 773, 622, 9, 135
357, 714, 292, 276, 719
358, 830, 349, 641, 431
359, 799, 711, 519, 660
360, 589, 882, 336, 491
361, 84, 616, 745, 81
362, 399, 589, 491, 769
363, 189, 791, 882, 589
364, 307, 888, 887, 495
365, 96, 187, 865, 88
366, 753, 614, 636, 791
367, 334, 596, 908, 901
368, 885, 518, 130, 143
369, 553, 802, 501, 230
370, 701, 477, 535, 321
371, 583, 626, 618, 322
372, 299, 290, 565, 604
373, 634, 209, 584, 482
374, 521, 659, 816, 507
375, 500, 271, 533, 647
376, 246, 438, 524, 523
377, 523, 524, 456, 248
378, 524, 67, 75, 456
379, 438, 74, 67, 524
380, 592, 538, 566, 688
381, 164, 35, 43, 397
382, 480, 681, 312, 814
383, 546, 709, 646, 683
384, 202, 529, 530, 486
385, 486, 530, 386, 201
386, 530, 442, 200, 386
387, 529, 199, 442, 530
388, 321, 535, 633, 658
389, 735, 220, 217, 705
390, 223, 534, 378, 166
391, 236, 714, 719, 630
392, 677, 611, 788, 279
393, 848, 830, 145, 131
394, 518, 234, 408, 793
395, 525, 279, 430, 288
396, 301, 483, 540, 539
397, 539, 540, 413, 300
398, 540, 46, 57, 413
399, 483, 56, 46, 540
400, 176, 462, 542, 541
401, 541, 542, 393, 175
402, 542, 102, 113, 393
403, 462, 112, 102, 542
404, 89, 492, 187, 96
405, 517, 545, 529, 202
406, 545, 543, 199, 529
407, 739, 168, 768, 872
408, 886, 839, 652, 808
409, 532, 465, 313, 653
410, 770, 38, 31, 536
411, 520, 198, 517, 776
412, 264, 551, 552, 550
413, 550, 552, 374, 265
414, 552, 537, 266, 374
415, 551, 267, 537, 552
416, 712, 285, 799, 801
417, 285, 311, 711, 799
418, 591, 155, 704, 330
419, 811, 229, 226, 794
420, 206, 321, 658, 499
421, 673, 694, 733, 304
422, 725, 657, 297, 283
423, 120, 110, 562, 390
424, 390, 562, 561, 204
425, 562, 432, 152, 561
426, 110, 121, 432, 562
427, 834, 628, 526, 678
428, 536, 31, 39, 511
429, 567, 712, 147, 133
430, 379, 720, 269, 383
431, 296, 679, 289, 806
432, 534, 803, 198, 520
433, 850, 683, 796, 505
434, 796, 648, 154, 227
435, 249, 571, 572, 425
436, 425, 572, 569, 247
437, 572, 570, 243, 569
438, 571, 237, 570, 572
439, 598, 895, 896, 754
440, 516, 574, 190, 778
441, 636, 891, 890, 875
442, 769, 491, 359, 180
443, 808, 652, 713, 165
444, 710, 17, 2, 527
445, 711, 640, 858, 519
446, 633, 376, 832, 797
447, 347, 261, 260, 346
448, 581, 582, 551, 264
449, 582, 559, 267, 551
450, 818, 668, 261, 347
451, 674, 735, 705, 280
452, 508, 718, 807, 290
453, 831, 302, 586, 275
454, 605, 164, 397, 337
455, 560, 764, 742, 528
456, 679, 632, 429, 289
457, 272, 163, 775, 656
458, 839, 481, 734, 652
459, 576, 305, 306, 671
460, 740, 888, 889, 731
461, 639, 766, 515, 498
462, 336, 873, 307, 179
463, 709, 351, 225, 646
464, 555, 502, 504, 258
465, 422, 158, 206, 219
466, 771, 422, 219, 800
467, 600, 602, 601, 822
468, 593, 595, 123, 136
469, 595, 344, 137, 123
470, 594, 255, 344, 595
471, 6, 907, 419, 73
472, 575, 686, 138, 124
473, 97, 469, 492, 89
474, 495, 887, 420, 573
475, 250, 366, 602, 599
476, 599, 602, 600, 238
477, 366, 252, 601, 602
478, 219, 206, 499, 233
479, 479, 318, 725, 308
480, 733, 656, 629, 707
481, 221, 549, 810, 303
482, 237, 571, 607, 606
483, 606, 607, 599, 238
484, 607, 493, 250, 599
485, 571, 249, 493, 607
486, 191, 253, 183, 866
487, 342, 399, 769, 253
488, 610, 609, 174, 608
489, 400, 177, 609, 610
490, 280, 705, 466, 210
491, 284, 585, 259, 262
492, 283, 297, 328, 424
493, 724, 621, 620, 763
494, 597, 161, 342, 489
495, 256, 890, 891, 871
496, 884, 671, 331, 881
497, 767, 472, 192, 750
498, 235, 382, 422, 771
499, 706, 295, 421, 789
500, 473, 224, 802, 553
501, 167, 283, 424, 474
502, 212, 620, 621, 435
503, 435, 621, 618, 215
504, 158, 701, 321, 206
505, 659, 547, 817, 816
506, 160, 623, 624, 622
507, 622, 624, 122, 9
508, 624, 593, 136, 122
509, 780, 822, 601, 782
510, 213, 410, 626, 485
511, 298, 480, 814, 838
512, 792, 743, 502, 555
513, 410, 215, 618, 626
514, 229, 298, 838, 226
515, 793, 408, 323, 848
516, 817, 30, 38, 770
517, 499, 658, 861, 862
518, 288, 430, 617, 672
519, 481, 842, 221, 734
520, 665, 319, 619, 478
521, 519, 858, 860, 666
522, 214, 25, 28, 867
523, 234, 613, 665, 408
524, 805, 580, 747, 149
525, 476, 798, 449, 774
526, 697, 403, 614, 753
527, 470, 181, 472, 767
528, 903, 902, 765, 356
529, 171, 894, 895, 598
530, 760, 381, 301, 539
531, 222, 675, 831, 718
532, 278, 631, 583, 211
533, 506, 348, 613, 234
534, 241, 467, 645, 642
535, 642, 645, 643, 242
536, 645, 644, 244, 643
537, 467, 245, 644, 645
538, 547, 3, 30, 817
539, 226, 838, 578, 155
540, 776, 517, 202, 510
541, 837, 703, 590, 625
542, 265, 450, 650, 550
543, 550, 650, 649, 264
544, 650, 642, 242, 649
545, 450, 241, 642, 650
546, 312, 680, 568, 487
547, 567, 653, 285, 712
548, 465, 341, 691, 313
549, 591, 330, 554, 798
550, 153, 214, 867, 376
551, 317, 666, 157, 274
552, 518, 793, 144, 130
553, 324, 34, 42, 287
554, 474, 424, 563, 423
555, 564, 690, 627, 558
556, 509, 482, 556, 338
557, 526, 291, 760, 864
558, 794, 226, 155, 591
559, 338, 556, 407, 406
560, 680, 813, 531, 568
561, 159, 579, 634, 548
562, 765, 575, 124, 137
563, 882, 875, 873, 336
564, 696, 470, 767, 879
565, 419, 490, 251, 460
566, 648, 723, 475, 154
567, 676, 423, 379, 684
568, 821, 448, 813, 680
569, 397, 43, 36, 746
570, 345, 325, 845, 783
571, 667, 669, 649, 242
572, 669, 581, 264, 649
573, 783, 845, 840, 692
574, 193, 171, 598, 761
575, 762, 489, 191, 404
576, 447, 356, 344, 255
577, 614, 892, 891, 636
578, 349, 662, 273, 641
579, 431, 641, 532, 503
580, 376, 867, 721, 832
581, 275, 586, 294, 690
582, 786, 167, 474, 844
583, 310, 677, 279, 525
584, 694, 272, 656, 733
585, 304, 284, 262, 326
586, 661, 722, 21, 14
587, 774, 449, 635, 477
588, 688, 566, 298, 229
589, 481, 761, 194, 842
590, 777, 316, 299, 689
591, 579, 211, 209, 634
592, 398, 805, 149, 611
593, 806, 289, 675, 222
594, 180, 359, 856, 741
595, 865, 471, 574, 516
596, 161, 184, 399, 342
597, 196, 899, 898, 883
598, 232, 33, 41, 577
599, 150, 218, 220, 735
600, 849, 786, 844, 350
601, 584, 724, 763, 309
602, 340, 774, 477, 701
603, 773, 317, 274, 843
604, 429, 277, 320, 268
605, 669, 667, 668, 818
606, 192, 755, 305, 576
607, 671, 306, 512, 331
608, 731, 889, 890, 256
609, 515, 698, 254, 186
610, 177, 415, 700, 609
611, 609, 700, 699, 174
612, 700, 541, 175, 699
613, 415, 176, 541, 700
614, 692, 840, 852, 263
615, 672, 617, 316, 777
616, 424, 328, 706, 563
617, 655, 406, 448, 821
618, 691, 850, 505, 759
619, 734, 221, 303, 868
620, 704, 855, 15, 23
621, 155, 578, 855, 704
622, 315, 603, 537, 267
623, 205, 258, 19, 12
624, 505, 796, 227, 815
625, 503, 532, 653, 567
626, 625, 590, 547, 659
627, 788, 296, 806, 787
628, 223, 197, 803, 534
629, 348, 829, 329, 613
630, 800, 219, 233, 271
631, 329, 235, 771, 319
632, 885, 506, 234, 518
633, 245, 454, 716, 644
634, 644, 716, 715, 244
635, 716, 523, 248, 715
636, 454, 246, 523, 716
637, 466, 655, 821, 681
638, 527, 2, 25, 214
639, 811, 794, 476, 207
640, 666, 860, 228, 157
641, 675, 268, 302, 831
642, 165, 713, 282, 795
643, 843, 673, 702, 160
644, 563, 706, 789, 720
645, 448, 473, 553, 813
646, 721, 26, 29, 703
647, 868, 303, 203, 464
648, 209, 322, 724, 584
649, 773, 843, 160, 622
650, 228, 525, 288, 163
651, 886, 332, 193, 839
652, 295, 678, 859, 421
653, 172, 440, 727, 392
654, 392, 727, 699, 175
655, 727, 726, 174, 699
656, 440, 173, 726, 727
657, 247, 569, 729, 457
658, 457, 729, 715, 248
659, 729, 728, 244, 715
660, 569, 243, 728, 729
661, 901, 908, 686, 575
662, 750, 192, 576, 445
663, 778, 190, 444, 732
664, 879, 767, 750, 357
665, 522, 605, 337, 291
666, 511, 39, 32, 277
667, 510, 202, 486, 488
668, 703, 29, 27, 590
669, 489, 342, 253, 191
670, 836, 898, 899, 513
671, 738, 726, 173, 737
672, 608, 174, 726, 738
673, 754, 896, 897, 880
674, 877, 893, 894, 171
675, 514, 900, 543, 545
676, 142, 178, 877, 332
677, 204, 561, 743, 742
678, 319, 771, 800, 619
679, 431, 503, 146, 132
680, 561, 152, 502, 743
681, 761, 598, 754, 194
682, 907, 906, 490, 419
683, 418, 874, 403, 697
684, 906, 905, 496, 490
685, 423, 563, 720, 379
686, 617, 693, 508, 316
687, 302, 232, 577, 586
688, 328, 835, 295, 706
689, 748, 420, 887, 876
690, 637, 753, 791, 189
691, 178, 892, 893, 877
692, 86, 670, 762, 7
693, 82, 343, 616, 84
694, 187, 357, 471, 865
695, 471, 445, 884, 574
696, 253, 769, 180, 183
697, 199, 543, 751, 441
698, 441, 751, 737, 173
699, 698, 739, 872, 254
700, 183, 180, 741, 766
701, 94, 732, 670, 86
702, 803, 513, 514, 198
703, 574, 884, 881, 190
704, 356, 765, 137, 344
705, 243, 757, 758, 728
706, 728, 758, 643, 244
707, 758, 667, 242, 643
708, 240, 239, 863, 846
709, 736, 479, 308, 380
710, 350, 844, 676, 315
711, 628, 522, 291, 526
712, 864, 760, 539, 300
713, 752, 880, 836, 197
714, 184, 189, 589, 399
715, 83, 404, 663, 85
716, 73, 419, 460, 80
717, 682, 770, 536, 857
718, 742, 764, 389, 204
719, 764, 620, 212, 389
720, 802, 792, 555, 501
721, 768, 334, 901, 902
722, 695, 544, 169, 664
723, 126, 876, 740, 140
724, 880, 897, 898, 836
725, 472, 188, 755, 192
726, 125, 869, 748, 139
727, 902, 901, 575, 765
728, 139, 748, 876, 126
729, 795, 282, 314, 236
730, 154, 475, 805, 398
731, 271, 233, 809, 533
732, 538, 280, 210, 566
733, 717, 205, 12, 20
734, 807, 275, 690, 564
735, 236, 314, 592, 714
736, 775, 672, 777, 286
737, 549, 166, 587, 810
738, 867, 28, 26, 721
739, 292, 811, 207, 276
740, 224, 528, 792, 802
741, 747, 857, 632, 679
742, 503, 567, 133, 146
743, 844, 474, 423, 676
744, 163, 288, 672, 775
745, 85, 663, 343, 82
746, 333, 883, 195, 687
747, 664, 169, 874, 418
748, 883, 898, 897, 195
749, 252, 459, 782, 601
750, 823, 593, 624, 623
751, 459, 251, 781, 782
752, 286, 777, 689, 318
753, 845, 347, 346, 840
754, 785, 570, 237, 784
755, 757, 243, 570, 785
756, 772, 837, 625, 216
757, 590, 27, 3, 547
758, 586, 577, 324, 294
759, 789, 421, 293, 369
760, 720, 789, 369, 269
761, 279, 788, 787, 430
762, 337, 397, 746, 381
763, 277, 32, 40, 320
764, 179, 307, 495, 170
765, 745, 497, 906, 907
766, 497, 186, 905, 906
767, 188, 687, 695, 755
768, 693, 222, 718, 508
769, 859, 864, 300, 412
770, 487, 568, 722, 661
771, 662, 500, 647, 273
772, 558, 627, 522, 628
773, 647, 533, 405, 341
774, 309, 763, 560, 804
775, 719, 276, 231, 382
776, 323, 478, 662, 349
777, 162, 487, 661, 208
778, 886, 885, 143, 129
779, 797, 832, 837, 772
780, 718, 831, 275, 807
781, 381, 746, 377, 301
782, 464, 203, 674, 812
783, 531, 230, 717, 339
784, 794, 591, 798, 476
785, 208, 661, 14, 22
786, 793, 848, 131, 144
787, 604, 565, 654, 281
788, 660, 519, 666, 317
789, 611, 149, 296, 788
790, 227, 154, 398, 708
791, 830, 431, 132, 145
792, 556, 309, 804, 407
793, 378, 833, 579, 159
794, 282, 464, 812, 314
795, 165, 795, 829, 348
796, 273, 647, 341, 465
797, 290, 807, 564, 565
798, 156, 660, 317, 773
799, 322, 618, 621, 724
800, 330, 16, 24, 554
801, 478, 619, 500, 662
802, 809, 862, 709, 546
803, 798, 554, 710, 449
804, 685, 752, 197, 223
805, 723, 521, 507, 475
806, 276, 207, 340, 231
807, 652, 734, 868, 713
808, 861, 797, 772, 351
809, 239, 851, 825, 863
810, 852, 240, 846, 847
811, 820, 623, 160, 702
812, 257, 824, 781, 854
813, 577, 41, 34, 324
814, 510, 488, 485, 631
815, 149, 747, 679, 296
816, 646, 225, 723, 648
817, 287, 42, 35, 164
818, 507, 816, 682, 580
819, 210, 466, 681, 480
820, 289, 429, 268, 675
821, 823, 623, 820, 819
822, 257, 853, 826, 824
823, 824, 780, 782, 781
824, 824, 826, 827, 780
825, 238, 600, 827, 825
826, 629, 286, 318, 479
827, 823, 819, 853, 257
828, 780, 827, 600, 822
829, 87, 778, 732, 94
830, 7, 762, 404, 83
831, 128, 871, 178, 142
832, 254, 872, 903, 904
833, 156, 773, 135, 148
834, 351, 772, 216, 225
835, 330, 704, 23, 16
836, 314, 812, 538, 592
837, 657, 604, 281, 297
838, 274, 157, 272, 694
839, 689, 299, 604, 657
840, 801, 156, 148, 134
841, 548, 634, 482, 509
842, 673, 304, 326, 702
843, 708, 398, 611, 677
844, 281, 654, 834, 835
845, 260, 784, 851, 239
846, 320, 40, 33, 232
847, 308, 725, 283, 167
848, 860, 310, 525, 228
849, 904, 903, 356, 447
850, 875, 890, 889, 873
851, 496, 447, 255, 790
852, 195, 897, 896, 544
853, 430, 787, 693, 617
854, 842, 685, 549, 221
855, 684, 379, 383, 270
856, 449, 710, 527, 635
857, 813, 553, 230, 531
858, 842, 194, 752, 685
859, 832, 721, 703, 837
860, 841, 847, 819, 820
861, 325, 818, 347, 845
862, 346, 260, 239, 240
863, 847, 846, 853, 819
864, 653, 313, 311, 285
865, 713, 868, 464, 282
866, 838, 814, 162, 578
867, 166, 378, 159, 587
868, 603, 395, 266, 537
869, 554, 24, 17, 710
870, 258, 504, 11, 19
871, 318, 689, 657, 725
872, 261, 785, 784, 260
873, 840, 346, 240, 852
874, 327, 345, 783, 870
875, 685, 223, 166, 549
876, 833, 278, 211, 579
877, 341, 405, 850, 691
878, 849, 350, 559, 327
879, 658, 633, 797, 861
880, 339, 717, 20, 13
881, 421, 859, 412, 293
882, 284, 707, 736, 585
883, 578, 162, 208, 855
884, 303, 810, 150, 203
885, 580, 682, 857, 747
886, 814, 312, 487, 162
887, 534, 520, 833, 378
888, 237, 606, 851, 784
889, 326, 841, 820, 702
890, 863, 825, 827, 826
891, 606, 238, 825, 851
892, 668, 757, 785, 261
893, 263, 852, 847, 841
894, 582, 581, 325, 345
895, 823, 594, 595, 593
896, 870, 783, 692, 259
897, 262, 263, 841, 326
898, 255, 594, 854, 790
899, 790, 854, 781, 251
900, 823, 257, 854, 594
901, 316, 508, 290, 299
902, 759, 505, 815, 640
903, 81, 745, 907, 6
904, 403, 893, 892, 614
905, 469, 696, 879, 492
906, 804, 560, 528, 224
907, 857, 536, 511, 632
908, 218, 548, 509, 220
909, 835, 834, 678, 295
910, 557, 849, 327, 870
911, 843, 274, 694, 673
912, 406, 407, 473, 448
913, 654, 558, 628, 834
914, 712, 801, 134, 147
915, 641, 273, 465, 532
916, 705, 217, 655, 466
917, 612, 287, 164, 605
918, 613, 329, 319, 665
919, 311, 759, 640, 711
920, 566, 210, 480, 298
921, 259, 692, 263, 262
922, 667, 758, 757, 668
923, 559, 582, 345, 327
924, 382, 231, 158, 422
925, 810, 587, 218, 150
926, 855, 208, 22, 15
927, 359, 179, 170, 856
928, 874, 894, 893, 403
929, 755, 695, 664, 305
930, 881, 331, 335, 638
931, 512, 697, 753, 637
932, 357, 750, 445, 471
933, 787, 806, 222, 693
934, 297, 281, 835, 328
935, 839, 193, 761, 481
936, 848, 323, 349, 830
937, 520, 776, 278, 833
938, 714, 592, 688, 292
939, 181, 151, 188, 472
940, 335, 637, 189, 184
941, 306, 418, 697, 512
942, 581, 669, 818, 325
943, 846, 863, 826, 853
944, 313, 691, 759, 311
945, 544, 896, 895, 169
946, 138, 686, 869, 125
947, 186, 254, 904, 905
948, 305, 664, 418, 306
949, 194, 754, 880, 752
950, 616, 498, 497, 745
951, 490, 496, 790, 251
952, 687, 195, 544, 695
953, 791, 636, 875, 882
954, 869, 596, 420, 748
955, 573, 420, 596, 334
956, 513, 899, 900, 514
957, 151, 333, 687, 188
958, 445, 576, 671, 884
959, 808, 165, 348, 506
960, 886, 808, 506, 885
961, 744, 588, 333, 151
962, 878, 744, 151, 181
963, 358, 878, 181, 470
964, 756, 358, 470, 696
965, 185, 756, 696, 469
966, 90, 185, 469, 97
967, 828, 900, 899, 196
968, 749, 828, 196, 588
969, 730, 749, 588, 744
970, 779, 730, 744, 878
971, 446, 779, 878, 358
972, 182, 446, 358, 756
973, 615, 182, 756, 185
974, 98, 615, 185, 90
975, 751, 543, 900, 828
976, 737, 751, 828, 749
977, 738, 737, 749, 730
978, 608, 738, 730, 779
979, 610, 608, 779, 446
980, 400, 610, 446, 182
981, 402, 400, 182, 615
982, 91, 402, 615, 98
*ELSET,ELSET=contact_source
99, 100, 101, 102, 103, 104, 105, 106, 107, 108, 
109, 110, 111, 112, 113, 114, 115, 116, 117, 118, 
119, 120, 
*ELSET,ELSET=contact_drain
39, 40, 41, 42, 43, 44, 45, 46, 47, 48, 
49, 50, 51, 52, 53, 54, 55, 56, 57, 58, 
59, 60, 
*ELSET,ELSET=probe_A
77, 78, 79, 80, 81, 82, 
*ELSET,ELSET=probe_B
17, 18, 19, 20, 21, 22, 
*ELSET,ELSET=walls
1, 2, 3, 4, 5, 6, 7, 8, 9, 10, 
11, 12, 13, 14, 15, 16, 23, 24, 25, 26, 
27, 28, 29, 30, 31, 32, 33, 34, 35, 36, 
37, 38, 61, 62, 63, 64, 65, 66, 67, 68, 
69, 70, 71, 72, 73, 74, 75, 76, 83, 84, 
85, 86, 87, 88, 89, 90, 91, 92, 93, 94, 
95, 96, 97, 98, 121, 122, 123, 124, 125, 126, 
127, 128, 129, 130, 131, 132, 133, 134, 135, 136, 
137, 138, 139, 140, 141, 142, 143, 144, 145, 146, 
147, 148, 
*ELSET,ELSET=domain
149, 150, 151, 152, 153, 154, 155, 156, 157, 158, 
159, 160, 161, 162, 163, 164, 165, 166, 167, 168, 
169, 170, 171, 172, 173, 174, 175, 176, 177, 178, 
179, 180, 181, 182, 183, 184, 185, 186, 187, 188, 
189, 190, 191, 192, 193, 194, 195, 196, 197, 198, 
199, 200, 201, 202, 203, 204, 205, 206, 207, 208, 
209, 210, 211, 212, 213, 214, 215, 216, 217, 218, 
219, 220, 221, 222, 223, 224, 225, 226, 227, 228, 
229, 230, 231, 232, 233, 234, 235, 236, 237, 238, 
239, 240, 241, 242, 243, 244, 245, 246, 247, 248, 
249, 250, 251, 252, 253, 254, 255, 256, 257, 258, 
259, 260, 261, 262, 263, 264, 265, 266, 267, 268, 
269, 270, 271, 272, 273, 274, 275, 276, 277, 278, 
279, 280, 281, 282, 283, 284, 285, 286, 287, 288, 
289, 290, 291, 292, 293, 294, 295, 296, 297, 298, 
299, 300, 301, 302, 303, 304, 305, 306, 307, 308, 
309, 310, 311, 312, 313, 314, 315, 316, 317, 318, 
319, 320, 321, 322, 323, 324, 325, 326, 327, 328, 
329, 330, 331, 332, 333, 334, 335, 336, 337, 338, 
339, 340, 341, 342, 343, 344, 345, 346, 347, 348, 
349, 350, 351, 352, 353, 354, 355, 356, 357, 358, 
359, 360, 361, 362, 363, 364, 365, 366, 367, 368, 
369, 370, 371, 372, 373, 374, 375, 376, 377, 378, 
379, 380, 381, 382, 383, 384, 385, 386, 387, 388, 
389, 390, 391, 392, 393, 394, 395, 396, 397, 398, 
399, 400, 401, 402, 403, 404, 405, 406, 407, 408, 
409, 410, 411, 412, 413, 414, 415, 416, 417, 418, 
419, 420, 421, 422, 423, 424, 425, 426, 427, 428, 
429, 430, 431, 432, 433, 434, 435, 436, 437, 438, 
439, 440, 441, 442, 443, 444, 445, 446, 447, 448, 
449, 450, 451, 452, 453, 454, 455, 456, 457, 458, 
459, 460, 461, 462, 463, 464, 465, 466, 467, 468, 
469, 470, 471, 472, 473, 474, 475, 476, 477, 478, 
479, 480, 481, 482, 483, 484, 485, 486, 487, 488, 
489, 490, 491, 492, 493, 494, 495, 496, 497, 498, 
499, 500, 501, 502, 503, 504, 505, 506, 507, 508, 
509, 510, 511, 512, 513, 514, 515, 516, 517, 518, 
519, 520, 521, 522, 523, 524, 525, 526, 527, 528, 
529, 530, 531, 532, 533, 534, 535, 536, 537, 538, 
539, 540, 541, 542, 543, 544, 545, 546, 547, 548, 
549, 550, 551, 552, 553, 554, 555, 556, 557, 558, 
559, 560, 561, 562, 563, 564, 565, 566, 567, 568, 
569, 570, 571, 572, 573, 574, 575, 576, 577, 578, 
579, 580, 581, 582, 583, 584, 585, 586, 587, 588, 
589, 590, 591, 592, 593, 594, 595, 596, 597, 598, 
599, 600, 601, 602, 603, 604, 605, 606, 607, 608, 
609, 610, 611, 612, 613, 614, 615, 616, 617, 618, 
619, 620, 621, 622, 623, 624, 625, 626, 627, 628, 
629, 630, 631, 632, 633, 634, 635, 636, 637, 638, 
639, 640, 641, 642, 643, 644, 645, 646, 647, 648, 
649, 650, 651, 652, 653, 654, 655, 656, 657, 658, 
659, 660, 661, 662, 663, 664, 665, 666, 667, 668, 
669, 670, 671, 672, 673, 674, 675, 676, 677, 678, 
679, 680, 681, 682, 683, 684, 685, 686, 687, 688, 
689, 690, 691, 692, 693, 694, 695, 696, 697, 698, 
699, 700, 701, 702, 703, 704, 705, 706, 707, 708, 
709, 710, 711, 712, 713, 714, 715, 716, 717, 718, 
719, 720, 721, 722, 723, 724, 725, 726, 727, 728, 
729, 730, 731, 732, 733, 734, 735, 736, 737, 738, 
739, 740, 741, 742, 743, 744, 745, 746, 747, 748, 
749, 750, 751, 752, 753, 754, 755, 756, 757, 758, 
759, 760, 761, 762, 763, 764, 765, 766, 767, 768, 
769, 770, 771, 772, 773, 774, 775, 776, 777, 778, 
779, 780, 781, 782, 783, 784, 785, 786, 787, 788, 
789, 790, 791, 792, 793, 794, 795, 796, 797, 798, 
799, 800, 801, 802, 803, 804, 805, 806, 807, 808, 
809, 810, 811, 812, 813, 814, 815, 816, 817, 818, 
819, 820, 821, 822, 823, 824, 825, 826, 827, 828, 
829, 830, 831, 832, 833, 834, 835, 836, 837, 838, 
839, 840, 841, 842, 843, 844, 845, 846, 847, 848, 
849, 850, 851, 852, 853, 854, 855, 856, 857, 858, 
859, 860, 861, 862, 863, 864, 865, 866, 867, 868, 
869, 870, 871, 872, 873, 874, 875, 876, 877, 878, 
879, 880, 881, 882, 883, 884, 885, 886, 887, 888, 
889, 890, 891, 892, 893, 894, 895, 896, 897, 898, 
899, 900, 901, 902, 903, 904, 905, 906, 907, 908, 
909, 910, 911, 912, 913, 914, 915, 916, 917, 918, 
919, 920, 921, 922, 923, 924, 925, 926, 927, 928, 
929, 930, 931, 932, 933, 934, 935, 936, 937, 938, 
939, 940, 941, 942, 943, 944, 945, 946, 947, 948, 
949, 950, 951, 952, 953, 954, 955, 956, 957, 958, 
959, 960, 961, 962, 963, 964, 965, 966, 967, 968, 
969, 970, 971, 972, 973, 974, 975, 976, 977, 978, 
979, 980, 981, 982, 
*NSET,NSET=contact_source
1, 8, 101, 102, 103, 104, 105, 106, 107, 108, 
109, 110, 111, 112, 113, 114, 115, 116, 117, 118, 
119, 120, 121, 
*NSET,NSET=contact_drain
4, 5, 45, 46, 47, 48, 49, 50, 51, 52, 
53, 54, 55, 56, 57, 58, 59, 60, 61, 62, 
63, 64, 65, 
*NSET,NSET=probe_A
6, 7, 81, 82, 83, 84, 85, 
*NSET,NSET=probe_B
2, 3, 25, 26, 27, 28, 29, 
*NSET,NSET=walls
1, 2, 3, 4, 5, 6, 7, 8, 9, 10, 
11, 12, 13, 14, 15, 16, 17, 18, 19, 20, 
21, 22, 23, 24, 30, 31, 32, 33, 34, 35, 
36, 37, 38, 39, 40, 41, 42, 43, 44, 66, 
67, 68, 69, 70, 71, 72, 73, 74, 75, 76, 
77, 78, 79, 80, 86, 87, 88, 89, 90, 91, 
92, 93, 94, 95, 96, 97, 98, 99, 100, 122, 
123, 124, 125, 126, 127, 128, 129, 130, 131, 132, 
133, 134, 135, 136, 137, 138, 139, 140, 141, 142, 
143, 144, 145, 146, 147, 148, 
*NSET,NSET=domain
1, 2, 3, 4, 5, 6, 7, 8, 9, 10, 
11, 12, 13, 14, 15, 16, 17, 18, 19, 20, 
21, 22, 23, 24, 25, 26, 27, 28, 29, 30, 
31, 32, 33, 34, 35, 36, 37, 38, 39, 40, 
41, 42, 43, 44, 45, 46, 47, 48, 49, 50, 
51, 52, 53, 54, 55, 56, 57, 58, 59, 60, 
61, 62, 63, 64, 65, 66, 67, 68, 69, 70, 
71, 72, 73, 74, 75, 76, 77, 78, 79, 80, 
81, 82, 83, 84, 85, 86, 87, 88, 89, 90, 
91, 92, 93, 94, 95, 96, 97, 98, 99, 100, 
101, 102, 103, 104, 105, 106, 107, 108, 109, 110, 
111, 112, 113, 114, 115, 116, 117, 118, 119, 120, 
121, 122, 123, 124, 125, 126, 127, 128, 129, 130, 
131, 132, 133, 134, 135, 136, 137, 138, 139, 140, 
141, 142, 143, 144, 145, 146, 147, 148, 149, 150, 
151, 152, 153, 154, 155, 156, 157, 158, 159, 160, 
161, 162, 163, 164, 165, 166, 167, 168, 169, 170, 
171, 172, 173, 174, 175, 176, 177, 178, 179, 180, 
181, 182, 183, 184, 185, 186, 187, 188, 189, 190, 
191, 192, 193, 194, 195, 196, 197, 198, 199, 200, 
201, 202, 203, 204, 205, 206, 207, 208, 209, 210, 
211, 212, 213, 214, 215, 216, 217, 218, 219, 220, 
221, 222, 223, 224, 225, 226, 227, 228, 229, 230, 
231, 232, 233, 234, 235, 236, 237, 238, 239, 240, 
241, 242, 243, 244, 245, 246, 247, 248, 249, 250, 
251, 252, 253, 254, 255, 256, 257, 258, 259, 260, 
261, 262, 263, 264, 265, 266, 267, 268, 269, 270, 
271, 272, 273, 274, 275, 276, 277, 278, 279, 280, 
281, 282, 283, 284, 285, 286, 287, 288, 289, 290, 
291, 292, 293, 294, 295, 296, 297, 298, 299, 300, 
301, 302, 303, 304, 305, 306, 307, 308, 309, 310, 
311, 312, 313, 314, 315, 316, 317, 318, 319, 320, 
321, 322, 323, 324, 325, 326, 327, 328, 329, 330, 
331, 332, 333, 334, 335, 336, 337, 338, 339, 340, 
341, 342, 343, 344, 345, 346, 347, 348, 349, 350, 
351, 352, 353, 354, 355, 356, 357, 358, 359, 360, 
361, 362, 363, 364, 365, 366, 367, 368, 369, 370, 
371, 372, 373, 374, 375, 376, 377, 378, 379, 380, 
381, 382, 383, 384, 385, 386, 387, 388, 389, 390, 
391, 392, 393, 394, 395, 396, 397, 398, 399, 400, 
401, 402, 403, 404, 405, 406, 407, 408, 409, 410, 
411, 412, 413, 414, 415, 416, 417, 418, 419, 420, 
421, 422, 423, 424, 425, 426, 427, 428, 429, 430, 
431, 432, 433, 434, 435, 436, 437, 438, 439, 440, 
441, 442, 443, 444, 445, 446, 447, 448, 449, 450, 
451, 452, 453, 454, 455, 456, 457, 458, 459, 460, 
461, 462, 463, 464, 465, 466, 467, 468, 469, 470, 
471, 472, 473, 474, 475, 476, 477, 478, 479, 480, 
481, 482, 483, 484, 485, 486, 487, 488, 489, 490, 
491, 492, 493, 494, 495, 496, 497, 498, 499, 500, 
501, 502, 503, 504, 505, 506, 507, 508, 509, 510, 
511, 512, 513, 514, 515, 516, 517, 518, 519, 520, 
521, 522, 523, 524, 525, 526, 527, 528, 529, 530, 
531, 532, 533, 534, 535, 536, 537, 538, 539, 540, 
541, 542, 543, 544, 545, 546, 547, 548, 549, 550, 
551, 552, 553, 554, 555, 556, 557, 558, 559, 560, 
561, 562, 563, 564, 565, 566, 567, 568, 569, 570, 
571, 572, 573, 574, 575, 576, 577, 578, 579, 580, 
581, 582, 583, 584, 585, 586, 587, 588, 589, 590, 
591, 592, 593, 594, 595, 596, 597, 598, 599, 600, 
601, 602, 603, 604, 605, 606, 607, 608, 609, 610, 
611, 612, 613, 614, 615, 616, 617, 618, 619, 620, 
621, 622, 623, 624, 625, 626, 627, 628, 629, 630, 
631, 632, 633, 634, 635, 636, 637, 638, 639, 640, 
641, 642, 643, 644, 645, 646, 647, 648, 649, 650, 
651, 652, 653, 654, 655, 656, 657, 658, 659, 660, 
661, 662, 663, 664, 665, 666, 667, 668, 669, 670, 
671, 672, 673, 674, 675, 676, 677, 678, 679, 680, 
681, 682, 683, 684, 685, 686, 687, 688, 689, 690, 
691, 692, 693, 694, 695, 696, 697, 698, 699, 700, 
701, 702, 703, 704, 705, 706, 707, 708, 709, 710, 
711, 712, 713, 714, 715, 716, 717, 718, 719, 720, 
721, 722, 723, 724, 725, 726, 727, 728, 729, 730, 
731, 732, 733, 734, 735, 736, 737, 738, 739, 740, 
741, 742, 743, 744, 745, 746, 747, 748, 749, 750, 
751, 752, 753, 754, 755, 756, 757, 758, 759, 760, 
761, 762, 763, 764, 765, 766, 767, 768, 769, 770, 
771, 772, 773, 774, 775, 776, 777, 778, 779, 780, 
781, 782, 783, 784, 785, 786, 787, 788, 789, 790, 
791, 792, 793, 794, 795, 796, 797, 798, 799, 800, 
801, 802, 803, 804, 805, 806, 807, 808, 809, 810, 
811, 812, 813, 814, 815, 816, 817, 818, 819, 820, 
821, 822, 823, 824, 825, 826, 827, 828, 829, 830, 
831, 832, 833, 834, 835, 836, 837, 838, 839, 840, 
841, 842, 843, 844, 845, 846, 847, 848, 849, 850, 
851, 852, 853, 854, 855, 856, 857, 858, 859, 860, 
861, 862, 863, 864, 865, 866, 867, 868, 869, 870, 
871, 872, 873, 874, 875, 876, 877, 878, 879, 880, 
881, 882, 883, 884, 885, 886, 887, 888, 889, 890, 
891, 892, 893, 894, 895, 896, 897, 898, 899, 900, 
901, 902, 903, 904, 905, 906, 907, 908, 
