*Heading
 /Users/juliagao/geometry-optimization-net/scripts/../runs/grid/shape_1.inp
*NODE
1, 0, -0.3, 0
2, 0.425, -0.3, 0
3, 0.575, -0.3, 0
4, 1, -0.3, 0
5, 1, 0.3, 0
6, 0.575, 0.3, 0
7, 0.425, 0.3, 0
8, 0, 0.3, 0
9, 0.58, -1.9416785487443e-20, 0
10, 0.02630748012811, -0.3, 0
11, 0.07900878618098, -0.3, 0
12, 0.13186739129543, -0.3, 0
13, 0.18504182267961, -0.3, 0
14, 0.2390184827912, -0.3, 0
15, 0.29353089306905, -0.3, 0
16, 0.34735635171652, -0.3, 0
17, 0.39946820400162, -0.3, 0
18, 0.052614960256221, -0.3, 0
19, 0.10540261210574, -0.3, 0
20, 0.15833217048513, -0.3, 0
21, 0.21175147487409, -0.3, 0
22, 0.26628549070831, -0.3, 0
23, 0.3207762954298, -0.3, 0
24, 0.37393640800323, -0.3, 0
25, 0.44993263556687, -0.3, 0
26, 0.49948244814441, -0.3, 0
27, 0.54954981257754, -0.3, 0
28, 0.47486527113373, -0.3, 0
29, 0.52409962515508, -0.3, 0
30, 0.60022792060539, -0.3, 0
31, 0.65120962830604, -0.3, 0
32, 0.70359849833458, -0.3, 0
33, 0.75764465687514, -0.3, 0
34, 0.81267365181282, -0.3, 0
35, 0.86708507908799, -0.3, 0
36, 0.9204068608002, -0.3, 0
37, 0.97346756728381, -0.3, 0
38, 0.62545584121077, -0.3, 0
39, 0.67696341540132, -0.3, 0
40, 0.73023358126784, -0.3, 0
41, 0.78505573248243, -0.3, 0
42, 0.8402915711432, -0.3, 0
43, 0.89387858703279, -0.3, 0
44, 0.94693513456762, -0.3, 0
45, 1, -0.27316964526181, 0
46, 1, -0.21914665605825, 0
47, 1, -0.16452657129138, 0
48, 1, -0.10911443440176, 0
49, 1, -0.053195553296373, 0
50, 1, 0.0018211903998387, 0
51, 1, 0.055982368848834, 0
52, 1, 0.11023416300305, 0
53, 1, 0.16475052053202, 0
54, 1, 0.21928997950053, 0
55, 1, 0.27324312291212, 0
56, 1, -0.24633929052361, 0
57, 1, -0.1919540215929, 0
58, 1, -0.13709912098987, 0
59, 1, -0.081129747813656, 0
60, 1, -0.025261358779089, 0
61, 1, 0.028903739578766, 0
62, 1, 0.083060998118902, 0
63, 1, 0.1374073278872, 0
64, 1, 0.19209371317683, 0
65, 1, 0.24648624582423, 0
66, 0.97355318619074, 0.3, 0
67, 0.92040974265494, 0.3, 0
68, 0.86685330801206, 0.3, 0
69, 0.81322299624129, 0.3, 0
70, 0.75960885504772, 0.3, 0
71, 0.70573095903724, 0.3, 0
72, 0.65222472195436, 0.3, 0
73, 0.6003763732714, 0.3, 0
74, 0.94710637238147, 0.3, 0
75, 0.8937131129284, 0.3, 0
76, 0.83999350309572, 0.3, 0
77, 0.78645248938687, 0.3, 0
78, 0.73276522070856, 0.3, 0
79, 0.67869669736592, 0.3, 0
80, 0.6257527465428, 0.3, 0
81, 0.55018112905483, 0.3, 0
82, 0.5005966296704, 0.3, 0
83, 0.45041550061558, 0.3, 0
84, 0.52536225810965, 0.3, 0
85, 0.47583100123115, 0.3, 0
86, 0.39866204543981, 0.3, 0
87, 0.34496476943824, 0.3, 0
88, 0.29017211895837, 0.3, 0
89, 0.23551516420713, 0.3, 0
90, 0.18131595564574, 0.3, 0
91, 0.12788677906644, 0.3, 0
92, 0.075775099292232, 0.3, 0
93, 0.025058506624343, 0.3, 0
94, 0.37232409087962, 0.3, 0
95, 0.31760544799687, 0.3, 0
96, 0.26273878991987, 0.3, 0
97, 0.20829153849439, 0.3, 0
98, 0.1543403727971, 0.3, 0
99, 0.10143318533578, 0.3, 0
100, 0.050117013248686, 0.3, 0
101, 0, 0.27400324449097, 0
102, 0, 0.22056859922275, 0
103, 0, 0.16539676562986, 0
104, 0, 0.11016779546063, 0
105, 0, 0.055273198834519, 0
106, 0, 0.00044152338097309, 0
107, 0, -0.054870563642292, 0
108, 0, -0.11057618305601, 0
109, 0, -0.16583029423721, 0
110, 0, -0.22017989110164, 0
111, 0, -0.27355050716914, 0
112, 0, 0.24800648898195, 0
113, 0, 0.19313070946355, 0
114, 0, 0.13766282179616, 0
115, 0, 0.082672769125106, 0
116, 0, 0.027873628543931, 0
117, 0, -0.026990581781985, 0
118, 0, -0.082750545502599, 0
119, 0, -0.13840182060943, 0
120, 0, -0.19325876786499, 0
121, 0, -0.24710101433828, 0
122, 0.57607852548714, 0.024739805105669, 0
123, 0.54715177364789, 0.064627472749804, 0
124, 0.50064451898015, 0.079997403468008, 0
125, 0.45381462437442, 0.065321596831881, 0
126, 0.42422994205574, 0.025669013598969, 0
127, 0.42354891154875, -0.02356334016739, 0
128, 0.45191653941929, -0.063937318834835, 0
129, 0.49886162281699, -0.0799918997765, 0
130, 0.54609128238783, -0.065388023489755, 0
131, 0.57591428717653, -0.025239274446488, 0
132, 0.56469855113952, 0.047054197212894, 0
133, 0.52506140967403, 0.075973190863311, 0
134, 0.47616595429152, 0.076367127786948, 0
135, 0.43594894410694, 0.047931849201441, 0
136, 0.42000470364737, 0.00086747385704089, 0
137, 0.4343730093286, -0.045750388117963, 0
138, 0.47425744725046, -0.075745104881552, 0
139, 0.52357668606579, -0.076446973779141, 0
140, 0.56407447748095, -0.047900535137755, 0
141, 0.42052703487699, -0.23790620351258, 0
142, 0.5720099334781, -0.24199081459883, 0
143, 0.41588457642418, 0.24544722861272, 0
144, 0.053430713523362, -0.24556207940727, 0
145, 0.10641401601647, -0.24544955114003, 0
146, 0.15960096129887, -0.24579813800995, 0
147, 0.21339025030022, -0.24642904324979, 0
148, 0.26793260758788, -0.24673464727932, 0
149, 0.46905795234534, -0.24057446274739, 0
150, 0.37419318841711, -0.24035145239219, 0
151, 0.32255790227835, -0.24546487943556, 0
152, 0.58022837260289, 0.247248403182, 0
153, 0.59188657600101, -0.096265703347096, 0
154, 0.52036814351711, -0.24211614461665, 0
155, 0.62351499365136, -0.24405391844687, 0
156, 0.67805040024229, -0.2474601437912, 0
157, 0.76253664469915, 0.18659443410204, 0
158, 0.92033426677284, -0.24487543952815, 0
159, 0.76056310894623, 0.15819783536268, 0
160, 0.25718102081423, 0.19209913518296, 0
161, 0.25743941912594, 0.13514875577001, 0
162, 0.20870927714854, 0.13163024821185, 0
163, 0.10544992974374, 0.13294004874532, 0
164, 0.15765554687132, 0.13202964368737, 0
165, 0.052690741819468, 0.13451553633751, 0
166, 0.15580878985632, 0.18835892383403, 0
167, 0.10448638859857, 0.18835436913589, 0
168, 0.052423745047924, 0.1893531417024, 0
169, 0.052519408429046, 0.24434270974424, 0
170, 0.10402493122688, 0.24424604166363, 0
171, 0.1553471915085, 0.24475939661441, 0
172, 0.20644855159356, 0.18914500014707, 0
173, 0.20687844990856, 0.24548299965382, 0
174, 0.25923585599727, 0.2467473673788, 0
175, 0.31278687152612, 0.24664834694501, 0
176, 0.36444659544037, 0.24528897590169, 0
177, 0.49783603530099, 0.24784210924046, 0
178, 0.41049753347584, 0.19091291081539, 0
179, 0.44246787024296, 0.24654831782862, 0
180, 0.30994257804788, 0.19171520926923, 0
181, 0.35983131804421, 0.18860128253289, 0
182, 0.35495465759467, 0.12994447294075, 0
183, 0.30717775975103, 0.1343734835383, 0
184, 0.28141963280531, 0.079324088187779, 0
185, 0.34130476832399, 0.073112794748614, 0
186, 0.53044107837796, 0.17563640111451, 0
187, 0.4053089543755, 0.1353030148285, 0
188, 0.39587488408027, 0.076552254315843, 0
189, 0.41244844575899, -0.13592241297414, 0
190, 0.33088319039666, 0.018603914867494, 0
191, 0.21997248322687, 0.076742471688952, 0
192, 0.16281160277639, 0.077580541526304, 0
193, 0.22075136197363, 0.026240004839298, 0
194, 0.27712707472028, 0.026633685441826, 0
195, 0.16403474706442, 0.02580883930107, 0
196, 0.053439741286229, 0.080182442252494, 0
197, 0.10766986191203, 0.078700342348209, 0
198, 0.05367879435776, 0.026536519042924, 0
199, 0.10836320306002, 0.025905382517026, 0
200, 0.053096296029274, -0.19121426381715, 0
201, 0.21213656312262, -0.19265311337633, 0
202, 0.266106818651, -0.19369429037787, 0
203, 0.29929264974704, -0.030233502092001, 0
204, 0.20902798646494, -0.13740474283862, 0
205, 0.15895835303746, -0.19148900147411, 0
206, 0.10603670988774, -0.19091651992804, 0
207, 0.10529549004826, -0.13604375589035, 0
208, 0.15754408178264, -0.13635962035778, 0
209, 0.052625032742554, -0.13651245716859, 0
210, 0.05326125674532, -0.02722859447742, 0
211, 0.10738787865202, -0.027049351606227, 0
212, 0.10576712802211, -0.081035066131227, 0
213, 0.052663820604988, -0.081611645337283, 0
214, 0.21698763190315, -0.025915425443543, 0
215, 0.16202778084066, -0.026531889232388, 0
216, 0.32805106434072, -0.11456855776235, 0
217, 0.15862431127733, -0.080587621250453, 0
218, 0.21072532914307, -0.080282186932783, 0
219, 0.46468338205723, -0.18244397352033, 0
220, 0.41539744428098, -0.17116434637899, 0
221, 0.37349648368422, -0.17658282689518, 0
222, 0.26190441664234, -0.080910906485908, 0
223, 0.32145282441933, -0.19189919120711, 0
224, 0.31347433556017, -0.085846135143062, 0
225, 0.31863876641615, -0.16623446387003, 0
226, 0.25662891148929, -0.10992171245732, 0
227, 0.28013081752288, -0.11111455064698, 0
228, 0.29452266448601, -0.056181891287455, 0
229, 0.3775203915616, 0.006781049583621, 0
230, 0.97348948096001, -0.080098000233288, 0
231, 0.77818028717908, 0.049984424998136, 0
232, 0.86650246418431, 0.18858866765125, 0
233, 0.70233515083328, 0.13123899315515, 0
234, 0.81476669360961, -0.24590634757444, 0
235, 0.84086326855484, 0.24434419786613, 0
236, 0.9466722598144, -0.27253556611954, 0
237, 0.7085404028325, -0.19635669451151, 0
238, 0.76434266081245, -0.16527039962382, 0
239, 0.9451492299297, 0.028053492933833, 0
240, 0.78665058072221, 0.15877942893825, 0
241, 0.76084121200127, -0.079089644270636, 0
242, 0.88983862806596, 0.053564135624672, 0
243, 0.78182808198604, 0.10376536899387, 0
244, 0.94685942946536, -0.21746222749086, 0
245, 0.68636526239746, 0.18684695382776, 0
246, 0.68724988829853, 0.24429992331664, 0
247, 0.63662251512842, 0.19216940017895, 0
248, 0.63574953359517, 0.24655432311656, 0
249, 0.42858437608244, 0.099172772520976, 0
250, 0.5836444807463, 0.19550653521834, 0
251, 0.5409164670982, 0.11549573698699, 0
252, 0.61038393992827, 0.14155111065726, 0
253, 0.67347785784101, 0.13299835618966, 0
254, 0.66847119230168, 0.08377875099152, 0
255, 0.81427415132332, 0.27229163965902, 0
256, 0.52645437759025, 0.22274649594138, 0
257, 0.60620554510881, 0.09328271896886, 0
258, 0.62198504208604, 0.039930971094368, 0
259, 0.86828722288001, -0.18951262634945, 0
260, 0.67044734368137, 0.028732551382686, 0
261, 0.71300770576288, 0.2151928268887, 0
262, 0.77641656140182, 0.023388689573994, 0
263, 0.83639332612075, 0.10537926614356, 0
264, 0.91881125569552, -0.051903716722259, 0
265, 0.92024034117271, -0.27248320119258, 0
266, 0.83400899606949, 0.051975549705377, 0
267, 0.91743822094311, 0.027639592990931, 0
268, 0.863703656654, 0.10622034879144, 0
269, 0.89425137775652, -0.1336557376142, 0
270, 0.88993139662984, -0.025266167203158, 0
271, 0.94522120139208, 0.0013795649824106, 0
272, 0.76238937265886, -0.21979458636411, 0
273, 0.73785088257346, 0.24390957783504, 0
274, 0.80331507459435, -0.026045662836389, 0
275, 0.97324495386059, -0.24543173575784, 0
276, 0.91952949131758, 0.18954028978878, 0
277, 0.91989699505845, 0.27243758228076, 0
278, 0.65443098969467, -0.047155348463642, 0
279, 0.76333163830851, 0.24392800400265, 0
280, 0.81381906654736, -0.27318775837673, 0
281, 0.60952135018848, -0.067575420929558, 0
282, 0.6385063905226, -0.1075490094641, 0
283, 0.5752597075863, -0.12269601715844, 0
284, 0.51939260332846, -0.13296516892895, 0
285, 0.51893892520692, -0.18627186087608, 0
286, 0.57248158164193, -0.1837003960705, 0
287, 0.68268417399072, -0.15004311597697, 0
288, 0.62780029191136, -0.13444515487826, 0
289, 0.67947991775625, -0.19755140230637, 0
290, 0.6237158771327, -0.18907959604553, 0
291, 0.70858506999639, 0.15798620408843, 0
292, 0.83780619247538, 0.1325732030755, 0
293, 0.81091856489067, 0.13176450783975, 0
294, 0.89245540746602, 0.1614622193775, 0
295, 0.86356396854795, -0.051486766168247, 0
296, 0.68631293360266, -0.0021075907779903, 0
297, 0.81609378463568, -0.19057297221905, 0
298, 0.71252150862845, 0.24402702346204, 0
299, 0.86474707881201, 0.13335970305433, 0
300, 0.92066880844577, -0.18943444512934, 0
301, 0.94709390638109, -0.13445776832416, 0
302, 0.89446690920072, -0.16147819967174, 0
303, 0.97296938587872, 0.13638986329053, 0
304, 0.83250664320225, -0.00012106639045678, 0
305, 0.68644666614072, -0.12655847886161, 0
306, 0.69742555120044, -0.068776041716797, 0
307, 0.67189620498025, -0.088062595942585, 0
308, 0.52789096710004, 0.19875397576463, 0
309, 0.43131847974633, 0.12221141973757, 0
310, 0.40177021275948, 0.10651947371292, 0
311, 0.55709987174946, -0.095098334020879, 0
312, 0.54863333865671, -0.13621068063887, 0
313, 0.51603390213151, -0.10429275932024, 0
314, 0.26755657559809, -0.05351121020267, 0
315, 0.30349704932018, -0.11264271240831, 0
316, 0.46352412158214, -0.1278481321891, 0
317, 0.55683347348022, 0.19608683265357, 0
318, 0.60918797403226, 0.11783739067909, 0
319, 0.46609523439801, 0.17603195875667, 0
320, 0.3942766248511, -0.16689522885991, 0
321, 0.43644242098466, -0.14645818746524, 0
322, 0.29072636560927, -0.16730356234257, 0
323, 0.61041104245013, 0.20229364818397, 0
324, 0.63127217705095, 0.16330823122964, 0
325, 0.5887520031602, 0.16745237314982, 0
326, 0.61530322318903, -0.10174768871749, 0
327, 0.65426745588839, -0.14204377579525, 0
328, 0.71446772044151, -0.11877746571234, 0
329, 0.43737421279731, -0.11699858192251, 0
330, 0.37940020807801, -0.029920637514027, 0
331, 0.40008527076043, -0.042629259786443, 0
332, 0.67022438820879, 0.10850100038593, 0
333, 0.71447763994803, -0.089791389220694, 0
334, 0.37671605568132, -0.063690790550374, 0
335, 0.39737316955304, -0.0032425015921279, 0
336, 0.27191266371098, -0.026848962331747, 0
337, 0.2636196739475, -0.1669359075386, 0
338, 0.37299662106165, -0.096661376454409, 0
339, 0.282524858128, 0.14363691667892, 0
340, 0.30209583792147, 0.10354188768269, 0
341, 0.26142979203291, 0.10438944997408, 0
342, 0.8679688405899, -0.13363768686484, 0
343, 0.73903055015503, -0.14031055683476, 0
344, 0.97268566098825, 0.055336223713849, 0
345, 0.91975112621861, 0.24477498175177, 0
346, 0.89381015215273, -0.27254217290321, 0
347, 0.97304461601958, 0.24540861714288, 0
348, 0.69721984499047, 0.079590824773174, 0
349, 0.079929986795594, -0.24542915113086, 0
350, 0.10614379665231, -0.27270691517639, 0
351, 0.053300211399471, -0.27273798954765, 0
352, 0.079715006865799, -0.27269382781956, 0
353, 0.026698977401879, 0.027103844840739, 0
354, 0.026602540608143, 0.081254781858303, 0
355, 0.05364733843737, 0.053326469840917, 0
356, 0.02668872887572, 0.054161391194475, 0
357, 0.9178954263525, -0.02526696856604, 0
358, 0.81414217372283, 0.18755601781724, 0
359, 0.76470707515096, -0.13722319404136, 0
360, 0.78808597171901, 0.27227389271699, 0
361, 0.1329534633881, -0.24557471781697, 0
362, 0.15925551427102, -0.27286800739861, 0
363, 0.13264236237767, -0.27275931174573, 0
364, 0.026281530837132, 0.13583890359796, 0
365, 0.052989445660386, 0.10724329659517, 0
366, 0.026419912435503, 0.10847835286937, 0
367, 0.92064261703533, -0.13391017385439, 0
368, 0.81245265798271, -0.078132337101474, 0
369, 0.77978137576731, 0.0768006947627, 0
370, 0.75067744975566, 0.049221574313746, 0
371, 0.91748076894909, 0.0011808325097874, 0
372, 0.68426393638683, 0.27251555410105, 0
373, 0.91833219666992, 0.10774030314411, 0
374, 0.26078803254866, 0.27355336636431, 0
375, 0.31496585504077, 0.27355293356039, 0
376, 0.28611964852439, 0.2477476024544, 0
377, 0.28793885454994, 0.27398156246049, 0
378, 0.9463093838468, 0.24497786819104, 0
379, 0.75454569722471, 0.1033344123125, 0
380, 0.7788381898433, -0.051469493146775, 0
381, 0.20751764443147, 0.27302807877106, 0
382, 0.23288901866033, 0.24602291573428, 0
383, 0.2340201379881, 0.27326343226886, 0
384, 0.026186290363582, 0.19070636951212, 0
385, 0.05248031990568, 0.16190451410089, 0
386, 0.026174897455908, 0.1632766583775, 0
387, 0.026449237554467, 0.24524061019093, 0
388, 0.052105240842504, 0.2720382276211, 0
389, 0.026409764017756, 0.27237121229234, 0
390, 0.78809859168464, -0.24626956260324, 0
391, 0.92034711724521, -0.10630514758761, 0
392, 0.68049517439592, -0.052992484521193, 0
393, 0.57305699527182, -0.27096329701902, 0
394, 0.59750894296295, -0.2427210172263, 0
395, 0.62418786735625, -0.27181422971542, 0
396, 0.59844162645536, -0.27124442577745, 0
397, 0.053551795685441, -0.00028910937418264, 0
398, 0.026488113547537, -0.027193614367032, 0
399, 0.026647764271553, 8.9871753379985e-06, 0
400, 0.83316549897379, 0.025726119630563, 0
401, 0.88947272914286, 0.00090683737548892, 0
402, 0.7891186676521, -0.2189955912305, 0
403, 0.052923624838689, -0.054329765662695, 0
404, 0.026224935962171, -0.082062620344689, 0
405, 0.026313377783127, -0.05456010624829, 0
406, 0.18106253291329, 0.24508832962235, 0
407, 0.15508429368334, 0.27262995510673, 0
408, 0.18121794595707, 0.27283578426168, 0
409, 0.02627354071396, -0.13719716643123, 0
410, 0.052840686524559, -0.16391638763689, 0
411, 0.026565375032455, -0.19190238710845, 0
412, 0.026405583091509, -0.16462768245201, 0
413, 0.88953305280059, 0.027153577523834, 0
414, 0.73240898751091, -0.27340840871046, 0
415, 0.052517533601418, -0.10904230530881, 0
416, 0.026182747300075, -0.10964178271308, 0
417, 0.46467108765576, 0.11530736616116, 0
418, 0.43997329706321, 0.22067757773004, 0
419, 0.57581761453943, 0.10412408174253, 0
420, 0.43566175946478, 0.17027699803626, 0
421, 0.84077315607919, 0.21619548711526, 0
422, 0.69088130748106, -0.10131419767537, 0
423, 0.89127692930975, -0.051665881125205, 0
424, 0.80477545513561, 0.02467955754573, 0
425, 0.18640217904555, -0.24608775503789, 0
426, 0.21300224921048, -0.27319069477014, 0
427, 0.18603150196534, -0.27300320348934, 0
428, 0.94670007737785, -0.079403623548176, 0
429, 0.79023552764898, -0.13539610728862, 0
430, 0.94698364212167, -0.18982868394533, 0
431, 0.32199246253607, -0.27273210415915, 0
432, 0.26752380600633, -0.27333274056197, 0
433, 0.29534689003308, -0.24640452879784, 0
434, 0.29486393989905, -0.27317609186799, 0
435, 0.69922995263025, 0.10546952866968, 0
436, 0.94561828172047, 0.10847546379216, 0
437, 0.86161395066226, -0.02536048932743, 0
438, 0.36773389580568, 0.27293792590822, 0
439, 0.33880440460478, 0.24586229399881, 0
440, 0.34153230286932, 0.27327283950427, 0
441, 0.24057518617862, -0.24670409689236, 0
442, 0.24019056880855, -0.27334424952958, 0
443, 0.97306575284939, 0.2726292069037, 0
444, 0.86702926780444, 0.24451022798258, 0
445, 0.49455138415848, -0.24159699807918, 0
446, 0.52201249347172, -0.27084854475493, 0
447, 0.47154645408973, -0.27021597552499, 0
448, 0.49666009649693, -0.270536115458, 0
449, 0.814845061278, 0.24417120709466, 0
450, 0.86691184033788, 0.21652126952048, 0
451, 0.12968041444249, 0.24448363434837, 0
452, 0.10331922372241, 0.27221980732398, 0
453, 0.12912046692962, 0.27243581631523, 0
454, 0.94521219989392, 0.054760316881901, 0
455, 0.76400502659164, -0.10838831318495, 0
456, 0.84083381697974, -0.1058768181424, 0
457, 0.63170417129565, -0.072833422690163, 0
458, 0.74841760441777, 0.021994072684905, 0
459, 0.70502683355384, -0.27342249662366, 0
460, 0.57800994699698, 0.27310370390045, 0
461, 0.43376436278064, 0.14598797559655, 0
462, 0.46541438852045, 0.13451598722221, 0
463, 0.54635332944846, -0.24292896743918, 0
464, 0.54759932570713, -0.27132955364431, 0
465, 0.65031833907064, -0.24576052155385, 0
466, 0.67757292445271, -0.27332596991729, 0
467, 0.65052535358663, -0.27253099188301, 0
468, 0.026819052559522, -0.2459870604683, 0
469, 0.026805238472184, -0.27291594941486, 0
470, 0.34913488263747, -0.24383766333514, 0
471, 0.3741939033548, -0.27070606915599, 0
472, 0.34860484893082, -0.27207845230788, 0
473, 0.89321767790589, 0.21681523464836, 0
474, 0.86143675029332, 0.02653498165382, 0
475, 0.66181733600656, 0.24503303856503, 0
476, 0.63215024230427, 0.27313533250173, 0
477, 0.65836765163175, 0.27272934312919, 0
478, 0.86830302401593, -0.16156798476055, 0
479, 0.81554318847621, -0.21835205545658, 0
480, 0.50153867832463, 0.15764737471522, 0
481, 0.41960402641182, 0.27267510463788, 0
482, 0.49741584506893, 0.22351587410332, 0
483, 0.078331312490765, 0.24413833263576, 0
484, 0.077678484087281, 0.27205225862309, 0
485, 0.42254970246503, -0.26954023809476, 0
486, 0.4443136410651, -0.23917531955253, 0
487, 0.44682012488759, -0.26981955457717, 0
488, 0.3975232643311, -0.23749819550055, 0
489, 0.39856801479008, -0.26953724659566, 0
490, 0.080464978950399, 0.079360647057867, 0
491, 0.10826092340663, 0.052243557570252, 0
492, 0.080903773536938, 0.026145958146297, 0
493, 0.080839523431213, 0.052705185323934, 0
494, 0.60793475541342, 0.24989724795496, 0
495, 0.60491446065771, 0.27438902458379, 0
496, 0.39002893845432, 0.24511191506265, 0
497, 0.39368778090853, 0.27271777954619, 0
498, 0.079108734292508, 0.13359302033746, 0
499, 0.10627694236063, 0.10558766945433, 0
500, 0.079631719321687, 0.10631768758729, 0
501, 0.86272699852897, 0.07938937577024, 0
502, 0.80603452230114, 0.050993206130202, 0
503, 0.84126398187101, -0.24548057602896, 0
504, 0.1063388763426, -0.21820469973004, 0
505, 0.13248615852155, -0.19111329761765, 0
506, 0.15946508250737, -0.21870320818775, 0
507, 0.13286414828433, -0.21838291390619, 0
508, 0.23897380243986, -0.19328889997377, 0
509, 0.21071580988253, -0.16533058588722, 0
510, 0.2344689460161, -0.13823797943279, 0
511, 0.23703943475005, -0.16616021583856, 0
512, 0.053320232109812, -0.21841420802707, 0
513, 0.026715861688684, -0.21900737856982, 0
514, 0.10804807894609, -0.00048289510747831, 0
515, 0.080245096051939, -0.027180001805476, 0
516, 0.080693839233786, -0.00044874666562485, 0
517, 0.052454495150648, 0.21682376727355, 0
518, 0.026246301721433, 0.21804581022729, 0
519, 0.15549632983263, 0.21661820181647, 0
520, 0.20646613544256, 0.21749838840872, 0
521, 0.18120097793201, 0.1886072317896, 0
522, 0.18098401598482, 0.21696842177495, 0
523, 0.97310562431709, 0.19088284990226, 0
524, 0.97333856745321, -0.21807458367492, 0
525, 0.94538013676707, 0.081553846004136, 0
526, 0.86116571460985, 0.00049671888852455, 0
527, 0.73701290861035, 0.18629851317146, 0
528, 0.68795531000753, 0.21563184362594, 0
529, 0.97320169288748, -0.27270246108216, 0
530, 0.18549064018971, -0.19201471150658, 0
531, 0.21307490609165, -0.21962481484358, 0
532, 0.18618711265946, -0.21913012359133, 0
533, 0.5976990209427, -0.18567138201437, 0
534, 0.62333715777427, -0.21652611753132, 0
535, 0.57179492455643, -0.21299080561664, 0
536, 0.59725310094759, -0.21425514131923, 0
537, 0.89444252201377, -0.18934741125681, 0
538, 0.8927937523451, -0.078592652860692, 0
539, 0.89400275523615, -0.24492249102171, 0
540, 0.62819265304929, -0.041404565259922, 0
541, 0.078986470364778, -0.13615920633141, 0
542, 0.079208755806103, -0.081290587595107, 0
543, 0.10520802713734, -0.10848139844437, 0
544, 0.078890887871651, -0.10868230750382, 0
545, 0.25682937338959, 0.16409559347677, 0
546, 0.28372372084613, 0.1952868660887, 0
547, 0.30886118019694, 0.16352439004774, 0
548, 0.28303107935609, 0.16938800677307, 0
549, 0.89332769305491, 0.24463901270857, 0
550, 0.78905405974541, 0.21553301853615, 0
551, 0.73388583181703, -0.24702332719802, 0
552, 0.72381790093984, 0.049325884654795, 0
553, 0.73002233571364, 0.13035657716403, 0
554, 0.97270985886786, 0.001573291077766, 0
555, 0.26749907335013, -0.22020734710676, 0
556, 0.24016951929993, -0.22005697941586, 0
557, 0.29362678595646, -0.19349360808271, 0
558, 0.32248225457881, -0.21840855985664, 0
559, 0.2950165126378, -0.21981319470734, 0
560, 0.25802573092688, 0.21959958502991, 0
561, 0.23166994956871, 0.19022102438104, 0
562, 0.23207076799002, 0.21834275072641, 0
563, 0.25982587591346, -0.13924748783078, 0
564, 0.28538138317275, -0.14031413216826, 0
565, 0.81287866072424, 0.15945958923847, 0
566, 0.97355837613429, -0.13542189468474, 0
567, 0.94613035865645, 0.1627650198676, 0
568, 0.84224714128819, -0.16192251533016, 0
569, 0.89102112647663, 0.10700342055445, 0
570, 0.94700190622954, -0.10685237409966, 0
571, 0.31115055336695, 0.21936942122672, 0
572, 0.28472636676712, 0.22145109035711, 0
573, 0.75967456018015, -0.27339728823141, 0
574, 0.86803471037433, -0.21738259384704, 0
575, 0.68248571534317, 0.15858273060785, 0
576, 0.78910651620803, -0.10682908954473, 0
577, 0.13508842881634, 0.078124350204206, 0
578, 0.16393614400747, 0.051661645072239, 0
579, 0.13606611827064, 0.025795066232082, 0
580, 0.13593971713638, 0.051900516780339, 0
581, 0.46861028003364, 0.097030016070041, 0
582, 0.46614898399336, 0.15467795509218, 0
583, 0.53488160306135, 0.096870497415816, 0
584, 0.50206945326204, 0.10196309689373, 0
585, 0.71017125180053, -0.17102848187372, 0
586, 0.91924319799745, 0.16208459346499, 0
587, 0.71163154366055, 0.18635329727111, 0
588, 0.97347578637079, -0.16305578137459, 0
589, 0.49154024963531, -0.1332620813802, 0
590, 0.46483600342797, -0.10093262574082, 0
591, 0.49075036755764, -0.10676951107268, 0
592, 0.13465616104356, -0.026831281639785, 0
593, 0.16335399049274, -0.00020500642275307, 0
594, 0.13560246782477, -0.00039885222610946, 0
595, 0.5818841116372, 0.22165946158393, 0
596, 0.55462102129633, 0.2214674941336, 0
597, 0.50275378427572, 0.1388062280327, 0
598, 0.57507724423634, 0.14658113634534, 0
599, 0.1833833739965, 0.13170759427536, 0
600, 0.15648396453021, 0.16011046948348, 0
601, 0.2070807521515, 0.16047464274035, 0
602, 0.18193367800374, 0.16012520568233, 0
603, 0.97285248357809, 0.1092753166184, 0
604, 0.7634662204299, -0.19272261290912, 0
605, 0.84181406893187, -0.21779438919412, 0
606, 0.18948218077129, -0.026189689298694, 0
607, 0.1922813886296, 0.02595497139628, 0
608, 0.21935565240889, 0.00035605621836581, 0
609, 0.19129044612127, 7.3490154295051e-05, 0
610, 0.13024010931785, 0.18828285861592, 0
611, 0.10427311510364, 0.21626677403853, 0
612, 0.12993931348266, 0.21638882896233, 0
613, 0.75714719948905, 0.13046418942981, 0
614, 0.86718506782737, -0.10584559468116, 0
615, 0.65821813417328, 0.0031220275723465, 0
616, 0.83506482704759, 0.0785261268357, 0
617, 0.54625217202191, -0.18784561284998, 0
618, 0.51932693920884, -0.21387108515001, 0
619, 0.54587493197077, -0.21504024644284, 0
620, 0.73784133474677, -0.16767170619953, 0
621, 0.97309974607148, 0.21816199753401, 0
622, 0.75228063590837, 0.076355662245394, 0
623, 0.73816804032642, 0.21510536624718, 0
624, 0.91976783958627, -0.078926975620988, 0
625, 0.67471975762793, -0.025286133521193, 0
626, 0.84066216840714, -0.2729208070591, 0
627, 0.10656363889922, -0.053884059647307, 0
628, 0.07969932727318, -0.054115585832912, 0
629, 0.41345826489888, 0.061961742020412, 0
630, 0.43802287947095, 0.082366963204722, 0
631, 0.97307770397285, 0.16360707682324, 0
632, 0.83563746787222, -0.051360322679169, 0
633, 0.94556669376623, -0.025332543069644, 0
634, 0.81481420721163, 0.21585450951725, 0
635, 0.81629251394113, -0.16257491765273, 0
636, 0.89371661003138, -0.10598775937248, 0
637, 0.41809733699348, -0.067839017663726, 0
638, 0.43999536766028, -0.08796652572174, 0
639, 0.23344204043851, 0.13234048985037, 0
640, 0.23194143926278, 0.16158362203874, 0
641, 0.36194141817093, 0.2171797313309, 0
642, 0.33504597121501, 0.18956172513363, 0
643, 0.33672788356919, 0.21796241211695, 0
644, 0.89174666900557, 0.1340975554245, 0
645, 0.74063248890437, -0.028536919832719, 0
646, 0.78824230887205, 0.18704279878127, 0
647, 0.73457222342926, 0.15783722500443, 0
648, 0.86695254731056, 0.27240441813418, 0
649, 0.77275756206646, -0.026901970808105, 0
650, 0.70724942613871, -0.22176200046417, 0
651, 0.97295125841643, -0.025408296042501, 0
652, 0.15824649053495, -0.16406525527844, 0
653, 0.18339424310162, -0.13678175904262, 0
654, 0.18448143214248, -0.16461137691269, 0
655, 0.78681417589817, -0.27330050856833, 0
656, 0.94643346040573, 0.27247573160657, 0
657, 0.74399022195027, -0.0043169262957746, 0
658, 0.78405711030315, 0.13101323025352, 0
659, 0.94588385070985, 0.13554652504418, 0
660, 0.77389381112374, -0.0024078547819826, 0
661, 0.58904809964189, -0.056942166035231, 0
662, 0.74986997530811, -0.052216741844052, 0
663, 0.57331208008637, -0.079154570553979, 0
664, 0.92072544547784, -0.16165100929884, 0
665, 0.94626132489064, 0.19010370469797, 0
666, 0.49754019672786, 0.20019214460189, 0
667, 0.46828354230393, 0.22277204503725, 0
668, 0.46989969829223, 0.24752260495113, 0
669, 0.38220561339721, 0.042443582251436, 0
670, 0.40128867884393, 0.032362080954945, 0
671, 0.70615407353794, -0.24740940223287, 0
672, 0.71213454826501, -0.14546686366568, 0
673, 0.16035450632203, -0.053296813528434, 0
674, 0.1322618318702, -0.080805833980064, 0
675, 0.13346225548633, -0.053612448410636, 0
676, 0.94616381297041, -0.05221833853486, 0
677, 0.97341378837452, -0.19061432035359, 0
678, 0.7899137555798, -0.19146987022115, 0
679, 0.58527572133517, 0.070659369986962, 0
680, 0.56340802520409, 0.084916309433936, 0
681, 0.4668331781452, -0.21121556442035, 0
682, 0.49167166311416, -0.18560828444921, 0
683, 0.49290775368061, -0.21319672915175, 0
684, 0.61251623293476, -0.0099038505845543, 0
685, 0.60302921964552, -0.032586565953277, 0
686, 0.66131425864189, 0.18834852941769, 0
687, 0.63734028617242, 0.21973156110512, 0
688, 0.66288016675261, 0.21690266655915, 0
689, 0.53831856575269, 0.15399282193801, 0
690, 0.41301773355973, 0.21823555966439, 0
691, 0.54090342833308, 0.13447327315299, 0
692, 0.34898846593063, -0.18786547628952, 0
693, 0.37404026950488, -0.20900218107853, 0
694, 0.34933473478531, -0.21560017726911, 0
695, 0.2751558423227, -0.00025305484809535, 0
696, 0.30433614607558, 0.023000675122479, 0
697, 0.32981130399987, -0.0093848988615413, 0
698, 0.30258917132039, -0.0039444295158685, 0
699, 0.81592742026138, -0.13439122734096, 0
700, 0.67863257943543, -0.22220889308208, 0
701, 0.91759256450962, 0.054189118728731, 0
702, 0.35767480405908, 0.15949587669292, 0
703, 0.3307601998434, 0.13081453544897, 0
704, 0.33331874051276, 0.16054327631984, 0
705, 0.41827849793415, -0.20517517296855, 0
706, 0.39622625145284, -0.20361906002284, 0
707, 0.46299791316095, -0.15460702738397, 0
708, 0.80343005205211, -0.0010447433256577, 0
709, 0.76116884892203, -0.24665589811271, 0
710, 0.72110512513931, -0.054566130077851, 0
711, 0.83903849261735, -0.078192562832144, 0
712, 0.68077992908213, -0.17351009953652, 0
713, 0.80910071292025, 0.10452206240352, 0
714, 0.73517126124591, -0.22072097150438, 0
715, 0.89340519498811, 0.27241973212565, 0
716, 0.43899900826971, -0.17720005968267, 0
717, 0.44180710056582, -0.20823158472207, 0
718, 0.65086958697787, -0.19341055476159, 0
719, 0.65040174716992, -0.21942645037003, 0
720, 0.60972181174145, 0.22600300837087, 0
721, 0.60344232957975, 0.018481717030829, 0
722, 0.61599205143603, 0.067317923138413, 0
723, 0.59618266379937, 0.046508499830422, 0
724, 0.6973957003319, 0.052533814791447, 0
725, 0.86196671434642, 0.052836250230545, 0
726, 0.38481795210068, 0.18899117097878, 0
727, 0.38722515212511, 0.21722158661055, 0
728, 0.079581605203312, -0.19092790792914, 0
729, 0.079842360159306, -0.21819317041501, 0
730, 0.39555010557755, -0.083739098154572, 0
731, 0.35570578918978, 0.013684793220103, 0
732, 0.35599112268573, -0.017024192055855, 0
733, 0.83926007528386, 0.16015976753897, 0
734, 0.91879833772371, 0.13480851083406, 0
735, 0.8402331138459, 0.18808361036548, 0
736, 0.97275491242446, 0.082262985315466, 0
737, 0.8328155303277, -0.025592341178305, 0
738, 0.73601896008878, 0.27234071238953, 0
739, 0.91790457621064, 0.080875427300208, 0
740, 0.62497381250198, -0.16167130108038, 0
741, 0.65200110329649, -0.16764975261375, 0
742, 0.078543664670917, 0.18865473442034, 0
743, 0.078458096005634, 0.21634608610427, 0
744, 0.76200264225655, 0.27228153291465, 0
745, 0.71011074489185, 0.2724478783878, 0
746, 0.80742645983572, -0.051313295202306, 0
747, 0.72489685763326, 0.076818795119651, 0
748, 0.10564059546596, -0.16353627158438, 0
749, 0.07926008256415, -0.16358774419777, 0
750, 0.43780211025164, 0.19525699607862, 0
751, 0.57700883748594, 0.12547814722115, 0
752, 0.49826055142858, 0.17802235831229, 0
753, 0.86766191721856, -0.2451175234307, 0
754, 0.91968447542462, 0.21712196813629, 0
755, 0.287415324038, -0.082586467641989, 0
756, 0.51919331066623, -0.15941756811375, 0
757, 0.49102709200323, -0.15906810553772, 0
758, 0.10484667141218, 0.16055673733324, 0
759, 0.078732931381968, 0.16105828794165, 0
760, 0.13149770403823, -0.13611570707002, 0
761, 0.13197034468947, -0.16370311636494, 0
762, 0.86730497771938, -0.27266629618117, 0
763, 0.9467204513427, -0.24502617590532, 0
764, 0.84056587564201, 0.27234738987265, 0
765, 0.7271353742513, 0.10360835625815, 0
766, 0.24920911102649, 0.026600206841101, 0
767, 0.2444892452176, -0.025959190550003, 0
768, 0.24739979633441, 0.00042745443947871, 0
769, 0.81476423725234, -0.10614175403196, 0
770, 0.79037819079894, -0.16362314618862, 0
771, 0.89293828404645, 0.18906065285413, 0
772, 0.18479391393081, -0.08039391896374, 0
773, 0.21401526694805, -0.052719205371895, 0
774, 0.18721077905072, -0.052967512007605, 0
775, 0.13165162511589, 0.13244256772209, 0
776, 0.13077498609981, 0.16026400296298, 0
777, 0.20803090586053, -0.10876238601658, 0
778, 0.15730720755389, -0.10840034916342, 0
779, 0.18289323231997, -0.10851168322119, 0
780, 0.89425647164395, -0.21717963713897, 0
781, 0.40796207738702, 0.16330580943251, 0
782, 0.5257123708591, 0.24747132987295, 0
783, 0.37973101076757, 0.13126645048043, 0
784, 0.38241230680427, 0.16033200355963, 0
785, 0.1313782637706, -0.1083929778872, 0
786, 0.5740600115985, -0.15368705798549, 0
787, 0.54746215956915, -0.16151448119312, 0
788, 0.21170915873851, 0.10306969277956, 0
789, 0.19101103069731, 0.077072795731268, 0
790, 0.15935479480517, 0.10432368173421, 0
791, 0.185670333696, 0.10367494588552, 0
792, 0.13286867557887, 0.10494974147185, 0
793, 0.64290326352919, 0.13610573666836, 0
794, 0.65642618669973, 0.16000278679551, 0
795, 0.80739747548904, 0.077619456371126, 0
796, 0.69560723041865, 0.024275250849256, 0
797, 0.22118628046279, 0.051720667926106, 0
798, 0.19233229440622, 0.051561856236088, 0
799, 0.63809159547714, 0.088949175515956, 0
800, 0.63990362556297, 0.1127059689691, 0
801, 0.94706346564591, -0.1621421983062, 0
802, 0.84218473199334, -0.18992567205775, 0
803, 0.86585640045811, -0.078353818648719, 0
804, 0.33937770844855, -0.13820144688213, 0
805, 0.39168283372503, -0.12549228599556, 0
806, 0.36916860166674, 0.073261422541642, 0
807, 0.35078991524693, 0.10041711788583, 0
808, 0.37609877503766, 0.10193703870802, 0
809, 0.27920975901869, 0.053499507103169, 0
810, 0.25007191900122, 0.077106226075177, 0
811, 0.25037426867279, 0.052368247086594, 0
812, 0.67078682120302, 0.057221379684962, 0
813, 0.97328054393104, -0.052627181286552, 0
814, 0.78899631163588, 0.24402886116962, 0
815, 0.23640829625206, -0.080373702206773, 0
816, 0.23262586079409, -0.10920688303114, 0
817, 0.60154792039397, -0.12861927765465, 0
818, 0.59901116180444, -0.15691063573947, 0
819, 0.97359600051499, -0.10773713051949, 0
820, 0.92051668489053, -0.21718808211876, 0
821, 0.31204093948253, 0.075054587177846, 0
822, 0.33439686445551, 0.046557242476644, 0
823, 0.30717668493483, 0.049777527523989, 0
824, 0.4145064407897, -0.1017885677187, 0
825, 0.3536843362879, -0.045221317193089, 0
826, 0.78627924318359, -0.078301222364487, 0
827, 0.73647764187616, -0.19434990280894, 0
828, 0.84184540095693, -0.13386168684986, 0
829, 0.35978307669645, 0.044287532170687, 0
830, 0.6612334765214, -0.11637414470348, 0
831, 0.23722226936903, 0.10290696269774, 0
832, 0.76350569203587, 0.21526201612507, 0
833, 0.64338429432349, -0.018888495991763, 0
834, 0.94631175625154, 0.21751902688386, 0
835, 0.89034770150195, 0.080168125402965, 0
836, 0.72134456794983, 0.021042485163112, 0
837, 0.3500454887731, -0.0713069708912, 0
838, 0.3258661455909, 0.1008743881913, 0
839, 0.56110773691383, 0.17074341381425, 0
840, 0.37174342035808, -0.14377390578942, 0
841, 0.34081078267635, -0.093020748801574, 0
842, 0.64609539868064, 0.034216507310614, 0
843, 0.64371704781853, 0.062869855949463, 0
844, 0.97266843908238, 0.02845704288672, 0
845, 0.63059663576665, 0.0099872415140165, 0
846, 0.24077754820367, -0.052758605016988, 0
847, 0.71427462940515, -0.0064086301267821, 0
848, 0.73948949343395, -0.11162984331884, 0
849, 0.50287978843041, 0.12067467538269, 0
850, 0.54097123735801, -0.11142578649262, 0
851, 0.32679500057383, -0.035962508213266, 0
852, 0.46706700082879, 0.19890511284536, 0
853, 0.31162250558611, -0.14068973723175, 0
854, 0.6101857134145, 0.17719822270525, 0
855, 0.65338469054719, -0.078076019121313, 0
856, 0.86578941508617, 0.16083163043835, 0
857, 0.35904343530396, -0.11801783549209, 0
858, 0.28200986197222, 0.11662546955484, 0
859, 0.55312845174683, 0.24692081896292, 0
860, 0.44574588221878, 0.27293095137629, 0
861, 0.47222644713466, 0.27317912225879, 0
862, 0.49886196068386, 0.27321199742905, 0
863, 0.52541266533842, 0.27308510930319, 0
864, 0.55173712157866, 0.27290673363157, 0
865, 0.73668946889901, -0.081326562176661, 0
866, 0.70649357214657, -0.031524960146901, 0
867, 0.32208087923109, -0.061304622514318, 0
868, 0.34727876659561, -0.16152810910281, 0
******* E L E M E N T S *************
*ELEMENT, type=T3D2, ELSET=Line1
1, 1, 10
2, 10, 18
3, 18, 11
4, 11, 19
5, 19, 12
6, 12, 20
7, 20, 13
8, 13, 21
9, 21, 14
10, 14, 22
11, 22, 15
12, 15, 23
13, 23, 16
14, 16, 24
15, 24, 17
16, 17, 2
*ELEMENT, type=T3D2, ELSET=Line2
17, 2, 25
18, 25, 28
19, 28, 26
20, 26, 29
21, 29, 27
22, 27, 3
*ELEMENT, type=T3D2, ELSET=Line3
23, 3, 30
24, 30, 38
25, 38, 31
26, 31, 39
27, 39, 32
28, 32, 40
29, 40, 33
30, 33, 41
31, 41, 34
32, 34, 42
33, 42, 35
34, 35, 43
35, 43, 36
36, 36, 44
37, 44, 37
38, 37, 4
*ELEMENT, type=T3D2, ELSET=Line4
39, 4, 45
40, 45, 56
41, 56, 46
42, 46, 57
43, 57, 47
44, 47, 58
45, 58, 48
46, 48, 59
47, 59, 49
48, 49, 60
49, 60, 50
50, 50, 61
51, 61, 51
52, 51, 62
53, 62, 52
54, 52, 63
55, 63, 53
56, 53, 64
57, 64, 54
58, 54, 65
59, 65, 55
60, 55, 5
*ELEMENT, type=T3D2, ELSET=Line5
61, 5, 66
62, 66, 74
63, 74, 67
64, 67, 75
65, 75, 68
66, 68, 76
67, 76, 69
68, 69, 77
69, 77, 70
70, 70, 78
71, 78, 71
72, 71, 79
73, 79, 72
74, 72, 80
75, 80, 73
76, 73, 6
*ELEMENT, type=T3D2, ELSET=Line6
77, 6, 81
78, 81, 84
79, 84, 82
80, 82, 85
81, 85, 83
82, 83, 7
*ELEMENT, type=T3D2, ELSET=Line7
83, 7, 86
84, 86, 94
85, 94, 87
86, 87, 95
87, 95, 88
88, 88, 96
89, 96, 89
90, 89, 97
91, 97, 90
92, 90, 98
93, 98, 91
94, 91, 99
95, 99, 92
96, 92, 100
97, 100, 93
98, 93, 8
*ELEMENT, type=T3D2, ELSET=Line8
99, 8, 101
100, 101, 112
101, 112, 102
102, 102, 113
103, 113, 103
104, 103, 114
105, 114, 104
106, 104, 115
107, 115, 105
108, 105, 116
109, 116, 106
110, 106, 117
111, 117, 107
112, 107, 118
113, 118, 108
114, 108, 119
115, 119, 109
116, 109, 120
117, 120, 110
118, 110, 121
119, 121, 111
120, 111, 1
*ELEMENT, type=T3D2, ELSET=Line9
121, 9, 122
122, 122, 132
123, 132, 123
124, 123, 133
125, 133, 124
126, 124, 134
127, 134, 125
128, 125, 135
129, 135, 126
130, 126, 136
131, 136, 127
132, 127, 137
133, 137, 128
134, 128, 138
135, 138, 129
136, 129, 139
137, 139, 130
138, 130, 140
139, 140, 131
140, 131, 9
*ELEMENT, type=CPS4, ELSET=Surface1
141, 473, 549, 444, 450
142, 158, 820, 780, 539
143, 51, 62, 736, 344
144, 430, 801, 664, 300
145, 833, 684, 685, 540
146, 347, 443, 656, 378
147, 503, 605, 479, 234
148, 144, 351, 352, 349
149, 349, 352, 350, 145
150, 352, 11, 19, 350
151, 351, 18, 11, 352
152, 198, 355, 356, 353
153, 353, 356, 105, 116
154, 356, 354, 115, 105
155, 355, 196, 354, 356
156, 54, 65, 347, 621
157, 261, 298, 246, 528
158, 744, 70, 78, 738
159, 566, 819, 570, 301
160, 145, 350, 363, 361
161, 361, 363, 362, 146
162, 363, 12, 20, 362
163, 350, 19, 12, 363
164, 196, 365, 366, 354
165, 354, 366, 104, 115
166, 366, 364, 114, 104
167, 365, 165, 364, 366
168, 763, 244, 820, 158
169, 49, 60, 651, 813
170, 813, 651, 633, 676
171, 770, 429, 359, 238
172, 550, 814, 279, 832
173, 856, 232, 735, 733
174, 549, 715, 648, 444
175, 428, 676, 264, 624
176, 174, 376, 377, 374
177, 374, 377, 88, 96
178, 377, 375, 95, 88
179, 376, 175, 375, 377
180, 734, 586, 294, 644
181, 436, 659, 734, 373
182, 814, 360, 744, 279
183, 502, 795, 369, 231
184, 173, 382, 383, 381
185, 381, 383, 89, 97
186, 383, 374, 96, 89
187, 382, 174, 374, 383
188, 165, 385, 386, 364
189, 364, 386, 103, 114
190, 386, 384, 113, 103
191, 385, 168, 384, 386
192, 169, 388, 389, 387
193, 387, 389, 101, 112
194, 389, 93, 8, 101
195, 388, 100, 93, 389
196, 567, 665, 276, 586
197, 819, 230, 428, 570
198, 231, 369, 622, 370
199, 38, 395, 396, 30
200, 30, 396, 393, 3
201, 396, 394, 142, 393
202, 395, 155, 394, 396
203, 117, 398, 399, 106
204, 106, 399, 353, 116
205, 399, 397, 198, 353
206, 398, 210, 397, 399
207, 659, 567, 586, 734
208, 35, 762, 626, 42
209, 278, 540, 281, 457
210, 118, 404, 405, 107
211, 107, 405, 398, 117
212, 405, 403, 210, 398
213, 404, 213, 403, 405
214, 97, 90, 408, 381
215, 381, 408, 406, 173
216, 408, 407, 171, 406
217, 90, 98, 407, 408
218, 119, 109, 412, 409
219, 409, 412, 410, 209
220, 412, 411, 200, 410
221, 109, 120, 411, 412
222, 443, 66, 74, 656
223, 586, 276, 771, 294
224, 379, 613, 553, 765
225, 56, 46, 524, 275
226, 209, 415, 416, 409
227, 409, 416, 108, 119
228, 416, 404, 118, 108
229, 415, 213, 404, 416
230, 862, 861, 668, 177
231, 252, 598, 751, 318
232, 689, 480, 597, 691
233, 595, 596, 317, 250
234, 240, 646, 157, 159
235, 401, 413, 474, 526
236, 746, 274, 649, 380
237, 802, 568, 635, 297
238, 146, 362, 427, 425
239, 425, 427, 426, 147
240, 427, 13, 21, 426
241, 362, 20, 13, 427
242, 570, 428, 624, 391
243, 585, 672, 287, 712
244, 738, 78, 71, 745
245, 151, 433, 434, 431
246, 431, 434, 15, 23
247, 434, 432, 22, 15
248, 433, 148, 432, 434
249, 633, 271, 371, 357
250, 235, 764, 255, 449
251, 328, 305, 287, 672
252, 424, 502, 231, 262
253, 95, 375, 440, 87
254, 87, 440, 438, 94
255, 440, 439, 176, 438
256, 375, 175, 439, 440
257, 22, 432, 442, 14
258, 14, 442, 426, 21
259, 442, 441, 147, 426
260, 432, 148, 441, 442
261, 478, 342, 828, 568
262, 524, 677, 430, 244
263, 677, 588, 801, 430
264, 37, 529, 236, 44
265, 149, 447, 448, 445
266, 445, 448, 446, 154
267, 448, 26, 29, 446
268, 447, 28, 26, 448
269, 449, 255, 360, 814
270, 4, 45, 529, 37
271, 626, 503, 234, 280
272, 588, 566, 301, 801
273, 98, 91, 453, 407
274, 407, 453, 451, 171
275, 453, 452, 170, 451
276, 91, 99, 452, 453
277, 373, 734, 644, 569
278, 848, 328, 672, 343
279, 737, 304, 708, 274
280, 614, 803, 711, 456
281, 762, 753, 503, 626
282, 368, 746, 380, 826
283, 865, 333, 328, 848
284, 294, 771, 232, 856
285, 644, 294, 856, 299
286, 603, 303, 659, 436
287, 40, 414, 459, 32
288, 666, 852, 319, 752
289, 864, 863, 782, 859
290, 308, 666, 752, 186
291, 177, 668, 667, 482
292, 154, 446, 464, 463
293, 463, 464, 393, 142
294, 464, 27, 3, 393
295, 446, 29, 27, 464
296, 155, 395, 467, 465
297, 465, 467, 466, 156
298, 467, 31, 39, 466
299, 395, 38, 31, 467
300, 121, 111, 469, 468
301, 468, 469, 351, 144
302, 469, 10, 18, 351
303, 111, 1, 10, 469
304, 23, 16, 472, 431
305, 431, 472, 470, 151
306, 472, 471, 150, 470
307, 16, 24, 471, 472
308, 708, 424, 262, 660
309, 574, 259, 802, 605
310, 157, 832, 623, 527
311, 400, 266, 502, 424
312, 79, 72, 477, 372
313, 372, 477, 475, 246
314, 477, 476, 248, 475
315, 72, 80, 476, 477
316, 293, 565, 240, 658
317, 333, 422, 305, 328
318, 236, 763, 158, 265
319, 699, 769, 576, 429
320, 419, 251, 583, 680
321, 480, 582, 462, 597
322, 251, 849, 584, 583
323, 179, 143, 690, 418
324, 99, 92, 484, 452
325, 452, 484, 483, 170
326, 484, 388, 169, 483
327, 92, 100, 388, 484
328, 2, 25, 487, 485
329, 485, 487, 486, 141
330, 487, 447, 149, 486
331, 25, 28, 447, 487
332, 24, 17, 489, 471
333, 471, 489, 488, 150
334, 489, 485, 141, 488
335, 17, 2, 485, 489
336, 198, 492, 493, 355
337, 355, 493, 490, 196
338, 493, 491, 197, 490
339, 492, 199, 491, 493
340, 80, 73, 495, 476
341, 476, 495, 494, 248
342, 495, 460, 152, 494
343, 73, 6, 460, 495
344, 143, 481, 497, 496
345, 496, 497, 438, 176
346, 497, 86, 94, 438
347, 481, 7, 86, 497
348, 196, 490, 500, 365
349, 365, 500, 498, 165
350, 500, 499, 163, 498
351, 490, 197, 499, 500
352, 52, 63, 303, 603
353, 277, 67, 75, 715
354, 710, 306, 333, 865
355, 295, 437, 737, 632
356, 527, 623, 261, 587
357, 55, 5, 66, 443
358, 565, 358, 646, 240
359, 713, 293, 658, 243
360, 146, 506, 507, 361
361, 361, 507, 504, 145
362, 507, 505, 206, 504
363, 506, 205, 505, 507
364, 202, 337, 511, 508
365, 508, 511, 509, 201
366, 511, 510, 204, 509
367, 840, 857, 804, 868
368, 120, 110, 513, 411
369, 411, 513, 512, 200
370, 513, 468, 144, 512
371, 110, 121, 468, 513
372, 210, 515, 516, 397
373, 397, 516, 492, 198
374, 516, 514, 199, 492
375, 515, 211, 514, 516
376, 169, 387, 518, 517
377, 517, 518, 384, 168
378, 518, 102, 113, 384
379, 387, 112, 102, 518
380, 166, 521, 522, 519
381, 519, 522, 406, 171
382, 522, 520, 173, 406
383, 521, 172, 520, 522
384, 342, 614, 456, 828
385, 344, 736, 525, 454
386, 832, 279, 273, 623
387, 32, 459, 466, 39
388, 622, 379, 765, 747
389, 855, 282, 830, 307
390, 657, 458, 836, 847
391, 147, 531, 532, 425
392, 425, 532, 506, 146
393, 532, 530, 205, 506
394, 531, 201, 530, 532
395, 286, 535, 536, 533
396, 533, 536, 534, 290
397, 536, 394, 155, 534
398, 535, 142, 394, 536
399, 459, 671, 156, 466
400, 456, 711, 368, 769
401, 835, 569, 268, 501
402, 43, 346, 762, 35
403, 207, 543, 544, 541
404, 541, 544, 415, 209
405, 544, 542, 213, 415
406, 543, 212, 542, 544
407, 161, 339, 548, 545
408, 545, 548, 546, 160
409, 548, 547, 180, 546
410, 339, 183, 547, 548
411, 715, 75, 68, 648
412, 724, 348, 254, 812
413, 267, 701, 242, 413
414, 613, 159, 647, 553
415, 501, 268, 263, 616
416, 739, 373, 569, 835
417, 623, 273, 298, 261
418, 605, 802, 297, 479
419, 148, 555, 556, 441
420, 441, 556, 531, 147
421, 556, 508, 201, 531
422, 555, 202, 508, 556
423, 148, 433, 559, 555
424, 555, 559, 557, 202
425, 559, 558, 223, 557
426, 433, 151, 558, 559
427, 172, 561, 562, 520
428, 520, 562, 382, 173
429, 562, 560, 174, 382
430, 561, 160, 560, 562
431, 707, 757, 589, 316
432, 805, 189, 824, 730
433, 857, 841, 216, 804
434, 222, 815, 816, 226
435, 299, 856, 733, 292
436, 64, 54, 621, 523
437, 262, 231, 370, 458
438, 345, 277, 715, 549
439, 255, 69, 77, 360
440, 390, 402, 272, 709
441, 279, 744, 738, 273
442, 423, 270, 437, 295
443, 160, 546, 572, 560
444, 560, 572, 376, 174
445, 572, 571, 175, 376
446, 546, 180, 571, 572
447, 34, 280, 655, 41
448, 568, 828, 699, 635
449, 300, 664, 302, 537
450, 296, 796, 260, 615
451, 199, 579, 580, 491
452, 491, 580, 577, 197
453, 580, 578, 192, 577
454, 579, 195, 578, 580
455, 134, 124, 584, 581
456, 417, 249, 630, 581
457, 152, 859, 596, 595
458, 124, 133, 583, 584
459, 769, 368, 826, 576
460, 714, 827, 237, 650
461, 58, 48, 819, 566
462, 139, 129, 591, 313
463, 313, 591, 589, 284
464, 338, 334, 825, 837
465, 129, 138, 590, 591
466, 215, 593, 594, 592
467, 592, 594, 514, 211
468, 594, 579, 199, 514
469, 593, 195, 579, 594
470, 668, 179, 418, 667
471, 782, 177, 482, 256
472, 863, 862, 177, 782
473, 461, 187, 310, 309
474, 162, 601, 602, 599
475, 599, 602, 600, 164
476, 602, 521, 166, 600
477, 601, 172, 521, 602
478, 233, 291, 575, 253
479, 709, 272, 714, 551
480, 780, 537, 259, 574
481, 551, 714, 650, 671
482, 214, 608, 609, 606
483, 606, 609, 593, 215
484, 609, 607, 195, 593
485, 608, 193, 607, 609
486, 171, 451, 612, 519
487, 519, 612, 610, 166
488, 612, 611, 167, 610
489, 451, 170, 611, 612
490, 65, 55, 443, 347
491, 569, 644, 299, 268
492, 265, 158, 539, 346
493, 263, 292, 293, 713
494, 285, 618, 619, 617
495, 617, 619, 535, 286
496, 619, 463, 142, 535
497, 618, 154, 463, 619
498, 273, 738, 745, 298
499, 391, 624, 538, 636
500, 414, 551, 671, 459
501, 53, 64, 523, 631
502, 753, 574, 605, 503
503, 301, 570, 391, 367
504, 47, 58, 566, 588
505, 711, 632, 746, 368
506, 213, 542, 628, 403
507, 403, 628, 515, 210
508, 628, 627, 211, 515
509, 542, 212, 627, 628
510, 134, 581, 630, 125
511, 125, 630, 629, 135
512, 186, 752, 480, 689
513, 861, 860, 179, 668
514, 243, 658, 613, 379
515, 647, 527, 587, 291
516, 371, 267, 413, 401
517, 307, 830, 305, 422
518, 234, 479, 402, 390
519, 803, 295, 632, 711
520, 242, 835, 501, 725
521, 563, 226, 816, 510
522, 637, 638, 128, 137
523, 638, 590, 138, 128
524, 162, 639, 640, 601
525, 601, 640, 561, 172
526, 640, 545, 160, 561
527, 639, 161, 545, 640
528, 175, 571, 643, 439
529, 439, 643, 641, 176
530, 643, 642, 181, 641
531, 571, 180, 642, 643
532, 656, 74, 67, 277
533, 736, 603, 436, 525
534, 275, 524, 244, 763
535, 437, 526, 304, 737
536, 60, 50, 554, 651
537, 33, 573, 414, 40
538, 458, 370, 552, 836
539, 658, 240, 159, 613
540, 820, 300, 537, 780
541, 552, 747, 348, 724
542, 833, 615, 845, 684
543, 205, 530, 654, 652
544, 652, 654, 653, 208
545, 654, 509, 204, 653
546, 530, 201, 509, 654
547, 360, 77, 70, 744
548, 538, 423, 295, 803
549, 44, 236, 265, 36
550, 620, 343, 672, 585
551, 50, 61, 844, 554
552, 553, 647, 291, 233
553, 348, 435, 332, 254
554, 139, 311, 663, 130
555, 130, 663, 661, 140
556, 662, 241, 826, 380
557, 663, 311, 283, 153
558, 272, 604, 827, 714
559, 346, 539, 753, 762
560, 523, 621, 834, 665
561, 676, 633, 357, 264
562, 849, 417, 581, 584
563, 249, 188, 629, 630
564, 250, 317, 839, 325
565, 257, 419, 680, 679
566, 135, 629, 670, 126
567, 229, 669, 829, 731
568, 697, 698, 203, 851
569, 629, 188, 669, 670
570, 625, 833, 540, 278
571, 450, 444, 235, 421
572, 631, 523, 665, 567
573, 274, 708, 660, 649
574, 212, 674, 675, 627
575, 627, 675, 592, 211
576, 675, 673, 215, 592
577, 674, 217, 673, 675
578, 302, 269, 342, 478
579, 866, 847, 296, 625
580, 678, 770, 238, 604
581, 839, 186, 689, 598
582, 679, 680, 123, 132
583, 680, 583, 133, 123
584, 750, 178, 781, 420
585, 154, 618, 683, 445
586, 445, 683, 681, 149
587, 683, 682, 219, 681
588, 618, 285, 682, 683
589, 140, 661, 685, 131
590, 131, 685, 684, 9
591, 661, 663, 153, 281
592, 392, 855, 307, 306
593, 246, 475, 688, 528
594, 528, 688, 686, 245
595, 688, 687, 247, 686
596, 475, 248, 687, 688
597, 420, 781, 187, 461
598, 860, 481, 143, 179
599, 596, 256, 308, 317
600, 309, 310, 188, 249
601, 151, 470, 694, 558
602, 558, 694, 692, 223
603, 694, 693, 221, 692
604, 470, 150, 693, 694
605, 698, 695, 336, 203
606, 698, 696, 194, 695
607, 697, 190, 696, 698
608, 42, 626, 280, 34
609, 230, 813, 676, 428
610, 48, 59, 230, 819
611, 180, 547, 704, 642
612, 642, 704, 702, 181
613, 704, 703, 182, 702
614, 547, 183, 703, 704
615, 150, 488, 706, 693
616, 693, 706, 320, 221
617, 706, 705, 220, 320
618, 488, 141, 705, 706
619, 837, 867, 224, 841
620, 335, 136, 126, 670
621, 435, 233, 253, 332
622, 645, 649, 660, 657
623, 378, 656, 277, 345
624, 635, 699, 429, 770
625, 306, 307, 422, 333
626, 771, 473, 450, 232
627, 455, 848, 343, 359
628, 232, 450, 421, 735
629, 62, 52, 603, 736
630, 847, 836, 796, 296
631, 238, 359, 343, 620
632, 664, 367, 269, 302
633, 219, 716, 717, 681
634, 681, 717, 486, 149
635, 717, 705, 141, 486
636, 716, 220, 705, 717
637, 290, 534, 719, 718
638, 718, 719, 700, 289
639, 719, 465, 156, 700
640, 534, 155, 465, 719
641, 248, 494, 720, 687
642, 687, 720, 323, 247
643, 720, 595, 250, 323
644, 494, 152, 595, 720
645, 258, 722, 723, 721
646, 721, 723, 122, 9
647, 723, 679, 132, 122
648, 722, 257, 679, 723
649, 59, 49, 813, 230
650, 671, 650, 700, 156
651, 747, 765, 435, 348
652, 298, 745, 372, 246
653, 176, 641, 727, 496
654, 496, 727, 690, 143
655, 727, 726, 178, 690
656, 641, 181, 726, 727
657, 200, 512, 729, 728
658, 728, 729, 504, 206
659, 729, 349, 145, 504
660, 512, 144, 349, 729
661, 331, 637, 137, 127
662, 732, 697, 851, 825
663, 732, 731, 190, 697
664, 804, 216, 315, 853
665, 402, 678, 604, 272
666, 370, 622, 747, 552
667, 754, 345, 549, 473
668, 457, 326, 282, 855
669, 539, 780, 574, 753
670, 733, 735, 358, 565
671, 63, 53, 631, 303
672, 651, 554, 271, 633
673, 444, 648, 764, 235
674, 701, 739, 835, 242
675, 735, 421, 634, 358
676, 795, 713, 243, 369
677, 616, 263, 713, 795
678, 264, 357, 270, 423
679, 291, 587, 245, 575
680, 244, 430, 300, 820
681, 289, 712, 741, 718
682, 718, 741, 740, 290
683, 741, 327, 288, 740
684, 712, 287, 327, 741
685, 170, 483, 743, 611
686, 611, 743, 742, 167
687, 743, 517, 168, 742
688, 483, 169, 517, 743
689, 159, 157, 527, 647
690, 650, 237, 289, 700
691, 269, 636, 614, 342
692, 474, 725, 266, 400
693, 206, 748, 749, 728
694, 728, 749, 410, 200
695, 749, 541, 209, 410
696, 748, 207, 541, 749
697, 667, 418, 750, 852
698, 859, 782, 256, 596
699, 582, 461, 309, 462
700, 597, 462, 417, 849
701, 237, 585, 712, 289
702, 57, 47, 588, 677
703, 326, 817, 288, 282
704, 646, 550, 832, 157
705, 285, 756, 757, 682
706, 329, 316, 590, 638
707, 225, 853, 564, 322
708, 756, 284, 589, 757
709, 165, 498, 759, 385
710, 385, 759, 742, 168
711, 759, 758, 167, 742
712, 498, 163, 758, 759
713, 207, 748, 761, 760
714, 760, 761, 652, 208
715, 761, 505, 205, 652
716, 748, 206, 505, 761
717, 153, 283, 817, 326
718, 828, 456, 769, 699
719, 725, 501, 616, 266
720, 554, 844, 239, 271
721, 214, 767, 768, 608
722, 608, 768, 766, 193
723, 768, 695, 194, 766
724, 203, 336, 314, 228
725, 801, 301, 367, 664
726, 525, 436, 373, 739
727, 270, 401, 526, 437
728, 218, 773, 774, 772
729, 772, 774, 673, 217
730, 774, 606, 215, 673
731, 773, 214, 606, 774
732, 166, 610, 776, 600
733, 600, 776, 775, 164
734, 776, 758, 163, 775
735, 610, 167, 758, 776
736, 217, 778, 779, 772
737, 772, 779, 777, 218
738, 779, 653, 204, 777
739, 778, 208, 653, 779
740, 765, 553, 233, 435
741, 292, 733, 565, 293
742, 634, 449, 814, 550
743, 41, 655, 573, 33
744, 319, 420, 461, 582
745, 852, 750, 420, 319
746, 418, 690, 178, 750
747, 317, 308, 186, 839
748, 187, 781, 784, 783
749, 783, 784, 702, 182
750, 784, 726, 181, 702
751, 781, 178, 726, 784
752, 208, 778, 785, 760
753, 760, 785, 543, 207
754, 785, 674, 212, 543
755, 778, 217, 674, 785
756, 286, 786, 787, 617
757, 617, 787, 756, 285
758, 787, 312, 284, 756
759, 786, 283, 312, 787
760, 162, 599, 791, 788
761, 788, 791, 789, 191
762, 791, 790, 192, 789
763, 599, 164, 790, 791
764, 197, 577, 792, 499
765, 499, 792, 775, 163
766, 792, 790, 164, 775
767, 577, 192, 790, 792
768, 247, 324, 794, 686
769, 686, 794, 575, 245
770, 794, 793, 253, 575
771, 324, 252, 793, 794
772, 239, 454, 701, 267
773, 357, 371, 401, 270
774, 259, 478, 568, 802
775, 195, 607, 798, 578
776, 578, 798, 789, 192
777, 798, 797, 191, 789
778, 607, 193, 797, 798
779, 254, 332, 800, 799
780, 799, 800, 318, 257
781, 800, 793, 252, 318
782, 332, 253, 793, 800
783, 421, 235, 449, 634
784, 665, 834, 754, 276
785, 648, 68, 76, 764
786, 636, 538, 803, 614
787, 223, 225, 322, 557
788, 321, 716, 219, 707
789, 851, 203, 228, 867
790, 182, 807, 808, 783
791, 783, 808, 310, 187
792, 808, 806, 188, 310
793, 807, 185, 806, 808
794, 184, 810, 811, 809
795, 809, 811, 766, 194
796, 811, 797, 193, 766
797, 810, 191, 797, 811
798, 836, 552, 724, 796
799, 479, 297, 678, 402
800, 604, 238, 620, 827
801, 45, 56, 275, 529
802, 841, 224, 315, 216
803, 510, 816, 777, 204
804, 816, 815, 218, 777
805, 338, 837, 841, 857
806, 288, 817, 818, 740
807, 740, 818, 533, 290
808, 818, 786, 286, 533
809, 817, 283, 786, 818
810, 796, 724, 812, 260
811, 660, 262, 458, 657
812, 266, 616, 795, 502
813, 655, 390, 709, 573
814, 190, 822, 823, 696
815, 696, 823, 809, 194
816, 823, 821, 184, 809
817, 822, 185, 821, 823
818, 564, 227, 226, 563
819, 189, 321, 329, 824
820, 337, 563, 510, 511
821, 692, 868, 225, 223
822, 844, 344, 454, 239
823, 297, 635, 770, 678
824, 369, 243, 379, 622
825, 526, 474, 400, 304
826, 573, 709, 551, 414
827, 61, 51, 344, 844
828, 834, 378, 345, 754
829, 632, 737, 274, 746
830, 316, 589, 591, 590
831, 731, 829, 822, 190
832, 829, 806, 185, 822
833, 669, 188, 806, 829
834, 282, 288, 327, 830
835, 576, 455, 359, 429
836, 625, 296, 615, 833
837, 281, 153, 326, 457
838, 191, 810, 831, 788
839, 788, 831, 639, 162
840, 831, 341, 161, 639
841, 810, 184, 341, 831
842, 764, 76, 69, 255
843, 827, 620, 585, 237
844, 46, 57, 677, 524
845, 745, 71, 79, 372
846, 367, 391, 636, 269
847, 454, 525, 739, 701
848, 826, 241, 455, 576
849, 830, 327, 287, 305
850, 304, 400, 424, 708
851, 280, 234, 390, 655
852, 36, 265, 346, 43
853, 413, 242, 725, 474
854, 853, 315, 227, 564
855, 314, 846, 815, 222
856, 824, 329, 638, 637
857, 805, 730, 334, 338
858, 185, 807, 838, 821
859, 821, 838, 340, 184
860, 838, 703, 183, 340
861, 807, 182, 703, 838
862, 318, 751, 419, 257
863, 751, 691, 251, 419
864, 752, 319, 582, 480
865, 598, 689, 691, 751
866, 755, 222, 226, 227
867, 330, 229, 731, 732
868, 331, 335, 229, 330
869, 805, 338, 857, 840
870, 336, 767, 846, 314
871, 224, 755, 227, 315
872, 730, 331, 330, 334
873, 322, 564, 563, 337
874, 260, 812, 843, 842
875, 842, 843, 722, 258
876, 843, 799, 257, 722
877, 812, 254, 799, 843
878, 303, 631, 567, 659
879, 537, 302, 478, 259
880, 358, 634, 550, 646
881, 624, 264, 423, 538
882, 258, 721, 845, 842
883, 842, 845, 615, 260
884, 241, 865, 848, 455
885, 721, 9, 684, 845
886, 218, 815, 846, 773
887, 773, 846, 767, 214
888, 557, 322, 337, 202
889, 228, 314, 222, 755
890, 587, 261, 528, 245
891, 268, 299, 292, 263
892, 271, 239, 267, 371
893, 540, 685, 661, 281
894, 866, 625, 278, 392
895, 866, 392, 306, 710
896, 460, 864, 859, 152
897, 462, 309, 249, 417
898, 482, 667, 852, 666
899, 139, 313, 850, 311
900, 311, 850, 312, 283
901, 313, 284, 312, 850
902, 730, 824, 637, 331
903, 805, 840, 221, 320
904, 868, 804, 853, 225
905, 325, 839, 598, 252
906, 256, 482, 666, 308
907, 691, 597, 849, 251
908, 825, 851, 867, 837
909, 707, 219, 682, 757
910, 250, 325, 854, 323
911, 323, 854, 324, 247
912, 325, 252, 324, 854
913, 866, 645, 657, 847
914, 392, 278, 457, 855
915, 645, 662, 380, 649
916, 321, 707, 316, 329
917, 335, 670, 669, 229
918, 621, 347, 378, 834
919, 276, 754, 473, 771
920, 529, 275, 763, 236
921, 331, 127, 136, 335
922, 840, 868, 692, 221
923, 805, 320, 220, 189
924, 695, 768, 767, 336
925, 867, 228, 755, 224
926, 334, 330, 732, 825
927, 161, 341, 858, 339
928, 339, 858, 340, 183
929, 341, 184, 340, 858
930, 83, 7, 481, 860
931, 85, 83, 860, 861
932, 82, 85, 861, 862
933, 84, 82, 862, 863
934, 81, 84, 863, 864
935, 6, 81, 864, 460
936, 710, 865, 241, 662
937, 866, 710, 662, 645
938, 189, 220, 716, 321
*ELSET,ELSET=contact_source
99, 100, 101, 102, 103, 104, 105, 106, 107, 108, 
109, 110, 111, 112, 113, 114, 115, 116, 117, 118, 
119, 120, 
*ELSET,ELSET=contact_drain
39, 40, 41, 42, 43, 44, 45, 46, 47, 48, 
49, 50, 51, 52, 53, 54, 55, 56, 57, 58, 
59, 60, 
*ELSET,ELSET=probe_A
77, 78, 79, 80, 81, 82, 
*ELSET,ELSET=probe_B
17, 18, 19, 20, 21, 22, 
*ELSET,ELSET=walls
1, 2, 3, 4, 5, 6, 7, 8, 9, 10, 
11, 12, 13, 14, 15, 16, 23, 24, 25, 26, 
27, 28, 29, 30, 31, 32, 33, 34, 35, 36, 
37, 38, 61, 62, 63, 64, 65, 66, 67, 68, 
69, 70, 71, 72, 73, 74, 75, 76, 83, 84, 
85, 86, 87, 88, 89, 90, 91, 92, 93, 94, 
95, 96, 97, 98, 121, 122, 123, 124, 125, 126, 
127, 128, 129, 130, 131, 132, 133, 134, 135, 136, 
137, 138, 139, 140, 
*ELSET,ELSET=domain
141, 142, 143, 144, 145, 146, 147, 148, 149, 150, 
151, 152, 153, 154, 155, 156, 157, 158, 159, 160, 
161, 162, 163, 164, 165, 166, 167, 168, 169, 170, 
171, 172, 173, 174, 175, 176, 177, 178, 179, 180, 
181, 182, 183, 184, 185, 186, 187, 188, 189, 190, 
191, 192, 193, 194, 195, 196, 197, 198, 199, 200, 
201, 202, 203, 204, 205, 206, 207, 208, 209, 210, 
211, 212, 213, 214, 215, 216, 217, 218, 219, 220, 
221, 222, 223, 224, 225, 226, 227, 228, 229, 230, 
231, 232, 233, 234, 235, 236, 237, 238, 239, 240, 
241, 242, 243, 244, 245, 246, 247, 248, 249, 250, 
251, 252, 253, 254, 255, 256, 257, 258, 259, 260, 
261, 262, 263, 264, 265, 266, 267, 268, 269, 270, 
271, 272, 273, 274, 275, 276, 277, 278, 279, 280, 
281, 282, 283, 284, 285, 286, 287, 288, 289, 290, 
291, 292, 293, 294, 295, 296, 297, 298, 299, 300, 
301, 302, 303, 304, 305, 306, 307, 308, 309, 310, 
311, 312, 313, 314, 315, 316, 317, 318, 319, 320, 
321, 322, 323, 324, 325, 326, 327, 328, 329, 330, 
331, 332, 333, 334, 335, 336, 337, 338, 339, 340, 
341, 342, 343, 344, 345, 346, 347, 348, 349, 350, 
351, 352, 353, 354, 355, 356, 357, 358, 359, 360, 
361, 362, 363, 364, 365, 366, 367, 368, 369, 370, 
371, 372, 373, 374, 375, 376, 377, 378, 379, 380, 
381, 382, 383, 384, 385, 386, 387, 388, 389, 390, 
391, 392, 393, 394, 395, 396, 397, 398, 399, 400, 
401, 402, 403, 404, 405, 406, 407, 408, 409, 410, 
411, 412, 413, 414, 415, 416, 417, 418, 419, 420, 
421, 422, 423, 424, 425, 426, 427, 428, 429, 430, 
431, 432, 433, 434, 435, 436, 437, 438, 439, 440, 
441, 442, 443, 444, 445, 446, 447, 448, 449, 450, 
451, 452, 453, 454, 455, 456, 457, 458, 459, 460, 
461, 462, 463, 464, 465, 466, 467, 468, 469, 470, 
471, 472, 473, 474, 475, 476, 477, 478, 479, 480, 
481, 482, 483, 484, 485, 486, 487, 488, 489, 490, 
491, 492, 493, 494, 495, 496, 497, 498, 499, 500, 
501, 502, 503, 504, 505, 506, 507, 508, 509, 510, 
511, 512, 513, 514, 515, 516, 517, 518, 519, 520, 
521, 522, 523, 524, 525, 526, 527, 528, 529, 530, 
531, 532, 533, 534, 535, 536, 537, 538, 539, 540, 
541, 542, 543, 544, 545, 546, 547, 548, 549, 550, 
551, 552, 553, 554, 555, 556, 557, 558, 559, 560, 
561, 562, 563, 564, 565, 566, 567, 568, 569, 570, 
571, 572, 573, 574, 575, 576, 577, 578, 579, 580, 
581, 582, 583, 584, 585, 586, 587, 588, 589, 590, 
591, 592, 593, 594, 595, 596, 597, 598, 599, 600, 
601, 602, 603, 604, 605, 606, 607, 608, 609, 610, 
611, 612, 613, 614, 615, 616, 617, 618, 619, 620, 
621, 622, 623, 624, 625, 626, 627, 628, 629, 630, 
631, 632, 633, 634, 635, 636, 637, 638, 639, 640, 
641, 642, 643, 644, 645, 646, 647, 648, 649, 650, 
651, 652, 653, 654, 655, 656, 657, 658, 659, 660, 
661, 662, 663, 664, 665, 666, 667, 668, 669, 670, 
671, 672, 673, 674, 675, 676, 677, 678, 679, 680, 
681, 682, 683, 684, 685, 686, 687, 688, 689, 690, 
691, 692, 693, 694, 695, 696, 697, 698, 699, 700, 
701, 702, 703, 704, 705, 706, 707, 708, 709, 710, 
711, 712, 713, 714, 715, 716, 717, 718, 719, 720, 
721, 722, 723, 724, 725, 726, 727, 728, 729, 730, 
731, 732, 733, 734, 735, 736, 737, 738, 739, 740, 
741, 742, 743, 744, 745, 746, 747, 748, 749, 750, 
751, 752, 753, 754, 755, 756, 757, 758, 759, 760, 
761, 762, 763, 764, 765, 766, 767, 768, 769, 770, 
771, 772, 773, 774, 775, 776, 777, 778, 779, 780, 
781, 782, 783, 784, 785, 786, 787, 788, 789, 790, 
791, 792, 793, 794, 795, 796, 797, 798, 799, 800, 
801, 802, 803, 804, 805, 806, 807, 808, 809, 810, 
811, 812, 813, 814, 815, 816, 817, 818, 819, 820, 
821, 822, 823, 824, 825, 826, 827, 828, 829, 830, 
831, 832, 833, 834, 835, 836, 837, 838, 839, 840, 
841, 842, 843, 844, 845, 846, 847, 848, 849, 850, 
851, 852, 853, 854, 855, 856, 857, 858, 859, 860, 
861, 862, 863, 864, 865, 866, 867, 868, 869, 870, 
871, 872, 873, 874, 875, 876, 877, 878, 879, 880, 
881, 882, 883, 884, 885, 886, 887, 888, 889, 890, 
891, 892, 893, 894, 895, 896, 897, 898, 899, 900, 
901, 902, 903, 904, 905, 906, 907, 908, 909, 910, 
911, 912, 913, 914, 915, 916, 917, 918, 919, 920, 
921, 922, 923, 924, 925, 926, 927, 928, 929, 930, 
931, 932, 933, 934, 935, 936, 937, 938, 
*NSET,NSET=contact_source
1, 8, 101, 102, 103, 104, 105, 106, 107, 108, 
109, 110, 111, 112, 113, 114, 115, 116, 117, 118, 
119, 120, 121, 
*NSET,NSET=contact_drain
4, 5, 45, 46, 47, 48, 49, 50, 51, 52, 
53, 54, 55, 56, 57, 58, 59, 60, 61, 62, 
63, 64, 65, 
*NSET,NSET=probe_A
6, 7, 81, 82, 83, 84, 85, 
*NSET,NSET=probe_B
2, 3, 25, 26, 27, 28, 29, 
*NSET,NSET=walls
1, 2, 3, 4, 5, 6, 7, 8, 9, 10, 
11, 12, 13, 14, 15, 16, 17, 18, 19, 20, 
21, 22, 23, 24, 30, 31, 32, 33, 34, 35, 
36, 37, 38, 39, 40, 41, 42, 43, 44, 66, 
67, 68, 69, 70, 71, 72, 73, 74, 75, 76, 
77, 78, 79, 80, 86, 87, 88, 89, 90, 91, 
92, 93, 94, 95, 96, 97, 98, 99, 100, 122, 
123, 124, 125, 126, 127, 128, 129, 130, 131, 132, 
133, 134, 135, 136, 137, 138, 139, 140, 
*NSET,NSET=domain
1, 2, 3, 4, 5, 6, 7, 8, 9, 10, 
11, 12, 13, 14, 15, 16, 17, 18, 19, 20, 
21, 22, 23, 24, 25, 26, 27, 28, 29, 30, 
31, 32, 33, 34, 35, 36, 37, 38, 39, 40, 
41, 42, 43, 44, 45, 46, 47, 48, 49, 50, 
51, 52, 53, 54, 55, 56, 57, 58, 59, 60, 
61, 62, 63, 64, 65, 66, 67, 68, 69, 70, 
71, 72, 73, 74, 75, 76, 77, 78, 79, 80, 
81, 82, 83, 84, 85, 86, 87, 88, 89, 90, 
91, 92, 93, 94, 95, 96, 97, 98, 99, 100, 
101, 102, 103, 104, 105, 106, 107, 108, 109, 110, 
111, 112, 113, 114, 115, 116, 117, 118, 119, 120, 
121, 122, 123, 124, 125, 126, 127, 128, 129, 130, 
131, 132, 133, 134, 135, 136, 137, 138, 139, 140, 
141, 142, 143, 144, 145, 146, 147, 148, 149, 150, 
151, 152, 153, 154, 155, 156, 157, 158, 159, 160, 
161, 162, 163, 164, 165, 166, 167, 168, 169, 170, 
171, 172, 173, 174, 175, 176, 177, 178, 179, 180, 
181, 182, 183, 184, 185, 186, 187, 188, 189, 190, 
191, 192, 193, 194, 195, 196, 197, 198, 199, 200, 
201, 202, 203, 204, 205, 206, 207, 208, 209, 210, 
211, 212, 213, 214, 215, 216, 217, 218, 219, 220, 
221, 222, 223, 224, 225, 226, 227, 228, 229, 230, 
231, 232, 233, 234, 235, 236, 237, 238, 239, 240, 
241, 242, 243, 244, 245, 246, 247, 248, 249, 250, 
251, 252, 253, 254, 255, 256, 257, 258, 259, 260, 
261, 262, 263, 264, 265, 266, 267, 268, 269, 270, 
271, 272, 273, 274, 275, 276, 277, 278, 279, 280, 
281, 282, 283, 284, 285, 286, 287, 288, 289, 290, 
291, 292, 293, 294, 295, 296, 297, 298, 299, 300, 
301, 302, 303, 304, 305, 306, 307, 308, 309, 310, 
311, 312, 313, 314, 315, 316, 317, 318, 319, 320, 
321, 322, 323, 324, 325, 326, 327, 328, 329, 330, 
331, 332, 333, 334, 335, 336, 337, 338, 339, 340, 
341, 342, 343, 344, 345, 346, 347, 348, 349, 350, 
351, 352, 353, 354, 355, 356, 357, 358, 359, 360, 
361, 362, 363, 364, 365, 366, 367, 368, 369, 370, 
371, 372, 373, 374, 375, 376, 377, 378, 379, 380, 
381, 382, 383, 384, 385, 386, 387, 388, 389, 390, 
391, 392, 393, 394, 395, 396, 397, 398, 399, 400, 
401, 402, 403, 404, 405, 406, 407, 408, 409, 410, 
411, 412, 413, 414, 415, 416, 417, 418, 419, 420, 
421, 422, 423, 424, 425, 426, 427, 428, 429, 430, 
431, 432, 433, 434, 435, 436, 437, 438, 439, 440, 
441, 442, 443, 444, 445, 446, 447, 448, 449, 450, 
451, 452, 453, 454, 455, 456, 457, 458, 459, 460, 
461, 462, 463, 464, 465, 466, 467, 468, 469, 470, 
471, 472, 473, 474, 475, 476, 477, 478, 479, 480, 
481, 482, 483, 484, 485, 486, 487, 488, 489, 490, 
491, 492, 493, 494, 495, 496, 497, 498, 499, 500, 
501, 502, 503, 504, 505, 506, 507, 508, 509, 510, 
511, 512, 513, 514, 515, 516, 517, 518, 519, 520, 
521, 522, 523, 524, 525, 526, 527, 528, 529, 530, 
531, 532, 533, 534, 535, 536, 537, 538, 539, 540, 
541, 542, 543, 544, 545, 546, 547, 548, 549, 550, 
551, 552, 553, 554, 555, 556, 557, 558, 559, 560, 
561, 562, 563, 564, 565, 566, 567, 568, 569, 570, 
571, 572, 573, 574, 575, 576, 577, 578, 579, 580, 
581, 582, 583, 584, 585, 586, 587, 588, 589, 590, 
591, 592, 593, 594, 595, 596, 597, 598, 599, 600, 
601, 602, 603, 604, 605, 606, 607, 608, 609, 610, 
611, 612, 613, 614, 615, 616, 617, 618, 619, 620, 
621, 622, 623, 624, 625, 626, 627, 628, 629, 630, 
631, 632, 633, 634, 635, 636, 637, 638, 639, 640, 
641, 642, 643, 644, 645, 646, 647, 648, 649, 650, 
651, 652, 653, 654, 655, 656, 657, 658, 659, 660, 
661, 662, 663, 664, 665, 666, 667, 668, 669, 670, 
671, 672, 673, 674, 675, 676, 677, 678, 679, 680, 
681, 682, 683, 684, 685, 686, 687, 688, 689, 690, 
691, 692, 693, 694, 695, 696, 697, 698, 699, 700, 
701, 702, 703, 704, 705, 706, 707, 708, 709, 710, 
711, 712, 713, 714, 715, 716, 717, 718, 719, 720, 
721, 722, 723, 724, 725, 726, 727, 728, 729, 730, 
731, 732, 733, 734, 735, 736, 737, 738, 739, 740, 
741, 742, 743, 744, 745, 746, 747, 748, 749, 750, 
751, 752, 753, 754, 755, 756, 757, 758, 759, 760, 
761, 762, 763, 764, 765, 766, 767, 768, 769, 770, 
771, 772, 773, 774, 775, 776, 777, 778, 779, 780, 
781, 782, 783, 784, 785, 786, 787, 788, 789, 790, 
791, 792, 793, 794, 795, 796, 797, 798, 799, 800, 
801, 802, 803, 804, 805, 806, 807, 808, 809, 810, 
811, 812, 813, 814, 815, 816, 817, 818, 819, 820, 
821, 822, 823, 824, 825, 826, 827, 828, 829, 830, 
831, 832, 833, 834, 835, 836, 837, 838, 839, 840, 
841, 842, 843, 844, 845, 846, 847, 848, 849, 850, 
851, 852, 853, 854, 855, 856, 857, 858, 859, 860, 
861, 862, 863, 864, 865, 866, 867, 868, 
