*Heading
 /Users/juliagao/geometry-optimization-net/scripts/../runs/grid/shape_20.inp
*NODE
1, 0, -0.3, 0
2, 0.425, -0.3, 0
3, 0.575, -0.3, 0
4, 1, -0.3, 0
5, 1, 0.3, 0
6, 0.575, 0.3, 0
7, 0.425, 0.3, 0
8, 0, 0.3, 0
9, 0.616, 0.084, 0
10, 0.025919119758059, -0.3, 0
11, 0.078501830739625, -0.3, 0
12, 0.13223796258144, -0.3, 0
13, 0.18585656171941, -0.3, 0
14, 0.23914322142834, -0.3, 0
15, 0.29336023295787, -0.3, 0
16, 0.34761140099856, -0.3, 0
17, 0.39969307934949, -0.3, 0
18, 0.051838239516117, -0.3, 0
19, 0.10516542196313, -0.3, 0
20, 0.15931050319974, -0.3, 0
21, 0.21240262023908, -0.3, 0
22, 0.26588382261761, -0.3, 0
23, 0.32083664329814, -0.3, 0
24, 0.37438615869898, -0.3, 0
25, 0.44999546361893, -0.3, 0
26, 0.4996338963065, -0.3, 0
27, 0.54963843268757, -0.3, 0
28, 0.47499092723787, -0.3, 0
29, 0.52427686537513, -0.3, 0
30, 0.6005301170907, -0.3, 0
31, 0.65267592451805, -0.3, 0
32, 0.70661027742645, -0.3, 0
33, 0.76143454328728, -0.3, 0
34, 0.81626313326506, -0.3, 0
35, 0.87052894410725, -0.3, 0
36, 0.92353712878953, -0.3, 0
37, 0.97480124465917, -0.3, 0
38, 0.62606023418139, -0.3, 0
39, 0.6792916148547, -0.3, 0
40, 0.7339289399982, -0.3, 0
41, 0.78894014657636, -0.3, 0
42, 0.84358611995377, -0.3, 0
43, 0.89747176826072, -0.3, 0
44, 0.94960248931833, -0.3, 0
45, 1, -0.27359728754288, 0
46, 1, -0.22001245048914, 0
47, 1, -0.16500206963091, 0
48, 1, -0.1094867675113, 0
49, 1, -0.054402579889776, 0
50, 1, 0.00016296947025785, 0
51, 1, 0.054754025979556, 0
52, 1, 0.1098411656511, 0
53, 1, 0.16519955700403, 0
54, 1, 0.22011055706195, 0
55, 1, 0.27366382826283, 0
56, 1, -0.24719457508575, 0
57, 1, -0.19283032589253, 0
58, 1, -0.13717381336928, 0
59, 1, -0.081799721653316, 0
60, 1, -0.027005438126235, 0
61, 1, 0.027331377066751, 0
62, 1, 0.082176674892361, 0
63, 1, 0.13750565640984, 0
64, 1, 0.19289345759823, 0
65, 1, 0.24732765652566, 0
66, 0.9747536762736, 0.3, 0
67, 0.92330465590409, 0.3, 0
68, 0.87022500912947, 0.3, 0
69, 0.81608102961271, 0.3, 0
70, 0.76125302354057, 0.3, 0
71, 0.70659418563396, 0.3, 0
72, 0.6530296932542, 0.3, 0
73, 0.60078153104707, 0.3, 0
74, 0.9495073525472, 0.3, 0
75, 0.89710195926097, 0.3, 0
76, 0.84334805899796, 0.3, 0
77, 0.78881400022747, 0.3, 0
78, 0.73369204685367, 0.3, 0
79, 0.67949632441426, 0.3, 0
80, 0.62656306209414, 0.3, 0
81, 0.54957455409409, 0.3, 0
82, 0.4993740164427, 0.3, 0
83, 0.44979946234861, 0.3, 0
84, 0.52414910818818, 0.3, 0
85, 0.47459892469722, 0.3, 0
86, 0.39868812423581, 0.3, 0
87, 0.34556180330659, 0.3, 0
88, 0.29189435981575, 0.3, 0
89, 0.23834300442904, 0.3, 0
90, 0.18527760413593, 0.3, 0
91, 0.132500321054, 0.3, 0
92, 0.079520134671858, 0.3, 0
93, 0.026475094069723, 0.3, 0
94, 0.37237624847162, 0.3, 0
95, 0.31874735814156, 0.3, 0
96, 0.26504136148995, 0.3, 0
97, 0.21164464736813, 0.3, 0
98, 0.15891056090373, 0.3, 0
99, 0.10609008120427, 0.3, 0
100, 0.052950188139446, 0.3, 0
101, 0, 0.27329073193057, 0
102, 0, 0.21958922566353, 0
103, 0, 0.16559134865865, 0
104, 0, 0.1110969162874, 0
105, 0, 0.055781545194213, 0
106, 0, -6.9022612619263e-05, 0
107, 0, -0.055882831246359, 0
108, 0, -0.11096246000338, 0
109, 0, -0.16523706595506, 0
110, 0, -0.21921432804371, 0
111, 0, -0.2731033972908, 0
112, 0, 0.24658146386115, 0
113, 0, 0.19259698746591, 0
114, 0, 0.1385857098514, 0
115, 0, 0.083608122723413, 0
116, 0, 0.027954967665013, 0
117, 0, -0.028093012890252, 0
118, 0, -0.083672649602466, 0
119, 0, -0.1382522704043, 0
120, 0, -0.19222186150582, 0
121, 0, -0.2462067945816, 0
122, 0.61324398220085, 0.10913563873038, 0
123, 0.59205804362729, 0.1545784419492, 0
124, 0.55299371009092, 0.18718753159486, 0
125, 0.50265333668885, 0.19996964967718, 0
126, 0.45159989683989, 0.18942025432727, 0
127, 0.41035438984292, 0.1576183700646, 0
128, 0.38725634986037, 0.11129229478694, 0
129, 0.38669174129859, 0.059155718036491, 0
130, 0.40919454257009, 0.011817115060227, 0
131, 0.44986818682706, -0.02060784468377, 0
132, 0.50099587136715, -0.031995724758801, 0
133, 0.55188967281712, -0.019747105001814, 0
134, 0.59167863404434, 0.012929415450603, 0
135, 0.61323612965251, 0.058829008996549, 0
136, 0.60510689015786, 0.13307689498486, 0
137, 0.57468139456383, 0.1727619808292, 0
138, 0.5286340779221, 0.19641036183128, 0
139, 0.47653699817706, 0.19760232164139, 0
140, 0.42914036968202, 0.17584178074257, 0
141, 0.39613200630361, 0.13564726321167, 0
142, 0.3840106859754, 0.085574450856795, 0
143, 0.3953105121228, 0.034038905095071, 0
144, 0.42771179763387, -0.0067216388925152, 0
145, 0.47457189772217, -0.029178670577342, 0
146, 0.5273675793757, -0.0287253990736, 0
147, 0.57378202766067, -0.0055109615038257, 0
148, 0.60507622711567, 0.034857488180746, 0
149, 0.4875428525635, -0.065485928623576, 0
150, 0.48122658323152, -0.15161423760887, 0
151, 0.76705780970626, 0.030234044109263, 0
152, 0.4425072068691, -0.079753882957953, 0
153, 0.53430522740153, -0.15122908166781, 0
154, 0.10260020718017, 0.086732138521934, 0
155, 0.07719917400713, -0.13628532651738, 0
156, 0.30097131101419, -0.050561897852007, 0
157, 0.1281619255515, 0.087949598319779, 0
158, 0.44676444335406, -0.2746369240558, 0
159, 0.077242682915942, 0.11311076527769, 0
160, 0.79262174561478, 0.029873531373886, 0
161, 0.18348439414627, 0.22409143226254, 0
162, 0.078459530922672, -0.27283259611431, 0
163, 0.62468986103282, -0.24836410416357, 0
164, 0.67864688313655, -0.24743115607611, 0
165, 0.8414186501551, -0.10951720612052, 0
166, 0.8955482006467, -0.24594734509386, 0
167, 0.97440540036568, -0.27334139444178, 0
168, 0.37767561612136, 0.26281139881938, 0
169, 0.28636480590341, -0.2193590774087, 0
170, 0.56318928957643, 0.2100170191712, 0
171, 0.51733847687104, -0.22474670520225, 0
172, 0.5322564440998, 0.23095691079897, 0
173, 0.56861240591339, 0.25331225246502, 0
174, 0.53732960587311, 0.27121796133058, 0
175, 0.53913277330952, 0.21707888129229, 0
176, 0.25241811857614, -0.04945921749574, 0
177, 0.44031642624679, -0.22398894938213, 0
178, 0.5144181685915, -0.20003733406928, 0
179, 0.53077505901552, 0.28571272550342, 0
180, 0.15636022082745, -0.21804264420459, 0
181, 0.58591076454529, 0.20016321832285, 0
182, 0.41811920635946, -0.24887271293015, 0
183, 0.58049371058521, 0.219119769677, 0
184, 0.4805573453092, 0.28594478566545, 0
185, 0.84506855988735, 0.084701634084401, 0
186, 0.54079190906051, -0.19966845751905, 0
187, 0.79425656852705, 0.086094677562228, 0
188, 0.025611072138743, 0.056461429222965, 0
189, 0.23418232547313, 0.17665290864746, 0
190, 0.052112587048454, 0.19348896527032, 0
191, 0.1777372072832, -0.021963068470188, 0
192, 0.59846209088099, 0.23035861303366, 0
193, 0.51875951067517, 0.2583888298441, 0
194, 0.26082012154156, 0.179726535898, 0
195, 0.48678877100385, 0.27217859918193, 0
196, 0.15354550203163, -0.10733736395086, 0
197, 0.54385252287181, 0.2565158356582, 0
198, 0.4293800222686, 0.28432397122882, 0
199, 0.026160303382124, 0.21988486477436, 0
200, 0.10470253603657, 0.2213240352811, 0
201, 0.15315354987951, 0.06166012255063, 0
202, 0.42239897314309, -0.09930328054212, 0
203, 0.26042298319125, -0.21884031443312, 0
204, 0.34711471275413, 0.093085875769584, 0
205, 0.25458151482626, 0.099118868571237, 0
206, 0.41044699235773, -0.019529089210479, 0
207, 0.025670135688196, -0.11011394038228, 0
208, 0.076988658417704, 0.085707048738575, 0
209, 0.47251161437366, -0.10551208461324, 0
210, 0.076645017814207, 0.030369137887063, 0
211, 0.13091168523642, 0.22206142602389, 0
212, 0.34854670490302, 0.25969101636308, 0
213, 0.026022632200182, -0.24598254280094, 0
214, 0.27938628275409, 0.10320089268011, 0
215, 0.51216553192188, 0.27218476917118, 0
216, 0.5735334749806, -0.27458535053146, 0
217, 0.15309229187338, -0.079282449349402, 0
218, 0.051076877062814, 0.0016424680572242, 0
219, 0.17907228633388, 0.091146586638597, 0
220, 0.052103744515123, -0.24579549185542, 0
221, 0.43757098873591, -0.056551346527936, 0
222, 0.28203177275175, 0.13112010490125, 0
223, 0.42632130396158, -0.12405404326969, 0
224, 0.10231406567641, 0.059127365882346, 0
225, 0.12905717081284, -0.16313232441911, 0
226, 0.3503209969824, -0.08606425864712, 0
227, 0.29089816286007, -0.27321810852985, 0
228, 0.561771006682, -0.14976769077998, 0
229, 0.39177601136509, -0.038734904158486, 0
230, 0.36322728776781, 0.15137642756258, 0
231, 0.547820451075, -0.27473069114026, 0
232, 0.43005939810411, -0.14883187390731, 0
233, 0.58690392703058, -0.12288536430594, 0
234, 0.65095657923663, 0.060602936558156, 0
235, 0.79012859592563, 0.27434271910322, 0
236, 0.84468146067981, 0.056973997094144, 0
237, 0.89566846350663, 0.0009520461469863, 0
238, 0.30371717779989, -0.10991758471368, 0
239, 0.94831115871245, 0.13792832049169, 0
240, 0.71664370201803, 0.030886082899935, 0
241, 0.79416331414332, 0.16898505372185, 0
242, 0.9483604935396, 0.19259387561784, 0
243, 0.94854600688531, 0.24661639672196, 0
244, 0.87022536311928, 0.27350847543389, 0
245, 0.76924051271999, 0.086984911555891, 0
246, 0.87004534729031, 0.028860390656983, 0
247, 0.20295335816244, -0.049971903324771, 0
248, 0.66101770769349, 0.0017344156326032, 0
249, 0.89627222668135, 0.056158212370404, 0
250, 0.29200161213765, 0.27753967818055, 0
251, 0.8444968547537, 0.22075764300696, 0
252, 0.87073572507758, 0.19340124547648, 0
253, 0.59462263463531, -0.19794509051021, 0
254, 0.23742983331044, 0.25169709026699, 0
255, 0.23296678845608, -0.19102787392935, 0
256, 0.69202142180737, 0.031132884713795, 0
257, 0.46098770718398, 0.27116971262216, 0
258, 0.8679340588901, -0.16429103549946, 0
259, 0.025753751681595, 0.1116235358452, 0
260, 0.67442410901821, 0.091094269334177, 0
261, 0.67170608908674, 0.18366307246066, 0
262, 0.76375866922265, -0.026539017855139, 0
263, 0.79024189421201, -0.026423110083261, 0
264, 0.84531440016505, 0.13975922112289, 0
265, 0.94819490974454, 0.082965996357643, 0
266, 0.89533700899601, -0.026659550451633, 0
267, 0.73324175941293, -0.2466801709691, 0
268, 0.97373998151456, -0.081895522552585, 0
269, 0.78823951919598, -0.082349671127591, 0
270, 0.81510450163904, -0.082070567214553, 0
271, 0.76952145156083, 0.14305145572222, 0
272, 0.92103739218846, -0.16433378567625, 0
273, 0.52559799700646, -0.10568551690494, 0
274, 0.8143358998934, -0.13723501151985, 0
275, 0.70542984846565, -0.084581008308415, 0
276, 0.74116078856357, 0.22534290223563, 0
277, 0.6118604905305, -0.032450713945067, 0
278, 0.73232459177464, -0.16608403952385, 0
279, 0.68178863115763, -0.028021466073573, 0
280, 0.86793030511104, -0.13689574113865, 0
281, 0.84178286604203, -0.081915193928173, 0
282, 0.67637545142403, -0.086232834413243, 0
283, 0.61454742924887, -0.092880903500666, 0
284, 0.5457697887457, -0.24953517681717, 0
285, 0.20344911074386, -0.078641637155219, 0
286, 0.15365844404663, 0.089401391237328, 0
287, 0.22745667438706, -0.02028112698205, 0
288, 0.1527777946265, -0.05109419097944, 0
289, 0.67606839872825, -0.14127927959951, 0
290, 0.61854876509982, -0.14527727973508, 0
291, 0.62201810728659, -0.19681574952639, 0
292, 0.67729716054454, -0.1946657963904, 0
293, 0.70713723385465, -0.056152859911062, 0
294, 0.97370962371176, -0.10947472055108, 0
295, 0.84121350262823, -0.137013333387, 0
296, 0.81690464811364, 0.27396768165077, 0
297, 0.94868788364534, -0.27316360583022, 0
298, 0.94813031755647, -0.24623590464659, 0
299, 0.97411757043942, -0.24657566790503, 0
300, 0.92098776496616, -0.13689146240979, 0
301, 0.89477208234106, -0.081838095557232, 0
302, 0.025978926719408, -0.21891622951895, 0
303, 0.61658640767328, -0.119326513543, 0
304, 0.1542887324943, 0.11681428654102, 0
305, 0.64504195145284, 0.031691842493415, 0
306, 0.81911991005152, 0.19480591524136, 0
307, 0.29190910995644, 0.2549018460744, 0
308, 0.70590839520398, -0.24702435779084, 0
309, 0.7689843674425, 0.17047404195688, 0
310, 0.69532786212306, 0.060504866552344, 0
311, 0.5140178988714, 0.22085636380467, 0
312, 0.54608046413584, 0.20267731252084, 0
313, 0.15262464721044, 0.0054571702191387, 0
314, 0.27905483584988, -0.10854844755997, 0
315, 0.12736566569775, -0.023674997674738, 0
316, 0.052547559647985, 0.24691545526405, 0
317, 0.81748573669299, 0.0015450093542919, 0
318, 0.76675626220235, 0.22365090726009, 0
319, 0.81904934671629, 0.057466151840498, 0
320, 0.79453668027905, 0.14167115787228, 0
321, 0.18417883482793, 0.24956824090995, 0
322, 0.65120627012711, -0.029355237098132, 0
323, 0.64156134382921, 0.23889417362806, 0
324, 0.87072778122524, 0.084168113177083, 0
325, 0.3282407638708, -0.11188725133503, 0
326, 0.12737103333829, 0.0044132667694397, 0
327, 0.025674264422468, 0.084141730058809, 0
328, 0.076771517317768, -0.081024656317241, 0
329, 0.92252179097644, 0.21973626484485, 0
330, 0.45374993936122, 0.22856046992447, 0
331, 0.87088796541043, 0.16634904418661, 0
332, 0.51410009042421, -0.065354341458722, 0
333, 0.10414177280779, -0.21822019481513, 0
334, 0.025610689048211, -0.082629212559225, 0
335, 0.8415960603336, -0.21885629520494, 0
336, 0.7044007681053, -0.13989207711637, 0
337, 0.81425265226234, -0.16460851713431, 0
338, 0.73235045220663, -0.13886109291421, 0
339, 0.39478949235468, -0.067855913606536, 0
340, 0.81578095953497, -0.054289455228483, 0
341, 0.50569564965251, 0.28606581465168, 0
342, 0.26252951480366, 0.20485123826712, 0
343, 0.12976644870099, 0.16924116333734, 0
344, 0.078842181192349, 0.24723513187509, 0
345, 0.49328546798091, 0.25877068642424, 0
346, 0.051898150358975, 0.16659309008611, 0
347, 0.18177051337072, 0.17218311323218, 0
348, 0.27753898526114, 0.074049924628191, 0
349, 0.35010475064826, 0.21796630925354, 0
350, 0.86869173170236, -0.054218998661787, 0
351, 0.052759056168942, 0.27347993013132, 0
352, 0.75995261574619, -0.13811450032982, 0
353, 0.68729516406946, 0.0017399192352062, 0
354, 0.86959473542436, 0.0011565696494535, 0
355, 0.48497030800864, -0.17558691093141, 0
356, 0.59305051142786, 0.24902980474774, 0
357, 0.48090197509699, 0.23246245743322, 0
358, 0.32402131566704, -0.019431218158177, 0
359, 0.43702254609435, -0.19879569599994, 0
360, 0.97409273293442, 0.082603430865165, 0
361, 0.94826674070105, 0.11046370889384, 0
362, 0.9741538615556, 0.13770077859069, 0
363, 0.97412927134359, 0.11015179154416, 0
364, 0.94833642270754, 0.1653209148741, 0
365, 0.97419103987341, 0.19263387102706, 0
366, 0.97417122623101, 0.16521550577933, 0
367, 0.21126102737963, 0.2753278294215, 0
368, 0.50694434639094, 0.23314903747283, 0
369, 0.1032783301672, -0.16339419430428, 0
370, 0.45517942355275, 0.28535346077687, 0
371, 0.69702114234574, 0.090244976988614, 0
372, 0.84363957841478, 0.2736968698095, 0
373, 0.051988906434931, -0.21864156833288, 0
374, 0.59812415587281, -0.24882681921039, 0
375, 0.40496065947967, -0.14664593837465, 0
376, 0.20297133813072, 0.036653320585321, 0
377, 0.27682010283202, -0.049700565716214, 0
378, 0.078046384608216, -0.21840570578627, 0
379, 0.30391389366475, 0.1083548615324, 0
380, 0.49709831951501, -0.27482697280329, 0
381, 0.184766843643, 0.27483962003557, 0
382, 0.31763727002287, -0.27344061244331, 0
383, 0.45544979713843, -0.15055721309528, 0
384, 0.46748473290343, -0.083585601747305, 0
385, 0.25318284953856, -0.078853006325536, 0
386, 0.81435204790917, -0.19185484184612, 0
387, 0.70543295088245, -0.2204613955919, 0
388, 0.94783249643059, 0.00054968801802591, 0
389, 0.051206832065102, -0.081770669349026, 0
390, 0.33805367267487, -0.22078327289662, 0
391, 0.28429310038905, -0.19217445898583, 0
392, 0.1555436686615, -0.19057090781758, 0
393, 0.60337528953856, 0.21027770308256, 0
394, 0.20788722649433, 0.17418154388274, 0
395, 0.25701977423578, -0.16392015436074, 0
396, 0.36811603618198, 0.10254816872692, 0
397, 0.20976269060365, -0.24555354915592, 0
398, 0.30762723059316, -0.16580343982041, 0
399, 0.10201178333174, 0.003440678603601, 0
400, 0.44354782761934, -0.2492836300215, 0
401, 0.025824366861605, -0.16468140653919, 0
402, 0.55368518415113, -0.10299822813825, 0
403, 0.26372519223563, 0.22926415824333, 0
404, 0.92194505412047, -0.24604402013661, 0
405, 0.84206130827303, -0.24595479199662, 0
406, 0.78834769282214, -0.27311231472913, 0
407, 0.89661871920326, 0.19298175933003, 0
408, 0.63421406510977, 0.0022371129859144, 0
409, 0.92102845417943, -0.10939270599495, 0
410, 0.86806603282809, -0.10941094712807, 0
411, 0.97404329542493, 0.055131229343697, 0
412, 0.35266452867628, -0.11448772947872, 0
413, 0.25553332793835, -0.13601072027082, 0
414, 0.45612220700969, -0.041631695395562, 0
415, 0.12963699326162, -0.19066526770003, 0
416, 0.35524063525669, -0.1419100352183, 0
417, 0.79348702997728, 0.19589298607844, 0
418, 0.74410380112287, 0.1724460224831, 0
419, 0.68377507168596, 0.27758572953393, 0
420, 0.84517383254695, 0.16699565000693, 0
421, 0.92249995335326, 0.16553543977448, 0
422, 0.67911945177828, -0.27372626200595, 0
423, 0.22778777499183, -0.049598934569846, 0
424, 0.23664892895561, 0.22716731563854, 0
425, 0.077761059625211, -0.19111341019744, 0
426, 0.81660112098795, -0.026405077598268, 0
427, 0.86890603163721, -0.24592119228405, 0
428, 0.73252512385541, -0.19308987286885, 0
429, 0.78723694805372, -0.19213817934157, 0
430, 0.71907630790159, 0.059953068825701, 0
431, 0.84415219075819, 0.029178485132852, 0
432, 0.55035105850938, 0.24154584456278, 0
433, 0.74348751241374, 0.059299637329534, 0
434, 0.076961700175788, -0.10871247193533, 0
435, 0.28856833237662, -0.24635339166493, 0
436, 0.42149034370436, -0.27444811794803, 0
437, 0.48129203598104, -0.046850779348784, 0
438, 0.36689218395836, -0.24783729422143, 0
439, 0.35232558344396, 0.12265004972839, 0
440, 0.13145078541189, 0.24815732648806, 0
441, 0.1557460427986, 0.17056104460598, 0
442, 0.35795844368165, -0.16876735574453, 0
443, 0.23445332191753, -0.21845999287761, 0
444, 0.73357146065522, -0.083506809004224, 0
445, 0.70457311928783, -0.16696537600804, 0
446, 0.89631028591782, -0.27299783085009, 0
447, 0.84228540502373, -0.054220079690288, 0
448, 0.76022123738696, -0.21952416943642, 0
449, 0.97391683002592, 0.00035432857582879, 0
450, 0.71797616866482, 0.20188529672165, 0
451, 0.92261830579174, 0.24660226895643, 0
452, 0.64543279312737, 0.2159598838614, 0
453, 0.66925055828658, 0.21000145896151, 0
454, 0.74286015837017, 0.19928518931711, 0
455, 0.51115509413917, -0.1756923548919, 0
456, 0.79255104484647, 0.22238714785384, 0
457, 0.3903868599539, -0.0018882476358864, 0
458, 0.45915030243656, -0.17490698529123, 0
459, 0.564869726461, -0.17415686078592, 0
460, 0.025568474385213, -0.054921681423791, 0
461, 0.36374784255085, -0.22162901139437, 0
462, 0.1526178564496, -0.022822492211484, 0
463, 0.94841377952636, 0.21969269593842, 0
464, 0.97431472183351, 0.24680951887531, 0
465, 0.97423029227989, 0.21981401177199, 0
466, 0.65155801572724, -0.24788633386764, 0
467, 0.62560990535384, -0.27417504593688, 0
468, 0.65223945441529, -0.27394638968099, 0
469, 0.076572522667962, 0.0025224911766908, 0
470, 0.52018428820238, -0.084710718952396, 0
471, 0.052330480873864, 0.22025672427452, 0
472, 0.07785147984863, 0.1672947808306, 0
473, 0.60741115160814, 0.18780482874552, 0
474, 0.3806437500711, 0.24426896546668, 0
475, 0.42382272716698, 0.22049521157623, 0
476, 0.92232097669341, 0.083325141888639, 0
477, 0.92131442695829, -0.054323717160179, 0
478, 0.84271173058801, -0.2729938432886, 0
479, 0.2050356984104, -0.13518898319134, 0
480, 0.43361741321536, -0.17373809898498, 0
481, 0.13089985477573, -0.24544449448341, 0
482, 0.10514460256553, 0.24764522634453, 0
483, 0.51996339093656, -0.24970369480612, 0
484, 0.051212231342216, 0.057231033649529, 0
485, 0.44271388800684, 0.19849890380526, 0
486, 0.44017904971638, 0.25468621229907, 0
487, 0.25423882021825, -0.10768457924693, 0
488, 0.15479099286927, -0.16297594375225, 0
489, 0.76110554288705, -0.082803154218216, 0
490, 0.81558899589986, -0.27303822209589, 0
491, 0.89502831240548, -0.054260778813272, 0
492, 0.8413020135266, -0.19167646339565, 0
493, 0.22956404195092, 0.095873519448868, 0
494, 0.25649278329252, 0.12690526887894, 0
495, 0.53777390759032, -0.17519866378103, 0
496, 0.12750942510823, 0.032429727402601, 0
497, 0.12777719205015, 0.060297490753962, 0
498, 0.15723290857443, -0.24541850182564, 0
499, 0.31685869719276, 0.18855022566555, 0
500, 0.18465759787198, -0.27274807831413, 0
501, 0.10370301475132, -0.19085084519084, 0
502, 0.79145730154784, 0.001706693565025, 0
503, 0.66602780297866, 0.23431454107696, 0
504, 0.81503276444913, -0.24604500857013, 0
505, 0.76225699696825, -0.054773648566667, 0
506, 0.15715963778782, 0.22297135504822, 0
507, 0.86808838824146, -0.19159142691951, 0
508, 0.32473700756126, 0.084993275072356, 0
509, 0.40658789044768, 0.26624215061161, 0
510, 0.026372435243122, 0.27336281498984, 0
511, 0.60930891890383, 0.15954539919906, 0
512, 0.94884449622576, 0.27335275261878, 0
513, 0.97447981950925, 0.27345748954538, 0
514, 0.29019999996252, 0.20817694808589, 0
515, 0.81982302202217, 0.14059646153526, 0
516, 0.27776839243265, -0.079537467445771, 0
517, 0.27652936420416, 0.043669528284246, 0
518, 0.94777167136569, -0.21914004396466, 0
519, 0.92250056778627, 0.19271484692478, 0
520, 0.84405700549943, 0.24730730668238, 0
521, 0.97380177104478, -0.19223480274533, 0
522, 0.73361972645743, -0.27335606087854, 0
523, 0.56239140836546, 0.2693517496055, 0
524, 0.2823658471701, -0.16471945171169, 0
525, 0.31990925840317, 0.2570627731705, 0
526, 0.54343899463975, -0.22448525927808, 0
527, 0.15280397945363, 0.033650511247657, 0
528, 0.92286092010015, 0.27333536132653, 0
529, 0.026010175621463, -0.27300167646098, 0
530, 0.76804767658875, 0.19734465095291, 0
531, 0.23158587099209, -0.16338213188761, 0
532, 0.3191138832477, 0.2124119150961, 0
533, 0.81461680867366, -0.21899265476816, 0
534, 0.76058124257849, -0.24640347955441, 0
535, 0.34871991806648, 0.1953315949625, 0
536, 0.17989385647921, 0.11861069868697, 0
537, 0.026052326153683, 0.19300287700769, 0
538, 0.41483121923704, -0.22330247824689, 0
539, 0.051649878164965, -0.16417842589585, 0
540, 0.025906799169132, -0.19181756065042, 0
541, 0.026267962678603, 0.24668664819602, 0
542, 0.6484522290878, 0.1906192779754, 0
543, 0.45145623174726, -0.12658348486372, 0
544, 0.50001893628263, 0.24576276064093, 0
545, 0.20438282799584, 0.093266736228619, 0
546, 0.73501441801349, -0.055300863198007, 0
547, 0.78715001818182, -0.16494013010634, 0
548, 0.78913153266862, -0.054459053109339, 0
549, 0.92119552200091, -0.19168772119448, 0
550, 0.66805107016235, 0.031346603095183, 0
551, 0.94797058109846, 0.027999979536961, 0
552, 0.732721129103, -0.11135432537934, 0
553, 0.69543173537618, 0.17868006711219, 0
554, 0.89655727678127, 0.21992644881704, 0
555, 0.67326143874177, 0.15466675219212, 0
556, 0.81958025084971, 0.16785419588943, 0
557, 0.65299112254013, 0.091101360538469, 0
558, 0.84488761732793, 0.19399570952631, 0
559, 0.7417020369393, 0.030580008470466, 0
560, 0.81833395608613, 0.029517833412344, 0
561, 0.025946665335971, 0.16603631017056, 0
562, 0.36078905223655, -0.19529649706523, 0
563, 0.26485376694061, 0.27665487697399, 0
564, 0.21069706267397, 0.25052395491775, 0
565, 0.10380604181273, 0.16816681329522, 0
566, 0.23034188116497, -0.1354645837585, 0
567, 0.18267508804318, 0.19832096910013, 0
568, 0.57172537736982, -0.052925633127304, 0
569, 0.32358273364699, 0.052411820560269, 0
570, 0.58987000184602, -0.017991037822406, 0
571, 0.10210222936585, -0.052472666881005, 0
572, 0.02556761297045, 0.028675016057322, 0
573, 0.8709521045801, 0.13910880389933, 0
574, 0.89655042896095, 0.24671755734844, 0
575, 0.92174902845101, 0.00074883477646959, 0
576, 0.76544525913064, 0.0018228632487554, 0
577, 0.41419953575309, -0.048468405464354, 0
578, 0.521231414492, 0.20871466134068, 0
579, 0.34971939451782, 0.23919466089989, 0
580, 0.46142036168256, 0.21722629238671, 0
581, 0.38632554984518, 0.20553573896373, 0
582, 0.48810903748846, 0.22102254093866, 0
583, 0.94756394789748, -0.054384763636889, 0
584, 0.78748525194872, -0.21921230158225, 0
585, 0.73285618473582, -0.21993858298423, 0
586, 0.025546481297278, -0.027117122700951, 0
587, 0.28060652279634, -0.13688910785672, 0
588, 0.26414684562379, -0.27303580143031, 0
589, 0.50748180569523, -0.15185919016159, 0
590, 0.57467028609847, 0.23665688762424, 0
591, 0.870344508368, 0.24694996150572, 0
592, 0.71007186287166, 0.27643946245454, 0
593, 0.78761675190753, -0.11006255991919, 0
594, 0.94742270304705, -0.16447595842932, 0
595, 0.97373250238692, -0.1647005334945, 0
596, 0.40241033255233, 0.28291124556285, 0
597, 0.23098325017256, 0.12352788202056, 0
598, 0.27628209284972, -0.018978332771644, 0
599, 0.30556670638182, -0.13815549419689, 0
600, 0.07917587347311, 0.27364263792159, 0
601, 0.3703430858951, -0.27395791427111, 0
602, 0.69077213892826, 0.23054451536767, 0
603, 0.17962383431782, -0.13512779922578, 0
604, 0.5994566657666, -0.27439366681126, 0
605, 0.10493662202071, -0.27277410521103, 0
606, 0.50759678819782, -0.047793522513972, 0
607, 0.32632775551336, -0.082944594059377, 0
608, 0.46585039975066, -0.22448678541723, 0
609, 0.31994837078285, 0.23511221064526, 0
610, 0.72048300449255, 0.089129689180623, 0
611, 0.22926881195464, -0.10721789290831, 0
612, 0.75984689865829, -0.16542089940215, 0
613, 0.67800880798474, -0.22109051406566, 0
614, 0.86840608619859, -0.21879812179868, 0
615, 0.025743176060169, -0.1374764058642, 0
616, 0.17841762612567, 0.06326552507921, 0
617, 0.13155824797209, -0.27273762651984, 0
618, 0.30029816871375, -0.018804677560266, 0
619, 0.89668751142417, 0.13860653061387, 0
620, 0.76034915323847, -0.11058410623405, 0
621, 0.5302827128333, -0.1279668980618, 0
622, 0.3148263647448, -0.24679139975559, 0
623, 0.34589270904962, 0.059873616865138, 0
624, 0.078294306583312, -0.24564031871664, 0
625, 0.6621811148449, 0.2571714203689, 0
626, 0.67660764712956, -0.16809501365841, 0
627, 0.94745972418314, -0.081894333867517, 0
628, 0.051076931201656, -0.026222253572441, 0
629, 0.30215030251812, -0.080830267767465, 0
630, 0.13034793102109, 0.19577164714012, 0
631, 0.9737047284409, -0.13708082521437, 0
632, 0.92261946217587, -0.27305492997926, 0
633, 0.1583570912109, 0.27444067184302, 0
634, 0.81848361779463, 0.22144811633721, 0
635, 0.74460802348001, 0.088007752436594, 0
636, 0.4169907955858, 0.2346988411735, 0
637, 0.5903917669016, 0.17834723275555, 0
638, 0.52546169798318, 0.24466996327056, 0
639, 0.87043488367222, 0.056541507398825, 0
640, 0.30771847459386, 0.13636895236513, 0
641, 0.2110981608283, -0.27280340399233, 0
642, 0.41832412325302, -0.074318256845128, 0
643, 0.81955823154107, 0.085337816519568, 0
644, 0.49439430881434, -0.24971761222449, 0
645, 0.54829128197071, -0.081330440596759, 0
646, 0.18242781921266, -0.21807584631703, 0
647, 0.34737580267025, -0.021755457487039, 0
648, 0.92216566597009, 0.055809384181238, 0
649, 0.59243290055587, -0.17270565773741, 0
650, 0.58729892159701, 0.26673472752045, 0
651, 0.078511121735496, 0.22073014328119, 0
652, 0.051121068271353, -0.054040509829618, 0
653, 0.26227259633238, -0.24599891601692, 0
654, 0.051504975854362, 0.1122858720118, 0
655, 0.41157161824654, -0.19775183422881, 0
656, 0.71582172936615, 0.22759264048681, 0
657, 0.75995843971152, -0.19254338491195, 0
658, 0.12773464704067, -0.07978079755754, 0
659, 0.20606574155395, -0.16306988864312, 0
660, 0.10200836403157, -0.024519985475988, 0
661, 0.25866028236646, -0.19150328929983, 0
662, 0.9211430413133, -0.081862966390132, 0
663, 0.97392413701371, -0.21949567447567, 0
664, 0.67811238073322, -0.057550319630539, 0
665, 0.89471618400193, -0.19159411999061, 0
666, 0.64961640748612, -0.19568953623148, 0
667, 0.62347029453453, -0.22257743450126, 0
668, 0.65066207674566, -0.22180895047636, 0
669, 0.73656640790725, 0.27554024429826, 0
670, 0.87053616765409, 0.22026174522893, 0
671, 0.92196980932785, 0.028279663792347, 0
672, 0.58989484726516, -0.14766274053075, 0
673, 0.64739015886488, -0.14308045084658, 0
674, 0.62036915886221, -0.17106492481093, 0
675, 0.64849364200739, -0.16947861712079, 0
676, 0.89451371278308, -0.1368607928402, 0
677, 0.94769274387334, -0.026902834741482, 0
678, 0.65025241143087, 0.16129729765396, 0
679, 0.9738500771442, -0.026992039658305, 0
680, 0.10255386492495, -0.10815608456714, 0
681, 0.12864210223806, 0.11533769132733, 0
682, 0.076785958834844, 0.058113670152293, 0
683, 0.30146188185191, 0.078778949762131, 0
684, 0.10228727058219, -0.08036385168463, 0
685, 0.59651358604658, -0.22333220223754, 0
686, 0.20545672375386, 0.12081128614729, 0
687, 0.25316725081746, 0.070397514386407, 0
688, 0.078179740327736, 0.1940931577602, 0
689, 0.58127677628671, 0.28369367316445, 0
690, 0.33281604645401, -0.16716845461209, 0
691, 0.32811417740265, 0.11479299547117, 0
692, 0.12808802463123, -0.10769394106149, 0
693, 0.48837510404375, -0.20000395811381, 0
694, 0.54178540940906, -0.061517455744039, 0
695, 0.30985964640954, -0.19304665752762, 0
696, 0.20415343795274, -0.10705208232604, 0
697, 0.50332325809944, -0.12871974761194, 0
698, 0.10211474571818, 0.031344875367078, 0
699, 0.53445326597664, -0.044015702054138, 0
700, 0.43444568335134, 0.26916544873374, 0
701, 0.55603955793075, 0.28490103707704, 0
702, 0.49537353471169, 0.21023770063213, 0
703, 0.15778369081165, 0.248790044712, 0
704, 0.05210567734201, -0.27290956980022, 0
705, 0.37488550477364, 0.28133408621329, 0
706, 0.26445919132608, 0.25313656192835, 0
707, 0.36624682288845, 0.071503987822674, 0
708, 0.39814503813146, -0.094844240330772, 0
709, 0.10288922092749, -0.13583318409745, 0
710, 0.2284729849243, 0.067512840371402, 0
711, 0.13025656529465, -0.21809516724626, 0
712, 0.12748966828518, -0.051760371659061, 0
713, 0.34841338395745, -0.055777873059067, 0
714, 0.57848356104016, -0.074866316708268, 0
715, 0.49149935564163, -0.22474780514192, 0
716, 0.34410794216326, -0.27369213493885, 0
717, 0.18046461987478, -0.16294581539606, 0
718, 0.15647623862497, 0.1969145221854, 0
719, 0.57182110052719, -0.24923152632224, 0
720, 0.89667559236869, 0.16587184569818, 0
721, 0.46201812594692, -0.062398265024384, 0
722, 0.7205616317188, 0.14716330032362, 0
723, 0.76330803534137, 0.27485411110264, 0
724, 0.64606432910195, -0.088823849407241, 0
725, 0.61265453595724, -0.064995243076221, 0
726, 0.64696996907486, -0.060019529939853, 0
727, 0.33535580578022, -0.19410315036948, 0
728, 0.23601031309493, -0.24573350624426, 0
729, 0.47197025633731, -0.2747665729754, 0
730, 0.40829233356418, -0.17221404572851, 0
731, 0.33394092663236, 0.14285894383503, 0
732, 0.29139081108664, 0.23186461735333, 0
733, 0.10559373524493, 0.273852896464, 0
734, 0.10425535176729, 0.1948437644244, 0
735, 0.28813351445826, 0.18358679064993, 0
736, 0.22840422507373, -0.078598507776538, 0
737, 0.65781673065364, 0.27897470777638, 0
738, 0.89599036817748, 0.028562645124589, 0
739, 0.97398320550701, 0.027700852709628, 0
740, 0.70495750043806, -0.19379466893262, 0
741, 0.94754730314482, -0.1918881146129, 0
742, 0.69343220417034, 0.20537061517006, 0
743, 0.67250706360135, 0.060792067966496, 0
744, 0.32484683504561, -0.052415716997049, 0
745, 0.43242503108039, -0.032500482084008, 0
746, 0.47708748981166, -0.12821484935897, 0
747, 0.051826252282794, -0.19144044153214, 0
748, 0.86832711596006, -0.081847197632127, 0
749, 0.78786262067377, -0.24619329401352, 0
750, 0.92152334384473, -0.026784468976911, 0
751, 0.89503779000604, -0.21881805590733, 0
752, 0.94809451844388, 0.055475403273487, 0
753, 0.10295794458434, 0.11411814770429, 0
754, 0.17890675946573, -0.10711059261607, 0
755, 0.7935892586069, 0.058022798097515, 0
756, 0.18140599840578, -0.1905853234528, 0
757, 0.49861703128794, -0.10648361971232, 0
758, 0.38964193758672, 0.15653755686252, 0
759, 0.17794113500911, -0.050488093730999, 0
760, 0.30034020766509, 0.047349540584267, 0
761, 0.22776807034931, 0.038549764465349, 0
762, 0.051341918757072, 0.084847315733891, 0
763, 0.56752903255296, -0.19893989772222, 0
764, 0.46260024556927, -0.19957404056828, 0
765, 0.20353785068512, 0.065183534526944, 0
766, 0.37547831490784, 0.13019803727924, 0
767, 0.3409469246467, -0.24729574380346, 0
768, 0.18351413065001, -0.24545169538463, 0
769, 0.17796936419398, 0.035042497457865, 0
770, 0.051479632692406, -0.13683087609767, 0
771, 0.70989973503732, -0.027256524966248, 0
772, 0.94737632039009, -0.13697193107462, 0
773, 0.20721492011008, -0.19072964781861, 0
774, 0.74484401717903, 0.14483399546941, 0
775, 0.76837014745344, 0.058640316688517, 0
776, 0.86961268596408, -0.27297950617444, 0
777, 0.33043214897677, -0.13983890426543, 0
778, 0.52230343007662, -0.27481441477799, 0
779, 0.73705013228164, -0.026796508624211, 0
780, 0.70631358322462, -0.2735266647022, 0
781, 0.89459382670111, -0.10937719207306, 0
782, 0.8945488232354, -0.16427177858848, 0
783, 0.7046090476968, -0.11246918806025, 0
784, 0.84288753113152, -0.026453233275156, 0
785, 0.23556563991095, 0.2021945565286, 0
786, 0.31941148858867, 0.27860498365234, 0
787, 0.44714323839419, -0.10300607539645, 0
788, 0.84353226989551, 0.0013573074204989, 0
789, 0.46723493651018, 0.2575638418049, 0
790, 0.47389844097004, 0.24464029006956, 0
791, 0.4466140117904, 0.24108329603937, 0
792, 0.41137395330651, 0.25009687746172, 0
793, 0.2099483071825, 0.22546951488638, 0
794, 0.076638717455811, -0.053229862769404, 0
795, 0.49334254195418, -0.085358087999742, 0
796, 0.252308727636, 0.040833222847755, 0
797, 0.25199490932057, -0.019537512532838, 0
798, 0.97378891644961, -0.054418397578105, 0
799, 0.86912797809967, -0.026544103002164, 0
800, 0.025545819481428, 0.00078383457163861, 0
801, 0.67587905320152, -0.11406482249609, 0
802, 0.64646867374594, -0.11631105033939, 0
803, 0.55810445377873, -0.12595405434028, 0
804, 0.23796392810387, 0.27592596254349, 0
805, 0.5832473448549, -0.098505923312266, 0
806, 0.78726332846565, -0.13758917725596, 0
807, 0.40156831196333, -0.12093642160575, 0
808, 0.20269391438826, -0.021107217304364, 0
809, 0.7651593725467, 0.24945128995289, 0
810, 0.71316898436777, 0.25237461808255, 0
811, 0.94739306201084, -0.10943425415732, 0
812, 0.68753376161208, 0.25451684253371, 0
813, 0.92148641260534, -0.21892523845954, 0
814, 0.63706453387579, 0.260271953856, 0
815, 0.1581815005444, -0.27272759373232, 0
816, 0.56982999550034, -0.22399406965996, 0
817, 0.13197373556896, 0.27411586732987, 0
818, 0.76099608685325, -0.27321772496793, 0
819, 0.81461783849949, -0.10972289248985, 0
820, 0.12853470270282, -0.13547868572237, 0
821, 0.3836419059899, 0.22540183340913, 0
822, 0.20845647447263, -0.21820982190572, 0
823, 0.63205806362372, 0.28055588447293, 0
824, 0.46895423400034, -0.24957373765, 0
825, 0.71957394578526, 0.17508631353559, 0
826, 0.89649002251159, 0.083716935645804, 0
827, 0.79140895938624, 0.24850945303676, 0
828, 0.46917238532119, 0.20696829387059, 0
829, 0.73905187131706, 0.25071220284228, 0
830, 0.81772440260441, 0.24781379689713, 0
831, 0.89668332326002, 0.27338916263221, 0
832, 0.1783378831974, -0.078889990752743, 0
833, 0.92248290981817, 0.13822174387752, 0
834, 0.077471125155811, -0.1637463793546, 0
835, 0.17774320302724, 0.0065891578886357, 0
836, 0.55681106852349, 0.22615266920822, 0
837, 0.84117452080749, -0.16439882077833, 0
838, 0.41267697648476, 0.1807733584791, 0
839, 0.2375917914911, -0.27289811199796, 0
840, 0.69670358040413, 0.15028451285188, 0
841, 0.56934551481211, 0.1924239148324, 0
842, 0.71340628387757, 0.001835372702822, 0
843, 0.15411842613496, -0.13523580252317, 0
844, 0.73943794410877, 0.0018710096831781, 0
845, 0.051328728721682, -0.10936271131643, 0
846, 0.34707301497046, 0.27987037479582, 0
847, 0.56164398560915, -0.034883557824269, 0
848, 0.076571155116542, -0.02536441114921, 0
849, 0.10456700573113, -0.24552112834924, 0
850, 0.20900461381097, 0.20005388102216, 0
851, 0.051122560450553, 0.029482850383038, 0
852, 0.43251850613665, 0.20836844351168, 0
853, 0.31225331440199, -0.22001342370625, 0
854, 0.6066171373814, 0.28218722328615, 0
855, 0.61215184491695, 0.26358370631025, 0
856, 0.61729531869348, 0.24400156777347, 0
857, 0.62191723343513, 0.22304911140848, 0
858, 0.62575096447518, 0.19987905315104, 0
859, 0.62813758805188, 0.172281392194, 0
860, 0.61080558792561, 0.0065807869443366, 0
861, 0.62385860334403, 0.032840966839738, 0
862, 0.63109450995364, 0.059845901547452, 0
863, 0.6332817961606, 0.089090166311388, 0
864, 0.92242671039655, 0.11080682335701, 0
865, 0.89662914197131, 0.11121097707912, 0
866, 0.87090204859132, 0.11170367222513, 0
867, 0.84528258884513, 0.11231343236701, 0
868, 0.81981959459401, 0.11307072693365, 0
869, 0.79457415416435, 0.11400996909908, 0
870, 0.7696184941635, 0.11517129137304, 0
871, 0.74503311406557, 0.11659943438156, 0
872, 0.72089486897627, 0.11834415616963, 0
873, 0.69724589691887, 0.12046568845812, 0
874, 0.67401698639425, 0.12306544406013, 0
875, 0.65084628510696, 0.12640971489978, 0
876, 0.62665951116506, 0.13137162916754, 0
877, 0.02584606287243, 0.13895182522661, 0
878, 0.051693212754012, 0.13953961289748, 0
879, 0.077535027638361, 0.14030782311925, 0
880, 0.10336709040512, 0.14126383296233, 0
881, 0.12918788879592, 0.14243581383866, 0
882, 0.1550014334216, 0.14386840095455, 0
883, 0.1808193860852, 0.14562300982254, 0
884, 0.20666641320735, 0.14778090521315, 0
885, 0.23259291969201, 0.15044874281085, 0
886, 0.25870302514845, 0.1537653434838, 0
887, 0.28523052059523, 0.15791539114074, 0
888, 0.31279145829695, 0.16318751551035, 0
889, 0.3434462093059, 0.17030063563757, 0
890, 0.38770043443561, 0.1830051793013, 0
891, 0.20269401189471, 0.0078270689886678, 0
892, 0.22744149994151, 0.0091905740757538, 0
893, 0.25194972830997, 0.010702929753841, 0
894, 0.27619187186125, 0.012397275393723, 0
895, 0.30017157227193, 0.014330181334236, 0
896, 0.32397470334886, 0.016620279567562, 0
897, 0.34788081588942, 0.019559978350925, 0
898, 0.39603807186531, -0.27421555869559, 0
899, 0.39259118670432, -0.24837694773551, 0
900, 0.38932763263962, -0.22249200455749, 0
901, 0.38618001304447, -0.1965475689985, 0
902, 0.38309700028545, -0.17049925840329, 0
903, 0.38005459280615, -0.14425017926761, 0
904, 0.37706582343865, -0.11760618130568, 0
905, 0.37420250567719, -0.090175870140014, 0
906, 0.37166163527876, -0.061085457466845, 0
907, 0.37003505290866, -0.027812940571464, 0
908, 0.37255939673094, 0.023949749601381, 0
******* E L E M E N T S *************
*ELEMENT, type=T3D2, ELSET=Line1
1, 1, 10
2, 10, 18
3, 18, 11
4, 11, 19
5, 19, 12
6, 12, 20
7, 20, 13
8, 13, 21
9, 21, 14
10, 14, 22
11, 22, 15
12, 15, 23
13, 23, 16
14, 16, 24
15, 24, 17
16, 17, 2
*ELEMENT, type=T3D2, ELSET=Line2
17, 2, 25
18, 25, 28
19, 28, 26
20, 26, 29
21, 29, 27
22, 27, 3
*ELEMENT, type=T3D2, ELSET=Line3
23, 3, 30
24, 30, 38
25, 38, 31
26, 31, 39
27, 39, 32
28, 32, 40
29, 40, 33
30, 33, 41
31, 41, 34
32, 34, 42
33, 42, 35
34, 35, 43
35, 43, 36
36, 36, 44
37, 44, 37
38, 37, 4
*ELEMENT, type=T3D2, ELSET=Line4
39, 4, 45
40, 45, 56
41, 56, 46
42, 46, 57
43, 57, 47
44, 47, 58
45, 58, 48
46, 48, 59
47, 59, 49
48, 49, 60
49, 60, 50
50, 50, 61
51, 61, 51
52, 51, 62
53, 62, 52
54, 52, 63
55, 63, 53
56, 53, 64
57, 64, 54
58, 54, 65
59, 65, 55
60, 55, 5
*ELEMENT, type=T3D2, ELSET=Line5
61, 5, 66
62, 66, 74
63, 74, 67
64, 67, 75
65, 75, 68
66, 68, 76
67, 76, 69
68, 69, 77
69, 77, 70
70, 70, 78
71, 78, 71
72, 71, 79
73, 79, 72
74, 72, 80
75, 80, 73
76, 73, 6
*ELEMENT, type=T3D2, ELSET=Line6
77, 6, 81
78, 81, 84
79, 84, 82
80, 82, 85
81, 85, 83
82, 83, 7
*ELEMENT, type=T3D2, ELSET=Line7
83, 7, 86
84, 86, 94
85, 94, 87
86, 87, 95
87, 95, 88
88, 88, 96
89, 96, 89
90, 89, 97
91, 97, 90
92, 90, 98
93, 98, 91
94, 91, 99
95, 99, 92
96, 92, 100
97, 100, 93
98, 93, 8
*ELEMENT, type=T3D2, ELSET=Line8
99, 8, 101
100, 101, 112
101, 112, 102
102, 102, 113
103, 113, 103
104, 103, 114
105, 114, 104
106, 104, 115
107, 115, 105
108, 105, 116
109, 116, 106
110, 106, 117
111, 117, 107
112, 107, 118
113, 118, 108
114, 108, 119
115, 119, 109
116, 109, 120
117, 120, 110
118, 110, 121
119, 121, 111
120, 111, 1
*ELEMENT, type=T3D2, ELSET=Line9
121, 9, 122
122, 122, 136
123, 136, 123
124, 123, 137
125, 137, 124
126, 124, 138
127, 138, 125
128, 125, 139
129, 139, 126
130, 126, 140
131, 140, 127
132, 127, 141
133, 141, 128
134, 128, 142
135, 142, 129
136, 129, 143
137, 143, 130
138, 130, 144
139, 144, 131
140, 131, 145
141, 145, 132
142, 132, 146
143, 146, 133
144, 133, 147
145, 147, 134
146, 134, 148
147, 148, 135
148, 135, 9
*ELEMENT, type=CPS4, ELSET=Surface1
149, 404, 813, 751, 166
150, 270, 340, 548, 269
151, 729, 28, 26, 380
152, 850, 793, 161, 567
153, 702, 125, 138, 578
154, 847, 570, 147, 133
155, 886, 194, 189, 885
156, 633, 98, 91, 817
157, 703, 633, 817, 440
158, 435, 653, 588, 227
159, 194, 342, 785, 189
160, 308, 387, 613, 164
161, 272, 300, 676, 782
162, 320, 515, 556, 241
163, 166, 751, 614, 427
164, 856, 323, 814, 855
165, 606, 332, 694, 699
166, 803, 228, 672, 233
167, 700, 257, 370, 198
168, 342, 403, 424, 785
169, 341, 179, 84, 82
170, 199, 541, 112, 102
171, 307, 250, 563, 706
172, 63, 362, 363, 52
173, 52, 363, 360, 62
174, 363, 361, 265, 360
175, 362, 239, 361, 363
176, 63, 53, 366, 362
177, 362, 366, 364, 239
178, 366, 365, 242, 364
179, 53, 64, 365, 366
180, 541, 510, 101, 112
181, 382, 227, 15, 23
182, 321, 381, 633, 703
183, 178, 171, 526, 186
184, 764, 608, 715, 693
185, 867, 185, 324, 866
186, 810, 829, 669, 592
187, 855, 814, 823, 854
188, 458, 764, 693, 355
189, 543, 383, 150, 746
190, 651, 344, 316, 471
191, 852, 485, 828, 580
192, 425, 747, 373, 378
193, 172, 836, 432, 638
194, 906, 905, 708, 339
195, 710, 493, 545, 765
196, 896, 569, 760, 895
197, 661, 255, 443, 203
198, 546, 779, 771, 293
199, 792, 486, 700, 509
200, 739, 411, 752, 551
201, 427, 614, 335, 405
202, 213, 121, 111, 529
203, 641, 500, 13, 21
204, 718, 506, 211, 630
205, 716, 382, 23, 16
206, 316, 351, 510, 541
207, 901, 900, 538, 655
208, 732, 307, 706, 403
209, 189, 785, 850, 394
210, 744, 156, 629, 607
211, 736, 285, 696, 611
212, 380, 26, 29, 778
213, 196, 692, 820, 843
214, 220, 213, 529, 704
215, 642, 202, 787, 152
216, 304, 882, 881, 681
217, 767, 622, 382, 716
218, 181, 637, 511, 473
219, 590, 192, 356, 173
220, 838, 140, 126, 485
221, 793, 564, 321, 161
222, 370, 184, 85, 83
223, 612, 352, 338, 278
224, 449, 739, 551, 388
225, 4, 45, 167, 37
226, 411, 360, 265, 752
227, 490, 504, 749, 406
228, 781, 301, 748, 410
229, 741, 594, 272, 549
230, 338, 552, 783, 336
231, 301, 491, 350, 748
232, 45, 56, 299, 167
233, 36, 632, 446, 43
234, 33, 818, 522, 40
235, 238, 314, 587, 599
236, 617, 605, 19, 12
237, 727, 695, 853, 390
238, 158, 25, 28, 729
239, 474, 792, 509, 168
240, 154, 753, 159, 208
241, 394, 850, 567, 347
242, 441, 718, 630, 343
243, 452, 453, 503, 323
244, 566, 479, 659, 531
245, 311, 578, 312, 175
246, 823, 737, 72, 80
247, 833, 239, 364, 421
248, 780, 308, 164, 422
249, 837, 295, 274, 337
250, 686, 884, 883, 536
251, 695, 391, 169, 853
252, 179, 701, 81, 84
253, 706, 563, 804, 254
254, 56, 46, 663, 299
255, 386, 337, 547, 429
256, 652, 460, 334, 389
257, 491, 266, 799, 350
258, 648, 671, 551, 752
259, 245, 775, 755, 187
260, 542, 261, 453, 452
261, 867, 866, 573, 264
262, 255, 773, 822, 443
263, 599, 587, 524, 398
264, 832, 217, 196, 754
265, 694, 645, 714, 568
266, 188, 327, 115, 105
267, 377, 176, 385, 516
268, 898, 601, 24, 17
269, 437, 149, 332, 606
270, 217, 658, 692, 196
271, 723, 235, 77, 70
272, 758, 127, 140, 838
273, 861, 148, 134, 860
274, 506, 703, 440, 211
275, 514, 732, 403, 342
276, 843, 820, 225, 488
277, 713, 744, 607, 226
278, 356, 856, 855, 650
279, 547, 806, 352, 612
280, 492, 837, 337, 386
281, 222, 887, 886, 494
282, 574, 451, 528, 831
283, 183, 393, 192, 590
284, 665, 782, 258, 507
285, 619, 833, 421, 720
286, 707, 396, 204, 623
287, 476, 648, 752, 265
288, 637, 123, 136, 511
289, 456, 634, 830, 827
290, 193, 197, 174, 215
291, 639, 246, 738, 249
292, 791, 790, 789, 486
293, 875, 874, 555, 678
294, 890, 838, 485, 852
295, 184, 341, 82, 85
296, 187, 755, 319, 643
297, 484, 762, 327, 188
298, 848, 628, 652, 794
299, 284, 231, 216, 719
300, 588, 839, 14, 22
301, 822, 646, 768, 397
302, 807, 375, 232, 223
303, 396, 128, 141, 766
304, 540, 120, 110, 302
305, 891, 376, 769, 835
306, 795, 757, 273, 470
307, 899, 898, 436, 182
308, 155, 770, 539, 834
309, 64, 54, 465, 365
310, 365, 465, 463, 242
311, 465, 464, 243, 463
312, 54, 65, 464, 465
313, 163, 467, 468, 466
314, 466, 468, 422, 164
315, 468, 31, 39, 422
316, 467, 38, 31, 468
317, 226, 607, 325, 412
318, 759, 288, 217, 832
319, 250, 88, 96, 563
320, 758, 838, 890, 230
321, 624, 220, 704, 162
322, 561, 537, 113, 103
323, 170, 841, 637, 181
324, 785, 424, 793, 850
325, 581, 475, 636, 821
326, 502, 263, 426, 317
327, 814, 625, 737, 823
328, 868, 867, 264, 515
329, 46, 57, 521, 663
330, 676, 781, 410, 280
331, 751, 665, 507, 614
332, 534, 448, 585, 267
333, 156, 377, 516, 629
334, 893, 796, 761, 892
335, 894, 517, 796, 893
336, 908, 129, 142, 707
337, 434, 845, 770, 155
338, 885, 189, 394, 884
339, 884, 394, 347, 883
340, 653, 728, 839, 588
341, 629, 516, 314, 238
342, 314, 487, 413, 587
343, 332, 470, 645, 694
344, 313, 527, 496, 326
345, 593, 269, 489, 620
346, 857, 452, 323, 856
347, 47, 58, 631, 595
348, 811, 627, 662, 409
349, 899, 438, 601, 898
350, 201, 286, 157, 497
351, 455, 178, 186, 495
352, 359, 177, 608, 764
353, 587, 413, 395, 524
354, 598, 797, 176, 377
355, 400, 158, 729, 824
356, 211, 440, 482, 200
357, 169, 203, 653, 435
358, 816, 719, 374, 685
359, 586, 117, 107, 460
360, 659, 717, 756, 773
361, 577, 642, 152, 221
362, 171, 483, 284, 526
363, 900, 899, 182, 538
364, 863, 9, 135, 862
365, 738, 237, 575, 671
366, 317, 426, 784, 788
367, 697, 589, 153, 621
368, 51, 62, 360, 411
369, 285, 832, 754, 696
370, 35, 776, 478, 42
371, 337, 274, 806, 547
372, 375, 730, 480, 232
373, 882, 441, 343, 881
374, 351, 100, 93, 510
375, 379, 640, 222, 214
376, 65, 55, 513, 464
377, 464, 513, 512, 243
378, 513, 66, 74, 512
379, 55, 5, 66, 513
380, 874, 873, 840, 555
381, 849, 624, 162, 605
382, 276, 318, 809, 829
383, 372, 244, 68, 76
384, 611, 696, 479, 566
385, 459, 763, 253, 649
386, 529, 111, 1, 10
387, 745, 221, 721, 414
388, 57, 47, 595, 521
389, 657, 612, 278, 428
390, 241, 556, 306, 417
391, 515, 264, 420, 556
392, 749, 584, 448, 534
393, 274, 819, 593, 806
394, 336, 783, 801, 289
395, 258, 280, 295, 837
396, 790, 544, 345, 789
397, 381, 90, 98, 633
398, 367, 97, 90, 381
399, 580, 582, 357, 330
400, 765, 545, 219, 616
401, 344, 600, 351, 316
402, 804, 89, 97, 367
403, 565, 734, 688, 472
404, 312, 124, 137, 841
405, 309, 241, 417, 530
406, 197, 173, 523, 174
407, 318, 456, 827, 809
408, 431, 788, 354, 246
409, 591, 574, 831, 244
410, 249, 738, 671, 648
411, 828, 139, 125, 702
412, 58, 48, 294, 631
413, 662, 477, 491, 301
414, 678, 555, 261, 542
415, 335, 492, 386, 533
416, 493, 597, 686, 545
417, 604, 30, 38, 467
418, 347, 567, 718, 441
419, 650, 855, 854, 689
420, 787, 543, 746, 209
421, 500, 815, 20, 13
422, 680, 434, 155, 709
423, 682, 208, 762, 484
424, 286, 304, 681, 157
425, 503, 602, 812, 625
426, 453, 742, 602, 503
427, 560, 317, 788, 431
428, 439, 230, 731, 691
429, 831, 528, 67, 75
430, 438, 767, 716, 601
431, 643, 319, 236, 185
432, 755, 160, 560, 319
433, 167, 299, 298, 297
434, 504, 533, 584, 749
435, 819, 270, 269, 593
436, 614, 507, 492, 335
437, 478, 405, 504, 490
438, 324, 639, 249, 826
439, 475, 330, 791, 636
440, 450, 454, 276, 656
441, 152, 787, 209, 384
442, 323, 503, 625, 814
443, 602, 656, 810, 812
444, 720, 421, 519, 407
445, 625, 812, 419, 737
446, 864, 476, 265, 361
447, 839, 641, 21, 14
448, 735, 514, 342, 194
449, 403, 706, 254, 424
450, 334, 118, 108, 207
451, 786, 95, 88, 250
452, 881, 343, 565, 880
453, 571, 794, 328, 684
454, 202, 223, 543, 787
455, 707, 142, 128, 396
456, 315, 660, 571, 712
457, 709, 155, 834, 369
458, 264, 573, 331, 420
459, 454, 530, 318, 276
460, 227, 588, 22, 15
461, 841, 137, 123, 637
462, 883, 347, 441, 882
463, 510, 93, 8, 101
464, 689, 854, 73, 6
465, 368, 172, 638, 544
466, 417, 306, 634, 456
467, 407, 519, 329, 554
468, 826, 249, 648, 476
469, 671, 575, 388, 551
470, 446, 166, 427, 776
471, 663, 521, 741, 518
472, 397, 768, 500, 641
473, 498, 481, 617, 815
474, 516, 385, 487, 314
475, 325, 238, 599, 777
476, 763, 816, 685, 253
477, 756, 392, 180, 646
478, 696, 754, 603, 479
479, 904, 412, 416, 903
480, 544, 638, 193, 345
481, 401, 109, 120, 540
482, 418, 309, 530, 454
483, 396, 766, 439, 204
484, 293, 771, 279, 664
485, 297, 298, 404, 632
486, 530, 417, 456, 318
487, 507, 258, 837, 492
488, 821, 636, 792, 474
489, 877, 561, 103, 114
490, 887, 735, 194, 886
491, 733, 99, 92, 600
492, 509, 700, 198, 596
493, 655, 538, 177, 359
494, 376, 765, 616, 769
495, 424, 254, 564, 793
496, 660, 848, 794, 571
497, 840, 722, 825, 553
498, 556, 420, 558, 306
499, 150, 355, 455, 589
500, 714, 805, 283, 725
501, 328, 389, 845, 434
502, 649, 253, 291, 674
503, 539, 401, 540, 747
504, 558, 252, 670, 251
505, 870, 245, 187, 869
506, 869, 187, 643, 868
507, 769, 616, 201, 527
508, 473, 511, 876, 859
509, 600, 92, 100, 351
510, 578, 138, 124, 312
511, 631, 294, 811, 772
512, 61, 51, 411, 739
513, 575, 750, 677, 388
514, 60, 50, 449, 679
515, 760, 683, 348, 517
516, 461, 390, 767, 438
517, 691, 731, 640, 379
518, 494, 886, 885, 597
519, 390, 853, 622, 767
520, 299, 663, 518, 298
521, 385, 736, 611, 487
522, 257, 195, 184, 370
523, 847, 568, 277, 570
524, 654, 878, 877, 259
525, 853, 169, 435, 622
526, 715, 644, 483, 171
527, 59, 49, 798, 268
528, 876, 122, 9, 863
529, 620, 489, 444, 552
530, 585, 428, 740, 387
531, 414, 437, 145, 131
532, 472, 688, 190, 346
533, 603, 843, 488, 717
534, 398, 524, 391, 695
535, 762, 654, 259, 327
536, 740, 445, 626, 292
537, 794, 652, 389, 328
538, 495, 186, 763, 459
539, 827, 830, 296, 235
540, 722, 774, 418, 825
541, 554, 329, 451, 574
542, 852, 580, 330, 475
543, 737, 419, 79, 72
544, 271, 320, 241, 309
545, 329, 463, 243, 451
546, 866, 865, 619, 573
547, 854, 823, 80, 73
548, 788, 784, 799, 354
549, 357, 368, 544, 790
550, 701, 689, 6, 81
551, 901, 562, 461, 900
552, 457, 229, 577, 206
553, 479, 603, 717, 659
554, 860, 134, 147, 570
555, 576, 262, 263, 502
556, 872, 871, 774, 722
557, 800, 572, 116, 106
558, 153, 495, 459, 228
559, 902, 901, 655, 730
560, 601, 716, 16, 24
561, 632, 404, 166, 446
562, 818, 534, 267, 522
563, 410, 748, 281, 165
564, 269, 548, 505, 489
565, 596, 198, 7, 86
566, 402, 803, 233, 805
567, 630, 211, 200, 734
568, 159, 879, 878, 654
569, 486, 789, 257, 700
570, 580, 828, 702, 582
571, 161, 321, 703, 506
572, 538, 182, 400, 177
573, 218, 851, 572, 800
574, 908, 907, 229, 457
575, 902, 442, 562, 901
576, 230, 890, 889, 731
577, 869, 868, 515, 320
578, 445, 336, 289, 626
579, 505, 262, 779, 546
580, 339, 708, 202, 642
581, 605, 162, 11, 19
582, 908, 707, 623, 897
583, 48, 59, 268, 294
584, 444, 546, 293, 275
585, 552, 444, 275, 783
586, 594, 772, 300, 272
587, 291, 667, 668, 666
588, 666, 668, 613, 292
589, 668, 466, 164, 613
590, 667, 163, 466, 668
591, 815, 617, 12, 20
592, 698, 224, 682, 210
593, 868, 643, 185, 867
594, 393, 858, 857, 192
595, 699, 694, 568, 847
596, 480, 359, 764, 458
597, 608, 824, 644, 715
598, 898, 17, 2, 436
599, 290, 674, 675, 673
600, 673, 675, 626, 289
601, 675, 666, 292, 626
602, 674, 291, 666, 675
603, 873, 872, 722, 840
604, 50, 61, 739, 449
605, 448, 657, 428, 585
606, 533, 386, 429, 584
607, 517, 348, 687, 796
608, 820, 709, 369, 225
609, 326, 496, 698, 399
610, 219, 536, 304, 286
611, 773, 756, 646, 822
612, 754, 196, 843, 603
613, 699, 847, 133, 146
614, 395, 531, 255, 661
615, 824, 729, 380, 644
616, 497, 157, 154, 224
617, 229, 339, 642, 577
618, 233, 672, 290, 303
619, 734, 200, 651, 688
620, 836, 183, 590, 432
621, 582, 702, 578, 311
622, 436, 2, 25, 158
623, 687, 205, 493, 710
624, 462, 315, 712, 288
625, 797, 287, 423, 176
626, 259, 877, 114, 104
627, 273, 621, 803, 402
628, 834, 539, 747, 425
629, 597, 885, 884, 686
630, 508, 691, 379, 683
631, 903, 902, 730, 375
632, 905, 904, 807, 708
633, 378, 373, 220, 624
634, 175, 170, 836, 172
635, 705, 596, 86, 94
636, 247, 759, 832, 285
637, 174, 523, 701, 179
638, 525, 786, 250, 307
639, 186, 526, 816, 763
640, 175, 312, 841, 170
641, 223, 232, 383, 543
642, 302, 110, 121, 213
643, 170, 181, 183, 836
644, 440, 817, 733, 482
645, 208, 159, 654, 762
646, 757, 697, 621, 273
647, 210, 682, 484, 851
648, 191, 462, 288, 759
649, 645, 402, 805, 714
650, 731, 889, 888, 640
651, 414, 721, 149, 437
652, 606, 699, 146, 132
653, 766, 758, 230, 439
654, 796, 687, 710, 761
655, 488, 225, 415, 392
656, 182, 436, 158, 400
657, 228, 459, 649, 672
658, 177, 400, 824, 608
659, 481, 849, 605, 617
660, 348, 214, 205, 687
661, 200, 482, 344, 651
662, 473, 859, 858, 393
663, 190, 471, 199, 537
664, 564, 367, 381, 321
665, 829, 809, 723, 669
666, 195, 215, 341, 184
667, 685, 374, 163, 667
668, 555, 840, 553, 261
669, 282, 664, 726, 724
670, 724, 726, 725, 283
671, 726, 322, 277, 725
672, 664, 279, 322, 726
673, 892, 761, 376, 891
674, 443, 822, 397, 728
675, 692, 680, 709, 820
676, 708, 807, 223, 202
677, 224, 154, 208, 682
678, 470, 273, 402, 645
679, 531, 659, 773, 255
680, 582, 311, 368, 357
681, 817, 91, 99, 733
682, 346, 190, 537, 561
683, 532, 609, 732, 514
684, 173, 356, 650, 523
685, 704, 529, 10, 18
686, 216, 3, 30, 604
687, 162, 704, 18, 11
688, 457, 206, 130, 143
689, 340, 426, 263, 548
690, 296, 372, 76, 69
691, 489, 505, 546, 444
692, 518, 741, 549, 813
693, 772, 811, 409, 300
694, 406, 749, 534, 818
695, 165, 281, 270, 819
696, 798, 679, 677, 583
697, 742, 450, 656, 602
698, 775, 151, 160, 755
699, 231, 27, 3, 216
700, 413, 566, 531, 395
701, 355, 693, 178, 455
702, 658, 684, 680, 692
703, 496, 497, 224, 698
704, 203, 443, 728, 653
705, 477, 750, 266, 491
706, 871, 870, 271, 774
707, 168, 509, 596, 705
708, 679, 449, 388, 677
709, 876, 875, 678, 859
710, 583, 677, 750, 477
711, 521, 595, 594, 741
712, 354, 799, 266, 237
713, 890, 852, 475, 581
714, 345, 193, 215, 195
715, 644, 380, 778, 483
716, 327, 259, 104, 115
717, 306, 558, 251, 634
718, 151, 576, 502, 160
719, 553, 825, 450, 742
720, 904, 903, 375, 807
721, 207, 108, 119, 615
722, 157, 681, 753, 154
723, 562, 727, 390, 461
724, 487, 611, 566, 413
725, 469, 210, 851, 218
726, 903, 416, 442, 902
727, 607, 629, 238, 325
728, 683, 379, 214, 348
729, 527, 201, 497, 496
730, 384, 209, 757, 795
731, 568, 714, 725, 277
732, 768, 498, 815, 500
733, 808, 191, 759, 247
734, 392, 415, 711, 180
735, 782, 676, 280, 258
736, 352, 620, 552, 338
737, 548, 263, 262, 505
738, 584, 429, 657, 448
739, 374, 604, 467, 163
740, 623, 204, 508, 569
741, 717, 488, 392, 756
742, 684, 328, 434, 680
743, 251, 670, 591, 520
744, 656, 276, 829, 810
745, 311, 175, 172, 368
746, 774, 271, 309, 418
747, 865, 864, 833, 619
748, 813, 549, 665, 751
749, 405, 335, 533, 504
750, 37, 167, 297, 44
751, 369, 834, 425, 501
752, 690, 398, 695, 727
753, 728, 397, 641, 839
754, 778, 29, 27, 231
755, 331, 720, 407, 252
756, 267, 585, 387, 308
757, 32, 780, 422, 39
758, 34, 490, 406, 41
759, 40, 522, 780, 32
760, 549, 272, 782, 665
761, 281, 447, 340, 270
762, 42, 478, 490, 34
763, 429, 547, 612, 657
764, 595, 631, 772, 594
765, 672, 649, 674, 290
766, 897, 623, 569, 896
767, 214, 222, 494, 205
768, 415, 501, 333, 711
769, 753, 880, 879, 159
770, 851, 484, 188, 572
771, 180, 711, 481, 498
772, 777, 599, 398, 690
773, 845, 207, 615, 770
774, 524, 395, 661, 391
775, 862, 135, 148, 861
776, 192, 857, 856, 356
777, 176, 423, 736, 385
778, 389, 334, 207, 845
779, 209, 746, 697, 757
780, 471, 316, 541, 199
781, 206, 745, 144, 130
782, 254, 804, 367, 564
783, 343, 630, 734, 565
784, 907, 906, 339, 229
785, 482, 733, 600, 344
786, 563, 96, 89, 804
787, 878, 346, 561, 877
788, 900, 461, 438, 899
789, 745, 414, 131, 144
790, 805, 233, 303, 283
791, 572, 188, 105, 116
792, 616, 219, 286, 201
793, 41, 406, 818, 33
794, 43, 446, 776, 35
795, 748, 350, 447, 281
796, 333, 378, 624, 849
797, 766, 141, 127, 758
798, 412, 325, 777, 416
799, 615, 119, 109, 401
800, 290, 673, 802, 303
801, 303, 802, 724, 283
802, 802, 801, 282, 724
803, 673, 289, 801, 802
804, 215, 174, 179, 341
805, 693, 715, 171, 178
806, 711, 333, 849, 481
807, 501, 425, 378, 333
808, 295, 165, 819, 274
809, 280, 410, 165, 295
810, 409, 662, 301, 781
811, 428, 278, 445, 740
812, 895, 760, 517, 894
813, 204, 439, 691, 508
814, 383, 458, 355, 150
815, 681, 881, 880, 753
816, 246, 354, 237, 738
817, 859, 678, 542, 858
818, 451, 243, 512, 528
819, 747, 540, 302, 373
820, 519, 242, 463, 329
821, 806, 593, 620, 352
822, 783, 275, 282, 801
823, 627, 583, 477, 662
824, 670, 554, 574, 591
825, 618, 598, 377, 156
826, 185, 236, 639, 324
827, 319, 560, 431, 236
828, 447, 784, 426, 340
829, 244, 831, 75, 68
830, 49, 60, 679, 798
831, 387, 740, 292, 613
832, 905, 226, 412, 904
833, 442, 690, 727, 562
834, 206, 577, 221, 745
835, 789, 345, 195, 257
836, 880, 565, 472, 879
837, 879, 472, 346, 878
838, 621, 153, 228, 803
839, 522, 267, 308, 780
840, 809, 827, 235, 723
841, 44, 297, 632, 36
842, 288, 712, 658, 217
843, 423, 247, 285, 736
844, 719, 216, 604, 374
845, 221, 152, 384, 721
846, 511, 136, 122, 876
847, 835, 769, 527, 313
848, 688, 651, 471, 190
849, 485, 126, 139, 828
850, 205, 494, 597, 493
851, 373, 302, 213, 220
852, 536, 883, 882, 304
853, 225, 369, 501, 415
854, 294, 268, 627, 811
855, 300, 409, 781, 676
856, 776, 427, 405, 478
857, 268, 798, 583, 627
858, 866, 324, 826, 865
859, 573, 619, 720, 331
860, 236, 431, 246, 639
861, 638, 432, 197, 193
862, 420, 331, 252, 558
863, 432, 590, 173, 197
864, 149, 795, 470, 332
865, 812, 810, 592, 419
866, 569, 508, 683, 760
867, 252, 407, 554, 670
868, 592, 669, 78, 71
869, 830, 520, 372, 296
870, 746, 150, 589, 697
871, 523, 650, 689, 701
872, 528, 512, 74, 67
873, 640, 888, 887, 222
874, 526, 284, 719, 816
875, 460, 107, 118, 334
876, 391, 661, 203, 169
877, 712, 571, 684, 658
878, 545, 686, 536, 219
879, 421, 364, 242, 519
880, 634, 251, 520, 830
881, 198, 370, 83, 7
882, 330, 357, 790, 791
883, 669, 723, 70, 78
884, 864, 361, 239, 833
885, 232, 480, 458, 383
886, 730, 655, 359, 480
887, 483, 778, 231, 284
888, 160, 502, 317, 560
889, 825, 418, 454, 450
890, 858, 542, 452, 857
891, 278, 338, 336, 445
892, 298, 518, 813, 404
893, 275, 293, 664, 282
894, 628, 586, 460, 652
895, 253, 685, 667, 291
896, 437, 606, 132, 145
897, 609, 525, 307, 732
898, 537, 199, 102, 113
899, 567, 161, 506, 718
900, 761, 710, 765, 376
901, 870, 869, 320, 271
902, 770, 615, 401, 539
903, 399, 698, 210, 469
904, 721, 384, 795, 149
905, 181, 473, 393, 183
906, 906, 713, 226, 905
907, 235, 296, 69, 77
908, 419, 592, 71, 79
909, 589, 455, 495, 153
910, 646, 180, 498, 768
911, 908, 457, 143, 129
912, 237, 266, 750, 575
913, 520, 591, 244, 372
914, 261, 553, 742, 453
915, 287, 808, 247, 423
916, 622, 435, 227, 382
917, 416, 777, 690, 442
918, 636, 791, 486, 792
919, 350, 799, 784, 447
920, 865, 826, 476, 864
921, 844, 779, 262, 576
922, 559, 844, 576, 151
923, 433, 559, 151, 775
924, 635, 433, 775, 245
925, 871, 635, 245, 870
926, 842, 771, 779, 844
927, 240, 842, 844, 559
928, 430, 240, 559, 433
929, 610, 430, 433, 635
930, 872, 610, 635, 871
931, 353, 279, 771, 842
932, 256, 353, 842, 240
933, 310, 256, 240, 430
934, 371, 310, 430, 610
935, 873, 371, 610, 872
936, 248, 322, 279, 353
937, 550, 248, 353, 256
938, 743, 550, 256, 310
939, 260, 743, 310, 371
940, 874, 260, 371, 873
941, 408, 277, 322, 248
942, 305, 408, 248, 550
943, 234, 305, 550, 743
944, 557, 234, 743, 260
945, 875, 557, 260, 874
946, 860, 570, 277, 408
947, 861, 860, 408, 305
948, 862, 861, 305, 234
949, 863, 862, 234, 557
950, 876, 863, 557, 875
951, 499, 532, 514, 735
952, 888, 499, 735, 887
953, 846, 87, 95, 786
954, 212, 846, 786, 525
955, 579, 212, 525, 609
956, 349, 579, 609, 532
957, 535, 349, 532, 499
958, 889, 535, 499, 888
959, 705, 94, 87, 846
960, 168, 705, 846, 212
961, 474, 168, 212, 579
962, 821, 474, 579, 349
963, 581, 821, 349, 535
964, 890, 581, 535, 889
965, 358, 618, 156, 744
966, 647, 358, 744, 713
967, 907, 647, 713, 906
968, 800, 106, 117, 586
969, 218, 800, 586, 628
970, 469, 218, 628, 848
971, 399, 469, 848, 660
972, 326, 399, 660, 315
973, 313, 326, 315, 462
974, 835, 313, 462, 191
975, 891, 835, 191, 808
976, 892, 891, 808, 287
977, 893, 892, 287, 797
978, 894, 893, 797, 598
979, 895, 894, 598, 618
980, 896, 895, 618, 358
981, 897, 896, 358, 647
982, 908, 897, 647, 907
*ELSET,ELSET=contact_source
99, 100, 101, 102, 103, 104, 105, 106, 107, 108, 
109, 110, 111, 112, 113, 114, 115, 116, 117, 118, 
119, 120, 
*ELSET,ELSET=contact_drain
39, 40, 41, 42, 43, 44, 45, 46, 47, 48, 
49, 50, 51, 52, 53, 54, 55, 56, 57, 58, 
59, 60, 
*ELSET,ELSET=probe_A
77, 78, 79, 80, 81, 82, 
*ELSET,ELSET=probe_B
17, 18, 19, 20, 21, 22, 
*ELSET,ELSET=walls
1, 2, 3, 4, 5, 6, 7, 8, 9, 10, 
11, 12, 13, 14, 15, 16, 23, 24, 25, 26, 
27, 28, 29, 30, 31, 32, 33, 34, 35, 36, 
37, 38, 61, 62, 63, 64, 65, 66, 67, 68, 
69, 70, 71, 72, 73, 74, 75, 76, 83, 84, 
85, 86, 87, 88, 89, 90, 91, 92, 93, 94, 
95, 96, 97, 98, 121, 122, 123, 124, 125, 126, 
127, 128, 129, 130, 131, 132, 133, 134, 135, 136, 
137, 138, 139, 140, 141, 142, 143, 144, 145, 146, 
147, 148, 
*ELSET,ELSET=domain
149, 150, 151, 152, 153, 154, 155, 156, 157, 158, 
159, 160, 161, 162, 163, 164, 165, 166, 167, 168, 
169, 170, 171, 172, 173, 174, 175, 176, 177, 178, 
179, 180, 181, 182, 183, 184, 185, 186, 187, 188, 
189, 190, 191, 192, 193, 194, 195, 196, 197, 198, 
199, 200, 201, 202, 203, 204, 205, 206, 207, 208, 
209, 210, 211, 212, 213, 214, 215, 216, 217, 218, 
219, 220, 221, 222, 223, 224, 225, 226, 227, 228, 
229, 230, 231, 232, 233, 234, 235, 236, 237, 238, 
239, 240, 241, 242, 243, 244, 245, 246, 247, 248, 
249, 250, 251, 252, 253, 254, 255, 256, 257, 258, 
259, 260, 261, 262, 263, 264, 265, 266, 267, 268, 
269, 270, 271, 272, 273, 274, 275, 276, 277, 278, 
279, 280, 281, 282, 283, 284, 285, 286, 287, 288, 
289, 290, 291, 292, 293, 294, 295, 296, 297, 298, 
299, 300, 301, 302, 303, 304, 305, 306, 307, 308, 
309, 310, 311, 312, 313, 314, 315, 316, 317, 318, 
319, 320, 321, 322, 323, 324, 325, 326, 327, 328, 
329, 330, 331, 332, 333, 334, 335, 336, 337, 338, 
339, 340, 341, 342, 343, 344, 345, 346, 347, 348, 
349, 350, 351, 352, 353, 354, 355, 356, 357, 358, 
359, 360, 361, 362, 363, 364, 365, 366, 367, 368, 
369, 370, 371, 372, 373, 374, 375, 376, 377, 378, 
379, 380, 381, 382, 383, 384, 385, 386, 387, 388, 
389, 390, 391, 392, 393, 394, 395, 396, 397, 398, 
399, 400, 401, 402, 403, 404, 405, 406, 407, 408, 
409, 410, 411, 412, 413, 414, 415, 416, 417, 418, 
419, 420, 421, 422, 423, 424, 425, 426, 427, 428, 
429, 430, 431, 432, 433, 434, 435, 436, 437, 438, 
439, 440, 441, 442, 443, 444, 445, 446, 447, 448, 
449, 450, 451, 452, 453, 454, 455, 456, 457, 458, 
459, 460, 461, 462, 463, 464, 465, 466, 467, 468, 
469, 470, 471, 472, 473, 474, 475, 476, 477, 478, 
479, 480, 481, 482, 483, 484, 485, 486, 487, 488, 
489, 490, 491, 492, 493, 494, 495, 496, 497, 498, 
499, 500, 501, 502, 503, 504, 505, 506, 507, 508, 
509, 510, 511, 512, 513, 514, 515, 516, 517, 518, 
519, 520, 521, 522, 523, 524, 525, 526, 527, 528, 
529, 530, 531, 532, 533, 534, 535, 536, 537, 538, 
539, 540, 541, 542, 543, 544, 545, 546, 547, 548, 
549, 550, 551, 552, 553, 554, 555, 556, 557, 558, 
559, 560, 561, 562, 563, 564, 565, 566, 567, 568, 
569, 570, 571, 572, 573, 574, 575, 576, 577, 578, 
579, 580, 581, 582, 583, 584, 585, 586, 587, 588, 
589, 590, 591, 592, 593, 594, 595, 596, 597, 598, 
599, 600, 601, 602, 603, 604, 605, 606, 607, 608, 
609, 610, 611, 612, 613, 614, 615, 616, 617, 618, 
619, 620, 621, 622, 623, 624, 625, 626, 627, 628, 
629, 630, 631, 632, 633, 634, 635, 636, 637, 638, 
639, 640, 641, 642, 643, 644, 645, 646, 647, 648, 
649, 650, 651, 652, 653, 654, 655, 656, 657, 658, 
659, 660, 661, 662, 663, 664, 665, 666, 667, 668, 
669, 670, 671, 672, 673, 674, 675, 676, 677, 678, 
679, 680, 681, 682, 683, 684, 685, 686, 687, 688, 
689, 690, 691, 692, 693, 694, 695, 696, 697, 698, 
699, 700, 701, 702, 703, 704, 705, 706, 707, 708, 
709, 710, 711, 712, 713, 714, 715, 716, 717, 718, 
719, 720, 721, 722, 723, 724, 725, 726, 727, 728, 
729, 730, 731, 732, 733, 734, 735, 736, 737, 738, 
739, 740, 741, 742, 743, 744, 745, 746, 747, 748, 
749, 750, 751, 752, 753, 754, 755, 756, 757, 758, 
759, 760, 761, 762, 763, 764, 765, 766, 767, 768, 
769, 770, 771, 772, 773, 774, 775, 776, 777, 778, 
779, 780, 781, 782, 783, 784, 785, 786, 787, 788, 
789, 790, 791, 792, 793, 794, 795, 796, 797, 798, 
799, 800, 801, 802, 803, 804, 805, 806, 807, 808, 
809, 810, 811, 812, 813, 814, 815, 816, 817, 818, 
819, 820, 821, 822, 823, 824, 825, 826, 827, 828, 
829, 830, 831, 832, 833, 834, 835, 836, 837, 838, 
839, 840, 841, 842, 843, 844, 845, 846, 847, 848, 
849, 850, 851, 852, 853, 854, 855, 856, 857, 858, 
859, 860, 861, 862, 863, 864, 865, 866, 867, 868, 
869, 870, 871, 872, 873, 874, 875, 876, 877, 878, 
879, 880, 881, 882, 883, 884, 885, 886, 887, 888, 
889, 890, 891, 892, 893, 894, 895, 896, 897, 898, 
899, 900, 901, 902, 903, 904, 905, 906, 907, 908, 
909, 910, 911, 912, 913, 914, 915, 916, 917, 918, 
919, 920, 921, 922, 923, 924, 925, 926, 927, 928, 
929, 930, 931, 932, 933, 934, 935, 936, 937, 938, 
939, 940, 941, 942, 943, 944, 945, 946, 947, 948, 
949, 950, 951, 952, 953, 954, 955, 956, 957, 958, 
959, 960, 961, 962, 963, 964, 965, 966, 967, 968, 
969, 970, 971, 972, 973, 974, 975, 976, 977, 978, 
979, 980, 981, 982, 
*NSET,NSET=contact_source
1, 8, 101, 102, 103, 104, 105, 106, 107, 108, 
109, 110, 111, 112, 113, 114, 115, 116, 117, 118, 
119, 120, 121, 
*NSET,NSET=contact_drain
4, 5, 45, 46, 47, 48, 49, 50, 51, 52, 
53, 54, 55, 56, 57, 58, 59, 60, 61, 62, 
63, 64, 65, 
*NSET,NSET=probe_A
6, 7, 81, 82, 83, 84, 85, 
*NSET,NSET=probe_B
2, 3, 25, 26, 27, 28, 29, 
*NSET,NSET=walls
1, 2, 3, 4, 5, 6, 7, 8, 9, 10, 
11, 12, 13, 14, 15, 16, 17, 18, 19, 20, 
21, 22, 23, 24, 30, 31, 32, 33, 34, 35, 
36, 37, 38, 39, 40, 41, 42, 43, 44, 66, 
67, 68, 69, 70, 71, 72, 73, 74, 75, 76, 
77, 78, 79, 80, 86, 87, 88, 89, 90, 91, 
92, 93, 94, 95, 96, 97, 98, 99, 100, 122, 
123, 124, 125, 126, 127, 128, 129, 130, 131, 132, 
133, 134, 135, 136, 137, 138, 139, 140, 141, 142, 
143, 144, 145, 146, 147, 148, 
*NSET,NSET=domain
1, 2, 3, 4, 5, 6, 7, 8, 9, 10, 
11, 12, 13, 14, 15, 16, 17, 18, 19, 20, 
21, 22, 23, 24, 25, 26, 27, 28, 29, 30, 
31, 32, 33, 34, 35, 36, 37, 38, 39, 40, 
41, 42, 43, 44, 45, 46, 47, 48, 49, 50, 
51, 52, 53, 54, 55, 56, 57, 58, 59, 60, 
61, 62, 63, 64, 65, 66, 67, 68, 69, 70, 
71, 72, 73, 74, 75, 76, 77, 78, 79, 80, 
81, 82, 83, 84, 85, 86, 87, 88, 89, 90, 
91, 92, 93, 94, 95, 96, 97, 98, 99, 100, 
101, 102, 103, 104, 105, 106, 107, 108, 109, 110, 
111, 112, 113, 114, 115, 116, 117, 118, 119, 120, 
121, 122, 123, 124, 125, 126, 127, 128, 129, 130, 
131, 132, 133, 134, 135, 136, 137, 138, 139, 140, 
141, 142, 143, 144, 145, 146, 147, 148, 149, 150, 
151, 152, 153, 154, 155, 156, 157, 158, 159, 160, 
161, 162, 163, 164, 165, 166, 167, 168, 169, 170, 
171, 172, 173, 174, 175, 176, 177, 178, 179, 180, 
181, 182, 183, 184, 185, 186, 187, 188, 189, 190, 
191, 192, 193, 194, 195, 196, 197, 198, 199, 200, 
201, 202, 203, 204, 205, 206, 207, 208, 209, 210, 
211, 212, 213, 214, 215, 216, 217, 218, 219, 220, 
221, 222, 223, 224, 225, 226, 227, 228, 229, 230, 
231, 232, 233, 234, 235, 236, 237, 238, 239, 240, 
241, 242, 243, 244, 245, 246, 247, 248, 249, 250, 
251, 252, 253, 254, 255, 256, 257, 258, 259, 260, 
261, 262, 263, 264, 265, 266, 267, 268, 269, 270, 
271, 272, 273, 274, 275, 276, 277, 278, 279, 280, 
281, 282, 283, 284, 285, 286, 287, 288, 289, 290, 
291, 292, 293, 294, 295, 296, 297, 298, 299, 300, 
301, 302, 303, 304, 305, 306, 307, 308, 309, 310, 
311, 312, 313, 314, 315, 316, 317, 318, 319, 320, 
321, 322, 323, 324, 325, 326, 327, 328, 329, 330, 
331, 332, 333, 334, 335, 336, 337, 338, 339, 340, 
341, 342, 343, 344, 345, 346, 347, 348, 349, 350, 
351, 352, 353, 354, 355, 356, 357, 358, 359, 360, 
361, 362, 363, 364, 365, 366, 367, 368, 369, 370, 
371, 372, 373, 374, 375, 376, 377, 378, 379, 380, 
381, 382, 383, 384, 385, 386, 387, 388, 389, 390, 
391, 392, 393, 394, 395, 396, 397, 398, 399, 400, 
401, 402, 403, 404, 405, 406, 407, 408, 409, 410, 
411, 412, 413, 414, 415, 416, 417, 418, 419, 420, 
421, 422, 423, 424, 425, 426, 427, 428, 429, 430, 
431, 432, 433, 434, 435, 436, 437, 438, 439, 440, 
441, 442, 443, 444, 445, 446, 447, 448, 449, 450, 
451, 452, 453, 454, 455, 456, 457, 458, 459, 460, 
461, 462, 463, 464, 465, 466, 467, 468, 469, 470, 
471, 472, 473, 474, 475, 476, 477, 478, 479, 480, 
481, 482, 483, 484, 485, 486, 487, 488, 489, 490, 
491, 492, 493, 494, 495, 496, 497, 498, 499, 500, 
501, 502, 503, 504, 505, 506, 507, 508, 509, 510, 
511, 512, 513, 514, 515, 516, 517, 518, 519, 520, 
521, 522, 523, 524, 525, 526, 527, 528, 529, 530, 
531, 532, 533, 534, 535, 536, 537, 538, 539, 540, 
541, 542, 543, 544, 545, 546, 547, 548, 549, 550, 
551, 552, 553, 554, 555, 556, 557, 558, 559, 560, 
561, 562, 563, 564, 565, 566, 567, 568, 569, 570, 
571, 572, 573, 574, 575, 576, 577, 578, 579, 580, 
581, 582, 583, 584, 585, 586, 587, 588, 589, 590, 
591, 592, 593, 594, 595, 596, 597, 598, 599, 600, 
601, 602, 603, 604, 605, 606, 607, 608, 609, 610, 
611, 612, 613, 614, 615, 616, 617, 618, 619, 620, 
621, 622, 623, 624, 625, 626, 627, 628, 629, 630, 
631, 632, 633, 634, 635, 636, 637, 638, 639, 640, 
641, 642, 643, 644, 645, 646, 647, 648, 649, 650, 
651, 652, 653, 654, 655, 656, 657, 658, 659, 660, 
661, 662, 663, 664, 665, 666, 667, 668, 669, 670, 
671, 672, 673, 674, 675, 676, 677, 678, 679, 680, 
681, 682, 683, 684, 685, 686, 687, 688, 689, 690, 
691, 692, 693, 694, 695, 696, 697, 698, 699, 700, 
701, 702, 703, 704, 705, 706, 707, 708, 709, 710, 
711, 712, 713, 714, 715, 716, 717, 718, 719, 720, 
721, 722, 723, 724, 725, 726, 727, 728, 729, 730, 
731, 732, 733, 734, 735, 736, 737, 738, 739, 740, 
741, 742, 743, 744, 745, 746, 747, 748, 749, 750, 
751, 752, 753, 754, 755, 756, 757, 758, 759, 760, 
761, 762, 763, 764, 765, 766, 767, 768, 769, 770, 
771, 772, 773, 774, 775, 776, 777, 778, 779, 780, 
781, 782, 783, 784, 785, 786, 787, 788, 789, 790, 
791, 792, 793, 794, 795, 796, 797, 798, 799, 800, 
801, 802, 803, 804, 805, 806, 807, 808, 809, 810, 
811, 812, 813, 814, 815, 816, 817, 818, 819, 820, 
821, 822, 823, 824, 825, 826, 827, 828, 829, 830, 
831, 832, 833, 834, 835, 836, 837, 838, 839, 840, 
841, 842, 843, 844, 845, 846, 847, 848, 849, 850, 
851, 852, 853, 854, 855, 856, 857, 858, 859, 860, 
861, 862, 863, 864, 865, 866, 867, 868, 869, 870, 
871, 872, 873, 874, 875, 876, 877, 878, 879, 880, 
881, 882, 883, 884, 885, 886, 887, 888, 889, 890, 
891, 892, 893, 894, 895, 896, 897, 898, 899, 900, 
901, 902, 903, 904, 905, 906, 907, 908, 
