*Heading
 /Users/juliagao/geometry-optimization-net/scripts/../runs/grid/shape_19.inp
*NODE
1, 0, -0.3, 0
2, 0.425, -0.3, 0
3, 0.575, -0.3, 0
4, 1, -0.3, 0
5, 1, 0.3, 0
6, 0.575, 0.3, 0
7, 0.425, 0.3, 0
8, 0, 0.3, 0
9, 0.58, 0.084, 0
10, 0.025713265722709, -0.3, 0
11, 0.077842262827094, -0.3, 0
12, 0.13099626657446, -0.3, 0
13, 0.18460932798951, -0.3, 0
14, 0.23836646778931, -0.3, 0
15, 0.2919852439203, -0.3, 0
16, 0.34559818034889, -0.3, 0
17, 0.39873734569847, -0.3, 0
18, 0.051426531445417, -0.3, 0
19, 0.10425799420877, -0.3, 0
20, 0.15773453894015, -0.3, 0
21, 0.21148411703888, -0.3, 0
22, 0.26524881853975, -0.3, 0
23, 0.31872166930084, -0.3, 0
24, 0.37247469139694, -0.3, 0
25, 0.4500090135246, -0.3, 0
26, 0.49975261721838, -0.3, 0
27, 0.54974360369379, -0.3, 0
28, 0.47501802704919, -0.3, 0
29, 0.52448720738758, -0.3, 0
30, 0.60078705898794, -0.3, 0
31, 0.65291257507326, -0.3, 0
32, 0.70635976742716, -0.3, 0
33, 0.76079676258589, -0.3, 0
34, 0.81528223859979, -0.3, 0
35, 0.86895515943359, -0.3, 0
36, 0.92163379027061, -0.3, 0
37, 0.97389835819276, -0.3, 0
38, 0.62657411797589, -0.3, 0
39, 0.67925103217064, -0.3, 0
40, 0.73346850268368, -0.3, 0
41, 0.78812502248809, -0.3, 0
42, 0.84243945471148, -0.3, 0
43, 0.8954708641557, -0.3, 0
44, 0.94779671638551, -0.3, 0
45, 1, -0.27306763544518, 0
46, 1, -0.21873432620454, 0
47, 1, -0.1641373134314, 0
48, 1, -0.11033637008693, 0
49, 1, -0.056939262141229, 0
50, 1, -0.002674809592411, 0
51, 1, 0.052677679273125, 0
52, 1, 0.10831429598604, 0
53, 1, 0.16371050813844, 0
54, 1, 0.21873922634243, 0
55, 1, 0.27306404005083, 0
56, 1, -0.24613527089035, 0
57, 1, -0.19133338151872, 0
58, 1, -0.13694124534408, 0
59, 1, -0.083731494829783, 0
60, 1, -0.030147029452676, 0
61, 1, 0.024797410267854, 0
62, 1, 0.080557948278397, 0
63, 1, 0.13607064369369, 0
64, 1, 0.19135037258319, 0
65, 1, 0.24612808010167, 0
66, 0.97389236080418, 0.3, 0
67, 0.92168613607415, 0.3, 0
68, 0.86926565998478, 0.3, 0
69, 0.81551038774202, 0.3, 0
70, 0.76044445709067, 0.3, 0
71, 0.70593011276184, 0.3, 0
72, 0.65269060405261, 0.3, 0
73, 0.60066644535424, 0.3, 0
74, 0.94778472160837, 0.3, 0
75, 0.89558755053994, 0.3, 0
76, 0.84294376942962, 0.3, 0
77, 0.78807700605442, 0.3, 0
78, 0.73281190812693, 0.3, 0
79, 0.67904831739674, 0.3, 0
80, 0.62633289070847, 0.3, 0
81, 0.54982893750382, 0.3, 0
82, 0.50014259840914, 0.3, 0
83, 0.45031366090532, 0.3, 0
84, 0.52465787500763, 0.3, 0
85, 0.47562732181065, 0.3, 0
86, 0.3991706498304, 0.3, 0
87, 0.3462845035389, 0.3, 0
88, 0.29178044478666, 0.3, 0
89, 0.23733166641089, 0.3, 0
90, 0.18375465601667, 0.3, 0
91, 0.13083339811353, 0.3, 0
92, 0.078261400442077, 0.3, 0
93, 0.026017583012484, 0.3, 0
94, 0.3733412996608, 0.3, 0
95, 0.319227707417, 0.3, 0
96, 0.26433318215631, 0.3, 0
97, 0.21033015066547, 0.3, 0
98, 0.15717916136788, 0.3, 0
99, 0.10448763485919, 0.3, 0
100, 0.052035166024968, 0.3, 0
101, 0, 0.27349486515304, 0
102, 0, 0.21981666709103, 0
103, 0, 0.16480290048886, 0
104, 0, 0.10877022331022, 0
105, 0, 0.052029601660258, 0
106, 0, -0.0044016558386609, 0
107, 0, -0.059274325439778, 0
108, 0, -0.11338587316483, 0
109, 0, -0.16765511033777, 0
110, 0, -0.22143530957454, 0
111, 0, -0.27403387970139, 0
112, 0, 0.24698973030608, 0
113, 0, 0.19264360387599, 0
114, 0, 0.13696219710174, 0
115, 0, 0.080578249518708, 0
116, 0, 0.023480953801807, 0
117, 0, -0.032284265479129, 0
118, 0, -0.086264385400427, 0
119, 0, -0.14050736092923, 0
120, 0, -0.19480285974631, 0
121, 0, -0.24806775940278, 0
122, 0.57625851369428, 0.10817931052802, 0
123, 0.54846747567375, 0.14764671023104, 0
124, 0.50251675120836, 0.16396040227293, 0
125, 0.4545711620813, 0.14984998566911, 0
126, 0.42409971465834, 0.10928134992294, 0
127, 0.42402226249687, 0.05895237756641, 0
128, 0.45355151449073, 0.018865230860907, 0
129, 0.50085646003742, 0.0040045849661438, 0
130, 0.54741425341343, 0.019564850066532, 0
131, 0.57610628549729, 0.059345724426214, 0
132, 0.56538402086882, 0.13009696024058, 0
133, 0.52705130833963, 0.15928762637562, 0
134, 0.47773690142415, 0.16083979705597, 0
135, 0.43607201240321, 0.13209586596144, 0
136, 0.42000015108697, 0.08384452945421, 0
137, 0.43559224519223, 0.036548539633174, 0
138, 0.47612104450031, 0.0076469029522122, 0
139, 0.52550821901156, 0.008175658828461, 0
140, 0.56480416679495, 0.037091365839639, 0
141, 0.38091020707791, -0.15677039015374, 0
142, 0.30185773603516, 0.015363309851479, 0
143, 0.4135149607032, 0.24673095987498, 0
144, 0.35349229048586, -0.17589917352934, 0
145, 0.33897910363276, -0.27483165887188, 0
146, 0.66900778318174, -0.25012571557623, 0
147, 0.97530583947298, -0.19205014161074, 0
148, 0.38150360914526, -0.089415932322066, 0
149, 0.51779238380483, -0.13204489602207, 0
150, 0.92660869827313, 0.0061684462367454, 0
151, 0.025179423438588, -0.057540962949752, 0
152, 0.15020420120601, -0.16544123410453, 0
153, 0.58200848253795, 0.24655852520336, 0
154, 0.52106939888443, -0.013591541791968, 0
155, 0.90366154881922, -0.078336955345217, 0
156, 0.80529290804482, -0.19382820726433, 0
157, 0.591392457046, -0.10016606493316, 0
158, 0.0745064565312, 0.027362900021896, 0
159, 0.17447181370713, -0.138046651817, 0
160, 0.29999750574329, -0.091391194160552, 0
161, 0.47247618328276, -0.25237525055363, 0
162, 0.075528097414881, -0.16567470033311, 0
163, 0.20331471500062, 0.19293719544, 0
164, 0.25361699043082, 0.19288858693716, 0
165, 0.2492450159523, 0.13667231294135, 0
166, 0.20039366467596, 0.13753438067007, 0
167, 0.15057818333546, 0.13799972000918, 0
168, 0.10027747255953, 0.13795362901024, 0
169, 0.049926734276682, 0.13749207211051, 0
170, 0.15259110479369, 0.19286938837088, 0
171, 0.10164145117141, 0.19265088350695, 0
172, 0.050697371157811, 0.1923801474122, 0
173, 0.051601801901403, 0.24653769309042, 0
174, 0.15499826810463, 0.24692914785682, 0
175, 0.10323134308271, 0.24670664076434, 0
176, 0.20684263799002, 0.24718755195633, 0
177, 0.25865375953061, 0.24743357029497, 0
178, 0.31031968959828, 0.24741688912003, 0
179, 0.36185494517699, 0.24698047017288, 0
180, 0.4669405876702, 0.24995453398468, 0
181, 0.38017821038238, 0.19383388482085, 0
182, 0.46219671285494, 0.18051377318784, 0
183, 0.29669283285629, 0.13606725888306, 0
184, 0.30359653565438, 0.19287427283388, 0
185, 0.18168946090629, -0.27405786527098, 0
186, 0.87546500837516, 0.064968240154493, 0
187, 0.39122252401722, 0.14264076493606, 0
188, 0.40395793305258, 0.16912910476076, 0
189, 0.27605774610196, -0.034542063880432, 0
190, 0.82574444686599, 0.066407955198001, 0
191, 0.83366589191479, -0.048718072496409, 0
192, 0.35728688433002, -0.22519960620654, 0
193, 0.075115539361994, -0.11069321334927, 0
194, 0.7194556497496, -0.030536861770543, 0
195, 0.1247112054393, -0.054780615820809, 0
196, 0.024660311137054, 0.025398649756826, 0
197, 0.6460644821378, 0.03832158392887, 0
198, 0.3549758259044, -0.20049727232485, 0
199, 0.02518470176679, -0.084917682719299, 0
200, 0.975212925013, -0.081825059597604, 0
201, 0.82363443377049, -0.24805370194055, 0
202, 0.8559568577405, -0.019388951356535, 0
203, 0.12465157625909, 0.027791969924607, 0
204, 0.024543474980279, 0.053363488799339, 0
205, 0.47839029456144, -0.032214825924469, 0
206, 0.83265321731564, -0.019400509901465, 0
207, 0.62871759122049, 0.020791370561577, 0
208, 0.90200754291948, -0.19239809929483, 0
209, 0.85278025120801, 0.037958715925439, 0
210, 0.099846316108817, -0.054968268158185, 0
211, 0.05012333785865, -0.05629175731153, 0
212, 0.074472270709521, 0.082582154753061, 0
213, 0.61098713726396, -0.13824332265819, 0
214, 0.75230791207602, -0.22255979910572, 0
215, 0.74106288054587, -0.27486554816167, 0
216, 0.85693467128739, -0.10694484060904, 0
217, 0.84890275512842, -0.24772642883065, 0
218, 0.8570992136347, -0.077767246633243, 0
219, 0.53559126442387, -0.077343354883457, 0
220, 0.19925597408916, -0.13850598803781, 0
221, 0.92681448393493, -0.16440345941605, 0
222, 0.2713766992025, 0.10683450277145, 0
223, 0.81061272073574, -0.10818390363676, 0
224, 0.41180929867242, -0.20570404576751, 0
225, 0.12960067618928, -0.27391261435437, 0
226, 0.12824954321229, -0.24725217582633, 0
227, 0.47858013651635, -0.15038277574855, 0
228, 0.35618832965158, 0.075429020228043, 0
229, 0.44291964986045, -0.16663236610676, 0
230, 0.69172841285687, 0.0246172371072, 0
231, 0.35877141325639, 0.10899725874381, 0
232, 0.41524338149621, -0.082401040724234, 0
233, 0.89915932454364, 0.090937255647623, 0
234, 0.14950353299997, -0.11013986121603, 0
235, 0.024611202766912, 0.081383065243491, 0
236, 0.35252344475221, -0.10217487066951, 0
237, 0.19983633874313, -0.16602848994242, 0
238, 0.58117608655089, -0.022416122308859, 0
239, 0.67936927525001, 0.21799959866012, 0
240, 0.84079821048358, 0.22303254736495, 0
241, 0.73280399550004, 0.17006705785912, 0
242, 0.67695888736296, 0.16525329561945, 0
243, 0.97418906219148, 0.24658659251921, 0
244, 0.92171650920351, 0.22141121988226, 0
245, 0.70820935732039, 0.14293973410917, 0
246, 0.97431486845545, 0.21978805184353, 0
247, 0.65129275788191, 0.18805563253871, 0
248, 0.70611786882926, 0.27353310908493, 0
249, 0.9747232434785, 0.13883480068358, 0
250, 0.76289732711221, 0.14596398129738, 0
251, 0.94793558800228, 0.27348349531531, 0
252, 0.68015909971706, 0.24551677159645, 0
253, 0.92158841148399, 0.24747648175464, 0
254, 0.81363816615771, 0.24885437337521, 0
255, 0.92242894353339, 0.16916397645576, 0
256, 0.7863418355125, 0.22311905899661, 0
257, 0.52545892182258, 0.25120391851322, 0
258, 0.57737693434518, 0.19298936136073, 0
259, 0.52240490370845, 0.20600114505874, 0
260, 0.73246687605349, 0.24773783482657, 0
261, 0.59988764736804, 0.18338355106062, 0
262, 0.84083231506945, 0.24860529242294, 0
263, 0.92718267233558, -0.10771969900268, 0
264, 0.57153260280166, -0.066858704322957, 0
265, 0.92707716093023, -0.13616893718044, 0
266, 0.2752353635749, -0.061366171549685, 0
267, 0.8771064913678, 0.037144915589628, 0
268, 0.76417532714412, -0.11143265513067, 0
269, 0.12472708009182, -0.027198130490582, 0
270, 0.33057790724972, -0.22392677861001, 0
271, 0.25076686274129, 0.022238515318536, 0
272, 0.38092741593074, -0.11155935952379, 0
273, 0.69492788033237, -0.094164213842642, 0
274, 0.050172436673246, -0.083849128387269, 0
275, 0.10107214474074, -0.19287392230567, 0
276, 0.34159178315254, 0.036086708984206, 0
277, 0.049397847209535, 0.054332444541843, 0
278, 0.87413067606091, -0.24744160517975, 0
279, 0.45180555270224, -0.093126668982251, 0
280, 0.050280416667218, -0.13876880232236, 0
281, 0.90042746090442, 0.063646313385078, 0
282, 0.20019731388416, -0.0014371038248626, 0
283, 0.30238221345485, -0.01169076893684, 0
284, 0.099665764450449, 0.00021531155642011, 0
285, 0.77284473430037, -0.2486938145913, 0
286, 0.27639651813453, -0.19546732983024, 0
287, 0.14991757247552, 0.11034480788183, 0
288, 0.65126236417939, -0.053777632020854, 0
289, 0.50909193180338, -0.049053429828063, 0
290, 0.051863922475516, -0.27361583306961, 0
291, 0.97491768902758, -0.24668709116532, 0
292, 0.38048020758939, 0.11235597489497, 0
293, 0.53610233926852, -0.20928810106707, 0
294, 0.36068816016127, -0.25003091975382, 0
295, 0.27136811157857, 0.07704767352125, 0
296, 0.52296939865732, -0.11371278034783, 0
297, 0.78788726808856, -0.050785937100602, 0
298, 0.84569982873042, 0.11990376548427, 0
299, 0.50037763318492, -0.27544134158079, 0
300, 0.92694835333737, -0.022115073025793, 0
301, 0.71980958961421, -0.060223968848753, 0
302, 0.44376590200665, -0.25193531226632, 0
303, 0.36555501248881, -0.27498009355176, 0
304, 0.049709617245726, -0.0010653560367054, 0
305, 0.60272387731844, -0.052905562501258, 0
306, 0.5014022087604, -0.25255072610311, 0
307, 0.049932483733676, -0.028695608635816, 0
308, 0.64406944230735, -0.10725353300721, 0
309, 0.17501077215367, -0.1656506855019, 0
310, 0.22388117427406, 0.10873405789753, 0
311, 0.72150763008164, 0.091001434615707, 0
312, 0.15562487002533, -0.27398322915285, 0
313, 0.56293792303569, -0.22979897454505, 0
314, 0.099455161082122, 0.055278801046123, 0
315, 0.5289922839804, -0.095556225887836, 0
316, 0.3666712556336, 0.14006453551051, 0
317, 0.35412766144279, 0.1932727964803, 0
318, 0.44600653539461, -0.12816806543189, 0
319, 0.527522834982, -0.27550150215941, 0
320, 0.33751611117247, 0.10592997873944, 0
321, 0.24988615263488, -0.058902327667933, 0
322, 0.92558218843444, -0.21992812243595, 0
323, 0.97519797642625, -0.1093832727821, 0
324, 0.94804084862777, 0.24705909483625, 0
325, 0.92199242108202, 0.19533595760347, 0
326, 0.84366976354587, 0.14606921374541, 0
327, 0.82948162053969, -0.19324372249379, 0
328, 0.099950641059937, -0.11028249111185, 0
329, 0.58717372674376, -0.25175128701883, 0
330, 0.56668219479886, 0.16771845071757, 0
331, 0.52021383622814, 0.18232005077883, 0
332, 0.55233367827483, 0.20683794788096, 0
333, 0.50282892753105, -0.23076991029519, 0
334, 0.67475038539988, -0.044156279873442, 0
335, 0.9237720849991, 0.11617628865675, 0
336, 0.40687777628419, 0.19426354820484, 0
337, 0.38278752623066, -0.20311233210191, 0
338, 0.37624256207944, 0.16778104998536, 0
339, 0.66251517527891, -0.15221684821519, 0
340, 0.35011143486795, 0.16616960159059, 0
341, 0.46203151267951, 0.20307422195404, 0
342, 0.1742774543972, -0.11041418077114, 0
343, 0.66177478886596, -0.27503981605644, 0
344, 0.8046595258209, 0.038224359562783, 0
345, 0.9499269336304, 0.086990982344308, 0
346, 0.27415332278957, -0.11510460278579, 0
347, 0.024811823002619, -0.0024182421012565, 0
348, 0.65812194651844, -0.17721941251959, 0
349, 0.099557453555431, 0.027743501379445, 0
350, 0.19908861548561, -0.11096004865883, 0
351, 0.1510330308428, -0.19296796393658, 0
352, 0.59467745645196, 0.047802130498901, 0
353, 0.12468575047327, -0.08242525315037, 0
354, 0.45611518773003, -0.07706928839027, 0
355, 0.65164425200619, 0.0060035770308359, 0
356, 0.47314125917491, -0.20936811225954, 0
357, 0.65382333430697, 0.21581471406534, 0
358, 0.81401332801217, 0.19771608968343, 0
359, 0.68005694693073, 0.27303517037944, 0
360, 0.92160320543372, 0.27362850485357, 0
361, 0.81070535547044, -0.049434653245466, 0
362, 0.75254022067302, 0.064902940599477, 0
363, 0.17928312092217, -0.24748792597784, 0
364, 0.77733557415633, -0.22193845425167, 0
365, 0.17479750905183, -0.027842506427964, 0
366, 0.37156546701558, 0.0094417754032812, 0
367, 0.14977942920659, 0.027513511746629, 0
368, 0.66657169254435, -0.1266280535513, 0
369, 0.43137846375695, -0.035127453540759, 0
370, 0.95036955972696, -0.21978614781939, 0
371, 0.84580958331257, -0.27424188835974, 0
372, 0.26147513852066, 0.27402588563953, 0
373, 0.31437535798797, 0.27403531605051, 0
374, 0.28450986369847, 0.2474959042832, 0
375, 0.28794890976833, 0.27410854133356, 0
376, 0.30054760773564, -0.17051382849852, 0
377, 0.10362541870436, -0.27381995196229, 0
378, 0.050764663643214, -0.19325520921118, 0
379, 0.89751353006627, -0.27389212105629, 0
380, 0.10394936965854, 0.27345715447469, 0
381, 0.077400811356771, 0.24660931640605, 0
382, 0.051960028890109, 0.27334877186731, 0
383, 0.077927886022335, 0.27340253101121, 0
384, 0.15617612073794, 0.27359499974365, 0
385, 0.12909939378346, 0.24681194022096, 0
386, 0.13003154293502, 0.27351624646218, 0
387, 0.88005358505807, -0.048797676660326, 0
388, 0.29703845634795, 0.044457985003471, 0
389, 0.51535456827626, -0.032095882249284, 0
390, 0.55893270600262, -0.25221818412999, 0
391, 0.89933881941156, -0.24724118953192, 0
392, 0.12489944487367, 0.11047848461806, 0
393, 0.49604793710907, 0.25191648356356, 0
394, 0.47054973614271, 0.27432881339859, 0
395, 0.52562809913106, 0.2747125084763, 0
396, 0.4979860660415, 0.27501423981141, 0
397, 0.58136943163427, -0.00035082621554773, 0
398, 0.83095771635848, 0.0096789505425646, 0
399, 0.026031717404911, -0.27360691854129, 0
400, 0.71673380263553, -0.11741405042505, 0
401, 0.63965058945566, -0.13227847368306, 0
402, 0.92540679311553, 0.061877943130133, 0
403, 0.22397157778011, -0.11184584014865, 0
404, 0.80108190998438, 0.066477379523295, 0
405, 0.22541453334187, 0.024346989667803, 0
406, 0.4221317919652, -0.048704760297252, 0
407, 0.50468840337495, -0.20981993842129, 0
408, 0.87977538034238, -0.13576908407016, 0
409, 0.43193488924223, 0.0073182382064625, 0
410, 0.20867705906308, 0.27379634968955, 0
411, 0.18091699757351, 0.24704926930371, 0
412, 0.18239051723753, 0.27367949276497, 0
413, 0.58162588748275, -0.27539216842813, 0
414, 0.3539864903058, -0.052279423014998, 0
415, 0.27426869795716, -0.14196122044475, 0
416, 0.72698856769171, -0.22329296456359, 0
417, 0.80753021566548, 0.0093424302088873, 0
418, 0.6953972792878, -0.24971503218591, 0
419, 0.68824847089783, -0.27499179620334, 0
420, 0.56499098731118, -0.087965272078505, 0
421, 0.39812461982024, -0.015040561740814, 0
422, 0.29422688669391, 0.075069867337767, 0
423, 0.64814840287035, -0.22625415559994, 0
424, 0.074843713414415, -0.027829195264725, 0
425, 0.29977560651798, -0.144212054769, 0
426, 0.67373629027298, 0.084631548128536, 0
427, 0.41134801114918, -0.14119392167162, 0
428, 0.024877445479253, 0.13719272439957, 0
429, 0.025642667031994, -0.220624208214, 0
430, 0.25099762254149, -0.0048896641271043, 0
431, 0.25312609178705, -0.22142793276377, 0
432, 0.81977291826152, -0.27446096614189, 0
433, 0.74644225341378, 0.092667682034425, 0
434, 0.74066306266565, -0.11403729247225, 0
435, 0.049470334354873, 0.082086604913414, 0
436, 0.050271512341229, 0.16502064602394, 0
437, 0.025297795208513, 0.19235562722963, 0
438, 0.025055167148894, 0.16487579092095, 0
439, 0.86834126608262, 0.19694630560722, 0
440, 0.89507981309264, 0.27379380611043, 0
441, 0.75972247997773, 0.27436315119664, 0
442, 0.41113699257237, -0.1836775632064, 0
443, 0.23389955124939, -0.27420261284309, 0
444, 0.94946220666031, 0.11414726993326, 0
445, 0.75772000149399, 0.036092669689091, 0
446, 0.099769443408081, -0.027349021994757, 0
447, 0.69712413997439, 0.088411825737696, 0
448, 0.22410890236991, -0.1392474724028, 0
449, 0.70602012061687, 0.24672514851358, 0
450, 0.70499149582511, 0.19362079684174, 0
451, 0.8679361836602, 0.24822179496573, 0
452, 0.60520927649892, 0.27203917699514, 0
453, 0.54768646331388, -0.14829585746181, 0
454, 0.26004528827639, -0.27428178953938, 0
455, 0.074707358337834, 0.11020145518135, 0
456, 0.2327593961416, 0.24732002149173, 0
457, 0.23504482487102, 0.27391384145263, 0
458, 0.92303202012873, 0.14280592666515, 0
459, 0.78997305627375, 0.14649087405687, 0
460, 0.75918594834872, 0.22256278306779, 0
461, 0.73216474497319, 0.1955521332138, 0
462, 0.87171152688472, -0.27403370999899, 0
463, 0.51347540917156, -0.15072850886305, 0
464, 0.4461448081319, -0.27527077407693, 0
465, 0.050447058796356, -0.16608429950716, 0
466, 0.025811656478698, 0.2465782857626, 0
467, 0.026022031058305, 0.2733463077057, 0
468, 0.62942763406385, -0.038224722924744, 0
469, 0.95099405347791, -0.024009739812762, 0
470, 0.67017878746759, -0.10023100797168, 0
471, 0.60522382408183, 0.21354894281793, 0
472, 0.67800194002563, 0.19107059878035, 0
473, 0.65282626600079, -0.024753790461574, 0
474, 0.10183796628662, -0.22012923385515, 0
475, 0.97454119007784, -0.27356404225776, 0
476, 0.38780416256721, -0.25075261786498, 0
477, 0.075976904204174, -0.19298638930231, 0
478, 0.63093122929329, -0.0094675321897049, 0
479, 0.3763733048164, 0.079862246190528, 0
480, 0.84214574366687, 0.17186816154566, 0
481, 0.73564705794648, 0.14480911120521, 0
482, 0.76037881212964, 0.17138278815945, 0
483, 0.78696378572944, 0.27447680027235, 0
484, 0.76235015575415, -0.13999151468519, 0
485, 0.8546139073147, 0.0094908809223229, 0
486, 0.70555262423035, 0.21995326554567, 0
487, 0.58009613736372, 0.27319753204829, 0
488, 0.80955300887105, -0.019952121538597, 0
489, 0.78438555605267, 0.008372293264032, 0
490, 0.76404867008886, -0.023173062903603, 0
491, 0.33609848189657, 0.24725978508811, 0
492, 0.36678727971652, 0.27363560622202, 0
493, 0.34068275801857, 0.27391149702549, 0
494, 0.19994443078096, -0.028694994596966, 0
495, 0.87365104036755, 0.092256267097608, 0
496, 0.9489258447833, -0.27369745693037, 0
497, 0.81357340962339, 0.22326162834082, 0
498, 0.87030322551107, 0.14528776133631, 0
499, 0.43952076411601, 0.24705419262205, 0
500, 0.41839863821061, 0.27328942339078, 0
501, 0.44408684654207, 0.2733028371622, 0
502, 0.73156014116178, -0.19675144291234, 0
503, 0.85677992307385, -0.04852937396821, 0
504, 0.75932397097134, 0.24846109405808, 0
505, 0.8949483111594, 0.22204907894515, 0
506, 0.95068424264974, 0.031899443998168, 0
507, 0.95101071200385, -0.052142105879564, 0
508, 0.69214207202527, -0.12161891148036, 0
509, 0.14973113331691, -0.027358164798885, 0
510, 0.73921139596392, 0.003810666472594, 0
511, 0.85055654659002, 0.065889949763338, 0
512, 0.38765425502085, 0.24676808057622, 0
513, 0.39266215403911, 0.27338478519967, 0
514, 0.55468241688189, 0.25157344391289, 0
515, 0.55327399160084, 0.27511915399068, 0
516, 0.62972869099099, 0.27213598672378, 0
517, 0.81424832047255, 0.27446803825882, 0
518, 0.15377531979142, 0.22001354333019, 0
519, 0.12712953068573, 0.19277681169881, 0
520, 0.10243727796867, 0.21976711977925, 0
521, 0.12810660868978, 0.21989324935656, 0
522, 0.70610703457266, 0.05988142546847, 0
523, 0.97525705155944, 0.056565480358564, 0
524, 0.22472807014386, -0.16662308649911, 0
525, 0.60609805431442, -0.16105042294083, 0
526, 0.17737964743316, -0.22047228496125, 0
527, 0.7866788241848, -0.021156390642922, 0
528, 0.53309630037529, -0.23053105434941, 0
529, 0.17448813156049, 0.082156579240081, 0
530, 0.78810600966827, -0.080292723415267, 0
531, 0.70127272740674, -0.22412830347436, 0
532, 0.14959546296767, 0.082651186852356, 0
533, 0.049523519622603, 0.026611184746791, 0
534, 0.68869329596024, -0.14828579782058, 0
535, 0.074664624561634, -0.00022615605652063, 0
536, 0.30076844151434, -0.064889224801922, 0
537, 0.41212503848886, -0.12082454822383, 0
538, 0.3799726409038, 0.047935188232673, 0
539, 0.95036545857756, 0.059567950105977, 0
540, 0.60798262583622, -0.00055146047482901, 0
541, 0.27861667268031, 0.19286417880419, 0
542, 0.25602700127907, 0.22036180654684, 0
543, 0.30680233378404, 0.22033864191498, 0
544, 0.28142665772085, 0.22038687170791, 0
545, 0.025882452703984, -0.24722311139869, 0
546, 0.419170532323, -0.27522565642795, 0
547, 0.63507136124678, -0.15656496510177, 0
548, 0.79829577040108, -0.24836486079835, 0
549, 0.46156100410384, -0.061901596064494, 0
550, 0.87617260939398, -0.22025523716918, 0
551, 0.051156189462772, 0.21955370458496, 0
552, 0.025557350854877, 0.21958627616784, 0
553, 0.31253677955038, -0.27459986436311, 0
554, 0.92713221573227, -0.050588948831448, 0
555, 0.62053084116298, -0.22749420601015, 0
556, 0.85631150680442, -0.13591993719011, 0
557, 0.17496202727823, -0.00047915434219086, 0
558, 0.81945486634108, 0.12043900976591, 0
559, 0.82257839821238, 0.093783672518029, 0
560, 0.3017125896083, -0.038340161207137, 0
561, 0.33650870158851, 0.07182448922246, 0
562, 0.22420587955689, -0.08447747739621, 0
563, 0.27498059895739, -0.16876159278416, 0
564, 0.24897127260839, -0.11317659275766, 0
565, 0.83401970854908, -0.078090484160584, 0
566, 0.90085132328525, -0.22006226040206, 0
567, 0.84122985277546, 0.19747659354866, 0
568, 0.78778152083327, 0.17204866367844, 0
569, 0.6306024871604, 0.24324642650854, 0
570, 0.62906162593603, 0.21395771108498, 0
571, 0.67503163784414, -0.22511193290478, 0
572, 0.49051290888996, -0.09769522121673, 0
573, 0.82861312550438, 0.03833610929753, 0
574, 0.024729328678452, 0.10934379219539, 0
575, 0.95100698594339, -0.10848104905214, 0
576, 0.53029413467885, -0.25250661843797, 0
577, 0.59726846741932, -0.077156343720461, 0
578, 0.15151353481881, 0.16552370457687, 0
579, 0.17799596705241, 0.19292052411929, 0
580, 0.20177566049942, 0.16537358350961, 0
581, 0.1755751319709, 0.1378300738237, 0
582, 0.17670727340726, 0.16548411307159, 0
583, 0.2246728763826, -0.057187957495377, 0
584, 0.76738336973138, -0.27476620794992, 0
585, 0.92324408226471, -0.27377346307951, 0
586, 0.9751945735573, -0.21947583243748, 0
587, 0.20502448832292, 0.22021986425471, 0
588, 0.17942209107933, 0.22011958232304, 0
589, 0.07508089909378, 0.13776167343993, 0
590, 0.73532799942481, -0.16972390614262, 0
591, 0.97535431052561, 0.0011384817014543, 0
592, 0.68060782149844, 0.14030248146697, 0
593, 0.23041199842799, -0.2478130798341, 0
594, 0.099809635941832, 0.1104256652967, 0
595, 0.099878695866493, -0.082625237169153, 0
596, 0.92608516603442, 0.034186713140198, 0
597, 0.71729837068392, -0.00032091359537999, 0
598, 0.025173068419363, -0.11225001681942, 0
599, 0.87778603049212, -0.19253356180901, 0
600, 0.60678059773502, -0.027249174017247, 0
601, 0.9245463474721, -0.24708531268916, 0
602, 0.075052186266659, -0.083092187054914, 0
603, 0.12537776842505, -0.16537635768283, 0
604, 0.32662801381354, -0.17286305844801, 0
605, 0.02519184498854, -0.13953295300525, 0
606, 0.97532741280882, 0.028871149328151, 0
607, 0.077195917718035, -0.2470648521016, 0
608, 0.12453068598458, 0.055300109409833, 0
609, 0.1745926852831, 0.054411397823573, 0
610, 0.32580011302923, -0.14728360877914, 0
611, 0.025004611867031, -0.030069564090625, 0
612, 0.32587405744271, -0.095866735089191, 0
613, 0.049656395562874, 0.10982835393542, 0
614, 0.24928724603717, -0.086009827038167, 0
615, 0.051599574123846, -0.2470314939857, 0
616, 0.62578910525639, -0.065233160381184, 0
617, 0.8536252066107, -0.1928115939889, 0
618, 0.47436783986475, -0.18901687426251, 0
619, 0.44202024122294, -0.2079050213144, 0
620, 0.90360513358928, -0.10717553250766, 0
621, 0.54327366452023, -0.16830777007953, 0
622, 0.38390352291547, -0.046750856979904, 0
623, 0.31626402199637, 0.10550159857365, 0
624, 0.2025567852993, -0.22069296155098, 0
625, 0.80216529514696, -0.2213992089442, 0
626, 0.44248749388528, -0.22954408193778, 0
627, 0.33408271899583, -0.24942165173664, 0
628, 0.62110032919983, -0.090676585887433, 0
629, 0.24890409937919, 0.05012316395763, 0
630, 0.50702957437435, -0.18955007812666, 0
631, 0.35265834497788, -0.1513576922536, 0
632, 0.8110355964795, -0.078900948695455, 0
633, 0.58032837163409, -0.14384259290387, 0
634, 0.27452412212056, -0.088227645634489, 0
635, 0.2048261909064, -0.2476306180913, 0
636, 0.69678058542059, -0.065789156093467, 0
637, 0.12494653689084, -0.13776653597947, 0
638, 0.97528418996761, -0.13693840266158, 0
639, 0.1498058758301, 8.9509742432385e-05, 0
640, 0.73221254287783, 0.22149678239174, 0
641, 0.81503397788331, 0.17218075449952, 0
642, 0.69727147078165, -0.036434063905842, 0
643, 0.6844046449276, 0.055270800012075, 0
644, 0.94975084827782, -0.24694541597118, 0
645, 0.97489578141548, 0.11157949837115, 0
646, 0.15376171177352, -0.24736148306387, 0
647, 0.40088734246067, 0.054068366172834, 0
648, 0.55133059961014, -0.0013754984879722, 0
649, 0.025426196774548, -0.19378855308402, 0
650, 0.64220503227173, -0.25063271512682, 0
651, 0.50992564955848, -0.16987362192457, 0
652, 0.7214476477974, -0.24936901849111, 0
653, 0.62502810738716, 0.18511352301438, 0
654, 0.75943405139277, 0.19684659402912, 0
655, 0.89487396331211, 0.24786465171528, 0
656, 0.94868255182274, 0.1677228805992, 0
657, 0.49257949997631, 0.20824051852733, 0
658, 0.49175130825732, 0.18670490033959, 0
659, 0.27315956750815, 0.13625864884837, 0
660, 0.25142024898367, 0.1650256306837, 0
661, 0.30048756311361, 0.16493852402471, 0
662, 0.2759948239642, 0.16489966796149, 0
663, 0.60502405856435, 0.077441097557752, 0
664, 0.67306302408139, -0.07280198286073, 0
665, 0.78601643044151, -0.13834367877519, 0
666, 0.75644009518066, -0.19555727427704, 0
667, 0.17480280616954, 0.11001206803101, 0
668, 0.29962461182331, -0.11783613103412, 0
669, 0.46923826642963, -0.047276852831489, 0
670, 0.48901349442937, -0.015754285625351, 0
671, 0.95096887139857, -0.16452876379103, 0
672, 0.38597071037339, -0.027281000464559, 0
673, 0.62066730536966, 0.051154687363581, 0
674, 0.76158958300396, 0.0066048291827147, 0
675, 0.19923413753746, -0.08345102688721, 0
676, 0.78385786832062, -0.16671694340132, 0
677, 0.28186021077741, -0.24837171099652, 0
678, 0.90246099308598, 0.0077443994984298, 0
679, 0.97534660329505, -0.16451354403706, 0
680, 0.66429640153401, 0.048434584938492, 0
681, 0.12473722347236, -0.11010038291363, 0
682, 0.59678410255286, -0.20607730597077, 0
683, 0.22852389144464, 0.1929212914095, 0
684, 0.2305623435111, 0.22030208911138, 0
685, 0.97443291225302, 0.19291457786255, 0
686, 0.58942480125703, 0.15428335299439, 0
687, 0.86795051692889, 0.22258345052462, 0
688, 0.050201065565406, -0.11134622117016, 0
689, 0.97530563509983, -0.02657817791331, 0
690, 0.22497139017666, 0.13713155822907, 0
691, 0.22668564177615, 0.16520748919944, 0
692, 0.92721169349883, -0.079157998769629, 0
693, 0.78099419277841, 0.037526944614724, 0
694, 0.17596537326386, -0.19315538573821, 0
695, 0.12704864638414, -0.22019831586937, 0
696, 0.27623697959938, 0.019348100001065, 0
697, 0.10273331790934, -0.24714459732495, 0
698, 0.74165960280396, -0.026213100993407, 0
699, 0.87944500998303, -0.019848261533046, 0
700, 0.35235910310156, -0.12680885141344, 0
701, 0.3824697650381, -0.067711658861092, 0
702, 0.63040575405845, -0.1803801522859, 0
703, 0.62560727059082, -0.20395502981769, 0
704, 0.71037325983055, -0.17181327868224, 0
705, 0.90349660823146, -0.049485560980828, 0
706, 0.71388907730183, -0.14492323501766, 0
707, 0.67452771181259, -0.014222689737351, 0
708, 0.78744965108045, -0.10951423264939, 0
709, 0.8268718490284, -0.22094612334349, 0
710, 0.89528436398057, 0.1962333456602, 0
711, 0.60668433719651, 0.24318379919862, 0
712, 0.75976849744936, -0.16803368573682, 0
713, 0.61493748173336, -0.25119399325346, 0
714, 0.71467513299217, -0.27496377676374, 0
715, 0.35309836983255, -0.077365677564713, 0
716, 0.76518412148326, -0.052914039674215, 0
717, 0.075257810456827, -0.13823224535747, 0
718, 0.29420997661671, 0.10594665503044, 0
719, 0.63366895187001, 0.071398076203696, 0
720, 0.65212311579077, 0.079267354667186, 0
721, 0.41184080956727, 0.02820242706788, 0
722, 0.92632213005522, -0.19234692216179, 0
723, 0.50250052163641, -0.065287475045871, 0
724, 0.55859908690378, -0.1083781620113, 0
725, 0.22519148610113, -0.029996136434275, 0
726, 0.69581569231326, -0.0061862755235736, 0
727, 0.58565904688279, -0.12227752373957, 0
728, 0.95102123931012, -0.080318168173889, 0
729, 0.39730766142847, 0.083468044602439, 0
730, 0.40239660303156, 0.11425713368786, 0
731, 0.87845776802997, 0.0088405711283667, 0
732, 0.63519422774366, -0.27514432153252, 0
733, 0.14960772809017, -0.054880375470319, 0
734, 0.94819358387786, 0.22066650845879, 0
735, 0.94903885126886, 0.14104446454566, 0
736, 0.86910775274088, 0.17122161556021, 0
737, 0.65460628288643, 0.27253360192085, 0
738, 0.4856512041501, -0.11457078600816, 0
739, 0.39079290148581, 0.019125572143953, 0
740, 0.88020485761406, -0.10690141251418, 0
741, 0.36035976429948, 0.041366956511074, 0
742, 0.19948537566661, 0.10947376023042, 0
743, 0.47323357650801, -0.27539439208402, 0
744, 0.97508390999745, 0.084155057123408, 0
745, 0.90283332302913, -0.16430963953889, 0
746, 0.61604134797489, -0.11489321325953, 0
747, 0.89788623820653, 0.11777411767755, 0
748, 0.87898172765565, -0.16434493712456, 0
749, 0.1004964076062, -0.16544847959021, 0
750, 0.35480638825883, -0.026758191075351, 0
751, 0.24777872840665, 0.07881003482893, 0
752, 0.17494185368501, 0.026884836378169, 0
753, 0.22430603261782, 0.052030151090101, 0
754, 0.24788683203686, 0.10782527264505, 0
755, 0.83375325492943, -0.10735319187058, 0
756, 0.89588489099026, 0.17032113138728, 0
757, 0.85152371396399, -0.22055474935804, 0
758, 0.19956923980622, -0.056023283279591, 0
759, 0.80950121760924, -0.13715635556664, 0
760, 0.24974771600589, -0.16750223392923, 0
761, 0.47248987092455, -0.23044934317062, 0
762, 0.87185092819402, 0.11900690069218, 0
763, 0.15221989081272, -0.22031006065476, 0
764, 0.22553427740378, -0.0028650879669067, 0
765, 0.32834620711602, -0.017517437133718, 0
766, 0.076155377865756, 0.19250604722744, 0
767, 0.076784302247824, 0.21964297467468, 0
768, 0.07439487311312, 0.054960686413828, 0
769, 0.41549731560331, -0.25139192473229, 0
770, 0.84811240369665, 0.093207945116419, 0
771, 0.32660708498474, -0.069955852228908, 0
772, 0.64851881511735, 0.16185867364256, 0
773, 0.86835714987378, 0.27395983498779, 0
774, 0.90334760578947, -0.13587226704445, 0
775, 0.27320628189863, 0.047628164290906, 0
776, 0.1743403397543, -0.082811238726407, 0
777, 0.7936296156359, -0.27461579348566, 0
778, 0.77168025096002, 0.093601015118249, 0
779, 0.41317940627836, -0.228257350837, 0
780, 0.48170331941967, -0.13211894177948, 0
781, 0.27863954956492, -0.22202821132102, 0
782, 0.49623689583851, -0.081352479173017, 0
783, 0.71878642148704, -0.089196502228644, 0
784, 0.97457295522384, 0.16593706828562, 0
785, 0.73836666294636, -0.14216796690342, 0
786, 0.31990228747164, 0.13637851818413, 0
787, 0.10013782772266, -0.13790379643867, 0
788, 0.78673425288549, 0.19753159794715, 0
789, 0.12608000062989, -0.19287602196759, 0
790, 0.95090084910176, 0.0040211672783431, 0
791, 0.57546678724581, -0.16515878606096, 0
792, 0.14971382552337, -0.13781050405873, 0
793, 0.074993210962217, -0.055458138076868, 0
794, 0.025249529836587, -0.16673434084576, 0
795, 0.81689252944184, 0.14649823403736, 0
796, 0.65294069865034, 0.13698394296891, 0
797, 0.62537096934497, 0.13347049055994, 0
798, 0.89676987838657, 0.14420477031613, 0
799, 0.10090583839302, 0.16537364010722, 0
800, 0.075571554122386, 0.16520728203548, 0
801, 0.57669356460002, 0.019969020686236, 0
802, 0.95075132692811, -0.19228959539056, 0
803, 0.59751866522137, 0.13081820345815, 0
804, 0.97406960706826, 0.2733201357738, 0
805, 0.12546090556884, 0.13803829597487, 0
806, 0.12623312921846, 0.16548453449194, 0
807, 0.60444658719906, 0.025576874394974, 0
808, 0.64809233824546, -0.081189747673517, 0
809, 0.728942371807, 0.062949351371376, 0
810, 0.68470865967873, -0.17432263251824, 0
811, 0.90310745661357, -0.020751192571424, 0
812, 0.54209345012843, -0.058874442466754, 0
813, 0.68019122758242, -0.19988478344177, 0
814, 0.25607245909181, -0.24804463169411, 0
815, 0.35782122274616, 0.22016776569307, 0
816, 0.40981038626144, 0.22033632427388, 0
817, 0.38368937337201, 0.22020034265229, 0
818, 0.47616517338516, -0.16935482154739, 0
819, 0.97523213245659, -0.054226236876863, 0
820, 0.74211541793282, -0.085305262193997, 0
821, 0.41365517956963, -0.0037216477253184, 0
822, 0.85521627482762, -0.16457333949909, 0
823, 0.61948651193454, 0.15830716473553, 0
824, 0.83148715053497, -0.16502631807813, 0
825, 0.28623914306957, -0.27439815021747, 0
826, 0.32557536119776, -0.12163121825544, 0
827, 0.12471107544198, 0.00031537711624573, 0
828, 0.41800615801505, -0.064795376791541, 0
829, 0.55087574919919, -0.020950057902895, 0
830, 0.4640563586622, 0.2262869074845, 0
831, 0.43606192920107, 0.22093666336559, 0
832, 0.099533916224785, 0.082848166791577, 0
833, 0.79708509257671, 0.093937911027244, 0
834, 0.32869905527519, 0.19300428978802, 0
835, 0.34298579450145, 0.13747020803336, 0
836, 0.32508253580949, 0.16531833874314, 0
837, 0.76516704935656, -0.082382351840346, 0
838, 0.12459278388172, 0.082875249098832, 0
839, 0.80772905629313, -0.16572679952892, 0
840, 0.22367453675158, 0.080256168858901, 0
841, 0.35379862573433, -6.6857631705113e-05, 0
842, 0.20014789942782, 0.025856055445498, 0
843, 0.30441807032683, -0.22286033247645, 0
844, 0.55462857248162, -0.27548002509543, 0
845, 0.41101050204237, -0.16216595081505, 0
846, 0.31605644739721, 0.073155582956877, 0
847, 0.27660909864142, -0.0077138503455748, 0
848, 0.38072135256269, -0.13402404814107, 0
849, 0.73497358049601, 0.033701212210589, 0
850, 0.30784002072603, -0.2488429476291, 0
851, 0.458349734659, -0.0082247088219365, 0
852, 0.4133796186443, -0.10116813217512, 0
853, 0.44351349746962, -0.021934899354441, 0
854, 0.65337554798654, -0.20183837786572, 0
855, 0.55278622490449, -0.12839325276775, 0
856, 0.19951397414603, 0.053434842357683, 0
857, 0.52441082545445, 0.22854212362634, 0
858, 0.49419428281215, 0.22982124600699, 0
859, 0.076557626341727, -0.22013104252583, 0
860, 0.67142794571897, 0.016835813976444, 0
861, 0.95102547423402, -0.13657395017103, 0
862, 0.39229178077815, -0.27515703197786, 0
863, 0.90155147061801, 0.035902159176001, 0
864, 0.4421932325442, -0.1869388447824, 0
865, 0.20778155317536, -0.27412379736903, 0
866, 0.44849825395604, -0.11017294628743, 0
867, 0.077715902028766, -0.27373171380965, 0
868, 0.1495868286294, 0.055019134828479, 0
869, 0.84142037078874, 0.27424053093718, 0
870, 0.94840016266903, 0.19424234955597, 0
871, 0.65501638338347, 0.24423848139992, 0
872, 0.70619839358077, -0.19818456891663, 0
873, 0.25105862728227, -0.19454951251543, 0
874, 0.5710284816272, -0.1864626044877, 0
875, 0.3322355108499, 0.22027037694044, 0
876, 0.25055731563212, -0.031875702937963, 0
877, 0.71292227455443, 0.030030704835116, 0
878, 0.22592516795465, -0.19390280357213, 0
879, 0.32765375360581, 0.0096126193572852, 0
880, 0.74724636585641, -0.24901722736745, 0
881, 0.60848755202959, -0.27526956877346, 0
882, 0.78642966889517, 0.24880116173308, 0
883, 0.14949865470074, -0.082482745019211, 0
884, 0.88030375694931, -0.077864324369526, 0
885, 0.44417852694901, -0.14701900836419, 0
886, 0.77664330218594, 0.066017976199872, 0
887, 0.60139075820362, -0.18358583109587, 0
888, 0.58142050821978, 0.21979470087745, 0
889, 0.55450530485051, 0.22888026187362, 0
890, 0.32759194833327, -0.043869048278833, 0
891, 0.59212152784786, -0.22872949005027, 0
892, 0.5669035038474, -0.20794868201903, 0
893, 0.83290688017846, -0.13636812455374, 0
894, 0.73270849191992, 0.27400239561388, 0
895, 0.53945218186497, -0.18859350392481, 0
896, 0.92459954160063, 0.089209794250043, 0
897, 0.3847755180729, -0.2267523862414, 0
898, 0.41607875296555, 0.14358890984059, 0
899, 0.38156027662951, -0.17979455559893, 0
900, 0.22778872005699, -0.22100169725325, 0
901, 0.78097791819999, -0.19459427711305, 0
902, 0.32816768548068, -0.19840428247738, 0
903, 0.70501725696932, 0.16803216582539, 0
904, 0.20091415322729, -0.19345425716562, 0
905, 0.54701610375598, 0.18483689641819, 0
906, 0.19920799905334, 0.081366829131934, 0
907, 0.43311350195895, 0.16898299941433, 0
908, 0.74253362135318, -0.055994740707634, 0
909, 0.43367151550313, 0.19474997910468, 0
910, 0.051169644527249, -0.22024633743476, 0
911, 0.32007038227078, 0.040561447669938, 0
912, 0.54755718324354, -0.040054333381464, 0
913, 0.57736271564121, -0.044916424100921, 0
914, 0.17455412494627, -0.055280503225756, 0
915, 0.30204845154046, -0.19673592695415, 0
916, 0.24908659159387, -0.14035820644596, 0
917, 0.79312425970427, 0.12055220808659, 0
918, 0.7667088273501, 0.1201690106632, 0
919, 0.74021548773521, 0.11918441467764, 0
920, 0.71367488345469, 0.11748406674683, 0
921, 0.68718671497179, 0.11493804762705, 0
922, 0.66099644360237, 0.11145113695908, 0
923, 0.63558716459958, 0.10718050617012, 0
924, 0.6114888333077, 0.1032511270567, 0
******* E L E M E N T S *************
*ELEMENT, type=T3D2, ELSET=Line1
1, 1, 10
2, 10, 18
3, 18, 11
4, 11, 19
5, 19, 12
6, 12, 20
7, 20, 13
8, 13, 21
9, 21, 14
10, 14, 22
11, 22, 15
12, 15, 23
13, 23, 16
14, 16, 24
15, 24, 17
16, 17, 2
*ELEMENT, type=T3D2, ELSET=Line2
17, 2, 25
18, 25, 28
19, 28, 26
20, 26, 29
21, 29, 27
22, 27, 3
*ELEMENT, type=T3D2, ELSET=Line3
23, 3, 30
24, 30, 38
25, 38, 31
26, 31, 39
27, 39, 32
28, 32, 40
29, 40, 33
30, 33, 41
31, 41, 34
32, 34, 42
33, 42, 35
34, 35, 43
35, 43, 36
36, 36, 44
37, 44, 37
38, 37, 4
*ELEMENT, type=T3D2, ELSET=Line4
39, 4, 45
40, 45, 56
41, 56, 46
42, 46, 57
43, 57, 47
44, 47, 58
45, 58, 48
46, 48, 59
47, 59, 49
48, 49, 60
49, 60, 50
50, 50, 61
51, 61, 51
52, 51, 62
53, 62, 52
54, 52, 63
55, 63, 53
56, 53, 64
57, 64, 54
58, 54, 65
59, 65, 55
60, 55, 5
*ELEMENT, type=T3D2, ELSET=Line5
61, 5, 66
62, 66, 74
63, 74, 67
64, 67, 75
65, 75, 68
66, 68, 76
67, 76, 69
68, 69, 77
69, 77, 70
70, 70, 78
71, 78, 71
72, 71, 79
73, 79, 72
74, 72, 80
75, 80, 73
76, 73, 6
*ELEMENT, type=T3D2, ELSET=Line6
77, 6, 81
78, 81, 84
79, 84, 82
80, 82, 85
81, 85, 83
82, 83, 7
*ELEMENT, type=T3D2, ELSET=Line7
83, 7, 86
84, 86, 94
85, 94, 87
86, 87, 95
87, 95, 88
88, 88, 96
89, 96, 89
90, 89, 97
91, 97, 90
92, 90, 98
93, 98, 91
94, 91, 99
95, 99, 92
96, 92, 100
97, 100, 93
98, 93, 8
*ELEMENT, type=T3D2, ELSET=Line8
99, 8, 101
100, 101, 112
101, 112, 102
102, 102, 113
103, 113, 103
104, 103, 114
105, 114, 104
106, 104, 115
107, 115, 105
108, 105, 116
109, 116, 106
110, 106, 117
111, 117, 107
112, 107, 118
113, 118, 108
114, 108, 119
115, 119, 109
116, 109, 120
117, 120, 110
118, 110, 121
119, 121, 111
120, 111, 1
*ELEMENT, type=T3D2, ELSET=Line9
121, 9, 122
122, 122, 132
123, 132, 123
124, 123, 133
125, 133, 124
126, 124, 134
127, 134, 125
128, 125, 135
129, 135, 126
130, 126, 136
131, 136, 127
132, 127, 137
133, 137, 128
134, 128, 138
135, 138, 129
136, 129, 139
137, 139, 130
138, 130, 140
139, 140, 131
140, 131, 9
*ELEMENT, type=CPS4, ELSET=Surface1
141, 276, 561, 846, 911
142, 484, 712, 676, 665
143, 328, 193, 717, 787
144, 289, 912, 829, 389
145, 147, 586, 46, 57
146, 725, 494, 758, 583
147, 242, 903, 450, 472
148, 873, 878, 900, 431
149, 463, 651, 621, 453
150, 446, 424, 793, 210
151, 415, 916, 760, 563
152, 439, 710, 505, 687
153, 686, 803, 797, 823
154, 486, 640, 260, 449
155, 567, 439, 687, 240
156, 824, 327, 617, 822
157, 387, 884, 155, 705
158, 906, 742, 667, 529
159, 715, 771, 612, 236
160, 768, 212, 435, 277
161, 219, 315, 420, 264
162, 890, 560, 536, 771
163, 827, 284, 446, 269
164, 196, 116, 106, 347
165, 565, 755, 216, 218
166, 891, 329, 713, 555
167, 177, 374, 375, 372
168, 372, 375, 88, 96
169, 375, 373, 95, 88
170, 374, 178, 373, 375
171, 157, 727, 746, 628
172, 569, 871, 737, 516
173, 625, 548, 201, 709
174, 490, 716, 297, 527
175, 99, 92, 383, 380
176, 380, 383, 381, 175
177, 383, 382, 173, 381
178, 92, 100, 382, 383
179, 98, 91, 386, 384
180, 384, 386, 385, 174
181, 386, 380, 175, 385
182, 91, 99, 380, 386
183, 606, 61, 51, 523
184, 329, 413, 881, 713
185, 778, 833, 917, 918
186, 863, 596, 402, 281
187, 414, 715, 148, 701
188, 352, 131, 140, 801
189, 230, 726, 597, 877
190, 227, 818, 651, 463
191, 257, 395, 396, 393
192, 393, 396, 394, 180
193, 396, 82, 85, 394
194, 395, 84, 82, 396
195, 577, 157, 628, 616
196, 902, 915, 843, 270
197, 881, 30, 38, 732
198, 626, 302, 161, 761
199, 599, 550, 566, 208
200, 414, 890, 771, 715
201, 612, 160, 668, 826
202, 364, 285, 548, 625
203, 610, 425, 376, 604
204, 528, 576, 390, 313
205, 783, 400, 434, 820
206, 388, 422, 295, 775
207, 743, 28, 26, 299
208, 548, 777, 432, 201
209, 496, 44, 37, 475
210, 97, 90, 412, 410
211, 410, 412, 411, 176
212, 412, 384, 174, 411
213, 90, 98, 384, 412
214, 594, 168, 589, 455
215, 812, 913, 238, 912
216, 214, 880, 285, 364
217, 723, 782, 219, 812
218, 621, 895, 874, 791
219, 895, 293, 892, 874
220, 319, 29, 27, 844
221, 566, 391, 601, 322
222, 689, 819, 49, 60
223, 782, 572, 315, 219
224, 676, 901, 156, 839
225, 403, 350, 220, 448
226, 616, 628, 808, 288
227, 443, 865, 21, 14
228, 698, 908, 716, 490
229, 874, 892, 682, 887
230, 868, 532, 838, 608
231, 909, 831, 816, 336
232, 339, 348, 810, 534
233, 681, 328, 787, 637
234, 198, 902, 270, 192
235, 356, 761, 333, 407
236, 759, 839, 824, 893
237, 912, 238, 397, 829
238, 242, 592, 245, 903
239, 399, 111, 1, 10
240, 741, 538, 479, 228
241, 185, 312, 20, 13
242, 172, 437, 438, 436
243, 436, 438, 428, 169
244, 438, 103, 114, 428
245, 437, 113, 103, 438
246, 255, 656, 870, 325
247, 756, 255, 325, 710
248, 471, 711, 153, 888
249, 483, 517, 69, 77
250, 199, 118, 108, 598
251, 405, 842, 282, 764
252, 715, 236, 272, 148
253, 749, 162, 477, 275
254, 160, 634, 346, 668
255, 267, 731, 678, 863
256, 154, 139, 129, 670
257, 365, 509, 733, 914
258, 903, 241, 461, 450
259, 711, 569, 516, 452
260, 441, 483, 77, 70
261, 472, 450, 486, 239
262, 600, 478, 207, 540
263, 510, 698, 490, 674
264, 370, 644, 291, 586
265, 435, 613, 574, 235
266, 96, 89, 457, 372
267, 372, 457, 456, 177
268, 457, 410, 176, 456
269, 89, 97, 410, 457
270, 251, 804, 66, 74
271, 798, 747, 335, 458
272, 250, 918, 917, 459
273, 686, 823, 653, 261
274, 810, 813, 872, 704
275, 495, 233, 747, 762
276, 860, 230, 643, 680
277, 377, 867, 11, 19
278, 723, 812, 912, 289
279, 602, 274, 688, 193
280, 886, 404, 833, 778
281, 670, 129, 138, 851
282, 100, 93, 467, 382
283, 382, 467, 466, 173
284, 467, 101, 112, 466
285, 93, 8, 101, 467
286, 506, 606, 523, 539
287, 158, 768, 277, 533
288, 430, 764, 725, 876
289, 217, 371, 462, 278
290, 261, 471, 888, 258
291, 871, 252, 359, 737
292, 497, 240, 262, 254
293, 882, 254, 517, 483
294, 848, 141, 845, 427
295, 559, 770, 298, 558
296, 632, 223, 755, 565
297, 334, 664, 636, 642
298, 351, 789, 695, 763
299, 703, 555, 423, 854
300, 445, 674, 489, 693
301, 777, 41, 34, 432
302, 821, 853, 851, 409
303, 236, 612, 826, 700
304, 478, 468, 473, 355
305, 162, 465, 378, 477
306, 325, 870, 734, 244
307, 823, 772, 247, 653
308, 656, 784, 685, 870
309, 641, 480, 567, 358
310, 849, 445, 362, 809
311, 293, 528, 313, 892
312, 876, 725, 583, 321
313, 785, 590, 712, 484
314, 324, 243, 804, 251
315, 517, 869, 76, 69
316, 734, 246, 243, 324
317, 245, 920, 919, 481
318, 720, 426, 922, 923
319, 284, 535, 424, 446
320, 854, 423, 571, 813
321, 237, 309, 694, 904
322, 179, 492, 493, 491
323, 491, 493, 373, 178
324, 493, 87, 95, 373
325, 492, 94, 87, 493
326, 586, 291, 56, 46
327, 220, 159, 309, 237
328, 563, 760, 873, 286
329, 534, 810, 704, 706
330, 262, 451, 773, 869
331, 246, 54, 65, 243
332, 784, 53, 64, 685
333, 358, 567, 240, 497
334, 180, 394, 501, 499
335, 499, 501, 500, 143
336, 501, 83, 7, 500
337, 394, 85, 83, 501
338, 879, 142, 283, 765
339, 780, 227, 463, 149
340, 623, 786, 183, 718
341, 156, 625, 709, 327
342, 440, 360, 67, 75
343, 655, 253, 360, 440
344, 870, 685, 246, 734
345, 417, 488, 206, 398
346, 354, 279, 572, 782
347, 863, 678, 150, 596
348, 764, 282, 494, 725
349, 624, 526, 363, 635
350, 194, 301, 908, 698
351, 398, 206, 202, 485
352, 143, 500, 513, 512
353, 512, 513, 492, 179
354, 513, 86, 94, 492
355, 500, 7, 86, 513
356, 6, 81, 515, 487
357, 487, 515, 514, 153
358, 515, 395, 257, 514
359, 81, 84, 395, 515
360, 568, 641, 358, 788
361, 516, 737, 72, 80
362, 254, 262, 869, 517
363, 797, 923, 922, 796
364, 174, 385, 521, 518
365, 518, 521, 519, 170
366, 521, 520, 171, 519
367, 385, 175, 520, 521
368, 505, 244, 253, 655
369, 595, 602, 193, 328
370, 453, 621, 791, 633
371, 224, 779, 626, 619
372, 850, 677, 825, 553
373, 688, 598, 605, 280
374, 748, 599, 208, 745
375, 887, 682, 703, 702
376, 820, 434, 268, 837
377, 852, 537, 318, 866
378, 355, 473, 707, 860
379, 644, 496, 475, 291
380, 280, 605, 794, 465
381, 197, 680, 720, 719
382, 274, 199, 598, 688
383, 769, 546, 464, 302
384, 145, 553, 23, 16
385, 210, 793, 602, 595
386, 537, 427, 885, 318
387, 346, 564, 916, 415
388, 184, 543, 544, 541
389, 541, 544, 542, 164
390, 544, 374, 177, 542
391, 543, 178, 374, 544
392, 281, 402, 896, 233
393, 308, 401, 368, 470
394, 272, 848, 427, 537
395, 564, 403, 448, 916
396, 677, 814, 454, 825
397, 643, 522, 447, 426
398, 442, 224, 619, 864
399, 775, 295, 751, 629
400, 173, 466, 552, 551
401, 551, 552, 437, 172
402, 552, 102, 113, 437
403, 466, 112, 102, 552
404, 669, 289, 389, 205
405, 833, 559, 558, 917
406, 728, 575, 323, 200
407, 270, 843, 850, 627
408, 867, 290, 18, 11
409, 416, 652, 880, 214
410, 313, 390, 329, 891
411, 252, 449, 248, 359
412, 838, 392, 594, 832
413, 142, 388, 775, 696
414, 549, 723, 289, 669
415, 607, 615, 290, 867
416, 573, 209, 511, 190
417, 344, 573, 190, 404
418, 796, 922, 921, 592
419, 618, 356, 407, 630
420, 244, 734, 324, 253
421, 482, 568, 788, 654
422, 823, 797, 796, 772
423, 452, 516, 80, 73
424, 494, 365, 914, 758
425, 557, 639, 509, 365
426, 897, 476, 769, 779
427, 535, 304, 307, 424
428, 707, 334, 642, 726
429, 864, 619, 356, 618
430, 590, 502, 666, 712
431, 243, 65, 55, 804
432, 167, 581, 582, 578
433, 578, 582, 579, 170
434, 582, 580, 163, 579
435, 581, 166, 580, 582
436, 791, 874, 887, 525
437, 229, 864, 618, 818
438, 650, 732, 343, 146
439, 883, 353, 681, 234
440, 170, 579, 588, 518
441, 518, 588, 411, 174
442, 588, 587, 176, 411
443, 579, 163, 587, 588
444, 475, 37, 4, 45
445, 283, 847, 189, 560
446, 694, 351, 763, 526
447, 408, 748, 745, 774
448, 631, 144, 899, 141
449, 727, 633, 213, 746
450, 718, 183, 659, 222
451, 756, 798, 458, 255
452, 201, 432, 371, 217
453, 865, 185, 13, 21
454, 315, 296, 724, 420
455, 506, 790, 591, 606
456, 809, 362, 433, 311
457, 916, 448, 524, 760
458, 296, 149, 855, 724
459, 204, 235, 115, 105
460, 433, 778, 918, 919
461, 333, 306, 576, 528
462, 420, 724, 157, 577
463, 211, 151, 199, 274
464, 826, 668, 425, 610
465, 278, 462, 379, 391
466, 192, 294, 476, 897
467, 598, 108, 119, 605
468, 353, 595, 328, 681
469, 401, 547, 339, 368
470, 697, 607, 867, 377
471, 679, 147, 57, 47
472, 230, 877, 522, 643
473, 892, 313, 891, 682
474, 348, 854, 813, 810
475, 744, 62, 52, 645
476, 326, 298, 762, 498
477, 828, 232, 279, 354
478, 709, 201, 217, 757
479, 303, 24, 17, 862
480, 276, 741, 228, 561
481, 651, 630, 895, 621
482, 642, 636, 301, 194
483, 896, 345, 444, 335
484, 818, 618, 630, 651
485, 847, 430, 876, 189
486, 312, 225, 12, 20
487, 842, 856, 609, 752
488, 297, 530, 632, 361
489, 391, 379, 585, 601
490, 776, 883, 234, 342
491, 263, 265, 861, 575
492, 593, 635, 865, 443
493, 546, 2, 25, 464
494, 285, 584, 777, 548
495, 802, 370, 586, 147
496, 479, 729, 730, 292
497, 758, 914, 776, 675
498, 596, 506, 539, 402
499, 554, 692, 728, 507
500, 913, 264, 305, 600
501, 696, 271, 430, 847
502, 158, 533, 304, 535
503, 849, 510, 674, 445
504, 404, 190, 559, 833
505, 406, 828, 354, 549
506, 540, 207, 673, 807
507, 673, 719, 924, 663
508, 568, 459, 795, 641
509, 256, 497, 254, 882
510, 788, 358, 497, 256
511, 247, 472, 239, 357
512, 745, 208, 722, 221
513, 212, 455, 613, 435
514, 549, 354, 782, 723
515, 708, 665, 759, 223
516, 161, 743, 299, 306
517, 489, 527, 488, 417
518, 667, 581, 167, 287
519, 310, 690, 166, 742
520, 591, 689, 60, 50
521, 911, 846, 422, 388
522, 286, 873, 431, 781
523, 843, 781, 677, 850
524, 471, 570, 569, 711
525, 656, 735, 249, 784
526, 241, 481, 250, 482
527, 480, 736, 439, 567
528, 259, 657, 658, 331
529, 331, 658, 124, 133
530, 182, 658, 657, 341
531, 188, 338, 316, 187
532, 183, 661, 662, 659
533, 659, 662, 660, 165
534, 662, 541, 164, 660
535, 661, 184, 541, 662
536, 363, 646, 312, 185
537, 713, 881, 732, 650
538, 511, 186, 495, 770
539, 301, 783, 820, 908
540, 615, 545, 399, 290
541, 664, 470, 273, 636
542, 915, 286, 781, 843
543, 343, 31, 39, 419
544, 771, 536, 160, 612
545, 311, 433, 919, 920
546, 455, 589, 169, 613
547, 218, 216, 740, 884
548, 181, 817, 815, 317
549, 187, 316, 231, 292
550, 182, 134, 124, 658
551, 907, 125, 134, 182
552, 792, 637, 603, 152
553, 573, 398, 485, 209
554, 757, 217, 278, 550
555, 699, 387, 705, 811
556, 779, 769, 302, 626
557, 349, 314, 768, 158
558, 611, 117, 107, 151
559, 200, 323, 48, 59
560, 473, 288, 334, 707
561, 273, 508, 400, 783
562, 314, 832, 212, 768
563, 682, 891, 555, 703
564, 477, 378, 910, 859
565, 209, 267, 186, 511
566, 561, 320, 623, 846
567, 421, 369, 853, 821
568, 603, 749, 275, 789
569, 368, 339, 534, 508
570, 628, 746, 308, 808
571, 355, 860, 680, 197
572, 163, 683, 684, 587
573, 587, 684, 456, 176
574, 684, 542, 177, 456
575, 683, 164, 542, 684
576, 903, 245, 481, 241
577, 458, 335, 444, 735
578, 686, 123, 132, 803
579, 772, 242, 472, 247
580, 468, 616, 288, 473
581, 609, 529, 532, 868
582, 793, 211, 274, 602
583, 750, 414, 701, 622
584, 166, 690, 691, 580
585, 580, 691, 683, 163
586, 691, 660, 164, 683
587, 690, 165, 660, 691
588, 485, 202, 699, 731
589, 665, 676, 839, 759
590, 322, 601, 644, 370
591, 304, 347, 611, 307
592, 233, 896, 335, 747
593, 606, 591, 50, 61
594, 770, 495, 762, 298
595, 763, 695, 226, 646
596, 402, 539, 345, 896
597, 878, 904, 624, 900
598, 422, 718, 222, 295
599, 907, 182, 341, 909
600, 700, 631, 141, 848
601, 631, 610, 604, 144
602, 323, 638, 58, 48
603, 431, 900, 593, 814
604, 837, 268, 708, 530
605, 629, 751, 840, 753
606, 470, 368, 508, 273
607, 596, 150, 790, 506
608, 622, 701, 232, 828
609, 349, 158, 535, 284
610, 862, 17, 2, 546
611, 571, 146, 418, 531
612, 829, 397, 801, 648
613, 750, 765, 890, 414
614, 752, 367, 639, 557
615, 574, 428, 114, 104
616, 249, 645, 52, 63
617, 360, 251, 74, 67
618, 570, 357, 871, 569
619, 480, 326, 498, 736
620, 547, 702, 348, 339
621, 413, 3, 30, 881
622, 464, 25, 28, 743
623, 419, 39, 32, 714
624, 755, 893, 556, 216
625, 269, 446, 210, 195
626, 646, 226, 225, 312
627, 423, 650, 146, 571
628, 556, 822, 748, 408
629, 584, 33, 41, 777
630, 400, 706, 785, 434
631, 738, 780, 149, 296
632, 899, 337, 224, 442
633, 205, 389, 154, 670
634, 392, 805, 168, 594
635, 223, 759, 893, 755
636, 203, 608, 314, 349
637, 533, 196, 347, 304
638, 731, 699, 811, 678
639, 207, 197, 719, 673
640, 712, 666, 901, 676
641, 737, 359, 79, 72
642, 877, 849, 809, 522
643, 389, 829, 648, 154
644, 907, 909, 336, 188
645, 730, 729, 136, 126
646, 740, 408, 774, 620
647, 418, 419, 714, 652
648, 724, 855, 727, 157
649, 523, 51, 62, 744
650, 613, 169, 428, 574
651, 735, 444, 645, 249
652, 498, 762, 747, 798
653, 795, 558, 298, 326
654, 459, 917, 558, 795
655, 600, 305, 468, 478
656, 722, 322, 370, 802
657, 686, 330, 133, 123
658, 221, 722, 802, 671
659, 787, 717, 162, 749
660, 853, 205, 670, 851
661, 226, 697, 377, 225
662, 719, 720, 923, 924
663, 318, 885, 227, 780
664, 425, 415, 563, 376
665, 732, 38, 31, 343
666, 367, 868, 608, 203
667, 327, 709, 757, 617
668, 900, 624, 635, 593
669, 701, 148, 852, 232
670, 344, 417, 398, 573
671, 819, 200, 59, 49
672, 671, 802, 147, 679
673, 307, 611, 151, 211
674, 525, 887, 702, 547
675, 620, 774, 265, 263
676, 746, 213, 401, 308
677, 575, 861, 638, 323
678, 714, 32, 40, 215
679, 302, 464, 743, 161
680, 765, 283, 560, 890
681, 478, 355, 197, 207
682, 739, 821, 409, 721
683, 474, 859, 607, 697
684, 845, 442, 864, 229
685, 841, 879, 765, 750
686, 872, 531, 416, 502
687, 371, 42, 35, 462
688, 794, 109, 120, 649
689, 721, 137, 127, 647
690, 614, 562, 403, 564
691, 271, 629, 753, 405
692, 866, 318, 780, 738
693, 175, 381, 767, 520
694, 520, 767, 766, 171
695, 767, 551, 172, 766
696, 381, 173, 551, 767
697, 198, 192, 897, 337
698, 668, 346, 415, 425
699, 432, 34, 42, 371
700, 761, 161, 306, 333
701, 842, 752, 557, 282
702, 406, 549, 669, 369
703, 901, 364, 625, 156
704, 235, 574, 104, 115
705, 784, 249, 63, 53
706, 261, 653, 570, 471
707, 449, 260, 894, 248
708, 804, 55, 5, 66
709, 637, 787, 749, 603
710, 751, 754, 310, 840
711, 454, 443, 14, 22
712, 193, 688, 280, 717
713, 287, 167, 805, 392
714, 376, 563, 286, 915
715, 583, 758, 675, 562
716, 190, 511, 770, 559
717, 846, 623, 718, 422
718, 693, 489, 417, 344
719, 208, 566, 322, 722
720, 306, 299, 319, 576
721, 203, 349, 284, 827
722, 672, 622, 828, 406
723, 144, 604, 902, 198
724, 522, 809, 311, 447
725, 790, 469, 689, 591
726, 462, 35, 43, 379
727, 601, 585, 496, 644
728, 445, 693, 886, 362
729, 695, 474, 697, 226
730, 562, 675, 350, 403
731, 369, 669, 205, 853
732, 529, 667, 287, 532
733, 362, 886, 778, 433
734, 663, 9, 131, 352
735, 678, 811, 300, 150
736, 337, 897, 779, 224
737, 754, 165, 690, 310
738, 539, 523, 744, 345
739, 814, 593, 443, 454
740, 192, 270, 627, 294
741, 630, 407, 293, 895
742, 893, 824, 822, 556
743, 717, 280, 465, 162
744, 877, 597, 510, 849
745, 844, 27, 3, 413
746, 191, 565, 218, 503
747, 808, 308, 470, 664
748, 213, 525, 547, 401
749, 260, 504, 441, 894
750, 482, 250, 459, 568
751, 239, 486, 449, 252
752, 685, 64, 54, 246
753, 736, 756, 710, 439
754, 711, 452, 487, 153
755, 772, 796, 592, 242
756, 481, 919, 918, 250
757, 169, 589, 800, 436
758, 436, 800, 766, 172
759, 800, 799, 171, 766
760, 589, 168, 799, 800
761, 159, 792, 152, 309
762, 781, 431, 814, 677
763, 884, 740, 620, 155
764, 426, 447, 921, 922
765, 641, 795, 326, 480
766, 241, 482, 654, 461
767, 450, 461, 640, 486
768, 248, 894, 78, 71
769, 170, 519, 806, 578
770, 578, 806, 805, 167
771, 806, 799, 168, 805
772, 519, 171, 799, 806
773, 202, 503, 387, 699
774, 904, 694, 526, 624
775, 427, 845, 229, 885
776, 141, 899, 442, 845
777, 861, 671, 679, 638
778, 379, 43, 36, 585
779, 533, 277, 204, 196
780, 316, 835, 320, 231
781, 338, 340, 835, 316
782, 317, 815, 875, 834
783, 817, 512, 179, 815
784, 816, 143, 512, 817
785, 913, 600, 540, 238
786, 700, 826, 610, 631
787, 275, 477, 859, 474
788, 407, 333, 528, 293
789, 303, 145, 16, 24
790, 914, 733, 883, 776
791, 232, 852, 866, 279
792, 908, 820, 837, 716
793, 253, 324, 251, 360
794, 894, 441, 70, 78
795, 687, 505, 655, 451
796, 460, 256, 882, 504
797, 350, 342, 159, 220
798, 910, 429, 545, 615
799, 507, 728, 200, 819
800, 680, 643, 426, 720
801, 693, 344, 404, 886
802, 674, 490, 527, 489
803, 753, 840, 906, 856
804, 841, 672, 421, 366
805, 880, 215, 584, 285
806, 585, 36, 44, 496
807, 148, 272, 537, 852
808, 532, 287, 392, 838
809, 143, 816, 831, 499
810, 499, 831, 830, 180
811, 336, 816, 817, 181
812, 341, 657, 858, 830
813, 142, 696, 847, 283
814, 215, 40, 33, 584
815, 155, 620, 263, 692
816, 813, 571, 531, 872
817, 898, 187, 292, 730
818, 786, 836, 661, 183
819, 836, 834, 184, 661
820, 835, 786, 623, 320
821, 649, 120, 110, 429
822, 146, 343, 419, 418
823, 451, 655, 440, 773
824, 855, 453, 633, 727
825, 742, 166, 581, 667
826, 503, 218, 884, 387
827, 291, 475, 45, 56
828, 555, 713, 650, 423
829, 265, 221, 671, 861
830, 452, 73, 6, 487
831, 509, 269, 195, 733
832, 811, 705, 554, 300
833, 434, 785, 484, 268
834, 366, 739, 538, 741
835, 561, 228, 231, 320
836, 860, 707, 726, 230
837, 634, 614, 564, 346
838, 397, 807, 352, 801
839, 572, 738, 296, 315
840, 879, 911, 388, 142
841, 627, 850, 553, 145
842, 236, 700, 848, 272
843, 299, 26, 29, 319
844, 648, 130, 139, 154
845, 409, 128, 137, 721
846, 536, 266, 634, 160
847, 617, 757, 550, 599
848, 686, 261, 258, 330
849, 830, 858, 393, 180
850, 858, 857, 257, 393
851, 657, 259, 857, 858
852, 294, 303, 862, 476
853, 366, 421, 821, 739
854, 234, 681, 637, 792
855, 752, 609, 868, 367
856, 550, 278, 391, 566
857, 527, 297, 361, 488
858, 300, 554, 507, 469
859, 696, 775, 629, 271
860, 186, 281, 233, 495
861, 822, 617, 599, 748
862, 321, 583, 562, 614
863, 225, 377, 19, 12
864, 851, 138, 128, 409
865, 739, 721, 647, 538
866, 885, 229, 818, 227
867, 538, 647, 729, 479
868, 736, 498, 798, 756
869, 803, 924, 923, 797
870, 504, 882, 483, 441
871, 359, 248, 71, 79
872, 706, 704, 590, 785
873, 726, 642, 194, 597
874, 206, 191, 503, 202
875, 608, 838, 832, 314
876, 647, 127, 136, 729
877, 150, 300, 469, 790
878, 290, 399, 10, 18
879, 704, 872, 502, 590
880, 178, 543, 875, 491
881, 491, 875, 815, 179
882, 898, 730, 126, 135
883, 543, 184, 834, 875
884, 619, 626, 761, 356
885, 288, 808, 664, 334
886, 832, 594, 455, 212
887, 447, 311, 920, 921
888, 531, 418, 652, 416
889, 789, 275, 474, 695
890, 840, 310, 742, 906
891, 666, 214, 364, 901
892, 633, 791, 525, 213
893, 639, 827, 269, 509
894, 476, 862, 546, 769
895, 841, 750, 622, 672
896, 640, 460, 504, 260
897, 773, 440, 75, 68
898, 240, 687, 451, 262
899, 803, 132, 122, 924
900, 652, 714, 215, 880
901, 502, 416, 214, 666
902, 367, 203, 827, 639
903, 812, 219, 264, 913
904, 524, 237, 904, 878
905, 692, 263, 575, 728
906, 605, 119, 109, 794
907, 488, 361, 191, 206
908, 638, 679, 47, 58
909, 361, 632, 565, 191
910, 807, 673, 663, 352
911, 716, 837, 530, 297
912, 153, 514, 889, 888
913, 888, 889, 332, 258
914, 889, 857, 259, 332
915, 514, 257, 857, 889
916, 279, 866, 738, 572
917, 675, 776, 342, 350
918, 636, 273, 783, 301
919, 144, 198, 337, 899
920, 342, 234, 792, 159
921, 774, 745, 221, 265
922, 264, 420, 577, 305
923, 345, 744, 645, 444
924, 294, 627, 145, 303
925, 195, 210, 595, 353
926, 653, 247, 357, 570
927, 238, 540, 807, 397
928, 592, 921, 920, 245
929, 255, 458, 735, 656
930, 710, 325, 244, 505
931, 461, 654, 460, 640
932, 267, 863, 281, 186
933, 841, 366, 741, 276
934, 859, 910, 615, 607
935, 526, 763, 646, 363
936, 702, 703, 854, 348
937, 222, 659, 165, 754
938, 152, 603, 789, 351
939, 216, 556, 408, 740
940, 560, 189, 266, 536
941, 604, 376, 915, 902
942, 733, 195, 353, 883
943, 268, 484, 665, 708
944, 907, 188, 187, 898
945, 188, 336, 181, 338
946, 839, 156, 327, 824
947, 347, 106, 117, 611
948, 305, 577, 616, 468
949, 209, 485, 731, 267
950, 282, 557, 365, 494
951, 508, 534, 706, 400
952, 465, 794, 649, 378
953, 907, 898, 135, 125
954, 378, 649, 429, 910
955, 856, 906, 529, 609
956, 924, 122, 9, 663
957, 405, 753, 856, 842
958, 597, 194, 698, 510
959, 635, 363, 185, 865
960, 357, 239, 252, 871
961, 869, 773, 68, 76
962, 654, 788, 256, 460
963, 228, 479, 292, 231
964, 151, 107, 118, 199
965, 149, 463, 453, 855
966, 258, 332, 905, 330
967, 330, 905, 331, 133
968, 332, 259, 331, 905
969, 266, 321, 614, 634
970, 672, 406, 369, 421
971, 295, 222, 754, 751
972, 340, 836, 786, 835
973, 340, 317, 834, 836
974, 841, 276, 911, 879
975, 429, 110, 121, 545
976, 448, 220, 237, 524
977, 338, 181, 317, 340
978, 909, 341, 830, 831
979, 801, 140, 130, 648
980, 196, 204, 105, 116
981, 760, 524, 878, 873
982, 553, 825, 15, 23
983, 309, 152, 351, 694
984, 825, 454, 22, 15
985, 277, 435, 235, 204
986, 576, 319, 844, 390
987, 271, 405, 764, 430
988, 390, 844, 413, 329
989, 469, 507, 819, 689
990, 189, 876, 321, 266
991, 545, 121, 111, 399
992, 424, 307, 211, 793
993, 705, 155, 692, 554
994, 530, 708, 223, 632
*ELSET,ELSET=contact_source
99, 100, 101, 102, 103, 104, 105, 106, 107, 108, 
109, 110, 111, 112, 113, 114, 115, 116, 117, 118, 
119, 120, 
*ELSET,ELSET=contact_drain
39, 40, 41, 42, 43, 44, 45, 46, 47, 48, 
49, 50, 51, 52, 53, 54, 55, 56, 57, 58, 
59, 60, 
*ELSET,ELSET=probe_A
77, 78, 79, 80, 81, 82, 
*ELSET,ELSET=probe_B
17, 18, 19, 20, 21, 22, 
*ELSET,ELSET=walls
1, 2, 3, 4, 5, 6, 7, 8, 9, 10, 
11, 12, 13, 14, 15, 16, 23, 24, 25, 26, 
27, 28, 29, 30, 31, 32, 33, 34, 35, 36, 
37, 38, 61, 62, 63, 64, 65, 66, 67, 68, 
69, 70, 71, 72, 73, 74, 75, 76, 83, 84, 
85, 86, 87, 88, 89, 90, 91, 92, 93, 94, 
95, 96, 97, 98, 121, 122, 123, 124, 125, 126, 
127, 128, 129, 130, 131, 132, 133, 134, 135, 136, 
137, 138, 139, 140, 
*ELSET,ELSET=domain
141, 142, 143, 144, 145, 146, 147, 148, 149, 150, 
151, 152, 153, 154, 155, 156, 157, 158, 159, 160, 
161, 162, 163, 164, 165, 166, 167, 168, 169, 170, 
171, 172, 173, 174, 175, 176, 177, 178, 179, 180, 
181, 182, 183, 184, 185, 186, 187, 188, 189, 190, 
191, 192, 193, 194, 195, 196, 197, 198, 199, 200, 
201, 202, 203, 204, 205, 206, 207, 208, 209, 210, 
211, 212, 213, 214, 215, 216, 217, 218, 219, 220, 
221, 222, 223, 224, 225, 226, 227, 228, 229, 230, 
231, 232, 233, 234, 235, 236, 237, 238, 239, 240, 
241, 242, 243, 244, 245, 246, 247, 248, 249, 250, 
251, 252, 253, 254, 255, 256, 257, 258, 259, 260, 
261, 262, 263, 264, 265, 266, 267, 268, 269, 270, 
271, 272, 273, 274, 275, 276, 277, 278, 279, 280, 
281, 282, 283, 284, 285, 286, 287, 288, 289, 290, 
291, 292, 293, 294, 295, 296, 297, 298, 299, 300, 
301, 302, 303, 304, 305, 306, 307, 308, 309, 310, 
311, 312, 313, 314, 315, 316, 317, 318, 319, 320, 
321, 322, 323, 324, 325, 326, 327, 328, 329, 330, 
331, 332, 333, 334, 335, 336, 337, 338, 339, 340, 
341, 342, 343, 344, 345, 346, 347, 348, 349, 350, 
351, 352, 353, 354, 355, 356, 357, 358, 359, 360, 
361, 362, 363, 364, 365, 366, 367, 368, 369, 370, 
371, 372, 373, 374, 375, 376, 377, 378, 379, 380, 
381, 382, 383, 384, 385, 386, 387, 388, 389, 390, 
391, 392, 393, 394, 395, 396, 397, 398, 399, 400, 
401, 402, 403, 404, 405, 406, 407, 408, 409, 410, 
411, 412, 413, 414, 415, 416, 417, 418, 419, 420, 
421, 422, 423, 424, 425, 426, 427, 428, 429, 430, 
431, 432, 433, 434, 435, 436, 437, 438, 439, 440, 
441, 442, 443, 444, 445, 446, 447, 448, 449, 450, 
451, 452, 453, 454, 455, 456, 457, 458, 459, 460, 
461, 462, 463, 464, 465, 466, 467, 468, 469, 470, 
471, 472, 473, 474, 475, 476, 477, 478, 479, 480, 
481, 482, 483, 484, 485, 486, 487, 488, 489, 490, 
491, 492, 493, 494, 495, 496, 497, 498, 499, 500, 
501, 502, 503, 504, 505, 506, 507, 508, 509, 510, 
511, 512, 513, 514, 515, 516, 517, 518, 519, 520, 
521, 522, 523, 524, 525, 526, 527, 528, 529, 530, 
531, 532, 533, 534, 535, 536, 537, 538, 539, 540, 
541, 542, 543, 544, 545, 546, 547, 548, 549, 550, 
551, 552, 553, 554, 555, 556, 557, 558, 559, 560, 
561, 562, 563, 564, 565, 566, 567, 568, 569, 570, 
571, 572, 573, 574, 575, 576, 577, 578, 579, 580, 
581, 582, 583, 584, 585, 586, 587, 588, 589, 590, 
591, 592, 593, 594, 595, 596, 597, 598, 599, 600, 
601, 602, 603, 604, 605, 606, 607, 608, 609, 610, 
611, 612, 613, 614, 615, 616, 617, 618, 619, 620, 
621, 622, 623, 624, 625, 626, 627, 628, 629, 630, 
631, 632, 633, 634, 635, 636, 637, 638, 639, 640, 
641, 642, 643, 644, 645, 646, 647, 648, 649, 650, 
651, 652, 653, 654, 655, 656, 657, 658, 659, 660, 
661, 662, 663, 664, 665, 666, 667, 668, 669, 670, 
671, 672, 673, 674, 675, 676, 677, 678, 679, 680, 
681, 682, 683, 684, 685, 686, 687, 688, 689, 690, 
691, 692, 693, 694, 695, 696, 697, 698, 699, 700, 
701, 702, 703, 704, 705, 706, 707, 708, 709, 710, 
711, 712, 713, 714, 715, 716, 717, 718, 719, 720, 
721, 722, 723, 724, 725, 726, 727, 728, 729, 730, 
731, 732, 733, 734, 735, 736, 737, 738, 739, 740, 
741, 742, 743, 744, 745, 746, 747, 748, 749, 750, 
751, 752, 753, 754, 755, 756, 757, 758, 759, 760, 
761, 762, 763, 764, 765, 766, 767, 768, 769, 770, 
771, 772, 773, 774, 775, 776, 777, 778, 779, 780, 
781, 782, 783, 784, 785, 786, 787, 788, 789, 790, 
791, 792, 793, 794, 795, 796, 797, 798, 799, 800, 
801, 802, 803, 804, 805, 806, 807, 808, 809, 810, 
811, 812, 813, 814, 815, 816, 817, 818, 819, 820, 
821, 822, 823, 824, 825, 826, 827, 828, 829, 830, 
831, 832, 833, 834, 835, 836, 837, 838, 839, 840, 
841, 842, 843, 844, 845, 846, 847, 848, 849, 850, 
851, 852, 853, 854, 855, 856, 857, 858, 859, 860, 
861, 862, 863, 864, 865, 866, 867, 868, 869, 870, 
871, 872, 873, 874, 875, 876, 877, 878, 879, 880, 
881, 882, 883, 884, 885, 886, 887, 888, 889, 890, 
891, 892, 893, 894, 895, 896, 897, 898, 899, 900, 
901, 902, 903, 904, 905, 906, 907, 908, 909, 910, 
911, 912, 913, 914, 915, 916, 917, 918, 919, 920, 
921, 922, 923, 924, 925, 926, 927, 928, 929, 930, 
931, 932, 933, 934, 935, 936, 937, 938, 939, 940, 
941, 942, 943, 944, 945, 946, 947, 948, 949, 950, 
951, 952, 953, 954, 955, 956, 957, 958, 959, 960, 
961, 962, 963, 964, 965, 966, 967, 968, 969, 970, 
971, 972, 973, 974, 975, 976, 977, 978, 979, 980, 
981, 982, 983, 984, 985, 986, 987, 988, 989, 990, 
991, 992, 993, 994, 
*NSET,NSET=contact_source
1, 8, 101, 102, 103, 104, 105, 106, 107, 108, 
109, 110, 111, 112, 113, 114, 115, 116, 117, 118, 
119, 120, 121, 
*NSET,NSET=contact_drain
4, 5, 45, 46, 47, 48, 49, 50, 51, 52, 
53, 54, 55, 56, 57, 58, 59, 60, 61, 62, 
63, 64, 65, 
*NSET,NSET=probe_A
6, 7, 81, 82, 83, 84, 85, 
*NSET,NSET=probe_B
2, 3, 25, 26, 27, 28, 29, 
*NSET,NSET=walls
1, 2, 3, 4, 5, 6, 7, 8, 9, 10, 
11, 12, 13, 14, 15, 16, 17, 18, 19, 20, 
21, 22, 23, 24, 30, 31, 32, 33, 34, 35, 
36, 37, 38, 39, 40, 41, 42, 43, 44, 66, 
67, 68, 69, 70, 71, 72, 73, 74, 75, 76, 
77, 78, 79, 80, 86, 87, 88, 89, 90, 91, 
92, 93, 94, 95, 96, 97, 98, 99, 100, 122, 
123, 124, 125, 126, 127, 128, 129, 130, 131, 132, 
133, 134, 135, 136, 137, 138, 139, 140, 
*NSET,NSET=domain
1, 2, 3, 4, 5, 6, 7, 8, 9, 10, 
11, 12, 13, 14, 15, 16, 17, 18, 19, 20, 
21, 22, 23, 24, 25, 26, 27, 28, 29, 30, 
31, 32, 33, 34, 35, 36, 37, 38, 39, 40, 
41, 42, 43, 44, 45, 46, 47, 48, 49, 50, 
51, 52, 53, 54, 55, 56, 57, 58, 59, 60, 
61, 62, 63, 64, 65, 66, 67, 68, 69, 70, 
71, 72, 73, 74, 75, 76, 77, 78, 79, 80, 
81, 82, 83, 84, 85, 86, 87, 88, 89, 90, 
91, 92, 93, 94, 95, 96, 97, 98, 99, 100, 
101, 102, 103, 104, 105, 106, 107, 108, 109, 110, 
111, 112, 113, 114, 115, 116, 117, 118, 119, 120, 
121, 122, 123, 124, 125, 126, 127, 128, 129, 130, 
131, 132, 133, 134, 135, 136, 137, 138, 139, 140, 
141, 142, 143, 144, 145, 146, 147, 148, 149, 150, 
151, 152, 153, 154, 155, 156, 157, 158, 159, 160, 
161, 162, 163, 164, 165, 166, 167, 168, 169, 170, 
171, 172, 173, 174, 175, 176, 177, 178, 179, 180, 
181, 182, 183, 184, 185, 186, 187, 188, 189, 190, 
191, 192, 193, 194, 195, 196, 197, 198, 199, 200, 
201, 202, 203, 204, 205, 206, 207, 208, 209, 210, 
211, 212, 213, 214, 215, 216, 217, 218, 219, 220, 
221, 222, 223, 224, 225, 226, 227, 228, 229, 230, 
231, 232, 233, 234, 235, 236, 237, 238, 239, 240, 
241, 242, 243, 244, 245, 246, 247, 248, 249, 250, 
251, 252, 253, 254, 255, 256, 257, 258, 259, 260, 
261, 262, 263, 264, 265, 266, 267, 268, 269, 270, 
271, 272, 273, 274, 275, 276, 277, 278, 279, 280, 
281, 282, 283, 284, 285, 286, 287, 288, 289, 290, 
291, 292, 293, 294, 295, 296, 297, 298, 299, 300, 
301, 302, 303, 304, 305, 306, 307, 308, 309, 310, 
311, 312, 313, 314, 315, 316, 317, 318, 319, 320, 
321, 322, 323, 324, 325, 326, 327, 328, 329, 330, 
331, 332, 333, 334, 335, 336, 337, 338, 339, 340, 
341, 342, 343, 344, 345, 346, 347, 348, 349, 350, 
351, 352, 353, 354, 355, 356, 357, 358, 359, 360, 
361, 362, 363, 364, 365, 366, 367, 368, 369, 370, 
371, 372, 373, 374, 375, 376, 377, 378, 379, 380, 
381, 382, 383, 384, 385, 386, 387, 388, 389, 390, 
391, 392, 393, 394, 395, 396, 397, 398, 399, 400, 
401, 402, 403, 404, 405, 406, 407, 408, 409, 410, 
411, 412, 413, 414, 415, 416, 417, 418, 419, 420, 
421, 422, 423, 424, 425, 426, 427, 428, 429, 430, 
431, 432, 433, 434, 435, 436, 437, 438, 439, 440, 
441, 442, 443, 444, 445, 446, 447, 448, 449, 450, 
451, 452, 453, 454, 455, 456, 457, 458, 459, 460, 
461, 462, 463, 464, 465, 466, 467, 468, 469, 470, 
471, 472, 473, 474, 475, 476, 477, 478, 479, 480, 
481, 482, 483, 484, 485, 486, 487, 488, 489, 490, 
491, 492, 493, 494, 495, 496, 497, 498, 499, 500, 
501, 502, 503, 504, 505, 506, 507, 508, 509, 510, 
511, 512, 513, 514, 515, 516, 517, 518, 519, 520, 
521, 522, 523, 524, 525, 526, 527, 528, 529, 530, 
531, 532, 533, 534, 535, 536, 537, 538, 539, 540, 
541, 542, 543, 544, 545, 546, 547, 548, 549, 550, 
551, 552, 553, 554, 555, 556, 557, 558, 559, 560, 
561, 562, 563, 564, 565, 566, 567, 568, 569, 570, 
571, 572, 573, 574, 575, 576, 577, 578, 579, 580, 
581, 582, 583, 584, 585, 586, 587, 588, 589, 590, 
591, 592, 593, 594, 595, 596, 597, 598, 599, 600, 
601, 602, 603, 604, 605, 606, 607, 608, 609, 610, 
611, 612, 613, 614, 615, 616, 617, 618, 619, 620, 
621, 622, 623, 624, 625, 626, 627, 628, 629, 630, 
631, 632, 633, 634, 635, 636, 637, 638, 639, 640, 
641, 642, 643, 644, 645, 646, 647, 648, 649, 650, 
651, 652, 653, 654, 655, 656, 657, 658, 659, 660, 
661, 662, 663, 664, 665, 666, 667, 668, 669, 670, 
671, 672, 673, 674, 675, 676, 677, 678, 679, 680, 
681, 682, 683, 684, 685, 686, 687, 688, 689, 690, 
691, 692, 693, 694, 695, 696, 697, 698, 699, 700, 
701, 702, 703, 704, 705, 706, 707, 708, 709, 710, 
711, 712, 713, 714, 715, 716, 717, 718, 719, 720, 
721, 722, 723, 724, 725, 726, 727, 728, 729, 730, 
731, 732, 733, 734, 735, 736, 737, 738, 739, 740, 
741, 742, 743, 744, 745, 746, 747, 748, 749, 750, 
751, 752, 753, 754, 755, 756, 757, 758, 759, 760, 
761, 762, 763, 764, 765, 766, 767, 768, 769, 770, 
771, 772, 773, 774, 775, 776, 777, 778, 779, 780, 
781, 782, 783, 784, 785, 786, 787, 788, 789, 790, 
791, 792, 793, 794, 795, 796, 797, 798, 799, 800, 
801, 802, 803, 804, 805, 806, 807, 808, 809, 810, 
811, 812, 813, 814, 815, 816, 817, 818, 819, 820, 
821, 822, 823, 824, 825, 826, 827, 828, 829, 830, 
831, 832, 833, 834, 835, 836, 837, 838, 839, 840, 
841, 842, 843, 844, 845, 846, 847, 848, 849, 850, 
851, 852, 853, 854, 855, 856, 857, 858, 859, 860, 
861, 862, 863, 864, 865, 866, 867, 868, 869, 870, 
871, 872, 873, 874, 875, 876, 877, 878, 879, 880, 
881, 882, 883, 884, 885, 886, 887, 888, 889, 890, 
891, 892, 893, 894, 895, 896, 897, 898, 899, 900, 
901, 902, 903, 904, 905, 906, 907, 908, 909, 910, 
911, 912, 913, 914, 915, 916, 917, 918, 919, 920, 
921, 922, 923, 924, 
