*Heading
 /Users/juliagao/geometry-optimization-net/scripts/../runs/grid/shape_7.inp
*NODE
1, 0, -0.3, 0
2, 0.425, -0.3, 0
3, 0.575, -0.3, 0
4, 1, -0.3, 0
5, 1, 0.3, 0
6, 0.575, 0.3, 0
7, 0.425, 0.3, 0
8, 0, 0.3, 0
9, 0.58, 0.028, 0
10, 0.026745959819185, -0.3, 0
11, 0.080166984016525, -0.3, 0
12, 0.13343054977326, -0.3, 0
13, 0.18671532566271, -0.3, 0
14, 0.24022642326179, -0.3, 0
15, 0.29388983777068, -0.3, 0
16, 0.34708676726239, -0.3, 0
17, 0.39921755266671, -0.3, 0
18, 0.05349191963837, -0.3, 0
19, 0.10684204839468, -0.3, 0
20, 0.16001905115183, -0.3, 0
21, 0.2134116001736, -0.3, 0
22, 0.26704124634999, -0.3, 0
23, 0.32073842919137, -0.3, 0
24, 0.37343510533342, -0.3, 0
25, 0.45007020222087, -0.3, 0
26, 0.49981448036247, -0.3, 0
27, 0.5497442781416, -0.3, 0
28, 0.47514040444173, -0.3, 0
29, 0.5244885562832, -0.3, 0
30, 0.60107428540625, -0.3, 0
31, 0.65295101895154, -0.3, 0
32, 0.70475437428767, -0.3, 0
33, 0.75755620780159, -0.3, 0
34, 0.81176431452084, -0.3, 0
35, 0.86612189219977, -0.3, 0
36, 0.91988986424265, -0.3, 0
37, 0.9733537195045, -0.3, 0
38, 0.62714857081251, -0.3, 0
39, 0.67875346709058, -0.3, 0
40, 0.73075528148476, -0.3, 0
41, 0.78435713411843, -0.3, 0
42, 0.83917149492325, -0.3, 0
43, 0.89307228947629, -0.3, 0
44, 0.94670743900901, -0.3, 0
45, 1, -0.2734010900181, 0
46, 1, -0.219702081358, 0
47, 1, -0.16490447948155, 0
48, 1, -0.10933041774901, 0
49, 1, -0.053571095691762, 0
50, 1, 0.0017716417891524, 0
51, 1, 0.056687369207237, 0
52, 1, 0.11195457217117, 0
53, 1, 0.16717306073825, 0
54, 1, 0.22127254184824, 0
55, 1, 0.27398249194749, 0
56, 1, -0.24680218003621, 0
57, 1, -0.19260198267979, 0
58, 1, -0.13720697628331, 0
59, 1, -0.081453859214705, 0
60, 1, -0.025688332168819, 0
61, 1, 0.029231615747124, 0
62, 1, 0.084143122667351, 0
63, 1, 0.13976602167499, 0
64, 1, 0.19458009980151, 0
65, 1, 0.24796498389498, 0
66, 0.97439445583018, 0.3, 0
67, 0.92260957308217, 0.3, 0
68, 0.86905515760741, 0.3, 0
69, 0.81387297799355, 0.3, 0
70, 0.75894769725729, 0.3, 0
71, 0.70536730178465, 0.3, 0
72, 0.65275613020404, 0.3, 0
73, 0.60080358803856, 0.3, 0
74, 0.94878891166037, 0.3, 0
75, 0.89643023450397, 0.3, 0
76, 0.84168008071085, 0.3, 0
77, 0.78606587527625, 0.3, 0
78, 0.73182951923834, 0.3, 0
79, 0.67890508433097, 0.3, 0
80, 0.62660717607711, 0.3, 0
81, 0.54976496556273, 0.3, 0
82, 0.49979594700198, 0.3, 0
83, 0.45003098143924, 0.3, 0
84, 0.52452993112547, 0.3, 0
85, 0.47506196287848, 0.3, 0
86, 0.39955604941022, 0.3, 0
87, 0.34811053209564, 0.3, 0
88, 0.29552533708402, 0.3, 0
89, 0.24144916176404, 0.3, 0
90, 0.18565019673411, 0.3, 0
91, 0.12995051894894, 0.3, 0
92, 0.076641161992736, 0.3, 0
93, 0.025362532412464, 0.3, 0
94, 0.37411209882044, 0.3, 0
95, 0.32210896537084, 0.3, 0
96, 0.2689417087972, 0.3, 0
97, 0.21395661473088, 0.3, 0
98, 0.15734377873735, 0.3, 0
99, 0.10255725916054, 0.3, 0
100, 0.050725064824929, 0.3, 0
101, 0, 0.27398601802043, 0
102, 0, 0.22135700078978, 0
103, 0, 0.16754228232934, 0
104, 0, 0.11276618081324, 0
105, 0, 0.057800737200914, 0
106, 0, 0.002803253810402, 0
107, 0, -0.052869854934826, 0
108, 0, -0.10876728063878, 0
109, 0, -0.16436257382937, 0
110, 0, -0.21942883409422, 0
111, 0, -0.27336628810607, 0
112, 0, 0.24797203604087, 0
113, 0, 0.19474196553869, 0
114, 0, 0.14034259911999, 0
115, 0, 0.085189762506488, 0
116, 0, 0.030411711895341, 0
117, 0, -0.024805204274537, 0
118, 0, -0.080934505595115, 0
119, 0, -0.13660005568245, 0
120, 0, -0.1921250919763, 0
121, 0, -0.24673257621214, 0
122, 0.57579085565262, 0.053607540756028, 0
123, 0.54562481609614, 0.093714352125642, 0
124, 0.49877136734949, 0.10799056438157, 0
125, 0.45164636425479, 0.091733239588926, 0
126, 0.42301069360616, 0.049740439252009, 0
127, 0.42516365163315, -0.00027580125440385, 0
128, 0.45589975536108, -0.038747047906761, 0
129, 0.5027592220956, -0.051952402586923, 0
130, 0.54766660115966, -0.036248697138119, 0
131, 0.57600154416445, 0.0030247067197977, 0
132, 0.56360634798249, 0.076520433016016, 0
133, 0.52323074794519, 0.10455280705151, 0
134, 0.47442910803427, 0.10380322836619, 0
135, 0.43388588569168, 0.073043577206822, 0
136, 0.42009073532803, 0.024190881471388, 0
137, 0.43753723769205, -0.021984030402219, 0
138, 0.47852194544379, -0.049062916916907, 0
139, 0.52673963768587, -0.047398884074492, 0
140, 0.56440586948456, -0.019454019282089, 0
141, 0.424582152355, -0.24564197772299, 0
142, 0.58134846054727, -0.24353818780072, 0
143, 0.42424670241497, 0.24511949311405, 0
144, 0.10514293987507, -0.24683383056839, 0
145, 0.052445079895915, -0.24667797813927, 0
146, 0.21132032755194, -0.24726594211297, 0
147, 0.15810572984895, -0.24703587375335, 0
148, 0.26474982267571, -0.24738544958271, 0
149, 0.4772858256957, -0.24516265226153, 0
150, 0.37160946757536, -0.24652321737872, 0
151, 0.31825277436608, -0.24716073723074, 0
152, 0.63850329010819, 0.0016704142222002, 0
153, 0.58046376235463, 0.24421667372102, 0
154, 0.52998992215747, -0.24463826444633, 0
155, 0.63151418874439, -0.24358738460999, 0
156, 0.68211812670816, -0.24424448235885, 0
157, 0.73371523439056, -0.24539852030113, 0
158, 0.78632023042847, -0.24649777628183, 0
159, 0.83963706047712, -0.24694399243276, 0
160, 0.8932541448072, -0.2468590840184, 0
161, 0.94736219437661, -0.19304745450769, 0
162, 0.94675652916328, -0.24663881191719, 0
163, 0.20831504339306, 0.19470628090591, 0
164, 0.26078069829203, 0.19475832325347, 0
165, 0.30361785193687, 0.11454930118587, 0
166, 0.20478918400046, 0.14021493541606, 0
167, 0.10282798298696, 0.13898660999226, 0
168, 0.15388739935141, 0.13953760783865, 0
169, 0.051437663107822, 0.13906672946583, 0
170, 0.15631810396823, 0.19417860951176, 0
171, 0.052234241287578, 0.1930407587883, 0
172, 0.10438321383216, 0.19331854365341, 0
173, 0.052664449325823, 0.24635998189921, 0
174, 0.10512082475178, 0.24695290116168, 0
175, 0.15791612121604, 0.24787907529922, 0
176, 0.2111345261649, 0.24810586055177, 0
177, 0.26460370508869, 0.2476519123644, 0
178, 0.31398988179487, 0.19454480271867, 0
179, 0.31810526132747, 0.24701950768016, 0
180, 0.36803391526014, 0.19384608412965, 0
181, 0.37142009164453, 0.24620551019563, 0
182, 0.47672976469016, 0.24501186692994, 0
183, 0.42269463169075, 0.19235285831621, 0
184, 0.47863157843294, 0.19381871043896, 0
185, 0.34645272694447, 0.088039068010583, 0
186, 0.24742724406213, -0.0031461876560594, 0
187, 0.075503951628885, 0.00012359002979854, 0
188, 0.12738664289749, 0.11160967318232, 0
189, 0.36130263501298, 0.14225308448632, 0
190, 0.22887159194531, -0.08719925103182, 0
191, 0.33966815120337, -0.0067887280028169, 0
192, 0.075610237068645, 0.028132957598729, 0
193, 0.050532490265137, 0.028690675813063, 0
194, 0.39807232117865, 0.024176555434251, 0
195, 0.29811507446928, -0.034259751866805, 0
196, 0.29448494057378, 0.056482780707018, 0
197, 0.32874814517731, -0.063560846178049, 0
198, 0.050686107870035, 0.056525524722545, 0
199, 0.3602261079138, -0.090610855352086, 0
200, 0.22380269318901, 0.055726808016037, 0
201, 0.050430970980228, 0.00078862687157556, 0
202, 0.10372526560418, -0.19321166409045, 0
203, 0.051616735896451, -0.19264685139722, 0
204, 0.26218012754154, -0.19468352424599, 0
205, 0.20900170336517, -0.19429592241078, 0
206, 0.15619463592592, -0.19375872536777, 0
207, 0.25890429198004, -0.14174232650601, 0
208, 0.20633155884449, -0.14085266435875, 0
209, 0.15423489074604, -0.13992293731735, 0
210, 0.10246657295069, -0.13900799443351, 0
211, 0.051013171403768, -0.13798865584328, 0
212, 0.33318869242738, -0.090198789284543, 0
213, 0.1013621224238, -0.084095297196415, 0
214, 0.050559907689682, -0.082759007696474, 0
215, 0.17467507956509, 0.026961984731887, 0
216, 0.3066427160986, -0.089523846362382, 0
217, 0.39407687445085, 0.089033004058091, 0
218, 0.32248897409542, 0.087079056333896, 0
219, 0.15226341461686, -0.08525129013186, 0
220, 0.36097043107676, 0.057940188090423, 0
221, 0.42377872124072, -0.1927811182941, 0
222, 0.47813594669023, -0.19270303196917, 0
223, 0.36971049848076, -0.19396285379941, 0
224, 0.31576508366815, -0.19464372215652, 0
225, 0.36643509515144, -0.14211221494762, 0
226, 0.31220571460051, -0.14231771166515, 0
227, 0.42129805533511, -0.14087668213283, 0
228, 0.4770914275951, -0.14244345109963, 0
229, 0.28047794805976, -0.088746376958201, 0
230, 0.22687291462053, -0.059554079343205, 0
231, 0.27013484839318, 0.026132059503277, 0
232, 0.47318067043536, -0.094797225174876, 0
233, 0.24679128035572, 0.026358766372621, 0
234, 0.27738006917002, -0.061382021250943, 0
235, 0.7984109216273, 0.19401810995082, 0
236, 0.6034756900213, 0.16011000136833, 0
237, 0.80144112142281, 0.13800084935775, 0
238, 0.85038833571906, 0.1362330714167, 0
239, 0.89974213100594, 0.13571120144207, 0
240, 0.94964099679513, 0.13666449191474, 0
241, 0.84857061604058, 0.19251604533752, 0
242, 0.89856976654714, 0.19165468242591, 0
243, 0.94896083531601, 0.19192868448706, 0
244, 0.89675374212001, 0.2466443415993, 0
245, 0.9480711852193, 0.24629293241918, 0
246, 0.84530977213476, 0.24745206796513, 0
247, 0.79331682015454, 0.24805372348036, 0
248, 0.7472668484847, 0.19646118626143, 0
249, 0.74030700573067, 0.2486857129692, 0
250, 0.64839085190742, 0.16572636227536, 0
251, 0.68559633951241, 0.24963039273777, 0
252, 0.72856384840355, 0.14385449697941, 0
253, 0.6307825643566, 0.24695519572039, 0
254, 0.5294861262491, 0.24427152775155, 0
255, 0.68587981812218, 0.10499451996995, 0
256, 0.53776607398811, 0.19139166902798, 0
257, 0.55370527484506, 0.14433699493968, 0
258, 0.66504432223043, 0.20191977317232, 0
259, 0.62806630636379, 0.075991943589584, 0
260, 0.70041240514294, 0.018283884802257, 0
261, 0.59886715081546, 0.049896577849231, 0
262, 0.63819135024781, 0.039059222477084, 0
263, 0.67798695232663, -0.0080347037990756, 0
264, 0.72092186660336, 0.19820876298916, 0
265, 0.77209125019129, 0.058635497714307, 0
266, 0.84891373510353, 0.080237732538782, 0
267, 0.79808610581035, 0.082890776698186, 0
268, 0.69947613446127, -0.013385535875703, 0
269, 0.84785244895625, 0.024769474035442, 0
270, 0.79735703516913, 0.028045762280127, 0
271, 0.94948336434753, 0.0810527495352, 0
272, 0.89918671503586, 0.079730884165377, 0
273, 0.94912112578242, 0.025546310793947, 0
274, 0.89845027598994, 0.024099922511471, 0
275, 0.89635529779422, -0.085836805553349, 0
276, 0.94847814933848, -0.084597987508409, 0
277, 0.89750393307997, -0.031186900378618, 0
278, 0.94883100181165, -0.029720799366665, 0
279, 0.79226168343105, -0.083264473568909, 0
280, 0.84415247739734, -0.085425812393082, 0
281, 0.74113725009856, -0.079205520514761, 0
282, 0.84624948954283, -0.030636599340147, 0
283, 0.72337396815838, 0.011859945338722, 0
284, 0.79547004661258, -0.027857347431219, 0
285, 0.75279190395946, 0.14131437271038, 0
286, 0.71689087107071, 0.095120282568559, 0
287, 0.71604954950857, -0.076527541335137, 0
288, 0.61959039736648, -0.065701243537371, 0
289, 0.71252811031076, -0.13297310136309, 0
290, 0.66103522429885, -0.15794423260203, 0
291, 0.53459639272493, -0.16516927915627, 0
292, 0.53323331165848, -0.19114247438227, 0
293, 0.58545372303494, -0.18629857907053, 0
294, 0.6642794059602, -0.099891204460223, 0
295, 0.6848025991357, -0.18783356986223, 0
296, 0.63488577012211, -0.18598479349043, 0
297, 0.94798803560299, -0.13904696109436, 0
298, 0.89523387562213, -0.13987775015847, 0
299, 0.84238420268381, -0.13957058138374, 0
300, 0.78987355931789, -0.13792232125406, 0
301, 0.73805577718067, -0.13488846134839, 0
302, 0.78803482702736, -0.1923282875961, 0
303, 0.73590015092534, -0.19028493319543, 0
304, 0.84089047997661, -0.19338559749419, 0
305, 0.89414889539488, -0.19350841672589, 0
306, 0.3467353729971, -0.036979416566118, 0
307, 0.30288560275021, -0.062449130090652, 0
308, 0.47552050187493, -0.11828544549651, 0
309, 0.61189804081467, -0.15641862921412, 0
310, 0.6860128063664, -0.1594369910824, 0
311, 0.29844979027596, 0.086218311816295, 0
312, 0.20484074285708, -0.11382363147682, 0
313, 0.22346057999698, -0.0025692325715562, 0
314, 0.58876631631991, 0.13814061786221, 0
315, 0.60581263656282, 0.081820267747186, 0
316, 0.77708038369096, 0.13942556323751, 0
317, 0.10091605391013, -0.056364138447148, 0
318, 0.12538942815904, -0.00084373453405392, 0
319, 0.05037357816737, -0.027119961065459, 0
320, 0.56616564589765, -0.10715118333252, 0
321, 0.39383503212453, -0.14159303768461, 0
322, 0.31724271602305, -0.005651616294129, 0
323, 0.25458401779507, -0.087955394834483, 0
324, 0.62896474824561, 0.15680599954184, 0
325, 0.70428975112833, 0.14766494248177, 0
326, 0.66345380966888, 0.13735322591142, 0
327, 0.62943456951231, -0.27199901488344, 0
328, 0.57869198760996, -0.27188609978143, 0
329, 0.60644488355021, -0.24350962264841, 0
330, 0.60403401496314, -0.27200343884888, 0
331, 0.97478232733408, 0.1378765428035, 0
332, 0.974711428627, 0.082408977354343, 0
333, 0.94965304971087, 0.10885414154182, 0
334, 0.97482287281061, 0.11015028178597, 0
335, 0.15906180559456, -0.27354141873256, 0
336, 0.18468216145287, -0.24715502425663, 0
337, 0.21239460897299, -0.27365389840828, 0
338, 0.18570125008186, -0.2735988288226, 0
339, 0.47632529340735, -0.27220876633433, 0
340, 0.50370597483537, -0.24499087941412, 0
341, 0.52772732251425, -0.27204237809796, 0
342, 0.50205813344541, -0.27208874409709, 0
343, 0.2124043804419, 0.27431311649186, 0
344, 0.18448262663584, 0.2481486358088, 0
345, 0.15806060940558, 0.27423262748043, 0
346, 0.18519613718583, 0.2744312573135, 0
347, 0.33433861309967, 0.14206921030932, 0
348, 0.051090557007178, 0.11175444422548, 0
349, 0.025234133532669, -0.08191277343541, 0
350, 0.075660631173988, -0.055726495297953, 0
351, 0.10593353842636, -0.27346747468241, 0
352, 0.13159186866681, -0.24692124138493, 0
353, 0.13247659683248, -0.27348744577062, 0
354, 0.94659950889475, -0.27333119565553, 0
355, 0.89302404059662, -0.27344875931688, 0
356, 0.92003558584644, -0.24675778678596, 0
357, 0.91984690851708, -0.27339399238628, 0
358, 0.025680926582329, 0.13951441631937, 0
359, 0.17478747863262, -0.0016451992754096, 0
360, 0.4450960476309, 0.14087674513027, 0
361, 0.97414154749089, -0.13824303575372, 0
362, 0.94824895660432, -0.11187698122658, 0
363, 0.9743575717197, -0.083297553797931, 0
364, 0.97426545724913, -0.11081236700633, 0
365, 0.025438391117365, -0.13736453321968, 0
366, 0.051277852685563, -0.1653932129702, 0
367, 0.025731049590024, -0.19235037571096, 0
368, 0.025548345818467, -0.16492772591079, 0
369, 0.83921219407953, -0.27356327403834, 0
370, 0.7854231174288, -0.27337960114697, 0
371, 0.8129137832523, -0.24684598132807, 0
372, 0.8122692265049, -0.27358122916264, 0
373, 0.052934691115331, -0.27343861082914, 0
374, 0.0787606475226, -0.24675388630588, 0
375, 0.07941968152446, -0.27345267230216, 0
376, 0.5268338817543, 0.27190607728581, 0
377, 0.50323831145191, 0.24490852890188, 0
378, 0.47576252835948, 0.27212102267002, 0
379, 0.50138049131401, 0.27205129612916, 0
380, 0.97444410278813, -0.028119683851712, 0
381, 0.94868727164475, -0.057211982782593, 0
382, 0.97443700905622, -0.055721354746848, 0
383, 0.050856420824793, 0.084232214308259, 0
384, 0.025197982077098, -0.026171367455609, 0
385, 0.41574396466651, -0.08965958870951, 0
386, 0.23801394672101, -0.24735182571915, 0
387, 0.26591203665759, -0.27371062941398, 0
388, 0.23913838097305, -0.27369789691912, 0
389, 0.68219990240411, 0.27450969183303, 0
390, 0.65755376926403, 0.24995118428596, 0
391, 0.62806926284796, 0.27338943413054, 0
392, 0.65476499088129, 0.27462868068786, 0
393, 0.31939854342462, -0.27354598137087, 0
394, 0.29150480385912, -0.24734343680092, 0
395, 0.29268508236369, -0.27368745015284, 0
396, 0.68051977679735, -0.27220886899428, 0
397, 0.65671183284624, -0.24382238684745, 0
398, 0.65490822604565, -0.27203861997248, 0
399, 0.050779709654664, -0.110437890881, 0
400, 0.025342448326665, -0.10968867219472, 0
401, 0.84347115780376, 0.27413009463528, 0
402, 0.81940217089975, 0.24780733083311, 0
403, 0.79011804169314, 0.27431185862402, 0
404, 0.81684457154822, 0.27430920307865, 0
405, 0.3724233531947, -0.27313470040174, 0
406, 0.39815126528613, -0.24610172535807, 0
407, 0.42471554252471, -0.27258927340018, 0
408, 0.39866750678299, -0.27288018684021, 0
409, 0.94770209936721, -0.16610303354334, 0
410, 0.97379482028604, -0.19273441363385, 0
411, 0.97400261156341, -0.1655594278916, 0
412, 0.052280228784348, 0.27304659550403, 0
413, 0.026400872877728, 0.24665088687616, 0
414, 0.026293480974743, 0.27312529159829, 0
415, 0.97451151490665, 0.027085063877471, 0
416, 0.94895791698536, -0.002127934253323, 0
417, 0.97444656457087, -0.00052460743114629, 0
418, 0.94929144251021, 0.053279099176355, 0
419, 0.97458754482665, 0.054723741792008, 0
420, 0.8664384985516, -0.24692021989102, 0
421, 0.86614002633839, -0.27349331997002, 0
422, 0.45092451825257, -0.24522715776104, 0
423, 0.45056571634226, -0.27230767411542, 0
424, 0.73644831026055, 0.27433696041466, 0
425, 0.71320610856246, 0.24913076007961, 0
426, 0.70942966256766, 0.27439331391643, 0
427, 0.34480289651967, 0.24664966026417, 0
428, 0.31997495204342, 0.27340491691464, 0
429, 0.37271453232157, 0.27289856793156, 0
430, 0.34643870678252, 0.27316471585989, 0
431, 0.15014343369727, 0.027168028738206, 0
432, 0.075517323306835, -0.02785212845226, 0
433, 0.70778248585913, -0.24477156374544, 0
434, 0.73241433970462, -0.27277320893438, 0
435, 0.7063405657983, -0.27243240752501, 0
436, 0.051830443862949, 0.16616040588553, 0
437, 0.026091078660646, 0.19351185017366, 0
438, 0.025870857289474, 0.16662805662963, 0
439, 0.026195726748098, -0.24662792586106, 0
440, 0.026473453362757, -0.27343272097599, 0
441, 0.60548028342275, 0.24467267918877, 0
442, 0.5772381865261, 0.27219553237997, 0
443, 0.60244389120737, 0.27247779583251, 0
444, 0.94938060294516, 0.16439143088611, 0
445, 0.97439783781341, 0.19282499282364, 0
446, 0.97463685833433, 0.16546636858382, 0
447, 0.34496669113836, -0.24688308515904, 0
448, 0.34598759108507, -0.27336079415154, 0
449, 0.29136158451918, 0.24733853508972, 0
450, 0.26652059817506, 0.27388324703072, 0
451, 0.29332981813535, 0.27362684062634, 0
452, 0.45042810910592, 0.24462336235459, 0
453, 0.4245922406979, 0.27230736503157, 0
454, 0.45019206031944, 0.27202396861896, 0
455, 0.39791373603245, 0.24567999999812, 0
456, 0.39876730317036, 0.27260145979939, 0
457, 0.97340998601377, -0.24657793742529, 0
458, 0.97328869380966, -0.27329997116989, 0
459, 0.76697806597155, 0.2483282382752, 0
460, 0.7633321766641, 0.27431095349948, 0
461, 0.94848119970005, 0.21922931617077, 0
462, 0.9739016604096, 0.24667722169305, 0
463, 0.97413297234089, 0.2198876418231, 0
464, 0.55518435016053, 0.2440758664729, 0
465, 0.55207681781867, 0.27198023971706, 0
466, 0.9246206048536, 0.13596951541091, 0
467, 0.92431346140505, 0.080160440030141, 0
468, 0.89956888989672, 0.1076591400252, 0
469, 0.92456593992222, 0.10803644127728, 0
470, 0.8710787195312, 0.24707086737843, 0
471, 0.89614185371276, 0.2735904998227, 0
472, 0.86991382252145, 0.27391747671934, 0
473, 0.75990362899106, -0.24600160925271, 0
474, 0.75878832926727, -0.27310848122844, 0
475, 0.55590881622512, -0.2440817790449, 0
476, 0.55328944236761, -0.27194782010347, 0
477, 0.23785377474928, 0.24792121347505, 0
478, 0.23952909882006, 0.2741216849957, 0
479, 0.18255462371029, -0.19403412536936, 0
480, 0.21019522740675, -0.22082089569544, 0
481, 0.15715304646351, -0.22045138857757, 0
482, 0.18363708401161, -0.22064270268787, 0
483, 0.61021586957841, -0.1857426754664, 0
484, 0.63330949460335, -0.21490130307827, 0
485, 0.58350803486738, -0.21502480662809, 0
486, 0.60845021885468, -0.21474995029216, 0
487, 0.10457373290195, 0.27356013601489, 0
488, 0.07887306185266, 0.24650651851967, 0
489, 0.078320460157874, 0.2731887574798, 0
490, 0.9479680534027, 0.27318684740023, 0
491, 0.97382005709976, 0.27327553255368, 0
492, 0.20980658288352, 0.22154146505787, 0
493, 0.1822838013043, 0.19452612458946, 0
494, 0.15727906546052, 0.22115637721957, 0
495, 0.18350287801459, 0.22147304207207, 0
496, 0.20663304435066, 0.16761100878001, 0
497, 0.17933626328152, 0.13988243341326, 0
498, 0.15515315068635, 0.1669769117696, 0
499, 0.18087216554661, 0.16733668973335, 0
500, 0.13145853746494, 0.24746594192003, 0
501, 0.13116683096179, 0.27395244676668, 0
502, 0.84022161706185, -0.22020392695671, 0
503, 0.78717970293784, -0.21945757668223, 0
504, 0.81439051028051, -0.19300206305044, 0
505, 0.81362931391069, -0.21996391908995, 0
506, 0.052001457225785, -0.21974414280454, 0
507, 0.025938949295256, -0.21958895909265, 0
508, 0.87500384636484, 0.13581581475661, 0
509, 0.87407146523804, 0.079752906068945, 0
510, 0.84974063680851, 0.10807880018798, 0
511, 0.87464158880265, 0.10768075367555, 0
512, 0.94702887409531, -0.21988815499288, 0
513, 0.97358507190397, -0.21973268559233, 0
514, 0.076696139662009, -0.13852445151751, 0
515, 0.075943664626232, -0.083471632876525, 0
516, 0.1018931676956, -0.11164424350328, 0
517, 0.076302660612809, -0.11107617143637, 0
518, 0.052557139720153, 0.21974549455481, 0
519, 0.02628575483193, 0.22016192780343, 0
520, 0.53174547044618, -0.21766699093299, 0
521, 0.47790449691021, -0.21867844830464, 0
522, 0.50577631291746, -0.19251429527811, 0
523, 0.50491380702318, -0.21846706284466, 0
524, 0.68353417704051, -0.21611234506451, 0
525, 0.65970995435315, -0.18674651757027, 0
526, 0.65830166708853, -0.21538016074692, 0
527, 0.92239378641408, 0.2463243116819, 0
528, 0.92212399549866, 0.27329554076692, 0
529, 0.42432014127155, -0.21906418918712, 0
530, 0.45082030827719, -0.19226983607368, 0
531, 0.45104946685613, -0.21858298549177, 0
532, 0.0771704764709, 0.1389077762038, 0
533, 0.07661700822977, 0.11152384701347, 0
534, 0.1261516045021, -0.056948030025592, 0
535, 0.43771000185601, 0.11462086668325, 0
536, 0.84161332869225, -0.16650831647015, 0
537, 0.78891780209301, -0.16514630657649, 0
538, 0.81606423070584, -0.13892919200479, 0
539, 0.81519619050406, -0.16598927360681, 0
540, 0.62018936223762, 0.13166171590978, 0
541, 0.6370823922677, 0.10182314004133, 0
542, 0.77048969233829, -0.02544640547473, 0
543, 0.67377691909147, 0.059968409826014, 0
544, 0.68933523945306, 0.22497834350838, 0
545, 0.63458158162657, 0.22046052537156, 0
546, 0.66092994202805, 0.22574548516337, 0
547, 0.4190222896921, -0.11517085168485, 0
548, 0.17520177175121, 0.055577421969244, 0
549, 0.15145872767791, 0.083834901201044, 0
550, 0.25688036846395, -0.11501249717982, 0
551, 0.12564951442181, -0.028992996989484, 0
552, 0.15522130730597, -0.16692739570669, 0
553, 0.18023601055271, -0.14038498729717, 0
554, 0.207718389839, -0.16765608511416, 0
555, 0.18142217091273, -0.16729549982076, 0
556, 0.92165574247134, -0.13959605020596, 0
557, 0.89578851181469, -0.1129195755562, 0
558, 0.92245354537891, -0.085429514296762, 0
559, 0.92206247878669, -0.11257339639739, 0
560, 0.025344157310036, 0.029429058309558, 0
561, 0.3819501966172, 0.057929270899848, 0
562, 0.44656986121447, -0.11443364238132, 0
563, 0.34091159522926, 0.19428779937981, 0
564, 0.31619004543794, 0.22075892177464, 0
565, 0.3699536727475, 0.21987076965116, 0
566, 0.34304586736682, 0.22038077527424, 0
567, 0.56387725826291, -0.134123116615, 0
568, 0.53757109467319, -0.092734996652563, 0
569, 0.6671342091883, -0.07055544390467, 0
570, 0.77207141852671, 0.085408707265206, 0
571, 0.65010784735379, 0.12287436838814, 0
572, 0.6098156178078, 0.10961306462706, 0
573, 0.72501257491008, 0.1717311525613, 0
574, 0.36832445233033, -0.16796362426383, 0
575, 0.42282164940172, -0.16673498527143, 0
576, 0.39674550208747, -0.19340235616392, 0
577, 0.39555713138005, -0.16740122690642, 0
578, 0.37075643032765, -0.22014065429114, 0
579, 0.39756174390526, -0.21962371998537, 0
580, 0.74612002402967, 0.063051320911243, 0
581, 0.8674953910736, -0.1935359368585, 0
582, 0.89365230428842, -0.22021477558694, 0
583, 0.86691631884287, -0.22026398214402, 0
584, 0.26352410118297, -0.22104475010224, 0
585, 0.28892099102984, -0.19474066020838, 0
586, 0.31708440823807, -0.22086100401823, 0
587, 0.29028051622902, -0.22102780957627, 0
588, 0.61368093963289, -0.12667348952033, 0
589, 0.68731762494762, -0.1309459018037, 0
590, 0.10441148415294, -0.2200868342703, 0
591, 0.12991783855735, -0.19348202470226, 0
592, 0.13074328347457, -0.22026114438774, 0
593, 0.51357489648219, 0.15069150187859, 0
594, 0.53854793014481, 0.12716844614255, 0
595, 0.50527862384777, 0.13117782976094, 0
596, 0.38246819421484, -0.065158407125954, 0
597, 0.41977868016677, -0.036933949034107, 0
598, 0.025152543924235, -0.054051938930439, 0
599, 0.35542443144235, 0.11601127975246, 0
600, 0.12680313945508, -0.084675557311899, 0
601, 0.025422129481761, 0.057109652369341, 0
602, 0.41684531065861, 0.14138950923532, 0
603, 0.22557125755609, 0.08455993686384, 0
604, 0.30786229059061, 0.14170760117267, 0
605, 0.27429472907683, 0.085517332737837, 0
606, 0.25305509999128, 0.11330336304096, 0
607, 0.47777650273315, 0.21882089734596, 0
608, 0.53299895722611, 0.21732178415115, 0
609, 0.50823376209112, 0.19390651612026, 0
610, 0.50551956681384, 0.21872771756466, 0
611, 0.92317570616432, -0.030715097287302, 0
612, 0.89694748035246, -0.058599687178363, 0
613, 0.92283953263598, -0.05814785842101, 0
614, 0.92377482292446, 0.02456156342837, 0
615, 0.89800446563891, -0.0036070413997118, 0
616, 0.92347837420323, -0.0031348657532725, 0
617, 0.53256144219594, -0.071333685885713, 0
618, 0.50516867919632, -0.097406065235771, 0
619, 0.20170759348329, -0.058799391599845, 0
620, 0.50193698674887, -0.075813455054778, 0
621, 0.87314238005253, 0.02415800489593, 0
622, 0.87184818426513, -0.031164460407869, 0
623, 0.84714565910614, -0.0029750097167403, 0
624, 0.87255135796825, -0.0035616262088522, 0
625, 0.56338498366242, 0.10844489610805, 0
626, 0.66391098976225, 0.092509231208473, 0
627, 0.74386513926364, 0.22280874060301, 0
628, 0.69219466900613, 0.079089836577021, 0
629, 0.71697865382356, 0.22384815779144, 0
630, 0.38223987476693, 0.11641850176084, 0
631, 0.3712417388573, -0.038246600352195, 0
632, 0.22794641175033, 0.11283735475332, 0
633, 0.58177749427069, -0.042917649473747, 0
634, 0.55975905940155, -0.059497123050318, 0
635, 0.58523243570457, 0.21622931308542, 0
636, 0.61007058649572, 0.21650007319179, 0
637, 0.1765434591205, -0.058131013691924, 0
638, 0.10205411638772, 0.11149050190781, 0
639, 0.36164519471256, -0.0079300424422216, 0
640, 0.27380014216442, -0.033124969258737, 0
641, 0.26065814239818, -0.16826928637528, 0
642, 0.28544646070252, -0.14209700992002, 0
643, 0.31417780749744, -0.16848129105579, 0
644, 0.28733761928818, -0.1684508771296, 0
645, 0.10058323709721, 0.027719054190639, 0
646, 0.17776902012604, 0.11211967017469, 0
647, 0.15016256149847, -0.0012451460535534, 0
648, 0.12648867207833, 0.083741948927814, 0
649, 0.41681979958792, 0.087408351391187, 0
650, 0.37799904363578, 0.024478206782714, 0
651, 0.79605379597885, 0.221285588914, 0
652, 0.84704699842107, 0.22019949618363, 0
653, 0.82355447181787, 0.19319222418952, 0
654, 0.82164110936796, 0.22073469353292, 0
655, 0.45019376278756, 0.19170234711462, 0
656, 0.42372669054659, 0.21846698729659, 0
657, 0.4505532612342, 0.21783898448518, 0
658, 0.22487263949293, -0.031347156963474, 0
659, 0.25593804576883, 0.14090857637086, 0
660, 0.025516561046262, 0.11218663863297, 0
661, 0.23554158543948, -0.19452301317478, 0
662, 0.23682581145356, -0.22096521076775, 0
663, 0.71020337915552, -0.18905247803247, 0
664, 0.73485244005136, -0.21789168617358, 0
665, 0.70905232465168, -0.21697165246258, 0
666, 0.33685995792468, 0.025265169802344, 0
667, 0.12543591237213, 0.027409882509268, 0
668, 0.74714363345939, 0.035428091412292, 0
669, 0.58532282416633, 0.081810957401434, 0
670, 0.6202169675125, 0.0069303609855231, 0
671, 0.25000337064575, 0.084973679981538, 0
672, 0.477214638127, 0.14843055071384, 0
673, 0.29437011027109, -0.0046624614487283, 0
674, 0.35518808860753, -0.064573065615349, 0
675, 0.39531428724668, 0.19317760080028, 0
676, 0.39686346517677, 0.21921214619366, 0
677, 0.76185741571131, -0.19140604931498, 0
678, 0.76090646696547, -0.21874996265164, 0
679, 0.76385450422403, -0.13656356435414, 0
680, 0.73693472246078, -0.16261093578334, 0
681, 0.76281585425703, -0.1640055299232, 0
682, 0.34270422074686, -0.1943855090524, 0
683, 0.34392011712738, -0.22056221185383, 0
684, 0.89883735181687, 0.051888302682718, 0
685, 0.924049999117, 0.052336169998718, 0
686, 0.77219240667089, 0.031077544879825, 0
687, 0.74522285779291, 0.089211975015066, 0
688, 0.67914174777149, 0.15415100659936, 0
689, 0.58227597361414, 0.11557807029008, 0
690, 0.44341818178781, -0.08838404986608, 0
691, 0.247715878722, 0.055890467285336, 0
692, 0.24939418097637, -0.032161279904687, 0
693, 0.19961638468549, 0.055626353548532, 0
694, 0.077621765615889, -0.19293587874663, 0
695, 0.078162507688357, -0.21991548972198, 0
696, 0.28728136485378, 0.19468289147121, 0
697, 0.26276228536155, 0.22128602237103, 0
698, 0.2894208027149, 0.22104537777113, 0
699, 0.92369304169004, 0.19158483555458, 0
700, 0.89931335351276, 0.16376462054724, 0
701, 0.92427208950386, 0.16386017337873, 0
702, 0.23254430328373, -0.14131387511517, 0
703, 0.23412445390766, -0.16799089220874, 0
704, 0.3958466702882, -0.038698999542998, 0
705, 0.39136413124466, -0.11596320414172, 0
706, 0.19923257253991, -0.0020774615662968, 0
707, 0.56586514835799, 0.18959982208701, 0
708, 0.55955615047945, 0.21653592213039, 0
709, 0.10307396823863, -0.16619167149976, 0
710, 0.12831364528083, -0.13946686890363, 0
711, 0.12910620992482, -0.1665594609076, 0
712, 0.65801032432556, 0.032709555065856, 0
713, 0.5924087979556, 0.18822832095286, 0
714, 0.77302704983948, 0.19508198682959, 0
715, 0.77017027033275, 0.22195650534768, 0
716, 0.63992741771003, -0.097797007885673, 0
717, 0.87023886942954, -0.085837311439286, 0
718, 0.84521280810823, -0.058131786171266, 0
719, 0.87105649884281, -0.058595676363172, 0
720, 0.72223395604569, -0.018197392689071, 0
721, 0.65076630367279, 0.068482827053747, 0
722, 0.61886227432425, 0.04481898595971, 0
723, 0.40981272781453, 0.11607897910136, 0
724, 0.2230524409268, 0.026568355388283, 0
725, 0.80029591267695, 0.16624206429203, 0
726, 0.75041251132591, 0.16936339559947, 0
727, 0.74599836155645, -0.022240062770577, 0
728, 0.33920517999189, -0.14234427623535, 0
729, 0.34118133363088, -0.16832769726226, 0
730, 0.61130021104838, -0.02982921241969, 0
731, 0.59476867777152, -0.015396181977253, 0
732, 0.23446836863046, 0.19477283787656, 0
733, 0.23622440441208, 0.22146268865991, 0
734, 0.55990378551102, -0.18879508798181, 0
735, 0.55801100158013, -0.21636550503075, 0
736, 0.92079090905196, -0.19333155980808, 0
737, 0.92037156318118, -0.22007646951362, 0
738, 0.077127748385793, -0.16580869703991, 0
739, 0.84840668458415, 0.052515136156506, 0
740, 0.87363228143122, 0.051937359963922, 0
741, 0.13036530486337, 0.19375031667752, 0
742, 0.1049456422688, 0.22020900432065, 0
743, 0.1311028881983, 0.22071046332205, 0
744, 0.25852474991827, 0.16800441275184, 0
745, 0.23030326185086, 0.14055115980427, 0
746, 0.23249878478768, 0.16782682019212, 0
747, 0.40233040682465, 0.056628419173741, 0
748, 0.47005630316191, -0.071643048933109, 0
749, 0.15060678370877, -0.029511563606266, 0
750, 0.38780141132784, -0.0905136576854, 0
751, 0.15324037016684, -0.1127087013531, 0
752, 0.12753989263066, -0.11217839331609, 0
753, 0.89468913320375, -0.16673410208928, 0
754, 0.9212357816561, -0.1665101458715, 0
755, 0.69362997753661, 0.20025979450024, 0
756, 0.60172755207462, 0.016389467179983, 0
757, 0.74846274453176, 0.11452605885736, 0
758, 0.69777809284814, 0.049631744439734, 0
759, 0.7195803523348, 0.069554943347591, 0
760, 0.81814322653464, -0.084578175785601, 0
761, 0.79390001690413, -0.055692961942482, 0
762, 0.82076336028064, -0.02955822134223, 0
763, 0.81947054727635, -0.057178609534569, 0
764, 0.89765535463898, 0.21930399756536, 0
765, 0.92300946168985, 0.21908394003191, 0
766, 0.17774857114012, -0.085851538375603, 0
767, 0.17900150572636, -0.11325392775537, 0
768, 0.078340665236126, 0.19302375404504, 0
769, 0.078771504240268, 0.21981558126129, 0
770, 0.76656831449122, -0.081470535207193, 0
771, 0.74370213330607, -0.050987582933644, 0
772, 0.74724449049439, 0.0067654754859449, 0
773, 0.7685988658419, -0.053635647367747, 0
774, 0.86879083735456, -0.13987593344996, 0
775, 0.86812853714295, -0.16674246211503, 0
776, 0.025457741623438, 0.084699952307319, 0
777, 0.38318145084457, -0.0085916348295609, 0
778, 0.15059242616877, 0.055578193688913, 0
779, 0.84322282723793, -0.11255414332803, 0
780, 0.86949086207866, -0.1129170554922, 0
781, 0.025276945478027, 0.0016612125053703, 0
782, 0.79666171585566, 0.00013146295138012, 0
783, 0.82258626084136, 0.026017435652603, 0
784, 0.82182795804778, -0.0017807827055795, 0
785, 0.56844780195043, -0.080960052833449, 0
786, 0.50650031790483, -0.14284871762527, 0
787, 0.20327490595503, -0.086497300723969, 0
788, 0.50616165416828, -0.11953031361543, 0
789, 0.77174823084972, 0.0029168519297383, 0
790, 0.63994997834965, 0.1935355457553, 0
791, 0.28317415743832, -0.11557928549797, 0
792, 0.15261895698781, 0.1118311982089, 0
793, 0.076174518028201, 0.083910668916094, 0
794, 0.27108178470083, -0.0038348589443957, 0
795, 0.79096433273807, -0.11064256209733, 0
796, 0.81703231300352, -0.11180478353423, 0
797, 0.6913738966334, -0.073570293946256, 0
798, 0.87355000321081, 0.19199905725438, 0
799, 0.87235884895774, 0.21971969378398, 0
800, 0.10363282111986, 0.16625466684314, 0
801, 0.077766611173268, 0.16606787408663, 0
802, 0.58740007788278, -0.15720780037889, 0
803, 0.63792275258256, -0.12743477020832, 0
804, 0.59222920956645, -0.096744519683777, 0
805, 0.19899367607797, 0.026766661822413, 0
806, 0.10089134933911, 0.055806215456614, 0
807, 0.17629661475305, 0.084008232409154, 0
808, 0.5442788879091, 0.16693326086234, 0
809, 0.47874521881078, 0.17031509775738, 0
810, 0.5111775159852, 0.17100270119754, 0
811, 0.73939728119417, -0.10710756000383, 0
812, 0.76506725140258, -0.10906866481257, 0
813, 0.58955526626057, -0.12748745485195, 0
814, 0.61590545710717, -0.096427370477731, 0
815, 0.53588736999964, -0.13992792941753, 0
816, 0.82587379938252, 0.13695673501015, 0
817, 0.84974276132717, 0.16449436821227, 0
818, 0.82503456775383, 0.16523834373656, 0
819, 0.7113198860589, -0.16104549019163, 0
820, 0.66245313125423, -0.12899096401762, 0
821, 0.82362924271792, 0.08124354863074, 0
822, 0.79972118667041, 0.11010936882119, 0
823, 0.82479980381794, 0.10887034310709, 0
824, 0.69583028086594, -0.044157875184209, 0
825, 0.6514926066552, -0.036935788822095, 0
826, 0.67321284027322, -0.040354728118709, 0
827, 0.8744842048634, 0.1640002071268, 0
828, 0.53699571555908, -0.11567768090711, 0
829, 0.56180611678943, -0.16137433081059, 0
830, 0.12839555802218, 0.13922204310947, 0
831, 0.12942055912531, 0.16659391235285, 0
832, 0.47790770033095, -0.1672679599239, 0
833, 0.68896540773314, -0.10235569015917, 0
834, 0.50632231822218, -0.16724582738142, 0
835, 0.77545217667147, 0.16758491885642, 0
836, 0.61713868398162, 0.18750358350653, 0
837, 0.3703668678085, 0.088877872659144, 0
838, 0.15136083097309, -0.05752443756271, 0
839, 0.30972968469061, -0.11605449286775, 0
840, 0.42063530063, 0.16671935667542, 0
841, 0.44870221065106, 0.16615783788976, 0
842, 0.20023003673534, -0.030654389634231, 0
843, 0.38882679385038, 0.14206692009426, 0
844, 0.59637927265594, -0.064493505703903, 0
845, 0.64322597993425, -0.067896477736357, 0
846, 0.36529912799803, 0.16804035591727, 0
847, 0.31127750992255, 0.16826095238671, 0
848, 0.33811012512057, 0.16825667861078, 0
849, 0.36383315545296, -0.1163620073503, 0
850, 0.33937871209337, 0.057472856009485, 0
851, 0.17547132895911, -0.030053132652594, 0
852, 0.4487593343269, -0.14031271452938, 0
853, 0.45011090032837, -0.16620991811744, 0
854, 0.27129911298938, 0.056135871430464, 0
855, 0.57510106768356, 0.16350982132593, 0
856, 0.40422579259752, -0.0077011918837674, 0
857, 0.23078678574586, -0.11441552671198, 0
858, 0.32928351980901, 0.1153011879711, 0
859, 0.39283337040728, 0.16751338817135, 0
860, 0.47038955843856, 0.12618653700921, 0
861, 0.31526526931932, 0.025597440738878, 0
862, 0.20286566749264, 0.11245022104937, 0
863, 0.3223949208931, -0.035566907194883, 0
864, 0.10139076958886, 0.083755622945338, 0
865, 0.35773608963483, 0.024880066083002, 0
866, 0.12581469138881, 0.055645878894355, 0
867, 0.72163537228936, 0.11842541330875, 0
868, 0.6307210829678, -0.033667088351316, 0
869, 0.71938226182535, -0.047784379354841, 0
870, 0.79771129928601, 0.055658391770398, 0
871, 0.8231197490938, 0.053704653977328, 0
872, 0.075842964630692, 0.056090886168306, 0
873, 0.27825047323844, 0.1138712119785, 0
874, 0.72229519527304, 0.041489499645456, 0
875, 0.10061445958727, -0.028456156517558, 0
876, 0.10049550861836, -0.00040254802947259, 0
877, 0.65770549877337, -0.0031282758018306, 0
878, 0.67060348989217, 0.17833096075717, 0
879, 0.29299281041791, 0.025881907778191, 0
880, 0.28476599278561, 0.16815405111653, 0
881, 0.67863201036091, 0.025894609339711, 0
882, 0.31720062146684, 0.056938787085158, 0
883, 0.77435601998444, 0.11191930632478, 0
884, 0.20100112709236, 0.084245896237968, 0
885, 0.33660619491541, -0.11635410296886, 0
886, 0.71401321839269, -0.10482707006235, 0
887, 0.050397848383515, -0.054978914162468, 0
888, 0.69880475873563, 0.17493870717961, 0
889, 0.28176285427316, 0.14129829545733, 0
890, 0.63636156863562, -0.15683347444462, 0
891, 0.25207619516426, -0.060412516215748, 0
892, 0.69329011429284, 0.12490618201305, 0
893, 0.4107433161022, -0.064673268606932, 0
894, 0.43951112379042, -0.062093939662093, 0
******* E L E M E N T S *************
*ELEMENT, type=CPS4, ELSET=Surface1
1, 155, 329, 330, 327
2, 327, 330, 30, 38
3, 330, 328, 3, 30
4, 329, 142, 328, 330
5, 240, 333, 334, 331
6, 331, 334, 52, 63
7, 334, 332, 62, 52
8, 333, 271, 332, 334
9, 21, 337, 338, 13
10, 13, 338, 335, 20
11, 338, 336, 147, 335
12, 337, 146, 336, 338
13, 28, 26, 342, 339
14, 339, 342, 340, 149
15, 342, 341, 154, 340
16, 26, 29, 341, 342
17, 98, 345, 346, 90
18, 90, 346, 343, 97
19, 346, 344, 176, 343
20, 345, 175, 344, 346
21, 114, 104, 660, 358
22, 865, 220, 850, 666
23, 194, 136, 126, 747
24, 893, 596, 750, 385
25, 20, 335, 353, 12
26, 12, 353, 351, 19
27, 353, 352, 144, 351
28, 335, 147, 352, 353
29, 162, 356, 357, 354
30, 354, 357, 36, 44
31, 357, 355, 43, 36
32, 356, 160, 355, 357
33, 347, 848, 847, 604
34, 200, 603, 884, 693
35, 856, 127, 136, 194
36, 432, 350, 317, 875
37, 59, 363, 364, 48
38, 48, 364, 361, 58
39, 364, 362, 297, 361
40, 363, 276, 362, 364
41, 119, 109, 368, 365
42, 365, 368, 366, 211
43, 368, 367, 203, 366
44, 109, 120, 367, 368
45, 159, 371, 372, 369
46, 369, 372, 34, 42
47, 372, 370, 41, 34
48, 371, 158, 370, 372
49, 18, 11, 375, 373
50, 373, 375, 374, 145
51, 375, 351, 144, 374
52, 11, 19, 351, 375
53, 84, 82, 379, 376
54, 376, 379, 377, 254
55, 379, 378, 182, 377
56, 82, 85, 378, 379
57, 278, 381, 382, 380
58, 380, 382, 49, 60
59, 382, 363, 59, 49
60, 381, 276, 363, 382
61, 750, 199, 849, 705
62, 167, 638, 188, 830
63, 659, 744, 746, 745
64, 188, 648, 549, 792
65, 22, 387, 388, 14
66, 14, 388, 337, 21
67, 388, 386, 146, 337
68, 387, 148, 386, 388
69, 79, 72, 392, 389
70, 389, 392, 390, 251
71, 392, 391, 253, 390
72, 72, 80, 391, 392
73, 151, 394, 395, 393
74, 393, 395, 15, 23
75, 395, 387, 22, 15
76, 394, 148, 387, 395
77, 156, 397, 398, 396
78, 396, 398, 31, 39
79, 398, 327, 38, 31
80, 397, 155, 327, 398
81, 211, 399, 400, 365
82, 365, 400, 108, 119
83, 400, 349, 118, 108
84, 399, 214, 349, 400
85, 76, 69, 404, 401
86, 401, 404, 402, 246
87, 404, 403, 247, 402
88, 69, 77, 403, 404
89, 24, 17, 408, 405
90, 405, 408, 406, 150
91, 408, 407, 141, 406
92, 17, 2, 407, 408
93, 161, 410, 411, 409
94, 409, 411, 361, 297
95, 411, 47, 58, 361
96, 410, 57, 47, 411
97, 100, 93, 414, 412
98, 412, 414, 413, 173
99, 414, 101, 112, 413
100, 93, 8, 101, 414
101, 273, 416, 417, 415
102, 415, 417, 50, 61
103, 417, 380, 60, 50
104, 416, 278, 380, 417
105, 273, 415, 419, 418
106, 418, 419, 332, 271
107, 419, 51, 62, 332
108, 415, 61, 51, 419
109, 160, 420, 421, 355
110, 355, 421, 35, 43
111, 421, 369, 42, 35
112, 420, 159, 369, 421
113, 2, 25, 423, 407
114, 407, 423, 422, 141
115, 423, 339, 149, 422
116, 25, 28, 339, 423
117, 78, 71, 426, 424
118, 424, 426, 425, 249
119, 426, 389, 251, 425
120, 71, 79, 389, 426
121, 181, 429, 430, 427
122, 427, 430, 428, 179
123, 430, 87, 95, 428
124, 429, 94, 87, 430
125, 854, 605, 671, 691
126, 319, 887, 350, 432
127, 887, 214, 515, 350
128, 383, 198, 872, 793
129, 156, 396, 435, 433
130, 433, 435, 434, 157
131, 435, 32, 40, 434
132, 396, 39, 32, 435
133, 171, 437, 438, 436
134, 436, 438, 358, 169
135, 438, 103, 114, 358
136, 437, 113, 103, 438
137, 121, 111, 440, 439
138, 439, 440, 373, 145
139, 440, 10, 18, 373
140, 111, 1, 10, 440
141, 80, 73, 443, 391
142, 391, 443, 441, 253
143, 443, 442, 153, 441
144, 73, 6, 442, 443
145, 63, 53, 446, 331
146, 331, 446, 444, 240
147, 446, 445, 243, 444
148, 53, 64, 445, 446
149, 23, 16, 448, 393
150, 393, 448, 447, 151
151, 448, 405, 150, 447
152, 16, 24, 405, 448
153, 179, 428, 451, 449
154, 449, 451, 450, 177
155, 451, 88, 96, 450
156, 428, 95, 88, 451
157, 182, 378, 454, 452
158, 452, 454, 453, 143
159, 454, 83, 7, 453
160, 378, 85, 83, 454
161, 143, 453, 456, 455
162, 455, 456, 429, 181
163, 456, 86, 94, 429
164, 453, 7, 86, 456
165, 56, 457, 458, 45
166, 45, 458, 37, 4
167, 458, 354, 44, 37
168, 457, 162, 354, 458
169, 77, 70, 460, 403
170, 403, 460, 459, 247
171, 460, 424, 249, 459
172, 70, 78, 424, 460
173, 64, 54, 463, 445
174, 445, 463, 461, 243
175, 463, 462, 245, 461
176, 54, 65, 462, 463
177, 6, 81, 465, 442
178, 442, 465, 464, 153
179, 465, 376, 254, 464
180, 81, 84, 376, 465
181, 239, 468, 469, 466
182, 466, 469, 333, 240
183, 469, 467, 271, 333
184, 468, 272, 467, 469
185, 244, 471, 472, 470
186, 470, 472, 401, 246
187, 472, 68, 76, 401
188, 471, 75, 68, 472
189, 157, 434, 474, 473
190, 473, 474, 370, 158
191, 474, 33, 41, 370
192, 434, 40, 33, 474
193, 154, 341, 476, 475
194, 475, 476, 328, 142
195, 476, 27, 3, 328
196, 341, 29, 27, 476
197, 177, 450, 478, 477
198, 477, 478, 343, 176
199, 478, 89, 97, 343
200, 450, 96, 89, 478
201, 206, 481, 482, 479
202, 479, 482, 480, 205
203, 482, 336, 146, 480
204, 481, 147, 336, 482
205, 293, 485, 486, 483
206, 483, 486, 484, 296
207, 486, 329, 155, 484
208, 485, 142, 329, 486
209, 99, 92, 489, 487
210, 487, 489, 488, 174
211, 489, 412, 173, 488
212, 92, 100, 412, 489
213, 65, 55, 491, 462
214, 462, 491, 490, 245
215, 491, 66, 74, 490
216, 55, 5, 66, 491
217, 175, 494, 495, 344
218, 344, 495, 492, 176
219, 495, 493, 163, 492
220, 494, 170, 493, 495
221, 170, 498, 499, 493
222, 493, 499, 496, 163
223, 499, 497, 166, 496
224, 498, 168, 497, 499
225, 98, 91, 501, 345
226, 345, 501, 500, 175
227, 501, 487, 174, 500
228, 91, 99, 487, 501
229, 304, 504, 505, 502
230, 502, 505, 371, 159
231, 505, 503, 158, 371
232, 504, 302, 503, 505
233, 120, 110, 507, 367
234, 367, 507, 506, 203
235, 507, 439, 145, 506
236, 110, 121, 439, 507
237, 238, 510, 511, 508
238, 508, 511, 468, 239
239, 511, 509, 272, 468
240, 510, 266, 509, 511
241, 162, 457, 513, 512
242, 512, 513, 410, 161
243, 513, 46, 57, 410
244, 457, 56, 46, 513
245, 210, 516, 517, 514
246, 514, 517, 399, 211
247, 517, 515, 214, 399
248, 516, 213, 515, 517
249, 173, 413, 519, 518
250, 518, 519, 437, 171
251, 519, 102, 113, 437
252, 413, 112, 102, 519
253, 292, 522, 523, 520
254, 520, 523, 340, 154
255, 523, 521, 149, 340
256, 522, 222, 521, 523
257, 295, 525, 526, 524
258, 524, 526, 397, 156
259, 526, 484, 155, 397
260, 525, 296, 484, 526
261, 245, 490, 528, 527
262, 527, 528, 471, 244
263, 528, 67, 75, 471
264, 490, 74, 67, 528
265, 222, 530, 531, 521
266, 521, 531, 422, 149
267, 531, 529, 141, 422
268, 530, 221, 529, 531
269, 168, 792, 646, 497
270, 860, 134, 124, 595
271, 562, 852, 228, 308
272, 872, 192, 645, 806
273, 299, 538, 539, 536
274, 536, 539, 504, 304
275, 539, 537, 302, 504
276, 538, 300, 537, 539
277, 541, 572, 259, 721
278, 714, 835, 725, 235
279, 670, 756, 731, 730
280, 542, 284, 782, 789
281, 251, 390, 546, 544
282, 836, 790, 545, 636
283, 324, 250, 790, 836
284, 390, 253, 545, 546
285, 551, 534, 838, 749
286, 749, 838, 637, 851
287, 231, 854, 691, 233
288, 348, 383, 793, 533
289, 205, 554, 555, 479
290, 479, 555, 552, 206
291, 555, 553, 209, 552
292, 554, 208, 553, 555
293, 276, 558, 559, 362
294, 362, 559, 556, 297
295, 559, 557, 298, 556
296, 558, 275, 557, 559
297, 311, 165, 873, 605
298, 638, 864, 648, 188
299, 497, 646, 862, 166
300, 884, 862, 646, 807
301, 180, 565, 566, 563
302, 563, 566, 564, 178
303, 566, 427, 179, 564
304, 565, 181, 427, 566
305, 829, 291, 292, 734
306, 797, 833, 886, 287
307, 785, 634, 617, 568
308, 265, 870, 267, 570
309, 543, 721, 712, 881
310, 540, 314, 572, 541
311, 712, 877, 263, 881
312, 223, 576, 577, 574
313, 574, 577, 321, 225
314, 577, 575, 227, 321
315, 576, 221, 575, 577
316, 150, 406, 579, 578
317, 578, 579, 576, 223
318, 579, 529, 221, 576
319, 406, 141, 529, 579
320, 727, 542, 789, 772
321, 874, 283, 772, 668
322, 726, 248, 264, 573
323, 159, 420, 583, 502
324, 502, 583, 581, 304
325, 583, 582, 305, 581
326, 420, 160, 582, 583
327, 148, 394, 587, 584
328, 584, 587, 585, 204
329, 587, 586, 224, 585
330, 394, 151, 586, 587
331, 813, 567, 829, 802
332, 288, 814, 716, 845
333, 819, 663, 303, 680
334, 803, 890, 290, 820
335, 144, 352, 592, 590
336, 590, 592, 591, 202
337, 592, 481, 206, 591
338, 352, 147, 481, 592
339, 593, 595, 594, 257
340, 595, 124, 133, 594
341, 842, 706, 359, 851
342, 882, 218, 311, 196
343, 704, 777, 639, 631
344, 549, 778, 548, 807
345, 723, 602, 843, 630
346, 350, 515, 213, 317
347, 115, 105, 601, 776
348, 117, 107, 598, 384
349, 792, 549, 807, 646
350, 197, 863, 195, 307
351, 169, 348, 533, 532
352, 229, 323, 550, 791
353, 671, 606, 632, 603
354, 184, 609, 610, 607
355, 607, 610, 377, 182
356, 610, 608, 254, 377
357, 609, 256, 608, 610
358, 277, 612, 613, 611
359, 611, 613, 381, 278
360, 613, 558, 276, 381
361, 612, 275, 558, 613
362, 274, 615, 616, 614
363, 614, 616, 416, 273
364, 616, 611, 278, 416
365, 615, 277, 611, 616
366, 690, 562, 308, 232
367, 129, 620, 617, 139
368, 785, 568, 828, 320
369, 597, 856, 777, 704
370, 269, 623, 624, 621
371, 621, 624, 615, 274
372, 624, 622, 277, 615
373, 623, 282, 622, 624
374, 824, 869, 720, 268
375, 869, 771, 727, 720
376, 315, 669, 261, 722
377, 259, 572, 689, 315
378, 249, 425, 629, 627
379, 790, 258, 546, 545
380, 425, 251, 544, 629
381, 535, 125, 134, 860
382, 199, 212, 885, 849
383, 724, 200, 693, 805
384, 139, 617, 634, 130
385, 130, 634, 633, 140
386, 802, 829, 734, 293
387, 253, 441, 636, 545
388, 626, 543, 758, 628
389, 543, 881, 260, 758
390, 441, 153, 635, 636
391, 667, 318, 647, 431
392, 165, 604, 889, 873
393, 318, 551, 749, 647
394, 830, 188, 792, 168
395, 192, 187, 876, 645
396, 193, 201, 187, 192
397, 204, 585, 644, 641
398, 641, 644, 642, 207
399, 644, 643, 226, 642
400, 585, 224, 643, 644
401, 562, 547, 227, 852
402, 648, 866, 778, 549
403, 189, 846, 848, 347
404, 230, 619, 787, 190
405, 322, 861, 879, 673
406, 606, 659, 745, 632
407, 843, 859, 846, 189
408, 891, 230, 190, 323
409, 235, 653, 654, 651
410, 651, 654, 402, 247
411, 654, 652, 246, 402
412, 653, 241, 652, 654
413, 143, 656, 657, 452
414, 452, 657, 607, 182
415, 657, 655, 184, 607
416, 656, 183, 655, 657
417, 866, 667, 431, 778
418, 649, 135, 125, 535
419, 666, 850, 882, 861
420, 220, 837, 185, 850
421, 148, 584, 662, 386
422, 386, 662, 480, 146
423, 662, 661, 205, 480
424, 584, 204, 661, 662
425, 295, 524, 665, 663
426, 663, 665, 664, 303
427, 665, 433, 157, 664
428, 524, 156, 433, 665
429, 323, 190, 857, 550
430, 747, 649, 217, 561
431, 805, 693, 548, 215
432, 560, 781, 201, 193
433, 248, 627, 629, 264
434, 756, 9, 131, 731
435, 152, 670, 730, 868
436, 721, 259, 262, 712
437, 166, 862, 632, 745
438, 358, 660, 348, 169
439, 217, 723, 630, 837
440, 533, 793, 864, 638
441, 183, 656, 676, 675
442, 675, 676, 565, 180
443, 676, 455, 181, 565
444, 656, 143, 455, 676
445, 303, 664, 678, 677
446, 677, 678, 503, 302
447, 678, 473, 158, 503
448, 664, 157, 473, 678
449, 301, 680, 681, 679
450, 679, 681, 537, 300
451, 681, 677, 302, 537
452, 680, 303, 677, 681
453, 151, 447, 683, 586
454, 586, 683, 682, 224
455, 683, 578, 223, 682
456, 447, 150, 578, 683
457, 271, 467, 685, 418
458, 418, 685, 614, 273
459, 685, 684, 274, 614
460, 467, 272, 684, 685
461, 625, 594, 133, 123
462, 573, 264, 755, 888
463, 789, 782, 270, 686
464, 693, 884, 807, 548
465, 894, 690, 232, 748
466, 196, 311, 605, 854
467, 605, 873, 606, 671
468, 203, 506, 695, 694
469, 694, 695, 590, 202
470, 695, 374, 144, 590
471, 506, 145, 374, 695
472, 178, 564, 698, 696
473, 696, 698, 697, 164
474, 698, 449, 177, 697
475, 564, 179, 449, 698
476, 242, 700, 701, 699
477, 699, 701, 444, 243
478, 701, 466, 240, 444
479, 700, 239, 466, 701
480, 204, 641, 703, 661
481, 661, 703, 554, 205
482, 703, 702, 208, 554
483, 641, 207, 702, 703
484, 194, 747, 561, 650
485, 596, 631, 306, 674
486, 185, 599, 858, 218
487, 619, 637, 766, 787
488, 256, 707, 708, 608
489, 608, 708, 464, 254
490, 708, 635, 153, 464
491, 236, 713, 707, 855
492, 206, 552, 711, 591
493, 591, 711, 709, 202
494, 711, 710, 210, 709
495, 552, 209, 710, 711
496, 713, 635, 708, 707
497, 773, 761, 284, 542
498, 572, 314, 257, 689
499, 571, 324, 236, 540
500, 247, 459, 715, 651
501, 651, 715, 714, 235
502, 715, 627, 248, 714
503, 459, 249, 627, 715
504, 288, 845, 825, 868
505, 845, 716, 294, 569
506, 890, 296, 525, 290
507, 844, 730, 731, 633
508, 282, 718, 719, 622
509, 622, 719, 612, 277
510, 719, 717, 275, 612
511, 718, 280, 717, 719
512, 720, 727, 772, 283
513, 570, 267, 822, 883
514, 248, 726, 835, 714
515, 888, 755, 258, 878
516, 107, 118, 349, 598
517, 604, 847, 880, 889
518, 312, 767, 553, 208
519, 894, 128, 137, 597
520, 315, 689, 625, 669
521, 268, 720, 283, 260
522, 326, 688, 878, 250
523, 224, 682, 729, 643
524, 643, 729, 728, 226
525, 729, 574, 225, 728
526, 682, 223, 574, 729
527, 140, 633, 731, 131
528, 755, 544, 546, 258
529, 722, 261, 756, 670
530, 845, 569, 826, 825
531, 164, 697, 733, 732
532, 732, 733, 492, 163
533, 733, 477, 176, 492
534, 697, 177, 477, 733
535, 142, 485, 735, 475
536, 475, 735, 520, 154
537, 735, 734, 292, 520
538, 485, 293, 734, 735
539, 160, 356, 737, 582
540, 582, 737, 736, 305
541, 737, 512, 161, 736
542, 356, 162, 512, 737
543, 202, 709, 738, 694
544, 694, 738, 366, 203
545, 738, 514, 211, 366
546, 709, 210, 514, 738
547, 272, 509, 740, 684
548, 684, 740, 621, 274
549, 740, 739, 269, 621
550, 509, 266, 739, 740
551, 175, 500, 743, 494
552, 494, 743, 741, 170
553, 743, 742, 172, 741
554, 500, 174, 742, 743
555, 163, 496, 746, 732
556, 732, 746, 744, 164
557, 234, 640, 692, 891
558, 496, 166, 745, 746
559, 849, 885, 728, 225
560, 232, 308, 788, 618
561, 602, 840, 859, 843
562, 776, 601, 198, 383
563, 209, 751, 752, 710
564, 710, 752, 516, 210
565, 752, 600, 213, 516
566, 751, 219, 600, 752
567, 297, 556, 754, 409
568, 409, 754, 736, 161
569, 754, 753, 305, 736
570, 556, 298, 753, 754
571, 669, 625, 123, 132
572, 571, 540, 541, 626
573, 324, 836, 713, 236
574, 259, 315, 722, 262
575, 263, 268, 260, 881
576, 877, 152, 868, 825
577, 571, 326, 250, 324
578, 826, 824, 268, 263
579, 282, 762, 763, 718
580, 718, 763, 760, 280
581, 763, 761, 279, 760
582, 762, 284, 761, 763
583, 243, 461, 765, 699
584, 699, 765, 764, 242
585, 765, 527, 244, 764
586, 461, 245, 527, 765
587, 219, 751, 767, 766
588, 191, 666, 861, 322
589, 850, 185, 218, 882
590, 751, 209, 553, 767
591, 174, 488, 769, 742
592, 742, 769, 768, 172
593, 769, 518, 171, 768
594, 488, 173, 518, 769
595, 761, 773, 770, 279
596, 773, 771, 281, 770
597, 326, 892, 325, 688
598, 304, 581, 775, 536
599, 536, 775, 774, 299
600, 775, 753, 298, 774
601, 581, 305, 753, 775
602, 230, 658, 842, 619
603, 747, 126, 135, 649
604, 597, 137, 127, 856
605, 561, 217, 837, 220
606, 275, 717, 780, 557
607, 557, 780, 774, 298
608, 780, 779, 299, 774
609, 717, 280, 779, 780
610, 116, 106, 781, 560
611, 793, 872, 806, 864
612, 889, 880, 744, 659
613, 307, 195, 640, 234
614, 269, 783, 784, 623
615, 623, 784, 762, 282
616, 784, 782, 284, 762
617, 783, 270, 782, 784
618, 186, 233, 724, 313
619, 589, 310, 819, 289
620, 891, 692, 658, 230
621, 877, 825, 826, 263
622, 758, 260, 283, 874
623, 689, 257, 594, 625
624, 571, 255, 892, 326
625, 308, 228, 786, 788
626, 879, 196, 854, 231
627, 706, 805, 215, 359
628, 300, 538, 796, 795
629, 795, 796, 760, 279
630, 796, 779, 280, 760
631, 538, 299, 779, 796
632, 844, 804, 814, 288
633, 828, 788, 786, 815
634, 716, 803, 820, 294
635, 242, 764, 799, 798
636, 798, 799, 652, 241
637, 799, 470, 246, 652
638, 764, 244, 470, 799
639, 169, 532, 801, 436
640, 436, 801, 768, 171
641, 801, 800, 172, 768
642, 532, 167, 800, 801
643, 567, 815, 291, 829
644, 814, 588, 803, 716
645, 309, 483, 296, 890
646, 787, 766, 767, 312
647, 876, 875, 551, 318
648, 596, 674, 199, 750
649, 431, 647, 359, 215
650, 184, 809, 810, 609
651, 609, 810, 808, 256
652, 810, 593, 257, 808
653, 603, 632, 862, 884
654, 281, 811, 812, 770
655, 770, 812, 795, 279
656, 812, 679, 300, 795
657, 811, 301, 679, 812
658, 290, 525, 295, 310
659, 568, 618, 788, 828
660, 815, 786, 834, 291
661, 287, 281, 771, 869
662, 238, 817, 818, 816
663, 816, 818, 725, 237
664, 818, 653, 235, 725
665, 817, 241, 653, 818
666, 289, 819, 680, 301
667, 844, 633, 634, 785
668, 813, 802, 309, 588
669, 320, 828, 815, 567
670, 237, 822, 823, 816
671, 816, 823, 510, 238
672, 823, 821, 266, 510
673, 822, 267, 821, 823
674, 316, 883, 822, 237
675, 844, 785, 320, 804
676, 797, 287, 869, 824
677, 771, 773, 542, 727
678, 241, 817, 827, 798
679, 798, 827, 700, 242
680, 827, 508, 239, 700
681, 817, 238, 508, 827
682, 802, 293, 483, 309
683, 844, 288, 868, 730
684, 287, 886, 811, 281
685, 170, 741, 831, 498
686, 498, 831, 830, 168
687, 831, 800, 167, 830
688, 741, 172, 800, 831
689, 886, 289, 301, 811
690, 522, 834, 832, 222
691, 834, 786, 228, 832
692, 291, 834, 522, 292
693, 262, 722, 670, 152
694, 668, 686, 265, 580
695, 836, 636, 635, 713
696, 875, 317, 534, 551
697, 212, 216, 839, 885
698, 601, 560, 193, 198
699, 598, 349, 214, 887
700, 183, 840, 841, 655
701, 655, 841, 809, 184
702, 650, 561, 220, 865
703, 639, 865, 666, 191
704, 360, 841, 840, 602
705, 234, 891, 323, 229
706, 104, 115, 776, 660
707, 535, 360, 602, 723
708, 588, 309, 890, 803
709, 310, 295, 663, 819
710, 569, 797, 824, 826
711, 804, 320, 567, 813
712, 804, 813, 588, 814
713, 569, 294, 833, 797
714, 178, 847, 848, 563
715, 563, 848, 846, 180
716, 195, 673, 794, 640
717, 673, 879, 231, 794
718, 858, 347, 604, 165
719, 857, 312, 208, 702
720, 691, 671, 603, 200
721, 674, 306, 863, 197
722, 658, 313, 706, 842
723, 838, 219, 766, 637
724, 201, 319, 432, 187
725, 313, 724, 805, 706
726, 221, 530, 853, 575
727, 575, 853, 852, 227
728, 853, 832, 228, 852
729, 530, 222, 832, 853
730, 647, 749, 851, 359
731, 306, 191, 322, 863
732, 532, 533, 638, 167
733, 257, 314, 855, 808
734, 808, 855, 707, 256
735, 571, 626, 628, 255
736, 759, 874, 668, 580
737, 307, 234, 229, 216
738, 649, 535, 723, 217
739, 777, 650, 865, 639
740, 631, 639, 191, 306
741, 385, 750, 705, 547
742, 317, 213, 600, 534
743, 873, 889, 659, 606
744, 893, 704, 631, 596
745, 894, 748, 138, 128
746, 859, 675, 180, 846
747, 840, 183, 675, 859
748, 360, 672, 809, 841
749, 216, 229, 791, 839
750, 645, 876, 318, 667
751, 672, 593, 810, 809
752, 839, 791, 642, 226
753, 106, 117, 384, 781
754, 778, 431, 215, 548
755, 218, 858, 165, 311
756, 806, 645, 667, 866
757, 660, 776, 383, 348
758, 285, 726, 573, 252
759, 252, 573, 888, 325
760, 568, 617, 620, 618
761, 286, 687, 757, 867
762, 264, 629, 544, 755
763, 266, 821, 871, 739
764, 739, 871, 783, 269
765, 871, 870, 270, 783
766, 821, 267, 870, 871
767, 547, 705, 321, 227
768, 861, 882, 196, 879
769, 534, 600, 219, 838
770, 261, 122, 9, 756
771, 726, 285, 316, 835
772, 712, 262, 152, 877
773, 285, 757, 883, 316
774, 198, 193, 192, 872
775, 535, 860, 672, 360
776, 197, 307, 216, 212
777, 187, 432, 875, 876
778, 628, 758, 874, 759
779, 626, 541, 721, 543
780, 190, 787, 312, 857
781, 837, 630, 599, 185
782, 856, 194, 650, 777
783, 863, 322, 673, 195
784, 164, 744, 880, 696
785, 696, 880, 847, 178
786, 619, 842, 851, 637
787, 674, 197, 212, 199
788, 669, 132, 122, 261
789, 255, 286, 867, 892
790, 580, 265, 570, 687
791, 250, 878, 258, 790
792, 864, 806, 866, 648
793, 894, 597, 704, 893
794, 105, 116, 560, 601
795, 687, 570, 883, 757
796, 540, 236, 855, 314
797, 255, 628, 759, 286
798, 286, 759, 580, 687
799, 599, 189, 347, 858
800, 781, 384, 319, 201
801, 550, 857, 702, 207
802, 384, 598, 887, 319
803, 748, 620, 129, 138
804, 748, 232, 618, 620
805, 630, 843, 189, 599
806, 233, 691, 200, 724
807, 791, 550, 207, 642
808, 835, 316, 237, 725
809, 686, 270, 870, 265
810, 772, 789, 686, 668
811, 860, 595, 593, 672
812, 640, 794, 186, 692
813, 885, 839, 226, 728
814, 833, 589, 289, 886
815, 294, 820, 589, 833
816, 820, 290, 310, 589
817, 692, 186, 313, 658
818, 794, 231, 233, 186
819, 705, 849, 225, 321
820, 892, 867, 252, 325
821, 867, 757, 285, 252
822, 325, 888, 878, 688
823, 690, 385, 547, 562
824, 894, 893, 385, 690
*ELSET,ELSET=contact_source
99, 100, 101, 102, 103, 104, 105, 106, 107, 108, 
109, 110, 111, 112, 113, 114, 115, 116, 117, 118, 
119, 120, 
*ELSET,ELSET=contact_drain
39, 40, 41, 42, 43, 44, 45, 46, 47, 48, 
49, 50, 51, 52, 53, 54, 55, 56, 57, 58, 
59, 60, 
*ELSET,ELSET=probe_A
77, 78, 79, 80, 81, 82, 
*ELSET,ELSET=probe_B
17, 18, 19, 20, 21, 22, 
*ELSET,ELSET=walls
1, 2, 3, 4, 5, 6, 7, 8, 9, 10, 
11, 12, 13, 14, 15, 16, 23, 24, 25, 26, 
27, 28, 29, 30, 31, 32, 33, 34, 35, 36, 
37, 38, 61, 62, 63, 64, 65, 66, 67, 68, 
69, 70, 71, 72, 73, 74, 75, 76, 83, 84, 
85, 86, 87, 88, 89, 90, 91, 92, 93, 94, 
95, 96, 97, 98, 121, 122, 123, 124, 125, 126, 
127, 128, 129, 130, 131, 132, 133, 134, 135, 136, 
137, 138, 139, 140, 
*ELSET,ELSET=domain
141, 142, 143, 144, 145, 146, 147, 148, 149, 150, 
151, 152, 153, 154, 155, 156, 157, 158, 159, 160, 
161, 162, 163, 164, 165, 166, 167, 168, 169, 170, 
171, 172, 173, 174, 175, 176, 177, 178, 179, 180, 
181, 182, 183, 184, 185, 186, 187, 188, 189, 190, 
191, 192, 193, 194, 195, 196, 197, 198, 199, 200, 
201, 202, 203, 204, 205, 206, 207, 208, 209, 210, 
211, 212, 213, 214, 215, 216, 217, 218, 219, 220, 
221, 222, 223, 224, 225, 226, 227, 228, 229, 230, 
231, 232, 233, 234, 235, 236, 237, 238, 239, 240, 
241, 242, 243, 244, 245, 246, 247, 248, 249, 250, 
251, 252, 253, 254, 255, 256, 257, 258, 259, 260, 
261, 262, 263, 264, 265, 266, 267, 268, 269, 270, 
271, 272, 273, 274, 275, 276, 277, 278, 279, 280, 
281, 282, 283, 284, 285, 286, 287, 288, 289, 290, 
291, 292, 293, 294, 295, 296, 297, 298, 299, 300, 
301, 302, 303, 304, 305, 306, 307, 308, 309, 310, 
311, 312, 313, 314, 315, 316, 317, 318, 319, 320, 
321, 322, 323, 324, 325, 326, 327, 328, 329, 330, 
331, 332, 333, 334, 335, 336, 337, 338, 339, 340, 
341, 342, 343, 344, 345, 346, 347, 348, 349, 350, 
351, 352, 353, 354, 355, 356, 357, 358, 359, 360, 
361, 362, 363, 364, 365, 366, 367, 368, 369, 370, 
371, 372, 373, 374, 375, 376, 377, 378, 379, 380, 
381, 382, 383, 384, 385, 386, 387, 388, 389, 390, 
391, 392, 393, 394, 395, 396, 397, 398, 399, 400, 
401, 402, 403, 404, 405, 406, 407, 408, 409, 410, 
411, 412, 413, 414, 415, 416, 417, 418, 419, 420, 
421, 422, 423, 424, 425, 426, 427, 428, 429, 430, 
431, 432, 433, 434, 435, 436, 437, 438, 439, 440, 
441, 442, 443, 444, 445, 446, 447, 448, 449, 450, 
451, 452, 453, 454, 455, 456, 457, 458, 459, 460, 
461, 462, 463, 464, 465, 466, 467, 468, 469, 470, 
471, 472, 473, 474, 475, 476, 477, 478, 479, 480, 
481, 482, 483, 484, 485, 486, 487, 488, 489, 490, 
491, 492, 493, 494, 495, 496, 497, 498, 499, 500, 
501, 502, 503, 504, 505, 506, 507, 508, 509, 510, 
511, 512, 513, 514, 515, 516, 517, 518, 519, 520, 
521, 522, 523, 524, 525, 526, 527, 528, 529, 530, 
531, 532, 533, 534, 535, 536, 537, 538, 539, 540, 
541, 542, 543, 544, 545, 546, 547, 548, 549, 550, 
551, 552, 553, 554, 555, 556, 557, 558, 559, 560, 
561, 562, 563, 564, 565, 566, 567, 568, 569, 570, 
571, 572, 573, 574, 575, 576, 577, 578, 579, 580, 
581, 582, 583, 584, 585, 586, 587, 588, 589, 590, 
591, 592, 593, 594, 595, 596, 597, 598, 599, 600, 
601, 602, 603, 604, 605, 606, 607, 608, 609, 610, 
611, 612, 613, 614, 615, 616, 617, 618, 619, 620, 
621, 622, 623, 624, 625, 626, 627, 628, 629, 630, 
631, 632, 633, 634, 635, 636, 637, 638, 639, 640, 
641, 642, 643, 644, 645, 646, 647, 648, 649, 650, 
651, 652, 653, 654, 655, 656, 657, 658, 659, 660, 
661, 662, 663, 664, 665, 666, 667, 668, 669, 670, 
671, 672, 673, 674, 675, 676, 677, 678, 679, 680, 
681, 682, 683, 684, 685, 686, 687, 688, 689, 690, 
691, 692, 693, 694, 695, 696, 697, 698, 699, 700, 
701, 702, 703, 704, 705, 706, 707, 708, 709, 710, 
711, 712, 713, 714, 715, 716, 717, 718, 719, 720, 
721, 722, 723, 724, 725, 726, 727, 728, 729, 730, 
731, 732, 733, 734, 735, 736, 737, 738, 739, 740, 
741, 742, 743, 744, 745, 746, 747, 748, 749, 750, 
751, 752, 753, 754, 755, 756, 757, 758, 759, 760, 
761, 762, 763, 764, 765, 766, 767, 768, 769, 770, 
771, 772, 773, 774, 775, 776, 777, 778, 779, 780, 
781, 782, 783, 784, 785, 786, 787, 788, 789, 790, 
791, 792, 793, 794, 795, 796, 797, 798, 799, 800, 
801, 802, 803, 804, 805, 806, 807, 808, 809, 810, 
811, 812, 813, 814, 815, 816, 817, 818, 819, 820, 
821, 822, 823, 824, 825, 826, 827, 828, 829, 830, 
831, 832, 833, 834, 835, 836, 837, 838, 839, 840, 
841, 842, 843, 844, 845, 846, 847, 848, 849, 850, 
851, 852, 853, 854, 855, 856, 857, 858, 859, 860, 
861, 862, 863, 864, 865, 866, 867, 868, 869, 870, 
871, 872, 873, 874, 875, 876, 877, 878, 879, 880, 
881, 882, 883, 884, 885, 886, 887, 888, 889, 890, 
891, 892, 893, 894, 895, 896, 897, 898, 899, 900, 
901, 902, 903, 904, 905, 906, 907, 908, 909, 910, 
911, 912, 913, 914, 915, 916, 917, 918, 919, 920, 
921, 922, 923, 924, 925, 926, 927, 928, 929, 930, 
931, 932, 933, 934, 935, 936, 937, 938, 939, 940, 
941, 942, 943, 944, 945, 946, 947, 948, 949, 950, 
951, 952, 953, 954, 955, 956, 957, 958, 959, 960, 
961, 962, 963, 964, 
*NSET,NSET=contact_source
1, 8, 101, 102, 103, 104, 105, 106, 107, 108, 
109, 110, 111, 112, 113, 114, 115, 116, 117, 118, 
119, 120, 121, 
*NSET,NSET=contact_drain
4, 5, 45, 46, 47, 48, 49, 50, 51, 52, 
53, 54, 55, 56, 57, 58, 59, 60, 61, 62, 
63, 64, 65, 
*NSET,NSET=probe_A
6, 7, 81, 82, 83, 84, 85, 
*NSET,NSET=probe_B
2, 3, 25, 26, 27, 28, 29, 
*NSET,NSET=walls
1, 2, 3, 4, 5, 6, 7, 8, 9, 10, 
11, 12, 13, 14, 15, 16, 17, 18, 19, 20, 
21, 22, 23, 24, 30, 31, 32, 33, 34, 35, 
36, 37, 38, 39, 40, 41, 42, 43, 44, 66, 
67, 68, 69, 70, 71, 72, 73, 74, 75, 76, 
77, 78, 79, 80, 86, 87, 88, 89, 90, 91, 
92, 93, 94, 95, 96, 97, 98, 99, 100, 122, 
123, 124, 125, 126, 127, 128, 129, 130, 131, 132, 
133, 134, 135, 136, 137, 138, 139, 140, 
*NSET,NSET=domain
1, 2, 3, 4, 5, 6, 7, 8, 9, 10, 
11, 12, 13, 14, 15, 16, 17, 18, 19, 20, 
21, 22, 23, 24, 25, 26, 27, 28, 29, 30, 
31, 32, 33, 34, 35, 36, 37, 38, 39, 40, 
41, 42, 43, 44, 45, 46, 47, 48, 49, 50, 
51, 52, 53, 54, 55, 56, 57, 58, 59, 60, 
61, 62, 63, 64, 65, 66, 67, 68, 69, 70, 
71, 72, 73, 74, 75, 76, 77, 78, 79, 80, 
81, 82, 83, 84, 85, 86, 87, 88, 89, 90, 
91, 92, 93, 94, 95, 96, 97, 98, 99, 100, 
101, 102, 103, 104, 105, 106, 107, 108, 109, 110, 
111, 112, 113, 114, 115, 116, 117, 118, 119, 120, 
121, 122, 123, 124, 125, 126, 127, 128, 129, 130, 
131, 132, 133, 134, 135, 136, 137, 138, 139, 140, 
141, 142, 143, 144, 145, 146, 147, 148, 149, 150, 
151, 152, 153, 154, 155, 156, 157, 158, 159, 160, 
161, 162, 163, 164, 165, 166, 167, 168, 169, 170, 
171, 172, 173, 174, 175, 176, 177, 178, 179, 180, 
181, 182, 183, 184, 185, 186, 187, 188, 189, 190, 
191, 192, 193, 194, 195, 196, 197, 198, 199, 200, 
201, 202, 203, 204, 205, 206, 207, 208, 209, 210, 
211, 212, 213, 214, 215, 216, 217, 218, 219, 220, 
221, 222, 223, 224, 225, 226, 227, 228, 229, 230, 
231, 232, 233, 234, 235, 236, 237, 238, 239, 240, 
241, 242, 243, 244, 245, 246, 247, 248, 249, 250, 
251, 252, 253, 254, 255, 256, 257, 258, 259, 260, 
261, 262, 263, 264, 265, 266, 267, 268, 269, 270, 
271, 272, 273, 274, 275, 276, 277, 278, 279, 280, 
281, 282, 283, 284, 285, 286, 287, 288, 289, 290, 
291, 292, 293, 294, 295, 296, 297, 298, 299, 300, 
301, 302, 303, 304, 305, 306, 307, 308, 309, 310, 
311, 312, 313, 314, 315, 316, 317, 318, 319, 320, 
321, 322, 323, 324, 325, 326, 327, 328, 329, 330, 
331, 332, 333, 334, 335, 336, 337, 338, 339, 340, 
341, 342, 343, 344, 345, 346, 347, 348, 349, 350, 
351, 352, 353, 354, 355, 356, 357, 358, 359, 360, 
361, 362, 363, 364, 365, 366, 367, 368, 369, 370, 
371, 372, 373, 374, 375, 376, 377, 378, 379, 380, 
381, 382, 383, 384, 385, 386, 387, 388, 389, 390, 
391, 392, 393, 394, 395, 396, 397, 398, 399, 400, 
401, 402, 403, 404, 405, 406, 407, 408, 409, 410, 
411, 412, 413, 414, 415, 416, 417, 418, 419, 420, 
421, 422, 423, 424, 425, 426, 427, 428, 429, 430, 
431, 432, 433, 434, 435, 436, 437, 438, 439, 440, 
441, 442, 443, 444, 445, 446, 447, 448, 449, 450, 
451, 452, 453, 454, 455, 456, 457, 458, 459, 460, 
461, 462, 463, 464, 465, 466, 467, 468, 469, 470, 
471, 472, 473, 474, 475, 476, 477, 478, 479, 480, 
481, 482, 483, 484, 485, 486, 487, 488, 489, 490, 
491, 492, 493, 494, 495, 496, 497, 498, 499, 500, 
501, 502, 503, 504, 505, 506, 507, 508, 509, 510, 
511, 512, 513, 514, 515, 516, 517, 518, 519, 520, 
521, 522, 523, 524, 525, 526, 527, 528, 529, 530, 
531, 532, 533, 534, 535, 536, 537, 538, 539, 540, 
541, 542, 543, 544, 545, 546, 547, 548, 549, 550, 
551, 552, 553, 554, 555, 556, 557, 558, 559, 560, 
561, 562, 563, 564, 565, 566, 567, 568, 569, 570, 
571, 572, 573, 574, 575, 576, 577, 578, 579, 580, 
581, 582, 583, 584, 585, 586, 587, 588, 589, 590, 
591, 592, 593, 594, 595, 596, 597, 598, 599, 600, 
601, 602, 603, 604, 605, 606, 607, 608, 609, 610, 
611, 612, 613, 614, 615, 616, 617, 618, 619, 620, 
621, 622, 623, 624, 625, 626, 627, 628, 629, 630, 
631, 632, 633, 634, 635, 636, 637, 638, 639, 640, 
641, 642, 643, 644, 645, 646, 647, 648, 649, 650, 
651, 652, 653, 654, 655, 656, 657, 658, 659, 660, 
661, 662, 663, 664, 665, 666, 667, 668, 669, 670, 
671, 672, 673, 674, 675, 676, 677, 678, 679, 680, 
681, 682, 683, 684, 685, 686, 687, 688, 689, 690, 
691, 692, 693, 694, 695, 696, 697, 698, 699, 700, 
701, 702, 703, 704, 705, 706, 707, 708, 709, 710, 
711, 712, 713, 714, 715, 716, 717, 718, 719, 720, 
721, 722, 723, 724, 725, 726, 727, 728, 729, 730, 
731, 732, 733, 734, 735, 736, 737, 738, 739, 740, 
741, 742, 743, 744, 745, 746, 747, 748, 749, 750, 
751, 752, 753, 754, 755, 756, 757, 758, 759, 760, 
761, 762, 763, 764, 765, 766, 767, 768, 769, 770, 
771, 772, 773, 774, 775, 776, 777, 778, 779, 780, 
781, 782, 783, 784, 785, 786, 787, 788, 789, 790, 
791, 792, 793, 794, 795, 796, 797, 798, 799, 800, 
801, 802, 803, 804, 805, 806, 807, 808, 809, 810, 
811, 812, 813, 814, 815, 816, 817, 818, 819, 820, 
821, 822, 823, 824, 825, 826, 827, 828, 829, 830, 
831, 832, 833, 834, 835, 836, 837, 838, 839, 840, 
841, 842, 843, 844, 845, 846, 847, 848, 849, 850, 
851, 852, 853, 854, 855, 856, 857, 858, 859, 860, 
861, 862, 863, 864, 865, 866, 867, 868, 869, 870, 
871, 872, 873, 874, 875, 876, 877, 878, 879, 880, 
881, 882, 883, 884, 885, 886, 887, 888, 889, 890, 
891, 892, 893, 894, 
