*Heading
 /Users/juliagao/geometry-optimization-net/scripts/../runs/grid/shape_3.inp
*NODE
1, 0, -0.3, 0
2, 0.425, -0.3, 0
3, 0.575, -0.3, 0
4, 1, -0.3, 0
5, 1, 0.3, 0
6, 0.575, 0.3, 0
7, 0.425, 0.3, 0
8, 0, 0.3, 0
9, 0.652, 4.4638676546401e-20, 0
10, 0.025670349229881, -0.3, 0
11, 0.077623518458817, -0.3, 0
12, 0.13080386370471, -0.3, 0
13, 0.18518927184883, -0.3, 0
14, 0.24026635344662, -0.3, 0
15, 0.29446015230364, -0.3, 0
16, 0.34720683059041, -0.3, 0
17, 0.39917445436033, -0.3, 0
18, 0.051340698459761, -0.3, 0
19, 0.10390633845787, -0.3, 0
20, 0.15770138895154, -0.3, 0
21, 0.21267715474611, -0.3, 0
22, 0.26785555214713, -0.3, 0
23, 0.32106475246014, -0.3, 0
24, 0.37334890872067, -0.3, 0
25, 0.45030811902994, -0.3, 0
26, 0.49990699099131, -0.3, 0
27, 0.54959887196137, -0.3, 0
28, 0.47561623805988, -0.3, 0
29, 0.52419774392274, -0.3, 0
30, 0.60091219177442, -0.3, 0
31, 0.65294856564253, -0.3, 0
32, 0.70573933488288, -0.3, 0
33, 0.76003335695207, -0.3, 0
34, 0.81509113382193, -0.3, 0
35, 0.86940830310824, -0.3, 0
36, 0.92253223284907, -0.3, 0
37, 0.97438466762547, -0.3, 0
38, 0.62682438354885, -0.3, 0
39, 0.67907274773621, -0.3, 0
40, 0.73240592202955, -0.3, 0
41, 0.78766079187458, -0.3, 0
42, 0.84252147576928, -0.3, 0
43, 0.8962951304472, -0.3, 0
44, 0.94876933525094, -0.3, 0
45, 1, -0.27386680097891, 0
46, 1, -0.22042811223386, 0
47, 1, -0.1650318628715, 0
48, 1, -0.1089839573529, 0
49, 1, -0.053407459206018, 0
50, 1, 0.0016705444672382, 0
51, 1, 0.056547505429474, 0
52, 1, 0.11124872438019, 0
53, 1, 0.16565670562602, 0
54, 1, 0.21979873471078, 0
55, 1, 0.27340784597238, 0
56, 1, -0.24773360195782, 0
57, 1, -0.1931226225099, 0
58, 1, -0.1369411032331, 0
59, 1, -0.081026811472698, 0
60, 1, -0.025788106939337, 0
61, 1, 0.029129195873813, 0
62, 1, 0.083965814985134, 0
63, 1, 0.13853163377524, 0
64, 1, 0.1927817774768, 0
65, 1, 0.24681569194476, 0
66, 0.97387723035302, 0.3, 0
67, 0.92161604191409, 0.3, 0
68, 0.86910866106668, 0.3, 0
69, 0.81563621924354, 0.3, 0
70, 0.76109789205517, 0.3, 0
71, 0.70687782342732, 0.3, 0
72, 0.65362686419072, 0.3, 0
73, 0.60108056308064, 0.3, 0
74, 0.94775446070603, 0.3, 0
75, 0.89547762312215, 0.3, 0
76, 0.84273969901121, 0.3, 0
77, 0.78853273947587, 0.3, 0
78, 0.73366304463448, 0.3, 0
79, 0.68009260222015, 0.3, 0
80, 0.62716112616128, 0.3, 0
81, 0.54968203698066, 0.3, 0
82, 0.50007941822125, 0.3, 0
83, 0.45039738124059, 0.3, 0
84, 0.52436407396132, 0.3, 0
85, 0.47579476248118, 0.3, 0
86, 0.39889370521315, 0.3, 0
87, 0.34638268939221, 0.3, 0
88, 0.29314242746626, 0.3, 0
89, 0.23884303200442, 0.3, 0
90, 0.18428222242852, 0.3, 0
91, 0.13080594900106, 0.3, 0
92, 0.078317771363535, 0.3, 0
93, 0.02610445607377, 0.3, 0
94, 0.37278741042629, 0.3, 0
95, 0.31997796835812, 0.3, 0
96, 0.26630688657439, 0.3, 0
97, 0.21137917743446, 0.3, 0
98, 0.15718526742259, 0.3, 0
99, 0.10442663057953, 0.3, 0
100, 0.05220891214754, 0.3, 0
101, 0, 0.2733559103818, 0
102, 0, 0.21967825293964, 0
103, 0, 0.16555767381616, 0
104, 0, 0.11120316571249, 0
105, 0, 0.056542705733208, 0
106, 0, 0.0017209620589567, 0
107, 0, -0.053312228470969, 0
108, 0, -0.10888799446908, 0
109, 0, -0.16497520498815, 0
110, 0, -0.22038702144743, 0
111, 0, -0.27384149167748, 0
112, 0, 0.24671182076361, 0
113, 0, 0.19264468511567, 0
114, 0, 0.13847066251665, 0
115, 0, 0.083935668908326, 0
116, 0, 0.02914974255809, 0
117, 0, -0.025707818440176, 0
118, 0, -0.080916638501761, 0
119, 0, -0.13685935043639, 0
120, 0, -0.1930910595399, 0
121, 0, -0.24768298335497, 0
122, 0.64948533582296, 0.02753423582342, 0
123, 0.6297259472627, -0.079216024885652, 0
124, 0.59231446045761, -0.12075611839262, 0
125, 0.54231197596522, -0.14599211135164, 0
126, 0.48642306489627, -0.1513924259865, 0
127, 0.43210798186669, -0.13599512402316, 0
128, 0.3869465762346, -0.10160178701346, 0
129, 0.35737036637586, -0.052543197710659, 0
130, 0.3480545642355, 0.0040723868103181, 0
131, 0.35983876533683, 0.058811803520501, 0
132, 0.3896790688835, 0.10456238294865, 0
133, 0.43422624382289, 0.13703215950533, 0
134, 0.48835011434223, 0.15155289554372, 0
135, 0.54427806458473, 0.14540788391721, 0
136, 0.59374930871294, 0.11964558953274, 0
137, 0.63005832664404, 0.078669127341704, 0
138, 0.6494966951608, -0.027472492862168, 0
139, 0.6420245495553, 0.054157429292858, 0
140, 0.61390385716687, 0.10064745918599, 0
141, 0.57048195113386, 0.13467105996462, 0
142, 0.51653731923273, 0.15109770660906, 0
143, 0.46056363837715, 0.14679500386605, 0
144, 0.41013493800751, 0.12258984693317, 0
145, 0.37277306460182, 0.08317034777293, 0
146, 0.35151888444974, 0.03251704220045, 0
147, 0.349990277482, -0.024516996184618, 0
148, 0.3699356806743, -0.078659219185765, 0
149, 0.40794904554828, -0.12095710602894, 0
150, 0.45864653385396, -0.14626650616654, 0
151, 0.51466842722549, -0.15129057128901, 0
152, 0.56850463866703, -0.1356875619159, 0
153, 0.61296833265617, -0.10169638921652, 0
154, 0.64206923742558, -0.054040092705014, 0
155, 0.39786824073581, -0.19445945694771, 0
156, 0.46031703774198, -0.23765029224517, 0
157, 0.44146323865851, 0.27195028077829, 0
158, 0.053100224691268, -0.2454842197794, 0
159, 0.10614793922674, -0.24612291152342, 0
160, 0.16032281104551, -0.24748119264453, 0
161, 0.21659555204285, -0.24898339299484, 0
162, 0.27573789005693, -0.24950400837462, 0
163, 0.42915988187587, -0.26825483268969, 0
164, 0.39699567556978, -0.14784683431394, 0
165, 0.33661137137924, -0.24594442209875, 0
166, 0.72393335566473, 0.13393950516417, 0
167, 0.4145495821124, 0.18159514987309, 0
168, 0.62985692298146, -0.24026104884209, 0
169, 0.67853941205052, -0.24475555784526, 0
170, 0.73177975570665, -0.24804148693262, 0
171, 0.13061476426782, 0.0016574411960805, 0
172, 0.27142792872896, 0.19061761978589, 0
173, 0.05453368333522, 0.21839477143905, 0
174, 0.10574185281829, 0.030377166656823, 0
175, 0.12937224135257, -0.0547921226823, 0
176, 0.18574630656041, 0.055626992745038, 0
177, 0.052052336055773, -0.052675071794852, 0
178, 0.053938522424558, 0.085016334758429, 0
179, 0.078295582995286, -0.024948412710661, 0
180, 0.21628642901178, 0.24519505417409, 0
181, 0.02692606980081, 0.27259056774718, 0
182, 0.23137171881478, -0.067115648356533, 0
183, 0.27015170641113, 0.24540093322787, 0
184, 0.16450990026496, 0.11118192131366, 0
185, 0.29966459835171, 0.19665636687981, 0
186, 0.32505202330996, 0.24186683368674, 0
187, 0.37330594464171, 0.23345979009131, 0
188, 0.456644336665, 0.17016629400992, 0
189, 0.56783331515333, 0.27086195853988, 0
190, 0.28480020018328, 0.13587612546486, 0
191, 0.32696805006165, 0.18451150128687, 0
192, 0.26562881514733, 0.078692468480982, 0
193, 0.33600711153191, 0.11871944773831, 0
194, 0.078775141022548, 0.0029340950662172, 0
195, 0.081066591531077, 0.085159114903194, 0
196, 0.20773127093201, -0.11737635718492, 0
197, 0.181396154489, -0.087153239165236, 0
198, 0.10981643318305, 0.16482515019521, 0
199, 0.054220814305851, 0.24524500046601, 0
200, 0.053008632781318, 0.030552661731872, 0
201, 0.05245106505242, -0.19122052773962, 0
202, 0.2138798480866, -0.19848391479336, 0
203, 0.27186264960523, -0.20175994756299, 0
204, 0.22321481016132, 0.13559529505797, 0
205, 0.10531748673992, -0.19221877063282, 0
206, 0.15882133189633, -0.1948257953734, 0
207, 0.054673914728208, 0.13850033237269, 0
208, 0.18135643920751, -0.0018126372551107, 0
209, 0.23192223374347, 0.021254156061446, 0
210, 0.080164297863637, 0.27235449515042, 0
211, 0.13793239014306, 0.13803841622387, 0
212, 0.18074347018738, -0.030611070963122, 0
213, 0.077777066828002, -0.13652525197826, 0
214, 0.13351830650738, 0.27244200887939, 0
215, 0.1334858905011, 0.057514770418867, 0
216, 0.10830149735865, 0.24515246633135, 0
217, 0.25612621971736, -0.044779935006802, 0
218, 0.052310854344011, -0.024809706747046, 0
219, 0.081261292673539, 0.24514182920762, 0
220, 0.26377569706424, -0.099755691265599, 0
221, 0.37022256453739, -0.20886544168138, 0
222, 0.45335333452647, -0.26895144468777, 0
223, 0.33398127819435, -0.19882479029965, 0
224, 0.50175874424627, -0.26880580678392, 0
225, 0.31132085738667, -0.15393164286965, 0
226, 0.2588310238219, -0.14969697624809, 0
227, 0.30832068303139, -0.059239355139091, 0
228, 0.33372761276285, -0.11530656995839, 0
229, 0.23033128796427, -0.009000372744367, 0
230, 0.86896103898283, 0.27429249452898, 0
231, 0.97460337298629, 0.19384585938542, 0
232, 0.73972237430047, -0.17183925792664, 0
233, 0.87643174021428, -0.11583722342036, 0
234, 0.75064177574635, 0.13052319175795, 0
235, 0.85480138201598, -0.087947150947323, 0
236, 0.67464103377571, 0.2745982694179, 0
237, 0.79365498002222, 0.0062083152584111, 0
238, 0.70290755354882, 0.27495831557496, 0
239, 0.5854829220518, 0.24281268492398, 0
240, 0.62963741286832, -0.15635379895203, 0
241, 0.9749517844465, 0.13980903376468, 0
242, 0.78694064066064, 0.25053174138609, 0
243, 0.9510239814753, -0.084902379531497, 0
244, 0.77212066151999, -0.024306583261689, 0
245, 0.81961850146151, -0.17178096764982, 0
246, 0.65251691153212, 0.16175656909333, 0
247, 0.69726960784941, 0.0831951357508, 0
248, 0.39428659655296, 0.26826608102249, 0
249, 0.39573182933504, 0.23410750671949, 0
250, 0.74283956885537, 0.076345435568287, 0
251, 0.64170449804343, 0.2488196666565, 0
252, 0.70052838423357, 0.25093045712049, 0
253, 0.85469266040538, 0.090881235661965, 0
254, 0.84427544428367, 0.1987633608011, 0
255, 0.92579318231901, 0.11452705222906, 0
256, 0.95058125320663, -0.11283978156535, 0
257, 0.70131165201596, 0.20510550192971, 0
258, 0.95159326901002, -0.028125986352845, 0
259, 0.87190812225253, -0.17037720824916, 0
260, 0.72981550075638, 0.22759565870298, 0
261, 0.80321895450929, -0.11757066832987, 0
262, 0.64760734179406, -0.13280355819622, 0
263, 0.72007933905714, 0.080067473994917, 0
264, 0.76863747468412, -0.056704874427471, 0
265, 0.81719418826831, 0.20016796180646, 0
266, 0.73200907393902, -0.019507502209634, 0
267, 0.95043050457553, 0.1134718379822, 0
268, 0.67103913338959, 0.25027202069428, 0
269, 0.73219023638695, 0.014503430463665, 0
270, 0.84901568174436, 0.14646151437983, 0
271, 0.83687652133809, 0.0028350679115537, 0
272, 0.61401450820582, -0.1770424756999, 0
273, 0.59060153050297, -0.19242288655764, 0
274, 0.97498188191587, -0.16638987609517, 0
275, 0.76272686448743, -0.087978234439412, 0
276, 0.67665964606461, -0.1917834149324, 0
277, 0.8434032348041, -0.19737683921646, 0
278, 0.89648404652268, -0.1959647995719, 0
279, 0.81551281434168, 0.22515090158348, 0
280, 0.7852044200618, -0.088386165632365, 0
281, 0.70788656395733, -0.049733238349965, 0
282, 0.69862908658743, -0.0819850741212, 0
283, 0.97548495982747, 0.057022680754957, 0
284, 0.73422573324556, -0.19701681299225, 0
285, 0.78946524231141, -0.19808941725173, 0
286, 0.78653601855358, -0.24911728049219, 0
287, 0.84116296302865, -0.24886439837466, 0
288, 0.89499568570464, -0.248064095267, 0
289, 0.9488496099459, -0.19432505875929, 0
290, 0.94789371889069, -0.24718040525519, 0
291, 0.21991186135899, 0.10970679472461, 0
292, 0.31170750570255, 0.12758755280115, 0
293, 0.20609905020754, -0.0048042428501306, 0
294, 0.97514978141889, 0.11244822745192, 0
295, 0.71243699559677, -0.17058863933326, 0
296, 0.66964450583209, 0.20485281258365, 0
297, 0.83129062927973, -0.088282876809285, 0
298, 0.87860716381537, 0.089084326582565, 0
299, 0.97476199492821, 0.16693087166126, 0
300, 0.90450179697049, -0.028890911764934, 0
301, 0.89719522566799, 0.19646279991752, 0
302, 0.97545256518654, -0.083346772625189, 0
303, 0.67108968563566, -0.13926263146095, 0
304, 0.83080919485956, 0.093114587308668, 0
305, 0.74271680869385, 0.15654873857331, 0
306, 0.24527128389878, 0.16095831786062, 0
307, 0.10922328276365, 0.21820896014129, 0
308, 0.082311280507249, 0.13846915495265, 0
309, 0.58670116701561, -0.15843378205799, 0
310, 0.39041389611812, -0.23118572337144, 0
311, 0.36009122705341, -0.18485589419292, 0
312, 0.13689738902273, 0.11161912409794, 0
313, 0.262314428839, -0.12386303343185, 0
314, 0.15491560140022, -0.056577283745416, 0
315, 0.35384813160279, 0.17693576330109, 0
316, 0.7090256620402, 0.10989046629629, 0
317, 0.89554683180352, 0.27409423454518, 0
318, 0.73176697981017, 0.20436404564024, 0
319, 0.54989207729089, -0.27192688145821, 0
320, 0.38245283042063, -0.26694057694596, 0
321, 0.54656830704506, 0.21534276067025, 0
322, 0.46552195675613, 0.25435957164194, 0
323, 0.55938535531673, 0.24170139370954, 0
324, 0.41724053056055, 0.2690639902491, 0
325, 0.2817784505959, -0.052208471687288, 0
326, 0.15767359570974, 0.028688220434903, 0
327, 0.24757996164693, 0.10888363970746, 0
328, 0.33744769754442, -0.063375476708728, 0
329, 0.35796217323121, -0.10564958221665, 0
330, 0.31140314922755, -0.087010749700846, 0
331, 0.1047928488409, 0.0025161087646662, 0
332, 0.20776451133614, -0.090377939221446, 0
333, 0.026519633285095, 0.030090061990193, 0
334, 0.080228710822889, 0.058063644015465, 0
335, 0.7882416116465, 0.069205263691007, 0
336, 0.81486941993857, 0.27488476215044, 0
337, 0.70827968331419, -0.11528021187943, 0
338, 0.80204445164568, 0.12408774846768, 0
339, 0.46967229517562, 0.27730157846968, 0
340, 0.51495034904952, 0.21447672733536, 0
341, 0.40584993902385, 0.20437216262535, 0
342, 0.51917019858665, 0.26983507175189, 0
343, 0.36520969819176, -0.23880255042392, 0
344, 0.49266168384298, -0.17947642158103, 0
345, 0.43608053054406, -0.23581562377697, 0
346, 0.48492402808089, -0.2380604207456, 0
347, 0.79323831988406, -0.17220232923286, 0
348, 0.75228486598596, 0.011325676736269, 0
349, 0.77661609685222, 0.12716463658062, 0
350, 0.65342722543986, -0.24225150088309, 0
351, 0.67866168842648, -0.27254887311374, 0
352, 0.62902212583912, -0.27100185654888, 0
353, 0.65338820128485, -0.27162895032551, 0
354, 0.16596867072651, 0.13751478109785, 0
355, 0.026085029189478, -0.052816191918715, 0
356, 0.80807684025054, -0.088449227116928, 0
357, 0.94836862395616, 0.24755644409973, 0
358, 0.92191039645253, 0.27392464486123, 0
359, 0.72755017014799, -0.053054538362931, 0
360, 0.025826412741284, -0.13633007799139, 0
361, 0.10374318683709, -0.13731980821502, 0
362, 0.051786627525647, -0.13619658461752, 0
363, 0.77045549563168, 0.041092869161046, 0
364, 0.97560680686179, 0.00092536301443714, 0
365, 0.89946552537287, -0.14256859255123, 0
366, 0.82327445272198, 0.14857695523321, 0
367, 0.34995408058335, 0.23761810857648, 0
368, 0.32280757472585, 0.27120475170639, 0
369, 0.37145100908207, 0.26810346489793, 0
370, 0.34788721392223, 0.26961004364585, 0
371, 0.3305435449126, -0.27244701141712, 0
372, 0.56853585754031, -0.18025347315018, 0
373, 0.46546304890484, -0.17747328489954, 0
374, 0.43998812824876, -0.17198114348458, 0
375, 0.10932984776111, 0.11186116246814, 0
376, 0.25318717355474, 0.1346318051272, 0
377, 0.12966820796187, -0.13856889000616, 0
378, 0.052620737960652, 0.0029542853851038, 0
379, 0.8458280293036, -0.17114577149436, 0
380, 0.8234204791189, -0.14493829996952, 0
381, 0.21865533872126, 0.18995181762957, 0
382, 0.15540805470637, -0.028215311362846, 0
383, 0.23493874610198, -0.094519775748923, 0
384, 0.10970473895068, 0.19146426968755, 0
385, 0.2683871782889, 0.27266514766041, 0
386, 0.077731597850399, -0.10874099041554, 0
387, 0.13734241370415, 0.16455030281309, 0
388, 0.053568168997082, 0.27240398321168, 0
389, 0.89635730936278, 0.22248322127665, 0
390, 0.82709671716243, 0.12140108742036, 0
391, 0.97465853739725, -0.1935672209241, 0
392, 0.83393136298163, 0.063765421672178, 0
393, 0.90373401880771, -0.058077565264226, 0
394, 0.69608173488331, -0.14287293014763, 0
395, 0.6193074898031, 0.27289110010979, 0
396, 0.052025617826695, -0.16382555607011, 0
397, 0.026135358783751, -0.19162613196474, 0
398, 0.025890814222865, -0.16408929808402, 0
399, 0.24520554091003, 0.18949992025067, 0
400, 0.053460747136022, 0.057917991817418, 0
401, 0.24314232731539, 0.24516657484662, 0
402, 0.83629465565478, -0.027990866737351, 0
403, 0.92741888367784, 0.058135022594807, 0
404, 0.69635851892405, 0.13696233480141, 0
405, 0.71401428174483, 0.15922779698894, 0
406, 0.94991196729617, 0.14090495380895, 0
407, 0.74779631310482, -0.055256909530624, 0
408, 0.88029138052357, -0.058414921657119, 0
409, 0.78729018713481, 0.27509995594405, 0
410, 0.84209346027602, 0.2745877698554, 0
411, 0.15544763852289, -0.11247836174708, 0
412, 0.24126373202084, 0.27270257633503, 0
413, 0.7591022227386, -0.24883644725039, 0
414, 0.78654564325705, -0.27457794763656, 0
415, 0.73173357344735, -0.27400906541454, 0
416, 0.75905449907336, -0.2744560912769, 0
417, 0.72808443766452, 0.048005145522946, 0
418, 0.8519093294422, 0.1191310344376, 0
419, 0.95131690751786, 0.057505583171048, 0
420, 0.95157160745414, 0.029078905550478, 0
421, 0.054367553214126, 0.11185685805887, 0
422, 0.10364171728493, -0.10951463187706, 0
423, 0.08188307824043, 0.2182526847705, 0
424, 0.84130298126016, -0.27443575845888, 0
425, 0.86819581992407, -0.24850505643677, 0
426, 0.8951537205248, -0.27400597327864, 0
427, 0.86836283573731, -0.27424502308412, 0
428, 0.13303197274073, -0.24674742277602, 0
429, 0.15955568081186, -0.2736596476101, 0
430, 0.10556263167101, -0.27302788505148, 0
431, 0.13236429528385, -0.27333001582693, 0
432, 0.81392423853226, -0.24910003380512, 0
433, 0.81400184869954, -0.27457041991623, 0
434, 0.21533483001497, -0.27422175337509, 0
435, 0.24578855190111, -0.24951620559734, 0
436, 0.27288581031108, -0.27413474950615, 0
437, 0.24392712518048, -0.27435117871, 0
438, 0.18813752040341, -0.2482664133082, 0
439, 0.18720646159842, -0.27398939372147, 0
440, 0.69227497282452, 0.021467148421736, 0
441, 0.90259398801931, 0.087669797042414, 0
442, 0.94787452156099, -0.27352309216044, 0
443, 0.97403877697433, -0.24700861411491, 0
444, 0.97389736143594, -0.27342209671527, 0
445, 0.026629658843128, -0.2458671054553, 0
446, 0.052838248392876, -0.2726368410893, 0
447, 0.026632005465861, -0.2727597030544, 0
448, 0.41671322904822, -0.16405286205323, 0
449, 0.56419628048192, -0.21384831588405, 0
450, 0.2978486958994, 0.24683781263307, 0
451, 0.29587257803104, 0.27321790762334, 0
452, 0.054681373659844, 0.16508976808165, 0
453, 0.28810220322086, 0.071713371166016, 0
454, 0.079549761617517, -0.24566473540267, 0
455, 0.079091270560861, -0.27277956951523, 0
456, 0.92484761794242, 0.14199348799701, 0
457, 0.90119310275749, 0.11575632863743, 0
458, 0.53003507388728, 0.17253439579433, 0
459, 0.44099049715622, 0.24313612605796, 0
460, 0.92155737017194, -0.24759579499007, 0
461, 0.9216479749509, -0.27375162458417, 0
462, 0.30624681258449, -0.24855356439387, 0
463, 0.3019158330276, -0.27354283288246, 0
464, 0.70480426679345, -0.24670266912744, 0
465, 0.70485877782766, -0.27335153950476, 0
466, 0.95005461598968, -0.14039051317381, 0
467, 0.74917710854529, 0.044454224681843, 0
468, 0.4461350764428, -0.20503552686203, 0
469, 0.42135400278438, -0.20043772212145, 0
470, 0.34454423631933, -0.16005006454328, 0
471, 0.7593730886123, 0.27524763490448, 0
472, 0.78952867403517, 0.20165546545346, 0
473, 0.16474667969483, 0.16407269023461, 0
474, 0.13185464779066, 0.029750318900342, 0
475, 0.90476576876378, 0.00051251574950891, 0
476, 0.81477120749099, 0.24998234118834, 0
477, 0.54406888766089, -0.20716140528401, 0
478, 0.49719614227688, 0.19330487053892, 0
479, 0.54315087472306, 0.27026201539873, 0
480, 0.53333498583522, 0.24046016289301, 0
481, 0.35775915119563, -0.26967635396479, 0
482, 0.60628417408925, -0.2447082069596, 0
483, 0.027200542857576, 0.13847627230815, 0
484, 0.13653112288603, 0.21816643521076, 0
485, 0.16453769272613, 0.19104016680127, 0
486, 0.19087426542705, 0.21789789574493, 0
487, 0.051916310913431, -0.080561803624189, 0
488, 0.1041602731159, -0.025515043996411, 0
489, 0.25408632212052, -0.01465311052141, 0
490, 0.052864722907904, -0.21840582442554, 0
491, 0.026394969306026, -0.21886776037577, 0
492, 0.94829929195955, -0.22083282947103, 0
493, 0.97434736104746, -0.22042133710514, 0
494, 0.81101951619338, 0.066241105554236, 0
495, 0.72979317030718, 0.25110799613257, 0
496, 0.79298226775774, -0.025920701352156, 0
497, 0.81438675992909, -0.027127582484241, 0
498, 0.62015135639065, 0.15935716368291, 0
499, 0.74071750391894, -0.087033080547477, 0
500, 0.97517223401721, -0.1389293496733, 0
501, 0.94866731119885, 0.22122122589687, 0
502, 0.81656164663601, -0.1978684138015, 0
503, 0.97559630775097, -0.027213566133649, 0
504, 0.60679140088795, 0.22110346262913, 0
505, 0.87446354316347, 0.14468404148913, 0
506, 0.68581455063443, -0.11200343787795, 0
507, 0.65865257281718, 0.11310223865646, 0
508, 0.63678661084862, 0.20281009155456, 0
509, 0.6130346683852, 0.2463124729384, 0
510, 0.75908942658139, 0.2270125503037, 0
511, 0.54965065569484, -0.17070282007845, 0
512, 0.4716784517792, -0.20761264929193, 0
513, 0.60412520053507, -0.27269158943004, 0
514, 0.39682940233988, 0.14805508644426, 0
515, 0.4242078935934, 0.16069249718499, 0
516, 0.43479663452808, 0.20920407204438, 0
517, 0.60294909680178, 0.19812037824306, 0
518, 0.85913928752499, 0.0017300893713942, 0
519, 0.13194318675059, -0.19335454693129, 0
520, 0.16005008552709, -0.22129370994653, 0
521, 0.10598644612068, -0.21923635212829, 0
522, 0.13283671793632, -0.22015297129229, 0
523, 0.84191254435249, -0.22321061730744, 0
524, 0.87003427692125, -0.19672237934474, 0
525, 0.89550668016563, -0.22209202326315, 0
526, 0.868809202773, -0.22270224402877, 0
527, 0.18608050681926, -0.19657337802118, 0
528, 0.21618985779573, -0.22391921607364, 0
529, 0.187775877638, -0.22259123470635, 0
530, 0.787556336475, -0.2236221385483, 0
531, 0.81482162391089, -0.22355466674719, 0
532, 0.33045153722099, 0.049362829409099, 0
533, 0.3239763819882, -0.0091030838402975, 0
534, 0.15980309690438, 0.056774422088529, 0
535, 0.32494576249208, 0.020038474194879, 0
536, 0.71257330016384, -0.016088067605024, 0
537, 0.68868766178776, -0.044795479719066, 0
538, 0.63969735335625, 0.13803162286591, 0
539, 0.59302413903968, 0.27143815490209, 0
540, 0.88028193190764, 0.060193956505871, 0
541, 0.92320982771032, 0.19555350260824, 0
542, 0.92789487157752, 0.029349757980293, 0
543, 0.84286642687415, 0.22415872404905, 0
544, 0.92743454840801, -0.057507057665689, 0
545, 0.57609838048689, 0.21569502403581, 0
546, 0.18724974080414, 0.27266416003156, 0
547, 0.02669369912131, 0.057450750618637, 0
548, 0.10370842326166, -0.053603190958058, 0
549, 0.68397452621781, 0.16125968676736, 0
550, 0.77261016202083, -0.1457165307541, 0
551, 0.86978841691984, 0.2232486152781, 0
552, 0.35515848219806, 0.10347914199142, 0
553, 0.31430108368073, 0.15730207171421, 0
554, 0.37563223391954, 0.12622063722759, 0
555, 0.28114486276192, 0.040737374033839, 0
556, 0.15539255257654, -0.084691669702074, 0
557, 0.95136704031001, -0.056632158248127, 0
558, 0.73119830219789, 0.27517015054056, 0
559, 0.85701277963394, 0.061762799850045, 0
560, 0.94809861531811, 0.27379874114716, 0
561, 0.97446651819769, 0.22059107697152, 0
562, 0.081810784526319, 0.11193341428644, 0
563, 0.0270601485613, 0.11162989881873, 0
564, 0.10679957550146, 0.27238795466521, 0
565, 0.34057248577003, 0.077478359312589, 0
566, 0.15713248646578, -0.16784107764623, 0
567, 0.23306525286851, -0.14728035029748, 0
568, 0.21056080253044, -0.17216826906431, 0
569, 0.18370519771477, -0.16986784362933, 0
570, 0.47774571704125, -0.26915403709018, 0
571, 0.082239788017262, 0.16497632378948, 0
572, 0.27760993689453, 0.0091963540834628, 0
573, 0.16224503785911, 0.084304490067007, 0
574, 0.2356473034364, 0.05143660421337, 0
575, 0.026364959754579, 0.0025725564855157, 0
576, 0.13527998639075, 0.084815225940204, 0
577, 0.81196812054624, -0.058199974527503, 0
578, 0.75862241086313, 0.10254158263761, 0
579, 0.07943457704451, 0.03063761628191, 0
580, 0.21883332425872, 0.16218746695536, 0
581, 0.76205076168176, -0.19789254456791, 0
582, 0.73272948302361, -0.22227864395781, 0
583, 0.76016399028413, -0.22328046041654, 0
584, 0.027227424266441, 0.1652499712018, 0
585, 0.077929777055436, -0.052919281844663, 0
586, 0.27148735114026, 0.21818806000906, 0
587, 0.077820728256604, -0.080873258963049, 0
588, 0.97553448373642, -0.055325808937429, 0
589, 0.6378948488369, 0.22496897069159, 0
590, 0.95166255322627, 0.00049023877489559, 0
591, 0.76111340394155, 0.20312470027639, 0
592, 0.77274541348458, 0.0085440958519648, 0
593, 0.85714825029805, -0.058550713274706, 0
594, 0.2445754543199, 0.21750224380658, 0
595, 0.18900654266367, 0.083523711152305, 0
596, 0.20578874562625, -0.062521343591215, 0
597, 0.20787757969732, 0.02468318936388, 0
598, 0.35978901496159, -0.14334798738132, 0
599, 0.41271757645812, -0.23322594240815, 0
600, 0.60612107610013, -0.21448070600787, 0
601, 0.33968296039558, -0.22107525107606, 0
602, 0.27584568470088, -0.22565683729364, 0
603, 0.30242905817874, -0.20184252656313, 0
604, 0.30734874189738, -0.22485182284151, 0
605, 0.24240716817335, -0.20036359709176, 0
606, 0.24548563011937, -0.22509435589103, 0
607, 0.70584010948355, -0.19515616010767, 0
608, 0.67844643934332, -0.21740401267962, 0
609, 0.70540076895265, -0.2204195875505, 0
610, 0.83604817771101, 0.03355978486806, 0
611, 0.97533375641806, 0.084846741038854, 0
612, 0.80689717784594, 0.095815451911208, 0
613, 0.48130237747837, 0.21243014660016, 0
614, 0.50776862737607, 0.23908468874015, 0
615, 0.70706534667263, 0.051368777173328, 0
616, 0.89581818076492, 0.24830742881222, 0
617, 0.56881034473312, 0.19121880426726, 0
618, 0.73402976789844, 0.10631043095115, 0
619, 0.32787022413913, 0.21262376312019, 0
620, 0.29972058085833, 0.22123462461104, 0
621, 0.37635269533338, -0.12757152781261, 0
622, 0.027241907368154, 0.19201023348213, 0
623, 0.23452202156179, -0.120471386952, 0
624, 0.88138885712856, 0.030742957411637, 0
625, 0.84877615827111, -0.14425508511465, 0
626, 0.92580911698714, -0.11404829288951, 0
627, 0.20725219389764, -0.14473500882329, 0
628, 0.12987475420859, -0.026569910041916, 0
629, 0.21540694593085, 0.082419285322158, 0
630, 0.027142167597367, 0.24560419570742, 0
631, 0.13717291054682, 0.19130981271667, 0
632, 0.32754276530012, -0.036951034734053, 0
633, 0.78287160098242, 0.098981689302265, 0
634, 0.68474142098935, -0.16811285342836, 0
635, 0.16032922646322, 0.27256159730269, 0
636, 0.15616520299921, 0.00026567920221889, 0
637, 0.66802788031105, 0.13876521448616, 0
638, 0.89971649783087, 0.14321912629885, 0
639, 0.49746802782892, -0.20745653699445, 0
640, 0.5766408394765, -0.27557113918757, 0
641, 0.50908505949862, -0.23692997880309, 0
642, 0.27094085736445, 0.16099237150461, 0
643, 0.24113462477561, 0.080882856814428, 0
644, 0.28461584324514, -0.15179305653693, 0
645, 0.32418800305758, -0.17676700300899, 0
646, 0.26562367567626, -0.17671165092967, 0
647, 0.29422866866529, -0.1780003334361, 0
648, 0.078842782150865, -0.19147593110376, 0
649, 0.079367812057178, -0.21861272626636, 0
650, 0.92276318835221, -0.19515008992262, 0
651, 0.92200575761827, -0.22144153175077, 0
652, 0.027203283456892, 0.21877688671272, 0
653, 0.18141349219435, -0.14233838026549, 0
654, 0.85856398568526, 0.031951960035628, 0
655, 0.85189387478447, -0.11654030879201, 0
656, 0.92668612398389, 0.086560718516653, 0
657, 0.66477597642851, -0.10609792580378, 0
658, 0.92263571147674, 0.22182200601425, 0
659, 0.90255201282463, -0.086835694946297, 0
660, 0.29590133474436, -0.10636185449135, 0
661, 0.32405371688493, -0.13396619051341, 0
662, 0.29191893397055, -0.12769007702777, 0
663, 0.10368607504452, -0.081626938050337, 0
664, 0.25508306304389, 0.016444693104031, 0
665, 0.10445987791912, -0.16493254018642, 0
666, 0.078227944546608, -0.16413081568938, 0
667, 0.97430038375322, 0.24719576139036, 0
668, 0.79710437541103, 0.15101663695439, 0
669, 0.97557460645475, 0.029027279648131, 0
670, 0.94948727307616, -0.16753842105976, 0
671, 0.90450310723417, 0.029890016245386, 0
672, 0.49562257469312, 0.27202133266289, 0
673, 0.45963799870136, 0.22356072211719, 0
674, 0.88178249506225, 0.00096503808146758, 0
675, 0.92790287656645, -0.028661040423293, 0
676, 0.75181147544005, -0.022203642349487, 0
677, 0.90374748348743, 0.059006165406442, 0
678, 0.79200015001834, 0.038118938799111, 0
679, 0.16376587425853, 0.21808477289297, 0
680, 0.13074321692405, -0.16618118822594, 0
681, 0.75861827488522, 0.25096401598353, 0
682, 0.65680771170754, -0.16372054836069, 0
683, 0.25742473007101, -0.07309740009189, 0
684, 0.28431670182705, -0.080280490650023, 0
685, 0.55442661941041, -0.24371696753266, 0
686, 0.92806071267372, 0.0003555508732468, 0
687, 0.8978830172228, -0.16951361233381, 0
688, 0.79803968722761, -0.14545604095389, 0
689, 0.10819982747604, 0.085092928042902, 0
690, 0.19194493842248, 0.1632999477394, 0
691, 0.20589954270782, -0.033988590899673, 0
692, 0.97412984087613, 0.27366525637794, 0
693, 0.76662956928358, -0.17229060452192, 0
694, 0.68372961038209, 0.11254062851122, 0
695, 0.78762346534968, 0.22613176596594, 0
696, 0.13535111367078, 0.24519146017761, 0
697, 0.054679838862334, 0.19171124115355, 0
698, 0.025869623616636, -0.10847777013022, 0
699, 0.23096228838872, -0.038640666247671, 0
700, 0.37991074103262, 0.20000014757314, 0
701, 0.35410004380916, 0.2059919244447, 0
702, 0.53515290698136, 0.19303651040239, 0
703, 0.12952679200819, -0.082878212428897, 0
704, 0.082190091684985, 0.19156666873965, 0
705, 0.87658370942744, 0.11726444690366, 0
706, 0.92671532546435, -0.086010736136321, 0
707, 0.86914923199129, 0.24877813690325, 0
708, 0.57940470938453, -0.25165497301205, 0
709, 0.52105598197519, -0.17715412254633, 0
710, 0.38138522007603, -0.16992673688082, 0
711, 0.02621962870302, -0.025070122674614, 0
712, 0.18306891879541, 0.027065461766437, 0
713, 0.87090894076136, 0.1975170054536, 0
714, 0.77032609620464, 0.15372418693591, 0
715, 0.92221168144235, 0.24790580936216, 0
716, 0.90107925842509, -0.1150188780227, 0
717, 0.52305709830622, -0.20405139935685, 0
718, 0.051799417242182, -0.10840998941957, 0
719, 0.19430543279212, 0.1366972110802, 0
720, 0.19172828492566, 0.19058356954753, 0
721, 0.12953453070829, -0.11075502777659, 0
722, 0.10692908547969, 0.057930784989765, 0
723, 0.25901117731214, 0.047781483098698, 0
724, 0.67894278726546, -0.076532538021022, 0
725, 0.95091784601432, 0.085661338320972, 0
726, 0.67454769892295, 0.084842828258765, 0
727, 0.81503682149531, 0.0043151857141974, 0
728, 0.69976025177577, 0.22771047405319, 0
729, 0.81385861589839, 0.035606094377726, 0
730, 0.6275475318351, -0.20765585165441, 0
731, 0.64625341237018, -0.18604934631833, 0
732, 0.65225902338568, -0.21295505530968, 0
733, 0.66902712740039, 0.22701453547307, 0
734, 0.82748472636814, -0.11712962115307, 0
735, 0.87856821158809, -0.087467179202641, 0
736, 0.38197080142635, 0.17039023606788, 0
737, 0.36031429855343, 0.14321115142402, 0
738, 0.23781924828133, -0.17456955382741, 0
739, 0.7122881507807, 0.01795054441413, 0
740, 0.83435531933245, -0.058487200097217, 0
741, 0.18937494642796, 0.24526569182821, 0
742, 0.29828037767018, 0.10110370933628, 0
743, 0.025975212080878, -0.080626119473995, 0
744, 0.75519230425138, -0.11765506275997, 0
745, 0.69321159664074, -0.011792434252056, 0
746, 0.52540781328275, -0.26995489519043, 0
747, 0.026885154869337, 0.08463204355199, 0
748, 0.217809556296, 0.21761716324528, 0
749, 0.18146282136048, -0.11469158698061, 0
750, 0.48613873537287, 0.24388889488276, 0
751, 0.64665144803925, 0.27394344283566, 0
752, 0.92479000605189, -0.1415641662517, 0
753, 0.41850919657729, 0.23611304347206, 0
754, 0.16238787389193, 0.24525444957276, 0
755, 0.21111924691394, 0.053929491508716, 0
756, 0.77911190365036, -0.11779136055309, 0
757, 0.79004385099503, -0.057636723825224, 0
758, 0.85865295645763, -0.028556204815602, 0
759, 0.88140566351372, -0.028852628098614, 0
760, 0.87412305538303, -0.14346014031817, 0
761, 0.71929206306774, -0.085217883319468, 0
762, 0.68596276115125, 0.053994211331857, 0
763, 0.18036158634463, -0.059091199316461, 0
764, 0.7471141284545, -0.14555534421467, 0
765, 0.73152637097303, -0.11694514135586, 0
766, 0.76553972875689, 0.072619008969603, 0
767, 0.29514267253175, 0.17128926590135, 0
768, 0.21423420992582, 0.27268975077271, 0
769, 0.53166276653794, -0.23911477437789, 0
770, 0.27449722620472, 0.10842879411868, 0
771, 0.72156288338997, -0.1447400576686, 0
772, 0.84215240024651, 0.24936519376152, 0
773, 0.92375435115624, -0.16856971798833, 0
774, 0.97533816644519, -0.11123387460995, 0
775, 0.1100641594419, 0.13833524129687, 0
776, 0.40552121582787, -0.26744925107395, 0
777, 0.15555491777615, -0.14025414505044, 0
778, 0.33769756424119, 0.15069796558981, 0
779, 0.94900448996745, 0.19472047298771, 0
780, 0.58315094561808, -0.22629072121952, 0
781, 0.49296353207303, 0.17385807986703, 0
782, 0.45390269474154, 0.19025473339887, 0
783, 0.19218004385047, 0.1105319878395, 0
784, 0.33602744304068, -0.085578770476284, 0
785, 0.2777330777053, -0.022067053013696, 0
786, 0.32055308932044, 0.091624733525314, 0
787, 0.30961084937939, 0.062258733870189, 0
788, 0.30285113285145, 0.031512268817165, 0
789, 0.30021733493445, 0.00040720972650065, 0
790, 0.30194329800635, -0.030240082579059, 0
791, 0.9494199050324, 0.16797196994181, 0
792, 0.92395575268994, 0.16897894965528, 0
793, 0.89833367313613, 0.17008867330527, 0
794, 0.87249627728952, 0.17139049650466, 0
795, 0.84636222103375, 0.17294508088264, 0
796, 0.81982090127878, 0.17474984703745, 0
797, 0.79271957279459, 0.17675880547629, 0
798, 0.76485878520574, 0.17888584427036, 0
799, 0.73599211038613, 0.1809380954702, 0
800, 0.70581930102437, 0.18262163961127, 0
801, 0.67401271520856, 0.18338091344364, 0
802, 0.64022844736471, 0.18223942060926, 0
803, 0.60412960157677, 0.17775206929616, 0
804, 0.60771234107264, -0.14155363085896, 0
805, 0.62815120722443, -0.12035876989155, 0
806, 0.64622076865345, -0.095398124763003, 0
807, 0.66036311109451, -0.067456840168995, 0
808, 0.6695811155084, -0.0374793662244, 0
809, 0.67336941202211, -0.0063856172888979, 0
810, 0.67163317461117, 0.024858813176804, 0
811, 0.66447939065199, 0.055292949641583, 0
812, 0.65208558130811, 0.084012282614784, 0
813, 0.63472832206802, 0.11022556787497, 0
814, 0.61318533348068, 0.1332469785306, 0
815, 0.58906373663695, 0.15262566061582, 0
816, 0.56567387404257, 0.16877324828341, 0
******* E L E M E N T S *************
*ELEMENT, type=CPS4, ELSET=Surface1
1, 216, 307, 484, 696
2, 718, 362, 213, 386
3, 116, 106, 575, 333
4, 394, 634, 295, 771
5, 757, 280, 356, 577
6, 495, 681, 471, 558
7, 335, 678, 729, 494
8, 479, 81, 84, 342
9, 458, 142, 135, 816
10, 224, 26, 29, 746
11, 640, 513, 482, 708
12, 155, 221, 343, 310
13, 221, 311, 223, 601
14, 497, 577, 740, 402
15, 250, 467, 363, 766
16, 321, 545, 239, 323
17, 561, 54, 65, 667
18, 168, 352, 353, 350
19, 350, 353, 351, 169
20, 353, 31, 39, 351
21, 352, 38, 31, 353
22, 8, 101, 181, 93
23, 721, 377, 777, 411
24, 210, 219, 216, 564
25, 402, 740, 593, 758
26, 536, 281, 359, 266
27, 496, 757, 577, 497
28, 359, 761, 499, 407
29, 763, 197, 332, 596
30, 422, 361, 377, 721
31, 564, 216, 696, 214
32, 698, 360, 362, 718
33, 674, 759, 300, 475
34, 280, 756, 261, 356
35, 693, 581, 285, 347
36, 269, 266, 676, 348
37, 187, 369, 370, 367
38, 367, 370, 368, 186
39, 370, 87, 95, 368
40, 369, 94, 87, 370
41, 776, 17, 2, 163
42, 222, 25, 28, 570
43, 704, 571, 198, 384
44, 387, 211, 354, 473
45, 180, 748, 594, 401
46, 725, 419, 283, 611
47, 733, 728, 252, 268
48, 538, 507, 694, 637
49, 407, 499, 275, 264
50, 178, 400, 334, 195
51, 93, 181, 388, 100
52, 723, 192, 643, 574
53, 628, 175, 314, 382
54, 100, 388, 210, 92
55, 572, 555, 723, 664
56, 487, 718, 386, 587
57, 755, 629, 595, 176
58, 200, 378, 194, 579
59, 423, 704, 384, 307
60, 108, 119, 360, 698
61, 543, 551, 707, 772
62, 688, 347, 245, 380
63, 734, 380, 625, 655
64, 771, 295, 232, 764
65, 494, 729, 610, 392
66, 233, 760, 365, 716
67, 317, 358, 67, 75
68, 440, 745, 536, 739
69, 384, 198, 387, 631
70, 314, 556, 197, 763
71, 398, 397, 201, 396
72, 109, 120, 397, 398
73, 547, 333, 200, 400
74, 596, 332, 383, 182
75, 777, 566, 569, 653
76, 679, 485, 720, 486
77, 798, 714, 668, 797
78, 252, 495, 558, 238
79, 793, 792, 541, 301
80, 364, 503, 60, 50
81, 678, 237, 727, 729
82, 418, 253, 298, 705
83, 551, 389, 616, 707
84, 281, 282, 761, 359
85, 472, 265, 279, 695
86, 404, 316, 618, 166
87, 243, 256, 774, 302
88, 283, 669, 61, 51
89, 212, 763, 596, 691
90, 587, 386, 422, 663
91, 485, 473, 690, 720
92, 484, 631, 485, 679
93, 170, 415, 416, 413
94, 413, 416, 414, 286
95, 416, 33, 41, 414
96, 415, 40, 33, 416
97, 801, 549, 405, 800
98, 713, 301, 389, 551
99, 798, 797, 472, 591
100, 655, 625, 760, 233
101, 453, 742, 770, 192
102, 573, 184, 312, 576
103, 789, 788, 555, 572
104, 195, 334, 722, 689
105, 42, 35, 427, 424
106, 424, 427, 425, 287
107, 427, 426, 288, 425
108, 35, 43, 426, 427
109, 159, 430, 431, 428
110, 428, 431, 429, 160
111, 431, 12, 20, 429
112, 430, 19, 12, 431
113, 41, 34, 433, 414
114, 414, 433, 432, 286
115, 433, 424, 287, 432
116, 34, 42, 424, 433
117, 21, 14, 437, 434
118, 434, 437, 435, 161
119, 437, 436, 162, 435
120, 14, 22, 436, 437
121, 160, 429, 439, 438
122, 438, 439, 434, 161
123, 439, 13, 21, 434
124, 429, 20, 13, 439
125, 255, 656, 725, 267
126, 761, 337, 765, 499
127, 667, 65, 55, 692
128, 802, 246, 549, 801
129, 44, 37, 444, 442
130, 442, 444, 443, 290
131, 444, 45, 56, 443
132, 37, 4, 45, 444
133, 121, 111, 447, 445
134, 445, 447, 446, 158
135, 447, 10, 18, 446
136, 111, 1, 10, 447
137, 273, 600, 730, 272
138, 769, 746, 319, 685
139, 469, 599, 345, 468
140, 598, 228, 661, 470
141, 186, 368, 451, 450
142, 450, 451, 385, 183
143, 451, 88, 96, 385
144, 368, 95, 88, 451
145, 175, 703, 556, 314
146, 182, 383, 220, 683
147, 555, 453, 192, 723
148, 158, 446, 455, 454
149, 454, 455, 430, 159
150, 455, 11, 19, 430
151, 446, 18, 11, 455
152, 239, 509, 395, 539
153, 357, 667, 692, 560
154, 772, 707, 230, 410
155, 654, 518, 674, 624
156, 188, 515, 133, 143
157, 188, 143, 134, 781
158, 43, 36, 461, 426
159, 426, 461, 460, 288
160, 461, 442, 290, 460
161, 36, 44, 442, 461
162, 22, 15, 463, 436
163, 436, 463, 462, 162
164, 463, 371, 165, 462
165, 15, 23, 371, 463
166, 169, 351, 465, 464
167, 464, 465, 415, 170
168, 465, 32, 40, 415
169, 351, 39, 32, 465
170, 419, 420, 669, 283
171, 669, 364, 50, 61
172, 270, 418, 705, 505
173, 803, 498, 246, 802
174, 310, 320, 776, 599
175, 448, 127, 149, 164
176, 164, 149, 128, 621
177, 470, 661, 225, 645
178, 503, 588, 49, 60
179, 358, 560, 74, 67
180, 589, 733, 268, 251
181, 779, 231, 561, 501
182, 580, 204, 376, 306
183, 382, 314, 763, 212
184, 98, 635, 546, 90
185, 355, 743, 487, 177
186, 305, 234, 349, 714
187, 260, 510, 681, 495
188, 801, 800, 257, 296
189, 294, 611, 62, 52
190, 374, 373, 126, 150
191, 3, 30, 513, 640
192, 477, 449, 273, 372
193, 249, 753, 324, 248
194, 324, 157, 83, 7
195, 516, 673, 459, 753
196, 673, 750, 322, 459
197, 480, 479, 342, 614
198, 478, 702, 321, 340
199, 782, 516, 341, 167
200, 621, 128, 148, 329
201, 639, 717, 511, 709
202, 163, 2, 25, 222
203, 117, 107, 355, 711
204, 579, 194, 331, 174
205, 546, 741, 180, 768
206, 174, 331, 171, 474
207, 306, 376, 190, 642
208, 118, 108, 698, 743
209, 192, 770, 327, 643
210, 212, 208, 636, 382
211, 120, 110, 491, 397
212, 397, 491, 490, 201
213, 491, 445, 158, 490
214, 110, 121, 445, 491
215, 290, 443, 493, 492
216, 492, 493, 391, 289
217, 493, 46, 57, 391
218, 443, 56, 46, 493
219, 379, 277, 524, 259
220, 796, 795, 254, 265
221, 301, 541, 658, 389
222, 752, 773, 670, 466
223, 231, 64, 54, 561
224, 467, 348, 592, 363
225, 268, 252, 238, 236
226, 366, 390, 418, 270
227, 766, 363, 678, 335
228, 475, 300, 675, 686
229, 694, 247, 263, 316
230, 774, 500, 58, 48
231, 264, 275, 280, 757
232, 257, 318, 260, 728
233, 590, 258, 503, 364
234, 507, 726, 247, 694
235, 795, 794, 713, 254
236, 716, 365, 752, 626
237, 682, 731, 276, 634
238, 263, 417, 467, 250
239, 717, 477, 372, 511
240, 449, 780, 600, 273
241, 372, 273, 272, 309
242, 672, 82, 85, 339
243, 191, 185, 767, 553
244, 157, 339, 85, 83
245, 615, 739, 269, 417
246, 792, 456, 406, 791
247, 751, 236, 79, 72
248, 302, 774, 48, 59
249, 205, 521, 522, 519
250, 519, 522, 520, 206
251, 522, 428, 160, 520
252, 521, 159, 428, 522
253, 287, 425, 526, 523
254, 523, 526, 524, 277
255, 526, 525, 278, 524
256, 425, 288, 525, 526
257, 161, 528, 529, 438
258, 438, 529, 520, 160
259, 529, 527, 206, 520
260, 528, 202, 527, 529
261, 286, 432, 531, 530
262, 530, 531, 502, 285
263, 531, 523, 277, 502
264, 432, 287, 523, 531
265, 790, 789, 572, 785
266, 532, 535, 130, 146
267, 535, 533, 147, 130
268, 664, 723, 574, 209
269, 389, 658, 715, 616
270, 456, 255, 267, 406
271, 795, 270, 505, 794
272, 395, 751, 72, 80
273, 706, 626, 256, 243
274, 253, 559, 540, 298
275, 235, 655, 233, 735
276, 441, 677, 403, 656
277, 499, 765, 744, 275
278, 540, 624, 671, 677
279, 505, 705, 457, 638
280, 539, 395, 80, 73
281, 99, 564, 214, 91
282, 388, 199, 219, 210
283, 386, 213, 361, 422
284, 548, 663, 703, 175
285, 800, 405, 305, 799
286, 624, 674, 475, 671
287, 550, 693, 347, 688
288, 705, 298, 441, 457
289, 144, 514, 554, 132
290, 132, 554, 552, 145
291, 315, 191, 553, 778
292, 696, 484, 679, 754
293, 631, 387, 473, 485
294, 584, 483, 207, 452
295, 783, 719, 354, 184
296, 625, 379, 259, 760
297, 626, 752, 466, 256
298, 406, 267, 294, 241
299, 744, 764, 550, 756
300, 501, 561, 667, 357
301, 670, 289, 391, 274
302, 791, 406, 241, 299
303, 304, 392, 559, 253
304, 92, 210, 564, 99
305, 627, 568, 738, 567
306, 486, 720, 381, 748
307, 768, 180, 401, 412
308, 146, 131, 565, 532
309, 489, 664, 209, 229
310, 326, 534, 215, 474
311, 131, 145, 552, 565
312, 206, 527, 569, 566
313, 483, 563, 421, 207
314, 622, 584, 452, 697
315, 527, 202, 568, 569
316, 513, 352, 168, 482
317, 468, 512, 344, 373
318, 345, 163, 222, 156
319, 452, 207, 308, 571
320, 754, 679, 486, 741
321, 663, 422, 721, 703
322, 307, 384, 631, 484
323, 229, 209, 597, 293
324, 421, 178, 195, 562
325, 97, 768, 412, 89
326, 173, 697, 704, 423
327, 759, 408, 393, 300
328, 230, 317, 75, 68
329, 729, 727, 271, 610
330, 504, 589, 251, 509
331, 360, 398, 396, 362
332, 101, 112, 630, 181
333, 114, 104, 563, 483
334, 194, 179, 488, 331
335, 284, 582, 583, 581
336, 581, 583, 530, 285
337, 583, 413, 286, 530
338, 582, 170, 413, 583
339, 107, 118, 743, 355
340, 213, 666, 665, 361
341, 177, 487, 587, 585
342, 208, 712, 326, 636
343, 560, 692, 66, 74
344, 676, 407, 264, 244
345, 298, 540, 677, 441
346, 796, 366, 270, 795
347, 258, 557, 588, 503
348, 236, 238, 71, 79
349, 238, 558, 78, 71
350, 802, 801, 296, 508
351, 375, 689, 576, 312
352, 743, 698, 718, 487
353, 112, 102, 652, 630
354, 382, 636, 171, 628
355, 344, 709, 125, 151
356, 221, 601, 165, 343
357, 511, 372, 309, 152
358, 311, 470, 645, 223
359, 223, 603, 604, 601
360, 601, 604, 462, 165
361, 604, 602, 162, 462
362, 603, 203, 602, 604
363, 161, 435, 606, 528
364, 528, 606, 605, 202
365, 606, 602, 203, 605
366, 435, 162, 602, 606
367, 276, 608, 609, 607
368, 607, 609, 582, 284
369, 609, 464, 170, 582
370, 608, 169, 464, 609
371, 410, 230, 68, 76
372, 241, 294, 52, 63
373, 657, 262, 303, 506
374, 300, 393, 544, 675
375, 189, 6, 81, 479
376, 613, 340, 480, 614
377, 340, 321, 323, 480
378, 782, 167, 515, 188
379, 616, 715, 358, 317
380, 773, 650, 289, 670
381, 610, 271, 518, 654
382, 409, 336, 69, 77
383, 620, 586, 172, 185
384, 736, 700, 701, 315
385, 620, 450, 183, 586
386, 619, 186, 450, 620
387, 685, 319, 640, 708
388, 320, 24, 17, 776
389, 155, 310, 599, 469
390, 785, 572, 664, 489
391, 362, 396, 666, 213
392, 412, 401, 183, 385
393, 748, 381, 399, 594
394, 279, 543, 772, 476
395, 265, 254, 543, 279
396, 390, 304, 253, 418
397, 707, 616, 317, 230
398, 197, 749, 196, 332
399, 585, 587, 663, 548
400, 711, 355, 177, 218
401, 332, 196, 623, 383
402, 105, 116, 333, 547
403, 399, 306, 642, 172
404, 699, 182, 683, 217
405, 147, 533, 632, 129
406, 129, 632, 328, 148
407, 636, 326, 474, 171
408, 787, 786, 742, 453
409, 715, 357, 560, 358
410, 782, 188, 781, 478
411, 271, 402, 758, 518
412, 251, 268, 236, 751
413, 199, 173, 423, 219
414, 333, 575, 378, 200
415, 720, 690, 580, 381
416, 749, 653, 627, 196
417, 232, 284, 581, 693
418, 338, 612, 304, 390
419, 797, 668, 366, 796
420, 349, 633, 612, 338
421, 449, 685, 708, 780
422, 709, 511, 152, 125
423, 155, 710, 311, 221
424, 598, 621, 329, 228
425, 722, 174, 474, 215
426, 115, 105, 547, 747
427, 176, 595, 573, 534
428, 119, 109, 398, 360
429, 226, 646, 647, 644
430, 644, 647, 645, 225
431, 647, 603, 223, 645
432, 646, 203, 603, 647
433, 201, 490, 649, 648
434, 648, 649, 521, 205
435, 649, 454, 159, 521
436, 490, 158, 454, 649
437, 288, 460, 651, 525
438, 525, 651, 650, 278
439, 651, 492, 289, 650
440, 460, 290, 492, 651
441, 691, 596, 182, 699
442, 473, 354, 719, 690
443, 209, 574, 755, 597
444, 293, 597, 712, 208
445, 348, 676, 244, 592
446, 756, 550, 688, 261
447, 509, 251, 751, 395
448, 588, 302, 59, 49
449, 318, 591, 510, 260
450, 500, 274, 47, 58
451, 739, 536, 266, 269
452, 262, 240, 682, 303
453, 226, 644, 662, 313
454, 313, 662, 660, 220
455, 662, 661, 228, 660
456, 644, 225, 661, 662
457, 179, 585, 548, 488
458, 378, 218, 179, 194
459, 334, 579, 174, 722
460, 102, 113, 622, 652
461, 205, 665, 666, 648
462, 648, 666, 396, 201
463, 181, 630, 199, 388
464, 103, 114, 483, 584
465, 518, 758, 759, 674
466, 549, 404, 166, 405
467, 544, 706, 243, 557
468, 240, 272, 731, 682
469, 234, 578, 633, 349
470, 417, 269, 348, 467
471, 724, 657, 506, 282
472, 247, 615, 417, 263
473, 187, 249, 248, 369
474, 782, 478, 340, 613
475, 295, 607, 284, 232
476, 745, 537, 281, 536
477, 244, 264, 757, 496
478, 659, 716, 626, 706
479, 611, 283, 51, 62
480, 762, 440, 739, 615
481, 459, 322, 339, 157
482, 681, 242, 409, 471
483, 106, 117, 711, 575
484, 89, 412, 385, 96
485, 680, 519, 206, 566
486, 665, 205, 519, 680
487, 692, 55, 5, 66
488, 403, 542, 420, 419
489, 634, 276, 607, 295
490, 476, 772, 410, 336
491, 217, 683, 684, 325
492, 325, 684, 330, 227
493, 684, 660, 228, 330
494, 683, 220, 660, 684
495, 310, 343, 481, 320
496, 512, 639, 709, 344
497, 639, 346, 641, 717
498, 155, 469, 374, 448
499, 166, 618, 578, 234
500, 261, 688, 380, 734
501, 506, 303, 394, 337
502, 245, 502, 277, 379
503, 104, 115, 747, 563
504, 691, 293, 208, 212
505, 401, 594, 586, 183
506, 567, 738, 646, 226
507, 753, 459, 157, 324
508, 816, 803, 517, 617
509, 266, 359, 407, 676
510, 471, 409, 77, 70
511, 512, 156, 346, 639
512, 155, 448, 164, 710
513, 482, 168, 730, 600
514, 786, 193, 292, 742
515, 563, 747, 178, 421
516, 196, 627, 567, 623
517, 703, 721, 411, 556
518, 185, 172, 642, 767
519, 619, 701, 367, 186
520, 701, 700, 187, 367
521, 778, 553, 190, 292
522, 248, 324, 7, 86
523, 539, 73, 6, 189
524, 553, 767, 642, 190
525, 341, 249, 187, 700
526, 91, 214, 635, 98
527, 571, 308, 775, 198
528, 770, 190, 376, 327
529, 597, 755, 176, 712
530, 405, 166, 234, 305
531, 363, 592, 237, 678
532, 542, 686, 590, 420
533, 380, 245, 379, 625
534, 599, 776, 163, 345
535, 156, 222, 570, 346
536, 641, 224, 746, 769
537, 218, 177, 585, 179
538, 652, 622, 697, 173
539, 411, 777, 653, 749
540, 227, 790, 785, 325
541, 633, 335, 494, 612
542, 297, 734, 655, 235
543, 347, 285, 502, 245
544, 592, 244, 496, 237
545, 797, 796, 265, 472
546, 695, 279, 476, 242
547, 658, 501, 357, 715
548, 336, 410, 76, 69
549, 167, 736, 514, 515
550, 239, 539, 189, 323
551, 478, 781, 458, 702
552, 167, 341, 700, 736
553, 746, 29, 27, 319
554, 570, 28, 26, 224
555, 710, 164, 621, 598
556, 343, 165, 371, 481
557, 325, 785, 489, 217
558, 595, 783, 184, 573
559, 198, 775, 211, 387
560, 575, 711, 218, 378
561, 653, 569, 568, 627
562, 623, 567, 226, 313
563, 90, 546, 768, 97
564, 274, 391, 57, 47
565, 735, 233, 716, 659
566, 237, 496, 497, 727
567, 545, 504, 509, 239
568, 282, 506, 337, 761
569, 791, 299, 231, 779
570, 764, 232, 693, 550
571, 256, 466, 500, 774
572, 668, 338, 390, 366
573, 726, 762, 615, 247
574, 242, 476, 336, 409
575, 276, 731, 732, 608
576, 608, 732, 350, 169
577, 732, 730, 168, 350
578, 731, 272, 730, 732
579, 267, 725, 611, 294
580, 246, 637, 404, 549
581, 714, 349, 338, 668
582, 637, 694, 316, 404
583, 736, 737, 554, 514
584, 736, 315, 778, 737
585, 690, 719, 204, 580
586, 646, 738, 605, 203
587, 738, 568, 202, 605
588, 361, 665, 680, 377
589, 392, 610, 654, 559
590, 758, 593, 408, 759
591, 794, 505, 638, 793
592, 617, 517, 504, 545
593, 113, 103, 584, 622
594, 630, 652, 173, 199
595, 377, 680, 566, 777
596, 534, 573, 576, 215
597, 747, 547, 400, 178
598, 207, 421, 562, 308
599, 381, 580, 306, 399
600, 316, 263, 250, 618
601, 578, 766, 335, 633
602, 299, 241, 63, 53
603, 558, 471, 70, 78
604, 320, 481, 16, 24
605, 30, 38, 352, 513
606, 468, 345, 156, 512
607, 788, 787, 453, 555
608, 383, 623, 313, 220
609, 331, 488, 628, 171
610, 393, 659, 706, 544
611, 356, 261, 734, 297
612, 457, 441, 656, 255
613, 577, 356, 297, 740
614, 702, 458, 816, 617
615, 369, 248, 86, 94
616, 702, 617, 545, 321
617, 515, 514, 144, 133
618, 697, 452, 571, 704
619, 219, 423, 307, 216
620, 689, 722, 215, 576
621, 591, 472, 695, 510
622, 408, 735, 659, 393
623, 365, 687, 773, 752
624, 728, 260, 495, 252
625, 466, 670, 274, 500
626, 803, 802, 508, 517
627, 498, 538, 637, 246
628, 612, 494, 392, 304
629, 740, 297, 235, 593
630, 793, 638, 456, 792
631, 792, 791, 779, 541
632, 537, 724, 282, 281
633, 799, 305, 714, 798
634, 727, 497, 402, 271
635, 303, 682, 634, 394
636, 686, 675, 258, 590
637, 699, 229, 293, 691
638, 562, 195, 689, 375
639, 488, 548, 175, 628
640, 775, 375, 312, 211
641, 675, 544, 557, 258
642, 593, 235, 735, 408
643, 671, 475, 686, 542
644, 254, 713, 551, 543
645, 799, 798, 591, 318
646, 557, 243, 302, 588
647, 517, 508, 589, 504
648, 559, 654, 624, 540
649, 687, 278, 650, 773
650, 760, 259, 687, 365
651, 510, 695, 242, 681
652, 259, 524, 278, 687
653, 782, 613, 673, 516
654, 315, 701, 619, 191
655, 191, 619, 620, 185
656, 516, 753, 249, 341
657, 712, 176, 534, 326
658, 741, 486, 748, 180
659, 327, 376, 204, 291
660, 556, 411, 749, 197
661, 717, 641, 769, 477
662, 481, 371, 23, 16
663, 477, 769, 685, 449
664, 448, 374, 150, 127
665, 643, 327, 291, 629
666, 217, 489, 229, 699
667, 184, 354, 211, 312
668, 299, 53, 64, 231
669, 420, 590, 364, 669
670, 800, 799, 318, 257
671, 296, 257, 728, 733
672, 656, 403, 419, 725
673, 794, 793, 301, 713
674, 638, 457, 255, 456
675, 677, 671, 542, 403
676, 781, 134, 142, 458
677, 765, 771, 764, 744
678, 541, 779, 501, 658
679, 275, 744, 756, 280
680, 214, 696, 754, 635
681, 400, 200, 579, 334
682, 574, 643, 629, 755
683, 469, 468, 373, 374
684, 708, 482, 600, 780
685, 710, 598, 470, 311
686, 308, 562, 375, 775
687, 635, 754, 741, 546
688, 594, 399, 172, 586
689, 554, 737, 193, 552
690, 737, 778, 292, 193
691, 508, 296, 733, 589
692, 337, 394, 771, 765
693, 618, 250, 766, 578
694, 319, 27, 3, 640
695, 346, 570, 224, 641
696, 373, 344, 151, 126
697, 323, 189, 479, 480
698, 614, 342, 672, 750
699, 750, 672, 339, 322
700, 613, 614, 750, 673
701, 342, 84, 82, 672
702, 742, 292, 190, 770
703, 629, 291, 783, 595
704, 291, 204, 719, 783
705, 227, 330, 784, 328
706, 328, 784, 329, 148
707, 330, 228, 329, 784
708, 565, 552, 193, 786
709, 532, 565, 786, 787
710, 535, 532, 787, 788
711, 533, 535, 788, 789
712, 632, 533, 789, 790
713, 328, 632, 790, 227
714, 804, 309, 272, 240
715, 805, 804, 240, 262
716, 806, 805, 262, 657
717, 807, 806, 657, 724
718, 808, 807, 724, 537
719, 809, 808, 537, 745
720, 810, 809, 745, 440
721, 811, 810, 440, 762
722, 812, 811, 762, 726
723, 813, 812, 726, 507
724, 814, 813, 507, 538
725, 815, 814, 538, 498
726, 816, 815, 498, 803
727, 804, 124, 152, 309
728, 805, 153, 124, 804
729, 806, 123, 153, 805
730, 807, 154, 123, 806
731, 808, 138, 154, 807
732, 809, 9, 138, 808
733, 810, 122, 9, 809
734, 811, 139, 122, 810
735, 812, 137, 139, 811
736, 813, 140, 137, 812
737, 814, 136, 140, 813
738, 815, 141, 136, 814
739, 816, 135, 141, 815
*ELSET,ELSET=contact_source
99, 100, 101, 102, 103, 104, 105, 106, 107, 108, 
109, 110, 111, 112, 113, 114, 115, 116, 117, 118, 
119, 120, 
*ELSET,ELSET=contact_drain
39, 40, 41, 42, 43, 44, 45, 46, 47, 48, 
49, 50, 51, 52, 53, 54, 55, 56, 57, 58, 
59, 60, 
*ELSET,ELSET=probe_A
77, 78, 79, 80, 81, 82, 
*ELSET,ELSET=probe_B
17, 18, 19, 20, 21, 22, 
*ELSET,ELSET=walls
1, 2, 3, 4, 5, 6, 7, 8, 9, 10, 
11, 12, 13, 14, 15, 16, 23, 24, 25, 26, 
27, 28, 29, 30, 31, 32, 33, 34, 35, 36, 
37, 38, 61, 62, 63, 64, 65, 66, 67, 68, 
69, 70, 71, 72, 73, 74, 75, 76, 83, 84, 
85, 86, 87, 88, 89, 90, 91, 92, 93, 94, 
95, 96, 97, 98, 121, 122, 123, 124, 125, 126, 
127, 128, 129, 130, 131, 132, 133, 134, 135, 136, 
137, 138, 139, 140, 141, 142, 143, 144, 145, 146, 
147, 148, 149, 150, 151, 152, 153, 154, 
*ELSET,ELSET=domain
155, 156, 157, 158, 159, 160, 161, 162, 163, 164, 
165, 166, 167, 168, 169, 170, 171, 172, 173, 174, 
175, 176, 177, 178, 179, 180, 181, 182, 183, 184, 
185, 186, 187, 188, 189, 190, 191, 192, 193, 194, 
195, 196, 197, 198, 199, 200, 201, 202, 203, 204, 
205, 206, 207, 208, 209, 210, 211, 212, 213, 214, 
215, 216, 217, 218, 219, 220, 221, 222, 223, 224, 
225, 226, 227, 228, 229, 230, 231, 232, 233, 234, 
235, 236, 237, 238, 239, 240, 241, 242, 243, 244, 
245, 246, 247, 248, 249, 250, 251, 252, 253, 254, 
255, 256, 257, 258, 259, 260, 261, 262, 263, 264, 
265, 266, 267, 268, 269, 270, 271, 272, 273, 274, 
275, 276, 277, 278, 279, 280, 281, 282, 283, 284, 
285, 286, 287, 288, 289, 290, 291, 292, 293, 294, 
295, 296, 297, 298, 299, 300, 301, 302, 303, 304, 
305, 306, 307, 308, 309, 310, 311, 312, 313, 314, 
315, 316, 317, 318, 319, 320, 321, 322, 323, 324, 
325, 326, 327, 328, 329, 330, 331, 332, 333, 334, 
335, 336, 337, 338, 339, 340, 341, 342, 343, 344, 
345, 346, 347, 348, 349, 350, 351, 352, 353, 354, 
355, 356, 357, 358, 359, 360, 361, 362, 363, 364, 
365, 366, 367, 368, 369, 370, 371, 372, 373, 374, 
375, 376, 377, 378, 379, 380, 381, 382, 383, 384, 
385, 386, 387, 388, 389, 390, 391, 392, 393, 394, 
395, 396, 397, 398, 399, 400, 401, 402, 403, 404, 
405, 406, 407, 408, 409, 410, 411, 412, 413, 414, 
415, 416, 417, 418, 419, 420, 421, 422, 423, 424, 
425, 426, 427, 428, 429, 430, 431, 432, 433, 434, 
435, 436, 437, 438, 439, 440, 441, 442, 443, 444, 
445, 446, 447, 448, 449, 450, 451, 452, 453, 454, 
455, 456, 457, 458, 459, 460, 461, 462, 463, 464, 
465, 466, 467, 468, 469, 470, 471, 472, 473, 474, 
475, 476, 477, 478, 479, 480, 481, 482, 483, 484, 
485, 486, 487, 488, 489, 490, 491, 492, 493, 494, 
495, 496, 497, 498, 499, 500, 501, 502, 503, 504, 
505, 506, 507, 508, 509, 510, 511, 512, 513, 514, 
515, 516, 517, 518, 519, 520, 521, 522, 523, 524, 
525, 526, 527, 528, 529, 530, 531, 532, 533, 534, 
535, 536, 537, 538, 539, 540, 541, 542, 543, 544, 
545, 546, 547, 548, 549, 550, 551, 552, 553, 554, 
555, 556, 557, 558, 559, 560, 561, 562, 563, 564, 
565, 566, 567, 568, 569, 570, 571, 572, 573, 574, 
575, 576, 577, 578, 579, 580, 581, 582, 583, 584, 
585, 586, 587, 588, 589, 590, 591, 592, 593, 594, 
595, 596, 597, 598, 599, 600, 601, 602, 603, 604, 
605, 606, 607, 608, 609, 610, 611, 612, 613, 614, 
615, 616, 617, 618, 619, 620, 621, 622, 623, 624, 
625, 626, 627, 628, 629, 630, 631, 632, 633, 634, 
635, 636, 637, 638, 639, 640, 641, 642, 643, 644, 
645, 646, 647, 648, 649, 650, 651, 652, 653, 654, 
655, 656, 657, 658, 659, 660, 661, 662, 663, 664, 
665, 666, 667, 668, 669, 670, 671, 672, 673, 674, 
675, 676, 677, 678, 679, 680, 681, 682, 683, 684, 
685, 686, 687, 688, 689, 690, 691, 692, 693, 694, 
695, 696, 697, 698, 699, 700, 701, 702, 703, 704, 
705, 706, 707, 708, 709, 710, 711, 712, 713, 714, 
715, 716, 717, 718, 719, 720, 721, 722, 723, 724, 
725, 726, 727, 728, 729, 730, 731, 732, 733, 734, 
735, 736, 737, 738, 739, 740, 741, 742, 743, 744, 
745, 746, 747, 748, 749, 750, 751, 752, 753, 754, 
755, 756, 757, 758, 759, 760, 761, 762, 763, 764, 
765, 766, 767, 768, 769, 770, 771, 772, 773, 774, 
775, 776, 777, 778, 779, 780, 781, 782, 783, 784, 
785, 786, 787, 788, 789, 790, 791, 792, 793, 794, 
795, 796, 797, 798, 799, 800, 801, 802, 803, 804, 
805, 806, 807, 808, 809, 810, 811, 812, 813, 814, 
815, 816, 817, 818, 819, 820, 821, 822, 823, 824, 
825, 826, 827, 828, 829, 830, 831, 832, 833, 834, 
835, 836, 837, 838, 839, 840, 841, 842, 843, 844, 
845, 846, 847, 848, 849, 850, 851, 852, 853, 854, 
855, 856, 857, 858, 859, 860, 861, 862, 863, 864, 
865, 866, 867, 868, 869, 870, 871, 872, 873, 874, 
875, 876, 877, 878, 879, 880, 881, 882, 883, 884, 
885, 886, 887, 888, 889, 890, 891, 892, 893, 
*NSET,NSET=contact_source
1, 8, 101, 102, 103, 104, 105, 106, 107, 108, 
109, 110, 111, 112, 113, 114, 115, 116, 117, 118, 
119, 120, 121, 
*NSET,NSET=contact_drain
4, 5, 45, 46, 47, 48, 49, 50, 51, 52, 
53, 54, 55, 56, 57, 58, 59, 60, 61, 62, 
63, 64, 65, 
*NSET,NSET=probe_A
6, 7, 81, 82, 83, 84, 85, 
*NSET,NSET=probe_B
2, 3, 25, 26, 27, 28, 29, 
*NSET,NSET=walls
1, 2, 3, 4, 5, 6, 7, 8, 9, 10, 
11, 12, 13, 14, 15, 16, 17, 18, 19, 20, 
21, 22, 23, 24, 30, 31, 32, 33, 34, 35, 
36, 37, 38, 39, 40, 41, 42, 43, 44, 66, 
67, 68, 69, 70, 71, 72, 73, 74, 75, 76, 
77, 78, 79, 80, 86, 87, 88, 89, 90, 91, 
92, 93, 94, 95, 96, 97, 98, 99, 100, 122, 
123, 124, 125, 126, 127, 128, 129, 130, 131, 132, 
133, 134, 135, 136, 137, 138, 139, 140, 141, 142, 
143, 144, 145, 146, 147, 148, 149, 150, 151, 152, 
153, 154, 
*NSET,NSET=domain
1, 2, 3, 4, 5, 6, 7, 8, 9, 10, 
11, 12, 13, 14, 15, 16, 17, 18, 19, 20, 
21, 22, 23, 24, 25, 26, 27, 28, 29, 30, 
31, 32, 33, 34, 35, 36, 37, 38, 39, 40, 
41, 42, 43, 44, 45, 46, 47, 48, 49, 50, 
51, 52, 53, 54, 55, 56, 57, 58, 59, 60, 
61, 62, 63, 64, 65, 66, 67, 68, 69, 70, 
71, 72, 73, 74, 75, 76, 77, 78, 79, 80, 
81, 82, 83, 84, 85, 86, 87, 88, 89, 90, 
91, 92, 93, 94, 95, 96, 97, 98, 99, 100, 
101, 102, 103, 104, 105, 106, 107, 108, 109, 110, 
111, 112, 113, 114, 115, 116, 117, 118, 119, 120, 
121, 122, 123, 124, 125, 126, 127, 128, 129, 130, 
131, 132, 133, 134, 135, 136, 137, 138, 139, 140, 
141, 142, 143, 144, 145, 146, 147, 148, 149, 150, 
151, 152, 153, 154, 155, 156, 157, 158, 159, 160, 
161, 162, 163, 164, 165, 166, 167, 168, 169, 170, 
171, 172, 173, 174, 175, 176, 177, 178, 179, 180, 
181, 182, 183, 184, 185, 186, 187, 188, 189, 190, 
191, 192, 193, 194, 195, 196, 197, 198, 199, 200, 
201, 202, 203, 204, 205, 206, 207, 208, 209, 210, 
211, 212, 213, 214, 215, 216, 217, 218, 219, 220, 
221, 222, 223, 224, 225, 226, 227, 228, 229, 230, 
231, 232, 233, 234, 235, 236, 237, 238, 239, 240, 
241, 242, 243, 244, 245, 246, 247, 248, 249, 250, 
251, 252, 253, 254, 255, 256, 257, 258, 259, 260, 
261, 262, 263, 264, 265, 266, 267, 268, 269, 270, 
271, 272, 273, 274, 275, 276, 277, 278, 279, 280, 
281, 282, 283, 284, 285, 286, 287, 288, 289, 290, 
291, 292, 293, 294, 295, 296, 297, 298, 299, 300, 
301, 302, 303, 304, 305, 306, 307, 308, 309, 310, 
311, 312, 313, 314, 315, 316, 317, 318, 319, 320, 
321, 322, 323, 324, 325, 326, 327, 328, 329, 330, 
331, 332, 333, 334, 335, 336, 337, 338, 339, 340, 
341, 342, 343, 344, 345, 346, 347, 348, 349, 350, 
351, 352, 353, 354, 355, 356, 357, 358, 359, 360, 
361, 362, 363, 364, 365, 366, 367, 368, 369, 370, 
371, 372, 373, 374, 375, 376, 377, 378, 379, 380, 
381, 382, 383, 384, 385, 386, 387, 388, 389, 390, 
391, 392, 393, 394, 395, 396, 397, 398, 399, 400, 
401, 402, 403, 404, 405, 406, 407, 408, 409, 410, 
411, 412, 413, 414, 415, 416, 417, 418, 419, 420, 
421, 422, 423, 424, 425, 426, 427, 428, 429, 430, 
431, 432, 433, 434, 435, 436, 437, 438, 439, 440, 
441, 442, 443, 444, 445, 446, 447, 448, 449, 450, 
451, 452, 453, 454, 455, 456, 457, 458, 459, 460, 
461, 462, 463, 464, 465, 466, 467, 468, 469, 470, 
471, 472, 473, 474, 475, 476, 477, 478, 479, 480, 
481, 482, 483, 484, 485, 486, 487, 488, 489, 490, 
491, 492, 493, 494, 495, 496, 497, 498, 499, 500, 
501, 502, 503, 504, 505, 506, 507, 508, 509, 510, 
511, 512, 513, 514, 515, 516, 517, 518, 519, 520, 
521, 522, 523, 524, 525, 526, 527, 528, 529, 530, 
531, 532, 533, 534, 535, 536, 537, 538, 539, 540, 
541, 542, 543, 544, 545, 546, 547, 548, 549, 550, 
551, 552, 553, 554, 555, 556, 557, 558, 559, 560, 
561, 562, 563, 564, 565, 566, 567, 568, 569, 570, 
571, 572, 573, 574, 575, 576, 577, 578, 579, 580, 
581, 582, 583, 584, 585, 586, 587, 588, 589, 590, 
591, 592, 593, 594, 595, 596, 597, 598, 599, 600, 
601, 602, 603, 604, 605, 606, 607, 608, 609, 610, 
611, 612, 613, 614, 615, 616, 617, 618, 619, 620, 
621, 622, 623, 624, 625, 626, 627, 628, 629, 630, 
631, 632, 633, 634, 635, 636, 637, 638, 639, 640, 
641, 642, 643, 644, 645, 646, 647, 648, 649, 650, 
651, 652, 653, 654, 655, 656, 657, 658, 659, 660, 
661, 662, 663, 664, 665, 666, 667, 668, 669, 670, 
671, 672, 673, 674, 675, 676, 677, 678, 679, 680, 
681, 682, 683, 684, 685, 686, 687, 688, 689, 690, 
691, 692, 693, 694, 695, 696, 697, 698, 699, 700, 
701, 702, 703, 704, 705, 706, 707, 708, 709, 710, 
711, 712, 713, 714, 715, 716, 717, 718, 719, 720, 
721, 722, 723, 724, 725, 726, 727, 728, 729, 730, 
731, 732, 733, 734, 735, 736, 737, 738, 739, 740, 
741, 742, 743, 744, 745, 746, 747, 748, 749, 750, 
751, 752, 753, 754, 755, 756, 757, 758, 759, 760, 
761, 762, 763, 764, 765, 766, 767, 768, 769, 770, 
771, 772, 773, 774, 775, 776, 777, 778, 779, 780, 
781, 782, 783, 784, 785, 786, 787, 788, 789, 790, 
791, 792, 793, 794, 795, 796, 797, 798, 799, 800, 
801, 802, 803, 804, 805, 806, 807, 808, 809, 810, 
811, 812, 813, 814, 815, 816, 
