*Heading
 /Users/juliagao/geometry-optimization-net/scripts/../runs/2d/shape_16.inp
*NODE
1, 0, -0.3, 0
2, 0.425, -0.3, 0
3, 0.575, -0.3, 0
4, 1, -0.3, 0
5, 1, 0.3, 0
6, 0.575, 0.3, 0
7, 0.425, 0.3, 0
8, 0, 0.3, 0
9, 0.5971138123, -0.1075136727, 0
10, 0.026278686917189, -0.3, 0
11, 0.07891832352758, -0.3, 0
12, 0.13175648212321, -0.3, 0
13, 0.18543171000331, -0.3, 0
14, 0.23975370187183, -0.3, 0
15, 0.29355173054317, -0.3, 0
16, 0.34655749834884, -0.3, 0
17, 0.39894460518701, -0.3, 0
18, 0.052557373834379, -0.3, 0
19, 0.10527927322078, -0.3, 0
20, 0.15823369102564, -0.3, 0
21, 0.21262972898097, -0.3, 0
22, 0.26687767476268, -0.3, 0
23, 0.32022578632366, -0.3, 0
24, 0.37288921037403, -0.3, 0
25, 0.45000441083769, -0.3, 0
26, 0.49976923783127, -0.3, 0
27, 0.54976482699358, -0.3, 0
28, 0.47500882167539, -0.3, 0
29, 0.52452965398715, -0.3, 0
30, 0.60170109882727, -0.3, 0
31, 0.65541342241228, -0.3, 0
32, 0.70895159549622, -0.3, 0
33, 0.76226370716781, -0.3, 0
34, 0.81569200777643, -0.3, 0
35, 0.86857452019362, -0.3, 0
36, 0.92114359954364, -0.3, 0
37, 0.97373665186984, -0.3, 0
38, 0.62840219765454, -0.3, 0
39, 0.68242464717002, -0.3, 0
40, 0.73547854382241, -0.3, 0
41, 0.78904887051322, -0.3, 0
42, 0.84233514503964, -0.3, 0
43, 0.8948138953476, -0.3, 0
44, 0.94747330373967, -0.3, 0
45, 1, -0.2755012929312, 0
46, 1, -0.22635886433006, 0
47, 1, -0.17683740571076, 0
48, 1, -0.1270809765949, 0
49, 1, -0.077474866110694, 0
50, 1, -0.027886261173079, 0
51, 1, 0.022369541083862, 0
52, 1, 0.073542733274213, 0
53, 1, 0.12485635383816, 0
54, 1, 0.17575950120639, 0
55, 1, 0.22603260019288, 0
56, 1, 0.27546879797968, 0
57, 1, -0.25100258586239, 0
58, 1, -0.20171514279772, 0
59, 1, -0.15195966862381, 0
60, 1, -0.10220228456599, 0
61, 1, -0.052747447655403, 0
62, 1, -0.0030250746907555, 0
63, 1, 0.047764156858478, 0
64, 1, 0.099321309689947, 0
65, 1, 0.15039139798637, 0
66, 1, 0.2011276044264, 0
67, 1, 0.25093759595936, 0
68, 0.97392927955841, 0.3, 0
69, 0.92154436868527, 0.3, 0
70, 0.86855392993153, 0.3, 0
71, 0.8144049622847, 0.3, 0
72, 0.75905116758862, 0.3, 0
73, 0.7045068593182, 0.3, 0
74, 0.65208089129587, 0.3, 0
75, 0.60065907808626, 0.3, 0
76, 0.94785855911682, 0.3, 0
77, 0.89523017825373, 0.3, 0
78, 0.84187768160934, 0.3, 0
79, 0.78693224296006, 0.3, 0
80, 0.73117009221717, 0.3, 0
81, 0.67784362641923, 0.3, 0
82, 0.62631815617251, 0.3, 0
83, 0.5555223915562, 0.3, 0
84, 0.51770796821478, 0.3, 0
85, 0.48118556568446, 0.3, 0
86, 0.44399998902588, 0.3, 0
87, 0.53604478311241, 0.3, 0
88, 0.49937115331715, 0.3, 0
89, 0.46299997805176, 0.3, 0
90, 0.39977235659967, 0.3, 0
91, 0.34805397615926, 0.3, 0
92, 0.29413991571624, 0.3, 0
93, 0.23934539367804, 0.3, 0
94, 0.18528169711797, 0.3, 0
95, 0.13207700436553, 0.3, 0
96, 0.079110412496712, 0.3, 0
97, 0.02632800772776, 0.3, 0
98, 0.37454471319933, 0.3, 0
99, 0.32156323911918, 0.3, 0
100, 0.26671659231329, 0.3, 0
101, 0.21197419504278, 0.3, 0
102, 0.15858919919315, 0.3, 0
103, 0.10556480953791, 0.3, 0
104, 0.052656015455519, 0.3, 0
105, 0, 0.27281819734366, 0
106, 0, 0.21786959423007, 0
107, 0, 0.1618733352914, 0
108, 0, 0.10558081182589, 0
109, 0, 0.050074826175497, 0
110, 0, -0.004427631338344, 0
111, 0, -0.058319209383944, 0
112, 0, -0.11209359734815, 0
113, 0, -0.16610248342368, 0
114, 0, -0.21996472657635, 0
115, 0, -0.27338021520981, 0
116, 0, 0.24563639468731, 0
117, 0, 0.19010279377283, 0
118, 0, 0.13364387680996, 0
119, 0, 0.077517746841825, 0
120, 0, 0.022631905509168, 0
121, 0, -0.031487168185856, 0
122, 0, -0.085151250582033, 0
123, 0, -0.13903594411428, 0
124, 0, -0.19316902273308, 0
125, 0, -0.24676043041962, 0
126, 0.59314124319846, -0.080021832694986, 0
127, 0.56341418494414, -0.033962781190777, 0
128, 0.51420106472955, -0.011443790791665, 0
129, 0.46094659415822, -0.018598410198472, 0
130, 0.41904468363547, -0.053872930116297, 0
131, 0.40288618954768, -0.10749473010596, 0
132, 0.41856515993409, -0.16042358929452, 0
133, 0.45818190058836, -0.19516262597836, 0
134, 0.50970092790112, -0.20414174530857, 0
135, 0.56079826366092, -0.18324123447812, 0
136, 0.59283736548301, -0.13601483059305, 0
137, 0.58154854528239, -0.054779175549893, 0
138, 0.54015498020639, -0.019090428744838, 0
139, 0.48714481276103, -0.011254457120251, 0
140, 0.43781381674635, -0.032921641970563, 0
141, 0.40706742993372, -0.079324493229154, 0
142, 0.40705644011936, -0.13566659620248, 0
143, 0.43650985080004, -0.18099900087481, 0
144, 0.48282604615813, -0.20309687063002, 0
145, 0.53583176351814, -0.19777538749468, 0
146, 0.58038465606794, -0.16200587000839, 0
147, 0.40575304125841, -0.17069908995129, 0
148, 0.56382397446236, -0.26047641364833, 0
149, 0.45588563430856, 0.19500665584496, 0
150, 0.053178474852198, -0.24603033050211, 0
151, 0.10672801995388, -0.24545463657003, 0
152, 0.1611204262429, -0.24508830172541, 0
153, 0.21686262612987, -0.24553879415062, 0
154, 0.27366798154894, -0.24817805759563, 0
155, 0.40716709888613, -0.26851387585046, 0
156, 0.51368014203796, -0.21679921786906, 0
157, 0.33022459764949, -0.25455531105572, 0
158, 0.57959863258051, 0.25368170802534, 0
159, 0.65130757430439, -0.071795733776164, 0
160, 0.59748183359703, -0.27799403981841, 0
161, 0.62261039412873, -0.25222444808795, 0
162, 0.68061155825491, -0.25060161420755, 0
163, 0.73358297048848, -0.25063860513369, 0
164, 0.78649673921813, -0.24983190298749, 0
165, 0.84004689339611, -0.24950749104549, 0
166, 0.89351098150382, -0.24971170268769, 0
167, 0.21717335742799, 0.19304905846983, 0
168, 0.27224669647843, 0.19674722131376, 0
169, 0.21972248112553, 0.13784996151076, 0
170, 0.10838142791394, 0.1345926556512, 0
171, 0.16354313134536, 0.13555249871038, 0
172, 0.054004373115923, 0.13411706213652, 0
173, 0.053746132400362, 0.18983629587124, 0
174, 0.16221595625754, 0.19107238575769, 0
175, 0.10775677412893, 0.19015117649322, 0
176, 0.053293121486617, 0.24514498733398, 0
177, 0.10677495037582, 0.24524254698239, 0
178, 0.16055438580598, 0.24576180466175, 0
179, 0.21469984558042, 0.24683841977467, 0
180, 0.26906164390012, 0.24875267109965, 0
181, 0.32247326739257, 0.25159053991422, 0
182, 0.39656655877147, -0.0099598377433073, 0
183, 0.4187208004802, 0.25833458912474, 0
184, 0.47822063531736, 0.13249469154543, 0
185, 0.45595702178802, 0.14743973545817, 0
186, 0.45591538952392, 0.17684096897964, 0
187, 0.37635431875653, 0.21023379972953, 0
188, 0.4572526998324, 0.24029288329297, 0
189, 0.57156843414937, 0.15984247533053, 0
190, 0.42247017655992, 0.033990009983728, 0
191, 0.40333440871003, 0.11639256152858, 0
192, 0.32609002193207, 0.20255132389852, 0
193, 0.48796947224931, 0.02505413322949, 0
194, 0.33301354036527, 0.1518278215791, 0
195, 0.45524461676536, 0.10404564246324, 0
196, 0.34264913890159, 0.097513866277742, 0
197, 0.59740474683873, 0.15573685643844, 0
198, 0.45572288590125, 0.043886038350809, 0
199, 0.59417036660917, 0.13108577451538, 0
200, 0.3495073281027, 0.22982854084177, 0
201, 0.49685538095869, 0.098056870099872, 0
202, 0.35234902089213, 0.036971471758152, 0
203, 0.28568315611495, 0.022028797854544, 0
204, 0.27667821412496, 0.14292130628757, 0
205, 0.16387763938463, 0.078885251283481, 0
206, 0.22159838971176, 0.080166402628357, 0
207, 0.28168575294924, 0.085596747418591, 0
208, 0.22093185186396, 0.018505562618072, 0
209, 0.16219599009668, 0.021711129647046, 0
210, 0.053946712892299, 0.078452632718252, 0
211, 0.10833698523707, 0.078741339645939, 0
212, 0.10738245849934, 0.02333682466841, 0
213, 0.053571177317616, 0.023448754205564, 0
214, 0.1074131401931, -0.19069869485226, 0
215, 0.1625939108604, -0.18938935303844, 0
216, 0.053466832467827, -0.19191944465818, 0
217, 0.28103092025981, -0.19334331518527, 0
218, 0.22025849632576, -0.18902441792499, 0
219, 0.31748490400668, -0.16945908595458, 0
220, 0.16171625035354, -0.13294782752281, 0
221, 0.10699743154451, -0.13605857779104, 0
222, 0.053359510253156, -0.13780833043926, 0
223, 0.10586389400274, -0.030422469165101, 0
224, 0.053113877450115, -0.030623615653216, 0
225, 0.053061763697162, -0.084096722742469, 0
226, 0.1057886878546, -0.082623494151205, 0
227, 0.21050964045927, -0.054799742968937, 0
228, 0.15732840212006, -0.032456571014789, 0
229, 0.15730854848358, -0.079137985905701, 0
230, 0.43965952671088, -0.24876945490667, 0
231, 0.52806811389249, -0.24674662418062, 0
232, 0.40285423185982, -0.28393624537378, 0
233, 0.34306987705032, -0.20793062091414, 0
234, 0.22098402287727, -0.1592064225007, 0
235, 0.32157272288495, -0.13469647499072, 0
236, 0.36408050479093, -0.044319863483179, 0
237, 0.28680562802379, -0.052279752674191, 0
238, 0.37400634683707, 0.23265380680374, 0
239, 0.79282818179754, 0.19516536430831, 0
240, 0.73595864026558, 0.19507852227334, 0
241, 0.85112986162578, 0.1518647364756, 0
242, 0.89903545394011, 0.15251244197256, 0
243, 0.9491177274697, 0.15148239901715, 0
244, 0.84642750826452, 0.19901652707448, 0
245, 0.89764769947365, 0.2006554485963, 0
246, 0.94874356043637, 0.20091709367654, 0
247, 0.94818768251397, 0.25045349115586, 0
248, 0.84341816993065, 0.24922118887442, 0
249, 0.89614530320737, 0.25006835309532, 0
250, 0.78926722345707, 0.24812813302141, 0
251, 0.73416710541048, 0.24809616582431, 0
252, 0.62825390371268, 0.25125997294811, 0
253, 0.68014379214838, 0.24930602410013, 0
254, 0.5206700890642, 0.045130378112538, 0
255, 0.57761830018115, 0.20704917101384, 0
256, 0.50705285139357, 0.19569202580022, 0
257, 0.45860459859537, 0.25961110485939, 0
258, 0.53212799859959, 0.21280435667187, 0
259, 0.68047800190697, 0.19788246470833, 0
260, 0.62744501590009, 0.20199424270168, 0
261, 0.62393922377613, 0.15198754072942, 0
262, 0.67877742393399, 0.14540353038919, 0
263, 0.70375070839341, 0.087963706775717, 0
264, 0.61863606291011, 0.10110522781985, 0
265, 0.38514509469847, 0.049228286285609, 0
266, 0.59061899053972, 0.10616085090929, 0
267, 0.53484356658585, 0.1170683553599, 0
268, 0.69443769844265, -0.021358581141809, 0
269, 0.61309034485982, 0.04876043026409, 0
270, 0.73628249249031, 0.13977024091549, 0
271, 0.80240744207058, 0.13427982414955, 0
272, 0.85024766179966, 0.11063430110585, 0
273, 0.72779613736042, 0.02886716197377, 0
274, 0.84415555304182, 0.063390367208765, 0
275, 0.79031258575373, 0.074154404445516, 0
276, 0.94881458001109, 0.10201646458989, 0
277, 0.89843330796335, 0.10531318876755, 0
278, 0.89602332052632, 0.056691849130081, 0
279, 0.94790146480818, 0.052031923229825, 0
280, 0.89125994261768, -0.096431691965449, 0
281, 0.94584961472291, -0.099406531202484, 0
282, 0.94691396800218, 0.0016262634711266, 0
283, 0.94618994342762, -0.048879975138222, 0
284, 0.89366943886126, 0.0063854545028089, 0
285, 0.8920180856664, -0.044838701152664, 0
286, 0.83561656599163, -0.093295241926428, 0
287, 0.77793724473159, -0.089743514386821, 0
288, 0.78046835529675, -0.034172079530079, 0
289, 0.83696321036529, -0.040090471365215, 0
290, 0.83980137152406, 0.012377258256365, 0
291, 0.78452686152873, 0.020132248082469, 0
292, 0.66898945028701, 0.01101342988504, 0
293, 0.60950298985547, -0.013099109354492, 0
294, 0.75880100083434, 0.051752451699061, 0
295, 0.71695800982933, -0.084191660291818, 0
296, 0.7113625741677, -0.15122864071552, 0
297, 0.64729308127113, -0.13248151350844, 0
298, 0.6173039744174, -0.19502415078112, 0
299, 0.68407377656572, -0.20040559508605, 0
300, 0.94590188985778, -0.14991167116395, 0
301, 0.83607139086714, -0.14642625310798, 0
302, 0.89142222118551, -0.14798276837115, 0
303, 0.77877440678293, -0.14600949849903, 0
304, 0.73091939792983, -0.20209610041138, 0
305, 0.78333291101507, -0.19911731596454, 0
306, 0.89229455983195, -0.19910515515655, 0
307, 0.83791893447213, -0.19851062218088, 0
308, 0.94626620294973, -0.20022865918518, 0
309, 0.94681804719496, -0.25022823343925, 0
310, 0.66367872691915, -0.042351829676144, 0
311, 0.62774518843897, -0.046267283473149, 0
312, 0.64073270713528, -0.011474285953107, 0
313, 0.5765717916279, 0.0066095267887759, 0
314, 0.61077936210433, 0.020732838391328, 0
315, 0.55419842309636, 0.062898030511992, 0
316, 0.18260350358375, -0.036952457863858, 0
317, 0.18263018391643, -0.073956331892108, 0
318, 0.15475424678651, -0.055795610239461, 0
319, 0.62233739248801, -0.085757744923712, 0
320, 0.65421937712692, -0.10499456854795, 0
321, 0.62225098207924, -0.12379360980419, 0
322, 0.46754282236091, -0.28502831338059, 0
323, 0.39772525326825, -0.23099005137308, 0
324, 0.61966403052956, -0.22640362033624, 0
325, 0.52823502117598, 0.19124226434328, 0
326, 0.56736192490522, 0.13581375810773, 0
327, 0.39251834587862, -0.18399995937362, 0
328, 0.35750817575563, -0.25915978774765, 0
329, 0.54320311383614, -0.28135483742332, 0
330, 0.7015800651304, 0.0607082672601, 0
331, 0.76159734859264, 0.079332840176305, 0
332, 0.82816211905074, 0.14854786495305, 0
333, 0.85305998222328, 0.13120404908498, 0
334, 0.82732940294358, 0.11630796427385, 0
335, 0.45345214048711, -0.23883616213019, 0
336, 0.52872352784533, 0.092621014564846, 0
337, 0.56275438242563, 0.11148187127569, 0
338, 0.55066228105584, 0.039590680134531, 0
339, 0.73258085649629, 0.083773361455327, 0
340, 0.75626181506784, 0.024435763526454, 0
341, 0.69704574738629, 0.0061401756468031, 0
342, 0.69129951155434, -0.17587268369116, 0
343, 0.72705909583081, -0.1781919370179, 0
344, 0.70777555866145, -0.20391963008693, 0
345, 0.052902418856402, -0.27302736396102, 0
346, 0.079883441503449, -0.24572878242095, 0
347, 0.10607398477473, -0.27274709504777, 0
348, 0.079443057878784, -0.2728777041111, 0
349, 0.97294938320424, -0.10084010356767, 0
350, 0.94596857980002, -0.07414317737736, 0
351, 0.97311098072139, -0.050808219324934, 0
352, 0.97300656840026, -0.075824965213666, 0
353, 0.89416765896571, -0.27487660662683, 0
354, 0.92018278085345, -0.24993835654965, 0
355, 0.94713320972832, -0.27513066418226, 0
356, 0.92065890476507, -0.27498742903684, 0
357, 0.97392662201505, 0.049942120103269, 0
358, 0.94839913144538, 0.077096042684403, 0
359, 0.97435998397058, 0.10061507314472, 0
360, 0.97416287175754, 0.075305817465891, 0
361, 0.15962150595588, 0.27290912091398, 0
362, 0.13361667697252, 0.24543966978388, 0
363, 0.10619181406421, 0.27264184847917, 0
364, 0.13287356569641, 0.2727452212594, 0
365, 0.079998254489592, 0.24513760134525, 0
366, 0.053001354292701, 0.27260379552241, 0
367, 0.079575016340295, 0.27259646996782, 0
368, 0.84113710680062, -0.27478431183314, 0
369, 0.86680342144324, -0.24955847241664, 0
370, 0.86767548293591, -0.2748059666439, 0
371, 0.026665513782817, -0.13846337535896, 0
372, 0.053458843927922, -0.16483750754602, 0
373, 0.02670825531881, -0.19250785119235, 0
374, 0.026705439322418, -0.16547970874081, 0
375, 0.41710761737116, -0.20276540841678, 0
376, 0.50750211969925, -0.26511369033524, 0
377, 0.46046590817692, -0.27101945577261, 0
378, 0.3833977023369, -0.26400641550639, 0
379, 0.68123293716588, -0.27537972763362, 0
380, 0.70738802384213, -0.25085355091739, 0
381, 0.73454995662171, -0.2752837645774, 0
382, 0.70804155925391, -0.27538323935695, 0
383, 0.94605229120643, -0.17510588310585, 0
384, 0.97297418509113, -0.15093150216946, 0
385, 0.97314968297293, -0.20091821257326, 0
386, 0.97304702870699, -0.17594894268419, 0
387, 0.026631567175024, 0.24527708650229, 0
388, 0.026489206783747, 0.27267596926938, 0
389, 0.94582871252066, -0.12467385038537, 0
390, 0.97293997229419, -0.12588687706164, 0
391, 0.053900224081921, 0.1619984669966, 0
392, 0.026976887505419, 0.13390266298076, 0
393, 0.026854630785689, 0.18987298056074, 0
394, 0.026933586992424, 0.1619127796406, 0
395, 0.026570158597652, -0.030991054805925, 0
396, 0.053009348338239, -0.057384696570352, 0
397, 0.026543690649211, -0.08465583755643, 0
398, 0.026530367680731, -0.057837435144541, 0
399, 0.62757507963142, 0.27567531327004, 0
400, 0.67925039898786, 0.27470416472217, 0
401, 0.65389332873929, 0.25020209129056, 0
402, 0.65318964467753, 0.27515720243641, 0
403, 0.56987020685464, -0.2798516560901, 0
404, 0.36409861293847, -0.23937548178878, 0
405, 0.4526179660312, -0.25841647864211, 0
406, 0.54243383574229, -0.21063108439559, 0
407, 0.02677096638135, 0.023149549636651, 0
408, 0.053316013723826, -0.0037068709768611, 0
409, 0.026663206223634, -0.0039950160133347, 0
410, 0.94906798436238, 0.12678124102607, 0
411, 0.9745150933895, 0.15090437114544, 0
412, 0.97448380452659, 0.12579581328006, 0
413, 0.94650693943621, -0.023626296880081, 0
414, 0.97345536896588, -0.00062873908579431, 0
415, 0.97326247648944, -0.025744135458517, 0
416, 0.94898558969336, 0.17617651669996, 0
417, 0.97435863138862, 0.20094937462637, 0
418, 0.97446481923322, 0.17594888101365, 0
419, 0.62560176954777, -0.27633874821105, 0
420, 0.65239074863299, -0.25066954393559, 0
421, 0.65371000422035, -0.27555722852687, 0
422, 0.026567964261813, -0.24636255788464, 0
423, 0.026436523341214, -0.27319379023047, 0
424, 0.27012798832117, -0.27418553426621, 0
425, 0.30211334622333, -0.25083662092074, 0
426, 0.32497018473524, -0.2771714864226, 0
427, 0.29765734647811, -0.27544254177424, 0
428, 0.21343844702998, 0.27345156072811, 0
429, 0.18758653932679, 0.24621965494401, 0
430, 0.18647734523777, 0.273139193616, 0
431, 0.75990890795756, -0.25021707413374, 0
432, 0.7877810264363, -0.27493723590714, 0
433, 0.76111976932074, -0.27510578420213, 0
434, 0.053198377345032, -0.11089515280608, 0
435, 0.026601657473528, -0.11152682190465, 0
436, 0.55701903943642, -0.24220497792395, 0
437, 0.57004483322864, -0.1977380084971, 0
438, 0.60338807005689, 0.25241798248478, 0
439, 0.57855181579394, 0.27689242669269, 0
440, 0.60255598384755, 0.27627018258112, 0
441, 0.78800219682153, 0.27411092496178, 0
442, 0.7617113344403, 0.24793937735007, 0
443, 0.73289675649978, 0.27412144830927, 0
444, 0.76041673994374, 0.27403191499422, 0
445, 0.054021587277171, 0.10624400199387, 0
446, 0.026951812798079, 0.078113740455096, 0
447, 0.026988243343838, 0.1059595170028, 0
448, 0.13378498004953, -0.24522287338796, 0
449, 0.1598472141972, -0.27259761185019, 0
450, 0.1328603358843, -0.27264430060188, 0
451, 0.053797205867291, 0.050850071727407, 0
452, 0.026878058135319, 0.050543576852961, 0
453, 0.81324665515904, -0.24959232662138, 0
454, 0.81446558833529, -0.27482576978168, 0
455, 0.8699095079397, 0.24971985280586, 0
456, 0.84246137432881, 0.27459026100399, 0
457, 0.89559185115301, 0.27500466192658, 0
458, 0.86913628050083, 0.2748283927843, 0
459, 0.18882488483918, -0.24514106429881, 0
460, 0.21476478458493, -0.27287460820218, 0
461, 0.18720768111285, -0.27265019680579, 0
462, 0.24518757766155, -0.24647506081934, 0
463, 0.24243263130957, -0.27335479807718, 0
464, 0.37791990140707, -0.28165690040065, 0
465, 0.42593503612223, -0.28582670004118, 0
466, 0.29598154689516, 0.25005132832228, 0
467, 0.2678281207017, 0.27440221779787, 0
468, 0.3217146766911, 0.27582599019372, 0
469, 0.2949227995445, 0.27505747840914, 0
470, 0.4509278566457, -0.20556925890647, 0
471, 0.4277003956059, -0.27219658487482, 0
472, 0.94845842145151, 0.2256751444365, 0
473, 0.9741050947235, 0.25063232570399, 0
474, 0.97423021339315, 0.22582038974608, 0
475, 0.2419068555997, 0.2476796045992, 0
476, 0.24063114206782, 0.27387425959544, 0
477, 0.94797322378717, 0.27522814718652, 0
478, 0.97400238534009, 0.27533077331973, 0
479, 0.44411045723353, -0.27407235640916, 0
480, 0.94738873226771, 0.026859945583209, 0
481, 0.97368244126246, 0.024636966079233, 0
482, 0.8165397716353, 0.24863046827283, 0
483, 0.81536092428425, 0.27432231726688, 0
484, 0.053373199845683, -0.2189897444007, 0
485, 0.026660854985513, -0.21945832923794, 0
486, 0.37325977837154, 0.27757936959043, 0
487, 0.34783248777039, 0.27668293544195, 0
488, 0.55729783227102, 0.25493683344489, 0
489, 0.4605057210997, 0.27963945583903, 0
490, 0.49814667914272, 0.27914238196531, 0
491, 0.47936503035558, 0.27950004328283, 0
492, 0.83898046785857, -0.22410864984501, 0
493, 0.86516166836734, -0.19871600423078, 0
494, 0.89287821893226, -0.22446525778052, 0
495, 0.86596105589786, -0.22421164936144, 0
496, 0.70694201687217, 0.24857927621582, 0
497, 0.70588627665073, 0.27435110052398, 0
498, 0.1614195317282, 0.21850338643862, 0
499, 0.13491057145064, 0.1905052595604, 0
500, 0.1072945983251, 0.217748926318, 0
501, 0.13431020533552, 0.21804995908231, 0
502, 0.36016561498396, 0.15782003524721, 0
503, 0.42058312324867, 0.2791169537471, 0
504, 0.39753981262987, 0.27842704554708, 0
505, 0.53663575103164, 0.27810794223825, 0
506, 0.38025071518431, 0.18769777257086, 0
507, 0.51716697011269, 0.27866584379464, 0
508, 0.079566211034944, -0.030412049476572, 0
509, 0.10546801862747, -0.056546950490434, 0
510, 0.079494024575253, -0.083457803033898, 0
511, 0.079377533880568, -0.056951898451389, 0
512, 0.053541950289195, 0.21755360459184, 0
513, 0.026755231408565, 0.21764378480665, 0
514, 0.91873428790406, -0.14892463288273, 0
515, 0.89122962043034, -0.12224765622707, 0
516, 0.91864036056288, -0.097941602407289, 0
517, 0.91861175228465, -0.12345928844313, 0
518, 0.080416294900412, 0.023521665208981, 0
519, 0.10660195137491, -0.0038299478693777, 0
520, 0.079968948417092, -0.003611734011378, 0
521, 0.42346750805151, 0.19924985164003, 0
522, 0.44107804533985, 0.27951795028315, 0
523, 0.97341872736295, -0.25057850057251, 0
524, 0.97357346584774, -0.27530333295989, 0
525, 0.92345787011533, 0.10354393228507, 0
526, 0.92193040331977, 0.054212073964461, 0
527, 0.89729925695151, 0.081240855740335, 0
528, 0.9227579108325, 0.07902066047248, 0
529, 0.68117463311829, -0.22555463831537, 0
530, 0.73252640255984, -0.22618936984749, 0
531, 0.70724523816688, -0.22670012495933, 0
532, 0.45703283780692, 0.020238539154039, 0
533, 0.55700642947058, 0.27749891692067, 0
534, 0.8915217277329, -0.07061412755733, 0
535, 0.9191790178063, -0.046912249901001, 0
536, 0.91882957316617, -0.07241319138271, 0
537, 0.83820410459478, -0.013742694460457, 0
538, 0.86685705259822, 0.0091723133418985, 0
539, 0.89274229796926, -0.019143468535047, 0
540, 0.86464000238039, -0.042581827045631, 0
541, 0.86561034308633, -0.016589933937465, 0
542, 0.94652608506188, -0.2252655555204, 0
543, 0.97327597574814, -0.22578066982297, 0
544, 0.92221186237282, 0.25029148116371, 0
545, 0.92183349118324, 0.27513139180553, 0
546, 0.79596218154125, 0.16707775987053, 0
547, 0.76704352982119, 0.13712831621781, 0
548, 0.73643871449238, 0.1677557003071, 0
549, 0.7643930234404, 0.19458081969009, 0
550, 0.76588285491201, 0.16664297867341, 0
551, 0.86362001739801, -0.094888460588202, 0
552, 0.83608480510442, -0.066637668024349, 0
553, 0.86397274342493, -0.068694095404073, 0
554, 0.78710912267048, 0.047053304216908, 0
555, 0.81775195483844, 0.06822996965235, 0
556, 0.84176600831453, 0.038140653048214, 0
557, 0.81238217841721, 0.01602807649608, 0
558, 0.81475409246831, 0.042307902880644, 0
559, 0.89911500964909, 0.12893771991513, 0
560, 0.92390845347196, 0.15204773024539, 0
561, 0.92387987509776, 0.12783627297256, 0
562, 0.92033257802068, 0.0039109785393423, 0
563, 0.91968384878658, -0.021463129517681, 0
564, 0.74788848558224, -0.087480671165144, 0
565, 0.72002815654227, -0.054659822357687, 0
566, 0.67304263601129, 0.065229696380876, 0
567, 0.778942426033, -0.061785338509859, 0
568, 0.74962145831778, -0.05866018577989, 0
569, 0.21594006934683, 0.22008475206844, 0
570, 0.18965966191006, 0.19190654718881, 0
571, 0.18865042213318, 0.21917715053288, 0
572, 0.16294787333751, 0.16344202727343, 0
573, 0.21845984204283, 0.16568348117888, 0
574, 0.19150177731157, 0.13645219361483, 0
575, 0.19062075371431, 0.16434949253617, 0
576, 0.87013727003763, 0.059645637923803, 0
577, 0.84702212197555, 0.087787316228031, 0
578, 0.87394188604495, 0.10750754586455, 0
579, 0.87207135892737, 0.084017197615914, 0
580, 0.67624147500431, -0.14037347128596, 0
581, 0.68552550289753, -0.078909347787421, 0
582, 0.71448730260945, -0.11555489100485, 0
583, 0.68264588870536, -0.10995778582902, 0
584, 0.79079747399971, 0.22190983312694, 0
585, 0.7351740407463, 0.22181099134039, 0
586, 0.76300725673404, 0.22153438061222, 0
587, 0.13183580661928, -0.030903296015441, 0
588, 0.13176884190847, -0.081393629615618, 0
589, 0.13092333229467, -0.056159831942018, 0
590, 0.89844208704767, 0.1763796377193, 0
591, 0.92317125214826, 0.20086275354505, 0
592, 0.92362624904327, 0.17637281222976, 0
593, 0.87469567625098, 0.15262680450306, 0
594, 0.87517945164202, 0.13007984541653, 0
595, 0.55427047235903, 0.20984098412146, 0
596, 0.53472755226641, 0.23445325963774, 0
597, 0.43892814872137, 0.22106732465655, 0
598, 0.5227970217713, 0.16952113012908, 0
599, 0.21876833934174, -0.2176950246858, 0
600, 0.25029039231837, -0.19028296348373, 0
601, 0.27736571328165, -0.22145929361542, 0
602, 0.24788179440746, -0.21894943721036, 0
603, 0.35413055152714, -0.09834451897571, 0
604, 0.38763379498223, -0.065929209432407, 0
605, 0.38729419228692, -0.1407650898267, 0
606, 0.38118650588758, -0.10402810999154, 0
607, 0.080346242603102, -0.19132530372478, 0
608, 0.10719539025256, -0.21809880343945, 0
609, 0.080195580714128, -0.21853985883775, 0
610, 0.49164062087033, 0.1549817689522, 0
611, 0.5437458098593, -0.0018799492885148, 0
612, 0.47576371849231, 0.2397829554765, 0
613, 0.10640847718776, -0.10911796045502, 0
614, 0.080109858822728, -0.13703875414182, 0
615, 0.079800930884628, -0.11012872978219, 0
616, 0.59418267906126, -0.036117002173744, 0
617, 0.57033521212864, -0.015269630030321, 0
618, 0.59604990812162, -0.17660755299941, 0
619, 0.35179286516444, -0.2793129494363, 0
620, 0.89478043988088, 0.031700794963118, 0
621, 0.86837223409348, 0.034625610474099, 0
622, 0.75649812880855, -0.20025952278737, 0
623, 0.78506483359615, -0.22461271617378, 0
624, 0.75848113504766, -0.22530966589198, 0
625, 0.13477785737107, -0.19003640357086, 0
626, 0.1620649509409, -0.21737379417453, 0
627, 0.13444766582872, -0.21769029029186, 0
628, 0.41317916051592, 0.089492340303035, 0
629, 0.42001579826643, 0.21815504383553, 0
630, 0.55636633632972, 0.23239161731336, 0
631, 0.51662126360492, -0.28230290936931, 0
632, 0.37193927247, -0.21996493669137, 0
633, 0.68055505648232, 0.22370566105258, 0
634, 0.65361946208599, 0.19978773861115, 0
635, 0.62821238347997, 0.22668743326637, 0
636, 0.65404938775162, 0.22509349523081, 0
637, 0.92109740481548, 0.029160276593717, 0
638, 0.13454490034839, 0.022761516310709, 0
639, 0.1601342027492, -0.0062245217930567, 0
640, 0.13326466377808, -0.0045608975442622, 0
641, 0.6103520201729, -0.062416674311327, 0
642, 0.60205799154207, 0.20439766333979, 0
643, 0.57917789542009, 0.2303885042322, 0
644, 0.60319075041023, 0.22848703212014, 0
645, 0.37302586413661, 0.2550976555636, 0
646, 0.36616489917931, 0.13251857952704, 0
647, 0.47003683148703, -0.25238614087216, 0
648, 0.42719336387441, -0.19109122380754, 0
649, 0.2705079703111, 0.22290762146973, 0
650, 0.24475348724829, 0.19464658084517, 0
651, 0.24326082845077, 0.22130760036457, 0
652, 0.081113414024068, 0.13432289349927, 0
653, 0.10846119334654, 0.10667076904006, 0
654, 0.08104363212784, 0.078639006785419, 0
655, 0.081158778309967, 0.10646587314806, 0
656, 0.81059906625411, -0.19858981591738, 0
657, 0.81197390839003, -0.22422122447501, 0
658, 0.45884217729712, -0.00053221878197231, 0
659, 0.43173753075945, -0.013733579316096, 0
660, 0.43845719200957, 0.23967419973607, 0
661, 0.40957007076336, 0.17281123697371, 0
662, 0.47138387900385, 0.16519436883264, 0
663, 0.45598631022469, 0.20660175779225, 0
664, 0.3903242129569, 0.01990409706346, 0
665, 0.31218801733597, -0.19897129779783, 0
666, 0.35121481258591, -0.18173280153288, 0
667, 0.30697097147715, -0.22562019527404, 0
668, 0.10799324067246, 0.050928067771747, 0
669, 0.080799430010494, 0.050970020827021, 0
670, 0.27431049832304, 0.17013733788378, 0
671, 0.24819483824346, 0.1399865657391, 0
672, 0.24642411805857, 0.16759920313511, 0
673, 0.62599389068537, 0.17711384797089, 0
674, 0.41922949073473, 0.15177448125894, 0
675, 0.57504257235637, 0.18353708079324, 0
676, 0.60009588632351, 0.18020069353823, 0
677, 0.67988889978175, 0.17175465856269, 0
678, 0.65107302590427, 0.14854074316345, 0
679, 0.65261542888197, 0.17429573376321, 0
680, 0.50079907334564, 0.17553910532811, 0
681, 0.39915600609863, 0.21433329851504, 0
682, 0.44096619888979, 0.2040682606151, 0
683, 0.45640591772874, 0.22230258819416, 0
684, 0.50663814176892, 0.12356780644801, 0
685, 0.51606227669317, 0.25746602883005, 0
686, 0.47758504237881, 0.25933736842178, 0
687, 0.51601230207785, 0.005000588836532, 0
688, 0.13591841991971, 0.078803799873668, 0
689, 0.16339527206722, 0.050271933820814, 0
690, 0.13545116830648, 0.050675535788802, 0
691, 0.22083325585907, 0.10940057454772, 0
692, 0.27921195673803, 0.11485110973291, 0
693, 0.25143967564427, 0.082195278355195, 0
694, 0.24992216490645, 0.11159232316694, 0
695, 0.78116617428748, -0.17305843657534, 0
696, 0.80780295160561, -0.14597185577019, 0
697, 0.83690748380266, -0.17262867014951, 0
698, 0.80913810481163, -0.17255417151014, 0
699, 0.10734569064445, -0.16331353251033, 0
700, 0.080307292216375, -0.16413577843164, 0
701, 0.82018423548782, 0.19722331848597, 0
702, 0.84472001735996, 0.22397400207228, 0
703, 0.81807478913069, 0.22291597659198, 0
704, 0.29944954600734, 0.19938476990229, 0
705, 0.32388279368579, 0.22718594070929, 0
706, 0.29745752319009, 0.2248658709835, 0
707, 0.63614756765091, -0.16071377362826, 0
708, 0.61235859719938, -0.14907412869335, 0
709, 0.080704664044208, 0.18993123917532, 0
710, 0.080377031660347, 0.21758658715854, 0
711, 0.1910346247833, -0.1889292835578, 0
712, 0.19015574965449, -0.21729005268999, 0
713, 0.70794278081749, 0.19625145935305, 0
714, 0.70763456764363, 0.22259026451595, 0
715, 0.43321927335957, 0.12951273651387, 0
716, 0.35535524703518, 0.18225655129143, 0
717, 0.13411028594267, -0.13475745000204, 0
718, 0.16254013176653, -0.16117518638686, 0
719, 0.13469525906582, -0.16232656945727, 0
720, 0.30507070236602, 0.14687717063356, 0
721, 0.32914145842983, 0.17751194710707, 0
722, 0.30201389305708, 0.17347214440342, 0
723, 0.70710548788653, 0.1425057014802, 0
724, 0.70781078544057, 0.16955896532561, 0
725, 0.5926350459536, -0.25632022242562, 0
726, 0.48155568803976, -0.26754522919686, 0
727, 0.40696098713901, -0.21610869616716, 0
728, 0.15994088460042, -0.10526562913015, 0
729, 0.13305931244801, -0.10764279753503, 0
730, 0.49460375341797, 0.23839309631638, 0
731, 0.496611702938, 0.25855255290683, 0
732, 0.52403788374518, 0.068272441526782, 0
733, 0.39659506443556, 0.25685662241534, 0
734, 0.51557992751761, 0.14720283553469, 0
735, 0.19239168650425, 0.079211152098066, 0
736, 0.22180360564593, 0.050002465705018, 0
737, 0.19074362288109, 0.020092300598136, 0
738, 0.19207417739266, 0.049867070652381, 0
739, 0.54107714067618, 0.14102776535751, 0
740, 0.4265633626236, 0.0087471071018705, 0
741, 0.73477380361123, 0.11160729586361, 0
742, 0.6771554042956, 0.11880413451666, 0
743, 0.70567758313095, 0.11522076568246, 0
744, 0.39710128792008, 0.23548054462974, 0
745, 0.3937727989106, 0.14131638821437, 0
746, 0.44026142477148, 0.16415502480138, 0
747, 0.19025768612458, -0.13052717360587, 0
748, 0.19119104097723, -0.15997638724407, 0
749, 0.31219132741141, 0.09069802780773, 0
750, 0.33760171245667, 0.12524594881281, 0
751, 0.30851814535575, 0.11936823137124, 0
752, 0.13582917161534, 0.13495979893355, 0
753, 0.16388526445626, 0.10735336040468, 0
754, 0.13599813617377, 0.10692074179777, 0
755, 0.64232710227199, 0.043095831744561, 0
756, 0.73019392229156, 0.056263691018395, 0
757, 0.64077497270335, 0.015701388273053, 0
758, 0.55101483060284, 0.18721471492076, 0
759, 0.38597885238786, 0.16484414715918, 0
760, 0.4296799649435, 0.18123948156822, 0
761, 0.10811416212826, 0.16241403867498, 0
762, 0.08095226292798, 0.1621610314439, 0
763, 0.1921405580621, 0.10808648584771, 0
764, 0.43919145435846, 0.25929447315147, 0
765, 0.49185694796297, 0.2189139658166, 0
766, 0.51130759809846, 0.21592952328304, 0
767, 0.13543812636439, 0.16281880083295, 0
768, 0.40699470584228, -0.034936973714487, 0
769, 0.45503206603513, 0.071015347914532, 0
770, 0.91932310637134, -0.19961975325773, 0
771, 0.91973094259046, -0.22482391103899, 0
772, 0.47090992602482, 0.20433502026509, 0
773, 0.61578530524841, 0.075210643183876, 0
774, 0.58026575999754, 0.031202802434944, 0
775, 0.65527560585997, -0.19672495353085, 0
776, 0.65227327247147, -0.22463455709262, 0
777, 0.40311992367606, 0.19347773854221, 0
778, 0.4454706085328, 0.18915595847028, 0
779, 0.5181257723277, 0.023917772987356, 0
780, 0.54658119885257, 0.16431602028223, 0
781, 0.89684566522386, 0.22524861163084, 0
782, 0.92267181376338, 0.22551561553982, 0
783, 0.80711602871974, -0.091606164541625, 0
784, 0.80891102872847, -0.037326726936156, 0
785, 0.80776824620885, -0.064365565271379, 0
786, 0.89179328534659, -0.17361229580156, 0
787, 0.91898183654812, -0.17431659117405, 0
788, 0.64682774891302, 0.096436268126641, 0
789, 0.62142880968174, 0.12669339640163, 0
790, 0.64908913993614, 0.12257960321451, 0
791, 0.28668147530393, -0.013591675272001, 0
792, 0.31901822754745, 0.027805240914012, 0
793, 0.35724076986131, 0.0020861328625098, 0
794, 0.32362535119437, -0.049868262378701, 0
795, 0.32186068771212, -0.0083526192431499, 0
796, 0.86389536706885, -0.14713574609455, 0
797, 0.86445011328194, -0.17302229385879, 0
798, 0.64448088263271, 0.069948861722267, 0
799, 0.87211765029239, 0.20009887810407, 0
800, 0.87090699116412, 0.22476368188798, 0
801, 0.78233508773593, -0.0069168530143552, 0
802, 0.81045448453205, -0.010528845029262, 0
803, 0.48741478890319, 0.0056139076797345, 0
804, 0.75392008221972, -0.0029153848049773, 0
805, 0.72539589516902, 0.0014154335044727, 0
806, 0.84860432672544, 0.17472475739639, 0
807, 0.87346722346486, 0.17596696063411, 0
808, 0.51418361066785, 0.23651095638883, 0
809, 0.54732535973834, 0.017785538814368, 0
810, 0.83561327694324, -0.11992937273715, 0
811, 0.86359985062085, -0.1210638395428, 0
812, 0.28395230095579, 0.054867707444197, 0
813, 0.25287388994428, 0.019086664991842, 0
814, 0.25255416632819, 0.051536069862011, 0
815, 0.28656106208214, -0.091853965490492, 0
816, 0.3212419091739, -0.093769333278457, 0
817, 0.25032057368122, -0.053678069305768, 0
818, 0.25206170535245, -0.15990036521568, 0
819, 0.21789640867929, -0.094278172616214, 0
820, 0.25189490878354, -0.091849645715704, 0
821, 0.77775466706143, -0.11797049571474, 0
822, 0.74805475027502, -0.14706223724753, 0
823, 0.74706757906651, -0.11709631260267, 0
824, 0.21816967883702, -0.01510846019416, 0
825, 0.25210226243186, -0.015756320378145, 0
826, 0.79470969483343, 0.10218612721063, 0
827, 0.67517794540816, 0.092087692316257, 0
828, 0.7645811999129, 0.10759853340976, 0
829, 0.48164726730045, 0.1824998255717, 0
830, 0.46629335966833, 0.18948501902477, 0
831, 0.58704488753374, 0.081160621824221, 0
832, 0.34764136305426, 0.068228483433276, 0
833, 0.3157255642554, 0.06035418032541, 0
834, 0.82172936187433, 0.093355123534078, 0
835, 0.67093895734868, 0.03819131806437, 0
836, 0.75170482653579, -0.030542888765498, 0
837, 0.18788144243761, -0.0095173815006905, 0
838, 0.53620078622826, 0.2562319295807, 0
839, 0.75330395813907, -0.17461658798018, 0
840, 0.25271848915385, -0.1272251359677, 0
841, 0.2204893218058, -0.12786257852421, 0
842, 0.28632047662645, -0.12915668030758, 0
843, 0.8233057242827, 0.17192105143777, 0
844, 0.18765339076616, -0.10119095827534, 0
845, 0.80709828120966, -0.1188824909294, 0
846, 0.66703685655981, -0.015979659298793, 0
847, 0.58361538578693, 0.056102786437594, 0
848, 0.38986375810643, -0.24705537090609, 0
849, 0.33617776697386, -0.23170003514521, 0
850, 0.66471916510976, -0.16827064548804, 0
851, 0.49164430419204, 0.071670600443087, 0
852, 0.47370800358705, 0.22130760560648, 0
853, 0.53593124823161, -0.26353554483916, 0
854, 0.49104690273532, -0.28342045325578, 0
855, 0.44159080330356, -0.21662779215504, 0
856, 0.69084914025323, -0.049303127232816, 0
857, 0.28425923904143, -0.1629130294943, 0
858, 0.3518571655634, 0.20621467031265, 0
859, 0.41857606960198, 0.23795917267768, 0
860, 0.4808576665613, -0.21570155577584, 0
861, 0.38133374621249, -0.20122528114323, 0
862, 0.41849876007516, 0.061109154731793, 0
863, 0.64333299329071, -0.033499110473384, 0
864, 0.48784890238323, 0.20025747052665, 0
865, 0.1741799849473, -0.055523150536065, 0
866, 0.63241983971744, -0.10439072699926, 0
867, 0.44656747243537, -0.28654287532165, 0
868, 0.37966227729417, 0.078168035924921, 0
869, 0.43022847884073, -0.22793107070251, 0
870, 0.69934271150831, 0.033462965787583, 0
871, 0.83538355190325, 0.13211619248078, 0
872, 0.36136709685378, -0.14787592757987, 0
873, 0.34822081855538, 0.25329392858448, 0
874, 0.72286620849979, -0.026315183294819, 0
875, 0.70874701538264, -0.18528985500808, 0
876, 0.4891656129418, 0.047121214830538, 0
877, 0.55822093930854, 0.087050401815254, 0
878, 0.41276397016766, -0.25389752917895, 0
879, 0.42048458886751, -0.24035781769182, 0
880, 0.37301530876073, 0.10608441621498, 0
881, 0.58687869252683, -0.23508164963214, 0
882, 0.57963478201065, -0.21496998151752, 0
883, 0.54966446171389, -0.22547569168059, 0
884, 0.51968191326369, -0.23107945003152, 0
885, 0.4426445905461, -0.26401826442818, 0
886, 0.43131501252173, -0.25963493461731, 0
887, 0.49608694194499, -0.24805633887279, 0
888, 0.47845812725027, -0.22997335683173, 0
******* E L E M E N T S *************
*ELEMENT, type=T3D2, ELSET=Line1
1, 1, 10
2, 10, 18
3, 18, 11
4, 11, 19
5, 19, 12
6, 12, 20
7, 20, 13
8, 13, 21
9, 21, 14
10, 14, 22
11, 22, 15
12, 15, 23
13, 23, 16
14, 16, 24
15, 24, 17
16, 17, 2
*ELEMENT, type=T3D2, ELSET=Line2
17, 2, 25
18, 25, 28
19, 28, 26
20, 26, 29
21, 29, 27
22, 27, 3
*ELEMENT, type=T3D2, ELSET=Line3
23, 3, 30
24, 30, 38
25, 38, 31
26, 31, 39
27, 39, 32
28, 32, 40
29, 40, 33
30, 33, 41
31, 41, 34
32, 34, 42
33, 42, 35
34, 35, 43
35, 43, 36
36, 36, 44
37, 44, 37
38, 37, 4
*ELEMENT, type=T3D2, ELSET=Line4
39, 4, 45
40, 45, 57
41, 57, 46
42, 46, 58
43, 58, 47
44, 47, 59
45, 59, 48
46, 48, 60
47, 60, 49
48, 49, 61
49, 61, 50
50, 50, 62
51, 62, 51
52, 51, 63
53, 63, 52
54, 52, 64
55, 64, 53
56, 53, 65
57, 65, 54
58, 54, 66
59, 66, 55
60, 55, 67
61, 67, 56
62, 56, 5
*ELEMENT, type=T3D2, ELSET=Line5
63, 5, 68
64, 68, 76
65, 76, 69
66, 69, 77
67, 77, 70
68, 70, 78
69, 78, 71
70, 71, 79
71, 79, 72
72, 72, 80
73, 80, 73
74, 73, 81
75, 81, 74
76, 74, 82
77, 82, 75
78, 75, 6
*ELEMENT, type=T3D2, ELSET=Line6
79, 6, 83
80, 83, 87
81, 87, 84
82, 84, 88
83, 88, 85
84, 85, 89
85, 89, 86
86, 86, 7
*ELEMENT, type=T3D2, ELSET=Line7
87, 7, 90
88, 90, 98
89, 98, 91
90, 91, 99
91, 99, 92
92, 92, 100
93, 100, 93
94, 93, 101
95, 101, 94
96, 94, 102
97, 102, 95
98, 95, 103
99, 103, 96
100, 96, 104
101, 104, 97
102, 97, 8
*ELEMENT, type=T3D2, ELSET=Line8
103, 8, 105
104, 105, 116
105, 116, 106
106, 106, 117
107, 117, 107
108, 107, 118
109, 118, 108
110, 108, 119
111, 119, 109
112, 109, 120
113, 120, 110
114, 110, 121
115, 121, 111
116, 111, 122
117, 122, 112
118, 112, 123
119, 123, 113
120, 113, 124
121, 124, 114
122, 114, 125
123, 125, 115
124, 115, 1
*ELEMENT, type=T3D2, ELSET=Line9
125, 9, 126
126, 126, 137
127, 137, 127
128, 127, 138
129, 138, 128
130, 128, 139
131, 139, 129
132, 129, 140
133, 140, 130
134, 130, 141
135, 141, 131
136, 131, 142
137, 142, 132
138, 132, 143
139, 143, 133
140, 133, 144
141, 144, 134
142, 134, 145
143, 145, 135
144, 135, 146
145, 146, 136
146, 136, 9
*ELEMENT, type=CPS4, ELSET=Surface1
147, 18, 11, 348, 345
148, 345, 348, 346, 150
149, 348, 347, 151, 346
150, 11, 19, 347, 348
151, 60, 49, 352, 349
152, 349, 352, 350, 281
153, 352, 351, 283, 350
154, 49, 61, 351, 352
155, 44, 355, 356, 36
156, 36, 356, 353, 43
157, 356, 354, 166, 353
158, 355, 309, 354, 356
159, 63, 52, 360, 357
160, 357, 360, 358, 279
161, 360, 359, 276, 358
162, 52, 64, 359, 360
163, 102, 95, 364, 361
164, 361, 364, 362, 178
165, 364, 363, 177, 362
166, 95, 103, 363, 364
167, 103, 96, 367, 363
168, 363, 367, 365, 177
169, 367, 366, 176, 365
170, 96, 104, 366, 367
171, 166, 369, 370, 353
172, 353, 370, 35, 43
173, 370, 368, 42, 35
174, 369, 165, 368, 370
175, 123, 113, 374, 371
176, 371, 374, 372, 222
177, 374, 373, 216, 372
178, 113, 124, 373, 374
179, 378, 464, 232, 155
180, 631, 854, 26, 29
181, 647, 405, 377, 726
182, 335, 869, 879, 230
183, 39, 32, 382, 379
184, 379, 382, 380, 162
185, 382, 381, 163, 380
186, 32, 40, 381, 382
187, 308, 385, 386, 383
188, 383, 386, 384, 300
189, 386, 47, 59, 384
190, 385, 58, 47, 386
191, 104, 97, 388, 366
192, 366, 388, 387, 176
193, 388, 105, 116, 387
194, 97, 8, 105, 388
195, 59, 48, 390, 384
196, 384, 390, 389, 300
197, 390, 349, 281, 389
198, 48, 60, 349, 390
199, 173, 393, 394, 391
200, 391, 394, 392, 172
201, 394, 107, 118, 392
202, 393, 117, 107, 394
203, 121, 111, 398, 395
204, 395, 398, 396, 224
205, 398, 397, 225, 396
206, 111, 122, 397, 398
207, 252, 401, 402, 399
208, 399, 402, 74, 82
209, 402, 400, 81, 74
210, 401, 253, 400, 402
211, 324, 881, 725, 161
212, 230, 879, 878, 886
213, 888, 335, 647, 887
214, 327, 147, 605, 872
215, 224, 408, 409, 395
216, 395, 409, 110, 121
217, 409, 407, 120, 110
218, 408, 213, 407, 409
219, 64, 53, 412, 359
220, 359, 412, 410, 276
221, 412, 411, 243, 410
222, 53, 65, 411, 412
223, 283, 351, 415, 413
224, 413, 415, 414, 282
225, 415, 50, 62, 414
226, 351, 61, 50, 415
227, 65, 54, 418, 411
228, 411, 418, 416, 243
229, 418, 417, 246, 416
230, 54, 66, 417, 418
231, 38, 31, 421, 419
232, 419, 421, 420, 161
233, 421, 379, 162, 420
234, 31, 39, 379, 421
235, 125, 115, 423, 422
236, 422, 423, 345, 150
237, 423, 10, 18, 345
238, 115, 1, 10, 423
239, 22, 15, 427, 424
240, 424, 427, 425, 154
241, 427, 426, 157, 425
242, 15, 23, 426, 427
243, 101, 94, 430, 428
244, 428, 430, 429, 179
245, 430, 361, 178, 429
246, 94, 102, 361, 430
247, 41, 432, 433, 33
248, 33, 433, 381, 40
249, 433, 431, 163, 381
250, 432, 164, 431, 433
251, 225, 397, 435, 434
252, 434, 435, 371, 222
253, 435, 112, 123, 371
254, 397, 122, 112, 435
255, 155, 232, 465, 471
256, 849, 157, 328, 404
257, 404, 328, 378, 848
258, 886, 471, 479, 885
259, 82, 75, 440, 399
260, 399, 440, 438, 252
261, 440, 439, 158, 438
262, 75, 6, 439, 440
263, 79, 72, 444, 441
264, 441, 444, 442, 250
265, 444, 443, 251, 442
266, 72, 80, 443, 444
267, 118, 108, 447, 392
268, 392, 447, 445, 172
269, 447, 446, 210, 445
270, 108, 119, 446, 447
271, 20, 449, 450, 12
272, 12, 450, 347, 19
273, 450, 448, 151, 347
274, 449, 152, 448, 450
275, 119, 109, 452, 446
276, 446, 452, 451, 210
277, 452, 407, 213, 451
278, 109, 120, 407, 452
279, 165, 453, 454, 368
280, 368, 454, 34, 42
281, 454, 432, 41, 34
282, 453, 164, 432, 454
283, 249, 457, 458, 455
284, 455, 458, 456, 248
285, 458, 70, 78, 456
286, 457, 77, 70, 458
287, 152, 449, 461, 459
288, 459, 461, 460, 153
289, 461, 13, 21, 460
290, 449, 20, 13, 461
291, 21, 14, 463, 460
292, 460, 463, 462, 153
293, 463, 424, 154, 462
294, 14, 22, 424, 463
295, 888, 860, 470, 855
296, 887, 647, 726, 376
297, 855, 375, 727, 869
298, 231, 887, 376, 853
299, 181, 468, 469, 466
300, 466, 469, 467, 180
301, 469, 92, 100, 467
302, 468, 99, 92, 469
303, 148, 853, 329, 403
304, 725, 148, 403, 160
305, 230, 886, 885, 405
306, 375, 327, 861, 727
307, 66, 55, 474, 417
308, 417, 474, 472, 246
309, 474, 473, 247, 472
310, 55, 67, 473, 474
311, 179, 475, 476, 428
312, 428, 476, 93, 101
313, 476, 467, 100, 93
314, 475, 180, 467, 476
315, 67, 56, 478, 473
316, 473, 478, 477, 247
317, 478, 68, 76, 477
318, 56, 5, 68, 478
319, 426, 23, 16, 619
320, 376, 726, 854, 631
321, 881, 436, 148, 725
322, 322, 867, 25, 28
323, 282, 414, 481, 480
324, 480, 481, 357, 279
325, 481, 51, 63, 357
326, 414, 62, 51, 481
327, 248, 456, 483, 482
328, 482, 483, 441, 250
329, 483, 71, 79, 441
330, 456, 78, 71, 483
331, 124, 114, 485, 373
332, 373, 485, 484, 216
333, 485, 422, 150, 484
334, 114, 125, 422, 485
335, 99, 468, 487, 91
336, 91, 487, 486, 98
337, 184, 610, 662, 185
338, 803, 139, 128, 687
339, 195, 715, 191, 628
340, 880, 646, 750, 196
341, 491, 85, 89, 489
342, 490, 88, 85, 491
343, 165, 369, 495, 492
344, 492, 495, 493, 307
345, 495, 494, 306, 493
346, 369, 166, 494, 495
347, 80, 73, 497, 443
348, 443, 497, 496, 251
349, 497, 400, 253, 496
350, 73, 81, 400, 497
351, 178, 362, 501, 498
352, 498, 501, 499, 174
353, 501, 500, 175, 499
354, 362, 177, 500, 501
355, 201, 851, 732, 336
356, 597, 683, 188, 660
357, 504, 90, 98, 486
358, 503, 7, 90, 504
359, 87, 84, 507, 505
360, 772, 852, 683, 663
361, 267, 337, 326, 739
362, 84, 88, 490, 507
363, 224, 396, 511, 508
364, 508, 511, 509, 223
365, 511, 510, 226, 509
366, 396, 225, 510, 511
367, 176, 387, 513, 512
368, 512, 513, 393, 173
369, 513, 106, 117, 393
370, 387, 116, 106, 513
371, 300, 389, 517, 514
372, 514, 517, 515, 302
373, 517, 516, 280, 515
374, 389, 281, 516, 517
375, 213, 408, 520, 518
376, 518, 520, 519, 212
377, 520, 508, 223, 519
378, 408, 224, 508, 520
379, 779, 687, 611, 809
380, 532, 658, 803, 193
381, 522, 86, 7, 503
382, 489, 89, 86, 522
383, 44, 37, 524, 355
384, 355, 524, 523, 309
385, 524, 45, 57, 523
386, 37, 4, 45, 524
387, 277, 527, 528, 525
388, 525, 528, 358, 276
389, 528, 526, 279, 358
390, 527, 278, 526, 528
391, 163, 530, 531, 380
392, 380, 531, 529, 162
393, 531, 344, 299, 529
394, 530, 304, 344, 531
395, 6, 83, 533, 439
396, 745, 759, 502, 646
397, 596, 838, 685, 808
398, 83, 87, 505, 533
399, 281, 350, 536, 516
400, 516, 536, 534, 280
401, 536, 535, 285, 534
402, 350, 283, 535, 536
403, 289, 540, 541, 537
404, 537, 541, 538, 290
405, 541, 539, 284, 538
406, 540, 285, 539, 541
407, 309, 523, 543, 542
408, 542, 543, 385, 308
409, 543, 46, 58, 385
410, 523, 57, 46, 543
411, 77, 457, 545, 69
412, 69, 545, 477, 76
413, 545, 544, 247, 477
414, 457, 249, 544, 545
415, 239, 549, 550, 546
416, 546, 550, 547, 271
417, 550, 548, 270, 547
418, 549, 240, 548, 550
419, 280, 534, 553, 551
420, 551, 553, 552, 286
421, 553, 540, 289, 552
422, 534, 285, 540, 553
423, 291, 557, 558, 554
424, 554, 558, 555, 275
425, 558, 556, 274, 555
426, 557, 290, 556, 558
427, 276, 410, 561, 525
428, 525, 561, 559, 277
429, 561, 560, 242, 559
430, 410, 243, 560, 561
431, 285, 535, 563, 539
432, 539, 563, 562, 284
433, 563, 413, 282, 562
434, 535, 283, 413, 563
435, 287, 567, 568, 564
436, 564, 568, 565, 295
437, 835, 566, 798, 755
438, 291, 554, 294, 340
439, 179, 429, 571, 569
440, 569, 571, 570, 167
441, 571, 498, 174, 570
442, 429, 178, 498, 571
443, 171, 574, 575, 572
444, 572, 575, 570, 174
445, 575, 573, 167, 570
446, 574, 169, 573, 575
447, 278, 527, 579, 576
448, 576, 579, 577, 274
449, 579, 578, 272, 577
450, 527, 277, 578, 579
451, 296, 582, 583, 580
452, 580, 583, 320, 297
453, 583, 581, 159, 320
454, 582, 295, 581, 583
455, 250, 442, 586, 584
456, 584, 586, 549, 239
457, 586, 585, 240, 549
458, 442, 251, 585, 586
459, 226, 588, 589, 509
460, 509, 589, 587, 223
461, 589, 318, 228, 587
462, 588, 229, 318, 589
463, 243, 416, 592, 560
464, 560, 592, 590, 242
465, 592, 591, 245, 590
466, 416, 246, 591, 592
467, 241, 333, 594, 593
468, 593, 594, 559, 242
469, 594, 578, 277, 559
470, 333, 272, 578, 594
471, 254, 779, 809, 338
472, 674, 661, 759, 745
473, 628, 191, 880, 868
474, 681, 629, 859, 744
475, 153, 462, 602, 599
476, 599, 602, 600, 218
477, 602, 601, 217, 600
478, 462, 154, 601, 602
479, 848, 378, 155, 878
480, 603, 606, 604, 236
481, 606, 131, 141, 604
482, 605, 142, 131, 606
483, 150, 346, 609, 484
484, 484, 609, 607, 216
485, 609, 608, 214, 607
486, 346, 151, 608, 609
487, 686, 491, 489, 257
488, 659, 768, 130, 140
489, 194, 502, 716, 721
490, 774, 314, 269, 847
491, 222, 614, 615, 434
492, 434, 615, 510, 225
493, 615, 613, 226, 510
494, 614, 221, 613, 615
495, 338, 774, 847, 315
496, 616, 617, 127, 137
497, 617, 611, 138, 127
498, 831, 773, 264, 266
499, 161, 725, 160, 419
500, 648, 143, 132, 147
501, 464, 24, 17, 232
502, 419, 160, 30, 38
503, 290, 538, 621, 556
504, 556, 621, 576, 274
505, 621, 620, 278, 576
506, 538, 284, 620, 621
507, 163, 431, 624, 530
508, 530, 624, 622, 304
509, 624, 623, 305, 622
510, 431, 164, 623, 624
511, 214, 608, 627, 625
512, 625, 627, 626, 215
513, 627, 448, 152, 626
514, 608, 151, 448, 627
515, 158, 439, 533, 488
516, 598, 325, 256, 680
517, 198, 532, 193, 876
518, 868, 880, 196, 832
519, 470, 133, 143, 648
520, 726, 377, 322, 854
521, 147, 132, 142, 605
522, 855, 470, 648, 375
523, 253, 401, 636, 633
524, 633, 636, 634, 259
525, 636, 635, 260, 634
526, 401, 252, 635, 636
527, 284, 562, 637, 620
528, 620, 637, 526, 278
529, 637, 480, 279, 526
530, 562, 282, 480, 637
531, 223, 587, 640, 519
532, 519, 640, 638, 212
533, 640, 639, 209, 638
534, 587, 228, 639, 640
535, 159, 311, 641, 319
536, 319, 641, 126, 9
537, 641, 616, 137, 126
538, 311, 293, 616, 641
539, 252, 438, 644, 635
540, 635, 644, 642, 260
541, 644, 643, 255, 642
542, 438, 158, 643, 644
543, 808, 685, 731, 730
544, 739, 326, 189, 780
545, 532, 740, 659, 658
546, 684, 267, 739, 734
547, 879, 323, 848, 878
548, 406, 437, 135, 145
549, 167, 650, 651, 569
550, 569, 651, 475, 179
551, 651, 649, 180, 475
552, 650, 168, 649, 651
553, 172, 445, 655, 652
554, 652, 655, 653, 170
555, 655, 654, 211, 653
556, 445, 210, 654, 655
557, 164, 453, 657, 623
558, 623, 657, 656, 305
559, 657, 492, 307, 656
560, 453, 165, 492, 657
561, 628, 868, 265, 862
562, 730, 731, 686, 612
563, 777, 521, 629, 681
564, 682, 663, 683, 597
565, 658, 129, 139, 803
566, 645, 733, 504, 486
567, 255, 643, 630, 595
568, 154, 425, 667, 601
569, 601, 667, 665, 217
570, 667, 425, 157, 849
571, 233, 665, 667, 849
572, 210, 451, 669, 654
573, 654, 669, 668, 211
574, 669, 518, 212, 668
575, 451, 213, 518, 669
576, 169, 671, 672, 573
577, 573, 672, 650, 167
578, 672, 670, 168, 650
579, 671, 204, 670, 672
580, 260, 642, 676, 673
581, 852, 612, 188, 683
582, 265, 202, 793, 664
583, 642, 255, 675, 676
584, 259, 634, 679, 677
585, 677, 679, 678, 262
586, 679, 673, 261, 678
587, 634, 260, 673, 679
588, 336, 877, 337, 267
589, 200, 238, 645, 873
590, 715, 674, 745, 191
591, 182, 236, 604, 768
592, 521, 682, 597, 629
593, 715, 185, 746, 674
594, 766, 808, 730, 765
595, 610, 734, 598, 680
596, 211, 668, 690, 688
597, 688, 690, 689, 205
598, 690, 638, 209, 689
599, 668, 212, 638, 690
600, 206, 693, 694, 691
601, 691, 694, 671, 169
602, 694, 692, 204, 671
603, 693, 207, 692, 694
604, 305, 656, 698, 695
605, 695, 698, 696, 303
606, 698, 697, 301, 696
607, 656, 307, 697, 698
608, 214, 699, 700, 607
609, 607, 700, 372, 216
610, 700, 614, 222, 372
611, 699, 221, 614, 700
612, 244, 702, 703, 701
613, 701, 703, 584, 239
614, 703, 482, 250, 584
615, 702, 248, 482, 703
616, 192, 705, 706, 704
617, 704, 706, 649, 168
618, 706, 466, 180, 649
619, 705, 181, 466, 706
620, 297, 321, 708, 707
621, 707, 708, 618, 298
622, 708, 136, 146, 618
623, 321, 9, 136, 708
624, 177, 365, 710, 500
625, 500, 710, 709, 175
626, 710, 512, 173, 709
627, 365, 176, 512, 710
628, 153, 599, 712, 459
629, 459, 712, 626, 152
630, 712, 711, 215, 626
631, 599, 218, 711, 712
632, 251, 496, 714, 585
633, 585, 714, 713, 240
634, 714, 633, 259, 713
635, 496, 253, 633, 714
636, 778, 149, 663, 682
637, 864, 765, 852, 772
638, 610, 680, 829, 662
639, 876, 193, 779, 254
640, 221, 699, 719, 717
641, 717, 719, 718, 220
642, 719, 625, 215, 718
643, 699, 214, 625, 719
644, 194, 721, 722, 720
645, 720, 722, 670, 204
646, 722, 704, 168, 670
647, 721, 192, 704, 722
648, 240, 713, 724, 548
649, 548, 724, 723, 270
650, 724, 677, 262, 723
651, 713, 259, 677, 724
652, 878, 155, 471, 886
653, 323, 632, 404, 848
654, 156, 406, 145, 134
655, 869, 727, 323, 879
656, 220, 728, 729, 717
657, 717, 729, 613, 221
658, 729, 588, 226, 613
659, 728, 229, 588, 729
660, 258, 596, 808, 766
661, 325, 258, 766, 256
662, 830, 772, 663, 149
663, 687, 128, 138, 611
664, 764, 257, 489, 522
665, 661, 760, 521, 777
666, 183, 764, 522, 503
667, 769, 862, 190, 198
668, 209, 737, 738, 689
669, 689, 738, 735, 205
670, 738, 736, 206, 735
671, 737, 208, 736, 738
672, 195, 628, 862, 769
673, 734, 739, 780, 598
674, 181, 873, 487, 468
675, 612, 686, 257, 188
676, 270, 723, 743, 741
677, 292, 835, 755, 757
678, 330, 263, 827, 566
679, 723, 262, 742, 743
680, 675, 255, 595, 758
681, 184, 684, 734, 610
682, 859, 660, 764, 183
683, 818, 840, 841, 234
684, 711, 748, 718, 215
685, 748, 747, 220, 718
686, 234, 841, 747, 748
687, 196, 750, 751, 749
688, 749, 751, 692, 207
689, 751, 720, 204, 692
690, 750, 194, 720, 751
691, 211, 688, 754, 653
692, 653, 754, 752, 170
693, 754, 753, 171, 752
694, 688, 205, 753, 754
695, 805, 273, 870, 341
696, 312, 757, 314, 293
697, 757, 755, 269, 314
698, 275, 826, 828, 331
699, 506, 777, 681, 187
700, 851, 876, 254, 732
701, 185, 662, 186, 746
702, 198, 190, 740, 532
703, 186, 830, 149, 778
704, 705, 200, 873, 181
705, 658, 659, 140, 129
706, 191, 745, 646, 880
707, 172, 652, 762, 391
708, 391, 762, 709, 173
709, 762, 761, 175, 709
710, 652, 170, 761, 762
711, 169, 574, 763, 691
712, 691, 763, 735, 206
713, 763, 753, 205, 735
714, 574, 171, 753, 763
715, 760, 778, 682, 521
716, 338, 809, 313, 774
717, 868, 832, 202, 265
718, 192, 858, 200, 705
719, 174, 499, 767, 572
720, 572, 767, 752, 171
721, 767, 761, 170, 752
722, 499, 175, 761, 767
723, 758, 595, 258, 325
724, 721, 716, 858, 192
725, 829, 864, 772, 830
726, 308, 770, 771, 542
727, 542, 771, 354, 309
728, 771, 494, 166, 354
729, 770, 306, 494, 771
730, 862, 265, 664, 190
731, 266, 199, 326, 337
732, 313, 617, 616, 293
733, 629, 597, 660, 859
734, 162, 529, 776, 420
735, 420, 776, 324, 161
736, 776, 775, 298, 324
737, 529, 299, 775, 776
738, 643, 158, 488, 630
739, 238, 744, 733, 645
740, 780, 758, 325, 598
741, 731, 490, 491, 686
742, 744, 859, 183, 733
743, 195, 769, 851, 201
744, 858, 187, 238, 200
745, 595, 630, 596, 258
746, 246, 472, 782, 591
747, 591, 782, 781, 245
748, 782, 544, 249, 781
749, 472, 247, 544, 782
750, 289, 784, 785, 552
751, 552, 785, 783, 286
752, 785, 567, 287, 783
753, 784, 288, 567, 785
754, 306, 770, 787, 786
755, 786, 787, 514, 302
756, 787, 383, 300, 514
757, 770, 308, 383, 787
758, 261, 789, 790, 678
759, 678, 790, 742, 262
760, 268, 341, 292, 846
761, 789, 264, 788, 790
762, 237, 794, 795, 791
763, 791, 795, 792, 203
764, 795, 793, 202, 792
765, 794, 236, 793, 795
766, 302, 796, 797, 786
767, 786, 797, 493, 306
768, 797, 697, 307, 493
769, 796, 301, 697, 797
770, 264, 773, 798, 788
771, 567, 288, 836, 568
772, 566, 827, 788, 798
773, 773, 269, 755, 798
774, 248, 702, 800, 455
775, 455, 800, 781, 249
776, 800, 799, 245, 781
777, 702, 244, 799, 800
778, 291, 801, 802, 557
779, 557, 802, 537, 290
780, 802, 784, 289, 537
781, 801, 288, 784, 802
782, 769, 198, 876, 851
783, 768, 604, 141, 130
784, 189, 675, 758, 780
785, 660, 188, 257, 764
786, 331, 828, 741, 339
787, 310, 846, 312, 863
788, 273, 756, 330, 870
789, 341, 870, 835, 292
790, 242, 590, 807, 593
791, 593, 807, 806, 241
792, 807, 799, 244, 806
793, 590, 245, 799, 807
794, 877, 831, 266, 337
795, 336, 732, 315, 877
796, 261, 673, 676, 197
797, 301, 796, 811, 810
798, 810, 811, 551, 286
799, 811, 515, 280, 551
800, 796, 302, 515, 811
801, 208, 813, 814, 736
802, 736, 814, 693, 206
803, 814, 812, 207, 693
804, 813, 203, 812, 814
805, 235, 816, 815, 842
806, 815, 816, 794, 237
807, 816, 603, 236, 794
808, 842, 815, 820, 840
809, 227, 819, 820, 817
810, 817, 820, 815, 237
811, 217, 857, 818, 600
812, 219, 235, 842, 857
813, 296, 822, 823, 582
814, 582, 823, 564, 295
815, 823, 821, 287, 564
816, 822, 303, 821, 823
817, 203, 813, 825, 791
818, 791, 825, 817, 237
819, 825, 824, 227, 817
820, 813, 208, 824, 825
821, 565, 874, 268, 856
822, 741, 828, 547, 270
823, 828, 826, 271, 547
824, 804, 340, 273, 805
825, 256, 766, 765, 864
826, 664, 793, 236, 182
827, 789, 261, 197, 199
828, 203, 792, 833, 812
829, 812, 833, 749, 207
830, 833, 832, 196, 749
831, 792, 202, 832, 833
832, 272, 334, 834, 577
833, 577, 834, 555, 274
834, 834, 826, 275, 555
835, 334, 271, 826, 834
836, 294, 331, 339, 756
837, 827, 742, 790, 788
838, 263, 743, 742, 827
839, 228, 316, 837, 639
840, 639, 837, 737, 209
841, 837, 824, 208, 737
842, 316, 227, 824, 837
843, 630, 488, 838, 596
844, 199, 197, 189, 326
845, 759, 661, 777, 506
846, 197, 676, 675, 189
847, 303, 822, 839, 695
848, 695, 839, 622, 305
849, 839, 343, 304, 622
850, 822, 296, 343, 839
851, 857, 842, 840, 818
852, 872, 605, 606, 603
853, 840, 820, 819, 841
854, 239, 546, 843, 701
855, 701, 843, 806, 244
856, 843, 332, 241, 806
857, 546, 271, 332, 843
858, 841, 819, 844, 747
859, 747, 844, 728, 220
860, 844, 317, 229, 728
861, 819, 227, 317, 844
862, 286, 783, 845, 810
863, 810, 845, 696, 301
864, 845, 821, 303, 696
865, 783, 287, 821, 845
866, 874, 805, 341, 268
867, 339, 741, 743, 263
868, 568, 836, 874, 565
869, 340, 294, 756, 273
870, 838, 505, 507, 685
871, 847, 269, 773, 831
872, 502, 759, 506, 716
873, 872, 235, 219, 666
874, 403, 329, 27, 3
875, 465, 2, 25, 867
876, 297, 707, 850, 580
877, 580, 850, 342, 296
878, 850, 775, 299, 342
879, 707, 298, 775, 850
880, 873, 645, 486, 487
881, 746, 186, 778, 760
882, 733, 183, 503, 504
883, 740, 182, 768, 659
884, 329, 631, 29, 27
885, 861, 666, 233, 632
886, 232, 17, 2, 465
887, 853, 376, 631, 329
888, 565, 856, 581, 295
889, 856, 310, 159, 581
890, 836, 804, 805, 874
891, 600, 818, 234, 218
892, 437, 618, 146, 135
893, 665, 219, 857, 217
894, 190, 664, 182, 740
895, 187, 681, 744, 238
896, 685, 507, 490, 731
897, 201, 336, 267, 684
898, 471, 465, 867, 479
899, 328, 619, 464, 378
900, 632, 233, 849, 404
901, 860, 156, 134, 144
902, 436, 231, 853, 148
903, 872, 603, 816, 235
904, 619, 16, 24, 464
905, 674, 746, 760, 661
906, 662, 829, 830, 186
907, 193, 803, 687, 779
908, 666, 219, 665, 233
909, 218, 234, 748, 711
910, 856, 268, 846, 310
911, 310, 863, 311, 159
912, 312, 293, 311, 863
913, 765, 730, 612, 852
914, 488, 533, 505, 838
915, 680, 256, 864, 829
916, 228, 318, 865, 316
917, 316, 865, 317, 227
918, 318, 229, 317, 865
919, 9, 321, 866, 319
920, 319, 866, 320, 159
921, 321, 297, 320, 866
922, 157, 426, 619, 328
923, 727, 861, 632, 323
924, 375, 648, 147, 327
925, 315, 847, 831, 877
926, 732, 254, 338, 315
927, 809, 611, 617, 313
928, 377, 479, 867, 322
929, 405, 885, 479, 377
930, 854, 322, 28, 26
931, 846, 292, 757, 312
932, 870, 330, 566, 835
933, 801, 291, 340, 804
934, 271, 334, 871, 332
935, 332, 871, 333, 241
936, 334, 272, 333, 871
937, 888, 855, 869, 335
938, 327, 872, 666, 861
939, 335, 230, 405, 647
940, 774, 313, 293, 314
941, 716, 506, 187, 858
942, 264, 789, 199, 266
943, 288, 801, 804, 836
944, 554, 275, 331, 294
945, 756, 339, 263, 330
946, 299, 344, 875, 342
947, 342, 875, 343, 296
948, 344, 304, 343, 875
949, 195, 184, 185, 715
950, 646, 502, 194, 750
951, 160, 403, 3, 30
952, 860, 144, 133, 470
953, 195, 201, 684, 184
954, 882, 298, 618, 437
955, 883, 882, 437, 406
956, 884, 883, 406, 156
957, 888, 884, 156, 860
958, 882, 881, 324, 298
959, 883, 436, 881, 882
960, 884, 231, 436, 883
961, 888, 887, 231, 884
*ELSET,ELSET=contact_source
103, 104, 105, 106, 107, 108, 109, 110, 111, 112, 
113, 114, 115, 116, 117, 118, 119, 120, 121, 122, 
123, 124, 
*ELSET,ELSET=contact_drain
39, 40, 41, 42, 43, 44, 45, 46, 47, 48, 
49, 50, 51, 52, 53, 54, 55, 56, 57, 58, 
59, 60, 61, 62, 
*ELSET,ELSET=probe_A
79, 80, 81, 82, 83, 84, 85, 86, 
*ELSET,ELSET=probe_B
17, 18, 19, 20, 21, 22, 
*ELSET,ELSET=walls
1, 2, 3, 4, 5, 6, 7, 8, 9, 10, 
11, 12, 13, 14, 15, 16, 23, 24, 25, 26, 
27, 28, 29, 30, 31, 32, 33, 34, 35, 36, 
37, 38, 63, 64, 65, 66, 67, 68, 69, 70, 
71, 72, 73, 74, 75, 76, 77, 78, 87, 88, 
89, 90, 91, 92, 93, 94, 95, 96, 97, 98, 
99, 100, 101, 102, 125, 126, 127, 128, 129, 130, 
131, 132, 133, 134, 135, 136, 137, 138, 139, 140, 
141, 142, 143, 144, 145, 146, 
*ELSET,ELSET=domain
147, 148, 149, 150, 151, 152, 153, 154, 155, 156, 
157, 158, 159, 160, 161, 162, 163, 164, 165, 166, 
167, 168, 169, 170, 171, 172, 173, 174, 175, 176, 
177, 178, 179, 180, 181, 182, 183, 184, 185, 186, 
187, 188, 189, 190, 191, 192, 193, 194, 195, 196, 
197, 198, 199, 200, 201, 202, 203, 204, 205, 206, 
207, 208, 209, 210, 211, 212, 213, 214, 215, 216, 
217, 218, 219, 220, 221, 222, 223, 224, 225, 226, 
227, 228, 229, 230, 231, 232, 233, 234, 235, 236, 
237, 238, 239, 240, 241, 242, 243, 244, 245, 246, 
247, 248, 249, 250, 251, 252, 253, 254, 255, 256, 
257, 258, 259, 260, 261, 262, 263, 264, 265, 266, 
267, 268, 269, 270, 271, 272, 273, 274, 275, 276, 
277, 278, 279, 280, 281, 282, 283, 284, 285, 286, 
287, 288, 289, 290, 291, 292, 293, 294, 295, 296, 
297, 298, 299, 300, 301, 302, 303, 304, 305, 306, 
307, 308, 309, 310, 311, 312, 313, 314, 315, 316, 
317, 318, 319, 320, 321, 322, 323, 324, 325, 326, 
327, 328, 329, 330, 331, 332, 333, 334, 335, 336, 
337, 338, 339, 340, 341, 342, 343, 344, 345, 346, 
347, 348, 349, 350, 351, 352, 353, 354, 355, 356, 
357, 358, 359, 360, 361, 362, 363, 364, 365, 366, 
367, 368, 369, 370, 371, 372, 373, 374, 375, 376, 
377, 378, 379, 380, 381, 382, 383, 384, 385, 386, 
387, 388, 389, 390, 391, 392, 393, 394, 395, 396, 
397, 398, 399, 400, 401, 402, 403, 404, 405, 406, 
407, 408, 409, 410, 411, 412, 413, 414, 415, 416, 
417, 418, 419, 420, 421, 422, 423, 424, 425, 426, 
427, 428, 429, 430, 431, 432, 433, 434, 435, 436, 
437, 438, 439, 440, 441, 442, 443, 444, 445, 446, 
447, 448, 449, 450, 451, 452, 453, 454, 455, 456, 
457, 458, 459, 460, 461, 462, 463, 464, 465, 466, 
467, 468, 469, 470, 471, 472, 473, 474, 475, 476, 
477, 478, 479, 480, 481, 482, 483, 484, 485, 486, 
487, 488, 489, 490, 491, 492, 493, 494, 495, 496, 
497, 498, 499, 500, 501, 502, 503, 504, 505, 506, 
507, 508, 509, 510, 511, 512, 513, 514, 515, 516, 
517, 518, 519, 520, 521, 522, 523, 524, 525, 526, 
527, 528, 529, 530, 531, 532, 533, 534, 535, 536, 
537, 538, 539, 540, 541, 542, 543, 544, 545, 546, 
547, 548, 549, 550, 551, 552, 553, 554, 555, 556, 
557, 558, 559, 560, 561, 562, 563, 564, 565, 566, 
567, 568, 569, 570, 571, 572, 573, 574, 575, 576, 
577, 578, 579, 580, 581, 582, 583, 584, 585, 586, 
587, 588, 589, 590, 591, 592, 593, 594, 595, 596, 
597, 598, 599, 600, 601, 602, 603, 604, 605, 606, 
607, 608, 609, 610, 611, 612, 613, 614, 615, 616, 
617, 618, 619, 620, 621, 622, 623, 624, 625, 626, 
627, 628, 629, 630, 631, 632, 633, 634, 635, 636, 
637, 638, 639, 640, 641, 642, 643, 644, 645, 646, 
647, 648, 649, 650, 651, 652, 653, 654, 655, 656, 
657, 658, 659, 660, 661, 662, 663, 664, 665, 666, 
667, 668, 669, 670, 671, 672, 673, 674, 675, 676, 
677, 678, 679, 680, 681, 682, 683, 684, 685, 686, 
687, 688, 689, 690, 691, 692, 693, 694, 695, 696, 
697, 698, 699, 700, 701, 702, 703, 704, 705, 706, 
707, 708, 709, 710, 711, 712, 713, 714, 715, 716, 
717, 718, 719, 720, 721, 722, 723, 724, 725, 726, 
727, 728, 729, 730, 731, 732, 733, 734, 735, 736, 
737, 738, 739, 740, 741, 742, 743, 744, 745, 746, 
747, 748, 749, 750, 751, 752, 753, 754, 755, 756, 
757, 758, 759, 760, 761, 762, 763, 764, 765, 766, 
767, 768, 769, 770, 771, 772, 773, 774, 775, 776, 
777, 778, 779, 780, 781, 782, 783, 784, 785, 786, 
787, 788, 789, 790, 791, 792, 793, 794, 795, 796, 
797, 798, 799, 800, 801, 802, 803, 804, 805, 806, 
807, 808, 809, 810, 811, 812, 813, 814, 815, 816, 
817, 818, 819, 820, 821, 822, 823, 824, 825, 826, 
827, 828, 829, 830, 831, 832, 833, 834, 835, 836, 
837, 838, 839, 840, 841, 842, 843, 844, 845, 846, 
847, 848, 849, 850, 851, 852, 853, 854, 855, 856, 
857, 858, 859, 860, 861, 862, 863, 864, 865, 866, 
867, 868, 869, 870, 871, 872, 873, 874, 875, 876, 
877, 878, 879, 880, 881, 882, 883, 884, 885, 886, 
887, 888, 889, 890, 891, 892, 893, 894, 895, 896, 
897, 898, 899, 900, 901, 902, 903, 904, 905, 906, 
907, 908, 909, 910, 911, 912, 913, 914, 915, 916, 
917, 918, 919, 920, 921, 922, 923, 924, 925, 926, 
927, 928, 929, 930, 931, 932, 933, 934, 935, 936, 
937, 938, 939, 940, 941, 942, 943, 944, 945, 946, 
947, 948, 949, 950, 951, 952, 953, 954, 955, 956, 
957, 958, 959, 960, 961, 
*NSET,NSET=contact_source
1, 8, 105, 106, 107, 108, 109, 110, 111, 112, 
113, 114, 115, 116, 117, 118, 119, 120, 121, 122, 
123, 124, 125, 
*NSET,NSET=contact_drain
4, 5, 45, 46, 47, 48, 49, 50, 51, 52, 
53, 54, 55, 56, 57, 58, 59, 60, 61, 62, 
63, 64, 65, 66, 67, 
*NSET,NSET=probe_A
6, 7, 83, 84, 85, 86, 87, 88, 89, 
*NSET,NSET=probe_B
2, 3, 25, 26, 27, 28, 29, 
*NSET,NSET=walls
1, 2, 3, 4, 5, 6, 7, 8, 9, 10, 
11, 12, 13, 14, 15, 16, 17, 18, 19, 20, 
21, 22, 23, 24, 30, 31, 32, 33, 34, 35, 
36, 37, 38, 39, 40, 41, 42, 43, 44, 68, 
69, 70, 71, 72, 73, 74, 75, 76, 77, 78, 
79, 80, 81, 82, 90, 91, 92, 93, 94, 95, 
96, 97, 98, 99, 100, 101, 102, 103, 104, 126, 
127, 128, 129, 130, 131, 132, 133, 134, 135, 136, 
137, 138, 139, 140, 141, 142, 143, 144, 145, 146, 
*NSET,NSET=domain
1, 2, 3, 4, 5, 6, 7, 8, 9, 10, 
11, 12, 13, 14, 15, 16, 17, 18, 19, 20, 
21, 22, 23, 24, 25, 26, 27, 28, 29, 30, 
31, 32, 33, 34, 35, 36, 37, 38, 39, 40, 
41, 42, 43, 44, 45, 46, 47, 48, 49, 50, 
51, 52, 53, 54, 55, 56, 57, 58, 59, 60, 
61, 62, 63, 64, 65, 66, 67, 68, 69, 70, 
71, 72, 73, 74, 75, 76, 77, 78, 79, 80, 
81, 82, 83, 84, 85, 86, 87, 88, 89, 90, 
91, 92, 93, 94, 95, 96, 97, 98, 99, 100, 
101, 102, 103, 104, 105, 106, 107, 108, 109, 110, 
111, 112, 113, 114, 115, 116, 117, 118, 119, 120, 
121, 122, 123, 124, 125, 126, 127, 128, 129, 130, 
131, 132, 133, 134, 135, 136, 137, 138, 139, 140, 
141, 142, 143, 144, 145, 146, 147, 148, 149, 150, 
151, 152, 153, 154, 155, 156, 157, 158, 159, 160, 
161, 162, 163, 164, 165, 166, 167, 168, 169, 170, 
171, 172, 173, 174, 175, 176, 177, 178, 179, 180, 
181, 182, 183, 184, 185, 186, 187, 188, 189, 190, 
191, 192, 193, 194, 195, 196, 197, 198, 199, 200, 
201, 202, 203, 204, 205, 206, 207, 208, 209, 210, 
211, 212, 213, 214, 215, 216, 217, 218, 219, 220, 
221, 222, 223, 224, 225, 226, 227, 228, 229, 230, 
231, 232, 233, 234, 235, 236, 237, 238, 239, 240, 
241, 242, 243, 244, 245, 246, 247, 248, 249, 250, 
251, 252, 253, 254, 255, 256, 257, 258, 259, 260, 
261, 262, 263, 264, 265, 266, 267, 268, 269, 270, 
271, 272, 273, 274, 275, 276, 277, 278, 279, 280, 
281, 282, 283, 284, 285, 286, 287, 288, 289, 290, 
291, 292, 293, 294, 295, 296, 297, 298, 299, 300, 
301, 302, 303, 304, 305, 306, 307, 308, 309, 310, 
311, 312, 313, 314, 315, 316, 317, 318, 319, 320, 
321, 322, 323, 324, 325, 326, 327, 328, 329, 330, 
331, 332, 333, 334, 335, 336, 337, 338, 339, 340, 
341, 342, 343, 344, 345, 346, 347, 348, 349, 350, 
351, 352, 353, 354, 355, 356, 357, 358, 359, 360, 
361, 362, 363, 364, 365, 366, 367, 368, 369, 370, 
371, 372, 373, 374, 375, 376, 377, 378, 379, 380, 
381, 382, 383, 384, 385, 386, 387, 388, 389, 390, 
391, 392, 393, 394, 395, 396, 397, 398, 399, 400, 
401, 402, 403, 404, 405, 406, 407, 408, 409, 410, 
411, 412, 413, 414, 415, 416, 417, 418, 419, 420, 
421, 422, 423, 424, 425, 426, 427, 428, 429, 430, 
431, 432, 433, 434, 435, 436, 437, 438, 439, 440, 
441, 442, 443, 444, 445, 446, 447, 448, 449, 450, 
451, 452, 453, 454, 455, 456, 457, 458, 459, 460, 
461, 462, 463, 464, 465, 466, 467, 468, 469, 470, 
471, 472, 473, 474, 475, 476, 477, 478, 479, 480, 
481, 482, 483, 484, 485, 486, 487, 488, 489, 490, 
491, 492, 493, 494, 495, 496, 497, 498, 499, 500, 
501, 502, 503, 504, 505, 506, 507, 508, 509, 510, 
511, 512, 513, 514, 515, 516, 517, 518, 519, 520, 
521, 522, 523, 524, 525, 526, 527, 528, 529, 530, 
531, 532, 533, 534, 535, 536, 537, 538, 539, 540, 
541, 542, 543, 544, 545, 546, 547, 548, 549, 550, 
551, 552, 553, 554, 555, 556, 557, 558, 559, 560, 
561, 562, 563, 564, 565, 566, 567, 568, 569, 570, 
571, 572, 573, 574, 575, 576, 577, 578, 579, 580, 
581, 582, 583, 584, 585, 586, 587, 588, 589, 590, 
591, 592, 593, 594, 595, 596, 597, 598, 599, 600, 
601, 602, 603, 604, 605, 606, 607, 608, 609, 610, 
611, 612, 613, 614, 615, 616, 617, 618, 619, 620, 
621, 622, 623, 624, 625, 626, 627, 628, 629, 630, 
631, 632, 633, 634, 635, 636, 637, 638, 639, 640, 
641, 642, 643, 644, 645, 646, 647, 648, 649, 650, 
651, 652, 653, 654, 655, 656, 657, 658, 659, 660, 
661, 662, 663, 664, 665, 666, 667, 668, 669, 670, 
671, 672, 673, 674, 675, 676, 677, 678, 679, 680, 
681, 682, 683, 684, 685, 686, 687, 688, 689, 690, 
691, 692, 693, 694, 695, 696, 697, 698, 699, 700, 
701, 702, 703, 704, 705, 706, 707, 708, 709, 710, 
711, 712, 713, 714, 715, 716, 717, 718, 719, 720, 
721, 722, 723, 724, 725, 726, 727, 728, 729, 730, 
731, 732, 733, 734, 735, 736, 737, 738, 739, 740, 
741, 742, 743, 744, 745, 746, 747, 748, 749, 750, 
751, 752, 753, 754, 755, 756, 757, 758, 759, 760, 
761, 762, 763, 764, 765, 766, 767, 768, 769, 770, 
771, 772, 773, 774, 775, 776, 777, 778, 779, 780, 
781, 782, 783, 784, 785, 786, 787, 788, 789, 790, 
791, 792, 793, 794, 795, 796, 797, 798, 799, 800, 
801, 802, 803, 804, 805, 806, 807, 808, 809, 810, 
811, 812, 813, 814, 815, 816, 817, 818, 819, 820, 
821, 822, 823, 824, 825, 826, 827, 828, 829, 830, 
831, 832, 833, 834, 835, 836, 837, 838, 839, 840, 
841, 842, 843, 844, 845, 846, 847, 848, 849, 850, 
851, 852, 853, 854, 855, 856, 857, 858, 859, 860, 
861, 862, 863, 864, 865, 866, 867, 868, 869, 870, 
871, 872, 873, 874, 875, 876, 877, 878, 879, 880, 
881, 882, 883, 884, 885, 886, 887, 888, 
