*Heading
 /Users/juliagao/geometry-optimization-net/scripts/../runs/2d/shape_32.inp
*NODE
1, 0, -0.3, 0
2, 0.425, -0.3, 0
3, 0.575, -0.3, 0
4, 1, -0.3, 0
5, 1, 0.3, 0
6, 0.575, 0.3, 0
7, 0.425, 0.3, 0
8, 0, 0.3, 0
9, 0.596933977, -0.15, 0
10, 0.025724265976691, -0.3, 0
11, 0.078009927177117, -0.3, 0
12, 0.13135505525376, -0.3, 0
13, 0.18463041369898, -0.3, 0
14, 0.23767738616506, -0.3, 0
15, 0.29093393274328, -0.3, 0
16, 0.3445670713763, -0.3, 0
17, 0.39824950515244, -0.3, 0
18, 0.051448531953383, -0.3, 0
19, 0.10457132240085, -0.3, 0
20, 0.15813878810666, -0.3, 0
21, 0.21112203929129, -0.3, 0
22, 0.26423273303883, -0.3, 0
23, 0.31763513244773, -0.3, 0
24, 0.37149901030488, -0.3, 0
25, 0.45072040899193, -0.3, 0
26, 0.50047103981315, -0.3, 0
27, 0.54975063082122, -0.3, 0
28, 0.47644081798386, -0.3, 0
29, 0.52450126164243, -0.3, 0
30, 0.60164156864649, -0.3, 0
31, 0.65515146723532, -0.3, 0
32, 0.70887595490921, -0.3, 0
33, 0.76319022504029, -0.3, 0
34, 0.818291924166, -0.3, 0
35, 0.87230327333761, -0.3, 0
36, 0.9239890072665, -0.3, 0
37, 0.97465348937497, -0.3, 0
38, 0.62828313729297, -0.3, 0
39, 0.68201979717767, -0.3, 0
40, 0.73573211264075, -0.3, 0
41, 0.79064833743984, -0.3, 0
42, 0.84593551089217, -0.3, 0
43, 0.89867103578306, -0.3, 0
44, 0.94930697874994, -0.3, 0
45, 1, -0.27355589407493, 0
46, 1, -0.21955380469396, 0
47, 1, -0.16388440349743, 0
48, 1, -0.10851721509666, 0
49, 1, -0.054048462247826, 0
50, 1, 0.0010854167577976, 0
51, 1, 0.056806298169092, 0
52, 1, 0.11214738605242, 0
53, 1, 0.16699561471765, 0
54, 1, 0.22098283702678, 0
55, 1, 0.27383146697981, 0
56, 1, -0.24711178814986, 0
57, 1, -0.19199582123806, 0
58, 1, -0.1357729857568, 0
59, 1, -0.08126144443653, 0
60, 1, -0.026835480059122, 0
61, 1, 0.029006313574717, 0
62, 1, 0.084606282763467, 0
63, 1, 0.13968848934137, 0
64, 1, 0.19430274009393, 0
65, 1, 0.24766293395963, 0
66, 0.97661304237081, 0.3, 0
67, 0.92969536688435, 0.3, 0
68, 0.88214151555203, 0.3, 0
69, 0.83358419597439, 0.3, 0
70, 0.78458046659757, 0.3, 0
71, 0.73655470480659, 0.3, 0
72, 0.68980755496162, 0.3, 0
73, 0.64340386204808, 0.3, 0
74, 0.59759555023139, 0.3, 0
75, 0.95322608474161, 0.3, 0
76, 0.90616464902709, 0.3, 0
77, 0.85811838207696, 0.3, 0
78, 0.80905000987183, 0.3, 0
79, 0.76011092332332, 0.3, 0
80, 0.71299848628986, 0.3, 0
81, 0.66661662363339, 0.3, 0
82, 0.62019110046278, 0.3, 0
83, 0.55032943323074, 0.3, 0
84, 0.50096774371207, 0.3, 0
85, 0.45063831048132, 0.3, 0
86, 0.52565886646149, 0.3, 0
87, 0.47627662096265, 0.3, 0
88, 0.39891040551332, 0.3, 0
89, 0.34607271432375, 0.3, 0
90, 0.29231374703823, 0.3, 0
91, 0.2382547071339, 0.3, 0
92, 0.18446137947494, 0.3, 0
93, 0.13107180081954, 0.3, 0
94, 0.078048868430228, 0.3, 0
95, 0.025835178179531, 0.3, 0
96, 0.37282081102664, 0.3, 0
97, 0.31932461762086, 0.3, 0
98, 0.26530287645561, 0.3, 0
99, 0.21120653781219, 0.3, 0
100, 0.15771622113769, 0.3, 0
101, 0.10442738050139, 0.3, 0
102, 0.051670356359061, 0.3, 0
103, 0, 0.27423484360268, 0
104, 0, 0.22225952744722, 0
105, 0, 0.16852321141024, 0
106, 0, 0.11264154839815, 0
107, 0, 0.056373120429615, 0
108, 0, 0.00067384604758641, 0
109, 0, -0.054858301270866, 0
110, 0, -0.11011615180961, 0
111, 0, -0.16528100976883, 0
112, 0, -0.22015454307624, 0
113, 0, -0.27368763739574, 0
114, 0, 0.24846968720537, 0
115, 0, 0.19604936768907, 0
116, 0, 0.14099705513141, 0
117, 0, 0.084286041664881, 0
118, 0, 0.028460199194349, 0
119, 0, -0.027112507099176, 0
120, 0, -0.082604095442556, 0
121, 0, -0.13762820817666, 0
122, 0, -0.19293381136099, 0
123, 0, -0.24737527479149, 0
124, 0.59306642316074, -0.12289212788548, 0
125, 0.56396016459162, -0.07716255665107, 0
126, 0.51545093707207, -0.054305358389867, 0
127, 0.46210152445835, -0.060781720495504, 0
128, 0.41915576118902, -0.096517246397249, 0
129, 0.40308091163284, -0.15169885253998, 0
130, 0.42080226589386, -0.20589199162152, 0
131, 0.46358372603198, -0.23983346173746, 0
132, 0.5151347031911, -0.24574516518823, 0
133, 0.5630161233155, -0.22365571331524, 0
134, 0.59291295452482, -0.1776293084731, 0
135, 0.58177238596744, -0.097947404639347, 0
136, 0.54104753640345, -0.062186016808388, 0
137, 0.48867483557653, -0.053729877146628, 0
138, 0.43857692845098, -0.075010653596062, 0
139, 0.406959449342, -0.1228034602346, 0
140, 0.40796974461511, -0.18044056452294, 0
141, 0.44048267749807, -0.22651068033612, 0
142, 0.48944095155872, -0.24635716031441, 0
143, 0.53976450017609, -0.23840237765671, 0
144, 0.5811834907107, -0.20296637293951, 0
145, 0.41552424388653, 0.24519337347339, 0
146, 0.56618617420737, 0.24329376606626, 0
147, 0.079884515063625, -0.13729746203803, 0
148, 0.053041535810661, -0.16429815198327, 0
149, 0.28079682963641, -0.082619872903062, 0
150, 0.21477380409454, -0.13567955623439, 0
151, 0.38015056290002, -0.24922253737245, 0
152, 0.31991653572087, -0.24815147742216, 0
153, 0.68752160692381, 0.033646278417655, 0
154, 0.75791174946284, -0.10766281637963, 0
155, 0.80424991035393, -0.10920652131555, 0
156, 0.63448301982916, -0.23595020490915, 0
157, 0.68394051494737, -0.27327645487413, 0
158, 0.89902348908421, -0.19264656591884, 0
159, 0.8279518619802, -0.10948621594387, 0
160, 0.73474313250544, -0.13694057196238, 0
161, 0.92330748197892, -0.2461536048796, 0
162, 0.77682069911522, -0.16723458218075, 0
163, 0.25700927546854, 0.19009300061961, 0
164, 0.25564669932399, 0.13357139211747, 0
165, 0.20533641673262, 0.13305335247817, 0
166, 0.10341856901677, 0.13418343778017, 0
167, 0.15464013934013, 0.13326082652685, 0
168, 0.051713848748779, 0.13629686394003, 0
169, 0.15547975176393, 0.1894633224133, 0
170, 0.10431920579843, 0.18982146021657, 0
171, 0.052581595518517, 0.19128256222974, 0
172, 0.053283448644613, 0.24571853202605, 0
173, 0.15686310043815, 0.24531461052304, 0
174, 0.10523257614398, 0.24528393251273, 0
175, 0.20630910932085, 0.18961048397016, 0
176, 0.20850932784808, 0.24554482829582, 0
177, 0.26025318786353, 0.24583740274528, 0
178, 0.31213910394092, 0.24602125332989, 0
179, 0.3593571889855, 0.19135493625508, 0
180, 0.3640953401385, 0.2459463631777, 0
181, 0.46625089406689, 0.24461969284078, 0
182, 0.4104921352116, 0.18992206616143, 0
183, 0.46123062408784, 0.1895075355212, 0
184, 0.40886207288396, 0.13419215579596, 0
185, 0.45963992210738, 0.13485156042708, 0
186, 0.30790577061854, 0.19079427033177, 0
187, 0.35766608354186, 0.13712204716128, 0
188, 0.30607046118604, 0.13503450658481, 0
189, 0.46011102679964, 0.081153653373155, 0
190, 0.30656905423171, 0.07894340352089, 0
191, 0.35847832548524, 0.084290522486181, 0
192, 0.33718791035301, -0.0022230247658562, 0
193, 0.35565212742146, -0.024118321881529, 0
194, 0.31008684890681, 0.021692805274823, 0
195, 0.260657168287, 0.019602293149028, 0
196, 0.20621911569546, 0.076433652592481, 0
197, 0.15512032800705, 0.077201346965114, 0
198, 0.25659684569706, 0.076641057313457, 0
199, 0.15703952592092, 0.021779754001288, 0
200, 0.20930128829472, 0.020382438658688, 0
201, 0.051587508055836, 0.080910770110984, 0
202, 0.10347809097383, 0.078624185094789, 0
203, 0.10448991714077, 0.023456609703113, 0
204, 0.052035474358458, 0.025585822749268, 0
205, 0.026382947040459, -0.082934409023329, 0
206, 0.053217749709041, -0.21837307048373, 0
207, 0.026663836738318, -0.27271527068126, 0
208, 0.16015789060176, -0.032282337699574, 0
209, 0.21311547850703, -0.16294053358664, 0
210, 0.02671601003693, -0.24579574937639, 0
211, 0.16160260642504, -0.058537583100051, 0
212, 0.1587034575822, -0.27283303893944, 0
213, 0.1064451211792, -0.19120650457485, 0
214, 0.26459794049737, -0.1615345895049, 0
215, 0.13264595186827, -0.24562521812941, 0
216, 0.10712751929009, -0.084083602644418, 0
217, 0.079810385514781, -0.21831337266918, 0
218, 0.052958215069166, -0.27264508603595, 0
219, 0.24754645868613, -0.05954253049716, 0
220, 0.026403692884705, -0.13737551777904, 0
221, 0.13299839094406, -0.031571245128086, 0
222, 0.2651283652671, -0.27303888166017, 0
223, 0.053114074026901, -0.19132947328041, 0
224, 0.38152744877575, -0.16288273758245, 0
225, 0.31272349909415, -0.19308143708759, 0
226, 0.38263669698906, -0.13110644715797, 0
227, 0.3515376478162, -0.080243456216713, 0
228, 0.13305783177484, -0.19116913075631, 0
229, 0.32960313752818, -0.034233468426929, 0
230, 0.10568788718155, -0.27283732343899, 0
231, 0.40085963739671, -0.01808270965361, 0
232, 0.35967167002497, 0.0077349430713054, 0
233, 0.80995713530271, 0.18972653125641, 0
234, 0.76377745606568, 0.18615500635019, 0
235, 0.77953417492592, 0.13186758092234, 0
236, 0.83687753666472, 0.13517516442243, 0
237, 0.94858750657206, 0.13252706559584, 0
238, 0.89478590629094, 0.13057366600471, 0
239, 0.90352374500091, 0.18519313129545, 0
240, 0.85761500018912, 0.18909580587963, 0
241, 0.9510928871305, 0.18714826653307, 0
242, 0.90477003616205, 0.24292955003509, 0
243, 0.9514813865102, 0.24336267744975, 0
244, 0.85764695518929, 0.24528859521481, 0
245, 0.80741367987543, 0.2455532734214, 0
246, 0.75966614784858, 0.24328700493819, 0
247, 0.71528573083894, 0.18653828182185, 0
248, 0.71219679940131, 0.24263334878619, 0
249, 0.66537888141212, 0.18738281744978, 0
250, 0.61457791628945, 0.1879910078127, 0
251, 0.61545979175087, 0.24265816250904, 0
252, 0.66413669678882, 0.24262829780224, 0
253, 0.51653119761273, 0.24412600891745, 0
254, 0.56334662906319, 0.1885755302073, 0
255, 0.51226005277084, 0.18918434778084, 0
256, 0.56448576986723, 0.13549150805622, 0
257, 0.51181938840783, 0.13546378922411, 0
258, 0.61773581205645, 0.13534512336093, 0
259, 0.67120091061767, 0.13441557608576, 0
260, 0.72482702897658, 0.13289445968965, 0
261, 0.73363810392226, 0.082393995310428, 0
262, 0.67877131591988, 0.083788974908147, 0
263, 0.62362483454822, 0.084664105380502, 0
264, 0.5143953540956, 0.083432501220466, 0
265, 0.5687100629653, 0.084063857429337, 0
266, 0.52058089271417, 0.033825309483283, 0
267, 0.63204502950685, 0.035146589789147, 0
268, 0.5762256732676, 0.033939020772125, 0
269, 0.94986459440234, -0.053900696740704, 0
270, 0.7373458607771, -0.27421360017754, 0
271, 0.78814653376606, 0.082035265392321, 0
272, 0.84154000263463, 0.083522706829372, 0
273, 0.67205459511878, -0.19039580630129, 0
274, 0.77281381741676, -0.19521328117253, 0
275, 0.76617513664542, -0.2485504020307, 0
276, 0.94849120084248, 0.080544311972209, 0
277, 0.89509211589268, 0.080344879562401, 0
278, 0.90006436423088, -0.053653216340221, 0
279, 0.92526359787382, -0.13721667492954, 0
280, 0.68248962444056, -0.16337410388204, 0
281, 0.92337092219432, 0.027626022571313, 0
282, 0.74759443842026, -0.19521556295445, 0
283, 0.90066079922378, -0.10953347213058, 0
284, 0.97486657733685, -0.053920535473315, 0
285, 0.92405616867014, 0.00083296466944814, 0
286, 0.8975688544659, -0.24660036099681, 0
287, 0.686175663722, -0.070441544034254, 0
288, 0.5434934042013, -0.038723840179327, 0
289, 0.75279796077825, -0.16717589483366, 0
290, 0.64410069134223, -0.014260222939836, 0
291, 0.66513486002581, -0.21682609854865, 0
292, 0.65198028080798, -0.039648187623221, 0
293, 0.71043764876088, -0.27385173473098, 0
294, 0.58476693053277, -0.25801974381708, 0
295, 0.69204912876467, -0.13336626294631, 0
296, 0.64709718459966, -0.18384130265172, 0
297, 0.71690372264688, -0.22160769952943, 0
298, 0.60795648023717, -0.10314036432277, 0
299, 0.85014488890311, -0.16620462118576, 0
300, 0.97516007307313, -0.16421558343549, 0
301, 0.82106761165461, -0.22164749956645, 0
302, 0.84683543213775, -0.22103851153122, 0
303, 0.66526311318192, 0.0096343399310071, 0
304, 0.65993522634535, 0.034624664936431, 0
305, 0.61618540765798, -0.01394345313612, 0
306, 0.63736323576771, -0.064072314975724, 0
307, 0.70560353633323, -0.16563090776281, 0
308, 0.34245752512516, -0.057389589662771, 0
309, 0.35951996099913, 0.058680588035154, 0
310, 0.43616430961826, -0.023411625597518, 0
311, 0.6714211184657, -0.015802016911766, 0
312, 0.77988066990437, -0.079309921489917, 0
313, 0.84588516351978, 0.02994941783268, 0
314, 0.67833143101494, -0.042165725728331, 0
315, 0.66221175618104, -0.06700382102233, 0
316, 0.62248743729261, -0.16982247093612, 0
317, 0.81555242079611, 0.15968010642615, 0
318, 0.83355673203321, 0.19803323029642, 0
319, 0.85455110565358, 0.15895474865076, 0
320, 0.31819686534095, -0.13082332250759, 0
321, 0.31242473255434, -0.16244068888066, 0
322, 0.3806210033433, -0.097079895822976, 0
323, 0.79286151731892, -0.24849710155501, 0
324, 0.82256095220189, 0.0030714315683547, 0
325, 0.72863623115496, -0.047265600630461, 0
326, 0.89817530820616, -0.21974829209598, 0
327, 0.80361506595966, -0.080204557531961, 0
328, 0.57260348800013, -0.049259901402532, 0
329, 0.59656502512136, -0.040149076312492, 0
330, 0.97430536263576, -0.27304489082112, 0
331, 0.75318077315344, -0.049205096028652, 0
332, 0.8273548626648, -0.13825893275064, 0
333, 0.3870906803679, -0.19257375564659, 0
334, 0.33508119625228, -0.16734544367797, 0
335, 0.33966560482633, -0.13633471488433, 0
336, 0.43311288762822, 0.023516291871303, 0
337, 0.37947692743317, -0.063154863635234, 0
338, 0.97456914521598, 0.13526610235571, 0
339, 0.97458567727731, 0.082072235663507, 0
340, 0.94833957699549, 0.10655147069822, 0
341, 0.97452179847224, 0.10870130953786, 0
342, 0.15742742975522, 0.27287156387142, 0
343, 0.13105768583286, 0.24527566238045, 0
344, 0.10520270858059, 0.27280089197457, 0
345, 0.13129348462208, 0.27283774583542, 0
346, 0.051511571127032, 0.10862988832252, 0
347, 0.025705190993307, 0.082490818711088, 0
348, 0.025795506284782, 0.13816087662428, 0
349, 0.02562735852881, 0.11037374701185, 0
350, 0.10708056218143, -0.11061696440656, 0
351, 0.079796344578241, -0.1642157375142, 0
352, 0.052864604973927, -0.056334655231104, 0
353, 0.13453676455811, -0.084343127216668, 0
354, 0.053066382069174, -0.13728486995965, 0
355, 0.052602593835891, -0.029203982866603, 0
356, 0.079276662459292, -0.27277048032272, 0
357, 0.025950573031914, 0.026912675000626, 0
358, 0.052304272452993, -0.0018951735313887, 0
359, 0.18522300227159, -0.27277939323525, 0
360, 0.026064536211304, -0.00072498996458437, 0
361, 0.026178884043395, -0.028243683109203, 0
362, 0.18603246079596, -0.19082385890907, 0
363, 0.026435067540316, -0.11016026758074, 0
364, 0.079226716102366, -0.030056949938852, 0
365, 0.29217271403377, -0.24690964121161, 0
366, 0.31992788035308, -0.2737430206809, 0
367, 0.13286673093445, -0.21836750789167, 0
368, 0.29223035808132, -0.27332205045905, 0
369, 0.68824624085578, 0.2425831354173, 0
370, 0.66496738908275, 0.27103657919412, 0
371, 0.71224381983553, 0.27117804956838, 0
372, 0.68863020459057, 0.27105826615146, 0
373, 0.1622770155811, -0.084473299642986, 0
374, 0.26253994911188, 0.27318564468028, 0
375, 0.2343656745203, 0.24570745720401, 0
376, 0.20985814213163, 0.27302542812145, 0
377, 0.23617657836098, 0.27313241031091, 0
378, 0.28617896416243, 0.24595132173098, 0
379, 0.31529749271488, 0.27322426383307, 0
380, 0.28892379715251, 0.27322722772153, 0
381, 0.27808097065421, -0.059633993854157, 0
382, 0.026574649150579, -0.21883773104096, 0
383, 0.23818468584192, -0.21829307615716, 0
384, 0.21521537083758, -0.033745602169256, 0
385, 0.13334938630116, -0.1640981154387, 0
386, 0.65928320054529, -0.24352765235889, 0
387, 0.97508620053486, -0.13657227364291, 0
388, 0.87308713081088, 0.0018683747296319, 0
389, 0.3491089558831, -0.24960275705155, 0
390, 0.37784633376946, -0.27372573195412, 0
391, 0.34851917302631, -0.27415881378992, 0
392, 0.63511570384065, -0.26969417353847, 0
393, 0.94975921619562, -0.026440388638842, 0
394, 0.6518037402264, -0.12462334014493, 0
395, 0.74555658363576, 0.0053332147526496, 0
396, 0.18267651978354, 0.24540058784063, 0
397, 0.18361204778764, 0.27292449552534, 0
398, 0.78088386319717, -0.10863506128578, 0
399, 0.79802192694553, -0.19493582288755, 0
400, 0.85147828590242, -0.13803683825019, 0
401, 0.73538300324059, -0.1061720155332, 0
402, 0.75634159829755, -0.077963291306331, 0
403, 0.63748984212769, -0.14997788033027, 0
404, 0.77149339105866, 0.0042643313296726, 0
405, 0.69161781071674, -0.10111397098008, 0
406, 0.76442050685068, -0.27441607364926, 0
407, 0.87167937769632, -0.24715453312002, 0
408, 0.94958059055882, 0.00077233916285677, 0
409, 0.33812382922613, 0.24604635135399, 0
410, 0.36785050709282, 0.27308395904948, 0
411, 0.34162474363611, 0.27319938272621, 0
412, 0.94884355067778, 0.054283504127011, 0
413, 0.97471794013117, 0.055247261432992, 0
414, 0.83257657312701, 0.24836355030346, 0
415, 0.80770148432871, 0.27277423439193, 0
416, 0.8577253116146, 0.27263584605034, 0
417, 0.83278932262031, 0.27395771053582, 0
418, 0.95061216705467, 0.15940116528689, 0
419, 0.97536798204455, 0.18981431754839, 0
420, 0.97530742400453, 0.16234234330575, 0
421, 0.52044916376901, 0.27197065534142, 0
422, 0.56952693962556, 0.27133421296309, 0
423, 0.54143491612559, 0.24384314343817, 0
424, 0.54515082884833, 0.27184654148726, 0
425, 0.63987903283842, 0.24267443389867, 0
426, 0.61742761918077, 0.27088235602971, 0
427, 0.64123252215443, 0.2710149982294, 0
428, 0.81845708615523, -0.27440259232876, 0
429, 0.74159538426519, 0.031469385664907, 0
430, 0.97490626443322, -0.081414130908178, 0
431, 0.051793776684517, 0.053204392979407, 0
432, 0.025839893773143, 0.054656883169211, 0
433, 0.49145055395995, 0.24433020563934, 0
434, 0.47047504001397, 0.27227680317912, 0
435, 0.49554841521624, 0.27204691217871, 0
436, 0.079339265830346, 0.24540063638845, 0
437, 0.053057125633045, 0.27283974018713, 0
438, 0.079142719145828, 0.27279918272529, 0
439, 0.69800522417782, -0.017809234961765, 0
440, 0.81933679385624, -0.24825916460237, 0
441, 0.84560589042365, -0.24774685582785, 0
442, 0.77470515132498, -0.022816978998166, 0
443, 0.87154124979861, -0.27367116325244, 0
444, 0.69717338779324, -0.19344458404836, 0
445, 0.87435650390535, -0.02553686910447, 0
446, 0.92328426059069, -0.27300056109961, 0
447, 0.92377317155408, -0.21924961259761, 0
448, 0.97538333894489, 0.24473160851897, 0
449, 0.95132473463701, 0.21519234865482, 0
450, 0.97537654817853, 0.21729647853064, 0
451, 0.88144830834106, 0.24369005808545, 0
452, 0.90519810578801, 0.27161490418185, 0
453, 0.88169375836715, 0.27198526123124, 0
454, 0.10329588674132, 0.10637945380197, 0
455, 0.077538559382164, 0.079634480534, 0
456, 0.077613948377467, 0.13503505903138, 0
457, 0.077432266135793, 0.10733339163084, 0
458, 0.80194995071727, -0.051670972551823, 0
459, 0.87586711925471, -0.13777491761225, 0
460, 0.78335718382419, 0.24414943718651, 0
461, 0.75953634767501, 0.27173864028275, 0
462, 0.78342958041146, 0.27223377646734, 0
463, 0.16007594325562, -0.16387963515587, 0
464, 0.2432558002239, -0.034521391843297, 0
465, 0.053058652162391, -0.083338770999496, 0
466, 0.079790509530404, -0.19122217588377, 0
467, 0.38991995685207, 0.24557070915095, 0
468, 0.4196263773249, 0.27267188277039, 0
469, 0.3938604190131, 0.27286387400515, 0
470, 0.026898168430379, 0.24652715969007, 0
471, 0.026810247457789, 0.27310624911955, 0
472, 0.73599120799336, 0.2428162543298, 0
473, 0.73585504368023, 0.27136489261368, 0
474, 0.59086930437165, 0.242761168678, 0
475, 0.59355256923461, 0.27082913400276, 0
476, 0.12995389317345, 0.18956213730935, 0
477, 0.10487069112851, 0.21759722722078, 0
478, 0.15617077017628, 0.2174737351867, 0
479, 0.13055646815427, 0.21748148888041, 0
480, 0.15838789431662, -0.0054887973628908, 0
481, 0.18323582477305, 0.021045546674952, 0
482, 0.21159972217149, -0.0071058784946583, 0
483, 0.15933963256726, -0.21831151339311, 0
484, 0.18501737066514, -0.0062924587361559, 0
485, 0.44095186209381, 0.24492155380342, 0
486, 0.44516444419218, 0.2725145847418, 0
487, 0.052081100338795, 0.16386253106763, 0
488, 0.026403224896033, 0.19296444849555, 0
489, 0.026044166396987, 0.16571413839884, 0
490, 0.69252430522161, 0.0082249049709445, 0
491, 0.89988233636551, -0.16523110799838, 0
492, 0.20562697684084, 0.16137083779269, 0
493, 0.18005024431445, 0.13307462560123, 0
494, 0.15493042751052, 0.16137109066008, 0
495, 0.18092429716792, 0.18948451539144, 0
496, 0.18032566818914, 0.16130240762191, 0
497, 0.25841007068394, 0.21810077291837, 0
498, 0.30970181317249, 0.21850967493252, 0
499, 0.28240835119961, 0.19042752478321, 0
500, 0.28402120269938, 0.21831503001886, 0
501, 0.053061540426592, 0.21855860621094, 0
502, 0.026754664990054, 0.21986497104187, 0
503, 0.90048027752335, -0.1374943335318, 0
504, 0.97498265625693, -0.19175519252468, 0
505, 0.07968571024948, -0.056971535815175, 0
506, 0.23813841808478, -0.19036416547474, 0
507, 0.13217830766526, -0.2728829555014, 0
508, 0.15911978347958, -0.24559074797525, 0
509, 0.10519004146152, -0.0038307305627072, 0
510, 0.13077476015931, 0.022577580274429, 0
511, 0.18781131827903, -0.13648139820058, 0
512, 0.13176633118148, -0.0046778500718924, 0
513, 0.20729871675323, 0.21769996853237, 0
514, 0.18174552982714, 0.21754865472112, 0
515, 0.026468812518451, -0.19176840036085, 0
516, 0.15960356401221, -0.19103862866269, 0
517, 0.95186947892949, 0.27163697604006, 0
518, 0.97553324951178, 0.27217373303288, 0
519, 0.3847215800574, 0.08030077412536, 0
520, 0.46067155783978, 0.055120164801856, 0
521, 0.36031667075817, 0.033514298713059, 0
522, 0.47831100175501, -0.032459671042639, 0
523, 0.33431353280072, 0.026775607862846, 0
524, 0.078228829999434, 0.024447148005174, 0
525, 0.026384731023949, -0.16459508294583, 0
526, 0.078691379026053, -0.0029152315913526, 0
527, 0.26801166826339, -0.13299472264318, 0
528, 0.10672910095213, -0.057552135485184, 0
529, 0.10618633237189, -0.2455730119024, 0
530, 0.053117619246776, -0.11030071246757, 0
531, 0.92193597349827, 0.079971950281037, 0
532, 0.89438427034675, 0.10571084764687, 0
533, 0.92205694956394, 0.13099970641409, 0
534, 0.92161145480112, 0.10556318460528, 0
535, 0.079740709905255, -0.24549564688022, 0
536, 0.13377486097193, -0.13722970451586, 0
537, 0.92802696365701, 0.2428229165553, 0
538, 0.92851151374643, 0.27147694190931, 0
539, 0.18669933337354, -0.16349630307346, 0
540, 0.10657776422668, -0.16418365999151, 0
541, 0.18959535113087, -0.058940824429029, 0
542, 0.21935963276385, -0.084159919145621, 0
543, 0.56345076899245, 0.16182229542284, 0
544, 0.53810599480811, 0.13533152665146, 0
545, 0.51161566552992, 0.16214839769297, 0
546, 0.53778808640011, 0.18888075800427, 0
547, 0.53749676349133, 0.16192461566877, 0
548, 0.25607391167925, 0.16189830356026, 0
549, 0.30670268674954, 0.16295348625431, 0
550, 0.28079177704315, 0.1341776358577, 0
551, 0.28132752992929, 0.16236662977124, 0
552, 0.58101194789419, -0.27888776568579, 0
553, 0.61189548041929, -0.24718291978093, 0
554, 0.61063378845493, -0.27381848899333, 0
555, 0.86817732468818, 0.081623050349033, 0
556, 0.83922335819326, 0.10978279609264, 0
557, 0.86643993858175, 0.13160559837014, 0
558, 0.86675569586924, 0.1071293868968, 0
559, 0.18950743351647, -0.11010120852653, 0
560, 0.26414876457468, -0.21871438376064, 0
561, 0.18560105192114, -0.2455467820533, 0
562, 0.79972723971806, -0.023756765300625, 0
563, 0.76812333830844, 0.030685906434469, 0
564, 0.92530928199928, -0.10941850002716, 0
565, 0.94999390846585, -0.081531061809453, 0
566, 0.56421115164075, 0.21572758733179, 0
567, 0.5138502126901, 0.21652024463202, 0
568, 0.53905062645391, 0.21618525843041, 0
569, 0.16079055872337, -0.13697610095896, 0
570, 0.026280987476387, -0.055640412622561, 0
571, 0.18575023459327, -0.21822545195149, 0
572, 0.23916106775188, -0.16223670419482, 0
573, 0.30601295208924, 0.10704602283981, 0
574, 0.28156317401709, 0.07743627831483, 0
575, 0.25579086586001, 0.10514482226561, 0
576, 0.28084272744466, 0.10587360764908, 0
577, 0.47876688766089, -0.27239200350758, 0
578, 0.43122664076862, -0.26450676738318, 0
579, 0.45356013126684, -0.2688806980511, 0
580, 0.71315635091327, 0.21439669996701, 0
581, 0.69047085597601, 0.18696379173043, 0
582, 0.66425120910553, 0.21474698820005, 0
583, 0.68882438844055, 0.21454220405148, 0
584, 0.97447548752673, -0.24615225634492, 0
585, 0.76919962878109, -0.22224463674217, 0
586, 0.87156557876979, 0.028881715554014, 0
587, 0.71331018539106, -0.10403285858967, 0
588, 0.70964498979833, -0.07355136361339, 0
589, 0.33750602984184, -0.1970159464505, 0
590, 0.33595679920309, -0.10320723229243, 0
591, 0.95008066833044, -0.1092456682798, 0
592, 0.974964065773, 0.00092327066611493, 0
593, 0.71236230638841, -0.24777599452829, 0
594, 0.67176523492217, -0.13000831279904, 0
595, 0.33355288671675, 0.19116344137121, 0
596, 0.36130449377696, 0.21866699511243, 0
597, 0.33546913709141, 0.21866566714107, 0
598, 0.94931327553064, -0.21900957391034, 0
599, 0.73931647459629, -0.24834624821647, 0
600, 0.67005258848438, -0.097358692841785, 0
601, 0.053278094722003, -0.24545190142974, 0
602, 0.27539001991298, -0.10644373509766, 0
603, 0.10390053635637, 0.050961487726517, 0
604, 0.077832422839165, 0.051982844832555, 0
605, 0.5928202235135, -0.074557607137812, 0
606, 0.53416357382155, -0.013930684627903, 0
607, 0.12935175147238, 0.077826913624693, 0
608, 0.15592315426194, 0.049371534391949, 0
609, 0.12994614826032, 0.050101662467607, 0
610, 0.23165852183268, 0.18982010271018, 0
611, 0.23284545062569, 0.21789616903651, 0
612, 0.89622763166272, 0.054437871112016, 0
613, 0.92261377859594, 0.054010136183096, 0
614, 0.57199189396632, 0.058877399263756, 0
615, 0.54899756883237, 0.032132866709652, 0
616, 0.51690285985776, 0.058280344871696, 0
617, 0.54161923067935, 0.083218901802549, 0
618, 0.54469787910643, 0.057614130846142, 0
619, 0.19047893845564, -0.08443075714543, 0
620, 0.21208021405815, -0.24558573077354, 0
621, 0.27174246130646, -0.035221584021181, 0
622, 0.39872504988723, -0.07924967892553, 0
623, 0.80802786260562, 0.21804098145504, 0
624, 0.78721322598214, 0.18694717817914, 0
625, 0.76095366408334, 0.21473246747699, 0
626, 0.7844459014207, 0.21577132810027, 0
627, 0.84377928659155, 0.056878686577438, 0
628, 0.86988248380138, 0.055485362038547, 0
629, 0.70377540964018, -0.04486148068215, 0
630, 0.65969615812064, -0.15897429049527, 0
631, 0.79136881431649, 0.056392063794151, 0
632, 0.81509035626518, 0.082634396371089, 0
633, 0.81777294421602, 0.056588059593291, 0
634, 0.92494517206364, -0.16482026266019, 0
635, 0.97492649787533, -0.026477107505856, 0
636, 0.92437606341793, -0.19216051040366, 0
637, 0.7290461413587, -0.16672770300578, 0
638, 0.10602674212859, -0.030837542095165, 0
639, 0.10635565074797, -0.21834677689272, 0
640, 0.24927512910146, -0.083584949405418, 0
641, 0.28835992152963, -0.1911097245801, 0
642, 0.31619510334537, -0.22165701794332, 0
643, 0.29003882626611, -0.21973915244949, 0
644, 0.41128632173814, -0.24161296025091, 0
645, 0.40620743379126, -0.27032331765072, 0
646, 0.48672199191103, 0.1893781601486, 0
647, 0.46323229127353, 0.21702342086098, 0
648, 0.48856168787135, 0.216767008427, 0
649, 0.37207735681736, -0.22583280918673, 0
650, 0.39857120851505, -0.21895499126904, 0
651, 0.84517980180423, -0.27406428182335, 0
652, 0.78010476806602, -0.13820493662631, 0
653, 0.8761871823979, -0.1095892772609, 0
654, 0.85076994602782, -0.052814503594467, 0
655, 0.89743057124127, 0.028041562794661, 0
656, 0.80354136101029, -0.13833694334596, 0
657, 0.53003236480097, -0.27011238147446, 0
658, 0.50514039120705, -0.27298488004176, 0
659, 0.85781199483666, 0.21761654530706, 0
660, 0.83287511693087, 0.22312460705671, 0
661, 0.33165208211321, 0.13615701343756, 0
662, 0.35816643968058, 0.16413045079864, 0
663, 0.33229851230859, 0.16363433648828, 0
664, 0.48560694898933, 0.13532678661131, 0
665, 0.46008433623523, 0.1621022876102, 0
666, 0.48577977481622, 0.16220824486574, 0
667, 0.56111061215153, -0.24849395035743, 0
668, 0.55337287442871, -0.27396825369543, 0
669, 0.84945259245632, -0.02486619787896, 0
670, 0.97475921626856, -0.21907174264308, 0
671, 0.82322363456127, -0.19448201338087, 0
672, 0.74308243656127, -0.22215712657841, 0
673, 0.92456041718057, -0.026338952395481, 0
674, 0.71866460868223, 0.15918497358915, 0
675, 0.69796497799957, 0.1336849434496, 0
676, 0.66752891911726, 0.16054961352694, 0
677, 0.69322087836729, 0.15990807283265, 0
678, 0.61450937198178, 0.21506638781719, 0
679, 0.58897045408062, 0.18823418918409, 0
680, 0.58938744833375, 0.21527063870816, 0
681, 0.90160459651715, 0.15671372963742, 0
682, 0.92713598355378, 0.18567713089106, 0
683, 0.92601243400948, 0.1576152593608, 0
684, 0.38505596138671, 0.19065489131932, 0
685, 0.41252283418066, 0.21760374027341, 0
686, 0.38702295360412, 0.21814923385554, 0
687, 0.23052041892788, 0.13320939107792, 0
688, 0.23086160845423, 0.16156945519214, 0
689, 0.44749831809624, -0.041886177239873, 0
690, 0.5018735842899, -0.0099573142528605, 0
691, 0.51096104971824, -0.031379726701997, 0
692, 0.82552007612654, -0.16668400733349, 0
693, 0.89940430125749, -0.026045190166027, 0
694, 0.74948710975623, -0.021496462859299, 0
695, 0.85166558714698, -0.081091246572166, 0
696, 0.71926339653435, 0.0067015405420083, 0
697, 0.64007232106579, -0.20962980687746, 0
698, 0.60744922731231, -0.21595469005821, 0
699, 0.61600641691097, -0.19378364291569, 0
700, 0.6400664488232, 0.187732829911, 0
701, 0.63947397938125, 0.21493293800471, 0
702, 0.20551203973134, 0.10471940087224, 0
703, 0.23150053521969, 0.076365701038741, 0
704, 0.23070692166723, 0.10479081200125, 0
705, 0.72942695158179, 0.1075618287994, 0
706, 0.70624702412798, 0.083062601669685, 0
707, 0.67486398640648, 0.10893793852341, 0
708, 0.70212294628717, 0.10823974009748, 0
709, 0.61561533520098, 0.16140001004261, 0
710, 0.59105337971352, 0.13549411503701, 0
711, 0.58951872379666, 0.16162931260346, 0
712, 0.51274360540112, 0.10919697021834, 0
713, 0.56623247140177, 0.10958503463977, 0
714, 0.53946858963724, 0.10910499607294, 0
715, 0.73975471567478, 0.18619288468123, 0
716, 0.73720869347306, 0.21438941489544, 0
717, 0.95006942410928, -0.16450010356874, 0
718, 0.79519902175394, -0.22204394676475, 0
719, 0.89756704029995, -0.27331115423145, 0
720, 0.43583186246358, 0.18964876897692, 0
721, 0.43789588310863, 0.21729245614299, 0
722, 0.3835573732946, 0.13560821123137, 0
723, 0.40931095515808, 0.16213780924372, 0
724, 0.38392588496627, 0.16313482004663, 0
725, 0.37116536419801, -0.041965831485244, 0
726, 0.46852792003906, -0.012920189243628, 0
727, 0.52594077329256, 0.0099984579385898, 0
728, 0.58160031914901, 0.0091178258232012, 0
729, 0.55496785040236, 0.0064040835097121, 0
730, 0.31443110777894, -0.0079936010386647, 0
731, 0.4341654395801, 0.078800121130989, 0
732, 0.46131177266896, 0.030260717209, 0
733, 0.38087039693293, -0.0070287266874171, 0
734, 0.62038936753353, 0.10980751461227, 0
735, 0.59608478839535, 0.084555390877952, 0
736, 0.5932344047796, 0.10982551208653, 0
737, 0.43406764031082, 0.13432022660139, 0
738, 0.43460726876946, 0.16199493498892, 0
739, 0.76856206734236, 0.15789646904578, 0
740, 0.75193792463724, 0.13219289246708, 0
741, 0.74380636720473, 0.1584558883577, 0
742, 0.644462617265, 0.13498795286903, 0
743, 0.64164204025187, 0.16105493812333, 0
744, 0.9249223547066, -0.053840830066452, 0
745, 0.65843047557334, -0.27208776767066, 0
746, 0.72396962536103, -0.019793248828489, 0
747, 0.8749377789734, -0.16570469388161, 0
748, 0.79714454456476, 0.0035316307535432, 0
749, 0.65121633751928, 0.084377585239899, 0
750, 0.64761644421784, 0.10949776310939, 0
751, 0.07854174284478, 0.19033925649767, 0
752, 0.079064525326659, 0.21790695018944, 0
753, 0.87533616235909, -0.053307273146902, 0
754, 0.87253275054526, -0.22037033244282, 0
755, 0.77758471887913, -0.050655863575176, 0
756, 0.90051108080353, -0.081528792884776, 0
757, 0.6374915504025, 0.010530040263476, 0
758, 0.6855234933147, -0.24651141296647, 0
759, 0.13433070917126, -0.11065009414058, 0
760, 0.24614142505201, -0.10815726871791, 0
761, 0.16178765425807, -0.11050300207109, 0
762, 0.71473867975468, 0.032511755258104, 0
763, 0.87370943298049, -0.19323825566751, 0
764, 0.30064093732803, -0.035439372010454, 0
765, 0.26419107901568, -0.0085900238079892, 0
766, 0.28567980612284, 0.01999740292927, 0
767, 0.28978611349034, -0.0088212768881739, 0
768, 0.24156887632475, -0.13451005385308, 0
769, 0.21175757765389, -0.27280255970577, 0
770, 0.30783234738516, 0.050590696332087, 0
771, 0.2581775627255, 0.048095411332124, 0
772, 0.28309432921237, 0.048820920410895, 0
773, 0.46228931872813, 0.0073933197797525, 0
774, 0.42043077233355, -0.05832882494302, 0
775, 0.94972445190954, -0.19185980347453, 0
776, 0.35779570071873, 0.1104650161902, 0
777, 0.33157434879847, 0.10878688299436, 0
778, 0.60404044849341, 0.034944368784365, 0
779, 0.60942792538902, 0.010451143579317, 0
780, 0.26520466467619, -0.24614055081602, 0
781, 0.23858222724538, -0.2457467860013, 0
782, 0.21816028776157, -0.059282810358078, 0
783, 0.68296368786859, 0.058758718474053, 0
784, 0.6274771164696, 0.059813523654548, 0
785, 0.65529361321773, 0.05947329742607, 0
786, 0.58914208648496, -0.23279231319201, 0
787, 0.94923806552602, 0.027691206366982, 0
788, 0.72237102336079, -0.19475947016755, 0
789, 0.89852486947672, 0.0012021921000009, 0
790, 0.8010730645421, -0.16704177817568, 0
791, 0.31473932684907, -0.081244633600996, 0
792, 0.13401538055215, -0.058074986064848, 0
793, 0.30999439124025, -0.059253004190759, 0
794, 0.5996503673584, 0.059619813332328, 0
795, 0.10378473868569, 0.16200718120631, 0
796, 0.078004682473771, 0.16271234511795, 0
797, 0.12909688464214, 0.13361821799557, 0
798, 0.12942238766078, 0.16159153275623, 0
799, 0.40632374095629, -0.040659708566974, 0
800, 0.48704829716831, 0.0828958450355, 0
801, 0.49097256372081, 0.033815079285013, 0
802, 0.48861668333942, 0.057768457669436, 0
803, 0.40899296307374, 0.10594477771256, 0
804, 0.38386836811598, 0.10804053561433, 0
805, 0.23836174958446, -0.27287565221232, 0
806, 0.21757921267155, -0.10935476919623, 0
807, 0.49461215108851, 0.011385807962888, 0
808, 0.78440515785033, 0.10716350061986, 0
809, 0.8078714187985, 0.13251382725958, 0
810, 0.81202442867034, 0.1080590323831, 0
811, 0.90438463009584, 0.21408212092772, 0
812, 0.92770196146559, 0.21417961578001, 0
813, 0.84780051897716, 0.0027155210133542, 0
814, 0.92519328682256, -0.081576432866323, 0
815, 0.15468632281824, 0.1051863970335, 0
816, 0.12905559190713, 0.10568329451984, 0
817, 0.79149527069306, -0.27445824077664, 0
818, 0.82462284552442, -0.0243935011182, 0
819, 0.73296346669965, -0.076065923805517, 0
820, 0.18075209681708, 0.076731439505972, 0
821, 0.18017395496655, 0.10486312879797, 0
822, 0.4597093413177, 0.10782420495456, 0
823, 0.43401076803652, 0.10659707213535, 0
824, 0.43409768773294, 0.050985471982086, 0
825, 0.20748721811489, 0.048281507157325, 0
826, 0.18178665437335, 0.048758544283366, 0
827, 0.88033678633931, 0.18596179906365, 0
828, 0.88122119084575, 0.21505909675613, 0
829, 0.76094943470918, 0.081987218214401, 0
830, 0.75683949251568, 0.10710942143567, 0
831, 0.21204830765442, -0.21819107540895, 0
832, 0.079977257970893, -0.083736280635138, 0
833, 0.7376448626104, 0.057097403774838, 0
834, 0.7104198192559, 0.057892728200044, 0
835, 0.48605353359844, 0.10883558930225, 0
836, 0.7927112420418, 0.15795469884663, 0
837, 0.82025679948054, 0.03005875382858, 0
838, 0.29377115594442, -0.13142992591726, 0
839, 0.28911419878917, -0.16127255444418, 0
840, 0.23514858203761, 0.019848053395821, 0
841, 0.21225310532272, -0.19057209302563, 0
842, 0.2380431173661, -0.0079100605391226, 0
843, 0.38572464909511, 0.052103881106732, 0
844, 0.23296892104612, 0.048009457960877, 0
845, 0.34338167943471, -0.22444942771552, 0
846, 0.79434299212731, 0.03023224390336, 0
847, 0.69082015892058, -0.22017178228778, 0
848, 0.94892754376619, -0.24599411516123, 0
849, 0.97485274829293, 0.028190739663598, 0
850, 0.95015443428011, -0.13694139032724, 0
851, 0.8775738590291, 0.15684085400468, 0
852, 0.080009313276104, -0.11047749014402, 0
853, 0.26354201026802, -0.19040686322586, 0
854, 0.87598840210427, -0.081369805545322, 0
855, 0.97495062869305, -0.10896584673319, 0
856, 0.94881711914832, -0.27294224493122, 0
857, 0.84844515734151, -0.19387584250017, 0
858, 0.76463635656478, 0.056557897371713, 0
859, 0.18754326589323, -0.032998693023663, 0
860, 0.10679816687116, -0.13730878765417, 0
861, 0.33296707256578, 0.054331569987067, 0
862, 0.38563064931086, 0.023018827593693, 0
863, 0.30548293935059, -0.1044015802242, 0
864, 0.64800691638649, -0.092993810628255, 0
865, 0.40806573038871, 0.015759823003419, 0
866, 0.71302624901554, -0.13554902554658, 0
867, 0.62452725574905, -0.038318022078729, 0
868, 0.83452238590408, 0.17165772815105, 0
869, 0.35916168664612, -0.17373488862628, 0
870, 0.8263323057756, -0.052348524658606, 0
871, 0.85194039862095, -0.10957038826129, 0
872, 0.58847659345499, -0.015696849703508, 0
873, 0.82754582575573, -0.080759831295609, 0
874, 0.36081433150532, -0.1133998947243, 0
875, 0.3320331075804, 0.081539306694566, 0
876, 0.7571367546442, -0.13777543127657, 0
877, 0.61527540333812, -0.135868232475, 0
878, 0.62460691075781, -0.089627711785495, 0
879, 0.61180362068748, -0.06379434213814, 0
880, 0.56332094175509, -0.020406924502741, 0
881, 0.63084404011648, -0.11726442293023, 0
882, 0.36376099205799, -0.2004549869591, 0
883, 0.3603876890309, -0.14641681023526, 0
884, 0.40945536407033, 0.077125616689011, 0
885, 0.40967308154885, 0.047280535157845, 0
886, 0.43055165978214, -0.0024795044453952, 0
******* E L E M E N T S *************
*ELEMENT, type=CPS4, ELSET=Surface1
1, 237, 340, 341, 338
2, 338, 341, 52, 63
3, 341, 339, 62, 52
4, 340, 276, 339, 341
5, 100, 93, 345, 342
6, 342, 345, 343, 173
7, 345, 344, 174, 343
8, 93, 101, 344, 345
9, 168, 348, 349, 346
10, 346, 349, 347, 201
11, 349, 106, 117, 347
12, 348, 116, 106, 349
13, 638, 221, 512, 509
14, 483, 571, 362, 516
15, 206, 217, 466, 223
16, 506, 853, 214, 572
17, 529, 215, 367, 639
18, 220, 354, 530, 363
19, 781, 780, 560, 383
20, 218, 356, 535, 601
21, 560, 643, 641, 853
22, 108, 360, 357, 118
23, 360, 358, 204, 357
24, 525, 148, 354, 220
25, 223, 466, 351, 148
26, 148, 351, 147, 354
27, 119, 361, 360, 108
28, 860, 536, 759, 350
29, 216, 353, 792, 528
30, 365, 368, 366, 152
31, 368, 15, 23, 366
32, 540, 385, 536, 860
33, 248, 371, 372, 369
34, 369, 372, 370, 252
35, 372, 72, 81, 370
36, 371, 80, 72, 372
37, 362, 841, 209, 539
38, 602, 863, 791, 149
39, 14, 22, 222, 805
40, 361, 355, 358, 360
41, 98, 91, 377, 374
42, 374, 377, 375, 177
43, 377, 376, 176, 375
44, 91, 99, 376, 377
45, 178, 379, 380, 378
46, 378, 380, 374, 177
47, 380, 90, 98, 374
48, 379, 97, 90, 380
49, 110, 363, 205, 120
50, 569, 511, 559, 761
51, 210, 601, 206, 382
52, 211, 541, 859, 208
53, 381, 793, 764, 621
54, 355, 364, 526, 358
55, 535, 529, 639, 217
56, 385, 463, 569, 536
57, 58, 48, 855, 387
58, 158, 491, 747, 763
59, 591, 565, 814, 564
60, 403, 877, 9, 316
61, 152, 366, 391, 389
62, 389, 391, 390, 151
63, 391, 16, 24, 390
64, 366, 23, 16, 391
65, 746, 696, 490, 439
66, 503, 283, 653, 459
67, 35, 443, 651, 42
68, 856, 848, 161, 446
69, 173, 396, 397, 342
70, 342, 397, 92, 100
71, 397, 376, 99, 92
72, 396, 176, 376, 397
73, 304, 785, 784, 267
74, 408, 787, 281, 285
75, 293, 593, 758, 157
76, 847, 444, 273, 291
77, 695, 654, 870, 873
78, 154, 876, 652, 398
79, 593, 297, 847, 758
80, 459, 653, 871, 400
81, 634, 279, 503, 491
82, 652, 876, 289, 162
83, 599, 672, 297, 593
84, 748, 846, 563, 404
85, 180, 410, 411, 409
86, 409, 411, 379, 178
87, 411, 89, 97, 379
88, 410, 96, 89, 411
89, 276, 412, 413, 339
90, 339, 413, 51, 62
91, 656, 155, 398, 652
92, 458, 562, 442, 755
93, 244, 416, 417, 414
94, 414, 417, 415, 245
95, 417, 69, 78, 415
96, 416, 77, 69, 417
97, 63, 53, 420, 338
98, 338, 420, 418, 237
99, 420, 419, 241, 418
100, 53, 64, 419, 420
101, 253, 423, 424, 421
102, 421, 424, 83, 86
103, 424, 422, 6, 83
104, 423, 146, 422, 424
105, 81, 73, 427, 370
106, 370, 427, 425, 252
107, 427, 426, 251, 425
108, 73, 82, 426, 427
109, 594, 394, 403, 630
110, 718, 399, 274, 585
111, 439, 629, 325, 746
112, 754, 763, 857, 302
113, 204, 431, 432, 357
114, 357, 432, 107, 118
115, 432, 347, 117, 107
116, 431, 201, 347, 432
117, 253, 421, 435, 433
118, 433, 435, 434, 181
119, 435, 84, 87, 434
120, 421, 86, 84, 435
121, 101, 94, 438, 344
122, 344, 438, 436, 174
123, 438, 437, 172, 436
124, 94, 102, 437, 438
125, 669, 813, 324, 818
126, 848, 598, 447, 161
127, 775, 717, 634, 636
128, 592, 849, 787, 408
129, 671, 692, 790, 399
130, 504, 300, 717, 775
131, 439, 490, 303, 311
132, 46, 57, 504, 670
133, 298, 877, 881, 878
134, 59, 49, 284, 430
135, 870, 818, 562, 458
136, 717, 850, 279, 634
137, 243, 449, 450, 448
138, 448, 450, 54, 65
139, 450, 419, 64, 54
140, 449, 241, 419, 450
141, 242, 452, 453, 451
142, 451, 453, 416, 244
143, 453, 68, 77, 416
144, 452, 76, 68, 453
145, 166, 456, 457, 454
146, 454, 457, 455, 202
147, 457, 346, 201, 455
148, 456, 168, 346, 457
149, 57, 47, 300, 504
150, 302, 857, 671, 301
151, 446, 161, 286, 719
152, 157, 758, 386, 745
153, 78, 70, 462, 415
154, 415, 462, 460, 245
155, 462, 461, 246, 460
156, 70, 79, 461, 462
157, 354, 147, 852, 530
158, 639, 367, 228, 213
159, 19, 12, 507, 230
160, 571, 831, 841, 362
161, 121, 220, 363, 110
162, 122, 515, 525, 111
163, 782, 219, 464, 384
164, 145, 468, 469, 467
165, 467, 469, 410, 180
166, 469, 88, 96, 410
167, 468, 7, 88, 469
168, 102, 95, 471, 437
169, 437, 471, 470, 172
170, 471, 103, 114, 470
171, 95, 8, 103, 471
172, 79, 71, 473, 461
173, 461, 473, 472, 246
174, 473, 371, 248, 472
175, 71, 80, 371, 473
176, 82, 74, 475, 426
177, 426, 475, 474, 251
178, 475, 422, 146, 474
179, 74, 6, 422, 475
180, 169, 478, 479, 476
181, 476, 479, 477, 170
182, 479, 343, 174, 477
183, 478, 173, 343, 479
184, 511, 150, 806, 559
185, 480, 484, 481, 199
186, 484, 482, 200, 481
187, 217, 639, 213, 466
188, 181, 434, 486, 485
189, 485, 486, 468, 145
190, 486, 85, 7, 468
191, 434, 87, 85, 486
192, 171, 488, 489, 487
193, 487, 489, 348, 168
194, 489, 105, 116, 348
195, 488, 115, 105, 489
196, 814, 744, 278, 756
197, 387, 855, 591, 850
198, 299, 400, 332, 692
199, 301, 671, 399, 718
200, 175, 495, 496, 492
201, 492, 496, 493, 165
202, 496, 494, 167, 493
203, 495, 169, 494, 496
204, 163, 499, 500, 497
205, 497, 500, 378, 177
206, 500, 498, 178, 378
207, 499, 186, 498, 500
208, 172, 470, 502, 501
209, 501, 502, 488, 171
210, 502, 104, 115, 488
211, 470, 114, 104, 502
212, 871, 695, 873, 159
213, 33, 406, 270, 40
214, 400, 871, 159, 332
215, 854, 753, 654, 695
216, 859, 384, 482, 484
217, 364, 638, 509, 526
218, 356, 230, 529, 535
219, 621, 764, 767, 765
220, 222, 368, 365, 780
221, 509, 512, 510, 203
222, 512, 480, 199, 510
223, 219, 381, 621, 464
224, 176, 396, 514, 513
225, 513, 514, 495, 175
226, 514, 478, 169, 495
227, 396, 173, 478, 514
228, 230, 507, 215, 529
229, 464, 621, 765, 842
230, 351, 540, 860, 147
231, 760, 602, 149, 640
232, 65, 55, 518, 448
233, 448, 518, 517, 243
234, 518, 66, 75, 517
235, 55, 5, 66, 518
236, 725, 308, 227, 337
237, 774, 138, 127, 689
238, 336, 732, 520, 824
239, 862, 843, 309, 521
240, 852, 350, 216, 832
241, 358, 526, 524, 204
242, 526, 509, 203, 524
243, 123, 210, 382, 112
244, 841, 506, 572, 209
245, 768, 527, 602, 760
246, 113, 207, 210, 123
247, 109, 570, 361, 119
248, 237, 533, 534, 340
249, 340, 534, 531, 276
250, 534, 532, 277, 531
251, 533, 238, 532, 534
252, 353, 373, 211, 792
253, 120, 205, 570, 109
254, 208, 859, 484, 480
255, 209, 572, 768, 150
256, 243, 517, 538, 537
257, 537, 538, 452, 242
258, 538, 67, 76, 452
259, 517, 75, 67, 538
260, 539, 209, 150, 511
261, 527, 838, 863, 602
262, 214, 839, 838, 527
263, 640, 149, 381, 219
264, 254, 546, 547, 543
265, 543, 547, 544, 256
266, 547, 545, 257, 544
267, 546, 255, 545, 547
268, 164, 550, 551, 548
269, 548, 551, 499, 163
270, 551, 549, 186, 499
271, 550, 188, 549, 551
272, 156, 553, 554, 392
273, 392, 554, 30, 38
274, 554, 552, 3, 30
275, 553, 294, 552, 554
276, 238, 557, 558, 532
277, 532, 558, 555, 277
278, 558, 556, 272, 555
279, 557, 236, 556, 558
280, 150, 768, 760, 806
281, 570, 352, 355, 361
282, 149, 791, 793, 381
283, 620, 781, 383, 831
284, 818, 324, 748, 562
285, 443, 407, 441, 651
286, 753, 445, 669, 654
287, 813, 313, 837, 324
288, 146, 423, 568, 566
289, 566, 568, 546, 254
290, 568, 567, 255, 546
291, 423, 253, 567, 568
292, 350, 759, 353, 216
293, 507, 212, 508, 215
294, 559, 806, 542, 619
295, 205, 465, 352, 570
296, 188, 550, 576, 573
297, 573, 576, 574, 190
298, 576, 575, 198, 574
299, 550, 164, 575, 576
300, 141, 578, 579, 131
301, 131, 579, 577, 142
302, 579, 25, 28, 577
303, 578, 2, 25, 579
304, 248, 369, 583, 580
305, 580, 583, 581, 247
306, 583, 582, 249, 581
307, 369, 252, 582, 583
308, 445, 388, 813, 669
309, 324, 837, 846, 748
310, 837, 633, 631, 846
311, 393, 408, 285, 673
312, 335, 883, 226, 874
313, 874, 226, 139, 322
314, 333, 224, 869, 882
315, 321, 320, 838, 839
316, 291, 273, 296, 697
317, 284, 635, 393, 269
318, 855, 430, 565, 591
319, 290, 292, 314, 311
320, 179, 596, 597, 595
321, 595, 597, 498, 186
322, 597, 409, 178, 498
323, 596, 180, 409, 597
324, 694, 331, 755, 442
325, 846, 631, 858, 563
326, 394, 881, 877, 403
327, 10, 18, 218, 207
328, 463, 539, 511, 569
329, 542, 640, 219, 782
330, 352, 505, 364, 355
331, 203, 603, 604, 524
332, 524, 604, 431, 204
333, 604, 455, 201, 431
334, 603, 202, 455, 604
335, 605, 298, 878, 879
336, 600, 594, 295, 405
337, 325, 819, 402, 331
338, 289, 637, 788, 282
339, 199, 608, 609, 510
340, 510, 609, 603, 203
341, 609, 607, 202, 603
342, 608, 197, 607, 609
343, 177, 375, 611, 497
344, 497, 611, 610, 163
345, 611, 513, 175, 610
346, 375, 176, 513, 611
347, 277, 612, 613, 531
348, 531, 613, 412, 276
349, 50, 61, 849, 592
350, 330, 584, 848, 856
351, 265, 617, 618, 614
352, 614, 618, 615, 268
353, 618, 616, 266, 615
354, 617, 264, 616, 618
355, 466, 213, 540, 351
356, 12, 20, 212, 507
357, 528, 792, 221, 638
358, 780, 365, 643, 560
359, 731, 189, 822, 823
360, 799, 337, 622, 774
361, 799, 774, 689, 310
362, 245, 460, 626, 623
363, 623, 626, 624, 233
364, 626, 625, 234, 624
365, 460, 246, 625, 626
366, 272, 627, 628, 555
367, 555, 628, 612, 277
368, 673, 285, 789, 693
369, 61, 51, 413, 849
370, 879, 878, 864, 306
371, 287, 405, 587, 588
372, 630, 403, 316, 296
373, 314, 287, 588, 629
374, 37, 330, 856, 44
375, 313, 627, 633, 837
376, 633, 632, 271, 631
377, 627, 272, 632, 633
378, 4, 45, 330, 37
379, 867, 306, 315, 292
380, 746, 325, 331, 694
381, 655, 612, 628, 586
382, 505, 528, 638, 364
383, 212, 359, 561, 508
384, 759, 761, 373, 353
385, 147, 860, 350, 852
386, 516, 362, 539, 463
387, 649, 882, 589, 845
388, 365, 152, 642, 643
389, 2, 578, 645, 17
390, 17, 645, 390, 24
391, 645, 644, 151, 390
392, 578, 141, 644, 645
393, 255, 567, 648, 646
394, 646, 648, 647, 183
395, 648, 433, 181, 647
396, 567, 253, 433, 648
397, 151, 644, 650, 649
398, 589, 334, 321, 225
399, 863, 590, 227, 791
400, 644, 141, 130, 650
401, 787, 412, 613, 281
402, 849, 413, 412, 787
403, 440, 301, 718, 323
404, 670, 504, 775, 598
405, 32, 293, 157, 39
406, 295, 594, 630, 280
407, 694, 395, 696, 746
408, 756, 278, 753, 854
409, 29, 657, 658, 26
410, 26, 658, 577, 28
411, 658, 132, 142, 577
412, 657, 143, 132, 658
413, 240, 659, 660, 318
414, 318, 660, 623, 233
415, 660, 414, 245, 623
416, 659, 244, 414, 660
417, 187, 662, 663, 661
418, 661, 663, 549, 188
419, 663, 595, 186, 549
420, 662, 179, 595, 663
421, 257, 545, 666, 664
422, 664, 666, 665, 185
423, 666, 646, 183, 665
424, 545, 255, 646, 666
425, 143, 657, 668, 667
426, 667, 668, 552, 294
427, 668, 27, 3, 552
428, 657, 29, 27, 668
429, 447, 636, 158, 326
430, 43, 719, 443, 35
431, 281, 613, 612, 655
432, 279, 564, 283, 503
433, 247, 581, 677, 674
434, 674, 677, 675, 260
435, 677, 676, 259, 675
436, 581, 249, 676, 677
437, 251, 474, 680, 678
438, 678, 680, 679, 250
439, 680, 566, 254, 679
440, 474, 146, 566, 680
441, 237, 418, 683, 533
442, 533, 683, 681, 238
443, 683, 682, 239, 681
444, 418, 241, 682, 683
445, 182, 685, 686, 684
446, 684, 686, 596, 179
447, 686, 467, 180, 596
448, 685, 145, 467, 686
449, 163, 610, 688, 548
450, 548, 688, 687, 164
451, 688, 492, 165, 687
452, 610, 175, 492, 688
453, 824, 520, 189, 731
454, 773, 807, 801, 732
455, 872, 305, 779, 728
456, 288, 606, 690, 691
457, 430, 284, 269, 565
458, 285, 281, 655, 789
459, 758, 847, 291, 386
460, 275, 585, 672, 599
461, 331, 402, 312, 755
462, 819, 401, 154, 402
463, 48, 59, 430, 855
464, 56, 46, 670, 584
465, 296, 316, 699, 697
466, 697, 699, 698, 156
467, 699, 134, 144, 698
468, 316, 9, 134, 699
469, 252, 425, 701, 582
470, 582, 701, 700, 249
471, 701, 678, 250, 700
472, 425, 251, 678, 701
473, 196, 703, 704, 702
474, 702, 704, 687, 165
475, 704, 575, 164, 687
476, 703, 198, 575, 704
477, 260, 675, 708, 705
478, 705, 708, 706, 261
479, 708, 707, 262, 706
480, 675, 259, 707, 708
481, 250, 679, 711, 709
482, 709, 711, 710, 258
483, 711, 543, 256, 710
484, 679, 254, 543, 711
485, 265, 713, 714, 617
486, 617, 714, 712, 264
487, 714, 544, 257, 712
488, 713, 256, 544, 714
489, 246, 472, 716, 625
490, 625, 716, 715, 234
491, 716, 580, 247, 715
492, 472, 248, 580, 716
493, 327, 458, 755, 312
494, 606, 727, 807, 690
495, 311, 314, 629, 439
496, 183, 647, 721, 720
497, 720, 721, 685, 182
498, 721, 485, 145, 685
499, 647, 181, 485, 721
500, 184, 723, 724, 722
501, 722, 724, 662, 187
502, 724, 684, 179, 662
503, 723, 182, 684, 724
504, 519, 804, 776, 191
505, 886, 310, 726, 773
506, 523, 194, 730, 192
507, 328, 329, 872, 880
508, 729, 615, 266, 727
509, 728, 268, 615, 729
510, 689, 127, 137, 522
511, 885, 884, 519, 843
512, 193, 192, 730, 229
513, 521, 523, 192, 232
514, 258, 710, 736, 734
515, 734, 736, 735, 263
516, 736, 713, 265, 735
517, 710, 256, 713, 736
518, 185, 665, 738, 737
519, 737, 738, 723, 184
520, 738, 720, 182, 723
521, 665, 183, 720, 738
522, 234, 715, 741, 739
523, 739, 741, 740, 235
524, 741, 674, 260, 740
525, 715, 247, 674, 741
526, 249, 700, 743, 676
527, 676, 743, 742, 259
528, 743, 709, 258, 742
529, 700, 250, 709, 743
530, 315, 600, 405, 287
531, 719, 286, 407, 443
532, 307, 280, 273, 444
533, 636, 634, 491, 158
534, 588, 587, 401, 819
535, 155, 327, 312, 398
536, 404, 563, 429, 395
537, 280, 630, 296, 273
538, 259, 742, 750, 707
539, 707, 750, 749, 262
540, 750, 734, 263, 749
541, 742, 258, 734, 750
542, 174, 436, 752, 477
543, 477, 752, 751, 170
544, 752, 501, 171, 751
545, 436, 172, 501, 752
546, 790, 656, 652, 162
547, 585, 274, 282, 672
548, 41, 817, 406, 33
549, 789, 655, 586, 388
550, 864, 394, 594, 600
551, 744, 673, 693, 278
552, 297, 788, 444, 847
553, 228, 516, 463, 385
554, 619, 542, 782, 541
555, 213, 228, 385, 540
556, 832, 216, 528, 505
557, 40, 270, 293, 32
558, 305, 867, 292, 290
559, 762, 834, 783, 153
560, 386, 291, 697, 156
561, 194, 766, 767, 730
562, 730, 767, 764, 229
563, 363, 530, 465, 205
564, 766, 195, 765, 767
565, 515, 223, 148, 525
566, 382, 206, 223, 515
567, 359, 769, 620, 561
568, 769, 805, 781, 620
569, 190, 574, 772, 770
570, 770, 772, 766, 194
571, 772, 771, 195, 766
572, 574, 198, 771, 772
573, 773, 726, 690, 807
574, 654, 669, 818, 870
575, 564, 814, 756, 283
576, 587, 866, 160, 401
577, 311, 303, 757, 290
578, 865, 336, 824, 885
579, 573, 777, 661, 188
580, 777, 776, 187, 661
581, 875, 190, 770, 861
582, 268, 728, 779, 778
583, 778, 779, 757, 267
584, 779, 305, 290, 757
585, 880, 872, 728, 729
586, 11, 19, 230, 356
587, 806, 760, 640, 542
588, 831, 383, 506, 841
589, 761, 559, 619, 373
590, 572, 214, 527, 768
591, 207, 218, 601, 210
592, 367, 483, 516, 228
593, 530, 852, 832, 465
594, 262, 749, 785, 783
595, 388, 586, 313, 813
596, 857, 299, 692, 671
597, 749, 263, 784, 785
598, 294, 553, 786, 667
599, 667, 786, 133, 143
600, 786, 698, 144, 133
601, 553, 156, 698, 786
602, 763, 747, 299, 857
603, 651, 441, 440, 428
604, 672, 282, 788, 297
605, 31, 745, 392, 38
606, 229, 764, 793, 308
607, 308, 793, 791, 227
608, 465, 832, 505, 352
609, 383, 560, 853, 506
610, 267, 784, 794, 778
611, 778, 794, 614, 268
612, 794, 735, 265, 614
613, 784, 263, 735, 794
614, 170, 751, 796, 795
615, 795, 796, 456, 166
616, 796, 487, 168, 456
617, 751, 171, 487, 796
618, 169, 476, 798, 494
619, 494, 798, 797, 167
620, 798, 795, 166, 797
621, 476, 170, 795, 798
622, 732, 801, 802, 520
623, 802, 616, 264, 800
624, 801, 266, 616, 802
625, 231, 865, 862, 733
626, 520, 802, 800, 189
627, 804, 722, 187, 776
628, 803, 184, 722, 804
629, 13, 21, 769, 359
630, 1, 10, 207, 113
631, 373, 619, 541, 211
632, 805, 222, 780, 781
633, 189, 800, 835, 822
634, 733, 862, 521, 232
635, 807, 727, 266, 801
636, 288, 691, 126, 136
637, 236, 809, 810, 556
638, 556, 810, 632, 272
639, 810, 808, 271, 632
640, 809, 235, 808, 810
641, 242, 811, 812, 537
642, 537, 812, 449, 243
643, 812, 682, 241, 449
644, 811, 239, 682, 812
645, 850, 591, 564, 279
646, 326, 158, 763, 754
647, 60, 50, 592, 635
648, 159, 873, 327, 155
649, 202, 607, 816, 454
650, 454, 816, 797, 166
651, 816, 815, 167, 797
652, 607, 197, 815, 816
653, 873, 870, 458, 327
654, 653, 854, 695, 871
655, 428, 440, 323, 817
656, 395, 429, 762, 696
657, 442, 404, 395, 694
658, 399, 790, 162, 274
659, 878, 881, 394, 864
660, 407, 754, 302, 441
661, 165, 493, 821, 702
662, 702, 821, 820, 196
663, 821, 815, 197, 820
664, 493, 167, 815, 821
665, 184, 803, 823, 737
666, 737, 823, 822, 185
667, 886, 773, 732, 336
668, 777, 573, 190, 875
669, 191, 875, 861, 309
670, 231, 733, 193, 725
671, 884, 731, 823, 803
672, 884, 803, 804, 519
673, 199, 481, 826, 608
674, 608, 826, 820, 197
675, 826, 825, 196, 820
676, 481, 200, 825, 826
677, 239, 811, 828, 827
678, 827, 828, 659, 240
679, 828, 451, 244, 659
680, 811, 242, 451, 828
681, 261, 829, 830, 705
682, 705, 830, 740, 260
683, 830, 808, 235, 740
684, 829, 271, 808, 830
685, 221, 208, 480, 512
686, 601, 535, 217, 206
687, 853, 641, 839, 214
688, 876, 160, 637, 289
689, 783, 834, 706, 262
690, 834, 833, 261, 706
691, 269, 393, 673, 744
692, 822, 835, 664, 185
693, 835, 712, 257, 664
694, 800, 264, 712, 835
695, 235, 809, 836, 739
696, 739, 836, 624, 234
697, 836, 317, 233, 624
698, 809, 236, 317, 836
699, 300, 387, 850, 717
700, 490, 153, 304, 303
701, 332, 159, 155, 656
702, 491, 503, 459, 747
703, 882, 869, 334, 589
704, 536, 569, 761, 759
705, 215, 508, 483, 367
706, 838, 320, 590, 863
707, 792, 211, 208, 221
708, 482, 842, 840, 200
709, 842, 765, 195, 840
710, 20, 13, 359, 212
711, 231, 886, 336, 865
712, 774, 622, 128, 138
713, 622, 322, 139, 128
714, 200, 840, 844, 825
715, 825, 844, 703, 196
716, 844, 771, 198, 703
717, 840, 195, 771, 844
718, 152, 389, 845, 642
719, 334, 335, 320, 321
720, 320, 335, 874, 590
721, 389, 151, 649, 845
722, 402, 154, 398, 312
723, 586, 628, 627, 313
724, 45, 56, 584, 330
725, 745, 386, 156, 392
726, 562, 748, 404, 442
727, 34, 428, 817, 41
728, 329, 879, 306, 867
729, 817, 323, 275, 406
730, 42, 651, 428, 34
731, 44, 856, 446, 36
732, 303, 304, 267, 757
733, 286, 326, 754, 407
734, 240, 319, 851, 827
735, 827, 851, 681, 239
736, 851, 557, 238, 681
737, 319, 236, 557, 851
738, 112, 382, 515, 122
739, 22, 15, 368, 222
740, 21, 14, 805, 769
741, 49, 60, 635, 284
742, 441, 302, 301, 440
743, 866, 295, 280, 307
744, 693, 789, 388, 445
745, 161, 447, 326, 286
746, 747, 459, 400, 299
747, 306, 864, 600, 315
748, 278, 693, 445, 753
749, 39, 157, 745, 31
750, 283, 756, 854, 653
751, 563, 858, 833, 429
752, 635, 592, 408, 393
753, 833, 858, 829, 261
754, 858, 631, 271, 829
755, 696, 762, 153, 490
756, 384, 464, 842, 482
757, 561, 620, 831, 571
758, 541, 782, 384, 859
759, 508, 561, 571, 483
760, 725, 193, 229, 308
761, 861, 770, 194, 523
762, 733, 232, 192, 193
763, 111, 525, 220, 121
764, 642, 225, 641, 643
765, 845, 589, 225, 642
766, 18, 11, 356, 218
767, 843, 519, 191, 309
768, 231, 799, 310, 886
769, 337, 227, 322, 622
770, 160, 866, 307, 637
771, 292, 315, 287, 314
772, 405, 295, 866, 587
773, 309, 861, 523, 521
774, 522, 137, 126, 691
775, 692, 332, 656, 790
776, 598, 775, 636, 447
777, 323, 718, 585, 275
778, 162, 289, 282, 274
779, 401, 160, 876, 154
780, 629, 588, 819, 325
781, 236, 319, 868, 317
782, 317, 868, 318, 233
783, 319, 240, 318, 868
784, 225, 321, 839, 641
785, 129, 139, 226, 224
786, 869, 883, 335, 334
787, 270, 599, 593, 293
788, 36, 446, 719, 43
789, 153, 783, 785, 304
790, 406, 275, 599, 270
791, 429, 833, 834, 762
792, 584, 670, 598, 848
793, 328, 605, 879, 329
794, 328, 288, 136, 125
795, 328, 125, 135, 605
796, 637, 307, 444, 788
797, 47, 58, 387, 300
798, 565, 269, 744, 814
799, 224, 226, 883, 869
800, 590, 874, 322, 227
801, 650, 333, 882, 649
802, 776, 777, 875, 191
803, 865, 885, 843, 862
804, 328, 880, 606, 288
805, 124, 9, 877, 298
806, 135, 124, 298, 605
807, 329, 867, 305, 872
808, 880, 729, 727, 606
809, 140, 129, 224, 333
810, 130, 140, 333, 650
811, 726, 522, 691, 690
812, 231, 725, 337, 799
813, 310, 689, 522, 726
814, 885, 824, 731, 884
*ELSET,ELSET=contact_source
101, 102, 103, 104, 105, 106, 107, 108, 109, 110, 
111, 112, 113, 114, 115, 116, 117, 118, 119, 120, 
121, 122, 
*ELSET,ELSET=contact_drain
39, 40, 41, 42, 43, 44, 45, 46, 47, 48, 
49, 50, 51, 52, 53, 54, 55, 56, 57, 58, 
59, 60, 
*ELSET,ELSET=probe_A
79, 80, 81, 82, 83, 84, 
*ELSET,ELSET=probe_B
17, 18, 19, 20, 21, 22, 
*ELSET,ELSET=walls
1, 2, 3, 4, 5, 6, 7, 8, 9, 10, 
11, 12, 13, 14, 15, 16, 23, 24, 25, 26, 
27, 28, 29, 30, 31, 32, 33, 34, 35, 36, 
37, 38, 61, 62, 63, 64, 65, 66, 67, 68, 
69, 70, 71, 72, 73, 74, 75, 76, 77, 78, 
85, 86, 87, 88, 89, 90, 91, 92, 93, 94, 
95, 96, 97, 98, 99, 100, 123, 124, 125, 126, 
127, 128, 129, 130, 131, 132, 133, 134, 135, 136, 
137, 138, 139, 140, 141, 142, 143, 144, 
*ELSET,ELSET=domain
145, 146, 147, 148, 149, 150, 151, 152, 153, 154, 
155, 156, 157, 158, 159, 160, 161, 162, 163, 164, 
165, 166, 167, 168, 169, 170, 171, 172, 173, 174, 
175, 176, 177, 178, 179, 180, 181, 182, 183, 184, 
185, 186, 187, 188, 189, 190, 191, 192, 193, 194, 
195, 196, 197, 198, 199, 200, 201, 202, 203, 204, 
205, 206, 207, 208, 209, 210, 211, 212, 213, 214, 
215, 216, 217, 218, 219, 220, 221, 222, 223, 224, 
225, 226, 227, 228, 229, 230, 231, 232, 233, 234, 
235, 236, 237, 238, 239, 240, 241, 242, 243, 244, 
245, 246, 247, 248, 249, 250, 251, 252, 253, 254, 
255, 256, 257, 258, 259, 260, 261, 262, 263, 264, 
265, 266, 267, 268, 269, 270, 271, 272, 273, 274, 
275, 276, 277, 278, 279, 280, 281, 282, 283, 284, 
285, 286, 287, 288, 289, 290, 291, 292, 293, 294, 
295, 296, 297, 298, 299, 300, 301, 302, 303, 304, 
305, 306, 307, 308, 309, 310, 311, 312, 313, 314, 
315, 316, 317, 318, 319, 320, 321, 322, 323, 324, 
325, 326, 327, 328, 329, 330, 331, 332, 333, 334, 
335, 336, 337, 338, 339, 340, 341, 342, 343, 344, 
345, 346, 347, 348, 349, 350, 351, 352, 353, 354, 
355, 356, 357, 358, 359, 360, 361, 362, 363, 364, 
365, 366, 367, 368, 369, 370, 371, 372, 373, 374, 
375, 376, 377, 378, 379, 380, 381, 382, 383, 384, 
385, 386, 387, 388, 389, 390, 391, 392, 393, 394, 
395, 396, 397, 398, 399, 400, 401, 402, 403, 404, 
405, 406, 407, 408, 409, 410, 411, 412, 413, 414, 
415, 416, 417, 418, 419, 420, 421, 422, 423, 424, 
425, 426, 427, 428, 429, 430, 431, 432, 433, 434, 
435, 436, 437, 438, 439, 440, 441, 442, 443, 444, 
445, 446, 447, 448, 449, 450, 451, 452, 453, 454, 
455, 456, 457, 458, 459, 460, 461, 462, 463, 464, 
465, 466, 467, 468, 469, 470, 471, 472, 473, 474, 
475, 476, 477, 478, 479, 480, 481, 482, 483, 484, 
485, 486, 487, 488, 489, 490, 491, 492, 493, 494, 
495, 496, 497, 498, 499, 500, 501, 502, 503, 504, 
505, 506, 507, 508, 509, 510, 511, 512, 513, 514, 
515, 516, 517, 518, 519, 520, 521, 522, 523, 524, 
525, 526, 527, 528, 529, 530, 531, 532, 533, 534, 
535, 536, 537, 538, 539, 540, 541, 542, 543, 544, 
545, 546, 547, 548, 549, 550, 551, 552, 553, 554, 
555, 556, 557, 558, 559, 560, 561, 562, 563, 564, 
565, 566, 567, 568, 569, 570, 571, 572, 573, 574, 
575, 576, 577, 578, 579, 580, 581, 582, 583, 584, 
585, 586, 587, 588, 589, 590, 591, 592, 593, 594, 
595, 596, 597, 598, 599, 600, 601, 602, 603, 604, 
605, 606, 607, 608, 609, 610, 611, 612, 613, 614, 
615, 616, 617, 618, 619, 620, 621, 622, 623, 624, 
625, 626, 627, 628, 629, 630, 631, 632, 633, 634, 
635, 636, 637, 638, 639, 640, 641, 642, 643, 644, 
645, 646, 647, 648, 649, 650, 651, 652, 653, 654, 
655, 656, 657, 658, 659, 660, 661, 662, 663, 664, 
665, 666, 667, 668, 669, 670, 671, 672, 673, 674, 
675, 676, 677, 678, 679, 680, 681, 682, 683, 684, 
685, 686, 687, 688, 689, 690, 691, 692, 693, 694, 
695, 696, 697, 698, 699, 700, 701, 702, 703, 704, 
705, 706, 707, 708, 709, 710, 711, 712, 713, 714, 
715, 716, 717, 718, 719, 720, 721, 722, 723, 724, 
725, 726, 727, 728, 729, 730, 731, 732, 733, 734, 
735, 736, 737, 738, 739, 740, 741, 742, 743, 744, 
745, 746, 747, 748, 749, 750, 751, 752, 753, 754, 
755, 756, 757, 758, 759, 760, 761, 762, 763, 764, 
765, 766, 767, 768, 769, 770, 771, 772, 773, 774, 
775, 776, 777, 778, 779, 780, 781, 782, 783, 784, 
785, 786, 787, 788, 789, 790, 791, 792, 793, 794, 
795, 796, 797, 798, 799, 800, 801, 802, 803, 804, 
805, 806, 807, 808, 809, 810, 811, 812, 813, 814, 
815, 816, 817, 818, 819, 820, 821, 822, 823, 824, 
825, 826, 827, 828, 829, 830, 831, 832, 833, 834, 
835, 836, 837, 838, 839, 840, 841, 842, 843, 844, 
845, 846, 847, 848, 849, 850, 851, 852, 853, 854, 
855, 856, 857, 858, 859, 860, 861, 862, 863, 864, 
865, 866, 867, 868, 869, 870, 871, 872, 873, 874, 
875, 876, 877, 878, 879, 880, 881, 882, 883, 884, 
885, 886, 887, 888, 889, 890, 891, 892, 893, 894, 
895, 896, 897, 898, 899, 900, 901, 902, 903, 904, 
905, 906, 907, 908, 909, 910, 911, 912, 913, 914, 
915, 916, 917, 918, 919, 920, 921, 922, 923, 924, 
925, 926, 927, 928, 929, 930, 931, 932, 933, 934, 
935, 936, 937, 938, 939, 940, 941, 942, 943, 944, 
945, 946, 947, 948, 949, 950, 951, 952, 953, 954, 
955, 956, 957, 958, 
*NSET,NSET=contact_source
1, 8, 103, 104, 105, 106, 107, 108, 109, 110, 
111, 112, 113, 114, 115, 116, 117, 118, 119, 120, 
121, 122, 123, 
*NSET,NSET=contact_drain
4, 5, 45, 46, 47, 48, 49, 50, 51, 52, 
53, 54, 55, 56, 57, 58, 59, 60, 61, 62, 
63, 64, 65, 
*NSET,NSET=probe_A
6, 7, 83, 84, 85, 86, 87, 
*NSET,NSET=probe_B
2, 3, 25, 26, 27, 28, 29, 
*NSET,NSET=walls
1, 2, 3, 4, 5, 6, 7, 8, 9, 10, 
11, 12, 13, 14, 15, 16, 17, 18, 19, 20, 
21, 22, 23, 24, 30, 31, 32, 33, 34, 35, 
36, 37, 38, 39, 40, 41, 42, 43, 44, 66, 
67, 68, 69, 70, 71, 72, 73, 74, 75, 76, 
77, 78, 79, 80, 81, 82, 88, 89, 90, 91, 
92, 93, 94, 95, 96, 97, 98, 99, 100, 101, 
102, 124, 125, 126, 127, 128, 129, 130, 131, 132, 
133, 134, 135, 136, 137, 138, 139, 140, 141, 142, 
143, 144, 
*NSET,NSET=domain
1, 2, 3, 4, 5, 6, 7, 8, 9, 10, 
11, 12, 13, 14, 15, 16, 17, 18, 19, 20, 
21, 22, 23, 24, 25, 26, 27, 28, 29, 30, 
31, 32, 33, 34, 35, 36, 37, 38, 39, 40, 
41, 42, 43, 44, 45, 46, 47, 48, 49, 50, 
51, 52, 53, 54, 55, 56, 57, 58, 59, 60, 
61, 62, 63, 64, 65, 66, 67, 68, 69, 70, 
71, 72, 73, 74, 75, 76, 77, 78, 79, 80, 
81, 82, 83, 84, 85, 86, 87, 88, 89, 90, 
91, 92, 93, 94, 95, 96, 97, 98, 99, 100, 
101, 102, 103, 104, 105, 106, 107, 108, 109, 110, 
111, 112, 113, 114, 115, 116, 117, 118, 119, 120, 
121, 122, 123, 124, 125, 126, 127, 128, 129, 130, 
131, 132, 133, 134, 135, 136, 137, 138, 139, 140, 
141, 142, 143, 144, 145, 146, 147, 148, 149, 150, 
151, 152, 153, 154, 155, 156, 157, 158, 159, 160, 
161, 162, 163, 164, 165, 166, 167, 168, 169, 170, 
171, 172, 173, 174, 175, 176, 177, 178, 179, 180, 
181, 182, 183, 184, 185, 186, 187, 188, 189, 190, 
191, 192, 193, 194, 195, 196, 197, 198, 199, 200, 
201, 202, 203, 204, 205, 206, 207, 208, 209, 210, 
211, 212, 213, 214, 215, 216, 217, 218, 219, 220, 
221, 222, 223, 224, 225, 226, 227, 228, 229, 230, 
231, 232, 233, 234, 235, 236, 237, 238, 239, 240, 
241, 242, 243, 244, 245, 246, 247, 248, 249, 250, 
251, 252, 253, 254, 255, 256, 257, 258, 259, 260, 
261, 262, 263, 264, 265, 266, 267, 268, 269, 270, 
271, 272, 273, 274, 275, 276, 277, 278, 279, 280, 
281, 282, 283, 284, 285, 286, 287, 288, 289, 290, 
291, 292, 293, 294, 295, 296, 297, 298, 299, 300, 
301, 302, 303, 304, 305, 306, 307, 308, 309, 310, 
311, 312, 313, 314, 315, 316, 317, 318, 319, 320, 
321, 322, 323, 324, 325, 326, 327, 328, 329, 330, 
331, 332, 333, 334, 335, 336, 337, 338, 339, 340, 
341, 342, 343, 344, 345, 346, 347, 348, 349, 350, 
351, 352, 353, 354, 355, 356, 357, 358, 359, 360, 
361, 362, 363, 364, 365, 366, 367, 368, 369, 370, 
371, 372, 373, 374, 375, 376, 377, 378, 379, 380, 
381, 382, 383, 384, 385, 386, 387, 388, 389, 390, 
391, 392, 393, 394, 395, 396, 397, 398, 399, 400, 
401, 402, 403, 404, 405, 406, 407, 408, 409, 410, 
411, 412, 413, 414, 415, 416, 417, 418, 419, 420, 
421, 422, 423, 424, 425, 426, 427, 428, 429, 430, 
431, 432, 433, 434, 435, 436, 437, 438, 439, 440, 
441, 442, 443, 444, 445, 446, 447, 448, 449, 450, 
451, 452, 453, 454, 455, 456, 457, 458, 459, 460, 
461, 462, 463, 464, 465, 466, 467, 468, 469, 470, 
471, 472, 473, 474, 475, 476, 477, 478, 479, 480, 
481, 482, 483, 484, 485, 486, 487, 488, 489, 490, 
491, 492, 493, 494, 495, 496, 497, 498, 499, 500, 
501, 502, 503, 504, 505, 506, 507, 508, 509, 510, 
511, 512, 513, 514, 515, 516, 517, 518, 519, 520, 
521, 522, 523, 524, 525, 526, 527, 528, 529, 530, 
531, 532, 533, 534, 535, 536, 537, 538, 539, 540, 
541, 542, 543, 544, 545, 546, 547, 548, 549, 550, 
551, 552, 553, 554, 555, 556, 557, 558, 559, 560, 
561, 562, 563, 564, 565, 566, 567, 568, 569, 570, 
571, 572, 573, 574, 575, 576, 577, 578, 579, 580, 
581, 582, 583, 584, 585, 586, 587, 588, 589, 590, 
591, 592, 593, 594, 595, 596, 597, 598, 599, 600, 
601, 602, 603, 604, 605, 606, 607, 608, 609, 610, 
611, 612, 613, 614, 615, 616, 617, 618, 619, 620, 
621, 622, 623, 624, 625, 626, 627, 628, 629, 630, 
631, 632, 633, 634, 635, 636, 637, 638, 639, 640, 
641, 642, 643, 644, 645, 646, 647, 648, 649, 650, 
651, 652, 653, 654, 655, 656, 657, 658, 659, 660, 
661, 662, 663, 664, 665, 666, 667, 668, 669, 670, 
671, 672, 673, 674, 675, 676, 677, 678, 679, 680, 
681, 682, 683, 684, 685, 686, 687, 688, 689, 690, 
691, 692, 693, 694, 695, 696, 697, 698, 699, 700, 
701, 702, 703, 704, 705, 706, 707, 708, 709, 710, 
711, 712, 713, 714, 715, 716, 717, 718, 719, 720, 
721, 722, 723, 724, 725, 726, 727, 728, 729, 730, 
731, 732, 733, 734, 735, 736, 737, 738, 739, 740, 
741, 742, 743, 744, 745, 746, 747, 748, 749, 750, 
751, 752, 753, 754, 755, 756, 757, 758, 759, 760, 
761, 762, 763, 764, 765, 766, 767, 768, 769, 770, 
771, 772, 773, 774, 775, 776, 777, 778, 779, 780, 
781, 782, 783, 784, 785, 786, 787, 788, 789, 790, 
791, 792, 793, 794, 795, 796, 797, 798, 799, 800, 
801, 802, 803, 804, 805, 806, 807, 808, 809, 810, 
811, 812, 813, 814, 815, 816, 817, 818, 819, 820, 
821, 822, 823, 824, 825, 826, 827, 828, 829, 830, 
831, 832, 833, 834, 835, 836, 837, 838, 839, 840, 
841, 842, 843, 844, 845, 846, 847, 848, 849, 850, 
851, 852, 853, 854, 855, 856, 857, 858, 859, 860, 
861, 862, 863, 864, 865, 866, 867, 868, 869, 870, 
871, 872, 873, 874, 875, 876, 877, 878, 879, 880, 
881, 882, 883, 884, 885, 886, 
