*Heading
 /Users/juliagao/geometry-optimization-net/scripts/../runs/2d/shape_47.inp
*NODE
1, 0, -0.3, 0
2, 0.425, -0.3, 0
3, 0.575, -0.3, 0
4, 1, -0.3, 0
5, 1, 0.3, 0
6, 0.575, 0.3, 0
7, 0.425, 0.3, 0
8, 0, 0.3, 0
9, 0.5958621386, -0.15, 0
10, 0.025766344568905, -0.3, 0
11, 0.077516883366484, -0.3, 0
12, 0.12951399735692, -0.3, 0
13, 0.18173726175841, -0.3, 0
14, 0.23456447565442, -0.3, 0
15, 0.28826206229114, -0.3, 0
16, 0.34291648748244, -0.3, 0
17, 0.39774509764666, -0.3, 0
18, 0.051532689137811, -0.3, 0
19, 0.10350107759516, -0.3, 0
20, 0.15552691711869, -0.3, 0
21, 0.20794760639813, -0.3, 0
22, 0.26118134491071, -0.3, 0
23, 0.31534277967157, -0.3, 0
24, 0.37049019529331, -0.3, 0
25, 0.45072500111984, -0.3, 0
26, 0.50046270553257, -0.3, 0
27, 0.54973770441273, -0.3, 0
28, 0.47645000223969, -0.3, 0
29, 0.52447540882545, -0.3, 0
30, 0.60173337537321, -0.3, 0
31, 0.65577245345816, -0.3, 0
32, 0.70995499017074, -0.3, 0
33, 0.76326131962314, -0.3, 0
34, 0.81601111828427, -0.3, 0
35, 0.86888234174577, -0.3, 0
36, 0.92189125915347, -0.3, 0
37, 0.97417462815462, -0.3, 0
38, 0.62846675074642, -0.3, 0
39, 0.6830781561699, -0.3, 0
40, 0.73683182417158, -0.3, 0
41, 0.7896908150747, -0.3, 0
42, 0.84233142149385, -0.3, 0
43, 0.8954332619977, -0.3, 0
44, 0.94834925630924, -0.3, 0
45, 1, -0.27330034020608, 0
46, 1, -0.21954521980752, 0
47, 1, -0.16497038070949, 0
48, 1, -0.10994681442808, 0
49, 1, -0.055157311329003, 0
50, 1, -0.00035372188396704, 0
51, 1, 0.055223601997349, 0
52, 1, 0.11135195487585, 0
53, 1, 0.16671377748859, 0
54, 1, 0.22059852481738, 0
55, 1, 0.27359537633229, 0
56, 1, -0.24660068041215, 0
57, 1, -0.19248975920289, 0
58, 1, -0.1374510022161, 0
59, 1, -0.082442626640062, 0
60, 1, -0.027871996017943, 0
61, 1, 0.027164552250009, 0
62, 1, 0.083282651744689, 0
63, 1, 0.13942125800701, 0
64, 1, 0.19400629697017, 0
65, 1, 0.24719075266459, 0
66, 0.97395124319185, 0.3, 0
67, 0.92135491329938, 0.3, 0
68, 0.86817761928441, 0.3, 0
69, 0.81485594958092, 0.3, 0
70, 0.76124504362763, 0.3, 0
71, 0.70723737119678, 0.3, 0
72, 0.65334865468412, 0.3, 0
73, 0.60077432671092, 0.3, 0
74, 0.94790248638369, 0.3, 0
75, 0.89480734021506, 0.3, 0
76, 0.84154789835376, 0.3, 0
77, 0.78816400080809, 0.3, 0
78, 0.73432608644717, 0.3, 0
79, 0.68014865594639, 0.3, 0
80, 0.62654865342184, 0.3, 0
81, 0.55021277069963, 0.3, 0
82, 0.50110656550203, 0.3, 0
83, 0.4508937948024, 0.3, 0
84, 0.52542554139926, 0.3, 0
85, 0.4767875896048, 0.3, 0
86, 0.39876222915841, 0.3, 0
87, 0.34594539518922, 0.3, 0
88, 0.29275797993363, 0.3, 0
89, 0.23925104185894, 0.3, 0
90, 0.18527596171193, 0.3, 0
91, 0.13126816680971, 0.3, 0
92, 0.078002262789652, 0.3, 0
93, 0.025833829735756, 0.3, 0
94, 0.37252445831682, 0.3, 0
95, 0.31936633206162, 0.3, 0
96, 0.26614962780565, 0.3, 0
97, 0.21235245591223, 0.3, 0
98, 0.15819946751163, 0.3, 0
99, 0.10433686610779, 0.3, 0
100, 0.051667659471512, 0.3, 0
101, 0, 0.27294942006287, 0
102, 0, 0.21860596983332, 0
103, 0, 0.16391624348854, 0
104, 0, 0.10951473483526, 0
105, 0, 0.055790280447566, 0
106, 0, 0.0015667165119149, 0
107, 0, -0.054001976772434, 0
108, 0, -0.10997196625955, 0
109, 0, -0.16546863885872, 0
110, 0, -0.22002199332095, 0
111, 0, -0.27349186676783, 0
112, 0, 0.24589884012574, 0
113, 0, 0.19131309954089, 0
114, 0, 0.13651938743619, 0
115, 0, 0.082510082234337, 0
116, 0, 0.029070478660794, 0
117, 0, -0.025937045636965, 0
118, 0, -0.082066907907904, 0
119, 0, -0.13787702461119, 0
120, 0, -0.19306025310626, 0
121, 0, -0.24698373353565, 0
122, 0.59199700451744, -0.12305374398237, 0
123, 0.56288808116507, -0.077649196180193, 0
124, 0.51421964574348, -0.055198358427377, 0
125, 0.46138081740009, -0.062261136079636, 0
126, 0.41975322811443, -0.097559508503731, 0
127, 0.40414638528222, -0.15127830860084, 0
128, 0.42106218782211, -0.20439091220532, 0
129, 0.46304964287541, -0.23845462517393, 0
130, 0.51450962601138, -0.24475769281885, 0
131, 0.56228264254198, -0.2228726427193, 0
132, 0.59189875916237, -0.17727943529708, 0
133, 0.58071328714248, -0.098280421724679, 0
134, 0.53997556206063, -0.062870762352984, 0
135, 0.48734617042662, -0.054976686430024, 0
136, 0.43847179304781, -0.076489257225335, 0
137, 0.40797115589001, -0.12316268612529, 0
138, 0.40871956385291, -0.1792819326705, 0
139, 0.44012903597027, -0.22486666314381, 0
140, 0.48882504604632, -0.24520856068579, 0
141, 0.53915227338291, -0.23750228014785, 0
142, 0.58033635223489, -0.20230315517856, 0
143, 0.48981297582536, 0.040528855305203, 0
144, 0.39353014935635, 0.22102766994848, 0
145, 0.07822417969042, -0.21930071021777, 0
146, 0.23521253072887, -0.19524213878459, 0
147, 0.050457778234065, -0.055216537457707, 0
148, 0.10439459263473, -0.21949607434814, 0
149, 0.26576204757691, -0.2482882127113, 0
150, 0.38126108698806, -0.24627453650653, 0
151, 0.27419464443918, -0.082441694500898, 0
152, 0.92342959088778, -0.21779183007374, 0
153, 0.6452176766942, -0.12344263498922, 0
154, 0.70498807943748, -0.1513137339317, 0
155, 0.69305249652474, -0.27343012476151, 0
156, 0.87350787416012, -0.21701896472998, 0
157, 0.8473084539947, -0.2449939511316, 0
158, 0.87069041379339, -0.27296976501208, 0
159, 0.82541336456185, -0.18700970271424, 0
160, 0.80045433950913, -0.15686500861753, 0
161, 0.82480518797437, -0.15806545617287, 0
162, 0.92383512523202, -0.18983368160112, 0
163, 0.20697890602781, 0.1939781021129, 0
164, 0.25925729337495, 0.19439323420153, 0
165, 0.25654562863782, 0.14081936058293, 0
166, 0.2049239048129, 0.13986223662189, 0
167, 0.10256276504043, 0.13842583582356, 0
168, 0.1536803784109, 0.13909129584501, 0
169, 0.05136788590135, 0.13774675619995, 0
170, 0.10326855977546, 0.19289680080219, 0
171, 0.15503968551385, 0.19350707161919, 0
172, 0.05154316743602, 0.19216170141375, 0
173, 0.05186677398758, 0.24621217419165, 0
174, 0.10408408372399, 0.24679314189629, 0
175, 0.15658651616505, 0.24723490809452, 0
176, 0.20932495529149, 0.24741208061106, 0
177, 0.26224778852799, 0.2474328258756, 0
178, 0.31200736779459, 0.19481228093324, 0
179, 0.31533276010742, 0.24745004195114, 0
180, 0.36011968556822, 0.11695007083758, 0
181, 0.44336427068988, 0.14294336999813, 0
182, 0.47177809753537, 0.1677363520527, 0
183, 0.49662581069506, 0.11575773657261, 0
184, 0.50050783707301, 0.24546848834892, 0
185, 0.57657241901191, 0.085928824046363, 0
186, 0.30881805548571, 0.14195314760821, 0
187, 0.60233894356723, 0.061234442745458, 0
188, 0.30536645550228, 0.08858330626201, 0
189, 0.5207310751827, 0.063844522430852, 0
190, 0.52663200432798, 0.2452918905471, 0
191, 0.37636582700756, 0.013889325462, 0
192, 0.5001068327773, 0.21908104942523, 0
193, 0.55192730182271, 0.13955790399128, 0
194, 0.10133492003099, -0.083463563078838, 0
195, 0.15249707981047, 0.083997782642691, 0
196, 0.20303907070167, 0.08500951472691, 0
197, 0.25386855693514, 0.086524995912387, 0
198, 0.20088255612622, -0.055517953880651, 0
199, 0.050771323693898, -0.11048880696192, 0
200, 0.051311035179978, 0.082979548512226, 0
201, 0.10199281061599, 0.083359816543301, 0
202, 0.050720924836248, 0.00020504888474214, 0
203, 0.32482651725905, 0.0085463678305277, 0
204, 0.18398471737433, -0.24702175660659, 0
205, 0.15181091144524, -0.083850026124981, 0
206, 0.025783248072039, 0.055559701951938, 0
207, 0.051804251904596, -0.1922831873705, 0
208, 0.25034623447203, 0.0030551633362663, 0
209, 0.10253949691731, -0.1384659612045, 0
210, 0.24970235863786, -0.02544347617595, 0
211, 0.21029819672305, -0.22118774410741, 0
212, 0.1032464842594, -0.16565081170479, 0
213, 0.025460027660855, -0.13781488203254, 0
214, 0.052117796537466, -0.21923310104434, 0
215, 0.050537740606582, -0.027500640123563, 0
216, 0.32940093252026, 0.063063788421832, 0
217, 0.025598322777278, 0.028213535731196, 0
218, 0.31878389602869, -0.22320240210029, 0
219, 0.025628370262085, -0.16521626659487, 0
220, 0.27640079485095, 0.03253468338971, 0
221, 0.15151167349344, 0.028286336946241, 0
222, 0.077828444531638, -0.19239256653117, 0
223, 0.36358439794833, -0.19302903266741, 0
224, 0.17789964049777, -0.11199573144915, 0
225, 0.35558605167492, -0.13460553619368, 0
226, 0.32098350637853, -0.048722870790272, 0
227, 0.10455906603244, -0.24627418120056, 0
228, 0.10104285309896, -0.055731590417112, 0
229, 0.5510172570239, 0.11342240667333, 0
230, 0.34735611065738, -0.016509000002332, 0
231, 0.4515158391007, -0.012033237923526, 0
232, 0.39405627689054, -0.036309764998859, 0
233, 0.54384892774698, 0.011073812187347, 0
234, 0.50937452394598, -0.0077372663256005, 0
235, 0.78962877765317, 0.19333119716115, 0
236, 0.73695306728061, 0.1933369786462, 0
237, 0.73731828589265, 0.13971731339548, 0
238, 0.79015439643758, 0.13978150082639, 0
239, 0.8429920638012, 0.13952405080332, 0
240, 0.89572280211576, 0.13906580455062, 0
241, 0.94819309401063, 0.13870918179815, 0
242, 0.84236247816845, 0.1931119918854, 0
243, 0.89501636779276, 0.19280931574102, 0
244, 0.94754159383234, 0.19271825431373, 0
245, 0.94714612473807, 0.24641160959254, 0
246, 0.89453238420301, 0.24653061285719, 0
247, 0.84177776591116, 0.2466976335577, 0
248, 0.73593615639096, 0.24697080015085, 0
249, 0.78886779874441, 0.24686816535085, 0
250, 0.68317561223184, 0.24680944143657, 0
251, 0.63199487377615, 0.19250559704171, 0
252, 0.63075385946555, 0.24625255406997, 0
253, 0.52630865317417, 0.27227168555773, 0
254, 0.3870795828883, 0.11752032653847, 0
255, 0.54826345135459, 0.061527979404191, 0
256, 0.55179814008211, 0.27235627605539, 0
257, 0.57936333481437, 0.19201713652422, 0
258, 0.68443399892786, 0.19303004815137, 0
259, 0.63172429684923, 0.13906718737895, 0
260, 0.6845417105219, 0.13935879704595, 0
261, 0.68398942517936, 0.086100155255058, 0
262, 0.63052953556207, 0.086119259357644, 0
263, 0.57924400872615, 0.21869203438277, 0
264, 0.36684120681934, 0.22116696120489, 0
265, 0.40680850687383, 0.041685411105951, 0
266, 0.44800073832582, 0.24660011110538, 0
267, 0.6834536349724, 0.033454468064834, 0
268, 0.62898588962631, 0.034007951855639, 0
269, 0.84347991254121, 0.086054773474748, 0
270, 0.79047227039633, 0.086450230354531, 0
271, 0.73728643964739, 0.086433116183001, 0
272, 0.79091579328837, 0.03335919577124, 0
273, 0.73739906133632, 0.033618681186944, 0
274, 0.84394426149528, 0.032615454792937, 0
275, 0.94859430166008, 0.08439498905454, 0
276, 0.89623949022969, 0.085332815880402, 0
277, 0.89650773567439, 0.031481696556847, 0
278, 0.94859066789962, 0.029886232081674, 0
279, 0.94835149105918, -0.24568826743539, 0
280, 0.89688854751248, -0.022701333842613, 0
281, 0.94854606621201, -0.024775982097294, 0
282, 0.77052658162471, -0.099241631966375, 0
283, 0.84505990839315, -0.27287439744633, 0
284, 0.84963504909959, -0.18782423301148, 0
285, 0.84481821735466, -0.021056967863783, 0
286, 0.79215372700466, -0.019716735242766, 0
287, 0.73871592915961, -0.018853192017263, 0
288, 0.57196256238252, -0.021136283886266, 0
289, 0.68454856734118, -0.018684063001768, 0
290, 0.62993966330817, -0.017040744131129, 0
291, 0.68551699714995, -0.070657968402122, 0
292, 0.62522741670025, -0.069109941082643, 0
293, 0.69703714556414, -0.12269974020593, 0
294, 0.67878379392129, -0.24559800897714, 0
295, 0.6871141441049, -0.21483518046576, 0
296, 0.94914679491777, -0.16270945825738, 0
297, 0.77687451879817, -0.2150895263961, 0
298, 0.92320556150286, -0.078519650471588, 0
299, 0.77803750146563, -0.18517746024516, 0
300, 0.89835962904292, -0.21742035177913, 0
301, 0.89859798826223, -0.13292443420438, 0
302, 0.97441082312255, -0.19128420138535, 0
303, 0.80152341051531, -0.1861263589136, 0
304, 0.97435697721246, -0.080995381424345, 0
305, 0.82343598484547, -0.12961218534484, 0
306, 0.34467025207095, -0.045237223732591, 0
307, 0.42648105931566, -0.0073371030586901, 0
308, 0.41591734514436, -0.057500199178205, 0
309, 0.59969562505412, -0.011434596265576, 0
310, 0.6352565803082, -0.04479755825279, 0
311, 0.59352269134119, -0.049135408824691, 0
312, 0.68163824742937, -0.15052300224336, 0
313, 0.60741397967968, -0.19757602877683, 0
314, 0.56297015765585, -0.25958137981333, 0
315, 0.524726025773, -0.26835498728797, 0
316, 0.42023027802262, 0.22075742836083, 0
317, 0.55266372636186, 0.24530709038037, 0
318, 0.42312285493675, 0.27338232830437, 0
319, 0.62101602185929, -0.13335225366859, 0
320, 0.63657354828274, -0.15613871548292, 0
321, 0.64421648560072, -0.21739631021868, 0
322, 0.22565587995523, 0.0019829117121867, 0
323, 0.30351067157272, 0.061548968293834, 0
324, 0.27950407529979, 0.087493787750383, 0
325, 0.38087057583348, -0.12868917709724, 0
326, 0.34336993426463, -0.075237036134372, 0
327, 0.34420380158528, -0.10655882005893, 0
328, 0.35804104305508, 0.090860661853645, 0
329, 0.60099737222336, 0.036134218617215, 0
330, 0.47909836537061, -0.0082626018104828, 0
331, 0.82251443669339, -0.24474944389718, 0
332, 0.94909681250039, -0.13495512133698, 0
333, 0.79842539913955, -0.12830545705136, 0
334, 0.4431415664279, -0.041510261097796, 0
335, 0.36610033603627, -0.07019173981567, 0
336, 0.36885100321728, -0.040807557429394, 0
337, 0.07579439959458, -0.027789763296774, 0
338, 0.10183373107631, -0.11106228277772, 0
339, 0.25256271643558, 0.059013624059012, 0
340, 0.8945321786082, 0.27332490532234, 0
341, 0.86817855112718, 0.24661442822489, 0
342, 0.84159682730328, 0.2734043361292, 0
343, 0.86809069765865, 0.27336570020807, 0
344, 0.34191368124196, 0.24744602484916, 0
345, 0.31722574090017, 0.27372996781417, 0
346, 0.45758441589699, 0.01468430279467, 0
347, 0.34380647525729, 0.27371836581163, 0
348, 0.68193542045782, 0.27354871163305, 0
349, 0.73517407981638, 0.27361383466409, 0
350, 0.70952186801141, 0.24694492778461, 0
351, 0.70852283750674, 0.27362948417899, 0
352, 0.21070606984053, 0.27383467503275, 0
353, 0.18293058690178, 0.24735831967879, 0
354, 0.15740139429572, 0.27377440635339, 0
355, 0.18403901421881, 0.27383748527042, 0
356, 0.97427816615724, -0.026127686105679, 0
357, 0.7941872214111, -0.27277277886536, 0
358, 0.94862039265926, -0.052193430057616, 0
359, 0.97427799190043, -0.053543564471887, 0
360, 0.22638776802509, 0.03014746421817, 0
361, 0.29148352108837, -0.22294246780847, 0
362, 0.17617486259943, -0.05576506155196, 0
363, 0.075773591211666, -0.055532859610709, 0
364, 0.02570503834959, 0.13728473696273, 0
365, 0.025722386865793, 0.19175044632236, 0
366, 0.05141264683787, 0.16499861962048, 0
367, 0.025668664001533, 0.16453172438742, 0
368, 0.051931769050952, 0.2731212245634, 0
369, 0.025881403235959, 0.24596805203661, 0
370, 0.025926115645508, 0.27296615542579, 0
371, 0.92393972672504, -0.16183793242442, 0
372, 0.92379521320541, -0.13392202219412, 0
373, 0.80051836611229, -0.21556142192117, 0
374, 0.74367404139369, -0.27294092850936, 0
375, 0.81533584816635, 0.24677877114387, 0
376, 0.7884655366943, 0.27351084839259, 0
377, 0.81505440027592, 0.27344515313582, 0
378, 0.12647657184174, 0.02798366256798, 0
379, 0.32070533364506, -0.27409796556991, 0
380, 0.13085788620326, -0.24645453599638, 0
381, 0.077318306366931, -0.16536022772043, 0
382, 0.15109138893448, -0.027794912039686, 0
383, 0.026165688427316, -0.24626668424645, 0
384, 0.051220154165768, 0.055461651707296, 0
385, 0.28877219796269, 0.24742986010824, 0
386, 0.26401400435834, 0.27377295781829, 0
387, 0.29062764317387, 0.27373159994029, 0
388, 0.66576569538741, -0.21573929961608, 0
389, 0.65855164566909, -0.15081658712002, 0
390, 0.64995982536088, -0.18493149742611, 0
391, 0.82191115832495, -0.1017270751434, 0
392, 0.84629619803071, -0.075365411179607, 0
393, 0.94807006702983, -0.2729735778688, 0
394, 0.89749060689852, -0.24541563477827, 0
395, 0.82454513248813, -0.21605507406535, 0
396, 0.8981391399937, -0.10506956642421, 0
397, 0.7481676130633, -0.12539663010641, 0
398, 0.97450461804357, -0.13610530607739, 0
399, 0.87348900423693, -0.13190240653885, 0
400, 0.27792915509989, 0.060182924386658, 0
401, 0.12622254934941, -0.055839366188725, 0
402, 0.17596117986414, -0.02753846646325, 0
403, 0.76239390976438, 0.2469395499627, 0
404, 0.76183088003334, 0.2735726431295, 0
405, 0.2357654935172, 0.24743480343588, 0
406, 0.2373693504507, 0.27381541457581, 0
407, 0.076224381859327, 0.027754652117686, 0
408, 0.25035498410756, -0.083303354045722, 0
409, 0.02578557551943, 0.082814152544095, 0
410, 0.3653511039207, -0.10194717051421, 0
411, 0.12919766351015, -0.16603650922059, 0
412, 0.3778323761814, -0.27265874313722, 0
413, 0.15731855611448, -0.24670785753073, 0
414, 0.29244003833722, -0.27407218551568, 0
415, 0.94895975144387, -0.10727337035996, 0
416, 0.82044090766148, -0.07433457323094, 0
417, 0.87276650100612, -0.10399888036557, 0
418, 0.15395961865893, -0.13925907554481, 0
419, 0.30588431587349, -0.14001614557509, 0
420, 0.12826892255619, -0.13883661307399, 0
421, 0.22537022938985, -0.055049262298098, 0
422, 0.33072930359274, -0.13823522218934, 0
423, 0.13030239714757, 0.24705789138478, 0
424, 0.10438033015487, 0.27350125257557, 0
425, 0.13083574196945, 0.27368228570902, 0
426, 0.12619874295459, 4.3144227038824e-05, 0
427, 0.10098853274158, -0.0279143310147, 0
428, 0.12730820324574, -0.11137312854763, 0
429, 0.87091537868716, -0.021841568053328, 0
430, 0.89723461294416, -0.049991804165859, 0
431, 0.84737279289908, -0.10289154413754, 0
432, 0.84555161392304, -0.0481170872564, 0
433, 0.87144379272344, -0.049029368065054, 0
434, 0.94863956368275, 0.057157381242981, 0
435, 0.974476813756, 0.083867003259965, 0
436, 0.97440082237136, 0.028768631016601, 0
437, 0.9744868700004, 0.056305792651076, 0
438, 0.97350837596942, 0.24655451239734, 0
439, 0.94724286955884, 0.27320111570253, 0
440, 0.97354692796261, 0.27320432999591, 0
441, 0.20068922166726, -0.027104209751408, 0
442, 0.34930702687959, -0.27380789674779, 0
443, 0.32713752845272, 0.036051065278931, 0
444, 0.94853576395744, 0.0025776917648818, 0
445, 0.97430993104015, 0.0013001307743588, 0
446, 0.94846677672759, 0.11158414854274, 0
447, 0.97422422538103, 0.13879977251435, 0
448, 0.97442310535094, 0.11139017099762, 0
449, 0.25581138695547, -0.14079986200125, 0
450, 0.15515709227552, -0.16650301626713, 0
451, 0.97377658580551, 0.193035300778, 0
452, 0.94726708035983, 0.21959657055081, 0
453, 0.97358082762194, 0.21985961351042, 0
454, 0.92275873588211, -0.023662293932366, 0
455, 0.77629396598023, -0.15553628882357, 0
456, 0.92295111889158, -0.051031095588461, 0
457, 0.81956417984911, -0.27278510867015, 0
458, 0.77336049552714, -0.12688820540388, 0
459, 0.87403673283083, -0.16011389837048, 0
460, 0.72585834142272, -0.24461285365969, 0
461, 0.71841906924944, -0.27314527659027, 0
462, 0.65691744644152, 0.24659321483652, 0
463, 0.62920471414761, 0.27315921356948, 0
464, 0.655474987221, 0.27342413227473, 0
465, 0.051349031115313, 0.11040605944648, 0
466, 0.025755337895346, 0.11004886096105, 0
467, 0.92283737527876, -0.24556783374363, 0
468, 0.97451770399641, -0.16371839662441, 0
469, 0.077936100040576, 0.24649790441123, 0
470, 0.078081367095528, 0.2733033012923, 0
471, 0.39678914567562, 0.27352760646215, 0
472, 0.60543896245527, 0.21904597158861, 0
473, 0.55256659592691, 0.16578830199565, 0
474, 0.94786554565621, 0.16575787291684, 0
475, 0.97399610875636, 0.16601485141613, 0
476, 0.3905494259497, 0.16907578396647, 0
477, 0.46506797987542, 0.065751087127808, 0
478, 0.6057054097413, 0.19231453936356, 0
479, 0.57738432244387, 0.27258394110265, 0
480, 0.24961394580188, -0.054267794260088, 0
481, 0.32065426166846, -0.07872070781097, 0
482, 0.89890402683044, -0.16099449251124, 0
483, 0.79334964798511, -0.046449823067801, 0
484, 0.81857287348242, -0.020343648620488, 0
485, 0.81952935561016, -0.047250853641721, 0
486, 0.52632714652813, 0.19247187106264, 0
487, 0.60317840807624, 0.2728777725448, 0
488, 0.92084378980084, 0.24645873132275, 0
489, 0.9209159689254, 0.27328380500622, 0
490, 0.81599779465451, 0.19323898800973, 0
491, 0.78926895899156, 0.22012356410353, 0
492, 0.84204492442259, 0.21992036234549, 0
493, 0.81566279555726, 0.22002892361605, 0
494, 0.051705683357396, 0.21923286176507, 0
495, 0.025794501496694, 0.21890012254022, 0
496, 0.43750810841684, 0.067344810798674, 0
497, 0.41757376713621, 0.16893350703945, 0
498, 0.44583466443686, 0.19431405816037, 0
499, 0.39507050137358, 0.24720467195703, 0
500, 0.73653328168854, 0.22018218187886, 0
501, 0.71067329605411, 0.19322697050476, 0
502, 0.6839819816525, 0.21993524430168, 0
503, 0.71022960223025, 0.22011014312188, 0
504, 0.052273881833511, -0.24610650173952, 0
505, 0.076303588836304, -0.11076658386365, 0
506, 0.9490164743595, -0.19047854201854, 0
507, 0.7536760748971, -0.21469645910535, 0
508, 0.79437140874708, -0.073316823735693, 0
509, 0.77365647722476, -0.2444476491733, 0
510, 0.75233010108831, -0.15410269223187, 0
511, 0.76890727890795, -0.27280452411799, 0
512, 0.79632189538598, -0.10050417981158, 0
513, 0.84889234974009, -0.21655509325481, 0
514, 0.74962749828082, -0.24445710343747, 0
515, 0.92352754264471, -0.1061440619754, 0
516, 0.8741325238887, -0.18855783358715, 0
517, 0.7550407870272, -0.18419821126601, 0
518, 0.76799435953504, -0.072350982256945, 0
519, 0.74442518006074, -0.097992667796473, 0
520, 0.20810051140625, 0.22078332297997, 0
521, 0.180977589053, 0.19375796201384, 0
522, 0.15579330274357, 0.22046374002201, 0
523, 0.18191704697925, 0.22065130643448, 0
524, 0.31042669751305, 0.16842350481688, 0
525, 0.33857236046569, 0.19497980761236, 0
526, 0.49282164535667, 0.065310409393266, 0
527, 0.33527545718457, 0.14251156221125, 0
528, 0.33695472628796, 0.16875951021238, 0
529, 0.31361885207227, 0.22114826304513, 0
530, 0.60351793986405, 0.086902541254035, 0
531, 0.34019832526101, 0.22120237568477, 0
532, 0.33152380478057, 0.089738286944538, 0
533, 0.30713846314817, 0.11535912378241, 0
534, 0.57328385399607, 0.032674768078846, 0
535, 0.33347795213846, 0.11619197423837, 0
536, 0.73720625801739, 0.16650002137289, 0
537, 0.7109233470244, 0.13956412980515, 0
538, 0.68460048486862, 0.16615752377503, 0
539, 0.71089024617845, 0.16636301514476, 0
540, 0.84369413136302, 0.059343836693237, 0
541, 0.81749037600105, 0.03304081720772, 0
542, 0.79064409563203, 0.059881510397243, 0
543, 0.81700248483433, 0.086300219584215, 0
544, 0.8172113344746, 0.059664672857169, 0
545, 0.31376318304561, -0.19623146600121, 0
546, 0.23053726054443, -0.14056331341979, 0
547, 0.02530607842794, -0.11023238258505, 0
548, 0.12609446995214, -0.027913837755768, 0
549, 0.73732702172169, 0.11302110676086, 0
550, 0.71064880167272, 0.086285261997163, 0
551, 0.68431568556675, 0.11266418497107, 0
552, 0.71082195394322, 0.11286317413073, 0
553, 0.20702702810135, -0.16759462944173, 0
554, 0.15119231415701, 0.00027096687932842, 0
555, 0.27360501193026, -0.053055755688934, 0
556, 0.025845037495356, -0.19242094328666, 0
557, 0.20161562929974, -0.083945312075215, 0
558, 0.34596976044012, -0.22280293608022, 0
559, 0.23287814542237, -0.16813664493397, 0
560, 0.29762753872316, -0.080997917585253, 0
561, 0.73262628541365, -0.18324730904274, 0
562, 0.70228614686033, -0.24497704286762, 0
563, 0.73097850878367, -0.21443864753134, 0
564, 0.12914361941547, 0.19322462245223, 0
565, 0.10368221079415, 0.21991824882006, 0
566, 0.12971898748684, 0.22022577312881, 0
567, 0.075959996347027, -1.5136685811368e-05, 0
568, 0.27402210161488, -0.024047168351437, 0
569, 0.17682044253815, -0.083952614466808, 0
570, 0.4759869821892, -0.27158250255668, 0
571, 0.42975053420438, -0.26393659968382, 0
572, 0.45166802709749, -0.26795379326729, 0
573, 0.3796327307857, 0.040125222149344, 0
574, 0.57509067894157, 0.059363886416323, 0
575, 0.60466506571992, 0.24589856573301, 0
576, 0.54629745092853, 0.035963299859311, 0
577, 0.17927150627322, 0.13945864522465, 0
578, 0.15433354220929, 0.16638253753873, 0
579, 0.20592637640816, 0.16700594127563, 0
580, 0.18009808517934, 0.16669385038366, 0
581, 0.9226157479701, 0.030759751578232, 0
582, 0.89639220249007, 0.058433971843479, 0
583, 0.92248697370912, 0.084885184119542, 0
584, 0.92258648081304, 0.057849758563463, 0
585, 0.7632750934569, 0.19336900255425, 0
586, 0.76288568968494, 0.22018147148146, 0
587, 0.87028247711173, 0.032095151292838, 0
588, 0.86989625983556, 0.085727354379539, 0
589, 0.87008971499598, 0.05893110786755, 0
590, 0.60247600835927, -0.082223903495703, 0
591, 0.5566902224029, -0.041454571360592, 0
592, 0.57872537147004, -0.062361806652086, 0
593, 0.38659684905402, -0.18803789788543, 0
594, 0.35774942233305, -0.16354649304384, 0
595, 0.38078359255477, -0.15792300298549, 0
596, 0.78992534206395, 0.16653862348223, 0
597, 0.76373048975214, 0.13979287388309, 0
598, 0.76355349766086, 0.16655885722443, 0
599, 0.84429724338526, 0.00583154323031, 0
600, 0.79138261002239, 0.0068478199327606, 0
601, 0.81791716785986, 0.0063905486021621, 0
602, 0.89665320609401, 0.0044459381366791, 0
603, 0.92265124187783, 0.0035945799348248, 0
604, 0.28780040906432, -0.19623826217769, 0
605, 0.050977361094441, 0.027863622309812, 0
606, 0.33916450588336, -0.19539786937795, 0
607, 0.2009150339508, 0.0011990093234437, 0
608, 0.87053810450085, 0.0051839687985602, 0
609, 0.49826378758047, -0.030274621480863, 0
610, 0.54097014785976, -0.012151848690214, 0
611, 0.52844342291676, -0.032953022886935, 0
612, 0.29384065231545, -0.24867841458202, 0
613, 0.051087957092204, -0.13793189295467, 0
614, 0.15127747865508, -0.055857766513274, 0
615, 0.35570107524243, 0.064622427298294, 0
616, 0.42158581847351, 0.24696364886537, 0
617, 0.57772221554573, 0.11243341930316, 0
618, 0.25135174060742, 0.031202318524523, 0
619, 0.10111991735784, -5.4966406512399e-05, 0
620, 0.076691288843204, 0.08314615839644, 0
621, 0.18359297832111, -0.22063546465121, 0
622, 0.29938365924364, -0.11109084584941, 0
623, 0.59443961401576, -0.22378285324433, 0
624, 0.63125263802799, -0.24694084761116, 0
625, 0.47520286093494, 0.27271898045121, 0
626, 0.52257008122408, 0.089111443534816, 0
627, 0.2982963514031, -0.022142952489994, 0
628, 0.025158655066108, -0.054727903947813, 0
629, 0.63674815735702, -0.096084040735713, 0
630, 0.61396656259038, -0.10727939713529, 0
631, 0.20291230111028, -0.11225174733785, 0
632, 0.2750373681219, 0.0044774284767777, 0
633, 0.12725271259302, 0.083639778262394, 0
634, 0.35161275889795, -0.2484106182708, 0
635, 0.89602636593726, 0.11220295978896, 0
636, 0.92200550493201, 0.13884240256911, 0
637, 0.92230671878694, 0.11187873279278, 0
638, 0.23306582574376, 0.19418727262979, 0
639, 0.26069061665911, 0.22097408879325, 0
640, 0.23435552019996, 0.22088777370569, 0
641, 0.12685247732614, 0.055864341608638, 0
642, 0.29736620858675, -0.051266494145113, 0
643, 0.60558987402399, 0.16570640339125, 0
644, 0.40978701163827, 0.067025725372981, 0
645, 0.5785672784302, 0.13892529659221, 0
646, 0.65821941282959, 0.19277914071531, 0
647, 0.63161927185742, 0.21935254416108, 0
648, 0.65778604794159, 0.21968311095418, 0
649, 0.41100403035743, -0.23989841390212, 0
650, 0.4051985253358, -0.26981468422703, 0
651, 0.025400582260253, 0.00069994813582396, 0
652, 0.20512041850079, -0.14016806398779, 0
653, 0.20885122510748, -0.19460860483548, 0
654, 0.37268688134267, -0.2209251943048, 0
655, 0.39827402464061, -0.21591531480931, 0
656, 0.32266115248798, -0.019641042725461, 0
657, 0.13066278940852, -0.21978584038434, 0
658, 0.25860631584804, -0.16856032164854, 0
659, 0.23718464164575, -0.22179407046737, 0
660, 0.051432366239907, -0.16519417201706, 0
661, 0.50101944462562, -0.27254318497969, 0
662, 0.71377157215407, -0.070905881353286, 0
663, 0.68721701470931, -0.045071415869202, 0
664, 0.71170085262692, -0.018688767141516, 0
665, 0.74046740005521, -0.045240512365132, 0
666, 0.713826174986, -0.044988254691368, 0
667, 0.076984412384131, 0.13810150191201, 0
668, 0.10227383422261, 0.11096579094889, 0
669, 0.076841977514917, 0.11068746955183, 0
670, 0.89537069107992, 0.16593486750727, 0
671, 0.92129233766311, 0.1927021080902, 0
672, 0.92164857707243, 0.16578445917998, 0
673, 0.86937821841228, 0.13930777430809, 0
674, 0.84325722082457, 0.11277562178037, 0
675, 0.86966874162629, 0.11251230219914, 0
676, 0.02525595087089, -0.026958355246988, 0
677, 0.33391906823573, -0.16678009282899, 0
678, 0.28556880999563, 0.19460293944509, 0
679, 0.28711265065611, 0.22105807347073, 0
680, 0.15197057229111, 0.056207950509007, 0
681, 0.15705463493873, -0.22016907894533, 0
682, 0.17609734492558, 0.0006447796349086, 0
683, 0.49883127898794, 0.16705388213732, 0
684, 0.2759797454899, -0.11197472186862, 0
685, 0.32215656135893, -0.10942967066026, 0
686, 0.18252389050187, -0.1940008673158, 0
687, 0.4978724126585, 0.1413162795576, 0
688, 0.48546994333809, 0.016072752986629, 0
689, 0.52579449299527, 0.16638137294247, 0
690, 0.41226514229162, 0.092356197720311, 0
691, 0.73727477934054, 0.059965658426514, 0
692, 0.71047248642252, 0.033563635378818, 0
693, 0.68365533387664, 0.059691527044093, 0
694, 0.71049115960105, 0.059849347194128, 0
695, 0.70880409650439, -0.21443298203355, 0
696, 0.64148281700917, -0.27401960157023, 0
697, 0.26425548340063, -0.22241064607746, 0
698, 0.12663425815997, -0.083679459338064, 0
699, 0.050558869024415, -0.08289708087688, 0
700, 0.28092601270201, -0.14071082959984, 0
701, 0.29981759524131, 0.0063017344544623, 0
702, 0.73780819953121, 0.0073695198911278, 0
703, 0.68361303973677, 0.0073686470197416, 0
704, 0.71077623295489, 0.0074107209787225, 0
705, 0.65815572238404, 0.13916236736099, 0
706, 0.63200307576745, 0.16573753149874, 0
707, 0.65831784405703, 0.16592889279516, 0
708, 0.59975458429883, 0.011855584638766, 0
709, 0.35026448050277, 0.011152340880103, 0
710, 0.47352400122106, 0.21966177948696, 0
711, 0.43456267851606, 0.042475973340638, 0
712, 0.46922042240956, 0.11650513167999, 0
713, 0.43987614457194, 0.092357888585495, 0
714, 0.38495999374041, 0.091802823345476, 0
715, 0.52395979166235, 0.11467680545232, 0
716, 0.39205683447442, 0.19498983600469, 0
717, 0.40326042582467, 0.016197388646319, 0
718, 0.41432930647479, 0.11775768626817, 0
719, 0.23067054409597, 0.14031441736657, 0
720, 0.25788878047971, 0.16768117408883, 0
721, 0.23184745472397, 0.16733331396793, 0
722, 0.36366525574954, 0.16899610764686, 0
723, 0.41892933578134, 0.19475422762754, 0
724, 0.57148889945848, 0.005801677247713, 0
725, 0.65609282086659, -0.070655448344282, 0
726, 0.65734420863218, -0.018550555629087, 0
727, 0.660912504475, -0.045375751582608, 0
728, 0.65729950988477, 0.085980306373982, 0
729, 0.63121574162142, 0.11251663321924, 0
730, 0.65779472015676, 0.11250401127149, 0
731, 0.89471182670937, 0.2196809185352, 0
732, 0.92099275267295, 0.2195946680289, 0
733, 0.65633162878975, 0.033463620632979, 0
734, 0.62973783452558, 0.059926409056274, 0
735, 0.65676018556243, 0.059623251528348, 0
736, 0.22839775568298, 0.085697307620198, 0
737, 0.20396009778891, 0.11253463476052, 0
738, 0.25520562047538, 0.1137794847553, 0
739, 0.22951937574379, 0.11311058245461, 0
740, 0.28258397231737, 0.14137254834004, 0
741, 0.28407547976688, 0.16804922899918, 0
742, 0.46741643552467, 0.091087965582904, 0
743, 0.44690328099578, 0.2203260468908, 0
744, 0.57865089425746, 0.24552082902379, 0
745, 0.52501450062635, 0.14044758278217, 0
746, 0.62865509189896, 0.0084187471688574, 0
747, 0.65632155453888, 0.0074868861153663, 0
748, 0.79795474354431, -0.24456595124782, 0
749, 0.87230775245006, -0.24523353514265, 0
750, 0.077400730437551, 0.19254049455435, 0
751, 0.077675527455266, 0.21957809069124, 0
752, 0.28106301341224, 0.11453686810419, 0
753, 0.21090631494244, -0.24741034413487, 0
754, 0.15625354389732, -0.19346267487571, 0
755, 0.86870550384727, 0.19296103396661, 0
756, 0.86839730929534, 0.21979995652228, 0
757, 0.38249336376664, 0.066040711615169, 0
758, 0.55299160910092, 0.21860760834035, 0
759, 0.3224469775643, -0.24885403240511, 0
760, 0.13004822749061, -0.19300614617835, 0
761, 0.46885102233401, -0.034033209861273, 0
762, 0.10288593088581, 0.16573425517132, 0
763, 0.077157186362938, 0.16538363835687, 0
764, 0.89642690066367, -0.27300786207171, 0
765, 0.84933605887813, -0.15914517717346, 0
766, 0.25203696606782, -0.11235002908192, 0
767, 0.17707465959094, 0.056671667682773, 0
768, 0.076503223166759, 0.055489801136993, 0
769, 0.60516436207374, 0.13923718339001, 0
770, 0.37034100628687, 0.27363824557331, 0
771, 0.94871890727575, -0.21817105031416, 0
772, 0.97445286893874, -0.10851912561459, 0
773, 0.89762988436541, -0.077437111497238, 0
774, 0.20144926505423, 0.029335864528655, 0
775, 0.28412423958294, -0.16869636560483, 0
776, 0.84268791871449, 0.16630591330099, 0
777, 0.86904629160544, 0.16612525712525, 0
778, 0.52661450594116, 0.21874863644778, 0
779, 0.47271556554951, 0.19359558546264, 0
780, 0.94877022613214, -0.079688823986153, 0
781, 0.89887189487061, -0.18921309123475, 0
782, 0.49956189627062, 0.19296678924768, 0
783, 0.12812011307875, 0.1387519130116, 0
784, 0.12860483461067, 0.1660671649879, 0
785, 0.81657940074008, 0.13968745147697, 0
786, 0.81630894733467, 0.16644884569047, 0
787, 0.15306991484005, 0.11162930978719, 0
788, 0.12767420448023, 0.11127459509344, 0
789, 0.17775010394348, 0.084449008045034, 0
790, 0.17848847728678, 0.11204536637858, 0
791, 0.5498124990269, 0.087394764713252, 0
792, 0.36850007681025, 0.24736070523454, 0
793, 0.43091577570507, 0.01764656518347, 0
794, 0.76389729449585, 0.086494469728007, 0
795, 0.76421756760554, 0.033554961685492, 0
796, 0.76399615651964, 0.059982644358687, 0
797, 0.79032724867114, 0.11308237897984, 0
798, 0.81680621548528, 0.11297075975252, 0
799, 0.1811080298063, -0.16703091350885, 0
800, 0.23814220339175, -0.24784157387349, 0
801, 0.078381900348362, -0.24615334994387, 0
802, 0.76383102799459, 0.11309940108055, 0
803, 0.3016226806214, 0.034159605782476, 0
804, 0.10170315113448, 0.055626175300634, 0
805, 0.22733453172318, 0.058049549219039, 0
806, 0.10138415724356, 0.027804997127708, 0
807, 0.17958553179389, -0.13971324910876, 0
808, 0.92222921216817, -0.27302903816602, 0
809, 0.74118461634237, -0.071510771301788, 0
810, 0.075958536893568, -0.083206381122376, 0
811, 0.10390798737454, -0.19264587673572, 0
812, 0.22765106217309, -0.1123994190592, 0
813, 0.025208376922513, -0.082516724477236, 0
814, 0.15267972030208, -0.11169116355243, 0
815, 0.22614506665782, -0.083760768277767, 0
816, 0.38891769545572, 0.14326293361365, 0
817, 0.60446699325829, 0.11294493850785, 0
818, 0.49499641220652, 0.090406100517283, 0
819, 0.41606960781448, 0.14327472281527, 0
820, 0.66742765594451, -0.27378800935776, 0
821, 0.72275349856112, -0.12392506605204, 0
822, 0.72856140545918, -0.15263328370877, 0
823, 0.20218600160798, 0.057276840460981, 0
824, 0.47429578431947, 0.24599945504319, 0
825, 0.55293275943435, 0.19212576738722, 0
826, 0.84844482044893, -0.13080730946501, 0
827, 0.30929587117833, -0.16825962411374, 0
828, 0.76553832800826, -0.019206509044584, 0
829, 0.76699388142666, -0.045756761440323, 0
830, 0.3530930005551, 0.038111931586377, 0
831, 0.46192249544077, 0.040380454698054, 0
832, 0.22526777412321, -0.026431744510192, 0
833, 0.076800076989165, -0.13815899300238, 0
834, 0.69087680125888, -0.09599876108705, 0
835, 0.67105827152611, -0.12220757210933, 0
836, 0.6634809338894, -0.095666287134778, 0
837, 0.76468091328515, 0.0071814008642139, 0
838, 0.57911958234956, 0.16544162412966, 0
839, 0.36197527737165, 0.14297579720786, 0
840, 0.4706392023752, 0.14204711323024, 0
841, 0.65518331961886, -0.24634234755609, 0
842, 0.66966962077168, -0.18238985762711, 0
843, 0.71790311626681, -0.096855757007782, 0
844, 0.61523298790347, -0.2739545741225, 0
845, 0.026044715690969, -0.21941691926548, 0
846, 0.26156023120217, -0.19582999840636, 0
847, 0.44928844178882, 0.27317510513741, 0
848, 0.51464294205405, 0.015050435263111, 0
849, 0.36526017664231, 0.19505087507021, 0
850, 0.44179206663106, 0.11755438427705, 0
851, 0.51822573257905, 0.039053347007384, 0
852, 0.50082550931738, 0.27229284032898, 0
853, 0.97424026654448, -0.21870616064461, 0
854, 0.38529290381662, -0.096024926025673, 0
855, 0.60912120845105, -0.035331455341414, 0
856, 0.57844403962052, -0.24448626253059, 0
857, 0.54628133765295, -0.27512209889409, 0
858, 0.68989054174713, -0.18207650960451, 0
859, 0.37273355963932, -0.012929497490264, 0
860, 0.38950208813841, -0.064157389084663, 0
861, 0.44468411739673, 0.1685270987142, 0
862, 0.87200770710443, -0.076396207150329, 0
863, 0.39907887091203, -0.0096541841878001, 0
864, 0.17649818469176, 0.02872783437184, 0
865, 0.26459632205786, -0.27392821205812, 0
866, 0.23716855764996, -0.27374225861476, 0
867, 0.2100961357314, -0.27355573196569, 0
868, 0.18333052483737, -0.27337882508296, 0
869, 0.15680349454075, -0.27324968147801, 0
870, 0.13046699037267, -0.2731428336656, 0
871, 0.10427209808288, -0.27308117785515, 0
872, 0.078182446518644, -0.27303916185957, 0
873, 0.052166594922976, -0.2730015393733, 0
874, 0.026166050884108, -0.27305991428426, 0
875, 0.97406378012321, -0.24593907779524, 0
876, 0.97394762137179, -0.27298171545739, 0
877, 0.40622581957898, -0.083788189359577, 0
878, 0.42085284323623, -0.032634412295423, 0
879, 0.71088491633024, -0.18246210261713, 0
880, 0.62181827324562, -0.21828966506124, 0
881, 0.60763575886358, -0.24535163111855, 0
882, 0.59012248485502, -0.27176347339568, 0
883, 0.61518419955376, -0.16702653180993, 0
884, 0.62954168157189, -0.18966770888144, 0
******* E L E M E N T S *************
*ELEMENT, type=T3D2, ELSET=Line1
1, 1, 10
2, 10, 18
3, 18, 11
4, 11, 19
5, 19, 12
6, 12, 20
7, 20, 13
8, 13, 21
9, 21, 14
10, 14, 22
11, 22, 15
12, 15, 23
13, 23, 16
14, 16, 24
15, 24, 17
16, 17, 2
*ELEMENT, type=T3D2, ELSET=Line2
17, 2, 25
18, 25, 28
19, 28, 26
20, 26, 29
21, 29, 27
22, 27, 3
*ELEMENT, type=T3D2, ELSET=Line3
23, 3, 30
24, 30, 38
25, 38, 31
26, 31, 39
27, 39, 32
28, 32, 40
29, 40, 33
30, 33, 41
31, 41, 34
32, 34, 42
33, 42, 35
34, 35, 43
35, 43, 36
36, 36, 44
37, 44, 37
38, 37, 4
*ELEMENT, type=T3D2, ELSET=Line4
39, 4, 45
40, 45, 56
41, 56, 46
42, 46, 57
43, 57, 47
44, 47, 58
45, 58, 48
46, 48, 59
47, 59, 49
48, 49, 60
49, 60, 50
50, 50, 61
51, 61, 51
52, 51, 62
53, 62, 52
54, 52, 63
55, 63, 53
56, 53, 64
57, 64, 54
58, 54, 65
59, 65, 55
60, 55, 5
*ELEMENT, type=T3D2, ELSET=Line5
61, 5, 66
62, 66, 74
63, 74, 67
64, 67, 75
65, 75, 68
66, 68, 76
67, 76, 69
68, 69, 77
69, 77, 70
70, 70, 78
71, 78, 71
72, 71, 79
73, 79, 72
74, 72, 80
75, 80, 73
76, 73, 6
*ELEMENT, type=T3D2, ELSET=Line6
77, 6, 81
78, 81, 84
79, 84, 82
80, 82, 85
81, 85, 83
82, 83, 7
*ELEMENT, type=T3D2, ELSET=Line7
83, 7, 86
84, 86, 94
85, 94, 87
86, 87, 95
87, 95, 88
88, 88, 96
89, 96, 89
90, 89, 97
91, 97, 90
92, 90, 98
93, 98, 91
94, 91, 99
95, 99, 92
96, 92, 100
97, 100, 93
98, 93, 8
*ELEMENT, type=T3D2, ELSET=Line8
99, 8, 101
100, 101, 112
101, 112, 102
102, 102, 113
103, 113, 103
104, 103, 114
105, 114, 104
106, 104, 115
107, 115, 105
108, 105, 116
109, 116, 106
110, 106, 117
111, 117, 107
112, 107, 118
113, 118, 108
114, 108, 119
115, 119, 109
116, 109, 120
117, 120, 110
118, 110, 121
119, 121, 111
120, 111, 1
*ELEMENT, type=T3D2, ELSET=Line9
121, 9, 122
122, 122, 133
123, 133, 123
124, 123, 134
125, 134, 124
126, 124, 135
127, 135, 125
128, 125, 136
129, 136, 126
130, 126, 137
131, 137, 127
132, 127, 138
133, 138, 128
134, 128, 139
135, 139, 129
136, 129, 140
137, 140, 130
138, 130, 141
139, 141, 131
140, 131, 142
141, 142, 132
142, 132, 9
*ELEMENT, type=CPS4, ELSET=Surface1
143, 75, 68, 343, 340
144, 340, 343, 341, 246
145, 343, 342, 247, 341
146, 68, 76, 342, 343
147, 744, 317, 758, 263
148, 344, 347, 345, 179
149, 347, 87, 95, 345
150, 840, 181, 850, 712
151, 250, 350, 351, 348
152, 348, 351, 71, 79
153, 351, 349, 78, 71
154, 350, 248, 349, 351
155, 98, 354, 355, 90
156, 90, 355, 352, 97
157, 355, 353, 176, 352
158, 354, 175, 353, 355
159, 281, 358, 359, 356
160, 356, 359, 49, 60
161, 458, 282, 519, 397
162, 302, 468, 296, 506
163, 606, 223, 594, 677
164, 873, 872, 801, 504
165, 381, 212, 209, 833
166, 418, 807, 224, 814
167, 169, 366, 367, 364
168, 364, 367, 103, 114
169, 367, 365, 113, 103
170, 366, 172, 365, 367
171, 100, 93, 370, 368
172, 368, 370, 369, 173
173, 370, 101, 112, 369
174, 93, 8, 101, 370
175, 160, 333, 458, 455
176, 157, 513, 395, 331
177, 749, 156, 513, 157
178, 771, 506, 162, 152
179, 247, 342, 377, 375
180, 375, 377, 376, 249
181, 377, 69, 77, 376
182, 342, 76, 69, 377
183, 699, 810, 363, 147
184, 872, 871, 227, 801
185, 871, 870, 380, 227
186, 807, 652, 631, 224
187, 225, 327, 685, 422
188, 379, 442, 634, 759
189, 116, 217, 206, 105
190, 813, 699, 147, 628
191, 179, 345, 387, 385
192, 385, 387, 386, 177
193, 387, 88, 96, 386
194, 345, 95, 88, 387
195, 319, 320, 389, 153
196, 153, 389, 312, 835
197, 563, 695, 562, 460
198, 835, 312, 154, 293
199, 57, 47, 468, 302
200, 332, 415, 515, 372
201, 468, 398, 332, 296
202, 373, 303, 299, 297
203, 392, 432, 485, 416
204, 506, 296, 371, 162
205, 397, 519, 843, 821
206, 808, 467, 394, 764
207, 455, 458, 397, 510
208, 780, 358, 456, 298
209, 372, 515, 396, 301
210, 853, 302, 506, 771
211, 222, 811, 212, 381
212, 653, 146, 559, 553
213, 805, 339, 197, 736
214, 204, 753, 211, 621
215, 249, 376, 404, 403
216, 403, 404, 349, 248
217, 404, 70, 78, 349
218, 376, 77, 70, 404
219, 177, 386, 406, 405
220, 405, 406, 352, 176
221, 406, 89, 97, 352
222, 386, 96, 89, 406
223, 149, 612, 361, 697
224, 869, 868, 204, 413
225, 110, 845, 556, 120
226, 147, 363, 337, 215
227, 833, 209, 338, 505
228, 681, 621, 686, 754
229, 378, 221, 680, 641
230, 209, 420, 428, 338
231, 303, 160, 455, 299
232, 58, 48, 772, 398
233, 34, 457, 357, 41
234, 457, 331, 748, 357
235, 701, 203, 443, 803
236, 865, 414, 612, 149
237, 15, 23, 379, 414
238, 619, 426, 378, 806
239, 148, 657, 760, 811
240, 676, 215, 202, 651
241, 864, 774, 823, 767
242, 16, 24, 412, 442
243, 98, 91, 425, 354
244, 354, 425, 423, 175
245, 425, 424, 174, 423
246, 91, 99, 424, 425
247, 767, 823, 196, 789
248, 23, 16, 442, 379
249, 698, 205, 614, 401
250, 285, 432, 433, 429
251, 429, 433, 430, 280
252, 391, 416, 508, 512
253, 764, 394, 749, 158
254, 278, 436, 437, 434
255, 434, 437, 435, 275
256, 437, 51, 62, 435
257, 436, 61, 51, 437
258, 65, 55, 440, 438
259, 438, 440, 439, 245
260, 440, 66, 74, 439
261, 55, 5, 66, 440
262, 208, 632, 220, 618
263, 775, 827, 419, 700
264, 360, 618, 339, 805
265, 557, 815, 421, 198
266, 281, 356, 445, 444
267, 444, 445, 436, 278
268, 445, 50, 61, 436
269, 356, 60, 50, 445
270, 62, 52, 448, 435
271, 435, 448, 446, 275
272, 448, 447, 241, 446
273, 52, 63, 447, 448
274, 213, 613, 199, 547
275, 207, 222, 381, 660
276, 337, 427, 619, 567
277, 219, 660, 613, 213
278, 64, 54, 453, 451
279, 451, 453, 452, 244
280, 453, 438, 245, 452
281, 54, 65, 438, 453
282, 280, 430, 456, 454
283, 454, 456, 358, 281
284, 826, 431, 391, 305
285, 399, 417, 431, 826
286, 516, 459, 765, 284
287, 331, 395, 373, 748
288, 519, 809, 662, 843
289, 158, 749, 157, 283
290, 154, 879, 561, 822
291, 132, 313, 883, 9
292, 44, 393, 808, 36
293, 282, 518, 809, 519
294, 79, 72, 464, 348
295, 348, 464, 462, 250
296, 464, 463, 252, 462
297, 72, 80, 463, 464
298, 114, 104, 466, 364
299, 364, 466, 465, 169
300, 466, 409, 200, 465
301, 104, 115, 409, 466
302, 40, 374, 461, 32
303, 298, 456, 430, 773
304, 748, 373, 297, 509
305, 509, 297, 507, 514
306, 99, 92, 470, 424
307, 424, 470, 469, 174
308, 470, 368, 173, 469
309, 92, 100, 368, 470
310, 187, 574, 534, 329
311, 190, 184, 192, 778
312, 256, 253, 190, 317
313, 526, 477, 831, 143
314, 63, 53, 475, 447
315, 447, 475, 474, 241
316, 475, 451, 244, 474
317, 53, 64, 451, 475
318, 715, 183, 818, 626
319, 264, 531, 525, 849
320, 576, 851, 848, 233
321, 383, 504, 214, 845
322, 145, 148, 811, 222
323, 760, 754, 450, 411
324, 407, 806, 804, 768
325, 285, 484, 485, 432
326, 511, 509, 514, 374
327, 508, 483, 829, 518
328, 484, 286, 483, 485
329, 818, 742, 477, 526
330, 463, 487, 575, 252
331, 251, 478, 643, 706
332, 852, 625, 824, 184
333, 245, 439, 489, 488
334, 488, 489, 340, 246
335, 489, 67, 75, 340
336, 439, 74, 67, 489
337, 242, 492, 493, 490
338, 490, 493, 491, 235
339, 493, 375, 249, 491
340, 492, 247, 375, 493
341, 113, 365, 495, 102
342, 102, 495, 369, 112
343, 495, 494, 173, 369
344, 365, 172, 494, 495
345, 335, 860, 232, 336
346, 860, 308, 878, 232
347, 643, 838, 645, 769
348, 711, 265, 717, 793
349, 471, 770, 792, 499
350, 716, 849, 722, 476
351, 706, 643, 769, 259
352, 248, 350, 503, 500
353, 500, 503, 501, 236
354, 503, 502, 258, 501
355, 350, 250, 502, 503
356, 339, 400, 324, 197
357, 803, 443, 216, 323
358, 121, 383, 845, 110
359, 323, 216, 532, 188
360, 517, 510, 822, 561
361, 37, 876, 393, 44
362, 161, 305, 333, 160
363, 395, 159, 303, 373
364, 357, 748, 509, 511
365, 35, 158, 283, 42
366, 393, 279, 467, 808
367, 301, 396, 417, 399
368, 41, 357, 511, 33
369, 333, 512, 282, 458
370, 284, 765, 161, 159
371, 33, 511, 374, 40
372, 59, 49, 359, 304
373, 518, 829, 665, 809
374, 467, 152, 300, 394
375, 398, 772, 415, 332
376, 862, 433, 432, 392
377, 47, 58, 398, 468
378, 159, 161, 160, 303
379, 772, 304, 780, 415
380, 175, 522, 523, 353
381, 353, 523, 520, 176
382, 523, 521, 163, 520
383, 522, 171, 521, 523
384, 186, 527, 528, 524
385, 524, 528, 525, 178
386, 82, 85, 625, 852
387, 645, 193, 229, 617
388, 178, 525, 531, 529
389, 529, 531, 344, 179
390, 329, 534, 724, 708
391, 724, 233, 610, 288
392, 757, 615, 830, 573
393, 532, 535, 533, 188
394, 535, 527, 186, 533
395, 80, 73, 487, 463
396, 236, 501, 539, 536
397, 536, 539, 537, 237
398, 539, 538, 260, 537
399, 501, 258, 538, 539
400, 269, 543, 544, 540
401, 540, 544, 541, 274
402, 544, 542, 272, 541
403, 543, 270, 542, 544
404, 400, 323, 188, 324
405, 806, 378, 641, 804
406, 560, 481, 226, 642
407, 411, 450, 418, 420
408, 237, 537, 552, 549
409, 549, 552, 550, 271
410, 552, 551, 261, 550
411, 537, 260, 551, 552
412, 867, 866, 800, 753
413, 109, 219, 213, 119
414, 658, 775, 700, 449
415, 194, 698, 401, 228
416, 146, 846, 658, 559
417, 823, 805, 736, 196
418, 558, 654, 223, 606
419, 627, 656, 203, 701
420, 696, 844, 30, 38
421, 515, 298, 773, 396
422, 510, 397, 821, 822
423, 858, 842, 388, 295
424, 175, 423, 566, 522
425, 522, 566, 564, 171
426, 566, 565, 170, 564
427, 423, 174, 565, 566
428, 868, 867, 753, 204
429, 632, 701, 803, 220
430, 759, 634, 558, 218
431, 151, 560, 642, 555
432, 139, 571, 572, 129
433, 129, 572, 570, 140
434, 572, 25, 28, 570
435, 571, 2, 25, 572
436, 849, 525, 528, 722
437, 824, 266, 743, 710
438, 782, 779, 182, 683
439, 722, 528, 527, 839
440, 166, 579, 580, 577
441, 577, 580, 578, 168
442, 580, 521, 171, 578
443, 579, 163, 521, 580
444, 275, 583, 584, 434
445, 434, 584, 581, 278
446, 584, 582, 277, 581
447, 583, 276, 582, 584
448, 248, 500, 586, 403
449, 403, 586, 491, 249
450, 586, 585, 235, 491
451, 500, 236, 585, 586
452, 276, 588, 589, 582
453, 582, 589, 587, 277
454, 589, 540, 274, 587
455, 588, 269, 540, 589
456, 292, 311, 592, 590
457, 590, 592, 123, 133
458, 592, 591, 134, 123
459, 311, 288, 591, 592
460, 138, 127, 595, 593
461, 593, 595, 594, 223
462, 595, 325, 225, 594
463, 127, 137, 325, 595
464, 236, 536, 598, 585
465, 585, 598, 596, 235
466, 598, 597, 238, 596
467, 536, 237, 597, 598
468, 274, 541, 601, 599
469, 599, 601, 484, 285
470, 601, 600, 286, 484
471, 541, 272, 600, 601
472, 278, 581, 603, 444
473, 444, 603, 454, 281
474, 603, 602, 280, 454
475, 581, 277, 602, 603
476, 811, 760, 411, 212
477, 107, 628, 676, 117
478, 384, 768, 620, 200
479, 554, 682, 864, 221
480, 277, 587, 608, 602
481, 602, 608, 429, 280
482, 608, 599, 285, 429
483, 587, 274, 599, 608
484, 134, 591, 611, 124
485, 124, 611, 609, 135
486, 611, 610, 234, 609
487, 591, 288, 610, 611
488, 680, 767, 789, 195
489, 214, 145, 222, 207
490, 441, 832, 322, 607
491, 505, 338, 194, 810
492, 143, 831, 346, 688
493, 94, 87, 347, 770
494, 574, 255, 576, 534
495, 848, 688, 330, 234
496, 450, 799, 807, 418
497, 874, 873, 504, 383
498, 322, 208, 618, 360
499, 211, 659, 146, 653
500, 419, 622, 684, 700
501, 327, 326, 481, 685
502, 481, 326, 306, 226
503, 878, 308, 136, 334
504, 155, 820, 31, 39
505, 460, 562, 155, 461
506, 624, 881, 882, 844
507, 820, 696, 38, 31
508, 838, 473, 193, 645
509, 317, 190, 778, 758
510, 84, 82, 852, 253
511, 181, 819, 718, 850
512, 682, 607, 774, 864
513, 799, 553, 652, 807
514, 628, 147, 215, 676
515, 614, 362, 402, 382
516, 153, 629, 630, 319
517, 319, 630, 122, 9
518, 630, 590, 133, 122
519, 629, 292, 590, 630
520, 567, 619, 806, 407
521, 547, 199, 699, 813
522, 428, 814, 205, 698
523, 845, 214, 207, 556
524, 275, 446, 637, 583
525, 583, 637, 635, 276
526, 637, 636, 240, 635
527, 446, 241, 636, 637
528, 164, 639, 640, 638
529, 638, 640, 520, 163
530, 640, 405, 176, 520
531, 639, 177, 405, 640
532, 414, 379, 759, 612
533, 622, 560, 151, 684
534, 106, 651, 217, 116
535, 192, 710, 779, 782
536, 316, 144, 716, 723
537, 81, 84, 253, 256
538, 573, 830, 709, 191
539, 144, 264, 849, 716
540, 250, 462, 648, 502
541, 502, 648, 646, 258
542, 648, 647, 251, 646
543, 462, 252, 647, 648
544, 2, 571, 650, 17
545, 17, 650, 412, 24
546, 650, 649, 150, 412
547, 571, 139, 649, 650
548, 734, 187, 329, 268
549, 754, 686, 799, 450
550, 612, 759, 218, 361
551, 228, 401, 548, 427
552, 150, 649, 655, 654
553, 654, 655, 593, 223
554, 655, 128, 138, 593
555, 649, 139, 128, 655
556, 812, 766, 408, 815
557, 362, 198, 441, 402
558, 800, 149, 697, 659
559, 575, 744, 263, 472
560, 29, 315, 661, 26
561, 26, 661, 570, 28
562, 661, 130, 140, 570
563, 315, 141, 130, 661
564, 371, 372, 301, 482
565, 662, 666, 663, 291
566, 666, 664, 289, 663
567, 665, 287, 664, 666
568, 201, 668, 669, 620
569, 620, 669, 465, 200
570, 669, 667, 169, 465
571, 668, 167, 667, 669
572, 241, 474, 672, 636
573, 636, 672, 670, 240
574, 672, 671, 243, 670
575, 474, 244, 671, 672
576, 239, 674, 675, 673
577, 673, 675, 635, 240
578, 675, 588, 276, 635
579, 674, 269, 588, 675
580, 420, 418, 814, 428
581, 846, 604, 775, 658
582, 410, 854, 860, 335
583, 118, 813, 628, 107
584, 177, 639, 679, 385
585, 385, 679, 529, 179
586, 679, 678, 178, 529
587, 639, 164, 678, 679
588, 768, 804, 201, 620
589, 660, 381, 833, 613
590, 753, 800, 659, 211
591, 827, 677, 422, 419
592, 866, 865, 149, 800
593, 774, 360, 805, 823
594, 221, 864, 767, 680
595, 621, 211, 653, 686
596, 182, 861, 181, 840
597, 729, 817, 530, 262
598, 86, 94, 770, 471
599, 184, 824, 710, 192
600, 261, 693, 694, 550
601, 550, 694, 691, 271
602, 694, 692, 273, 691
603, 693, 267, 692, 694
604, 388, 321, 624, 841
605, 294, 841, 696, 820
606, 321, 880, 881, 624
607, 313, 880, 884, 883
608, 212, 411, 420, 209
609, 426, 554, 221, 378
610, 832, 210, 208, 322
611, 504, 801, 145, 214
612, 198, 421, 832, 441
613, 442, 412, 150, 634
614, 210, 568, 632, 208
615, 363, 228, 427, 337
616, 267, 703, 704, 692
617, 692, 704, 702, 273
618, 704, 664, 287, 702
619, 703, 289, 664, 704
620, 258, 646, 707, 538
621, 538, 707, 705, 260
622, 707, 706, 259, 705
623, 646, 251, 706, 707
624, 473, 689, 745, 193
625, 318, 471, 499, 616
626, 709, 203, 656, 230
627, 496, 644, 265, 711
628, 487, 479, 744, 575
629, 847, 318, 616, 266
630, 861, 497, 819, 181
631, 229, 715, 626, 791
632, 165, 720, 721, 719
633, 719, 721, 579, 166
634, 721, 638, 163, 579
635, 720, 164, 638, 721
636, 713, 690, 644, 496
637, 498, 723, 497, 861
638, 688, 346, 231, 330
639, 769, 645, 617, 817
640, 291, 663, 727, 725
641, 725, 727, 310, 292
642, 727, 726, 290, 310
643, 663, 289, 726, 727
644, 260, 705, 730, 551
645, 551, 730, 728, 261
646, 730, 729, 262, 728
647, 705, 259, 729, 730
648, 244, 452, 732, 671
649, 671, 732, 731, 243
650, 732, 488, 246, 731
651, 452, 245, 488, 732
652, 262, 734, 735, 728
653, 728, 735, 693, 261
654, 735, 733, 267, 693
655, 734, 268, 733, 735
656, 197, 738, 739, 736
657, 736, 739, 737, 196
658, 739, 719, 166, 737
659, 738, 165, 719, 739
660, 186, 524, 741, 740
661, 740, 741, 720, 165
662, 741, 678, 164, 720
663, 524, 178, 678, 741
664, 851, 143, 688, 848
665, 615, 216, 443, 830
666, 7, 86, 471, 318
667, 476, 722, 839, 816
668, 644, 757, 573, 265
669, 265, 573, 191, 717
670, 714, 328, 615, 757
671, 616, 499, 144, 316
672, 268, 746, 747, 733
673, 733, 747, 703, 267
674, 747, 726, 289, 703
675, 746, 290, 726, 747
676, 416, 485, 483, 508
677, 299, 455, 510, 517
678, 394, 300, 156, 749
679, 514, 507, 563, 460
680, 174, 469, 751, 565
681, 565, 751, 750, 170
682, 751, 494, 172, 750
683, 469, 173, 494, 751
684, 188, 533, 752, 324
685, 324, 752, 738, 197
686, 752, 740, 165, 738
687, 533, 186, 740, 752
688, 815, 408, 480, 421
689, 651, 202, 605, 217
690, 657, 681, 754, 760
691, 408, 151, 555, 480
692, 243, 731, 756, 755
693, 755, 756, 492, 242
694, 756, 341, 247, 492
695, 731, 246, 341, 756
696, 758, 778, 486, 825
697, 625, 847, 266, 824
698, 185, 791, 255, 574
699, 477, 496, 711, 831
700, 268, 329, 708, 746
701, 233, 848, 234, 610
702, 257, 825, 473, 838
703, 497, 476, 816, 819
704, 659, 697, 846, 146
705, 642, 226, 656, 627
706, 569, 557, 198, 362
707, 380, 413, 681, 657
708, 135, 609, 761, 125
709, 125, 761, 334, 136
710, 761, 330, 231, 334
711, 609, 234, 330, 761
712, 169, 667, 763, 366
713, 366, 763, 750, 172
714, 763, 762, 170, 750
715, 667, 167, 762, 763
716, 297, 299, 517, 507
717, 305, 391, 512, 333
718, 156, 516, 284, 513
719, 279, 771, 152, 467
720, 413, 204, 621, 681
721, 402, 441, 607, 682
722, 556, 207, 660, 219
723, 801, 227, 148, 145
724, 770, 347, 344, 792
725, 817, 617, 185, 530
726, 266, 616, 316, 743
727, 507, 517, 561, 563
728, 765, 826, 305, 161
729, 42, 283, 457, 34
730, 304, 359, 358, 780
731, 111, 874, 383, 121
732, 401, 614, 382, 548
733, 604, 545, 827, 775
734, 325, 137, 854, 410
735, 240, 670, 777, 673
736, 673, 777, 776, 239
737, 777, 755, 242, 776
738, 670, 243, 755, 777
739, 723, 716, 476, 497
740, 232, 878, 307, 863
741, 850, 718, 690, 713
742, 839, 527, 535, 180
743, 459, 399, 826, 765
744, 162, 371, 482, 781
745, 300, 781, 516, 156
746, 773, 430, 433, 862
747, 690, 714, 757, 644
748, 708, 724, 288, 309
749, 746, 708, 309, 290
750, 745, 687, 183, 715
751, 171, 564, 784, 578
752, 578, 784, 783, 168
753, 784, 762, 167, 783
754, 564, 170, 762, 784
755, 239, 776, 786, 785
756, 785, 786, 596, 238
757, 786, 490, 235, 596
758, 776, 242, 490, 786
759, 201, 633, 788, 668
760, 668, 788, 783, 167
761, 788, 787, 168, 783
762, 633, 195, 787, 788
763, 195, 789, 790, 787
764, 787, 790, 577, 168
765, 790, 737, 166, 577
766, 789, 196, 737, 790
767, 472, 263, 257, 478
768, 683, 182, 840, 687
769, 792, 344, 531, 264
770, 180, 535, 532, 328
771, 273, 795, 796, 691
772, 691, 796, 794, 271
773, 796, 542, 270, 794
774, 795, 272, 542, 796
775, 238, 797, 798, 785
776, 785, 798, 674, 239
777, 798, 543, 269, 674
778, 797, 270, 543, 798
779, 697, 361, 604, 846
780, 553, 559, 546, 652
781, 546, 449, 766, 812
782, 218, 558, 606, 545
783, 270, 797, 802, 794
784, 794, 802, 549, 271
785, 802, 597, 237, 549
786, 797, 238, 597, 802
787, 605, 407, 768, 384
788, 338, 428, 698, 194
789, 677, 594, 225, 422
790, 202, 567, 407, 605
791, 870, 869, 413, 380
792, 427, 548, 426, 619
793, 105, 206, 409, 115
794, 382, 402, 682, 554
795, 431, 392, 416, 391
796, 415, 780, 298, 515
797, 513, 284, 159, 395
798, 482, 301, 399, 459
799, 634, 150, 654, 558
800, 361, 218, 545, 604
801, 421, 480, 210, 832
802, 137, 126, 877, 854
803, 227, 380, 657, 148
804, 686, 653, 553, 799
805, 449, 700, 684, 766
806, 641, 680, 195, 633
807, 480, 555, 568, 210
808, 22, 15, 414, 865
809, 119, 213, 547, 108
810, 224, 631, 557, 569
811, 831, 711, 793, 346
812, 617, 229, 791, 185
813, 189, 526, 143, 851
814, 6, 81, 256, 479
815, 193, 745, 715, 229
816, 712, 850, 713, 742
817, 647, 472, 478, 251
818, 486, 782, 683, 689
819, 374, 514, 460, 461
820, 295, 388, 841, 294
821, 841, 624, 844, 696
822, 152, 162, 781, 300
823, 205, 569, 362, 614
824, 814, 224, 569, 205
825, 545, 606, 677, 827
826, 217, 605, 384, 206
827, 328, 532, 216, 615
828, 259, 769, 817, 729
829, 626, 818, 526, 189
830, 689, 683, 687, 745
831, 417, 862, 392, 431
832, 809, 665, 666, 662
833, 875, 853, 771, 279
834, 512, 508, 518, 282
835, 226, 306, 230, 656
836, 215, 337, 567, 202
837, 804, 641, 633, 201
838, 120, 556, 219, 109
839, 286, 828, 829, 483
840, 48, 59, 304, 772
841, 36, 808, 764, 43
842, 828, 287, 665, 829
843, 819, 816, 254, 718
844, 83, 7, 318, 847
845, 830, 443, 203, 709
846, 687, 840, 712, 183
847, 117, 676, 651, 106
848, 810, 194, 228, 363
849, 607, 322, 360, 774
850, 568, 627, 701, 632
851, 153, 835, 836, 629
852, 629, 836, 725, 292
853, 836, 834, 291, 725
854, 835, 293, 834, 836
855, 287, 828, 837, 702
856, 702, 837, 795, 273
857, 837, 600, 272, 795
858, 828, 286, 600, 837
859, 778, 192, 782, 486
860, 499, 792, 264, 144
861, 791, 626, 189, 255
862, 742, 713, 496, 477
863, 390, 884, 880, 321
864, 461, 155, 39, 32
865, 9, 883, 320, 319
866, 844, 882, 3, 30
867, 293, 821, 843, 834
868, 834, 843, 662, 291
869, 396, 773, 862, 417
870, 46, 57, 302, 853
871, 842, 390, 321, 388
872, 695, 295, 294, 562
873, 389, 842, 858, 312
874, 293, 154, 822, 821
875, 108, 547, 813, 118
876, 652, 546, 812, 631
877, 618, 220, 400, 339
878, 206, 384, 200, 409
879, 308, 877, 126, 136
880, 230, 859, 191, 709
881, 548, 382, 554, 426
882, 199, 505, 810, 699
883, 825, 486, 689, 473
884, 262, 530, 187, 734
885, 253, 852, 184, 190
886, 73, 6, 479, 487
887, 779, 498, 861, 182
888, 718, 254, 714, 690
889, 743, 316, 723, 498
890, 252, 575, 472, 647
891, 478, 257, 838, 643
892, 254, 180, 328, 714
893, 710, 743, 498, 779
894, 534, 576, 233, 724
895, 263, 758, 825, 257
896, 530, 185, 574, 187
897, 876, 875, 279, 393
898, 283, 157, 331, 457
899, 781, 482, 459, 516
900, 685, 481, 560, 622
901, 555, 642, 627, 568
902, 422, 685, 622, 419
903, 288, 311, 855, 309
904, 309, 855, 310, 290
905, 311, 292, 310, 855
906, 562, 294, 820, 155
907, 320, 390, 842, 389
908, 879, 858, 295, 695
909, 141, 315, 857, 314
910, 314, 857, 27, 3
911, 315, 29, 27, 857
912, 85, 83, 847, 625
913, 183, 712, 742, 818
914, 307, 878, 334, 231
915, 561, 879, 695, 563
916, 883, 884, 390, 320
917, 312, 858, 879, 154
918, 631, 812, 815, 557
919, 559, 658, 449, 546
920, 220, 803, 323, 400
921, 225, 325, 410, 327
922, 327, 410, 335, 326
923, 859, 863, 717, 191
924, 479, 256, 317, 744
925, 816, 839, 180, 254
926, 255, 189, 851, 576
927, 56, 46, 853, 875
928, 43, 764, 158, 35
929, 296, 332, 372, 371
930, 854, 877, 308, 860
931, 336, 232, 863, 859
932, 306, 336, 859, 230
933, 613, 833, 505, 199
934, 326, 335, 336, 306
935, 766, 684, 151, 408
936, 14, 22, 865, 866
937, 21, 14, 866, 867
938, 13, 21, 867, 868
939, 20, 13, 868, 869
940, 12, 20, 869, 870
941, 19, 12, 870, 871
942, 11, 19, 871, 872
943, 18, 11, 872, 873
944, 10, 18, 873, 874
945, 1, 10, 874, 111
946, 45, 56, 875, 876
947, 4, 45, 876, 37
948, 863, 307, 793, 717
949, 793, 307, 231, 346
950, 623, 881, 880, 313
951, 142, 623, 313, 132
952, 856, 882, 881, 623
953, 131, 856, 623, 142
954, 314, 3, 882, 856
955, 141, 314, 856, 131
*ELSET,ELSET=contact_source
99, 100, 101, 102, 103, 104, 105, 106, 107, 108, 
109, 110, 111, 112, 113, 114, 115, 116, 117, 118, 
119, 120, 
*ELSET,ELSET=contact_drain
39, 40, 41, 42, 43, 44, 45, 46, 47, 48, 
49, 50, 51, 52, 53, 54, 55, 56, 57, 58, 
59, 60, 
*ELSET,ELSET=probe_A
77, 78, 79, 80, 81, 82, 
*ELSET,ELSET=probe_B
17, 18, 19, 20, 21, 22, 
*ELSET,ELSET=walls
1, 2, 3, 4, 5, 6, 7, 8, 9, 10, 
11, 12, 13, 14, 15, 16, 23, 24, 25, 26, 
27, 28, 29, 30, 31, 32, 33, 34, 35, 36, 
37, 38, 61, 62, 63, 64, 65, 66, 67, 68, 
69, 70, 71, 72, 73, 74, 75, 76, 83, 84, 
85, 86, 87, 88, 89, 90, 91, 92, 93, 94, 
95, 96, 97, 98, 121, 122, 123, 124, 125, 126, 
127, 128, 129, 130, 131, 132, 133, 134, 135, 136, 
137, 138, 139, 140, 141, 142, 
*ELSET,ELSET=domain
143, 144, 145, 146, 147, 148, 149, 150, 151, 152, 
153, 154, 155, 156, 157, 158, 159, 160, 161, 162, 
163, 164, 165, 166, 167, 168, 169, 170, 171, 172, 
173, 174, 175, 176, 177, 178, 179, 180, 181, 182, 
183, 184, 185, 186, 187, 188, 189, 190, 191, 192, 
193, 194, 195, 196, 197, 198, 199, 200, 201, 202, 
203, 204, 205, 206, 207, 208, 209, 210, 211, 212, 
213, 214, 215, 216, 217, 218, 219, 220, 221, 222, 
223, 224, 225, 226, 227, 228, 229, 230, 231, 232, 
233, 234, 235, 236, 237, 238, 239, 240, 241, 242, 
243, 244, 245, 246, 247, 248, 249, 250, 251, 252, 
253, 254, 255, 256, 257, 258, 259, 260, 261, 262, 
263, 264, 265, 266, 267, 268, 269, 270, 271, 272, 
273, 274, 275, 276, 277, 278, 279, 280, 281, 282, 
283, 284, 285, 286, 287, 288, 289, 290, 291, 292, 
293, 294, 295, 296, 297, 298, 299, 300, 301, 302, 
303, 304, 305, 306, 307, 308, 309, 310, 311, 312, 
313, 314, 315, 316, 317, 318, 319, 320, 321, 322, 
323, 324, 325, 326, 327, 328, 329, 330, 331, 332, 
333, 334, 335, 336, 337, 338, 339, 340, 341, 342, 
343, 344, 345, 346, 347, 348, 349, 350, 351, 352, 
353, 354, 355, 356, 357, 358, 359, 360, 361, 362, 
363, 364, 365, 366, 367, 368, 369, 370, 371, 372, 
373, 374, 375, 376, 377, 378, 379, 380, 381, 382, 
383, 384, 385, 386, 387, 388, 389, 390, 391, 392, 
393, 394, 395, 396, 397, 398, 399, 400, 401, 402, 
403, 404, 405, 406, 407, 408, 409, 410, 411, 412, 
413, 414, 415, 416, 417, 418, 419, 420, 421, 422, 
423, 424, 425, 426, 427, 428, 429, 430, 431, 432, 
433, 434, 435, 436, 437, 438, 439, 440, 441, 442, 
443, 444, 445, 446, 447, 448, 449, 450, 451, 452, 
453, 454, 455, 456, 457, 458, 459, 460, 461, 462, 
463, 464, 465, 466, 467, 468, 469, 470, 471, 472, 
473, 474, 475, 476, 477, 478, 479, 480, 481, 482, 
483, 484, 485, 486, 487, 488, 489, 490, 491, 492, 
493, 494, 495, 496, 497, 498, 499, 500, 501, 502, 
503, 504, 505, 506, 507, 508, 509, 510, 511, 512, 
513, 514, 515, 516, 517, 518, 519, 520, 521, 522, 
523, 524, 525, 526, 527, 528, 529, 530, 531, 532, 
533, 534, 535, 536, 537, 538, 539, 540, 541, 542, 
543, 544, 545, 546, 547, 548, 549, 550, 551, 552, 
553, 554, 555, 556, 557, 558, 559, 560, 561, 562, 
563, 564, 565, 566, 567, 568, 569, 570, 571, 572, 
573, 574, 575, 576, 577, 578, 579, 580, 581, 582, 
583, 584, 585, 586, 587, 588, 589, 590, 591, 592, 
593, 594, 595, 596, 597, 598, 599, 600, 601, 602, 
603, 604, 605, 606, 607, 608, 609, 610, 611, 612, 
613, 614, 615, 616, 617, 618, 619, 620, 621, 622, 
623, 624, 625, 626, 627, 628, 629, 630, 631, 632, 
633, 634, 635, 636, 637, 638, 639, 640, 641, 642, 
643, 644, 645, 646, 647, 648, 649, 650, 651, 652, 
653, 654, 655, 656, 657, 658, 659, 660, 661, 662, 
663, 664, 665, 666, 667, 668, 669, 670, 671, 672, 
673, 674, 675, 676, 677, 678, 679, 680, 681, 682, 
683, 684, 685, 686, 687, 688, 689, 690, 691, 692, 
693, 694, 695, 696, 697, 698, 699, 700, 701, 702, 
703, 704, 705, 706, 707, 708, 709, 710, 711, 712, 
713, 714, 715, 716, 717, 718, 719, 720, 721, 722, 
723, 724, 725, 726, 727, 728, 729, 730, 731, 732, 
733, 734, 735, 736, 737, 738, 739, 740, 741, 742, 
743, 744, 745, 746, 747, 748, 749, 750, 751, 752, 
753, 754, 755, 756, 757, 758, 759, 760, 761, 762, 
763, 764, 765, 766, 767, 768, 769, 770, 771, 772, 
773, 774, 775, 776, 777, 778, 779, 780, 781, 782, 
783, 784, 785, 786, 787, 788, 789, 790, 791, 792, 
793, 794, 795, 796, 797, 798, 799, 800, 801, 802, 
803, 804, 805, 806, 807, 808, 809, 810, 811, 812, 
813, 814, 815, 816, 817, 818, 819, 820, 821, 822, 
823, 824, 825, 826, 827, 828, 829, 830, 831, 832, 
833, 834, 835, 836, 837, 838, 839, 840, 841, 842, 
843, 844, 845, 846, 847, 848, 849, 850, 851, 852, 
853, 854, 855, 856, 857, 858, 859, 860, 861, 862, 
863, 864, 865, 866, 867, 868, 869, 870, 871, 872, 
873, 874, 875, 876, 877, 878, 879, 880, 881, 882, 
883, 884, 885, 886, 887, 888, 889, 890, 891, 892, 
893, 894, 895, 896, 897, 898, 899, 900, 901, 902, 
903, 904, 905, 906, 907, 908, 909, 910, 911, 912, 
913, 914, 915, 916, 917, 918, 919, 920, 921, 922, 
923, 924, 925, 926, 927, 928, 929, 930, 931, 932, 
933, 934, 935, 936, 937, 938, 939, 940, 941, 942, 
943, 944, 945, 946, 947, 948, 949, 950, 951, 952, 
953, 954, 955, 
*NSET,NSET=contact_source
1, 8, 101, 102, 103, 104, 105, 106, 107, 108, 
109, 110, 111, 112, 113, 114, 115, 116, 117, 118, 
119, 120, 121, 
*NSET,NSET=contact_drain
4, 5, 45, 46, 47, 48, 49, 50, 51, 52, 
53, 54, 55, 56, 57, 58, 59, 60, 61, 62, 
63, 64, 65, 
*NSET,NSET=probe_A
6, 7, 81, 82, 83, 84, 85, 
*NSET,NSET=probe_B
2, 3, 25, 26, 27, 28, 29, 
*NSET,NSET=walls
1, 2, 3, 4, 5, 6, 7, 8, 9, 10, 
11, 12, 13, 14, 15, 16, 17, 18, 19, 20, 
21, 22, 23, 24, 30, 31, 32, 33, 34, 35, 
36, 37, 38, 39, 40, 41, 42, 43, 44, 66, 
67, 68, 69, 70, 71, 72, 73, 74, 75, 76, 
77, 78, 79, 80, 86, 87, 88, 89, 90, 91, 
92, 93, 94, 95, 96, 97, 98, 99, 100, 122, 
123, 124, 125, 126, 127, 128, 129, 130, 131, 132, 
133, 134, 135, 136, 137, 138, 139, 140, 141, 142, 
*NSET,NSET=domain
1, 2, 3, 4, 5, 6, 7, 8, 9, 10, 
11, 12, 13, 14, 15, 16, 17, 18, 19, 20, 
21, 22, 23, 24, 25, 26, 27, 28, 29, 30, 
31, 32, 33, 34, 35, 36, 37, 38, 39, 40, 
41, 42, 43, 44, 45, 46, 47, 48, 49, 50, 
51, 52, 53, 54, 55, 56, 57, 58, 59, 60, 
61, 62, 63, 64, 65, 66, 67, 68, 69, 70, 
71, 72, 73, 74, 75, 76, 77, 78, 79, 80, 
81, 82, 83, 84, 85, 86, 87, 88, 89, 90, 
91, 92, 93, 94, 95, 96, 97, 98, 99, 100, 
101, 102, 103, 104, 105, 106, 107, 108, 109, 110, 
111, 112, 113, 114, 115, 116, 117, 118, 119, 120, 
121, 122, 123, 124, 125, 126, 127, 128, 129, 130, 
131, 132, 133, 134, 135, 136, 137, 138, 139, 140, 
141, 142, 143, 144, 145, 146, 147, 148, 149, 150, 
151, 152, 153, 154, 155, 156, 157, 158, 159, 160, 
161, 162, 163, 164, 165, 166, 167, 168, 169, 170, 
171, 172, 173, 174, 175, 176, 177, 178, 179, 180, 
181, 182, 183, 184, 185, 186, 187, 188, 189, 190, 
191, 192, 193, 194, 195, 196, 197, 198, 199, 200, 
201, 202, 203, 204, 205, 206, 207, 208, 209, 210, 
211, 212, 213, 214, 215, 216, 217, 218, 219, 220, 
221, 222, 223, 224, 225, 226, 227, 228, 229, 230, 
231, 232, 233, 234, 235, 236, 237, 238, 239, 240, 
241, 242, 243, 244, 245, 246, 247, 248, 249, 250, 
251, 252, 253, 254, 255, 256, 257, 258, 259, 260, 
261, 262, 263, 264, 265, 266, 267, 268, 269, 270, 
271, 272, 273, 274, 275, 276, 277, 278, 279, 280, 
281, 282, 283, 284, 285, 286, 287, 288, 289, 290, 
291, 292, 293, 294, 295, 296, 297, 298, 299, 300, 
301, 302, 303, 304, 305, 306, 307, 308, 309, 310, 
311, 312, 313, 314, 315, 316, 317, 318, 319, 320, 
321, 322, 323, 324, 325, 326, 327, 328, 329, 330, 
331, 332, 333, 334, 335, 336, 337, 338, 339, 340, 
341, 342, 343, 344, 345, 346, 347, 348, 349, 350, 
351, 352, 353, 354, 355, 356, 357, 358, 359, 360, 
361, 362, 363, 364, 365, 366, 367, 368, 369, 370, 
371, 372, 373, 374, 375, 376, 377, 378, 379, 380, 
381, 382, 383, 384, 385, 386, 387, 388, 389, 390, 
391, 392, 393, 394, 395, 396, 397, 398, 399, 400, 
401, 402, 403, 404, 405, 406, 407, 408, 409, 410, 
411, 412, 413, 414, 415, 416, 417, 418, 419, 420, 
421, 422, 423, 424, 425, 426, 427, 428, 429, 430, 
431, 432, 433, 434, 435, 436, 437, 438, 439, 440, 
441, 442, 443, 444, 445, 446, 447, 448, 449, 450, 
451, 452, 453, 454, 455, 456, 457, 458, 459, 460, 
461, 462, 463, 464, 465, 466, 467, 468, 469, 470, 
471, 472, 473, 474, 475, 476, 477, 478, 479, 480, 
481, 482, 483, 484, 485, 486, 487, 488, 489, 490, 
491, 492, 493, 494, 495, 496, 497, 498, 499, 500, 
501, 502, 503, 504, 505, 506, 507, 508, 509, 510, 
511, 512, 513, 514, 515, 516, 517, 518, 519, 520, 
521, 522, 523, 524, 525, 526, 527, 528, 529, 530, 
531, 532, 533, 534, 535, 536, 537, 538, 539, 540, 
541, 542, 543, 544, 545, 546, 547, 548, 549, 550, 
551, 552, 553, 554, 555, 556, 557, 558, 559, 560, 
561, 562, 563, 564, 565, 566, 567, 568, 569, 570, 
571, 572, 573, 574, 575, 576, 577, 578, 579, 580, 
581, 582, 583, 584, 585, 586, 587, 588, 589, 590, 
591, 592, 593, 594, 595, 596, 597, 598, 599, 600, 
601, 602, 603, 604, 605, 606, 607, 608, 609, 610, 
611, 612, 613, 614, 615, 616, 617, 618, 619, 620, 
621, 622, 623, 624, 625, 626, 627, 628, 629, 630, 
631, 632, 633, 634, 635, 636, 637, 638, 639, 640, 
641, 642, 643, 644, 645, 646, 647, 648, 649, 650, 
651, 652, 653, 654, 655, 656, 657, 658, 659, 660, 
661, 662, 663, 664, 665, 666, 667, 668, 669, 670, 
671, 672, 673, 674, 675, 676, 677, 678, 679, 680, 
681, 682, 683, 684, 685, 686, 687, 688, 689, 690, 
691, 692, 693, 694, 695, 696, 697, 698, 699, 700, 
701, 702, 703, 704, 705, 706, 707, 708, 709, 710, 
711, 712, 713, 714, 715, 716, 717, 718, 719, 720, 
721, 722, 723, 724, 725, 726, 727, 728, 729, 730, 
731, 732, 733, 734, 735, 736, 737, 738, 739, 740, 
741, 742, 743, 744, 745, 746, 747, 748, 749, 750, 
751, 752, 753, 754, 755, 756, 757, 758, 759, 760, 
761, 762, 763, 764, 765, 766, 767, 768, 769, 770, 
771, 772, 773, 774, 775, 776, 777, 778, 779, 780, 
781, 782, 783, 784, 785, 786, 787, 788, 789, 790, 
791, 792, 793, 794, 795, 796, 797, 798, 799, 800, 
801, 802, 803, 804, 805, 806, 807, 808, 809, 810, 
811, 812, 813, 814, 815, 816, 817, 818, 819, 820, 
821, 822, 823, 824, 825, 826, 827, 828, 829, 830, 
831, 832, 833, 834, 835, 836, 837, 838, 839, 840, 
841, 842, 843, 844, 845, 846, 847, 848, 849, 850, 
851, 852, 853, 854, 855, 856, 857, 858, 859, 860, 
861, 862, 863, 864, 865, 866, 867, 868, 869, 870, 
871, 872, 873, 874, 875, 876, 877, 878, 879, 880, 
881, 882, 883, 884, 
