*Heading
 /Users/juliagao/geometry-optimization-net/scripts/../runs/2d/shape_46.inp
*NODE
1, 0, -0.3, 0
2, 0.425, -0.3, 0
3, 0.575, -0.3, 0
4, 1, -0.3, 0
5, 1, 0.3, 0
6, 0.575, 0.3, 0
7, 0.425, 0.3, 0
8, 0, 0.3, 0
9, 0.5971419662, -0.1495246526, 0
10, 0.025637889589639, -0.3, 0
11, 0.077312651050098, -0.3, 0
12, 0.12980401600606, -0.3, 0
13, 0.18278637354544, -0.3, 0
14, 0.23594671598785, -0.3, 0
15, 0.28946494204065, -0.3, 0
16, 0.34359471408755, -0.3, 0
17, 0.39791936903492, -0.3, 0
18, 0.051275779179278, -0.3, 0
19, 0.10334952292092, -0.3, 0
20, 0.15625850909121, -0.3, 0
21, 0.20931423799966, -0.3, 0
22, 0.26257919397604, -0.3, 0
23, 0.31635069010526, -0.3, 0
24, 0.37083873806985, -0.3, 0
25, 0.45072217566153, -0.3, 0
26, 0.50047399301492, -0.3, 0
27, 0.54975181735339, -0.3, 0
28, 0.47644435132307, -0.3, 0
29, 0.52450363470678, -0.3, 0
30, 0.60165476391382, -0.3, 0
31, 0.65518027521392, -0.3, 0
32, 0.70891341661012, -0.3, 0
33, 0.7632518163844, -0.3, 0
34, 0.8183856693779, -0.3, 0
35, 0.87241194965453, -0.3, 0
36, 0.92407966832925, -0.3, 0
37, 0.97468947697824, -0.3, 0
38, 0.62830952782765, -0.3, 0
39, 0.68205102260019, -0.3, 0
40, 0.73577581062005, -0.3, 0
41, 0.79072782214874, -0.3, 0
42, 0.84604351660705, -0.3, 0
43, 0.89878038270202, -0.3, 0
44, 0.94937895395649, -0.3, 0
45, 1, -0.27364343408196, 0
46, 1, -0.21985811702505, 0
47, 1, -0.16447893877469, 0
48, 1, -0.10942090946854, 0
49, 1, -0.055259639956066, 0
50, 1, -0.0004403066828832, 0
51, 1, 0.05503673217697, 0
52, 1, 0.11043785327063, 0
53, 1, 0.1661926070354, 0
54, 1, 0.22136582042028, 0
55, 1, 0.27423701411478, 0
56, 1, -0.24728686816393, 0
57, 1, -0.19242936588617, 0
58, 1, -0.13652851166321, 0
59, 1, -0.082313307273878, 0
60, 1, -0.028205972638255, 0
61, 1, 0.027325359272489, 0
62, 1, 0.082748105081451, 0
63, 1, 0.1381276014598, 0
64, 1, 0.194257612611, 0
65, 1, 0.24847402822957, 0
66, 0.97458330589831, 0.3, 0
67, 0.92296474357018, 0.3, 0
68, 0.86966354561884, 0.3, 0
69, 0.8148793675584, 0.3, 0
70, 0.75913191663457, 0.3, 0
71, 0.70390366118942, 0.3, 0
72, 0.65079625926281, 0.3, 0
73, 0.59992725509652, 0.3, 0
74, 0.94916661179661, 0.3, 0
75, 0.89676287534375, 0.3, 0
76, 0.84256421589393, 0.3, 0
77, 0.78719451922286, 0.3, 0
78, 0.73106931404627, 0.3, 0
79, 0.67673800833257, 0.3, 0
80, 0.62485451019304, 0.3, 0
81, 0.5503312247734, 0.3, 0
82, 0.50096767641088, 0.3, 0
83, 0.45063645163749, 0.3, 0
84, 0.52566244954679, 0.3, 0
85, 0.47627290327498, 0.3, 0
86, 0.39888275950103, 0.3, 0
87, 0.34599595118394, 0.3, 0
88, 0.2922177510907, 0.3, 0
89, 0.2381870020131, 0.3, 0
90, 0.18446295262282, 0.3, 0
91, 0.13117799251089, 0.3, 0
92, 0.078228660702359, 0.3, 0
93, 0.025931178208979, 0.3, 0
94, 0.37276551900205, 0.3, 0
95, 0.31922638336582, 0.3, 0
96, 0.26520911881558, 0.3, 0
97, 0.21116488521061, 0.3, 0
98, 0.15776102003503, 0.3, 0
99, 0.10459496498676, 0.3, 0
100, 0.051862356417958, 0.3, 0
101, 0, 0.2739225545758, 0
102, 0, 0.22110341275058, 0
103, 0, 0.16691104864494, 0
104, 0, 0.11152819615269, 0
105, 0, 0.055822493741828, 0
106, 0, 0.00027209331192762, 0
107, 0, -0.055325339008251, 0
108, 0, -0.11077469238953, 0
109, 0, -0.16585383188449, 0
110, 0, -0.22032370826592, 0
111, 0, -0.27367162451008, 0
112, 0, 0.24784510915159, 0
113, 0, 0.19436171634957, 0
114, 0, 0.13946038094032, 0
115, 0, 0.08359601136506, 0
116, 0, 0.028048976118597, 0
117, 0, -0.027504789494742, 0
118, 0, -0.083145888521761, 0
119, 0, -0.1384034962573, 0
120, 0, -0.19330416751167, 0
121, 0, -0.24734324902017, 0
122, 0.59326768928707, -0.12236402541676, 0
123, 0.56411142280614, -0.07654323744297, 0
124, 0.51551249347962, -0.053629271415399, 0
125, 0.46205301154312, -0.060101011423922, 0
126, 0.4190120474249, -0.095882196255097, 0
127, 0.40287157275427, -0.15114641163496, 0
128, 0.42058439788935, -0.20546858556904, 0
129, 0.46345566556316, -0.23953061446593, 0
130, 0.51514648207102, -0.24547852515538, 0
131, 0.5631514069556, -0.22333834636412, 0
132, 0.59311334558534, -0.17720978148776, 0
133, 0.58195389394683, -0.097369875738641, 0
134, 0.5411592101843, -0.061533283752419, 0
135, 0.48868181302075, -0.05304429064053, 0
136, 0.43847591832699, -0.074349198788988, 0
137, 0.40677892021478, -0.12220448052161, 0
138, 0.40774296216021, -0.17994176185862, 0
139, 0.4402974611643, -0.22615472774744, 0
140, 0.48938363812359, -0.24608476026636, 0
141, 0.53984340294206, -0.23811960033112, 0
142, 0.58136163263423, -0.20259862228795, 0
143, 0.41737374182611, 0.24468444105181, 0
144, 0.57315474664651, 0.24511942891544, 0
145, 0.1068422250025, -0.24558679455226, 0
146, 0.053510710031326, -0.24533289983338, 0
147, 0.16079770923671, -0.2461608906111, 0
148, 0.27158418209036, -0.24646043815453, 0
149, 0.21576220537656, -0.24657737836202, 0
150, 0.38104863738988, -0.24277352211386, 0
151, 0.32642784775714, -0.24418145246315, 0
152, 0.71684610904794, -0.21996913652677, 0
153, 0.67004438522204, -0.093302197369671, 0
154, 0.80317527650872, -0.076056450822639, 0
155, 0.635056320407, -0.23511958541212, 0
156, 0.92299423743715, -0.21856229454892, 0
157, 0.72503786115126, -0.01355113196564, 0
158, 0.87383517820277, 0.0060508728800727, 0
159, 0.94933979467869, 0.030347342881612, 0
160, 0.85053155156024, -0.049217165509846, 0
161, 0.92392956585046, 0.031541179346657, 0
162, 0.89894212684573, -0.16386596790366, 0
163, 0.25971451388345, 0.18776875181178, 0
164, 0.25943946901195, 0.12962778406392, 0
165, 0.20941897692442, 0.13050626713764, 0
166, 0.10583265418207, 0.1339243705388, 0
167, 0.15814610009378, 0.13217897494704, 0
168, 0.05289839349496, 0.13596516943372, 0
169, 0.10597412252004, 0.1892583291309, 0
170, 0.15793275519622, 0.18844366024325, 0
171, 0.053290395011913, 0.19066273508589, 0
172, 0.053598444023014, 0.24520435856861, 0
173, 0.15820018672763, 0.24462721040632, 0
174, 0.10610581245051, 0.24475696005511, 0
175, 0.20914437112035, 0.18787342372617, 0
176, 0.21004526046627, 0.24463501007545, 0
177, 0.261705089516, 0.24475964805249, 0
178, 0.3134372861389, 0.2450057819647, 0
179, 0.36182375749002, 0.18985912933111, 0
180, 0.36546421275867, 0.24513879024079, 0
181, 0.46908271814882, 0.24447272549613, 0
182, 0.41365311958449, 0.18936185719897, 0
183, 0.46576215285944, 0.18997759037757, 0
184, 0.41248268145997, 0.13376778650491, 0
185, 0.46465933555775, 0.13607533971317, 0
186, 0.3103111131282, 0.18864857326628, 0
187, 0.36061222904225, 0.13492781233284, 0
188, 0.30916129012024, 0.13150504981506, 0
189, 0.46553882936293, 0.032328984979621, 0
190, 0.30998721506169, 0.073435277228741, 0
191, 0.42162405240071, -0.058109201798427, 0
192, 0.39930688780747, -0.083208048985328, 0
193, 0.33591375494163, 0.049173166797498, 0
194, 0.31430455665116, 0.013165892025973, 0
195, 0.26765950787205, 0.009026864926628, 0
196, 0.15939206219796, 0.076434481272872, 0
197, 0.21154346507407, 0.073126212665295, 0
198, 0.26153072094519, 0.070205671432741, 0
199, 0.16122934003972, 0.021963486908208, 0
200, 0.2156532631519, 0.016883559176566, 0
201, 0.052881869016612, 0.081236251789657, 0
202, 0.1062477222724, 0.079037660114905, 0
203, 0.10687594394536, 0.024864442323442, 0
204, 0.053039800433822, 0.026701437729317, 0
205, 0.16131005452338, -0.19300779988996, 0
206, 0.10716600744605, -0.19186553107536, 0
207, 0.053435409164354, -0.1915005278492, 0
208, 0.21616593193746, -0.19394832717774, 0
209, 0.27120523288383, -0.19307182683199, 0
210, 0.21337692074313, -0.14109795119449, 0
211, 0.26938304144641, -0.14024640698999, 0
212, 0.1060745525543, -0.13789203573694, 0
213, 0.15943353920184, -0.13940540115668, 0
214, 0.052892122144961, -0.13734562551592, 0
215, 0.10683396424807, -0.028671340124413, 0
216, 0.052959613558517, -0.027668106073697, 0
217, 0.052392915658535, -0.082455807466966, 0
218, 0.10483121693253, -0.08297503722452, 0
219, 0.16198319665098, -0.030622620150188, 0
220, 0.2202908827984, -0.035156918949031, 0
221, 0.25693028157176, -0.091062802896938, 0
222, 0.15662582257249, -0.084152488311758, 0
223, 0.20703414247729, -0.085814706585172, 0
224, 0.32059916264176, -0.18385948418525, 0
225, 0.36342951125927, -0.17951541305607, 0
226, 0.31717395720582, -0.11664129921003, 0
227, 0.36239775542574, -0.10030596499522, 0
228, 0.28636776127707, -0.052483474759026, 0
229, 0.33691295430103, -0.046023143631121, 0
230, 0.33499433025355, 0.077265867099484, 0
231, 0.36302031970993, 0.029529986056119, 0
232, 0.38346109882501, -0.069020371097454, 0
233, 0.78872115741443, 0.19627498422925, 0
234, 0.73492865744482, 0.19632582755152, 0
235, 0.7369503586304, 0.1442753118385, 0
236, 0.84361181008719, 0.14251407434061, 0
237, 0.7905455564299, 0.14373272764031, 0
238, 0.89631250400506, 0.14098551373328, 0
239, 0.94863074219898, 0.13950815932734, 0
240, 0.84216892216351, 0.19541334306476, 0
241, 0.89528120707877, 0.19416128071397, 0
242, 0.94806468812663, 0.19319095216712, 0
243, 0.94740608832469, 0.24644002509773, 0
244, 0.89474237975038, 0.24713016630959, 0
245, 0.84145176071427, 0.24800954708082, 0
246, 0.73337519074829, 0.2483829578449, 0
247, 0.78753868345392, 0.24855060612182, 0
248, 0.68078868251812, 0.19544549437529, 0
249, 0.67939271837989, 0.24744973301858, 0
250, 0.62647521302284, 0.19391753074725, 0
251, 0.6259417107046, 0.24619874399081, 0
252, 0.52096629213612, 0.24451917953811, 0
253, 0.57235228392494, 0.19218602000736, 0
254, 0.5187668853656, 0.1908518554185, 0
255, 0.5729452596886, 0.14022271378284, 0
256, 0.51854377552171, 0.13815214453797, 0
257, 0.62783244893406, 0.14246162440131, 0
258, 0.68267238935412, 0.14387496641399, 0
259, 0.63083486602296, 0.091594973281086, 0
260, 0.87145127348757, 0.08815985454449, 0
261, 0.57543194595093, 0.088936368206732, 0
262, 0.52032806278924, 0.086469888552068, 0
263, 0.52526957489255, 0.036452861106586, 0
264, 0.63636905480485, 0.041166180807778, 0
265, 0.58075414817453, 0.038178083573694, 0
266, 0.76870505372939, -0.22076142433307, 0
267, 0.80012203887891, -0.018441847860884, 0
268, 0.9246031814976, -0.079926281959387, 0
269, 0.89808188077354, -0.19152952476705, 0
270, 0.66005018335916, -0.1562353790596, 0
271, 0.6584828810426, 0.092281279526118, 0
272, 0.92354212188673, -0.19131731461156, 0
273, 0.66090003480567, 0.066860293930653, 0
274, 0.66233615254891, -0.062601185012009, 0
275, 0.84748896789246, -0.1923310233045, 0
276, 0.75757312141757, -0.10347789139712, 0
277, 0.97416990751879, -0.24597410185849, 0
278, 0.89941903556397, -0.022869037673949, 0
279, 0.87163238774487, -0.21935543906527, 0
280, 0.7132194914474, -0.099637331466699, 0
281, 0.85058942887181, -0.13567955595346, 0
282, 0.84867279948253, 0.0071249390655219, 0
283, 0.92451314015633, -0.051836867749185, 0
284, 0.97460081144824, -0.10901128536801, 0
285, 0.59733952324111, -0.03734154839648, 0
286, 0.68830344108411, 0.066856847696824, 0
287, 0.64586502522049, -0.0092485400975998, 0
288, 0.57316679020168, -0.047754054829878, 0
289, 0.87113794721677, -0.27333429024843, 0
290, 0.71301729592106, -0.13183809126394, 0
291, 0.58505971590187, -0.25769355802868, 0
292, 0.69159106231262, -0.096807295266154, 0
293, 0.64752149473349, -0.18180745930683, 0
294, 0.97472351707987, -0.13659666354617, 0
295, 0.89730259965515, -0.21888060480059, 0
296, 0.89715845383523, -0.27299752722265, 0
297, 0.73518338905532, -0.10182349908865, 0
298, 0.87224633293912, 0.061049170539751, 0
299, 0.66552124765711, -0.21521198242912, 0
300, 0.89737702445587, 0.087211559343204, 0
301, 0.71238806171103, -0.24674983082347, 0
302, 0.61811350994505, -0.0097519949734584, 0
303, 0.69216686392465, -0.12969687970859, 0
304, 0.73456821829506, -0.13329041508349, 0
305, 0.3531303265969, -0.070725916366199, 0
306, 0.35920368437197, -0.030697923539659, 0
307, 0.43940354443078, -0.021783450292717, 0
308, 0.89901280256478, 0.0050046012332248, 0
309, 0.637497468141, -0.060287285869906, 0
310, 0.94947913368396, -0.080647549449227, 0
311, 0.68626974840685, -0.065648920684365, 0
312, 0.75615105131915, -0.073125834290079, 0
313, 0.6229216218963, -0.16824054784022, 0
314, 0.80363264722915, -0.10562286710133, 0
315, 0.66402299174089, 0.041415963483415, 0
316, 0.82490058445939, -0.019726097001834, 0
317, 0.77760269092559, -0.045481758370077, 0
318, 0.87540277489144, -0.1072128082245, 0
319, 0.97479160073704, -0.16419206093175, 0
320, 0.62531626463486, -0.034447644615088, 0
321, 0.68271776010065, -0.16043381154151, 0
322, 0.97456356366746, -0.053886456157419, 0
323, 0.56542372138019, -0.018226641947888, 0
324, 0.53694016710496, -0.01233942367867, 0
325, 0.40934379531478, -0.040702592900248, 0
326, 0.37504914971986, -0.047224737718267, 0
327, 0.18814845575907, -0.24640383525201, 0
328, 0.21330620676859, -0.27302864543151, 0
329, 0.15904451820486, -0.27290925739389, 0
330, 0.18607185150475, -0.27298217065429, 0
331, 0.1581671753439, 0.27247452669292, 0
332, 0.13218810032998, 0.24467986104913, 0
333, 0.10572451348129, 0.27246326049708, 0
334, 0.13193965658954, 0.27246982358758, 0
335, 0.026353352905811, -0.027467556623464, 0
336, 0.052661917237695, -0.054959536320815, 0
337, 0.026158471301598, -0.082599055393143, 0
338, 0.026239696335704, -0.054979284850221, 0
339, 0.97450436318591, 0.13885714288682, 0
340, 0.94843731408109, 0.16642310520879, 0
341, 0.97422541814849, 0.19325006477103, 0
342, 0.97447552197041, 0.16613781661775, 0
343, 0.94949903640837, -0.10852129102953, 0
344, 0.72223252241971, -0.19247861956838, 0
345, 0.74450147744384, 0.039226779734953, 0
346, 0.026393962519823, 0.027415429220643, 0
347, 0.053034344916938, -0.00048476170155218, 0
348, 0.026385745216184, -2.4008893757659e-05, 0
349, 0.28754092939297, 0.24487707440664, 0
350, 0.26326736812333, 0.27266864956862, 0
351, 0.31592097258669, 0.27273325916916, 0
352, 0.28958920047572, 0.27271446581425, 0
353, 0.24360598903385, -0.24662209688917, 0
354, 0.26832805785715, -0.27298766279891, 0
355, 0.24073814193793, -0.27302794730216, 0
356, 0.052603456834343, -0.10998736925629, 0
357, 0.026384378336887, -0.13763728201673, 0
358, 0.026262498842455, -0.11019489511964, 0
359, 0.78721595620677, 0.27445017134555, 0
360, 0.76046009007425, 0.24860828230217, 0
361, 0.73246907359598, 0.2743049866233, 0
362, 0.75981697222232, 0.27450326798229, 0
363, 0.1337075014295, -0.24588505767428, 0
364, 0.10562149475442, -0.2726650681666, 0
365, 0.13222685505463, -0.27281550494828, 0
366, 0.23588813426135, 0.24469705135258, 0
367, 0.21066738398159, 0.27255905325988, 0
368, 0.23695933247406, 0.27263532650551, 0
369, 0.052823270373499, 0.10858857183292, 0
370, 0.026325503142199, 0.082376780077221, 0
371, 0.026382335616376, 0.13740352340733, 0
372, 0.026292667884622, 0.10990809453048, 0
373, 0.053176061148278, -0.16450546608179, 0
374, 0.026651815570831, -0.19199112696816, 0
375, 0.026506079111824, -0.16490209879609, 0
376, 0.026830257209744, -0.2457538070607, 0
377, 0.052943796847291, -0.27247982563194, 0
378, 0.026666422022157, -0.27264533085239, 0
379, 0.63548546781734, -0.26932173151367, 0
380, 0.87451772355894, -0.021889193956873, 0
381, 0.84757964232052, 0.034749252764852, 0
382, 0.87396119257165, -0.16402895932647, 0
383, 0.18415173048799, 0.24460435686501, 0
384, 0.18440790139497, 0.27249346575538, 0
385, 0.052978995246882, 0.053935428177009, 0
386, 0.026376082594819, 0.054876400556025, 0
387, 0.35344155470362, -0.24363540225275, 0
388, 0.37774632992478, -0.27110593676592, 0
389, 0.3231908141155, -0.27210707323992, 0
390, 0.35042587563781, -0.27179437541446, 0
391, 0.79235530248457, -0.24762648032186, 0
392, 0.9746655843005, -0.02630770723575, 0
393, 0.85110384628383, -0.07790547489869, 0
394, 0.84544265921393, 0.08908117219858, 0
395, 0.29929676345157, -0.24522478165768, 0
396, 0.29589145053895, -0.27251642461166, 0
397, 0.79308770657465, 0.090789076692926, 0
398, 0.69932485485972, -0.011739332979245, 0
399, 0.6479925755763, -0.089389062867364, 0
400, 0.33941669418675, 0.24512504929802, 0
401, 0.3685169666047, 0.27266179923149, 0
402, 0.34224465388227, 0.27274123101653, 0
403, 0.80283949708386, -0.13532354583614, 0
404, 0.77528713549754, -0.016979851675854, 0
405, 0.74727392971972, 0.012245215817163, 0
406, 0.75335891961279, -0.043722989652087, 0
407, 0.9487785679988, 0.11243001008029, 0
408, 0.9745076178837, 0.11149923750047, 0
409, 0.97408423964394, -0.2728897326013, 0
410, 0.76666669021357, 0.091514567639146, 0
411, 0.68414492460849, -0.27280952615657, 0
412, 0.52295328250104, 0.27193156827222, 0
413, 0.5739729557791, 0.27221094588195, 0
414, 0.54700362270548, 0.24473584567569, 0
415, 0.54841912222634, 0.27201921294133, 0
416, 0.079929487447061, 0.24490287714258, 0
417, 0.053286338565892, 0.27253370743931, 0
418, 0.079519538424997, 0.27248031432733, 0
419, 0.84648572813381, 0.06205201038223, 0
420, 0.89971967619801, -0.050978241308107, 0
421, 0.77287483041897, 0.010839920100555, 0
422, 0.4949934027611, 0.24441142293588, 0
423, 0.47199766450409, 0.27205429542129, 0
424, 0.49749944131138, 0.27189989753097, 0
425, 0.85117321083912, -0.10679819613891, 0
426, 0.80183467894145, -0.046953473350307, 0
427, 0.8754053648501, -0.078609183763746, 0
428, 0.78039826179863, -0.10471199824141, 0
429, 0.81455564071008, 0.24833985102545, 0
430, 0.84166027139136, 0.27413049973301, 0
431, 0.81452180317419, 0.274325415088, 0
432, 0.053059291364807, 0.16333440157227, 0
433, 0.026694221155535, 0.19201552406789, 0
434, 0.026511620929083, 0.16478653105488, 0
435, 0.92289535315347, -0.27271817225541, 0
436, 0.89850108843674, 0.032634145323625, 0
437, 0.71809627854874, 0.040244930137065, 0
438, 0.080138979931345, -0.24536204112817, 0
439, 0.07921704873532, -0.27253358933363, 0
440, 0.86818606909104, 0.24760244159705, 0
441, 0.89519138489059, 0.27360576315084, 0
442, 0.86856084050072, 0.27390001894098, 0
443, 0.94952871370166, -0.13632142448828, 0
444, 0.82723734923623, -0.10629499245144, 0
445, 0.026993972550155, 0.24594649338566, 0
446, 0.026909064626719, 0.27280098373999, 0
447, 0.69494212493216, 0.014923742608383, 0
448, 0.97456988782949, 0.084067232702342, 0
449, 0.15806726565638, 0.21658423694135, 0
450, 0.13204517476054, 0.18881968746503, 0
451, 0.10611168817415, 0.21700388855165, 0
452, 0.13215859516477, 0.21676836478033, 0
453, 0.39147107971178, 0.24490439844557, 0
454, 0.42057495655159, 0.27233946213458, 0
455, 0.39463527163216, 0.27248662846072, 0
456, 0.62562876517298, 0.27283151969142, 0
457, 0.5994634709512, 0.24559164417525, 0
458, 0.59968754235646, 0.27244688999706, 0
459, 0.67843065954317, 0.27364714259012, 0
460, 0.65258711883713, 0.2468297601156, 0
461, 0.65187466620685, 0.27323066252798, 0
462, 0.97366439610775, 0.2467033723228, 0
463, 0.94761385453254, 0.27312156093192, 0
464, 0.97361124620727, 0.27317872021448, 0
465, 0.70633400472966, 0.24799010797659, 0
466, 0.70531885004191, 0.27402537896677, 0
467, 0.44322403993717, 0.24458504667704, 0
468, 0.44635739915099, 0.27223205309449, 0
469, 0.94767753175052, 0.21984178615247, 0
470, 0.97394745102881, 0.22009678919451, 0
471, 0.70427022076337, -0.039348948975017, 0
472, 0.82653442499684, -0.13556060545847, 0
473, 0.92253593352627, 0.14021879327428, 0
474, 0.89580319579535, 0.16762473296699, 0
475, 0.92172186299285, 0.19357221965872, 0
476, 0.92217637479259, 0.1669553761844, 0
477, 0.16181500467801, -0.0045696979723604, 0
478, 0.18850173345534, 0.019783871402622, 0
479, 0.21792379587623, -0.0099724788114526, 0
480, 0.19052428423312, -0.032309462975057, 0
481, 0.18970126060668, -0.0067341904340141, 0
482, 0.10596483292011, 0.10640664384418, 0
483, 0.07955321870205, 0.080149057447313, 0
484, 0.079412537336032, 0.13486067925672, 0
485, 0.079414922324072, 0.10746008931954, 0
486, 0.053511772515591, 0.21794273139998, 0
487, 0.026874828463028, 0.21905431756985, 0
488, 0.78804866197713, 0.22245960770392, 0
489, 0.76186952591417, 0.19643210874082, 0
490, 0.73414236149558, 0.2223635329958, 0
491, 0.76112150936831, 0.22255096866309, 0
492, 0.053581734655478, -0.21840202509136, 0
493, 0.026765352616178, -0.21891752500076, 0
494, 0.26051573091086, 0.21642620127443, 0
495, 0.31160075688497, 0.21694616201102, 0
496, 0.28494337443132, 0.18810012733884, 0
497, 0.28600722870403, 0.21664075731237, 0
498, 0.13416214770459, -0.19240252181635, 0
499, 0.16146365643348, -0.2195835574347, 0
500, 0.10727305275925, -0.21869838917363, 0
501, 0.13427366838656, -0.21912832976195, 0
502, 0.92113324197263, 0.24669047980351, 0
503, 0.92152068891628, 0.2733186447207, 0
504, 0.20908775464691, 0.15922988444725, 0
505, 0.18393554630052, 0.1313112946291, 0
506, 0.15792761504343, 0.16028494007678, 0
507, 0.18363260354806, 0.18811948746066, 0
508, 0.18363157715073, 0.15971593959691, 0
509, 0.79727307467241, -0.19302649412096, 0
510, 0.69128206671784, 0.04103496181343, 0
511, 0.7895525269221, 0.17003453868491, 0
512, 0.76382657281329, 0.14411352076228, 0
513, 0.73583901804995, 0.1702985917274, 0
514, 0.76275728446156, 0.17028810029808, 0
515, 0.38768177779874, 0.078661355611285, 0
516, 0.44930193908761, -0.04060163631119, 0
517, 0.41283212507053, 0.047225943990767, 0
518, 0.36128955486841, 0.081275750888548, 0
519, 0.20949739563575, 0.21636956181384, 0
520, 0.18384543021062, 0.21644470062416, 0
521, 0.58119651289946, -0.27870463183777, 0
522, 0.61235775676483, -0.24666472533407, 0
523, 0.61094352969367, -0.27353886945995, 0
524, 0.079782764197238, -0.028072814348213, 0
525, 0.10585878996217, -0.055572446200868, 0
526, 0.078645100641607, -0.082604089398024, 0
527, 0.079210666088535, -0.055176054642107, 0
528, 0.10696856709694, -0.0019502501200181, 0
529, 0.1340008700772, 0.023602775249006, 0
530, 0.13418245289428, -0.029490203396201, 0
531, 0.13425767355617, -0.0030565085323434, 0
532, 0.1595315984204, -0.056800541493525, 0
533, 0.13085791917969, -0.083508726603292, 0
534, 0.13261218646599, -0.056114421069638, 0
535, 0.079880319440454, 0.025869493390232, 0
536, 0.079900060809115, -0.0011164046627686, 0
537, 0.10535026747473, -0.1105659950565, 0
538, 0.079464575985939, -0.13745595897016, 0
539, 0.078982190388441, -0.1101308618732, 0
540, 0.25933607971603, 0.15883534360611, 0
541, 0.30950673942241, 0.16016514662125, 0
542, 0.28420226080386, 0.1302314019242, 0
543, 0.28433540499532, 0.15929882447374, 0
544, 0.57260167913529, 0.21849375864106, 0
545, 0.54549078921716, 0.19138909524308, 0
546, 0.51959788523671, 0.21753766319821, 0
547, 0.54603427468196, 0.21790891087072, 0
548, 0.89685880308443, -0.24599733758825, 0
549, 0.72133673385359, 0.013652214911193, 0
550, 0.94947880802317, -0.024968008411008, 0
551, 0.71311839487976, 0.092456717049639, 0
552, 0.2437762117791, -0.19390121779596, 0
553, 0.27193645972546, -0.2199115203989, 0
554, 0.21650825281309, -0.22029047410299, 0
555, 0.24426320548408, -0.22032320953589, 0
556, 0.10659227074823, 0.051850809163929, 0
557, 0.079739987919174, 0.052948719833436, 0
558, 0.57765552850938, 0.063510411595419, 0
559, 0.55355008226759, 0.03546901297655, 0
560, 0.52225565456215, 0.061208515023413, 0
561, 0.54796481233375, 0.087103714697601, 0
562, 0.55020418129475, 0.061318279016313, 0
563, 0.47817864389413, -0.27219427628224, 0
564, 0.42983638752213, -0.26399299850139, 0
565, 0.45260257284606, -0.26853284703868, 0
566, 0.18864655539301, -0.19357443925908, 0
567, 0.18887959091887, -0.22000114401903, 0
568, 0.57244976485092, 0.16611075605378, 0
569, 0.54569869459513, 0.13895470462708, 0
570, 0.51842194562749, 0.16439520488193, 0
571, 0.54537173127177, 0.16508729222152, 0
572, 0.13288778703885, 0.077821294417354, 0
573, 0.16032114944823, 0.048986045829727, 0
574, 0.1334756607308, 0.050559917952656, 0
575, 0.30929214838453, 0.10262898174397, 0
576, 0.28569609219685, 0.071034143538105, 0
577, 0.26012011315802, 0.10010757150221, 0
578, 0.28460883148115, 0.10084371510038, 0
579, 0.33592494961329, 0.18931251426992, 0
580, 0.36328847825902, 0.21750654381189, 0
581, 0.33735773630101, 0.21728337188139, 0
582, 0.38480899316968, -0.18118835914788, 0
583, 0.36018598757782, -0.14067819581258, 0
584, 0.38333139798693, -0.11150983155902, 0
585, 0.38036403673122, -0.14567475303318, 0
586, 0.97464032122047, 0.056555681216357, 0
587, 0.72888198064305, -0.16377881136273, 0
588, 0.97462080291928, -0.19166861141728, 0
589, 0.92422348118129, 0.0039285690583392, 0
590, 0.84968584337443, -0.020860141778251, 0
591, 0.97441564249788, -0.21892791034132, 0
592, 0.69099786828477, -0.21850790988554, 0
593, 0.76581553244321, -0.24762026859863, 0
594, 0.82027526881057, -0.22038224607113, 0
595, 0.84918865078825, -0.16425627024447, 0
596, 0.74722810166042, -0.19302432673331, 0
597, 0.77623822637358, -0.16457010641188, 0
598, 0.24101148767157, -0.14146343674861, 0
599, 0.27042688100033, -0.16630735486203, 0
600, 0.21513645887312, -0.16755500068119, 0
601, 0.24276749762019, -0.16752603666449, 0
602, 0.75241772258713, -0.16434221221309, 0
603, 0.72897906109918, -0.041662548676766, 0
604, 0.23170215377764, -0.087485248014847, 0
605, 0.26508795075299, -0.11551597466655, 0
606, 0.21030514578217, -0.1141092002584, 0
607, 0.23694346517064, -0.11533294695731, 0
608, 0.29702248973072, -0.18836448815809, 0
609, 0.32391898891279, -0.21519407230025, 0
610, 0.29866016000777, -0.2174084740252, 0
611, 0.6857656124002, -0.24547181335844, 0
612, 0.94896344010853, 0.085202643638542, 0
613, 0.65270844355294, -0.03499572598138, 0
614, 0.23448684022461, 0.18774042727304, 0
615, 0.2350394920463, 0.21636199936995, 0
616, 0.3628279951001, 0.0029511222257491, 0
617, 0.59294265143751, -0.072814778542204, 0
618, 0.6080537644579, -0.101354739327, 0
619, 0.94915684965699, 0.057839323050054, 0
620, 0.82613015829577, -0.048180668066096, 0
621, 0.92459582475833, -0.10803766206997, 0
622, 0.89682873153966, 0.11419043221683, 0
623, 0.92286638985331, 0.11331484104397, 0
624, 0.77057237784688, 0.038106864068631, 0
625, 0.67297692867596, -0.010150949771809, 0
626, 0.7105055626768, -0.27338833796359, 0
627, 0.79453386745846, -0.22066466526356, 0
628, 0.81548814185027, 0.19592015401555, 0
629, 0.84167279362969, 0.22175065410388, 0
630, 0.81490759944546, 0.22217849091658, 0
631, 0.74279433016375, -0.22058433338147, 0
632, 0.63787557798926, -0.14761962505419, 0
633, 0.73289741905638, -0.071075598904039, 0
634, 0.49216987657202, 0.19039353891084, 0
635, 0.46707562382523, 0.21713741474474, 0
636, 0.49326847466652, 0.21727843845625, 0
637, 0.18627379718296, -0.14029666680209, 0
638, 0.16058210019064, -0.1663200942007, 0
639, 0.18774686976234, -0.16704057125632, 0
640, 0.41002324435929, -0.23932914986198, 0
641, 0.40473016668481, -0.26926105571045, 0
642, 0.56132314250972, -0.2482043643661, 0
643, 0.52993363110774, -0.26994257369706, 0
644, 0.55343117241351, -0.27378472370339, 0
645, 0.37210372030542, -0.21372140439768, 0
646, 0.39673128765667, -0.21319158420909, 0
647, 0.8444796033943, 0.11588628620865, 0
648, 0.87000169983443, 0.14176703760861, 0
649, 0.87069772004191, 0.11505467325834, 0
650, 0.89959908693715, -0.13586534741908, 0
651, 0.69726276765832, -0.19112964052241, 0
652, 0.79825127988911, 0.0095054118499877, 0
653, 0.33457786456172, 0.13325910237708, 0
654, 0.36095720004073, 0.16229641443172, 0
655, 0.33501975796398, 0.16128677768771, 0
656, 0.49146662433371, 0.1372484486846, 0
657, 0.46499590631771, 0.16295768802215, 0
658, 0.49159288330898, 0.16371419234981, 0
659, 0.50483526913624, -0.27285510704008, 0
660, 0.67234460743849, -0.18813809078131, 0
661, 0.80031915058696, -0.16458799684083, 0
662, 0.7795579200635, -0.074763161791032, 0
663, 0.89794238126465, 0.060031722117949, 0
664, 0.65875192773832, -0.2716408134272, 0
665, 0.8270236610349, -0.077080272101915, 0
666, 0.84480341500737, -0.27370670274503, 0
667, 0.87495849354803, -0.13575845860225, 0
668, 0.38778324694338, 0.18959759937456, 0
669, 0.41512717963105, 0.21703166273221, 0
670, 0.38924206678498, 0.2172643646249, 0
671, 0.6597220683022, -0.24253219847396, 0
672, 0.76424783087911, -0.27399331827069, 0
673, 0.92447054966238, -0.13604734026914, 0
674, 0.23457579400092, 0.12988376853985, 0
675, 0.23430466723965, 0.15890095303888, 0
676, 0.40381086007284, -0.018576953458791, 0
677, 0.50516000017382, -0.0084754451043113, 0
678, 0.51281795133738, -0.030393355345336, 0
679, 0.73728420657164, -0.27376783317028, 0
680, 0.89991072635331, -0.079262637350368, 0
681, 0.64059753305711, -0.20822395388784, 0
682, 0.60803399412004, -0.2152186675684, 0
683, 0.61653042731242, -0.19268039946833, 0
684, 0.62616557215368, 0.21992868265322, 0
685, 0.59936273302442, 0.19303950386218, 0
686, 0.59931974408143, 0.21916704404344, 0
687, 0.23688275186818, 0.071444959503434, 0
688, 0.2102177385972, 0.1017722790505, 0
689, 0.23539705061603, 0.10071733441404, 0
690, 0.92410960922933, -0.16382374012482, 0
691, 0.9487073038719, -0.21855391990244, 0
692, 0.89988846511819, -0.10760895976355, 0
693, 0.43959633880541, 0.189607716658, 0
694, 0.44103970207124, 0.217056383801, 0
695, 0.51915222290416, 0.11215254360068, 0
696, 0.5739071082194, 0.11450131223252, 0
697, 0.54652694199682, 0.11296663936666, 0
698, 0.38673703507273, 0.13425413676763, 0
699, 0.41281010737443, 0.16163348452541, 0
700, 0.38697562597164, 0.16192705413389, 0
701, 0.41117946463032, 0.015761816953766, 0
702, 0.36217342595444, 0.055211285186838, 0
703, 0.62699665825152, 0.16810641662178, 0
704, 0.60035164643205, 0.14141461993525, 0
705, 0.59968018305356, 0.16713511760771, 0
706, 0.33751009454159, 0.020577120323922, 0
707, 0.31999774139171, -0.018568350571418, 0
708, 0.52981840091523, 0.012153412380348, 0
709, 0.58491623717585, 0.01286200905962, 0
710, 0.558407219069, 0.009212483591813, 0
711, 0.70789623208309, 0.19599048680982, 0
712, 0.68010282956331, 0.22138613296972, 0
713, 0.70712578739805, 0.2219661635765, 0
714, 0.080271062238389, -0.19151936091065, 0
715, 0.080399001089887, -0.21840787506765, 0
716, 0.079722175269776, 0.18982781096541, 0
717, 0.079908460355163, 0.21735300014268, 0
718, 0.43831751887325, 0.13478981217081, 0
719, 0.43873482276878, 0.16219889074926, 0
720, 0.65363410282217, 0.19473647815199, 0
721, 0.65310425001366, 0.22068492536839, 0
722, 0.92440255641494, -0.023866301413108, 0
723, 0.70967679292429, -0.068569418685907, 0
724, 0.77223916520152, -0.19314953548665, 0
725, 0.74207646756603, 0.065793066434543, 0
726, 0.822345327471, -0.19274715225166, 0
727, 0.62907830553178, 0.11696291259821, 0
728, 0.60310413295845, 0.090460241060444, 0
729, 0.60146049574347, 0.11585927054397, 0
730, 0.70989834217449, 0.14420173258456, 0
731, 0.68160634555071, 0.16961477669978, 0
732, 0.7087860292235, 0.17007301862235, 0
733, 0.7503025556944, -0.015336701014896, 0
734, 0.87095826988044, -0.24647594298844, 0
735, 0.94947389136035, 0.0027417452782631, 0
736, 0.70564956774768, -0.16263726646559, 0
737, 0.6404778651923, 0.016018903811443, 0
738, 0.7153620661422, 0.066459480856574, 0
739, 0.79639315284413, 0.036962694384639, 0
740, 0.27357076312022, -0.022045040703424, 0
741, 0.2913005991881, 0.009627338112323, 0
742, 0.31206104539841, -0.051646913429417, 0
743, 0.29745385520741, -0.021959309373531, 0
744, 0.73832747369972, 0.11822364271543, 0
745, 0.68408460184684, 0.11819869706813, 0
746, 0.71131804096429, 0.11834611734019, 0
747, 0.10671465319476, -0.16496380206096, 0
748, 0.079917387353845, -0.16456620714585, 0
749, 0.65529879277229, 0.14329155474603, 0
750, 0.65432694790321, 0.16894750139102, 0
751, 0.38379316820124, -0.0099877833598382, 0
752, 0.31147052726213, 0.043728338519235, 0
753, 0.43675521083241, 0.024998146452542, 0
754, 0.43407839034794, -0.0009620116388811, 0
755, 0.13272178766267, -0.13857143988598, 0
756, 0.13358891380744, -0.16558656303838, 0
757, 0.26391252474263, 0.039848094938959, 0
758, 0.2877429577435, 0.040665640020305, 0
759, 0.36073743211924, 0.10787720501679, 0
760, 0.33456728149357, 0.10525698390632, 0
761, 0.94848439511061, -0.27270587228692, 0
762, 0.97457490512156, -0.081445967944919, 0
763, 0.76848720213248, 0.064958262980688, 0
764, 0.65665106018253, 0.1177451887789, 0
765, 0.60850573694286, 0.040092995831499, 0
766, 0.61260715545171, 0.015103800777229, 0
767, 0.13209496802073, 0.13304958399824, 0
768, 0.10584810278162, 0.16155428690653, 0
769, 0.13199167728425, 0.16089541962393, 0
770, 0.079525138182532, 0.16232588264481, 0
771, 0.5895874999893, -0.23231543801431, 0
772, 0.92266036223157, -0.2456461507416, 0
773, 0.87505938466549, -0.050127481134532, 0
774, 0.66799125313788, 0.015827202378379, 0
775, 0.82463878101026, -0.16447183606949, 0
776, 0.89487102657766, 0.22065020570515, 0
777, 0.92131637205211, 0.22012929359985, 0
778, 0.33980332862612, -0.10991788889653, 0
779, 0.30661905612641, -0.084738984004876, 0
780, 0.32948107558212, -0.079667665294316, 0
781, 0.15791113595686, -0.11206618431161, 0
782, 0.1316675587227, -0.11123116366945, 0
783, 0.15863551316581, 0.10420008626114, 0
784, 0.13239580417161, 0.10533845026866, 0
785, 0.63321763118182, 0.06633943359758, 0
786, 0.77956185590242, -0.13491770147243, 0
787, 0.41255033956518, 0.10561958344452, 0
788, 0.3870032490336, 0.10653930115354, 0
789, 0.49244138573089, 0.08529494077864, 0
790, 0.49558418294018, 0.03609495177665, 0
791, 0.49363454881709, 0.060192270764228, 0
792, 0.49872097582033, 0.013341861176829, 0
793, 0.74002351231853, 0.092089137641661, 0
794, 0.18565702556211, 0.07485163121466, 0
795, 0.18460500606122, 0.10298804346077, 0
796, 0.86876453096429, 0.19480899223257, 0
797, 0.86832743593858, 0.22122739901763, 0
798, 0.21339729527407, 0.044734420202996, 0
799, 0.18702255982592, 0.047050541660571, 0
800, 0.84283867656327, 0.16900904330218, 0
801, 0.86935600651593, 0.1683354760933, 0
802, 0.68593263780786, 0.092546143065042, 0
803, 0.92322081383838, 0.086233638012275, 0
804, 0.18203804050002, -0.084885271118618, 0
805, 0.18409075873034, -0.11302600055282, 0
806, 0.94944781818134, -0.052777128224489, 0
807, 0.87305603591769, 0.033689471250117, 0
808, 0.60540255968104, 0.065209206984681, 0
809, 0.46464182420074, 0.10937250979383, 0
810, 0.48034316101821, -0.031241053540889, 0
811, 0.43819458848861, 0.10734003978313, 0
812, 0.46626601483041, 0.0093804375375052, 0
813, 0.81713277249838, 0.14318456711068, 0
814, 0.79171867095834, 0.11733515957819, 0
815, 0.81816159181381, 0.11665846405656, 0
816, 0.94840925673233, -0.2456170505846, 0
817, 0.76511870588043, 0.11787421283733, 0
818, 0.81624170713636, 0.16959281183466, 0
819, 0.81812825857501, -0.27402519081228, 0
820, 0.94942101205575, -0.16394715667097, 0
821, 0.82349434301928, 0.0082681156377355, 0
822, 0.82063492906135, 0.063047615930192, 0
823, 0.73913661178624, -0.24736153054689, 0
824, 0.21462392230839, -0.059244369544525, 0
825, 0.18677089632004, -0.057720650839996, 0
826, 0.49174910477144, 0.11106138453982, 0
827, 0.24228807993163, 0.013170916609604, 0
828, 0.25199639660133, -0.040741303776334, 0
829, 0.24622101897872, -0.014931796121447, 0
830, 0.23915162597828, 0.042173916243509, 0
831, 0.46512941482665, 0.057118482474299, 0
832, 0.34106938234075, -0.0096106281898805, 0
833, 0.34260856317299, -0.18111254410008, 0
834, 0.34820849863138, -0.21414164876893, 0
835, 0.97475520582295, 0.0013286865810669, 0
836, 0.31876592789956, -0.15049103236456, 0
837, 0.34016443161344, -0.14528275216825, 0
838, 0.29471424488372, -0.12782327400186, 0
839, 0.29592767125362, -0.15828707197858, 0
840, 0.81933235326951, 0.089965589946693, 0
841, 0.82204110158163, 0.035838224622217, 0
842, 0.92358238909659, 0.058976297956383, 0
843, 0.79123338435427, -0.27405804569985, 0
844, 0.87273066230373, -0.19189297688812, 0
845, 0.67895648798163, -0.0369681735767, 0
846, 0.84491740614369, -0.24700219653279, 0
847, 0.79465312891057, 0.064025959659129, 0
848, 0.27306985105277, -0.070981632075187, 0
849, 0.24347017784935, -0.062571184933174, 0
850, 0.28757952086029, -0.098781765121533, 0
851, 0.47195466768323, -0.011201807878513, 0
852, 0.43815739412958, 0.079820463156968, 0
853, 0.4648301454217, 0.082967097384645, 0
854, 0.65200690195859, -0.12145621665357, 0
855, 0.84596352314307, -0.21989528916713, 0
856, 0.67195611454198, -0.12650969931421, 0
857, 0.9490812145002, -0.19135380304141, 0
858, 0.97471056374267, 0.028969779549176, 0
859, 0.81872074875198, -0.2474509136917, 0
860, 0.59051744456831, -0.012464391073877, 0
861, 0.38840786253999, 0.021013363166261, 0
862, 0.75677649540668, -0.13427118380097, 0
863, 0.6155409934197, -0.13424463545935, 0
864, 0.62462007204793, -0.086788236736322, 0
865, 0.61194610101427, -0.060921434030529, 0
866, 0.54473856903767, -0.037630061984535, 0
867, 0.63102023717169, -0.11469905719834, 0
868, 0.3884936223894, 0.050337831347971, 0
869, 0.43786732603828, 0.052270256996672, 0
870, 0.41282035477772, 0.076926047343963, 0
******* E L E M E N T S *************
*ELEMENT, type=CPS4, ELSET=Surface1
1, 147, 329, 330, 327
2, 327, 330, 328, 149
3, 330, 13, 21, 328
4, 329, 20, 13, 330
5, 98, 91, 334, 331
6, 331, 334, 332, 173
7, 334, 333, 174, 332
8, 91, 99, 333, 334
9, 117, 107, 338, 335
10, 335, 338, 336, 216
11, 338, 337, 217, 336
12, 107, 118, 337, 338
13, 63, 53, 342, 339
14, 339, 342, 340, 239
15, 342, 341, 242, 340
16, 53, 64, 341, 342
17, 392, 835, 735, 550
18, 315, 273, 785, 264
19, 611, 592, 299, 671
20, 857, 820, 690, 272
21, 117, 335, 348, 106
22, 106, 348, 346, 116
23, 348, 347, 204, 346
24, 335, 216, 347, 348
25, 178, 351, 352, 349
26, 349, 352, 350, 177
27, 352, 88, 96, 350
28, 351, 95, 88, 352
29, 149, 328, 355, 353
30, 353, 355, 354, 148
31, 355, 14, 22, 354
32, 328, 21, 14, 355
33, 118, 108, 358, 337
34, 337, 358, 356, 217
35, 358, 357, 214, 356
36, 108, 119, 357, 358
37, 77, 70, 362, 359
38, 359, 362, 360, 247
39, 362, 361, 246, 360
40, 70, 78, 361, 362
41, 145, 364, 365, 363
42, 363, 365, 329, 147
43, 365, 12, 20, 329
44, 364, 19, 12, 365
45, 96, 89, 368, 350
46, 350, 368, 366, 177
47, 368, 367, 176, 366
48, 89, 97, 367, 368
49, 168, 371, 372, 369
50, 369, 372, 370, 201
51, 372, 104, 115, 370
52, 371, 114, 104, 372
53, 119, 109, 375, 357
54, 357, 375, 373, 214
55, 375, 374, 207, 373
56, 109, 120, 374, 375
57, 121, 111, 378, 376
58, 376, 378, 377, 146
59, 378, 10, 18, 377
60, 111, 1, 10, 378
61, 739, 847, 763, 624
62, 268, 283, 420, 680
63, 802, 745, 764, 271
64, 295, 269, 844, 279
65, 173, 383, 384, 331
66, 331, 384, 90, 98
67, 384, 367, 97, 90
68, 383, 176, 367, 384
69, 204, 385, 386, 346
70, 346, 386, 105, 116
71, 386, 370, 115, 105
72, 385, 201, 370, 386
73, 151, 389, 390, 387
74, 387, 390, 388, 150
75, 390, 16, 24, 388
76, 389, 23, 16, 390
77, 595, 281, 472, 775
78, 679, 823, 301, 626
79, 736, 321, 660, 651
80, 667, 318, 425, 281
81, 148, 354, 396, 395
82, 395, 396, 389, 151
83, 396, 15, 23, 389
84, 354, 22, 15, 396
85, 272, 690, 162, 269
86, 663, 300, 260, 298
87, 411, 611, 671, 664
88, 51, 62, 448, 586
89, 180, 401, 402, 400
90, 400, 402, 351, 178
91, 402, 87, 95, 351
92, 401, 94, 87, 402
93, 621, 268, 680, 692
94, 550, 735, 589, 722
95, 471, 723, 633, 603
96, 345, 725, 738, 437
97, 725, 793, 551, 738
98, 407, 408, 339, 239
99, 408, 52, 63, 339
100, 840, 815, 814, 397
101, 294, 284, 343, 443
102, 32, 626, 411, 39
103, 321, 270, 293, 660
104, 427, 773, 160, 393
105, 252, 414, 415, 412
106, 412, 415, 81, 84
107, 415, 413, 6, 81
108, 414, 144, 413, 415
109, 99, 92, 418, 333
110, 333, 418, 416, 174
111, 418, 417, 172, 416
112, 92, 100, 417, 418
113, 589, 161, 436, 308
114, 154, 426, 317, 662
115, 437, 738, 286, 510
116, 274, 153, 292, 311
117, 252, 412, 424, 422
118, 422, 424, 423, 181
119, 424, 82, 85, 423
120, 412, 84, 82, 424
121, 48, 59, 762, 284
122, 312, 276, 428, 662
123, 382, 667, 281, 595
124, 403, 314, 428, 786
125, 245, 430, 431, 429
126, 429, 431, 359, 247
127, 431, 69, 77, 359
128, 430, 76, 69, 431
129, 171, 433, 434, 432
130, 432, 434, 371, 168
131, 434, 103, 114, 371
132, 433, 113, 103, 434
133, 410, 817, 744, 793
134, 60, 50, 835, 392
135, 841, 822, 847, 739
136, 691, 857, 272, 156
137, 146, 377, 439, 438
138, 438, 439, 364, 145
139, 439, 11, 19, 364
140, 377, 18, 11, 439
141, 244, 441, 442, 440
142, 440, 442, 430, 245
143, 442, 68, 76, 430
144, 441, 75, 68, 442
145, 393, 160, 620, 665
146, 153, 856, 303, 292
147, 311, 292, 280, 723
148, 666, 846, 859, 819
149, 100, 93, 446, 417
150, 417, 446, 445, 172
151, 446, 101, 112, 445
152, 93, 8, 101, 446
153, 62, 52, 408, 448
154, 847, 397, 410, 763
155, 602, 587, 344, 596
156, 592, 651, 660, 299
157, 173, 332, 452, 449
158, 449, 452, 450, 170
159, 452, 451, 169, 450
160, 332, 174, 451, 452
161, 143, 454, 455, 453
162, 453, 455, 401, 180
163, 455, 86, 94, 401
164, 454, 7, 86, 455
165, 80, 73, 458, 456
166, 456, 458, 457, 251
167, 458, 413, 144, 457
168, 73, 6, 413, 458
169, 79, 72, 461, 459
170, 459, 461, 460, 249
171, 461, 456, 251, 460
172, 72, 80, 456, 461
173, 65, 55, 464, 462
174, 462, 464, 463, 243
175, 464, 66, 74, 463
176, 55, 5, 66, 464
177, 78, 71, 466, 361
178, 361, 466, 465, 246
179, 466, 459, 249, 465
180, 71, 79, 459, 466
181, 181, 423, 468, 467
182, 467, 468, 454, 143
183, 468, 83, 7, 454
184, 423, 85, 83, 468
185, 64, 54, 470, 341
186, 341, 470, 469, 242
187, 470, 462, 243, 469
188, 54, 65, 462, 470
189, 399, 854, 856, 153
190, 761, 816, 772, 435
191, 279, 844, 275, 855
192, 443, 343, 621, 673
193, 239, 340, 476, 473
194, 473, 476, 474, 238
195, 476, 475, 241, 474
196, 340, 242, 475, 476
197, 219, 480, 481, 477
198, 477, 481, 478, 199
199, 481, 479, 200, 478
200, 480, 220, 479, 481
201, 166, 484, 485, 482
202, 482, 485, 483, 202
203, 485, 369, 201, 483
204, 484, 168, 369, 485
205, 172, 445, 487, 486
206, 486, 487, 433, 171
207, 487, 102, 113, 433
208, 445, 112, 102, 487
209, 247, 360, 491, 488
210, 488, 491, 489, 233
211, 491, 490, 234, 489
212, 360, 246, 490, 491
213, 120, 110, 493, 374
214, 374, 493, 492, 207
215, 493, 376, 146, 492
216, 110, 121, 376, 493
217, 163, 496, 497, 494
218, 494, 497, 349, 177
219, 497, 495, 178, 349
220, 496, 186, 495, 497
221, 206, 500, 501, 498
222, 498, 501, 499, 205
223, 501, 363, 147, 499
224, 500, 145, 363, 501
225, 243, 463, 503, 502
226, 502, 503, 441, 244
227, 503, 67, 75, 441
228, 463, 74, 67, 503
229, 175, 507, 508, 504
230, 504, 508, 505, 165
231, 508, 506, 167, 505
232, 507, 170, 506, 508
233, 835, 858, 159, 735
234, 406, 312, 662, 317
235, 269, 162, 382, 844
236, 310, 806, 283, 268
237, 233, 489, 514, 511
238, 511, 514, 512, 237
239, 514, 513, 235, 512
240, 489, 234, 513, 514
241, 676, 751, 306, 326
242, 325, 232, 192, 191
243, 325, 191, 516, 307
244, 306, 832, 707, 229
245, 176, 383, 520, 519
246, 519, 520, 507, 175
247, 520, 449, 170, 507
248, 383, 173, 449, 520
249, 155, 522, 523, 379
250, 379, 523, 30, 38
251, 523, 521, 3, 30
252, 522, 291, 521, 523
253, 216, 336, 527, 524
254, 524, 527, 525, 215
255, 527, 526, 218, 525
256, 336, 217, 526, 527
257, 215, 530, 531, 528
258, 528, 531, 529, 203
259, 531, 477, 199, 529
260, 530, 219, 477, 531
261, 215, 525, 534, 530
262, 530, 534, 532, 219
263, 534, 533, 222, 532
264, 525, 218, 533, 534
265, 216, 524, 536, 347
266, 347, 536, 535, 204
267, 536, 528, 203, 535
268, 524, 215, 528, 536
269, 217, 356, 539, 526
270, 526, 539, 537, 218
271, 539, 538, 212, 537
272, 356, 214, 538, 539
273, 164, 542, 543, 540
274, 540, 543, 496, 163
275, 543, 541, 186, 496
276, 542, 188, 541, 543
277, 144, 414, 547, 544
278, 544, 547, 545, 253
279, 547, 546, 254, 545
280, 414, 252, 546, 547
281, 472, 444, 314, 403
282, 436, 663, 298, 807
283, 286, 802, 271, 273
284, 822, 840, 397, 847
285, 208, 554, 555, 552
286, 552, 555, 553, 209
287, 555, 353, 148, 553
288, 554, 149, 353, 555
289, 203, 556, 557, 535
290, 535, 557, 385, 204
291, 557, 483, 201, 385
292, 556, 202, 483, 557
293, 261, 561, 562, 558
294, 558, 562, 559, 265
295, 562, 560, 263, 559
296, 561, 262, 560, 562
297, 139, 564, 565, 129
298, 129, 565, 563, 140
299, 565, 25, 28, 563
300, 564, 2, 25, 565
301, 205, 499, 567, 566
302, 566, 567, 554, 208
303, 567, 327, 149, 554
304, 499, 147, 327, 567
305, 253, 545, 571, 568
306, 568, 571, 569, 255
307, 571, 570, 256, 569
308, 545, 254, 570, 571
309, 199, 573, 574, 529
310, 529, 574, 556, 203
311, 574, 572, 202, 556
312, 573, 196, 572, 574
313, 188, 542, 578, 575
314, 575, 578, 576, 190
315, 578, 577, 198, 576
316, 542, 164, 577, 578
317, 179, 580, 581, 579
318, 579, 581, 495, 186
319, 581, 400, 178, 495
320, 580, 180, 400, 581
321, 137, 584, 585, 127
322, 127, 585, 582, 138
323, 585, 583, 225, 582
324, 584, 227, 583, 585
325, 4, 45, 409, 37
326, 597, 602, 596, 724
327, 587, 736, 651, 344
328, 319, 294, 443, 820
329, 58, 48, 284, 294
330, 612, 407, 623, 803
331, 806, 550, 722, 283
332, 277, 591, 691, 816
333, 733, 406, 317, 404
334, 267, 652, 421, 404
335, 59, 49, 322, 762
336, 419, 394, 840, 822
337, 210, 600, 601, 598
338, 598, 601, 599, 211
339, 601, 552, 209, 599
340, 600, 208, 552, 601
341, 603, 633, 312, 406
342, 613, 274, 311, 845
343, 276, 862, 786, 428
344, 786, 862, 602, 597
345, 223, 606, 607, 604
346, 604, 607, 605, 221
347, 607, 598, 211, 605
348, 606, 210, 598, 607
349, 148, 395, 610, 553
350, 553, 610, 608, 209
351, 610, 609, 224, 608
352, 395, 151, 609, 610
353, 617, 618, 864, 865
354, 586, 448, 612, 619
355, 302, 320, 613, 287
356, 290, 303, 321, 736
357, 177, 366, 615, 494
358, 494, 615, 614, 163
359, 615, 519, 175, 614
360, 366, 176, 519, 615
361, 851, 810, 678, 677
362, 676, 325, 307, 754
363, 864, 867, 854, 399
364, 304, 290, 736, 587
365, 625, 845, 471, 398
366, 280, 290, 304, 297
367, 160, 590, 316, 620
368, 673, 621, 692, 650
369, 588, 319, 820, 857
370, 41, 843, 672, 33
371, 239, 473, 623, 407
372, 282, 381, 841, 821
373, 159, 619, 842, 161
374, 473, 238, 622, 623
375, 34, 819, 843, 41
376, 37, 409, 761, 44
377, 650, 692, 318, 667
378, 57, 47, 319, 588
379, 240, 629, 630, 628
380, 628, 630, 488, 233
381, 630, 429, 247, 488
382, 629, 245, 429, 630
383, 266, 724, 596, 631
384, 56, 46, 591, 277
385, 859, 594, 627, 391
386, 260, 649, 647, 394
387, 254, 546, 636, 634
388, 634, 636, 635, 183
389, 636, 422, 181, 635
390, 546, 252, 422, 636
391, 213, 638, 639, 637
392, 637, 639, 600, 210
393, 639, 566, 208, 600
394, 638, 205, 566, 639
395, 2, 564, 641, 17
396, 17, 641, 388, 24
397, 641, 640, 150, 388
398, 564, 139, 640, 641
399, 141, 643, 644, 642
400, 642, 644, 521, 291
401, 644, 27, 3, 521
402, 643, 29, 27, 644
403, 150, 640, 646, 645
404, 645, 646, 582, 225
405, 646, 128, 138, 582
406, 640, 139, 128, 646
407, 238, 648, 649, 622
408, 162, 650, 667, 382
409, 398, 447, 774, 625
410, 648, 236, 647, 649
411, 510, 286, 273, 315
412, 845, 311, 723, 471
413, 394, 647, 815, 840
414, 187, 654, 655, 653
415, 653, 655, 541, 188
416, 655, 579, 186, 541
417, 654, 179, 579, 655
418, 256, 570, 658, 656
419, 656, 658, 657, 185
420, 658, 634, 183, 657
421, 570, 254, 634, 658
422, 29, 643, 659, 26
423, 26, 659, 563, 28
424, 659, 130, 140, 563
425, 643, 141, 130, 659
426, 632, 863, 9, 313
427, 734, 279, 855, 846
428, 435, 772, 548, 296
429, 722, 589, 308, 278
430, 283, 722, 278, 420
431, 156, 272, 269, 295
432, 862, 304, 587, 602
433, 152, 344, 651, 592
434, 182, 669, 670, 668
435, 668, 670, 580, 179
436, 670, 453, 180, 580
437, 669, 143, 453, 670
438, 549, 437, 510, 447
439, 316, 821, 652, 267
440, 36, 435, 296, 43
441, 303, 856, 270, 321
442, 163, 614, 675, 540
443, 540, 675, 674, 164
444, 675, 504, 165, 674
445, 614, 175, 504, 675
446, 189, 790, 791, 831
447, 324, 708, 792, 677
448, 323, 710, 708, 324
449, 275, 595, 775, 726
450, 301, 152, 592, 611
451, 322, 392, 550, 806
452, 846, 855, 594, 859
453, 293, 313, 683, 681
454, 681, 683, 682, 155
455, 683, 132, 142, 682
456, 313, 9, 132, 683
457, 251, 457, 686, 684
458, 684, 686, 685, 250
459, 686, 544, 253, 685
460, 457, 144, 544, 686
461, 164, 674, 689, 577
462, 577, 689, 687, 198
463, 689, 688, 197, 687
464, 674, 165, 688, 689
465, 397, 814, 817, 410
466, 551, 746, 745, 802
467, 300, 622, 649, 260
468, 426, 267, 404, 317
469, 183, 635, 694, 693
470, 693, 694, 669, 182
471, 694, 467, 143, 669
472, 635, 181, 467, 694
473, 261, 696, 697, 561
474, 561, 697, 695, 262
475, 697, 569, 256, 695
476, 696, 255, 569, 697
477, 184, 699, 700, 698
478, 698, 700, 654, 187
479, 700, 668, 179, 654
480, 699, 182, 668, 700
481, 515, 788, 759, 518
482, 870, 852, 811, 787
483, 676, 701, 861, 751
484, 250, 685, 705, 703
485, 703, 705, 704, 257
486, 705, 568, 255, 704
487, 685, 253, 568, 705
488, 326, 305, 227, 232
489, 754, 812, 189, 753
490, 706, 194, 707, 832
491, 285, 865, 309, 320
492, 866, 324, 677, 678
493, 710, 559, 263, 708
494, 709, 265, 559, 710
495, 246, 465, 713, 490
496, 490, 713, 711, 234
497, 713, 712, 248, 711
498, 465, 249, 712, 713
499, 145, 500, 715, 438
500, 438, 715, 492, 146
501, 715, 714, 207, 492
502, 500, 206, 714, 715
503, 174, 416, 717, 451
504, 451, 717, 716, 169
505, 717, 486, 171, 716
506, 416, 172, 486, 717
507, 185, 657, 719, 718
508, 718, 719, 699, 184
509, 719, 693, 182, 699
510, 657, 183, 693, 719
511, 249, 460, 721, 712
512, 712, 721, 720, 248
513, 721, 684, 250, 720
514, 460, 251, 684, 721
515, 278, 308, 158, 380
516, 855, 275, 726, 594
517, 774, 315, 264, 737
518, 763, 410, 793, 725
519, 762, 322, 806, 310
520, 664, 671, 155, 379
521, 447, 510, 315, 774
522, 271, 764, 727, 259
523, 261, 728, 729, 696
524, 696, 729, 704, 255
525, 729, 727, 257, 704
526, 728, 259, 727, 729
527, 234, 711, 732, 513
528, 513, 732, 730, 235
529, 732, 731, 258, 730
530, 711, 248, 731, 732
531, 633, 297, 276, 312
532, 772, 156, 295, 548
533, 309, 399, 153, 274
534, 33, 672, 679, 40
535, 631, 596, 344, 152
536, 39, 411, 664, 31
537, 289, 734, 846, 666
538, 287, 613, 845, 625
539, 228, 742, 743, 740
540, 740, 743, 741, 195
541, 743, 707, 194, 741
542, 742, 229, 707, 743
543, 235, 730, 746, 744
544, 308, 436, 807, 158
545, 314, 154, 662, 428
546, 730, 258, 745, 746
547, 206, 747, 748, 714
548, 714, 748, 373, 207
549, 748, 538, 214, 373
550, 747, 212, 538, 748
551, 248, 720, 750, 731
552, 731, 750, 749, 258
553, 750, 703, 257, 749
554, 720, 250, 703, 750
555, 701, 753, 869, 517
556, 754, 307, 851, 812
557, 870, 787, 788, 515
558, 212, 747, 756, 755
559, 755, 756, 638, 213
560, 756, 498, 205, 638
561, 747, 206, 498, 756
562, 190, 576, 758, 752
563, 752, 758, 741, 194
564, 758, 757, 195, 741
565, 576, 198, 757, 758
566, 831, 791, 789, 853
567, 575, 760, 653, 188
568, 760, 759, 187, 653
569, 671, 299, 681, 155
570, 591, 588, 857, 691
571, 738, 551, 802, 286
572, 626, 301, 611, 411
573, 258, 749, 764, 745
574, 421, 624, 345, 405
575, 425, 393, 665, 444
576, 749, 257, 727, 764
577, 265, 709, 766, 765
578, 765, 766, 737, 264
579, 766, 302, 287, 737
580, 866, 678, 124, 134
581, 170, 450, 769, 506
582, 506, 769, 767, 167
583, 769, 768, 166, 767
584, 450, 169, 768, 769
585, 168, 484, 770, 432
586, 432, 770, 716, 171
587, 770, 768, 169, 716
588, 484, 166, 768, 770
589, 291, 522, 771, 642
590, 642, 771, 131, 141
591, 771, 682, 142, 131
592, 522, 155, 682, 771
593, 49, 60, 392, 322
594, 690, 673, 650, 162
595, 43, 296, 289, 35
596, 773, 380, 590, 160
597, 242, 469, 777, 475
598, 475, 777, 776, 241
599, 777, 502, 244, 776
600, 469, 243, 502, 777
601, 229, 742, 780, 305
602, 305, 780, 778, 227
603, 780, 779, 226, 778
604, 742, 228, 779, 780
605, 213, 781, 782, 755
606, 755, 782, 537, 212
607, 782, 533, 218, 537
608, 781, 222, 533, 782
609, 202, 572, 784, 482
610, 482, 784, 767, 166
611, 784, 783, 167, 767
612, 572, 196, 783, 784
613, 284, 762, 310, 343
614, 343, 310, 268, 621
615, 593, 266, 631, 823
616, 31, 664, 379, 38
617, 868, 515, 518, 702
618, 516, 125, 135, 810
619, 788, 698, 187, 759
620, 787, 184, 698, 788
621, 517, 869, 852, 870
622, 861, 868, 702, 231
623, 791, 560, 262, 789
624, 790, 263, 560, 791
625, 853, 789, 826, 809
626, 676, 754, 753, 701
627, 792, 708, 263, 790
628, 860, 302, 766, 709
629, 297, 304, 862, 276
630, 45, 56, 277, 409
631, 625, 774, 737, 287
632, 594, 726, 509, 627
633, 165, 505, 795, 688
634, 688, 795, 794, 197
635, 795, 783, 196, 794
636, 505, 167, 783, 795
637, 241, 776, 797, 796
638, 796, 797, 629, 240
639, 797, 440, 245, 629
640, 776, 244, 440, 797
641, 199, 478, 799, 573
642, 573, 799, 794, 196
643, 799, 798, 197, 794
644, 478, 200, 798, 799
645, 240, 800, 801, 796
646, 796, 801, 474, 241
647, 801, 648, 238, 474
648, 800, 236, 648, 801
649, 409, 277, 816, 761
650, 821, 841, 739, 652
651, 298, 260, 394, 419
652, 61, 51, 586, 858
653, 222, 781, 805, 804
654, 804, 805, 606, 223
655, 805, 637, 210, 606
656, 781, 213, 637, 805
657, 819, 859, 391, 843
658, 793, 744, 746, 551
659, 823, 631, 152, 301
660, 661, 403, 786, 597
661, 264, 785, 808, 765
662, 765, 808, 558, 265
663, 808, 728, 261, 558
664, 785, 259, 728, 808
665, 184, 787, 811, 718
666, 718, 811, 809, 185
667, 230, 190, 752, 193
668, 702, 193, 706, 231
669, 759, 760, 230, 518
670, 517, 870, 515, 868
671, 751, 616, 832, 306
672, 191, 136, 125, 516
673, 237, 814, 815, 813
674, 813, 815, 647, 236
675, 296, 548, 734, 289
676, 158, 807, 381, 282
677, 235, 744, 817, 512
678, 512, 817, 814, 237
679, 665, 620, 426, 154
680, 692, 680, 427, 318
681, 236, 800, 818, 813
682, 813, 818, 511, 237
683, 818, 628, 233, 511
684, 800, 240, 628, 818
685, 405, 345, 437, 549
686, 444, 665, 154, 314
687, 854, 867, 863, 632
688, 590, 282, 821, 316
689, 381, 419, 822, 841
690, 723, 280, 297, 633
691, 448, 408, 407, 612
692, 157, 603, 406, 733
693, 735, 159, 161, 589
694, 865, 864, 399, 309
695, 733, 405, 549, 157
696, 726, 775, 661, 509
697, 223, 824, 825, 804
698, 804, 825, 532, 222
699, 825, 480, 219, 532
700, 824, 220, 480, 825
701, 701, 517, 868, 861
702, 809, 826, 656, 185
703, 826, 695, 256, 656
704, 789, 262, 695, 826
705, 220, 828, 829, 479
706, 479, 829, 827, 200
707, 829, 740, 195, 827
708, 828, 228, 740, 829
709, 200, 827, 830, 798
710, 798, 830, 687, 197
711, 830, 757, 198, 687
712, 827, 195, 757, 830
713, 812, 851, 677, 792
714, 810, 135, 124, 678
715, 869, 831, 853, 852
716, 151, 387, 834, 609
717, 609, 834, 833, 224
718, 834, 645, 225, 833
719, 387, 150, 645, 834
720, 843, 391, 593, 672
721, 672, 593, 823, 679
722, 548, 295, 279, 734
723, 807, 298, 419, 381
724, 227, 778, 837, 583
725, 583, 837, 833, 225
726, 837, 836, 224, 833
727, 778, 226, 836, 837
728, 224, 836, 839, 608
729, 608, 839, 599, 209
730, 839, 838, 211, 599
731, 836, 226, 838, 839
732, 391, 627, 266, 593
733, 380, 158, 282, 590
734, 44, 761, 435, 36
735, 273, 271, 259, 785
736, 803, 623, 622, 300
737, 157, 549, 447, 398
738, 299, 660, 293, 681
739, 652, 739, 624, 421
740, 318, 427, 393, 425
741, 40, 679, 626, 32
742, 820, 443, 673, 690
743, 46, 57, 588, 591
744, 50, 61, 858, 835
745, 42, 666, 819, 34
746, 404, 421, 405, 733
747, 420, 278, 380, 773
748, 619, 612, 803, 842
749, 844, 382, 595, 275
750, 624, 763, 725, 345
751, 680, 420, 773, 427
752, 220, 824, 849, 828
753, 828, 849, 848, 228
754, 849, 604, 221, 848
755, 824, 223, 604, 849
756, 226, 779, 850, 838
757, 838, 850, 605, 211
758, 850, 848, 221, 605
759, 779, 228, 848, 850
760, 518, 230, 193, 702
761, 193, 752, 194, 706
762, 760, 575, 190, 230
763, 232, 227, 584, 192
764, 751, 861, 231, 616
765, 856, 854, 632, 270
766, 618, 863, 867, 864
767, 320, 309, 274, 613
768, 307, 516, 810, 851
769, 192, 584, 137, 126
770, 509, 661, 597, 724
771, 842, 803, 300, 663
772, 858, 586, 619, 159
773, 270, 632, 313, 293
774, 398, 471, 603, 157
775, 292, 303, 290, 280
776, 775, 472, 403, 661
777, 281, 425, 444, 472
778, 620, 316, 267, 426
779, 816, 691, 156, 772
780, 627, 509, 724, 266
781, 288, 285, 860, 323
782, 47, 58, 294, 319
783, 35, 289, 666, 42
784, 161, 842, 663, 436
785, 288, 617, 865, 285
786, 323, 860, 709, 710
787, 285, 320, 302, 860
788, 326, 306, 229, 305
789, 191, 192, 126, 136
790, 753, 189, 831, 869
791, 288, 866, 134, 123
792, 122, 9, 863, 618
793, 133, 122, 618, 617
794, 288, 323, 324, 866
795, 288, 123, 133, 617
796, 852, 853, 809, 811
797, 676, 326, 232, 325
798, 812, 792, 790, 189
799, 231, 706, 832, 616
*ELSET,ELSET=contact_source
99, 100, 101, 102, 103, 104, 105, 106, 107, 108, 
109, 110, 111, 112, 113, 114, 115, 116, 117, 118, 
119, 120, 
*ELSET,ELSET=contact_drain
39, 40, 41, 42, 43, 44, 45, 46, 47, 48, 
49, 50, 51, 52, 53, 54, 55, 56, 57, 58, 
59, 60, 
*ELSET,ELSET=probe_A
77, 78, 79, 80, 81, 82, 
*ELSET,ELSET=probe_B
17, 18, 19, 20, 21, 22, 
*ELSET,ELSET=walls
1, 2, 3, 4, 5, 6, 7, 8, 9, 10, 
11, 12, 13, 14, 15, 16, 23, 24, 25, 26, 
27, 28, 29, 30, 31, 32, 33, 34, 35, 36, 
37, 38, 61, 62, 63, 64, 65, 66, 67, 68, 
69, 70, 71, 72, 73, 74, 75, 76, 83, 84, 
85, 86, 87, 88, 89, 90, 91, 92, 93, 94, 
95, 96, 97, 98, 121, 122, 123, 124, 125, 126, 
127, 128, 129, 130, 131, 132, 133, 134, 135, 136, 
137, 138, 139, 140, 141, 142, 
*ELSET,ELSET=domain
143, 144, 145, 146, 147, 148, 149, 150, 151, 152, 
153, 154, 155, 156, 157, 158, 159, 160, 161, 162, 
163, 164, 165, 166, 167, 168, 169, 170, 171, 172, 
173, 174, 175, 176, 177, 178, 179, 180, 181, 182, 
183, 184, 185, 186, 187, 188, 189, 190, 191, 192, 
193, 194, 195, 196, 197, 198, 199, 200, 201, 202, 
203, 204, 205, 206, 207, 208, 209, 210, 211, 212, 
213, 214, 215, 216, 217, 218, 219, 220, 221, 222, 
223, 224, 225, 226, 227, 228, 229, 230, 231, 232, 
233, 234, 235, 236, 237, 238, 239, 240, 241, 242, 
243, 244, 245, 246, 247, 248, 249, 250, 251, 252, 
253, 254, 255, 256, 257, 258, 259, 260, 261, 262, 
263, 264, 265, 266, 267, 268, 269, 270, 271, 272, 
273, 274, 275, 276, 277, 278, 279, 280, 281, 282, 
283, 284, 285, 286, 287, 288, 289, 290, 291, 292, 
293, 294, 295, 296, 297, 298, 299, 300, 301, 302, 
303, 304, 305, 306, 307, 308, 309, 310, 311, 312, 
313, 314, 315, 316, 317, 318, 319, 320, 321, 322, 
323, 324, 325, 326, 327, 328, 329, 330, 331, 332, 
333, 334, 335, 336, 337, 338, 339, 340, 341, 342, 
343, 344, 345, 346, 347, 348, 349, 350, 351, 352, 
353, 354, 355, 356, 357, 358, 359, 360, 361, 362, 
363, 364, 365, 366, 367, 368, 369, 370, 371, 372, 
373, 374, 375, 376, 377, 378, 379, 380, 381, 382, 
383, 384, 385, 386, 387, 388, 389, 390, 391, 392, 
393, 394, 395, 396, 397, 398, 399, 400, 401, 402, 
403, 404, 405, 406, 407, 408, 409, 410, 411, 412, 
413, 414, 415, 416, 417, 418, 419, 420, 421, 422, 
423, 424, 425, 426, 427, 428, 429, 430, 431, 432, 
433, 434, 435, 436, 437, 438, 439, 440, 441, 442, 
443, 444, 445, 446, 447, 448, 449, 450, 451, 452, 
453, 454, 455, 456, 457, 458, 459, 460, 461, 462, 
463, 464, 465, 466, 467, 468, 469, 470, 471, 472, 
473, 474, 475, 476, 477, 478, 479, 480, 481, 482, 
483, 484, 485, 486, 487, 488, 489, 490, 491, 492, 
493, 494, 495, 496, 497, 498, 499, 500, 501, 502, 
503, 504, 505, 506, 507, 508, 509, 510, 511, 512, 
513, 514, 515, 516, 517, 518, 519, 520, 521, 522, 
523, 524, 525, 526, 527, 528, 529, 530, 531, 532, 
533, 534, 535, 536, 537, 538, 539, 540, 541, 542, 
543, 544, 545, 546, 547, 548, 549, 550, 551, 552, 
553, 554, 555, 556, 557, 558, 559, 560, 561, 562, 
563, 564, 565, 566, 567, 568, 569, 570, 571, 572, 
573, 574, 575, 576, 577, 578, 579, 580, 581, 582, 
583, 584, 585, 586, 587, 588, 589, 590, 591, 592, 
593, 594, 595, 596, 597, 598, 599, 600, 601, 602, 
603, 604, 605, 606, 607, 608, 609, 610, 611, 612, 
613, 614, 615, 616, 617, 618, 619, 620, 621, 622, 
623, 624, 625, 626, 627, 628, 629, 630, 631, 632, 
633, 634, 635, 636, 637, 638, 639, 640, 641, 642, 
643, 644, 645, 646, 647, 648, 649, 650, 651, 652, 
653, 654, 655, 656, 657, 658, 659, 660, 661, 662, 
663, 664, 665, 666, 667, 668, 669, 670, 671, 672, 
673, 674, 675, 676, 677, 678, 679, 680, 681, 682, 
683, 684, 685, 686, 687, 688, 689, 690, 691, 692, 
693, 694, 695, 696, 697, 698, 699, 700, 701, 702, 
703, 704, 705, 706, 707, 708, 709, 710, 711, 712, 
713, 714, 715, 716, 717, 718, 719, 720, 721, 722, 
723, 724, 725, 726, 727, 728, 729, 730, 731, 732, 
733, 734, 735, 736, 737, 738, 739, 740, 741, 742, 
743, 744, 745, 746, 747, 748, 749, 750, 751, 752, 
753, 754, 755, 756, 757, 758, 759, 760, 761, 762, 
763, 764, 765, 766, 767, 768, 769, 770, 771, 772, 
773, 774, 775, 776, 777, 778, 779, 780, 781, 782, 
783, 784, 785, 786, 787, 788, 789, 790, 791, 792, 
793, 794, 795, 796, 797, 798, 799, 800, 801, 802, 
803, 804, 805, 806, 807, 808, 809, 810, 811, 812, 
813, 814, 815, 816, 817, 818, 819, 820, 821, 822, 
823, 824, 825, 826, 827, 828, 829, 830, 831, 832, 
833, 834, 835, 836, 837, 838, 839, 840, 841, 842, 
843, 844, 845, 846, 847, 848, 849, 850, 851, 852, 
853, 854, 855, 856, 857, 858, 859, 860, 861, 862, 
863, 864, 865, 866, 867, 868, 869, 870, 871, 872, 
873, 874, 875, 876, 877, 878, 879, 880, 881, 882, 
883, 884, 885, 886, 887, 888, 889, 890, 891, 892, 
893, 894, 895, 896, 897, 898, 899, 900, 901, 902, 
903, 904, 905, 906, 907, 908, 909, 910, 911, 912, 
913, 914, 915, 916, 917, 918, 919, 920, 921, 922, 
923, 924, 925, 926, 927, 928, 929, 930, 931, 932, 
933, 934, 935, 936, 937, 938, 939, 940, 941, 
*NSET,NSET=contact_source
1, 8, 101, 102, 103, 104, 105, 106, 107, 108, 
109, 110, 111, 112, 113, 114, 115, 116, 117, 118, 
119, 120, 121, 
*NSET,NSET=contact_drain
4, 5, 45, 46, 47, 48, 49, 50, 51, 52, 
53, 54, 55, 56, 57, 58, 59, 60, 61, 62, 
63, 64, 65, 
*NSET,NSET=probe_A
6, 7, 81, 82, 83, 84, 85, 
*NSET,NSET=probe_B
2, 3, 25, 26, 27, 28, 29, 
*NSET,NSET=walls
1, 2, 3, 4, 5, 6, 7, 8, 9, 10, 
11, 12, 13, 14, 15, 16, 17, 18, 19, 20, 
21, 22, 23, 24, 30, 31, 32, 33, 34, 35, 
36, 37, 38, 39, 40, 41, 42, 43, 44, 66, 
67, 68, 69, 70, 71, 72, 73, 74, 75, 76, 
77, 78, 79, 80, 86, 87, 88, 89, 90, 91, 
92, 93, 94, 95, 96, 97, 98, 99, 100, 122, 
123, 124, 125, 126, 127, 128, 129, 130, 131, 132, 
133, 134, 135, 136, 137, 138, 139, 140, 141, 142, 
*NSET,NSET=domain
1, 2, 3, 4, 5, 6, 7, 8, 9, 10, 
11, 12, 13, 14, 15, 16, 17, 18, 19, 20, 
21, 22, 23, 24, 25, 26, 27, 28, 29, 30, 
31, 32, 33, 34, 35, 36, 37, 38, 39, 40, 
41, 42, 43, 44, 45, 46, 47, 48, 49, 50, 
51, 52, 53, 54, 55, 56, 57, 58, 59, 60, 
61, 62, 63, 64, 65, 66, 67, 68, 69, 70, 
71, 72, 73, 74, 75, 76, 77, 78, 79, 80, 
81, 82, 83, 84, 85, 86, 87, 88, 89, 90, 
91, 92, 93, 94, 95, 96, 97, 98, 99, 100, 
101, 102, 103, 104, 105, 106, 107, 108, 109, 110, 
111, 112, 113, 114, 115, 116, 117, 118, 119, 120, 
121, 122, 123, 124, 125, 126, 127, 128, 129, 130, 
131, 132, 133, 134, 135, 136, 137, 138, 139, 140, 
141, 142, 143, 144, 145, 146, 147, 148, 149, 150, 
151, 152, 153, 154, 155, 156, 157, 158, 159, 160, 
161, 162, 163, 164, 165, 166, 167, 168, 169, 170, 
171, 172, 173, 174, 175, 176, 177, 178, 179, 180, 
181, 182, 183, 184, 185, 186, 187, 188, 189, 190, 
191, 192, 193, 194, 195, 196, 197, 198, 199, 200, 
201, 202, 203, 204, 205, 206, 207, 208, 209, 210, 
211, 212, 213, 214, 215, 216, 217, 218, 219, 220, 
221, 222, 223, 224, 225, 226, 227, 228, 229, 230, 
231, 232, 233, 234, 235, 236, 237, 238, 239, 240, 
241, 242, 243, 244, 245, 246, 247, 248, 249, 250, 
251, 252, 253, 254, 255, 256, 257, 258, 259, 260, 
261, 262, 263, 264, 265, 266, 267, 268, 269, 270, 
271, 272, 273, 274, 275, 276, 277, 278, 279, 280, 
281, 282, 283, 284, 285, 286, 287, 288, 289, 290, 
291, 292, 293, 294, 295, 296, 297, 298, 299, 300, 
301, 302, 303, 304, 305, 306, 307, 308, 309, 310, 
311, 312, 313, 314, 315, 316, 317, 318, 319, 320, 
321, 322, 323, 324, 325, 326, 327, 328, 329, 330, 
331, 332, 333, 334, 335, 336, 337, 338, 339, 340, 
341, 342, 343, 344, 345, 346, 347, 348, 349, 350, 
351, 352, 353, 354, 355, 356, 357, 358, 359, 360, 
361, 362, 363, 364, 365, 366, 367, 368, 369, 370, 
371, 372, 373, 374, 375, 376, 377, 378, 379, 380, 
381, 382, 383, 384, 385, 386, 387, 388, 389, 390, 
391, 392, 393, 394, 395, 396, 397, 398, 399, 400, 
401, 402, 403, 404, 405, 406, 407, 408, 409, 410, 
411, 412, 413, 414, 415, 416, 417, 418, 419, 420, 
421, 422, 423, 424, 425, 426, 427, 428, 429, 430, 
431, 432, 433, 434, 435, 436, 437, 438, 439, 440, 
441, 442, 443, 444, 445, 446, 447, 448, 449, 450, 
451, 452, 453, 454, 455, 456, 457, 458, 459, 460, 
461, 462, 463, 464, 465, 466, 467, 468, 469, 470, 
471, 472, 473, 474, 475, 476, 477, 478, 479, 480, 
481, 482, 483, 484, 485, 486, 487, 488, 489, 490, 
491, 492, 493, 494, 495, 496, 497, 498, 499, 500, 
501, 502, 503, 504, 505, 506, 507, 508, 509, 510, 
511, 512, 513, 514, 515, 516, 517, 518, 519, 520, 
521, 522, 523, 524, 525, 526, 527, 528, 529, 530, 
531, 532, 533, 534, 535, 536, 537, 538, 539, 540, 
541, 542, 543, 544, 545, 546, 547, 548, 549, 550, 
551, 552, 553, 554, 555, 556, 557, 558, 559, 560, 
561, 562, 563, 564, 565, 566, 567, 568, 569, 570, 
571, 572, 573, 574, 575, 576, 577, 578, 579, 580, 
581, 582, 583, 584, 585, 586, 587, 588, 589, 590, 
591, 592, 593, 594, 595, 596, 597, 598, 599, 600, 
601, 602, 603, 604, 605, 606, 607, 608, 609, 610, 
611, 612, 613, 614, 615, 616, 617, 618, 619, 620, 
621, 622, 623, 624, 625, 626, 627, 628, 629, 630, 
631, 632, 633, 634, 635, 636, 637, 638, 639, 640, 
641, 642, 643, 644, 645, 646, 647, 648, 649, 650, 
651, 652, 653, 654, 655, 656, 657, 658, 659, 660, 
661, 662, 663, 664, 665, 666, 667, 668, 669, 670, 
671, 672, 673, 674, 675, 676, 677, 678, 679, 680, 
681, 682, 683, 684, 685, 686, 687, 688, 689, 690, 
691, 692, 693, 694, 695, 696, 697, 698, 699, 700, 
701, 702, 703, 704, 705, 706, 707, 708, 709, 710, 
711, 712, 713, 714, 715, 716, 717, 718, 719, 720, 
721, 722, 723, 724, 725, 726, 727, 728, 729, 730, 
731, 732, 733, 734, 735, 736, 737, 738, 739, 740, 
741, 742, 743, 744, 745, 746, 747, 748, 749, 750, 
751, 752, 753, 754, 755, 756, 757, 758, 759, 760, 
761, 762, 763, 764, 765, 766, 767, 768, 769, 770, 
771, 772, 773, 774, 775, 776, 777, 778, 779, 780, 
781, 782, 783, 784, 785, 786, 787, 788, 789, 790, 
791, 792, 793, 794, 795, 796, 797, 798, 799, 800, 
801, 802, 803, 804, 805, 806, 807, 808, 809, 810, 
811, 812, 813, 814, 815, 816, 817, 818, 819, 820, 
821, 822, 823, 824, 825, 826, 827, 828, 829, 830, 
831, 832, 833, 834, 835, 836, 837, 838, 839, 840, 
841, 842, 843, 844, 845, 846, 847, 848, 849, 850, 
851, 852, 853, 854, 855, 856, 857, 858, 859, 860, 
861, 862, 863, 864, 865, 866, 867, 868, 869, 870, 
