*Heading
 /Users/juliagao/geometry-optimization-net/scripts/../runs/2d/shape_7.inp
*NODE
1, 0, -0.3, 0
2, 0.425, -0.3, 0
3, 0.575, -0.3, 0
4, 1, -0.3, 0
5, 1, 0.3, 0
6, 0.575, 0.3, 0
7, 0.425, 0.3, 0
8, 0, 0.3, 0
9, 0.5966621482, -0.0060631626, 0
10, 0.025525829146686, -0.3, 0
11, 0.076974234577428, -0.3, 0
12, 0.12996947511241, -0.3, 0
13, 0.18435202816101, -0.3, 0
14, 0.23825329311523, -0.3, 0
15, 0.29158020567498, -0.3, 0
16, 0.34532657948665, -0.3, 0
17, 0.39866870844756, -0.3, 0
18, 0.051051658293372, -0.3, 0
19, 0.10289681086148, -0.3, 0
20, 0.15704213936333, -0.3, 0
21, 0.21166191695868, -0.3, 0
22, 0.26484466927177, -0.3, 0
23, 0.31831574207818, -0.3, 0
24, 0.37233741689511, -0.3, 0
25, 0.45035753522734, -0.3, 0
26, 0.50034656814983, -0.3, 0
27, 0.5499890329225, -0.3, 0
28, 0.47571507045467, -0.3, 0
29, 0.524978065845, -0.3, 0
30, 0.60054927383866, -0.3, 0
31, 0.65266557574313, -0.3, 0
32, 0.70583084454613, -0.3, 0
33, 0.75867893718416, -0.3, 0
34, 0.81204529842593, -0.3, 0
35, 0.86682239510544, -0.3, 0
36, 0.92139260849281, -0.3, 0
37, 0.97415111727081, -0.3, 0
38, 0.62609854767732, -0.3, 0
39, 0.67923260380894, -0.3, 0
40, 0.73242908528331, -0.3, 0
41, 0.78492878908501, -0.3, 0
42, 0.83916180776686, -0.3, 0
43, 0.89448298244401, -0.3, 0
44, 0.94830223454161, -0.3, 0
45, 1, -0.2737685417768, 0
46, 1, -0.22066198164604, 0
47, 1, -0.16638862930261, 0
48, 1, -0.11144139605825, 0
49, 1, -0.056464126349394, 0
50, 1, -0.0017703715894381, 0
51, 1, 0.053199732019789, 0
52, 1, 0.10881507554164, 0
53, 1, 0.16449178636769, 0
54, 1, 0.21951035916248, 0
55, 1, 0.27338146445171, 0
56, 1, -0.24753708355359, 0
57, 1, -0.19378687973849, 0
58, 1, -0.13899037886672, 0
59, 1, -0.083892413249777, 0
60, 1, -0.029035839449012, 0
61, 1, 0.025495096270135, 0
62, 1, 0.080904367769443, 0
63, 1, 0.13672578331384, 0
64, 1, 0.19225778942153, 0
65, 1, 0.24676292890343, 0
66, 0.97369706522895, 0.3, 0
67, 0.92057401343203, 0.3, 0
68, 0.86671018745197, 0.3, 0
69, 0.81265709075456, 0.3, 0
70, 0.75931974900196, 0.3, 0
71, 0.70686909243797, 0.3, 0
72, 0.65407773942377, 0.3, 0
73, 0.60120454448208, 0.3, 0
74, 0.94739413045789, 0.3, 0
75, 0.89375389640617, 0.3, 0
76, 0.83966647849776, 0.3, 0
77, 0.78564770301135, 0.3, 0
78, 0.73299179499257, 0.3, 0
79, 0.68074638988337, 0.3, 0
80, 0.62740908896417, 0.3, 0
81, 0.55592914985719, 0.3, 0
82, 0.51877981627924, 0.3, 0
83, 0.48236832723332, 0.3, 0
84, 0.44451766081127, 0.3, 0
85, 0.53685829971439, 0.3, 0
86, 0.5007013328441, 0.3, 0
87, 0.46403532162253, 0.3, 0
88, 0.39854386203242, 0.3, 0
89, 0.34540449175697, 0.3, 0
90, 0.29261551726517, 0.3, 0
91, 0.24020233317527, 0.3, 0
92, 0.18693996093644, 0.3, 0
93, 0.13296633552791, 0.3, 0
94, 0.079187251527783, 0.3, 0
95, 0.026213431301668, 0.3, 0
96, 0.37208772406485, 0.3, 0
97, 0.31872125944909, 0.3, 0
98, 0.26650977508125, 0.3, 0
99, 0.21389489126929, 0.3, 0
100, 0.15998503060358, 0.3, 0
101, 0.10594764045223, 0.3, 0
102, 0.052426862603335, 0.3, 0
103, 0, 0.27328935341869, 0
104, 0, 0.21921533752158, 0
105, 0, 0.16399136245772, 0
106, 0, 0.10812027366171, 0
107, 0, 0.052386895316107, 0
108, 0, -0.0026117624821874, 0
109, 0, -0.057069278649491, 0
110, 0, -0.11153475866488, 0
111, 0, -0.1661495689815, 0
112, 0, -0.22041769889574, 0
113, 0, -0.27367737242104, 0
114, 0, 0.24657870683737, 0
115, 0, 0.19185196820578, 0
116, 0, 0.13613075670965, 0
117, 0, 0.080109790613767, 0
118, 0, 0.024664000018446, 0
119, 0, -0.029887524982821, 0
120, 0, -0.08425103231616, 0
121, 0, -0.1388184850136, 0
122, 0, -0.19348065294941, 0
123, 0, -0.24735474484208, 0
124, 0.59261077308594, 0.02162827093541, 0
125, 0.56269772120206, 0.06750698527799, 0
126, 0.51387810054355, 0.0895975353811, 0
127, 0.46125817492389, 0.082495528532461, 0
128, 0.42016567266498, 0.048435011769539, 0
129, 0.4034052067146, -0.0024552819593655, 0
130, 0.4167169494509, -0.05512948774536, 0
131, 0.457322683612, -0.092793880704439, 0
132, 0.5122736002502, -0.10194292875103, 0
133, 0.56279102236064, -0.079553695325651, 0
134, 0.59267612628789, -0.033535083077466, 0
135, 0.58079625924816, 0.046998455721465, 0
136, 0.53957886214201, 0.08212461720091, 0
137, 0.48711330477069, 0.089736126968297, 0
138, 0.43839221526487, 0.068422081957741, 0
139, 0.40819091056937, 0.024180216394598, 0
140, 0.40619064033818, -0.029373565720196, 0
141, 0.43414375734649, -0.076819972785083, 0
142, 0.48412107028634, -0.10141215539522, 0
143, 0.53938465279672, -0.094337847118816, 0
144, 0.58104680391312, -0.058741302113317, 0
145, 0.4272242402157, -0.24250337128344, 0
146, 0.57663503833258, -0.24777780446561, 0
147, 0.41795879075434, 0.24526874997157, 0
148, 0.088159782360068, -0.14306091781808, 0
149, 0.094694311639691, -0.070885935688, 0
150, 0.17529228743672, -0.030468902498968, 0
151, 0.1269713977365, -0.27019306561606, 0
152, 0.20393870941875, -0.0040536817954865, 0
153, 0.47750259234732, -0.24600222057103, 0
154, 0.37431105059165, -0.23605008500607, 0
155, 0.15155203041738, 0.00461109962922, 0
156, 0.58878948209916, 0.25212876792652, 0
157, 0.65833975152971, -0.019267999487065, 0
158, 0.52693145346121, -0.24743570322629, 0
159, 0.62714578223277, -0.24766132725996, 0
160, 0.67879888230747, -0.24712048635006, 0
161, 0.73140150411739, -0.24648396057118, 0
162, 0.78465246489068, -0.24605944509062, 0
163, 0.83861466644458, -0.24591547254589, 0
164, 0.89290625791189, -0.24604588153169, 0
165, 0.21056769333677, 0.18104470650465, 0
166, 0.15772926214131, 0.18315826480187, 0
167, 0.40168744913707, 0.075584434150345, 0
168, 0.20902473650911, 0.12029090308748, 0
169, 0.1040622376102, 0.12798833676644, 0
170, 0.15638398856783, 0.12400550884721, 0
171, 0.051976872782247, 0.13203158929183, 0
172, 0.10500619737298, 0.18570420653954, 0
173, 0.052442940545444, 0.18854879183254, 0
174, 0.052680719870656, 0.24453379691468, 0
175, 0.10565317458983, 0.24301092722034, 0
176, 0.15883929448767, 0.24175546066032, 0
177, 0.21197156189931, 0.24081518762916, 0
178, 0.26345926020577, 0.17972664407062, 0
179, 0.26477990399298, 0.24039062269058, 0
180, 0.36888209688206, 0.24246428908145, 0
181, 0.3172220462156, 0.24081242836162, 0
182, 0.46211417457075, 0.24807639791591, 0
183, 0.41956020607601, 0.1894949787242, 0
184, 0.46497344006063, 0.19809438463871, 0
185, 0.31451095803303, 0.081581537194684, 0
186, 0.4865530656074, 0.14927262115979, 0
187, 0.31635517715917, 0.17989184363271, 0
188, 0.36890884533888, 0.18277282887881, 0
189, 0.2863460663063, 0.050404635559727, 0
190, 0.20691351751924, 0.05856599207081, 0
191, 0.15448041816108, 0.064381586023755, 0
192, 0.047767124513922, -0.21881843553351, 0
193, 0.023901765021789, -0.21967086568432, 0
194, 0.051258836366242, 0.075356362074256, 0
195, 0.10266739245621, 0.070074585843865, 0
196, 0.045301542788609, -0.14110986646369, 0
197, 0.07541116720372, -0.2721372084296, 0
198, 0.2628195989939, -0.26523409392686, 0
199, 0.20344964782357, -0.2316191899769, 0
200, 0.050130320693651, -0.27274220027357, 0
201, 0.045643413666576, -0.16658814869835, 0
202, 0.2878970218728, -0.19401095545532, 0
203, 0.28526034122507, -0.11934464451059, 0
204, 0.10990440633806, -0.12436662737335, 0
205, 0.16729569124609, -0.092354954557626, 0
206, 0.12399412312885, -0.020273082461119, 0
207, 0.092265375630482, -0.18966620519919, 0
208, 0.047535591889716, -0.063182354158592, 0
209, 0.046506248414972, -0.089678222223095, 0
210, 0.071146149787318, -0.066698015932461, 0
211, 0.023817772267509, -0.060046802455569, 0
212, 0.31807458645762, -0.26601888421386, 0
213, 0.25657051452283, -0.045373374702979, 0
214, 0.31768019318182, -0.19564692889471, 0
215, 0.48012858048342, -0.19430242613952, 0
216, 0.43250441083323, -0.18895883041194, 0
217, 0.048538637373506, -0.036151806326381, 0
218, 0.38387526564103, -0.16265900111575, 0
219, 0.43387316844079, -0.14301719839103, 0
220, 0.48211909341541, -0.14589800229248, 0
221, 0.37055547742418, -0.087147294271532, 0
222, 0.28448716670151, -0.083423051928186, 0
223, 0.024296274084548, -0.032921270151129, 0
224, 0.16019149193093, -0.16908163030178, 0
225, 0.36157206852412, -0.024478830402176, 0
226, 0.78446257998779, 0.19698991134193, 0
227, 0.72833505497203, 0.14908473292435, 0
228, 0.83681195446045, 0.14096428160604, 0
229, 0.78237011606166, 0.14409313486626, 0
230, 0.89128521023245, 0.13894764721334, 0
231, 0.94567907963818, 0.13760933460023, 0
232, 0.83809376561057, 0.19462321491209, 0
233, 0.89207311846046, 0.19313850250603, 0
234, 0.94607051443091, 0.19233004135236, 0
235, 0.94654854448432, 0.2464238279138, 0
236, 0.83904618791335, 0.24752233197874, 0
237, 0.89284541714094, 0.24675222714697, 0
238, 0.78561646265151, 0.24875355515792, 0
239, 0.73188352436979, 0.20057532818338, 0
240, 0.73324507439423, 0.25052074226275, 0
241, 0.63447576702926, 0.25381673259999, 0
242, 0.68259292825667, 0.25261037550743, 0
243, 0.5032645710462, 0.24951358666144, 0
244, 0.54496697343745, 0.25018685272954, 0
245, 0.5994293677235, 0.20596957156836, 0
246, 0.55109031511076, 0.19818053277667, 0
247, 0.50461823624825, 0.20028640957097, 0
248, 0.6090837072258, 0.18540596879824, 0
249, 0.68185332740861, 0.20559920341738, 0
250, 0.63753845311594, 0.21074130961909, 0
251, 0.62800650442894, 0.17239080569654, 0
252, 0.67578707200988, 0.15736953261985, 0
253, 0.66627944387979, 0.10324554451087, 0
254, 0.65891941115844, 0.043205733370763, 0
255, 0.72035454285642, 0.037213613714908, 0
256, 0.83551860408976, 0.086319290590399, 0
257, 0.77998123368412, 0.089541832832007, 0
258, 0.72370912188221, 0.094640910223728, 0
259, 0.83465938827354, 0.030817435603269, 0
260, 0.77832951055731, 0.033381123354956, 0
261, 0.89057824573754, 0.084149327834303, 0
262, 0.94535854446561, 0.082486784267279, 0
263, 0.94516846254124, 0.027277665131077, 0
264, 0.89013647210883, 0.028909616273839, 0
265, 0.94532025681608, -0.082891360631142, 0
266, 0.89046907026495, -0.081934405595926, 0
267, 0.94515437164689, -0.027821495893077, 0
268, 0.89009999088958, -0.026531692589769, 0
269, 0.75017933040808, -0.052094037277896, 0
270, 0.83528254051179, -0.081180014271534, 0
271, 0.77956456262874, -0.080835777390618, 0
272, 0.77818126676344, -0.023749662553474, 0
273, 0.83458656221095, -0.025200362024247, 0
274, 0.72004116833659, -0.022098559302993, 0
275, 0.72303188521755, -0.081504621551654, 0
276, 0.6228869562811, -0.054404262768357, 0
277, 0.57751669917969, -0.13883050984873, 0
278, 0.52941565531145, -0.14701701392056, 0
279, 0.52841533956913, -0.1960711069882, 0
280, 0.57729706742181, -0.19581572390435, 0
281, 0.62484255419043, -0.14634128788211, 0
282, 0.67380255321915, -0.141384875969, 0
283, 0.62674412426402, -0.19584753620673, 0
284, 0.67736642984547, -0.19431838588405, 0
285, 0.89192571701227, -0.19178173910035, 0
286, 0.94563337399244, -0.13785185084635, 0
287, 0.83642154841305, -0.13668142846641, 0
288, 0.89111992303119, -0.13707006276354, 0
289, 0.78162145433587, -0.13687870469751, 0
290, 0.72705027164375, -0.13816112299698, 0
291, 0.83760790022848, -0.19155220840568, 0
292, 0.72982347460716, -0.19272324396517, 0
293, 0.78343755244453, -0.19181445830074, 0
294, 0.94608019563728, -0.19245776599934, 0
295, 0.94677091190524, -0.24648583663202, 0
296, 0.33856849129272, -0.054091754593136, 0
297, 0.12589118198384, 0.0086919628508532, 0
298, 0.1235362710077, -0.24089375887095, 0
299, 0.59329756130403, -0.1164888598451, 0
300, 0.62234977204357, -0.12419141745867, 0
301, 0.60248895444995, -0.1468593983241, 0
302, 0.5765888824692, 0.19966667213131, 0
303, 0.58687301435404, 0.16650349771546, 0
304, 0.61649548945732, 0.14859837763814, 0
305, 0.43075911943196, 0.096281631515762, 0
306, 0.34288636411726, 0.1489639606931, 0
307, 0.57868434859472, 0.12999476118118, 0
308, 0.62144109556287, 0.19618705060731, 0
309, 0.072764434998446, -0.039731658449857, 0
310, 0.25804081092654, -0.19302805767681, 0
311, 0.2598511299745, 0.053045512765563, 0
312, 0.33888343169886, 0.044540465132613, 0
313, 0.3881654227933, 0.033882771428662, 0
314, 0.46997351070071, 0.17459045618958, 0
315, 0.48466603613227, 0.20143357839485, 0
316, 0.50181027500182, 0.1763282300636, 0
317, 0.69125427999143, -0.052235859225596, 0
318, 0.56200472570433, -0.11393008471922, 0
319, 0.55203060518511, -0.14640240792754, 0
320, 0.53040967120307, -0.12369179193071, 0
321, 0.4090163410236, -0.18281205027603, 0
322, 0.40956025586047, -0.14634087466081, 0
323, 0.4356888264365, -0.16622686565917, 0
324, 0.22715851068339, -0.075092336578853, 0
325, 0.34281223336347, 0.11530047129631, 0
326, 0.31557517076999, 0.11536321697523, 0
327, 0.3417550931325, 0.079835788731088, 0
328, 0.97282920622112, -0.1383743998495, 0
329, 0.94546039218415, -0.11039843081938, 0
330, 0.97267148511306, -0.083403018147323, 0
331, 0.97274190020775, -0.1109051714295, 0
332, 0.069441026791506, -0.092790137948865, 0
333, 0.28647098422294, -0.15662682407346, 0
334, 0.12146275778223, -0.14418253572353, 0
335, 0.15923423043008, -0.12268999819008, 0
336, 0.23064100648103, -0.0082224330772106, 0
337, 0.28432889970076, -0.015512716039657, 0
338, 0.19768748368152, -0.19489552128623, 0
339, 0.025987884556203, 0.13406381691622, 0
340, 0.05165819747352, 0.10367992351435, 0
341, 0.025630952139832, 0.07780886855998, 0
342, 0.025827142290413, 0.10592321117523, 0
343, 0.9451392813932, -0.00028359901568759, 0
344, 0.97259611680514, 0.02645155218925, 0
345, 0.9725905804456, -0.02845166427601, 0
346, 0.97258145144214, -0.0010154579021507, 0
347, 0.89355510575955, -0.2730457132667, 0
348, 0.83898585803985, -0.27297596891617, 0
349, 0.8657670126105, -0.24594633837572, 0
350, 0.86628002890014, -0.27299216893483, 0
351, 0.069568346098545, -0.19148007924034, 0
352, 0.022917857104208, -0.16643327445189, 0
353, 0.37291661327578, -0.26822088125656, 0
354, 0.18701798727938, -0.14863356919535, 0
355, 0.15939329088209, 0.27089894941557, 0
356, 0.13223237553192, 0.24235136606961, 0
357, 0.10586375444382, 0.27152781286124, 0
358, 0.13261572386672, 0.27119555493435, 0
359, 0.47642594534459, -0.27284541231016, 0
360, 0.50223803078012, -0.24690894308346, 0
361, 0.52603211902959, -0.27363395481732, 0
362, 0.5012602373801, -0.27333575311244, 0
363, 0.1098546681755, -0.16331195115229, 0
364, 0.11828342915319, -0.076149298144691, 0
365, 0.075276592587611, 0.015924938356609, 0
366, 0.3108416228646, -0.018675653449324, 0
367, 0.86593445428501, 0.24708313217569, 0
368, 0.83938935076337, 0.27378385577008, 0
369, 0.89325849274014, 0.27340140785991, 0
370, 0.86632354576054, 0.27356416286252, 0
371, 0.97284358181513, 0.13712085746232, 0
372, 0.97268661946691, 0.08172230850073, 0
373, 0.94550471980697, 0.11008325622146, 0
374, 0.9727584418506, 0.10943601302745, 0
375, 0.94586721643484, 0.16503779337461, 0
376, 0.97304245872858, 0.19217355754395, 0
377, 0.97293820235126, 0.16470701134401, 0
378, 0.94521716701469, -0.055362254040598, 0
379, 0.97262152234552, -0.055922760138781, 0
380, 0.052237797154645, 0.16033650690744, 0
381, 0.026214218335384, 0.19011203382089, 0
382, 0.026114403241878, 0.16213503790527, 0
383, 0.20186750797882, -0.035960510474639, 0
384, 0.28922648847337, -0.23028268227453, 0
385, 0.19483086962918, -0.1040983672841, 0
386, 0.34563499830274, -0.26694255134749, 0
387, 0.94583838985157, -0.16521446435242, 0
388, 0.97306083077513, -0.1930053336777, 0
389, 0.97293343918122, -0.16574555122405, 0
390, 0.75794500154626, -0.24623703288677, 0
391, 0.78496495025405, -0.27304809050235, 0
392, 0.73191853531446, -0.27325408760817, 0
393, 0.75837937021205, -0.27313507439053, 0
394, 0.26557681959685, 0.27026345493513, 0
395, 0.3179687494914, 0.27051489467545, 0
396, 0.29105126222511, 0.240471262252, 0
397, 0.29180165114697, 0.27032281961807, 0
398, 0.73325441512836, 0.27528618932355, 0
399, 0.70765299160954, 0.25156752162266, 0
400, 0.68180039633166, 0.2762761923342, 0
401, 0.70739456233942, 0.27578805052895, 0
402, 0.18542834406447, 0.24123745485619, 0
403, 0.21279919119438, 0.27044343170026, 0
404, 0.18613524162856, 0.27064515711728, 0
405, 0.81224685833377, 0.24807403413405, 0
406, 0.78579188546914, 0.27440993638362, 0
407, 0.81252035348525, 0.27406415200248, 0
408, 0.65816454132147, 0.25347012347638, 0
409, 0.63141318330793, 0.27673847892964, 0
410, 0.65640965328558, 0.27664060592044, 0
411, 0.025039650362917, -0.27322337618376, 0
412, 0.022936894322075, -0.11355293030279, 0
413, 0.02334031946313, -0.19300165421657, 0
414, 0.024724622119325, -0.00555386241695, 0
415, 0.097040416369504, -0.043846984740169, 0
416, 0.089511334550778, -0.12060125951207, 0
417, 0.079132084242442, 0.2437340653369, 0
418, 0.052661221379141, 0.27230488832343, 0
419, 0.079214877524502, 0.2718956581754, 0
420, 0.37007791459501, 0.27136912587705, 0
421, 0.34322474220465, 0.24146945446154, 0
422, 0.34414104435736, 0.270861112535, 0
423, 0.9452433910708, 0.054877765127989, 0
424, 0.97263075563023, 0.05406335096828, 0
425, 0.67908983165374, -0.27355461503062, 0
426, 0.70500504885565, -0.24678860331208, 0
427, 0.70546065349641, -0.27339858302026, 0
428, 0.05076556371023, 0.047141460905614, 0
429, 0.025384705028497, 0.049839535216149, 0
430, 0.073605608854939, -0.24458242003833, 0
431, 0.045662103822056, -0.11560514724449, 0
432, 0.31710886732066, -0.1585159385806, 0
433, 0.23841664958351, 0.24052151338967, 0
434, 0.23924347448891, 0.27031060285776, 0
435, 0.65283239202762, -0.24743064666415, 0
436, 0.62685700311645, -0.27380534469183, 0
437, 0.65286355538429, -0.2736981616671, 0
438, 0.75926269046244, 0.24957513404505, 0
439, 0.75940296457418, 0.27482000094717, 0
440, 0.54120441064078, 0.27511742665034, 0
441, 0.52388712412755, 0.24980023541163, 0
442, 0.50189376171571, 0.27468003924234, 0
443, 0.52140712644909, 0.27489039738779, 0
444, 0.94629217733041, 0.2194527354357, 0
445, 0.97329520481886, 0.24646490195525, 0
446, 0.97315821726209, 0.21939969650755, 0
447, 0.0263181205529, 0.24544671224442, 0
448, 0.026298886892981, 0.27276674768777, 0
449, 0.5517073848852, -0.24769190793796, 0
450, 0.5759725195747, -0.27385590856409, 0
451, 0.55093169890332, -0.2737923736593, 0
452, 0.9473439049989, -0.27328215346502, 0
453, 0.97343659157275, -0.24688778817577, 0
454, 0.97374076878643, -0.27349041304809, 0
455, 0.94688133785718, 0.27324691567847, 0
456, 0.97346935668602, 0.27327379565645, 0
457, 0.34631787022468, -0.23329005619055, 0
458, 0.071592038337128, -0.21759531708032, 0
459, 0.11466449648042, -0.18632720562569, 0
460, 0.16969747753014, -0.20163050863235, 0
461, 0.29045256259027, -0.26544891530922, 0
462, 0.81156159260424, -0.24595344330841, 0
463, 0.81188943464698, -0.27299443599634, 0
464, 0.60177222845648, -0.24777515114225, 0
465, 0.6012930411213, -0.27385879374386, 0
466, 0.40124809075684, -0.23960817652704, 0
467, 0.42573647357109, -0.27107041739865, 0
468, 0.39960134480698, -0.26972334607506, 0
469, 0.39391232218026, 0.24376866700279, 0
470, 0.41980864933166, 0.27273368062226, 0
471, 0.39545340915453, 0.27201558345042, 0
472, 0.17582356287456, -0.23462396312551, 0
473, 0.14224748682806, -0.083064384807483, 0
474, 0.25578990893124, -0.079880170785812, 0
475, 0.34522156991094, -0.12248891217817, 0
476, 0.91991550454246, -0.24621874944541, 0
477, 0.92055219287045, -0.27313863845821, 0
478, 0.45257312016129, -0.24458515856152, 0
479, 0.45126582865417, -0.27210790580289, 0
480, 0.61144146615876, 0.2533575928489, 0
481, 0.58325120905022, 0.27592625420221, 0
482, 0.6069898139271, 0.2764643985438, 0
483, 0.48282246129928, 0.24902225498639, 0
484, 0.46247170665623, 0.27396614231957, 0
485, 0.48234215546513, 0.2743938205874, 0
486, 0.06795315862506, -0.11786424636298, 0
487, 0.15343552952402, -0.26881017735305, 0
488, 0.14937083158175, -0.025135573237742, 0
489, 0.91849467564385, 0.13820957352081, 0
490, 0.89167934496072, 0.16612122243507, 0
491, 0.91907945841133, 0.19265603944687, 0
492, 0.91878018815602, 0.1655059353325, 0
493, 0.02449253692244, -0.24647685360536, 0
494, 0.049420706702768, -0.0086900022484522, 0
495, 0.91972412148161, 0.24653067304625, 0
496, 0.92010991057509, 0.27329361230858, 0
497, 0.052595127978006, 0.21661259906377, 0
498, 0.026284416058734, 0.21785739080081, 0
499, 0.86477309250662, -0.19161382175893, 0
500, 0.89238404584379, -0.21896577310791, 0
501, 0.83814583023624, -0.21878624314702, 0
502, 0.8652679592015, -0.21882875432757, 0
503, 0.94637766030596, -0.21954408468821, 0
504, 0.97322126688025, -0.22002636321176, 0
505, 0.44061769121521, 0.2467637700947, 0
506, 0.4417604519687, 0.27339622393107, 0
507, 0.077996633959602, 0.13000800751465, 0
508, 0.10343168629566, 0.099032895365082, 0
509, 0.076926349225588, 0.072775642130498, 0
510, 0.077513196768219, 0.10138331881924, 0
511, 0.56662734653952, 0.2509229275318, 0
512, 0.56170096457579, 0.27544929265212, 0
513, 0.91766577430662, -0.027177984230552, 0
514, 0.91792608992995, -0.082395289161381, 0
515, 0.89023686276311, -0.054248666590972, 0
516, 0.91776568103687, -0.05480266373876, 0
517, 0.91799565981932, 0.083276551299873, 0
518, 0.89091306968489, 0.11161184114483, 0
519, 0.91822663055327, 0.11079503322325, 0
520, 0.86242105136688, -0.025874572816069, 0
521, 0.86292636487598, -0.081520160863585, 0
522, 0.83484872565198, -0.053221102746594, 0
523, 0.8626103199852, -0.053720032201498, 0
524, 0.86405754167247, 0.13984450494665, 0
525, 0.86309467404336, 0.085141083581884, 0
526, 0.83613622540794, 0.11377157598682, 0
527, 0.8635542347492, 0.11258037808544, 0
528, 0.71978404574927, 0.0077355327418931, 0
529, 0.68978576014564, -0.021015824119755, 0
530, 0.65816909321658, 0.012533541712225, 0
531, 0.69028011431098, 0.039888032283729, 0
532, 0.68951344046667, 0.0097469504717541, 0
533, 0.22347067676199, -0.15209620446796, 0
534, 0.31784820372112, -0.23142673444464, 0
535, 0.19905713155338, -0.06882241639275, 0
536, 0.050162660158033, 0.019094761986946, 0
537, 0.37711825008925, -0.20246891427569, 0
538, 0.10093189519977, -0.27131258744112, 0
539, 0.09202892514382, -0.09660896322947, 0
540, 0.67596239242976, -0.16792074432289, 0
541, 0.7001261876459, -0.13946907301717, 0
542, 0.7286111957682, -0.16560111944668, 0
543, 0.70340205471125, -0.19345347975764, 0
544, 0.70203706008011, -0.166614400779, 0
545, 0.47878999645895, -0.21974009798257, 0
546, 0.50424255014997, -0.19551920647683, 0
547, 0.52773092710864, -0.22154037393541, 0
548, 0.50325118532672, -0.22091304092139, 0
549, 0.91839869577282, -0.13741535914182, 0
550, 0.8907655310868, -0.10954370885974, 0
551, 0.91814084394055, -0.10994176260904, 0
552, 0.18413542780044, 0.18203144125302, 0
553, 0.15829148975854, 0.21252129866304, 0
554, 0.21125280891766, 0.21103715079602, 0
555, 0.18477916536882, 0.21171497987948, 0
556, 0.506158126385, -0.14693931656844, 0
557, 0.48305248155897, -0.12276747236471, 0
558, 0.50791111710085, -0.12397890572396, 0
559, 0.83861738793221, 0.22115091388878, 0
560, 0.81120023556609, 0.19568167850739, 0
561, 0.78516972950496, 0.22297712792475, 0
562, 0.8118099766928, 0.22196215471346, 0
563, 0.67825909601003, -0.22070704442486, 0
564, 0.73073331137706, -0.21965832289449, 0
565, 0.70435317288676, -0.22015190480407, 0
566, 0.18265570858391, 0.12209641645016, 0
567, 0.15710022752846, 0.15365401834448, 0
568, 0.20983937985961, 0.15080159938125, 0
569, 0.18344060929651, 0.15216139332565, 0
570, 0.57915352749351, -0.097288301578158, 0
571, 0.39658023971584, 0.15469747879037, 0
572, 0.38489149615822, -0.027146651230356, 0
573, 0.36124302775944, 0.0070380423644984, 0
574, 0.38370973230142, 0.0024283542747092, 0
575, 0.91769026250418, 0.028080547981214, 0
576, 0.8903146210857, 0.056566790224709, 0
577, 0.91781105265425, 0.055698549725625, 0
578, 0.10536191753189, 0.21441031187284, 0
579, 0.13134613977266, 0.18439157426483, 0
580, 0.13181317420278, 0.21342545960596, 0
581, 0.4868423005655, 0.1153289586255, 0
582, 0.51931493655548, 0.14320634731144, 0
583, 0.54409495410792, 0.10820699762124, 0
584, 0.51609875548178, 0.11423150401885, 0
585, 0.5982494170311, 0.086348301244564, 0
586, 0.57124627207806, 0.098206527330501, 0
587, 0.20773394991605, -0.26611460400542, 0
588, 0.10170463177409, 0.041188195903297, 0
589, 0.076188563816387, 0.04426232409134, 0
590, 0.62607358657481, -0.015205139586831, 0
591, 0.62491039935112, 0.046789933003389, 0
592, 0.62576561334077, 0.016575777916547, 0
593, 0.39990481197418, -0.084357108159408, 0
594, 0.39096994950448, -0.055978375892778, 0
595, 0.89006678603833, 0.001193897701852, 0
596, 0.91764231640176, 0.00044867202194507, 0
597, 0.7064021988371, 0.20291344238542, 0
598, 0.73036752135957, 0.17511462303818, 0
599, 0.70175517630171, 0.15267307729539, 0
600, 0.67960173167952, 0.18191552452239, 0
601, 0.70451308282616, 0.17816186097905, 0
602, 0.26408929239771, 0.21025188461172, 0
603, 0.31668445227909, 0.21068577169652, 0
604, 0.28991043796346, 0.17956349770091, 0
605, 0.29042920204389, 0.21027474366501, 0
606, 0.6827283812188, 0.22906927728066, 0
607, 0.65871595450093, 0.20840002333499, 0
608, 0.63661460207814, 0.23164635716892, 0
609, 0.65907358546621, 0.23068517868595, 0
610, 0.75653315001384, -0.19217978068028, 0
611, 0.78413179890258, -0.21899790139921, 0
612, 0.75733885573839, -0.21926913294154, 0
613, 0.86247712619296, 0.02980106593362, 0
614, 0.83500631669164, 0.058660173844078, 0
615, 0.86272309870965, 0.057538790693924, 0
616, 0.73282412279277, 0.22565846369985, 0
617, 0.70739443353663, 0.22731325279004, 0
618, 0.14925403538204, -0.23799902370514, 0
619, 0.12850279889948, 0.067268396146692, 0
620, 0.15319481946319, 0.034484958904566, 0
621, 0.12734950347222, 0.037921799116519, 0
622, 0.63705259703334, -0.091015215374101, 0
623, 0.59902299604855, -0.079003158857089, 0
624, 0.28414518316675, -0.048970101013748, 0
625, 0.12853718625353, -0.15815650421157, 0
626, 0.45489684307336, 0.13856466592191, 0
627, 0.458134415924, 0.10832020973943, 0
628, 0.36852527798772, 0.2130598552906, 0
629, 0.34272813175521, 0.18089491983176, 0
630, 0.34277034813182, 0.21158648688004, 0
631, 0.75426742505394, -0.13733655442271, 0
632, 0.78259476051468, -0.16446334672883, 0
633, 0.75550684193439, -0.16489753995901, 0
634, 0.45791065898334, -0.14405145752552, 0
635, 0.43223196626343, -0.11489507634985, 0
636, 0.45766569349884, -0.11907279882064, 0
637, 0.23187919845, -0.23012598944614, 0
638, 0.049004946959839, -0.24564391882625, 0
639, 0.046566549496418, -0.19244742410635, 0
640, 0.25527048843695, -0.11622773015702, 0
641, 0.17755964604408, 0.0003035872044211, 0
642, 0.22905037600145, -0.041027385188235, 0
643, 0.098388714766547, -0.24306460501811, 0
644, 0.83451904978997, 0.0028354324757233, 0
645, 0.86237509473464, 0.001979329370782, 0
646, 0.54824359260898, 0.22482449005165, 0
647, 0.52685025562949, 0.19881127650463, 0
648, 0.50442758894743, 0.22464676015304, 0
649, 0.52589392992302, 0.22457055650766, 0
650, 0.60200283964373, -0.19603253129086, 0
651, 0.62710162377953, -0.2216369288081, 0
652, 0.57706405443372, -0.2217951212285, 0
653, 0.60198947290008, -0.22180664734163, 0
654, 0.74941631234932, -0.022970065166734, 0
655, 0.74962467004518, 0.035081391205417, 0
656, 0.77804941994672, 0.0048763386117244, 0
657, 0.7492208451136, 0.0061647242959464, 0
658, 0.31607687946378, 0.1481803001059, 0
659, 0.31130202150916, 0.014321738116999, 0
660, 0.3151298902851, -0.1214454987972, 0
661, 0.25862983367488, 0.020639978613699, 0
662, 0.28511200496806, 0.017479465967506, 0
663, 0.31153396934196, -0.05187071319503, 0
664, 0.12151327816762, -0.048714584456313, 0
665, 0.14487634682093, -0.14490553198796, 0
666, 0.023333044958139, -0.086918865168414, 0
667, 0.067937300902688, -0.16641057562591, 0
668, 0.10695613931275, -0.1437837316775, 0
669, 0.81048253756934, -0.19161508328689, 0
670, 0.81108404941613, -0.21884078658097, 0
671, 0.65181172207498, -0.19519292975985, 0
672, 0.65250688492819, -0.22124158690035, 0
673, 0.75141923847922, -0.08096876078363, 0
674, 0.77871643260142, -0.052376263055276, 0
675, 0.75797366473072, 0.19861346112988, 0
676, 0.75880530983129, 0.22419894801801, 0
677, 0.23700494472865, 0.18025473665807, 0
678, 0.23769416208577, 0.21052981465906, 0
679, 0.55271065591003, -0.19609971344591, 0
680, 0.55230895411246, -0.22177772222826, 0
681, 0.72601739617624, 0.12227088141934, 0
682, 0.69516815434743, 0.098360654289485, 0
683, 0.6710420425751, 0.13123320646004, 0
684, 0.69847407388963, 0.12611306072784, 0
685, 0.067271550949899, -0.142144070659, 0
686, 0.13636740831614, -0.10942330402647, 0
687, 0.22494384566588, -0.11159653681617, 0
688, 0.074147327196039, -0.012122012304218, 0
689, 0.62604057340216, -0.17055002340643, 0
690, 0.64853877244326, -0.14386463999939, 0
691, 0.65060025811918, -0.16937495693073, 0
692, 0.7211400546772, -0.052009876686899, 0
693, 0.61291434640413, -0.10288325613479, 0
694, 0.39464830448755, 0.18567183649706, 0
695, 0.41797732734769, 0.21759672061454, 0
696, 0.39370099844746, 0.21510969975436, 0
697, 0.42948576212272, -0.21482040623472, 0
698, 0.40410952422597, -0.2100827222134, 0
699, 0.80902173665946, -0.13668407509332, 0
700, 0.83702654516127, -0.16419176090613, 0
701, 0.80978337198631, -0.16423958464577, 0
702, 0.61848568428478, 0.21120218921828, 0
703, 0.59363963759617, 0.22869035911552, 0
704, 0.615138161828, 0.23118528510851, 0
705, 0.46286179491204, 0.22264295272277, 0
706, 0.48368606800531, 0.22432764468118, 0
707, 0.78351120274595, 0.1707178785063, 0
708, 0.75526295794573, 0.1462816603383, 0
709, 0.75677156811954, 0.1726799961631, 0
710, 0.45617171802395, -0.19225172503007, 0
711, 0.4542910370707, -0.21782096751649, 0
712, 0.10049288560228, 0.012466685302118, 0
713, 0.25751676618299, -0.012051870975314, 0
714, 0.31274398207354, 0.047678408631681, 0
715, 0.2876835672582, 0.083365000433596, 0
716, 0.20806751458239, 0.089533262795094, 0
717, 0.42700259896436, 0.12944853658011, 0
718, 0.078702135887374, 0.1870890432381, 0
719, 0.078954617704086, 0.21546989310318, 0
720, 0.48131226360293, -0.16976693063759, 0
721, 0.45781323768268, -0.16805764119151, 0
722, 0.11427158294445, -0.10174976301073, 0
723, 0.22790626587197, -0.19297451929244, 0
724, 0.72513888965252, -0.11020007017485, 0
725, 0.6704632035584, -0.11425800389127, 0
726, 0.659618132971, -0.052945665633082, 0
727, 0.69755266259641, -0.1116940384407, 0
728, 0.57739254267533, -0.16926724607621, 0
729, 0.60197583461086, -0.17068575435401, 0
730, 0.8924574396385, 0.22001270012506, 0
731, 0.91939021058996, 0.21965847408185, 0
732, 0.1806247139136, 0.061459251269325, 0
733, 0.20556278769827, 0.027390684978885, 0
734, 0.18038182054333, -0.26734014229895, 0
735, 0.17925708677354, 0.030943468855311, 0
736, 0.44317588495094, 0.19379425115652, 0
737, 0.44105079564476, 0.22022918607764, 0
738, 0.10458063516784, 0.15689015908359, 0
739, 0.0783871710568, 0.15859109863909, 0
740, 0.5711701694316, 0.2260453708605, 0
741, 0.34176599714552, -0.087303528229168, 0
742, 0.17212445279008, -0.061395722036532, 0
743, 0.23523326768273, -0.26542504844162, 0
744, 0.52895446033121, -0.17116014053716, 0
745, 0.50516830797098, -0.17083985893593, 0
746, 0.6370133009488, 0.10981180647074, 0
747, 0.65090802007055, 0.16365102541232, 0
748, 0.64379511783395, 0.13826598833157, 0
749, 0.86506496178956, 0.19379285632248, 0
750, 0.86552111999614, 0.2205025170157, 0
751, 0.91903613174526, -0.19206129370671, 0
752, 0.91943016773905, -0.21919938699511, 0
753, 0.1301815261583, 0.12598207229253, 0
754, 0.13081449171028, 0.15523970399177, 0
755, 0.63609034964346, 0.19148906593858, 0
756, 0.65634136569813, 0.18641778353668, 0
757, 0.66546307384888, -0.085382644820121, 0
758, 0.64478236785311, -0.11840417280252, 0
759, 0.83748081174223, 0.16790807490587, 0
760, 0.86457412977361, 0.16690659986675, 0
761, 0.36979262067415, 0.15095441956971, 0
762, 0.37010289690246, 0.077955803126285, 0
763, 0.28938782680248, 0.14818917799188, 0
764, 0.39907926761118, 0.12041429996921, 0
765, 0.891506787716, -0.16448335403381, 0
766, 0.91869671692858, -0.1647951072798, 0
767, 0.80957514665023, 0.14234642014519, 0
768, 0.81044425874306, 0.16915039951361, 0
769, 0.15553366515611, 0.094234690625429, 0
770, 0.12943229033262, 0.096641767498028, 0
771, 0.83582133690717, -0.10900472407786, 0
772, 0.8637898620989, -0.13681716967814, 0
773, 0.8633281606366, -0.10922425288112, 0
774, 0.34871099964423, -0.16039961277965, 0
775, 0.022769671984479, -0.13999929393226, 0
776, 0.86427593681644, -0.16427820461953, 0
777, 0.23449302637054, 0.087331698893403, 0
778, 0.26202195837733, 0.11721769497202, 0
779, 0.18173865722415, 0.091851417526198, 0
780, 0.09897203266923, -0.015951929275393, 0
781, 0.3131365432121, -0.085917030820562, 0
782, 0.80750255365665, -0.080930917393507, 0
783, 0.80652810002629, -0.024484703655505, 0
784, 0.80690451813254, -0.052763227197128, 0
785, 0.60760981714552, 0.1186851214212, 0
786, 0.80782026656232, 0.087764555638205, 0
787, 0.78115336616246, 0.11703016505763, 0
788, 0.80866922948871, 0.11522360511535, 0
789, 0.28870104532145, 0.1160817306918, 0
790, 0.44765571707691, 0.16704247206454, 0
791, 0.26054730336713, -0.22979947224115, 0
792, 0.25566514124369, -0.1545596665837, 0
793, 0.23334652212855, 0.055752436115927, 0
794, 0.75196050916004, 0.091777926760768, 0
795, 0.75358917021941, 0.11933621216601, 0
796, 0.37063703773857, 0.1164785708081, 0
797, 0.23629324247989, 0.14963110067446, 0
798, 0.33684858089034, 0.010941984552408, 0
799, 0.52536943521834, 0.17181302571735, 0
800, 0.78057540108688, -0.10900845085162, 0
801, 0.80823460228368, -0.10891166523933, 0
802, 0.77899703173888, 0.061642148883225, 0
803, 0.80663974890536, 0.031983105533229, 0
804, 0.80711853562224, 0.059997922747049, 0
805, 0.34755179531201, -0.19816355659243, 0
806, 0.80643569638375, 0.0037947233766153, 0
807, 0.26103121174418, 0.085272689454213, 0
808, 0.11943501896623, -0.21261901499317, 0
809, 0.72172250468084, 0.066248525517229, 0
810, 0.75057407880726, 0.063670254558617, 0
811, 0.66199632100407, 0.073741238555817, 0
812, 0.69228367001147, 0.069531047628807, 0
813, 0.375677372411, -0.12179969240602, 0
814, 0.025087273373216, 0.022008869185198, 0
815, 0.33672285075063, -0.021639071028869, 0
816, 0.55278457308976, -0.17074456191775, 0
817, 0.69435868913112, -0.082749370459157, 0
818, 0.14640499144492, -0.05453911915383, 0
819, 0.2320520909017, 0.023937113824744, 0
820, 0.095426613881825, -0.21566574052715, 0
821, 0.089486273117088, -0.16554781827236, 0
822, 0.26279849203307, 0.14872752272029, 0
823, 0.12857214205798, -0.13054912649733, 0
824, 0.40436524484832, -0.11703094253025, 0
825, 0.75286348677239, -0.10939157315795, 0
826, 0.63053719509721, 0.079143643998388, 0
827, 0.36508294430767, -0.055536526568692, 0
828, 0.60556878730949, -0.12926608838847, 0
829, 0.55292279286708, 0.16859467143895, 0
830, 0.36437477458451, 0.040347854253942, 0
831, 0.54881384166859, 0.13759259827085, 0
832, 0.13700784533332, -0.18026842862828, 0
833, 0.23547978307584, 0.11864385790704, 0
834, 0.48543241105056, 0.1833324994917, 0
835, 0.548460660611, -0.12736838200475, 0
836, 0.41742130308454, -0.16500273324501, 0
837, 0.14395163325185, -0.20800073251579, 0
838, 0.42272081946621, 0.16040846739406, 0
******* E L E M E N T S *************
*ELEMENT, type=CPS4, ELSET=Surface1
1, 59, 330, 331, 48
2, 48, 331, 328, 58
3, 331, 329, 286, 328
4, 330, 265, 329, 331
5, 432, 774, 475, 660
6, 19, 538, 197, 11
7, 792, 333, 203, 640
8, 823, 204, 668, 334
9, 618, 837, 808, 298
10, 486, 431, 196, 685
11, 621, 588, 712, 297
12, 460, 837, 618, 472
13, 117, 341, 342, 106
14, 106, 342, 339, 116
15, 342, 340, 171, 339
16, 341, 194, 340, 342
17, 267, 345, 346, 343
18, 343, 346, 344, 263
19, 346, 50, 61, 344
20, 345, 60, 50, 346
21, 164, 349, 350, 347
22, 347, 350, 35, 43
23, 350, 348, 42, 35
24, 349, 163, 348, 350
25, 199, 472, 734, 587
26, 413, 352, 111, 122
27, 642, 213, 713, 336
28, 224, 832, 837, 460
29, 100, 93, 358, 355
30, 355, 358, 356, 176
31, 358, 357, 175, 356
32, 93, 101, 357, 358
33, 28, 26, 362, 359
34, 359, 362, 360, 153
35, 362, 361, 158, 360
36, 26, 29, 361, 362
37, 687, 640, 474, 324
38, 354, 338, 723, 533
39, 217, 223, 211, 208
40, 487, 618, 298, 151
41, 237, 369, 370, 367
42, 367, 370, 368, 236
43, 370, 68, 76, 368
44, 369, 75, 68, 370
45, 231, 373, 374, 371
46, 371, 374, 52, 63
47, 374, 372, 62, 52
48, 373, 262, 372, 374
49, 63, 53, 377, 371
50, 371, 377, 375, 231
51, 377, 376, 234, 375
52, 53, 64, 376, 377
53, 59, 49, 379, 330
54, 330, 379, 378, 265
55, 379, 345, 267, 378
56, 49, 60, 345, 379
57, 173, 381, 382, 380
58, 380, 382, 339, 171
59, 382, 105, 116, 339
60, 381, 115, 105, 382
61, 351, 667, 201, 639
62, 385, 687, 324, 535
63, 197, 430, 638, 200
64, 741, 221, 827, 296
65, 837, 832, 459, 808
66, 324, 474, 213, 642
67, 624, 663, 366, 337
68, 310, 791, 384, 202
69, 294, 388, 389, 387
70, 387, 389, 328, 286
71, 389, 47, 58, 328
72, 388, 57, 47, 389
73, 161, 392, 393, 390
74, 390, 393, 391, 162
75, 393, 33, 41, 391
76, 392, 40, 33, 393
77, 179, 396, 397, 394
78, 394, 397, 90, 98
79, 397, 395, 97, 90
80, 396, 181, 395, 397
81, 79, 400, 401, 71
82, 71, 401, 398, 78
83, 401, 399, 240, 398
84, 400, 242, 399, 401
85, 177, 403, 404, 402
86, 402, 404, 355, 176
87, 404, 92, 100, 355
88, 403, 99, 92, 404
89, 76, 69, 407, 368
90, 368, 407, 405, 236
91, 407, 406, 238, 405
92, 69, 77, 406, 407
93, 80, 409, 410, 72
94, 72, 410, 400, 79
95, 410, 408, 242, 400
96, 409, 241, 408, 410
97, 664, 415, 149, 364
98, 535, 383, 150, 742
99, 588, 589, 365, 712
100, 204, 416, 148, 668
101, 734, 487, 20, 13
102, 415, 309, 210, 149
103, 155, 297, 206, 488
104, 385, 535, 742, 205
105, 101, 94, 419, 357
106, 357, 419, 417, 175
107, 419, 418, 174, 417
108, 94, 102, 418, 419
109, 181, 421, 422, 395
110, 395, 422, 89, 97
111, 422, 420, 96, 89
112, 421, 180, 420, 422
113, 263, 344, 424, 423
114, 423, 424, 372, 262
115, 424, 51, 62, 372
116, 344, 61, 51, 424
117, 39, 32, 427, 425
118, 425, 427, 426, 160
119, 427, 392, 161, 426
120, 32, 40, 392, 427
121, 117, 107, 429, 341
122, 341, 429, 428, 194
123, 354, 385, 205, 335
124, 207, 821, 667, 351
125, 335, 686, 823, 665
126, 791, 198, 461, 384
127, 333, 202, 214, 432
128, 723, 637, 791, 310
129, 179, 394, 434, 433
130, 433, 434, 403, 177
131, 434, 91, 99, 403
132, 394, 98, 91, 434
133, 159, 436, 437, 435
134, 435, 437, 425, 160
135, 437, 31, 39, 425
136, 436, 38, 31, 437
137, 77, 70, 439, 406
138, 406, 439, 438, 238
139, 439, 398, 240, 438
140, 70, 78, 398, 439
141, 85, 82, 443, 440
142, 440, 443, 441, 244
143, 443, 442, 243, 441
144, 82, 86, 442, 443
145, 64, 54, 446, 376
146, 376, 446, 444, 234
147, 446, 445, 235, 444
148, 54, 65, 445, 446
149, 102, 95, 448, 418
150, 418, 448, 447, 174
151, 448, 103, 114, 447
152, 95, 8, 103, 448
153, 158, 361, 451, 449
154, 449, 451, 450, 146
155, 451, 27, 3, 450
156, 361, 29, 27, 451
157, 44, 37, 454, 452
158, 452, 454, 453, 295
159, 454, 45, 56, 453
160, 37, 4, 45, 454
161, 65, 55, 456, 445
162, 445, 456, 455, 235
163, 456, 66, 74, 455
164, 55, 5, 66, 456
165, 814, 118, 108, 414
166, 637, 743, 198, 791
167, 459, 363, 821, 207
168, 638, 192, 193, 493
169, 309, 217, 208, 210
170, 774, 218, 813, 475
171, 384, 461, 212, 534
172, 208, 211, 666, 209
173, 162, 391, 463, 462
174, 462, 463, 348, 163
175, 463, 34, 42, 348
176, 391, 41, 34, 463
177, 146, 450, 465, 464
178, 464, 465, 436, 159
179, 465, 30, 38, 436
180, 450, 3, 30, 465
181, 24, 17, 468, 353
182, 353, 468, 466, 154
183, 468, 467, 145, 466
184, 17, 2, 467, 468
185, 147, 470, 471, 469
186, 469, 471, 420, 180
187, 471, 88, 96, 420
188, 470, 7, 88, 471
189, 712, 365, 688, 780
190, 198, 22, 15, 461
191, 815, 225, 573, 798
192, 461, 15, 23, 212
193, 43, 36, 477, 347
194, 347, 477, 476, 164
195, 477, 452, 295, 476
196, 36, 44, 452, 477
197, 2, 25, 479, 467
198, 467, 479, 478, 145
199, 479, 359, 153, 478
200, 25, 28, 359, 479
201, 80, 73, 482, 409
202, 409, 482, 480, 241
203, 482, 481, 156, 480
204, 73, 6, 481, 482
205, 243, 442, 485, 483
206, 483, 485, 484, 182
207, 485, 83, 87, 484
208, 442, 86, 83, 485
209, 457, 386, 353, 154
210, 335, 205, 473, 686
211, 641, 735, 620, 155
212, 231, 375, 492, 489
213, 489, 492, 490, 230
214, 492, 491, 233, 490
215, 375, 234, 491, 492
216, 533, 723, 310, 792
217, 713, 337, 662, 661
218, 536, 814, 414, 494
219, 665, 823, 334, 625
220, 235, 455, 496, 495
221, 495, 496, 369, 237
222, 496, 67, 75, 369
223, 455, 74, 67, 496
224, 174, 447, 498, 497
225, 497, 498, 381, 173
226, 498, 104, 115, 381
227, 447, 114, 104, 498
228, 291, 501, 502, 499
229, 499, 502, 500, 285
230, 502, 349, 164, 500
231, 501, 163, 349, 502
232, 295, 453, 504, 503
233, 503, 504, 388, 294
234, 504, 46, 57, 388
235, 453, 56, 46, 504
236, 182, 484, 506, 505
237, 505, 506, 470, 147
238, 506, 84, 7, 470
239, 484, 87, 84, 506
240, 194, 509, 510, 340
241, 340, 510, 507, 171
242, 510, 508, 169, 507
243, 509, 195, 508, 510
244, 6, 81, 512, 481
245, 481, 512, 511, 156
246, 512, 440, 244, 511
247, 81, 85, 440, 512
248, 268, 515, 516, 513
249, 513, 516, 378, 267
250, 516, 514, 265, 378
251, 515, 266, 514, 516
252, 230, 518, 519, 489
253, 489, 519, 373, 231
254, 519, 517, 262, 373
255, 518, 261, 517, 519
256, 273, 522, 523, 520
257, 520, 523, 515, 268
258, 523, 521, 266, 515
259, 522, 270, 521, 523
260, 228, 526, 527, 524
261, 524, 527, 518, 230
262, 527, 525, 261, 518
263, 526, 256, 525, 527
264, 255, 531, 532, 528
265, 528, 532, 529, 274
266, 532, 530, 157, 529
267, 531, 254, 530, 532
268, 337, 366, 659, 662
269, 430, 458, 192, 638
270, 12, 151, 538, 19
271, 214, 534, 457, 805
272, 212, 23, 16, 386
273, 431, 412, 775, 196
274, 414, 108, 119, 223
275, 354, 224, 460, 338
276, 284, 543, 544, 540
277, 540, 544, 541, 282
278, 544, 542, 290, 541
279, 543, 292, 542, 544
280, 153, 360, 548, 545
281, 545, 548, 546, 215
282, 548, 547, 279, 546
283, 360, 158, 547, 548
284, 266, 550, 551, 514
285, 514, 551, 329, 265
286, 551, 549, 286, 329
287, 550, 288, 549, 551
288, 165, 554, 555, 552
289, 552, 555, 553, 166
290, 555, 402, 176, 553
291, 554, 177, 402, 555
292, 278, 320, 558, 556
293, 556, 558, 557, 220
294, 558, 132, 142, 557
295, 320, 143, 132, 558
296, 236, 405, 562, 559
297, 559, 562, 560, 232
298, 562, 561, 226, 560
299, 405, 238, 561, 562
300, 160, 426, 565, 563
301, 563, 565, 543, 284
302, 565, 564, 292, 543
303, 426, 161, 564, 565
304, 168, 568, 569, 566
305, 566, 569, 567, 170
306, 569, 552, 166, 567
307, 568, 165, 552, 569
308, 143, 318, 570, 133
309, 276, 134, 144, 623
310, 318, 277, 299, 570
311, 167, 762, 830, 313
312, 574, 572, 140, 129
313, 416, 486, 685, 148
314, 262, 517, 577, 423
315, 423, 577, 575, 263
316, 577, 576, 264, 575
317, 517, 261, 576, 577
318, 172, 579, 580, 578
319, 578, 580, 356, 175
320, 580, 553, 176, 356
321, 579, 166, 553, 580
322, 136, 583, 584, 126
323, 126, 584, 581, 137
324, 584, 582, 186, 581
325, 304, 748, 747, 251
326, 248, 308, 702, 245
327, 585, 586, 125, 135
328, 586, 583, 136, 125
329, 829, 246, 647, 799
330, 432, 214, 805, 774
331, 472, 618, 487, 734
332, 589, 509, 194, 428
333, 588, 195, 509, 589
334, 254, 591, 592, 530
335, 530, 592, 590, 157
336, 592, 124, 9, 590
337, 591, 135, 124, 592
338, 140, 572, 594, 130
339, 130, 594, 593, 141
340, 200, 638, 493, 411
341, 827, 594, 572, 225
342, 263, 575, 596, 343
343, 343, 596, 513, 267
344, 596, 595, 268, 513
345, 575, 264, 595, 596
346, 249, 600, 601, 597
347, 597, 601, 598, 239
348, 601, 599, 227, 598
349, 600, 252, 599, 601
350, 178, 604, 605, 602
351, 602, 605, 396, 179
352, 605, 603, 181, 396
353, 604, 187, 603, 605
354, 241, 608, 609, 408
355, 408, 609, 606, 242
356, 609, 607, 249, 606
357, 608, 250, 607, 609
358, 292, 564, 612, 610
359, 610, 612, 611, 293
360, 612, 390, 162, 611
361, 564, 161, 390, 612
362, 261, 525, 615, 576
363, 576, 615, 613, 264
364, 615, 614, 259, 613
365, 525, 256, 614, 615
366, 242, 606, 617, 399
367, 399, 617, 616, 240
368, 617, 597, 239, 616
369, 606, 249, 597, 617
370, 778, 822, 797, 833
371, 807, 777, 793, 311
372, 658, 187, 604, 763
373, 224, 665, 625, 832
374, 805, 457, 154, 537
375, 621, 619, 195, 588
376, 620, 191, 619, 621
377, 622, 693, 300, 758
378, 276, 623, 693, 622
379, 726, 317, 529, 157
380, 818, 664, 364, 473
381, 11, 197, 200, 18
382, 213, 624, 337, 713
383, 18, 200, 411, 10
384, 626, 627, 581, 186
385, 627, 127, 137, 581
386, 764, 717, 838, 571
387, 187, 629, 630, 603
388, 603, 630, 421, 181
389, 630, 628, 180, 421
390, 629, 188, 628, 630
391, 290, 542, 633, 631
392, 631, 633, 632, 289
393, 633, 610, 293, 632
394, 542, 292, 610, 633
395, 142, 131, 636, 557
396, 557, 636, 634, 220
397, 636, 635, 219, 634
398, 131, 141, 635, 636
399, 296, 827, 225, 815
400, 222, 781, 663, 624
401, 774, 805, 537, 218
402, 743, 14, 22, 198
403, 686, 722, 204, 823
404, 338, 199, 637, 723
405, 223, 119, 109, 211
406, 264, 613, 645, 595
407, 595, 645, 520, 268
408, 645, 644, 273, 520
409, 613, 259, 644, 645
410, 244, 441, 649, 646
411, 646, 649, 647, 246
412, 649, 648, 247, 647
413, 441, 243, 648, 649
414, 280, 652, 653, 650
415, 650, 653, 651, 283
416, 653, 464, 159, 651
417, 652, 146, 464, 653
418, 272, 656, 657, 654
419, 654, 657, 528, 274
420, 657, 655, 255, 528
421, 656, 260, 655, 657
422, 761, 188, 629, 306
423, 717, 626, 790, 838
424, 151, 298, 643, 538
425, 643, 820, 458, 430
426, 205, 742, 818, 473
427, 149, 210, 332, 539
428, 366, 815, 798, 659
429, 386, 16, 24, 353
430, 203, 660, 781, 222
431, 640, 203, 222, 474
432, 354, 533, 687, 385
433, 206, 780, 415, 664
434, 364, 149, 539, 722
435, 539, 332, 486, 416
436, 412, 110, 121, 775
437, 10, 411, 113, 1
438, 163, 501, 670, 462
439, 462, 670, 611, 162
440, 670, 669, 293, 611
441, 501, 291, 669, 670
442, 283, 651, 672, 671
443, 671, 672, 563, 284
444, 672, 435, 160, 563
445, 651, 159, 435, 672
446, 276, 622, 757, 726
447, 692, 275, 673, 269
448, 238, 438, 676, 561
449, 561, 676, 675, 226
450, 676, 616, 239, 675
451, 438, 240, 616, 676
452, 178, 602, 678, 677
453, 677, 678, 554, 165
454, 678, 433, 177, 554
455, 602, 179, 433, 678
456, 279, 547, 680, 679
457, 679, 680, 652, 280
458, 680, 449, 146, 652
459, 547, 158, 449, 680
460, 252, 683, 684, 599
461, 599, 684, 681, 227
462, 684, 682, 258, 681
463, 683, 253, 682, 684
464, 428, 429, 814, 536
465, 488, 206, 664, 818
466, 282, 690, 691, 540
467, 540, 691, 671, 284
468, 691, 689, 283, 671
469, 690, 281, 689, 691
470, 317, 817, 275, 692
471, 276, 590, 9, 134
472, 276, 726, 157, 590
473, 183, 695, 696, 694
474, 694, 696, 628, 188
475, 696, 469, 180, 628
476, 695, 147, 469, 696
477, 154, 466, 698, 537
478, 537, 698, 321, 218
479, 698, 697, 216, 321
480, 466, 145, 697, 698
481, 289, 632, 701, 699
482, 699, 701, 700, 287
483, 701, 669, 291, 700
484, 632, 293, 669, 701
485, 241, 480, 704, 608
486, 608, 704, 702, 250
487, 704, 703, 245, 702
488, 480, 156, 703, 704
489, 247, 648, 706, 315
490, 315, 706, 705, 184
491, 706, 483, 182, 705
492, 648, 243, 483, 706
493, 226, 675, 709, 707
494, 707, 709, 708, 229
495, 709, 598, 227, 708
496, 675, 239, 598, 709
497, 145, 478, 711, 697
498, 697, 711, 710, 216
499, 711, 545, 215, 710
500, 478, 153, 545, 711
501, 209, 666, 412, 431
502, 587, 21, 14, 743
503, 538, 643, 430, 197
504, 325, 306, 658, 326
505, 313, 830, 573, 574
506, 793, 190, 733, 819
507, 167, 305, 717, 764
508, 777, 833, 168, 716
509, 762, 796, 325, 327
510, 175, 417, 719, 578
511, 578, 719, 718, 172
512, 719, 497, 173, 718
513, 417, 174, 497, 719
514, 216, 710, 721, 323
515, 323, 721, 634, 219
516, 721, 720, 220, 634
517, 710, 215, 720, 721
518, 663, 296, 815, 366
519, 742, 150, 488, 818
520, 192, 639, 413, 193
521, 429, 107, 118, 814
522, 623, 570, 299, 693
523, 724, 727, 541, 290
524, 727, 725, 282, 541
525, 317, 692, 274, 529
526, 280, 650, 729, 728
527, 728, 729, 301, 277
528, 729, 689, 281, 301
529, 650, 283, 689, 729
530, 234, 444, 731, 491
531, 491, 731, 730, 233
532, 731, 495, 237, 730
533, 444, 235, 495, 731
534, 688, 494, 217, 309
535, 620, 735, 732, 191
536, 735, 733, 190, 732
537, 201, 196, 775, 352
538, 184, 705, 737, 736
539, 736, 737, 695, 183
540, 737, 505, 147, 695
541, 705, 182, 505, 737
542, 171, 507, 739, 380
543, 380, 739, 718, 173
544, 739, 738, 172, 718
545, 507, 169, 738, 739
546, 156, 511, 740, 703
547, 703, 740, 302, 245
548, 740, 646, 246, 302
549, 511, 244, 646, 740
550, 625, 334, 668, 363
551, 827, 221, 593, 594
552, 411, 493, 123, 113
553, 333, 432, 660, 203
554, 210, 208, 209, 332
555, 533, 792, 640, 687
556, 220, 720, 745, 556
557, 556, 745, 744, 278
558, 745, 546, 279, 744
559, 720, 215, 546, 745
560, 253, 683, 748, 746
561, 304, 785, 746, 748
562, 251, 747, 756, 755
563, 683, 252, 747, 748
564, 233, 730, 750, 749
565, 749, 750, 559, 232
566, 750, 367, 236, 559
567, 730, 237, 367, 750
568, 294, 751, 752, 503
569, 503, 752, 476, 295
570, 752, 500, 164, 476
571, 751, 285, 500, 752
572, 166, 579, 754, 567
573, 567, 754, 753, 170
574, 754, 738, 169, 753
575, 579, 172, 738, 754
576, 303, 307, 785, 304
577, 607, 756, 600, 249
578, 756, 747, 252, 600
579, 755, 250, 702, 308
580, 281, 690, 758, 300
581, 726, 757, 817, 317
582, 673, 825, 800, 271
583, 690, 282, 725, 758
584, 232, 759, 760, 749
585, 749, 760, 490, 233
586, 760, 524, 230, 490
587, 759, 228, 524, 760
588, 762, 327, 312, 830
589, 306, 629, 187, 658
590, 796, 761, 306, 325
591, 285, 751, 766, 765
592, 765, 766, 549, 288
593, 766, 387, 286, 549
594, 751, 294, 387, 766
595, 228, 759, 768, 767
596, 767, 768, 707, 229
597, 768, 560, 226, 707
598, 759, 232, 560, 768
599, 195, 619, 770, 508
600, 508, 770, 753, 169
601, 770, 769, 170, 753
602, 619, 191, 769, 770
603, 287, 772, 773, 771
604, 771, 773, 521, 270
605, 773, 550, 266, 521
606, 772, 288, 550, 773
607, 336, 713, 661, 819
608, 152, 733, 735, 641
609, 780, 688, 309, 415
610, 458, 351, 639, 192
611, 288, 772, 776, 765
612, 765, 776, 499, 285
613, 776, 700, 291, 499
614, 772, 287, 700, 776
615, 822, 178, 677, 797
616, 185, 715, 189, 714
617, 571, 838, 183, 694
618, 327, 185, 714, 312
619, 168, 566, 779, 716
620, 716, 779, 732, 190
621, 779, 769, 191, 732
622, 566, 170, 769, 779
623, 475, 813, 221, 741
624, 20, 487, 151, 12
625, 338, 460, 472, 199
626, 202, 384, 534, 214
627, 273, 783, 784, 522
628, 522, 784, 782, 270
629, 784, 674, 271, 782
630, 783, 272, 674, 784
631, 756, 607, 250, 755
632, 307, 586, 585, 785
633, 303, 304, 251, 248
634, 229, 787, 788, 767
635, 767, 788, 526, 228
636, 788, 786, 256, 526
637, 787, 257, 786, 788
638, 167, 313, 139, 128
639, 790, 314, 184, 736
640, 626, 186, 314, 790
641, 332, 209, 431, 486
642, 211, 109, 120, 666
643, 667, 685, 196, 201
644, 185, 326, 789, 715
645, 305, 138, 127, 627
646, 229, 708, 795, 787
647, 787, 795, 794, 257
648, 795, 681, 258, 794
649, 708, 227, 681, 795
650, 327, 325, 326, 185
651, 807, 778, 833, 777
652, 311, 793, 819, 661
653, 305, 627, 626, 717
654, 666, 120, 110, 412
655, 789, 763, 822, 778
656, 313, 574, 129, 139
657, 821, 148, 685, 667
658, 186, 582, 799, 316
659, 316, 799, 647, 247
660, 785, 585, 826, 746
661, 248, 251, 755, 308
662, 270, 782, 801, 771
663, 771, 801, 699, 287
664, 801, 800, 289, 699
665, 782, 271, 800, 801
666, 260, 803, 804, 802
667, 802, 804, 786, 257
668, 804, 614, 256, 786
669, 803, 259, 614, 804
670, 354, 335, 665, 224
671, 150, 641, 155, 488
672, 363, 668, 148, 821
673, 272, 783, 806, 656
674, 656, 806, 803, 260
675, 806, 644, 259, 803
676, 783, 273, 644, 806
677, 833, 797, 568, 168
678, 714, 189, 662, 659
679, 535, 324, 642, 383
680, 383, 152, 641, 150
681, 808, 459, 207, 820
682, 297, 712, 780, 206
683, 838, 790, 736, 183
684, 830, 312, 798, 573
685, 312, 714, 659, 798
686, 258, 809, 810, 794
687, 794, 810, 802, 257
688, 810, 655, 260, 802
689, 809, 255, 655, 810
690, 269, 673, 271, 674
691, 693, 299, 828, 300
692, 275, 724, 825, 673
693, 255, 809, 812, 531
694, 531, 812, 811, 254
695, 812, 682, 253, 811
696, 809, 258, 682, 812
697, 534, 212, 386, 457
698, 620, 621, 297, 155
699, 494, 414, 223, 217
700, 722, 539, 416, 204
701, 473, 364, 722, 686
702, 199, 587, 743, 637
703, 474, 222, 624, 213
704, 278, 744, 816, 319
705, 319, 816, 728, 277
706, 816, 679, 280, 728
707, 744, 279, 679, 816
708, 623, 144, 133, 570
709, 692, 269, 654, 274
710, 167, 128, 138, 305
711, 797, 677, 165, 568
712, 167, 764, 796, 762
713, 715, 807, 311, 189
714, 152, 336, 819, 733
715, 777, 716, 190, 793
716, 820, 207, 351, 458
717, 639, 201, 352, 413
718, 298, 808, 820, 643
719, 587, 734, 13, 21
720, 193, 413, 122, 112
721, 763, 604, 178, 822
722, 764, 571, 761, 796
723, 571, 694, 188, 761
724, 365, 536, 494, 688
725, 832, 625, 363, 459
726, 352, 775, 121, 111
727, 781, 741, 296, 663
728, 221, 813, 824, 593
729, 593, 824, 635, 141
730, 824, 322, 219, 635
731, 813, 218, 322, 824
732, 289, 800, 825, 631
733, 631, 825, 724, 290
734, 757, 725, 727, 817
735, 303, 829, 831, 307
736, 746, 826, 811, 253
737, 826, 591, 254, 811
738, 585, 135, 591, 826
739, 792, 310, 202, 333
740, 493, 193, 112, 123
741, 660, 475, 741, 781
742, 225, 572, 574, 573
743, 277, 301, 828, 299
744, 301, 281, 300, 828
745, 307, 831, 583, 586
746, 303, 302, 246, 829
747, 831, 582, 584, 583
748, 189, 311, 661, 662
749, 829, 799, 582, 831
750, 303, 248, 245, 302
751, 589, 428, 536, 365
752, 383, 642, 336, 152
753, 715, 789, 778, 807
754, 186, 316, 834, 314
755, 314, 834, 315, 184
756, 316, 247, 315, 834
757, 269, 674, 272, 654
758, 622, 758, 725, 757
759, 817, 727, 724, 275
760, 143, 320, 835, 318
761, 318, 835, 319, 277
762, 320, 278, 319, 835
763, 216, 323, 836, 321
764, 321, 836, 322, 218
765, 323, 219, 322, 836
766, 326, 658, 763, 789
*ELSET,ELSET=contact_source
101, 102, 103, 104, 105, 106, 107, 108, 109, 110, 
111, 112, 113, 114, 115, 116, 117, 118, 119, 120, 
121, 122, 
*ELSET,ELSET=contact_drain
39, 40, 41, 42, 43, 44, 45, 46, 47, 48, 
49, 50, 51, 52, 53, 54, 55, 56, 57, 58, 
59, 60, 
*ELSET,ELSET=probe_A
77, 78, 79, 80, 81, 82, 83, 84, 
*ELSET,ELSET=probe_B
17, 18, 19, 20, 21, 22, 
*ELSET,ELSET=walls
1, 2, 3, 4, 5, 6, 7, 8, 9, 10, 
11, 12, 13, 14, 15, 16, 23, 24, 25, 26, 
27, 28, 29, 30, 31, 32, 33, 34, 35, 36, 
37, 38, 61, 62, 63, 64, 65, 66, 67, 68, 
69, 70, 71, 72, 73, 74, 75, 76, 85, 86, 
87, 88, 89, 90, 91, 92, 93, 94, 95, 96, 
97, 98, 99, 100, 123, 124, 125, 126, 127, 128, 
129, 130, 131, 132, 133, 134, 135, 136, 137, 138, 
139, 140, 141, 142, 143, 144, 
*ELSET,ELSET=domain
145, 146, 147, 148, 149, 150, 151, 152, 153, 154, 
155, 156, 157, 158, 159, 160, 161, 162, 163, 164, 
165, 166, 167, 168, 169, 170, 171, 172, 173, 174, 
175, 176, 177, 178, 179, 180, 181, 182, 183, 184, 
185, 186, 187, 188, 189, 190, 191, 192, 193, 194, 
195, 196, 197, 198, 199, 200, 201, 202, 203, 204, 
205, 206, 207, 208, 209, 210, 211, 212, 213, 214, 
215, 216, 217, 218, 219, 220, 221, 222, 223, 224, 
225, 226, 227, 228, 229, 230, 231, 232, 233, 234, 
235, 236, 237, 238, 239, 240, 241, 242, 243, 244, 
245, 246, 247, 248, 249, 250, 251, 252, 253, 254, 
255, 256, 257, 258, 259, 260, 261, 262, 263, 264, 
265, 266, 267, 268, 269, 270, 271, 272, 273, 274, 
275, 276, 277, 278, 279, 280, 281, 282, 283, 284, 
285, 286, 287, 288, 289, 290, 291, 292, 293, 294, 
295, 296, 297, 298, 299, 300, 301, 302, 303, 304, 
305, 306, 307, 308, 309, 310, 311, 312, 313, 314, 
315, 316, 317, 318, 319, 320, 321, 322, 323, 324, 
325, 326, 327, 328, 329, 330, 331, 332, 333, 334, 
335, 336, 337, 338, 339, 340, 341, 342, 343, 344, 
345, 346, 347, 348, 349, 350, 351, 352, 353, 354, 
355, 356, 357, 358, 359, 360, 361, 362, 363, 364, 
365, 366, 367, 368, 369, 370, 371, 372, 373, 374, 
375, 376, 377, 378, 379, 380, 381, 382, 383, 384, 
385, 386, 387, 388, 389, 390, 391, 392, 393, 394, 
395, 396, 397, 398, 399, 400, 401, 402, 403, 404, 
405, 406, 407, 408, 409, 410, 411, 412, 413, 414, 
415, 416, 417, 418, 419, 420, 421, 422, 423, 424, 
425, 426, 427, 428, 429, 430, 431, 432, 433, 434, 
435, 436, 437, 438, 439, 440, 441, 442, 443, 444, 
445, 446, 447, 448, 449, 450, 451, 452, 453, 454, 
455, 456, 457, 458, 459, 460, 461, 462, 463, 464, 
465, 466, 467, 468, 469, 470, 471, 472, 473, 474, 
475, 476, 477, 478, 479, 480, 481, 482, 483, 484, 
485, 486, 487, 488, 489, 490, 491, 492, 493, 494, 
495, 496, 497, 498, 499, 500, 501, 502, 503, 504, 
505, 506, 507, 508, 509, 510, 511, 512, 513, 514, 
515, 516, 517, 518, 519, 520, 521, 522, 523, 524, 
525, 526, 527, 528, 529, 530, 531, 532, 533, 534, 
535, 536, 537, 538, 539, 540, 541, 542, 543, 544, 
545, 546, 547, 548, 549, 550, 551, 552, 553, 554, 
555, 556, 557, 558, 559, 560, 561, 562, 563, 564, 
565, 566, 567, 568, 569, 570, 571, 572, 573, 574, 
575, 576, 577, 578, 579, 580, 581, 582, 583, 584, 
585, 586, 587, 588, 589, 590, 591, 592, 593, 594, 
595, 596, 597, 598, 599, 600, 601, 602, 603, 604, 
605, 606, 607, 608, 609, 610, 611, 612, 613, 614, 
615, 616, 617, 618, 619, 620, 621, 622, 623, 624, 
625, 626, 627, 628, 629, 630, 631, 632, 633, 634, 
635, 636, 637, 638, 639, 640, 641, 642, 643, 644, 
645, 646, 647, 648, 649, 650, 651, 652, 653, 654, 
655, 656, 657, 658, 659, 660, 661, 662, 663, 664, 
665, 666, 667, 668, 669, 670, 671, 672, 673, 674, 
675, 676, 677, 678, 679, 680, 681, 682, 683, 684, 
685, 686, 687, 688, 689, 690, 691, 692, 693, 694, 
695, 696, 697, 698, 699, 700, 701, 702, 703, 704, 
705, 706, 707, 708, 709, 710, 711, 712, 713, 714, 
715, 716, 717, 718, 719, 720, 721, 722, 723, 724, 
725, 726, 727, 728, 729, 730, 731, 732, 733, 734, 
735, 736, 737, 738, 739, 740, 741, 742, 743, 744, 
745, 746, 747, 748, 749, 750, 751, 752, 753, 754, 
755, 756, 757, 758, 759, 760, 761, 762, 763, 764, 
765, 766, 767, 768, 769, 770, 771, 772, 773, 774, 
775, 776, 777, 778, 779, 780, 781, 782, 783, 784, 
785, 786, 787, 788, 789, 790, 791, 792, 793, 794, 
795, 796, 797, 798, 799, 800, 801, 802, 803, 804, 
805, 806, 807, 808, 809, 810, 811, 812, 813, 814, 
815, 816, 817, 818, 819, 820, 821, 822, 823, 824, 
825, 826, 827, 828, 829, 830, 831, 832, 833, 834, 
835, 836, 837, 838, 839, 840, 841, 842, 843, 844, 
845, 846, 847, 848, 849, 850, 851, 852, 853, 854, 
855, 856, 857, 858, 859, 860, 861, 862, 863, 864, 
865, 866, 867, 868, 869, 870, 871, 872, 873, 874, 
875, 876, 877, 878, 879, 880, 881, 882, 883, 884, 
885, 886, 887, 888, 889, 890, 891, 892, 893, 894, 
895, 896, 897, 898, 899, 900, 901, 902, 903, 904, 
905, 906, 907, 908, 909, 910, 
*NSET,NSET=contact_source
1, 8, 103, 104, 105, 106, 107, 108, 109, 110, 
111, 112, 113, 114, 115, 116, 117, 118, 119, 120, 
121, 122, 123, 
*NSET,NSET=contact_drain
4, 5, 45, 46, 47, 48, 49, 50, 51, 52, 
53, 54, 55, 56, 57, 58, 59, 60, 61, 62, 
63, 64, 65, 
*NSET,NSET=probe_A
6, 7, 81, 82, 83, 84, 85, 86, 87, 
*NSET,NSET=probe_B
2, 3, 25, 26, 27, 28, 29, 
*NSET,NSET=walls
1, 2, 3, 4, 5, 6, 7, 8, 9, 10, 
11, 12, 13, 14, 15, 16, 17, 18, 19, 20, 
21, 22, 23, 24, 30, 31, 32, 33, 34, 35, 
36, 37, 38, 39, 40, 41, 42, 43, 44, 66, 
67, 68, 69, 70, 71, 72, 73, 74, 75, 76, 
77, 78, 79, 80, 88, 89, 90, 91, 92, 93, 
94, 95, 96, 97, 98, 99, 100, 101, 102, 124, 
125, 126, 127, 128, 129, 130, 131, 132, 133, 134, 
135, 136, 137, 138, 139, 140, 141, 142, 143, 144, 
*NSET,NSET=domain
1, 2, 3, 4, 5, 6, 7, 8, 9, 10, 
11, 12, 13, 14, 15, 16, 17, 18, 19, 20, 
21, 22, 23, 24, 25, 26, 27, 28, 29, 30, 
31, 32, 33, 34, 35, 36, 37, 38, 39, 40, 
41, 42, 43, 44, 45, 46, 47, 48, 49, 50, 
51, 52, 53, 54, 55, 56, 57, 58, 59, 60, 
61, 62, 63, 64, 65, 66, 67, 68, 69, 70, 
71, 72, 73, 74, 75, 76, 77, 78, 79, 80, 
81, 82, 83, 84, 85, 86, 87, 88, 89, 90, 
91, 92, 93, 94, 95, 96, 97, 98, 99, 100, 
101, 102, 103, 104, 105, 106, 107, 108, 109, 110, 
111, 112, 113, 114, 115, 116, 117, 118, 119, 120, 
121, 122, 123, 124, 125, 126, 127, 128, 129, 130, 
131, 132, 133, 134, 135, 136, 137, 138, 139, 140, 
141, 142, 143, 144, 145, 146, 147, 148, 149, 150, 
151, 152, 153, 154, 155, 156, 157, 158, 159, 160, 
161, 162, 163, 164, 165, 166, 167, 168, 169, 170, 
171, 172, 173, 174, 175, 176, 177, 178, 179, 180, 
181, 182, 183, 184, 185, 186, 187, 188, 189, 190, 
191, 192, 193, 194, 195, 196, 197, 198, 199, 200, 
201, 202, 203, 204, 205, 206, 207, 208, 209, 210, 
211, 212, 213, 214, 215, 216, 217, 218, 219, 220, 
221, 222, 223, 224, 225, 226, 227, 228, 229, 230, 
231, 232, 233, 234, 235, 236, 237, 238, 239, 240, 
241, 242, 243, 244, 245, 246, 247, 248, 249, 250, 
251, 252, 253, 254, 255, 256, 257, 258, 259, 260, 
261, 262, 263, 264, 265, 266, 267, 268, 269, 270, 
271, 272, 273, 274, 275, 276, 277, 278, 279, 280, 
281, 282, 283, 284, 285, 286, 287, 288, 289, 290, 
291, 292, 293, 294, 295, 296, 297, 298, 299, 300, 
301, 302, 303, 304, 305, 306, 307, 308, 309, 310, 
311, 312, 313, 314, 315, 316, 317, 318, 319, 320, 
321, 322, 323, 324, 325, 326, 327, 328, 329, 330, 
331, 332, 333, 334, 335, 336, 337, 338, 339, 340, 
341, 342, 343, 344, 345, 346, 347, 348, 349, 350, 
351, 352, 353, 354, 355, 356, 357, 358, 359, 360, 
361, 362, 363, 364, 365, 366, 367, 368, 369, 370, 
371, 372, 373, 374, 375, 376, 377, 378, 379, 380, 
381, 382, 383, 384, 385, 386, 387, 388, 389, 390, 
391, 392, 393, 394, 395, 396, 397, 398, 399, 400, 
401, 402, 403, 404, 405, 406, 407, 408, 409, 410, 
411, 412, 413, 414, 415, 416, 417, 418, 419, 420, 
421, 422, 423, 424, 425, 426, 427, 428, 429, 430, 
431, 432, 433, 434, 435, 436, 437, 438, 439, 440, 
441, 442, 443, 444, 445, 446, 447, 448, 449, 450, 
451, 452, 453, 454, 455, 456, 457, 458, 459, 460, 
461, 462, 463, 464, 465, 466, 467, 468, 469, 470, 
471, 472, 473, 474, 475, 476, 477, 478, 479, 480, 
481, 482, 483, 484, 485, 486, 487, 488, 489, 490, 
491, 492, 493, 494, 495, 496, 497, 498, 499, 500, 
501, 502, 503, 504, 505, 506, 507, 508, 509, 510, 
511, 512, 513, 514, 515, 516, 517, 518, 519, 520, 
521, 522, 523, 524, 525, 526, 527, 528, 529, 530, 
531, 532, 533, 534, 535, 536, 537, 538, 539, 540, 
541, 542, 543, 544, 545, 546, 547, 548, 549, 550, 
551, 552, 553, 554, 555, 556, 557, 558, 559, 560, 
561, 562, 563, 564, 565, 566, 567, 568, 569, 570, 
571, 572, 573, 574, 575, 576, 577, 578, 579, 580, 
581, 582, 583, 584, 585, 586, 587, 588, 589, 590, 
591, 592, 593, 594, 595, 596, 597, 598, 599, 600, 
601, 602, 603, 604, 605, 606, 607, 608, 609, 610, 
611, 612, 613, 614, 615, 616, 617, 618, 619, 620, 
621, 622, 623, 624, 625, 626, 627, 628, 629, 630, 
631, 632, 633, 634, 635, 636, 637, 638, 639, 640, 
641, 642, 643, 644, 645, 646, 647, 648, 649, 650, 
651, 652, 653, 654, 655, 656, 657, 658, 659, 660, 
661, 662, 663, 664, 665, 666, 667, 668, 669, 670, 
671, 672, 673, 674, 675, 676, 677, 678, 679, 680, 
681, 682, 683, 684, 685, 686, 687, 688, 689, 690, 
691, 692, 693, 694, 695, 696, 697, 698, 699, 700, 
701, 702, 703, 704, 705, 706, 707, 708, 709, 710, 
711, 712, 713, 714, 715, 716, 717, 718, 719, 720, 
721, 722, 723, 724, 725, 726, 727, 728, 729, 730, 
731, 732, 733, 734, 735, 736, 737, 738, 739, 740, 
741, 742, 743, 744, 745, 746, 747, 748, 749, 750, 
751, 752, 753, 754, 755, 756, 757, 758, 759, 760, 
761, 762, 763, 764, 765, 766, 767, 768, 769, 770, 
771, 772, 773, 774, 775, 776, 777, 778, 779, 780, 
781, 782, 783, 784, 785, 786, 787, 788, 789, 790, 
791, 792, 793, 794, 795, 796, 797, 798, 799, 800, 
801, 802, 803, 804, 805, 806, 807, 808, 809, 810, 
811, 812, 813, 814, 815, 816, 817, 818, 819, 820, 
821, 822, 823, 824, 825, 826, 827, 828, 829, 830, 
831, 832, 833, 834, 835, 836, 837, 838, 
