*Heading
 /Users/juliagao/geometry-optimization-net/scripts/../runs/2d/shape_37.inp
*NODE
1, 0, -0.3, 0
2, 0.425, -0.3, 0
3, 0.575, -0.3, 0
4, 1, -0.3, 0
5, 1, 0.3, 0
6, 0.575, 0.3, 0
7, 0.425, 0.3, 0
8, 0, 0.3, 0
9, 0.5961458399, -0.15, 0
10, 0.025854070919435, -0.3, 0
11, 0.077719143173655, -0.3, 0
12, 0.12974405996561, -0.3, 0
13, 0.18209994236216, -0.3, 0
14, 0.23521596076359, -0.3, 0
15, 0.28900575521208, -0.3, 0
16, 0.34335379741067, -0.3, 0
17, 0.39784304831141, -0.3, 0
18, 0.05170814183887, -0.3, 0
19, 0.10373014450844, -0.3, 0
20, 0.15575797542277, -0.3, 0
21, 0.20844190930155, -0.3, 0
22, 0.26199001222563, -0.3, 0
23, 0.31602149819852, -0.3, 0
24, 0.37068609662282, -0.3, 0
25, 0.45071948412433, -0.3, 0
26, 0.50046857160499, -0.3, 0
27, 0.54974908748066, -0.3, 0
28, 0.47643896824867, -0.3, 0
29, 0.52449817496132, -0.3, 0
30, 0.60165276010831, -0.3, 0
31, 0.65523824577608, -0.3, 0
32, 0.70876919455456, -0.3, 0
33, 0.76188828376572, -0.3, 0
34, 0.81494643458036, -0.3, 0
35, 0.86819646338387, -0.3, 0
36, 0.92149472342776, -0.3, 0
37, 0.97404011974533, -0.3, 0
38, 0.62830552021663, -0.3, 0
39, 0.68217097133554, -0.3, 0
40, 0.73536741777359, -0.3, 0
41, 0.78840914975785, -0.3, 0
42, 0.84148371940287, -0.3, 0
43, 0.89490920736487, -0.3, 0
44, 0.94808023949065, -0.3, 0
45, 1, -0.27326387551319, 0
46, 1, -0.21944948118275, 0
47, 1, -0.16485110099136, 0
48, 1, -0.10984024253718, 0
49, 1, -0.05510293064712, 0
50, 1, -0.00040499607652539, 0
51, 1, 0.055074329102725, 0
52, 1, 0.11118045568364, 0
53, 1, 0.16657527718139, 0
54, 1, 0.22050822341141, 0
55, 1, 0.27356226016615, 0
56, 1, -0.24652775102638, 0
57, 1, -0.19237121133911, 0
58, 1, -0.1373309906436, 0
59, 1, -0.082349494430763, 0
60, 1, -0.027856366863478, 0
61, 1, 0.027046374710427, 0
62, 1, 0.083102283495022, 0
63, 1, 0.13925862787227, 0
64, 1, 0.19389192649051, 0
65, 1, 0.2471245203323, 0
66, 0.97392820078788, 0.3, 0
67, 0.92130524996627, 0.3, 0
68, 0.86814014286421, 0.3, 0
69, 0.81483766581646, 0.3, 0
70, 0.76121151646376, 0.3, 0
71, 0.70717760391778, 0.3, 0
72, 0.65334300965061, 0.3, 0
73, 0.60080235006596, 0.3, 0
74, 0.94785640157576, 0.3, 0
75, 0.89475409835678, 0.3, 0
76, 0.84152618737165, 0.3, 0
77, 0.78814914426127, 0.3, 0
78, 0.73427388866626, 0.3, 0
79, 0.68008131916931, 0.3, 0
80, 0.62660470013191, 0.3, 0
81, 0.55024343052805, 0.3, 0
82, 0.500677237505, 0.3, 0
83, 0.45043380697695, 0.3, 0
84, 0.52548686105609, 0.3, 0
85, 0.4758676139539, 0.3, 0
86, 0.39874266676946, 0.3, 0
87, 0.34592797973113, 0.3, 0
88, 0.29277333947847, 0.3, 0
89, 0.23927685970933, 0.3, 0
90, 0.1852998440835, 0.3, 0
91, 0.13129042912287, 0.3, 0
92, 0.078020124704925, 0.3, 0
93, 0.025840706473014, 0.3, 0
94, 0.37248533353892, 0.3, 0
95, 0.31937062592334, 0.3, 0
96, 0.2661760530336, 0.3, 0
97, 0.21237766638507, 0.3, 0
98, 0.15822202178193, 0.3, 0
99, 0.10435883646382, 0.3, 0
100, 0.051681412946028, 0.3, 0
101, 0, 0.27292229491093, 0
102, 0, 0.21852681432138, 0
103, 0, 0.16379119524678, 0
104, 0, 0.1093553330591, 0
105, 0, 0.055606951753765, 0
106, 0, 0.0013636947641772, 0
107, 0, -0.054211761207832, 0
108, 0, -0.11015089399675, 0
109, 0, -0.16556917581521, 0
110, 0, -0.22004367787132, 0
111, 0, -0.27348823461185, 0
112, 0, 0.24584458982186, 0
113, 0, 0.1912090388209, 0
114, 0, 0.13637335167266, 0
115, 0, 0.082337314445533, 0
116, 0, 0.028876589061996, 0
117, 0, -0.026149199533642, 0
118, 0, -0.082274322882023, 0
119, 0, -0.13802746511148, 0
120, 0, -0.19311088651893, 0
121, 0, -0.24697646922371, 0
122, 0.59226097018147, -0.12294568710308, 0
123, 0.56308365493679, -0.07744329836365, 0
124, 0.51444017673649, -0.054944732923619, 0
125, 0.46161456131194, -0.061849103742011, 0
126, 0.41980622157285, -0.096962462264687, 0
127, 0.40385885357237, -0.15094996173, 0
128, 0.42087368686141, -0.20461729576473, 0
129, 0.46306291792547, -0.23876753060661, 0
130, 0.51441460401945, -0.24505914838569, 0
131, 0.56221719400554, -0.22330104562231, 0
132, 0.59211934617274, -0.17753268042917, 0
133, 0.58092030780977, -0.098077690750316, 0
134, 0.54017026200342, -0.062647996128612, 0
135, 0.48758322416274, -0.054659315434666, 0
136, 0.43866085315962, -0.075962634498651, 0
137, 0.40786130379858, -0.12253214430656, 0
138, 0.40842205334433, -0.17928313860025, 0
139, 0.44014624537668, -0.22524327587574, 0
140, 0.48880892129612, -0.24549231535297, 0
141, 0.53899761218972, -0.23788178806756, 0
142, 0.58037711895216, -0.20275927621579, 0
143, 0.22819430613449, 0.028542266733444, 0
144, 0.077443575348309, 0.10944902426924, 0
145, 0.32550024710877, -0.20759067570173, 0
146, 0.1764569468138, -0.084673512659265, 0
147, 0.10348587171446, 0.13683754689729, 0
148, 0.10356005755723, -0.27401975044359, 0
149, 0.44013296365833, -0.27439589306973, 0
150, 0.3320575385258, 0.08842466265039, 0
151, 0.92186070822324, -0.27295872351835, 0
152, 0.64513225949487, -0.12220927184242, 0
153, 0.6927444729778, -0.27306260218064, 0
154, 0.07764341147118, -0.27380329943611, 0
155, 0.73993859231004, -0.069355347097889, 0
156, 0.79189184284539, -0.044517773286853, 0
157, 0.84343956970113, -0.01952991751794, 0
158, 0.79344976253229, -0.27266161765128, 0
159, 0.79327385066991, -0.071483243111917, 0
160, 0.94889304229622, -0.16230395722172, 0
161, 0.80013379790597, -0.15566622429305, 0
162, 0.31807473821012, -0.11932149069024, 0
163, 0.37364123549637, -0.015205441353114, 0
164, 0.051488592496882, 0.082225655468348, 0
165, 0.29673563795355, -0.086505755237509, 0
166, 0.1550346601815, 0.13725676698927, 0
167, 0.15441991543155, 0.10995420895195, 0
168, 0.46563802359612, -0.045752491185965, 0
169, 0.34265905547887, -0.18383334808306, 0
170, 0.38721196424829, 0.14326842117819, 0
171, 0.051787051634078, 0.10935758147816, 0
172, 0.15166345675072, -0.056262129949873, 0
173, 0.15160830291886, -0.084309949144368, 0
174, 0.15733229774484, 0.24587368382849, 0
175, 0.31277211861577, 0.19382025173059, 0
176, 0.18382073124385, 0.24599611645009, 0
177, 0.15680039333785, 0.21878301474958, 0
178, 0.28531310418716, 0.16660425755039, 0
179, 0.35764767743517, 0.090065952955638, 0
180, 0.4913326906286, 0.14405813565879, 0
181, 0.20383362045611, -0.19788619633344, 0
182, 0.12814625191784, -0.1951211658616, 0
183, 0.17688300855224, -0.028291602919186, 0
184, 0.076421309904821, -0.13874236638616, 0
185, 0.59888570196099, 0.19230750313824, 0
186, 0.12676633927952, -0.028145876603051, 0
187, 0.5957094465447, 0.038274444209256, 0
188, 0.41677344386956, 0.19541151956347, 0
189, 0.15564179582816, 0.16448658887158, 0
190, 0.41775204752236, -0.051520985883217, 0
191, 0.59578249876052, 0.013963897407793, 0
192, 0.56591763107053, -0.0056423805394344, 0
193, 0.54729061093999, 0.21945204172486, 0
194, 0.46143526147429, 0.095291843735259, 0
195, 0.23237824703423, 0.13845824076972, 0
196, 0.10154191748383, -0.027949987680321, 0
197, 0.28391790730996, 0.13978819277821, 0
198, 0.12925177497325, 0.13702202597205, 0
199, 0.20752045633706, 0.16510553364977, 0
200, 0.078337453704147, 0.24562229775358, 0
201, 0.25206803495388, 0.0011379094866781, 0
202, 0.21032306745719, 0.24614197912071, 0
203, 0.18070829459238, -0.24977941161327, 0
204, 0.22726230101504, 0.00043630469378878, 0
205, 0.23024162841934, 0.083918424567342, 0
206, 0.15623312228939, 0.19165795365868, 0
207, 0.58696797117434, -0.28290626481168, 0
208, 0.076244274307347, -0.11101892202199, 0
209, 0.025856642758307, -0.24700255404419, 0
210, 0.36963847965016, -0.28032539756112, 0
211, 0.22551429789849, -0.11418499479362, 0
212, 0.25814793676318, 0.13906749151707, 0
213, 0.1294737567424, -0.27428067053248, 0
214, 0.17793984152383, 0.027618060736719, 0
215, 0.10436999352969, 0.21852409349586, 0
216, 0.28251629440322, 0.11284954832057, 0
217, 0.3853351500928, 0.11749221061504, 0
218, 0.026111854796539, 0.16377600181851, 0
219, 0.026125005907887, 0.21840940268638, 0
220, 0.25129615478145, -0.17251846251656, 0
221, 0.05173211994606, -0.27363802757078, 0
222, 0.44359135246513, -0.036544637514804, 0
223, 0.52154109818173, -0.28005379493883, 0
224, 0.53554066960828, -0.28933464421792, 0
225, 0.22710089743451, -0.17110890325338, 0
226, 0.3371570436812, 0.16790914439726, 0
227, 0.45925522009321, 0.071590601511244, 0
228, 0.24946831490057, -0.11502055595842, 0
229, 0.27349304869696, -0.145534349215, 0
230, 0.49442247340274, 0.19494582749539, 0
231, 0.18455700327387, 0.27300525786641, 0
232, 0.37036614580131, 0.273650713916, 0
233, 0.73322330770758, 0.19363852005247, 0
234, 0.73295151221557, 0.14068473148415, 0
235, 0.84081661049731, 0.14004716962434, 0
236, 0.78696057875397, 0.14055188287785, 0
237, 0.94763843562572, 0.13874233059389, 0
238, 0.89442625465305, 0.13933611421838, 0
239, 0.8405241383075, 0.19319178275675, 0
240, 0.89391796317751, 0.192753578485, 0
241, 0.94705993457304, 0.19256203703358, 0
242, 0.94681877569954, 0.24621125238966, 0
243, 0.84066487160291, 0.2465457436567, 0
244, 0.89385153465296, 0.24634052847615, 0
245, 0.78691685949555, 0.19354441976261, 0
246, 0.78722561951716, 0.24675854290885, 0
247, 0.73366282974942, 0.24687337266859, 0
248, 0.67953912156393, 0.19332313022114, 0
249, 0.68017495631036, 0.24666272201039, 0
250, 0.62582165815573, 0.19265175480221, 0
251, 0.62694827169112, 0.24602228891227, 0
252, 0.49228328337814, -0.041173808621873, 0
253, 0.20129697000053, -0.056575591897866, 0
254, 0.37893198858581, 0.039985028997743, 0
255, 0.41123823211388, 0.11856393544549, 0
256, 0.57403307737084, 0.24513030334252, 0
257, 0.62458858101307, 0.14013487160598, 0
258, 0.67883680720586, 0.1403974780929, 0
259, 0.67850899940529, 0.087943822232045, 0
260, 0.62377902794315, 0.088257244322049, 0
261, 0.39263315939232, 0.22125611189174, 0
262, 0.050858639406387, -0.027316591006611, 0
263, 0.67910082770547, 0.035905712178522, 0
264, 0.62374448373451, 0.037266381827678, 0
265, 0.81823113157554, -0.045526254437235, 0
266, 0.84132523607036, 0.087059527265426, 0
267, 0.73306088494073, 0.088102263380801, 0
268, 0.78734897995443, 0.08781015770999, 0
269, 0.89852318077042, -0.18871481646981, 0
270, 0.898524540035, -0.16033122957519, 0
271, 0.89493494657999, 0.085977167190231, 0
272, 0.94802234527931, 0.084667839027726, 0
273, 0.94820586232246, -0.051579327850303, 0
274, 0.81598871938903, 0.008094705643395, 0
275, 0.73873138706098, -0.042952375620602, 0
276, 0.84792982796483, -0.1296757178451, 0
277, 0.7065863474484, 0.035907579569779, 0
278, 0.75364377391012, -0.21385281645815, 0
279, 0.89560380073855, 0.0054792776561749, 0
280, 0.82443863618966, -0.15701072291804, 0
281, 0.73337412412501, 0.06193043322183, 0
282, 0.86846109011748, 0.059941545292119, 0
283, 0.76346577754506, -0.017035182199891, 0
284, 0.74769994182366, -0.1236677117689, 0
285, 0.10177352219769, -0.13918852995557, 0
286, 0.68188674642949, -0.01608156898994, 0
287, 0.62463427881105, -0.013172189921223, 0
288, 0.6842755870147, -0.068415055104106, 0
289, 0.6208899070852, -0.068167607707288, 0
290, 0.69666858709521, -0.12094887829488, 0
291, 0.15381273240954, 0.082559276808129, 0
292, 0.69006790355328, -0.18088809826372, 0
293, 0.77790470491194, -0.18414247958481, 0
294, 0.81475283226401, 0.061076588463519, 0
295, 0.89800239215903, -0.21708587153193, 0
296, 0.80027820144745, -0.21495294991217, 0
297, 0.92234745496896, -0.050179495563769, 0
298, 0.81527077683119, 0.03463024982075, 0
299, 0.81696189543078, -0.018594695523649, 0
300, 0.29815561370156, -0.055605447535712, 0
301, 0.29589591228201, -0.11743429386532, 0
302, 0.30491826240883, 0.059749619724632, 0
303, 0.15224272221066, -0.0003623587269196, 0
304, 0.62452903169951, -0.039312798309017, 0
305, 0.22645024796244, -0.027964325756555, 0
306, 0.30323890954788, 0.032081057592562, 0
307, 0.30986841288288, -0.25489954293594, 0
308, 0.68737712390038, -0.21391124155025, 0
309, 0.70233350862894, -0.24430077661016, 0
310, 0.22919809795365, 0.056358225647167, 0
311, 0.57191427762236, 0.19176452891986, 0
312, 0.59586475538651, 0.063141181419277, 0
313, 0.62218954164306, -0.13595147254791, 0
314, 0.70898314003896, -0.21346398987208, 0
315, 0.61385028958959, -0.27888125568675, 0
316, 0.1800639615041, 0.11027448837411, 0
317, 0.27296918157668, -0.1160652963371, 0
318, 0.20310303080473, 0.027980550595696, 0
319, 0.41314533220709, 0.14396823088952, 0
320, 0.54897931466099, -0.055082222837367, 0
321, 0.57003938137991, 0.1397337986128, 0
322, 0.92360877338513, -0.16130115161743, 0
323, 0.73492180780015, 0.0096932512732765, 0
324, 0.77602922845884, -0.1541970999631, 0
325, 0.45397819130411, 0.026415874457615, 0
326, 0.050951475233656, 0.00030163411201439, 0
327, 0.02608740435271, 0.24567383085364, 0
328, 0.025710500102205, -0.19313294653654, 0
329, 0.23680192530539, 0.24631156704983, 0
330, 0.077560795950789, -0.24755181249176, 0
331, 0.20109508911531, -0.085039488609701, 0
332, 0.30655223022138, 0.08696059373816, 0
333, 0.51611759045491, 0.11826116141813, 0
334, 0.82291532127171, -0.12831801081463, 0
335, 0.87363629558605, -0.1593246351999, 0
336, 0.92352657025295, -0.18942599896684, 0
337, 0.39566374228705, -0.038155501014734, 0
338, 0.36133291977499, 0.14241295368128, 0
339, 0.052126064700376, 0.19113850788443, 0
340, 0.53409462928456, 0.0037116890645488, 0
341, 0.84098723097743, 0.27327045452226, 0
342, 0.89414276397992, 0.27318307680879, 0
343, 0.867293126854, 0.24644067182373, 0
344, 0.86759802552154, 0.27322503683802, 0
345, 0.37601936566121, -0.13326578806068, 0
346, 0.32418784448888, -0.023402639185703, 0
347, 0.05098952069878, -0.13838358328345, 0
348, 0.12703404889771, -0.00035006975702082, 0
349, 0.92311888993156, -0.21751222278483, 0
350, 0.76818286044923, -0.27264132666285, 0
351, 0.86976737405612, -0.020537874988944, 0
352, 0.97405334937431, 0.0015784409013107, 0
353, 0.13089854528316, 0.24577245686609, 0
354, 0.44446022576593, 0.221414268273, 0
355, 0.54379880485015, 0.14167343736661, 0
356, 0.73392412717274, 0.27348989681323, 0
357, 0.70689660667941, 0.24683248890879, 0
358, 0.68028415830675, 0.27338240853695, 0
359, 0.70707661517753, 0.27349174183092, 0
360, 0.44828246215141, 0.27371736511549, 0
361, 0.43521857204474, 0.094634914293043, 0
362, 0.3595308228857, 0.11627060085402, 0
363, 0.15270619147152, -0.16818496328807, 0
364, 0.25784274506525, -0.25230300894973, 0
365, 0.29115957485514, 0.27336189932372, 0
366, 0.36717141151001, -0.25989264602944, 0
367, 0.078250779658793, 0.21843981506072, 0
368, 0.94802313347249, 0.0031331363390975, 0
369, 0.87186331459457, -0.24502514448242, 0
370, 0.76211983707515, 0.009314508365214, 0
371, 0.77333130228308, -0.2440287530199, 0
372, 0.76120227562518, 0.035560014551143, 0
373, 0.92250330991323, -0.2454037113094, 0
374, 0.79031025928602, -0.017750611536419, 0
375, 0.28366869411354, -0.25344656983688, 0
376, 0.076822477175831, 0.054907200367008, 0
377, 0.33549851685056, 0.14150096325596, 0
378, 0.18141332306961, -0.27492270376434, 0
379, 0.44045045646093, -0.056941007859738, 0
380, 0.051401842015389, -0.19340766269146, 0
381, 0.31123415965643, 0.16724074311509, 0
382, 0.81397095237397, 0.24664910145087, 0
383, 0.78757079768962, 0.27339054826666, 0
384, 0.81431098641015, 0.27331817510763, 0
385, 0.77286696513592, -0.12527973353859, 0
386, 0.89534579767565, 0.032423641891734, 0
387, 0.81943892002535, -0.072696175393957, 0
388, 0.077944532189258, 0.16395364117586, 0
389, 0.15353235531078, -0.19592525140801, 0
390, 0.54024605530796, 0.067992369139561, 0
391, 0.67894985785305, -0.24494856650425, 0
392, 0.94877809314168, -0.19016600446287, 0
393, 0.87013407632386, -0.27289739333872, 0
394, 0.94848294512939, -0.21795209415151, 0
395, 0.97381143870673, -0.27293480609121, 0
396, 0.97413832228793, 0.028982439352935, 0
397, 0.84668688487448, -0.1015840048251, 0
398, 0.89596914218689, -0.021623111585095, 0
399, 0.94881660282432, -0.13446596618457, 0
400, 0.41859642401902, 0.22140086046163, 0
401, 0.076160111462798, -0.083233782599089, 0
402, 0.15323247662287, 0.055051018623691, 0
403, 0.23212951227544, -0.25135086579281, 0
404, 0.76044884026724, 0.24684289919285, 0
405, 0.76076631983602, 0.27345548081572, 0
406, 0.20642326910871, -0.2505215921997, 0
407, 0.34874118394993, -0.020174704402261, 0
408, 0.076157843530859, -0.055432858989898, 0
409, 0.052086085609573, 0.16383057936759, 0
410, 0.27333269511619, -0.086153526888076, 0
411, 0.20174097086484, -0.028205205056726, 0
412, 0.54267773091368, 0.11650446302992, 0
413, 0.15781360949906, 0.27294218342985, 0
414, 0.51077728579748, -0.29023478194723, 0
415, 0.076232635602541, -0.027677398501101, 0
416, 0.39124389053413, -0.083365601357271, 0
417, 0.17877261629727, -0.1968415975518, 0
418, 0.5199728480252, -0.043300062200468, 0
419, 0.15174530858773, -0.11234532370912, 0
420, 0.54670096697852, -0.27716965375759, 0
421, 0.46339291349371, 0.1196179483799, 0
422, 0.43148023527676, -0.28632598240064, 0
423, 0.6360046821748, -0.22637494155035, 0
424, 0.63407906033747, -0.16523889850517, 0
425, 0.97334368104129, 0.24638394337878, 0
426, 0.94703414090402, 0.27306584411184, 0
427, 0.97342900342881, 0.27308896343519, 0
428, 0.20569203452017, 0.11070634977198, 0
429, 0.48073834600667, 0.02797453031376, 0
430, 0.47195894297861, 0.24736941000213, 0
431, 0.12919451373266, -0.24851106944711, 0
432, 0.51457679269159, 0.094024246607971, 0
433, 0.22582654942924, -0.056614845410329, 0
434, 0.59527681960707, -0.032525100283036, 0
435, 0.02541965316865, -0.08255580117859, 0
436, 0.56760015856467, 0.039582457725592, 0
437, 0.56700644903206, 0.016306323683752, 0
438, 0.26064094812757, 0.19290274697177, 0
439, 0.02579572614432, 0.082287763010549, 0
440, 0.025417266874287, -0.054668322643129, 0
441, 0.97421653075542, 0.083932870076213, 0
442, 0.94789822856591, 0.11173608730947, 0
443, 0.97397741089344, 0.13872729309023, 0
444, 0.97416961395112, 0.11138349525005, 0
445, 0.97427385800564, -0.19107021630629, 0
446, 0.78830766728642, 0.035161028519653, 0
447, 0.79791338030749, -0.126848153233, 0
448, 0.15539860215264, -0.2745819233587, 0
449, 0.076374347452185, -2.2168082559332e-05, 0
450, 0.97406302254847, -0.05318991412098, 0
451, 0.84209483707645, 0.033989519418463, 0
452, 0.97355624736469, 0.19286860053686, 0
453, 0.94685041941351, 0.21939367934293, 0
454, 0.97338309338374, 0.21967569427709, 0
455, 0.73642414701058, -0.016498750833415, 0
456, 0.82512337189028, -0.1862229677919, 0
457, 0.97437228025149, -0.16345094918115, 0
458, 0.87048253303111, -0.047734833192901, 0
459, 0.84929642327675, -0.18714180307039, 0
460, 0.47751665202231, 0.0078474493993566, 0
461, 0.27544684681396, -0.026720419883846, 0
462, 0.65352166194027, 0.24640220532225, 0
463, 0.62712553049949, 0.2729493542924, 0
464, 0.65361683604971, 0.27322566826339, 0
465, 0.72840983702379, -0.15110407922125, 0
466, 0.89644926153687, -0.048915747086795, 0
467, 0.82206426631745, -0.24448718594659, 0
468, 0.76681309839072, -0.070339604723272, 0
469, 0.89697469984903, -0.076408419887687, 0
470, 0.29828239224079, -0.17665999741178, 0
471, 0.40373210219261, -0.200231890901, 0
472, 0.32084416759082, -0.17976239180756, 0
473, 0.35868564558647, -0.15940600961473, 0
474, 0.30814214043442, 0.11387503014305, 0
475, 0.94733932141512, 0.16568450258272, 0
476, 0.97376059380543, 0.16588745125411, 0
477, 0.92268906745248, -0.077700533656403, 0
478, 0.84539950264507, -0.073928590201603, 0
479, 0.87299844261632, -0.13093029457201, 0
480, 0.48788137230301, 0.095138433203351, 0
481, 0.31433442365254, 0.22037651044866, 0
482, 0.56865953125884, 0.088726125937579, 0
483, 0.10214470754052, -0.16686675179607, 0
484, 0.82423020610538, -0.21554187495792, 0
485, 0.9480800394125, -0.024176388482178, 0
486, 0.87313349394648, -0.21663105864654, 0
487, 0.76538716134634, -0.043632710516303, 0
488, 0.20844283569587, 0.19217062176135, 0
489, 0.92034729186667, 0.2462577392847, 0
490, 0.92062004635305, 0.27314296260358, 0
491, 0.10143220001097, -0.055749029071924, 0
492, 0.5255451210014, -0.029856362025653, 0
493, 0.025594668308956, -0.16570583503137, 0
494, 0.81374007830607, 0.19338795302345, 0
495, 0.78701892287117, 0.2201332385856, 0
496, 0.84052081347989, 0.21984678733277, 0
497, 0.8137912555454, 0.2199988846092, 0
498, 0.94840688296089, -0.079090161491505, 0
499, 0.97428038989673, -0.10817501179086, 0
500, 0.97392989925778, -0.24583979386792, 0
501, 0.84441938887762, -0.046606389318401, 0
502, 0.92187494397115, 0.0043967872135765, 0
503, 0.84442359670059, -0.27280520480298, 0
504, 0.92177164473716, 0.03147957237895, 0
505, 0.73105665681898, -0.21349831848545, 0
506, 0.86920568654419, 0.0064421189064666, 0
507, 0.71199620224539, -0.042579165168835, 0
508, 0.8951428008528, 0.059243142588791, 0
509, 0.77673166291651, -0.21436969234654, 0
510, 0.10264427703871, -0.19442711142393, 0
511, 0.077115844761184, 0.08220762083504, 0
512, 0.10411393833911, 0.19132791535897, 0
513, 0.35352626865439, 0.036816675838448, 0
514, 0.22603734356874, -0.14278988899743, 0
515, 0.47379499251852, 0.27363864282065, 0
516, 0.37644794903741, -0.21736020402557, 0
517, 0.40192162276394, 0.018145453940417, 0
518, 0.36842238132671, 0.24731468210224, 0
519, 0.73343006924164, 0.22023609847379, 0
520, 0.70637883250992, 0.19353974530594, 0
521, 0.67989779655475, 0.21995395903838, 0
522, 0.70665152264183, 0.22015868097006, 0
523, 0.46856710106921, 0.19535992268759, 0
524, 0.46690214872236, 0.16974049437603, 0
525, 0.43298898712436, 0.070356419999388, 0
526, 0.10310174460668, 0.1095642659315, 0
527, 0.59973050625547, 0.21884222809175, 0
528, 0.32831630980798, 0.034164075330703, 0
529, 0.59621246764912, 0.088443727102447, 0
530, 0.025556697272391, 0.028182110350387, 0
531, 0.26463953503508, 0.27325993648321, 0
532, 0.10455306997386, 0.24568918340102, 0
533, 0.076573464292189, 0.027508251135994, 0
534, 0.34048618340968, 0.22070966248563, 0
535, 0.20119759571607, -0.11348739834015, 0
536, 0.87122627172626, -0.075162673571029, 0
537, 0.71792657505964, -0.27280100637906, 0
538, 0.89815344510683, -0.132110167951, 0
539, 0.81437912958913, 0.087484637969341, 0
540, 0.75499721263542, -0.18304072722058, 0
541, 0.39315852505913, -0.17282598353432, 0
542, 0.077054197906242, -0.19385035545527, 0
543, 0.52294706720719, 0.24666111351845, 0
544, 0.73305618470583, 0.16711582974671, 0
545, 0.70590815866533, 0.14058897688067, 0
546, 0.67916692503933, 0.16680083506091, 0
547, 0.70611787647885, 0.16701142132499, 0
548, 0.31594440851239, 0.24692376732982, 0
549, 0.052224319070275, 0.24558455813249, 0
550, 0.25101204364251, -0.027504162916972, 0
551, 0.31762106953693, 0.27346594034636, 0
552, 0.84684611080393, -0.24476458232709, 0
553, 0.025487236256329, 0.00075906364797707, 0
554, 0.050815170767743, -0.082886007131419, 0
555, 0.44630475413091, 0.24750370000846, 0
556, 0.34273911453394, -0.086825590096954, 0
557, 0.5387310355948, 0.045123531794383, 0
558, 0.3263020756681, 0.0059867137043157, 0
559, 0.20256036344403, -0.16996481297109, 0
560, 0.38335385646058, 0.091776601365662, 0
561, 0.25322717966119, 0.029360735127673, 0
562, 0.28109984199065, 0.085720939679031, 0
563, 0.57565053264112, -0.066515015165866, 0
564, 0.39866300099734, -0.10691218949184, 0
565, 0.2881442052674, 0.22004051341221, 0
566, 0.73293943746318, 0.11434889520071, 0
567, 0.70581626172932, 0.088066244000679, 0
568, 0.67859915470869, 0.11411332542857, 0
569, 0.70579111993103, 0.11427544482275, 0
570, 0.051166980482935, -0.16596968151084, 0
571, 0.54610372135409, 0.19317934931848, 0
572, 0.5202660779175, 0.19422677708228, 0
573, 0.22868047504334, -0.19909666210083, 0
574, 0.33023205037977, 0.061538936423539, 0
575, 0.13115010903805, 0.27288815228715, 0
576, 0.20747190685036, -0.27530514440441, 0
577, 0.25690938689764, 0.11198029312267, 0
578, 0.052181738467829, 0.21839449089129, 0
579, 0.45081124831446, 0.0050017622759572, 0
580, 0.45973047384921, -0.28888236560268, 0
581, 0.20167645175167, -0.14182151178759, 0
582, 0.10233833982066, 0.054857564779435, 0
583, 0.28961882596514, 0.24670978029938, 0
584, 0.10270852487975, 0.08224735432049, 0
585, 0.026084836397511, 0.13647274316812, 0
586, 0.23800179950445, 0.27316469475749, 0
587, 0.76007285795835, 0.19363551764244, 0
588, 0.76022530877935, 0.22022141595469, 0
589, 0.59788523253888, -0.084681434207561, 0
590, 0.51076118433435, 0.048256651854035, 0
591, 0.42774893043955, 0.022975286653116, 0
592, 0.3371354625809, -0.25688269806299, 0
593, 0.18233346366042, 0.1918881453069, 0
594, 0.31318511872396, -0.27767267116841, 0
595, 0.051261908396427, 0.055048250102997, 0
596, 0.89596022353511, -0.27293536596401, 0
597, 0.78914177252747, 0.0087713180466801, 0
598, 0.92156456831531, 0.085347513474521, 0
599, 0.71249557134004, -0.068663412758141, 0
600, 0.73266586206293, -0.18200504027323, 0
601, 0.97422349899282, 0.056446954212764, 0
602, 0.84267178745541, 0.007312992410066, 0
603, 0.75997047826171, 0.14067215079821, 0
604, 0.78689959723872, 0.16701401484039, 0
605, 0.7599854946454, 0.16711435679135, 0
606, 0.72577515512751, -0.2439711322061, 0
607, 0.86818083205958, 0.086551753151008, 0
608, 0.92308941586123, -0.10539251635295, 0
609, 0.78773269827027, 0.061490617750251, 0
610, 0.75212297267045, -0.15264290255511, 0
611, 0.23366696803006, -0.27574039104157, 0
612, 0.36406380645879, -0.18911554102172, 0
613, 0.23130512780796, 0.11126935624676, 0
614, 0.17931958816646, 0.082869566923882, 0
615, 0.89760057097033, -0.10413050100125, 0
616, 0.47005939255108, -0.27915754313204, 0
617, 0.48605346968534, -0.29011225010395, 0
618, 0.17774363796244, -0.16900631919835, 0
619, 0.74941431519645, -0.24391818776477, 0
620, 0.68535111862816, -0.042599001058633, 0
621, 0.76972426930995, -0.097407001480707, 0
622, 0.74302960785945, -0.27268268076267, 0
623, 0.70605031808591, 0.061950577815557, 0
624, 0.2796674580197, 0.058311863199637, 0
625, 0.27760194503236, -0.20232936485857, 0
626, 0.9480757947139, 0.057543157738994, 0
627, 0.65543156256587, -0.24580535988677, 0
628, 0.7606046033621, 0.061779200952174, 0
629, 0.29980638632816, -0.025444098553808, 0
630, 0.36308624519532, 0.16856554243894, 0
631, 0.59732621816815, 0.13993092103334, 0
632, 0.51283056614651, 0.070612035086396, 0
633, 0.36604935912283, -0.086173202241166, 0
634, 0.10201054343051, 0.02736862052198, 0
635, 0.25993985705841, -0.27624923754785, 0
636, 0.68161246786003, -0.14912939285163, 0
637, 0.66731747735072, -0.27342898370434, 0
638, 0.52424190470255, 0.27324931762318, 0
639, 0.63638068981597, -0.094624569211128, 0
640, 0.6139730011385, -0.10647171961675, 0
641, 0.92109816780256, 0.1389911477161, 0
642, 0.89470449569218, 0.11266270898478, 0
643, 0.92137918103214, 0.11218506379087, 0
644, 0.5051007924197, 0.0076608511508924, 0
645, 0.49905650478163, 0.27348897057598, 0
646, 0.12738901306194, 0.02733517095161, 0
647, 0.5994792664554, -0.26169539880241, 0
648, 0.42280282968522, -0.22436045957695, 0
649, 0.49695668048476, -0.026459232281738, 0
650, 0.54843357166649, 0.24602411255328, 0
651, 0.36482622337022, 0.19476234842094, 0
652, 0.48584993247253, 0.071755507120862, 0
653, 0.20660306245878, 0.13795977612396, 0
654, 0.28640112460214, -0.27687191315374, 0
655, 0.41716977365446, -0.07678251914102, 0
656, 0.025652930277501, 0.055284424403395, 0
657, 0.15210797300771, -0.14031795721336, 0
658, 0.12671403831503, -0.11185864459292, 0
659, 0.15188621821273, -0.028263788942432, 0
660, 0.40699956569832, 0.068363570666146, 0
661, 0.49594298257972, 0.22089597580767, 0
662, 0.34221676025054, 0.24713126324568, 0
663, 0.13015610753646, 0.19147363245428, 0
664, 0.35123554085532, 0.0091051307376689, 0
665, 0.65269421307466, 0.19301835909669, 0
666, 0.62645532545892, 0.21925284045144, 0
667, 0.65316964713843, 0.21965092252365, 0
668, 0.12749372248172, -0.16747505078846, 0
669, 0.49289717070776, 0.16930989494004, 0
670, 0.3704079244065, -0.047382092587855, 0
671, 0.60044990488425, 0.24561065467937, 0
672, 0.20392440639239, 0.055748223428344, 0
673, 0.89414732493226, 0.16602737038462, 0
674, 0.92051726487505, 0.19258830194909, 0
675, 0.92079104723077, 0.16578803144652, 0
676, 0.8676589159569, 0.13970349124204, 0
677, 0.84105105064001, 0.11354495483716, 0
678, 0.86792054362869, 0.11312631016514, 0
679, 0.025997313116674, 0.27285026881165, 0
680, 0.3015247326369, 0.0037521838400793, 0
681, 0.44732155488666, -0.015773701067336, 0
682, 0.051709838672574, -0.24721468781599, 0
683, 0.23454829623441, 0.19250906078853, 0
684, 0.39898316708854, -0.0082015084327693, 0
685, 0.5013149455959, -0.010229133039468, 0
686, 0.49647222528799, -0.28072535318907, 0
687, 0.12780941640187, 0.054901843390135, 0
688, 0.20236120063912, -6.2270806599301e-06, 0
689, 0.052174548376243, 0.13644685551058, 0
690, 0.21130986956754, 0.27307938809878, 0
691, 0.26191810907563, 0.21972107956602, 0
692, 0.42050420489037, 0.24752293486332, 0
693, 0.59809141523425, 0.16608870097996, 0
694, 0.18157930655637, 0.16476137142533, 0
695, 0.33917942876842, -0.15422318108397, 0
696, 0.43913377871782, 0.14440637104062, 0
697, 0.3096975571849, 0.1406089456389, 0
698, 0.025862358610918, -0.27353222312092, 0
699, 0.64003091780519, -0.19592665090039, 0
700, 0.17656805438823, -0.056449961173279, 0
701, 0.52161438403909, 0.2203035981393, 0
702, 0.42469748808178, -0.00041119064418218, 0
703, 0.35565473374182, 0.063662558893276, 0
704, 0.42138328864568, -0.024256310917758, 0
705, 0.27822811540339, 0.030510495042307, 0
706, 0.48349766374096, 0.049314233732712, 0
707, 0.10381639846935, 0.16409728626643, 0
708, 0.65172287194701, 0.140156155979, 0
709, 0.62517576104483, 0.16634738101951, 0
710, 0.65218931821175, 0.16651982506683, 0
711, 0.3388096604658, 0.19430450775572, 0
712, 0.51891464992611, 0.1684882950243, 0
713, 0.46980214782517, -0.028858842975562, 0
714, 0.34595641039669, -0.052003757161773, 0
715, 0.3665911500813, 0.22101364822074, 0
716, 0.89379384678751, 0.21952497394261, 0
717, 0.92033705496177, 0.21940738883367, 0
718, 0.65499813167743, -0.068547310666307, 0
719, 0.65454302568279, -0.015924585136035, 0
720, 0.65909147226608, -0.042916544265493, 0
721, 0.65112637039359, 0.087815076057274, 0
722, 0.62411245412374, 0.11409971090616, 0
723, 0.65134989640598, 0.11392290477987, 0
724, 0.6786395882936, 0.061880770652219, 0
725, 0.65148228110708, 0.03595113435789, 0
726, 0.62363746798755, 0.062639122526155, 0
727, 0.65112769851368, 0.061828247628883, 0
728, 0.57096254820701, 0.1657748830272, 0
729, 0.27423859908225, -0.056235187880941, 0
730, 0.050811350025099, -0.05507469367107, 0
731, 0.28671584243825, 0.19334478609666, 0
732, 0.38123082707031, 0.066015144325236, 0
733, 0.37642203742761, 0.013230459777675, 0
734, 0.051085867386187, 0.027765701324984, 0
735, 0.1014270372283, -0.083589110927412, 0
736, 0.53039049612231, -0.014181212101606, 0
737, 0.49748135834881, 0.24709735742539, 0
738, 0.26324069663392, 0.24650267284397, 0
739, 0.54944820558559, 0.27288320452948, 0
740, 0.92169263074862, 0.058453455786991, 0
741, 0.84166276055278, 0.060555199089244, 0
742, 0.68007266015076, 0.0099652438804232, 0
743, 0.62412788886761, 0.012086903936875, 0
744, 0.65244813479799, 0.010124933485442, 0
745, 0.86725313134926, 0.19297101454975, 0
746, 0.86719056921465, 0.21968273517259, 0
747, 0.27680553540123, 0.0021969622648689, 0
748, 0.27505924125698, -0.17431360476787, 0
749, 0.10459798607385, 0.27283741669281, 0
750, 0.17860425464869, 0.055324153887334, 0
751, 0.29632730092512, -0.14758838453089, 0
752, 0.25327846452512, -0.20054161989747, 0
753, 0.39081630463064, 0.19514871207883, 0
754, 0.12876343693354, 0.10972476842986, 0
755, 0.92342017365895, -0.13326715322721, 0
756, 0.87377379341014, -0.18796941761559, 0
757, 0.20479455645155, 0.083313641707381, 0
758, 0.50822870205391, 0.027201542968428, 0
759, 0.84853173569051, -0.21611083142419, 0
760, 0.73395790178895, 0.035808554808368, 0
761, 0.12827467788587, 0.082358774111952, 0
762, 0.18082089223851, 0.13756370234871, 0
763, 0.84063332208184, 0.16659201626961, 0
764, 0.86742406511971, 0.16631302890007, 0
765, 0.025440589147081, -0.026835064541969, 0
766, 0.23345814889165, 0.16552683803573, 0
767, 0.54151946769701, 0.091875743704069, 0
768, 0.052057927095733, 0.27280229607751, 0
769, 0.57483624111936, 0.27230144485537, 0
770, 0.57300632579926, 0.21832044195907, 0
771, 0.15270093054004, 0.027412608771689, 0
772, 0.87214595285919, -0.10287546658401, 0
773, 0.97434758139745, -0.13579291118912, 0
774, 0.81391308486444, 0.14033690155402, 0
775, 0.81378710071, 0.16683230273841, 0
776, 0.12701440547971, -0.13971359424, 0
777, 0.050872355988401, -0.11067073180203, 0
778, 0.025448496863444, -0.11038062606395, 0
779, 0.31981363872325, -0.086782550389843, 0
780, 0.4045826820903, 0.043393869214554, 0
781, 0.24957403219137, -0.08578172787784, 0
782, 0.25014037327659, -0.056526049263078, 0
783, 0.78710452199459, 0.11415549493016, 0
784, 0.81410918788889, 0.11389445420297, 0
785, 0.43051051118098, 0.046493878696744, 0
786, 0.33380662603673, 0.1150335302198, 0
787, 0.76024069068114, 0.088019179537407, 0
788, 0.76004552077517, 0.11431032824772, 0
789, 0.39452603027941, 0.24745291281004, 0
790, 0.56095620810932, -0.28716532182982, 0
791, 0.33922836392415, -0.12207207654662, 0
792, 0.59599346713457, -0.0096896002058091, 0
793, 0.026053202551482, 0.10930646667629, 0
794, 0.72232287821825, -0.12213701733296, 0
795, 0.79755021470082, -0.24423599223276, 0
796, 0.97404103707378, -0.025801244959746, 0
797, 0.89708969957074, -0.2452279880455, 0
798, 0.94810648522662, -0.24555553424376, 0
799, 0.92206625580946, -0.022816022924277, 0
800, 0.84894089092089, -0.15822661303917, 0
801, 0.94781092293644, -0.27291420257143, 0
802, 0.076692561145345, -0.166361578087, 0
803, 0.34949715113415, -0.21152637771766, 0
804, 0.10174005919375, -0.00023578543685114, 0
805, 0.1830807065251, 0.21896141659079, 0
806, 0.57244079640935, -0.2714753370475, 0
807, 0.44268696758825, 0.19550091081202, 0
808, 0.1265868905405, -0.083948338571764, 0
809, 0.54494450251845, 0.16728119388592, 0
810, 0.34074071670561, -0.27876296068306, 0
811, 0.94804664842949, 0.030368781250069, 0
812, 0.60086604459241, 0.27264928756894, 0
813, 0.56810335004199, 0.063814540038457, 0
814, 0.17701221974148, -0.14101236357031, 0
815, 0.20937387607311, 0.21917696592828, 0
816, 0.97410725500179, -0.21855007602459, 0
817, 0.70920922540268, -0.016185816684828, 0
818, 0.795546671057, -0.09883271921248, 0
819, 0.66608556122761, -0.21494493776772, 0
820, 0.94864263910685, -0.10671789589019, 0
821, 0.69013415763756, -0.09400183608077, 0
822, 0.6707981669952, -0.12062565893209, 0
823, 0.66287635340449, -0.093837980600568, 0
824, 0.15496229441022, -0.24910964666222, 0
825, 0.23565784908261, 0.21943091997594, 0
826, 0.56930613400271, 0.1140975381883, 0
827, 0.13055688395213, 0.21863841026849, 0
828, 0.12660935193845, -0.056026078823966, 0
829, 0.65861245976273, -0.14967328517726, 0
830, 0.70489417495517, -0.14979917440492, 0
831, 0.62610509232739, -0.25418869031639, 0
832, 0.45678680825732, 0.048610484985616, 0
833, 0.42258278988905, 0.27373750868809, 0
834, 0.59671175612981, 0.11407026769793, 0
835, 0.56334817136841, -0.025667801180252, 0
836, 0.41497393306423, 0.1695906700033, 0
837, 0.39042578333293, -0.14285573236279, 0
838, 0.81886152955446, -0.27271321109146, 0
839, 0.86878544643063, 0.033253608661908, 0
840, 0.077765918484353, 0.13666949554638, 0
841, 0.5175421769786, 0.14312931285101, 0
842, 0.82117445491639, -0.10023540525879, 0
843, 0.80130491236915, -0.18521867213062, 0
844, 0.31831015982259, -0.15038542492695, 0
845, 0.74361021769637, -0.096030004418692, 0
846, 0.71710067254355, -0.094827830658039, 0
847, 0.4738415285796, -0.011048878068807, 0
848, 0.3766428255421, -0.16587808493426, 0
849, 0.32199109483129, -0.054372675399556, 0
850, 0.46519495870672, 0.14446588237856, 0
851, 0.40920475274607, 0.093376808105802, 0
852, 0.64152673512691, -0.27374647963376, 0
853, 0.66989891931321, -0.1813590905468, 0
854, 0.38467187216853, -0.19490759731018, 0
855, 0.10153532307486, -0.1114165754396, 0
856, 0.97416425982604, -0.080636210029761, 0
857, 0.44092897558361, 0.16981439078043, 0
858, 0.10339317976403, -0.24798867309839, 0
859, 0.43724856174752, 0.11932995249519, 0
860, 0.70756287070549, 0.009894027053546, 0
861, 0.71099856755268, -0.18120561909173, 0
862, 0.34402744017488, 0.27356517872395, 0
863, 0.25938893282682, 0.16602797244391, 0
864, 0.39654967640112, 0.27371189431201, 0
865, 0.078314223564217, 0.27277320266572, 0
866, 0.02550688112223, -0.13813121175335, 0
867, 0.53677398108953, 0.023584978574679, 0
868, 0.25001284722703, -0.14399013041732, 0
869, 0.17735438004119, -0.00025733518426196, 0
870, 0.38902466123216, 0.16915018029899, 0
871, 0.48968227572828, 0.11929153706877, 0
872, 0.25567098986437, 0.084712223150791, 0
873, 0.55756925461015, -0.042554059731023, 0
874, 0.58822995592495, -0.052238313541242, 0
875, 0.47023697067798, 0.22125655969824, 0
876, 0.40181424101961, -0.22190805452184, 0
877, 0.17658891978664, -0.11288320646126, 0
878, 0.35886282764473, -0.12632451591731, 0
879, 0.61354513998321, -0.17973976068302, 0
880, 0.59682430913942, -0.20490012141453, 0
881, 0.57665701514651, -0.22579783855207, 0
882, 0.55366082175604, -0.24113157965369, 0
883, 0.52888553482833, -0.25055650180031, 0
884, 0.5037361716355, -0.25409711395134, 0
885, 0.47795536529255, -0.2522712915368, 0
886, 0.61737836842847, -0.20902513231766, 0
887, 0.59280783026794, -0.23017366012537, 0
888, 0.56832857205293, -0.24585501167949, 0
889, 0.54339960340007, -0.25613708588995, 0
890, 0.51820509677151, -0.26153329769229, 0
891, 0.49279515268527, -0.26249498319786, 0
892, 0.46594678200077, -0.25888275864808, 0
893, 0.40037146924022, -0.28264060271382, 0
894, 0.40304665447683, -0.26504977530642, 0
895, 0.025850816317192, -0.22027648220192, 0
896, 0.051687396636579, -0.22065810942896, 0
897, 0.077497334735735, -0.22119085627874, 0
898, 0.10326066116213, -0.22185929124149, 0
899, 0.12895580354292, -0.22264814245281, 0
900, 0.1545625406304, -0.22354318991513, 0
901, 0.18006323678775, -0.22453189192443, 0
902, 0.20543856988893, -0.22560760557391, 0
903, 0.23068057325164, -0.22678029725647, 0
904, 0.2557967036414, -0.22808883627037, 0
905, 0.28085049131589, -0.22961363601072, 0
906, 0.30604106497763, -0.23149173422887, 0
907, 0.33197248603819, -0.2339693787298, 0
908, 0.36078774512919, -0.23767208711894, 0
909, 0.30165138428874, -0.20461290622288, 0
910, 0.12971748998574, 0.16426987523095, 0
911, 0.026128495761739, 0.19110863510439, 0
912, 0.22548170569189, -0.08540885930785, 0
913, 0.25443828408382, 0.057196801166413, 0
914, 0.078109391729037, 0.19121560827935, 0
915, 0.61075035694221, -0.23703505753596, 0
916, 0.58361567275301, -0.25254302883501, 0
917, 0.55783752549443, -0.26287192441438, 0
918, 0.53250995440996, -0.26889934812227, 0
919, 0.50731510377701, -0.27139464584504, 0
920, 0.48137724137903, -0.27060592012925, 0
921, 0.45208045519022, -0.26543102573546, 0
922, 0.448882235729, -0.242444700667, 0
923, 0.43060030066029, -0.24501646968964, 0
924, 0.40488453332565, -0.24603404970512, 0
******* E L E M E N T S *************
*ELEMENT, type=T3D2, ELSET=Line1
1, 1, 10
2, 10, 18
3, 18, 11
4, 11, 19
5, 19, 12
6, 12, 20
7, 20, 13
8, 13, 21
9, 21, 14
10, 14, 22
11, 22, 15
12, 15, 23
13, 23, 16
14, 16, 24
15, 24, 17
16, 17, 2
*ELEMENT, type=T3D2, ELSET=Line2
17, 2, 25
18, 25, 28
19, 28, 26
20, 26, 29
21, 29, 27
22, 27, 3
*ELEMENT, type=T3D2, ELSET=Line3
23, 3, 30
24, 30, 38
25, 38, 31
26, 31, 39
27, 39, 32
28, 32, 40
29, 40, 33
30, 33, 41
31, 41, 34
32, 34, 42
33, 42, 35
34, 35, 43
35, 43, 36
36, 36, 44
37, 44, 37
38, 37, 4
*ELEMENT, type=T3D2, ELSET=Line4
39, 4, 45
40, 45, 56
41, 56, 46
42, 46, 57
43, 57, 47
44, 47, 58
45, 58, 48
46, 48, 59
47, 59, 49
48, 49, 60
49, 60, 50
50, 50, 61
51, 61, 51
52, 51, 62
53, 62, 52
54, 52, 63
55, 63, 53
56, 53, 64
57, 64, 54
58, 54, 65
59, 65, 55
60, 55, 5
*ELEMENT, type=T3D2, ELSET=Line5
61, 5, 66
62, 66, 74
63, 74, 67
64, 67, 75
65, 75, 68
66, 68, 76
67, 76, 69
68, 69, 77
69, 77, 70
70, 70, 78
71, 78, 71
72, 71, 79
73, 79, 72
74, 72, 80
75, 80, 73
76, 73, 6
*ELEMENT, type=T3D2, ELSET=Line6
77, 6, 81
78, 81, 84
79, 84, 82
80, 82, 85
81, 85, 83
82, 83, 7
*ELEMENT, type=T3D2, ELSET=Line7
83, 7, 86
84, 86, 94
85, 94, 87
86, 87, 95
87, 95, 88
88, 88, 96
89, 96, 89
90, 89, 97
91, 97, 90
92, 90, 98
93, 98, 91
94, 91, 99
95, 99, 92
96, 92, 100
97, 100, 93
98, 93, 8
*ELEMENT, type=T3D2, ELSET=Line8
99, 8, 101
100, 101, 112
101, 112, 102
102, 102, 113
103, 113, 103
104, 103, 114
105, 114, 104
106, 104, 115
107, 115, 105
108, 105, 116
109, 116, 106
110, 106, 117
111, 117, 107
112, 107, 118
113, 118, 108
114, 108, 119
115, 119, 109
116, 109, 120
117, 120, 110
118, 110, 121
119, 121, 111
120, 111, 1
*ELEMENT, type=T3D2, ELSET=Line9
121, 9, 122
122, 122, 133
123, 133, 123
124, 123, 134
125, 134, 124
126, 124, 135
127, 135, 125
128, 125, 136
129, 136, 126
130, 126, 137
131, 137, 127
132, 127, 138
133, 138, 128
134, 128, 139
135, 139, 129
136, 129, 140
137, 140, 130
138, 130, 141
139, 141, 131
140, 131, 142
141, 142, 132
142, 132, 9
*ELEMENT, type=CPS4, ELSET=Surface1
143, 416, 190, 704, 337
144, 752, 573, 903, 904
145, 646, 687, 582, 634
146, 243, 343, 344, 341
147, 341, 344, 68, 76
148, 344, 342, 75, 68
149, 343, 244, 342, 344
150, 319, 836, 870, 170
151, 851, 255, 217, 560
152, 705, 624, 913, 561
153, 525, 227, 194, 361
154, 817, 860, 742, 286
155, 477, 297, 466, 469
156, 502, 504, 386, 279
157, 608, 477, 469, 615
158, 201, 561, 143, 204
159, 511, 144, 171, 164
160, 339, 578, 219, 911
161, 541, 471, 128, 138
162, 78, 71, 359, 356
163, 356, 359, 357, 247
164, 359, 358, 249, 357
165, 71, 79, 358, 359
166, 780, 785, 525, 660
167, 579, 460, 429, 325
168, 625, 752, 904, 905
169, 533, 376, 595, 734
170, 195, 766, 199, 653
171, 908, 907, 592, 366
172, 364, 403, 611, 635
173, 209, 121, 111, 698
174, 371, 509, 278, 619
175, 282, 607, 266, 741
176, 508, 271, 607, 282
177, 485, 368, 502, 799
178, 626, 272, 598, 740
179, 395, 500, 798, 801
180, 324, 385, 284, 610
181, 40, 622, 537, 32
182, 918, 223, 420, 917
183, 177, 174, 353, 827
184, 337, 704, 702, 684
185, 649, 492, 736, 685
186, 779, 849, 300, 165
187, 855, 208, 184, 285
188, 766, 683, 488, 199
189, 894, 893, 422, 149
190, 243, 341, 384, 382
191, 382, 384, 383, 246
192, 384, 69, 77, 383
193, 341, 76, 69, 384
194, 445, 457, 160, 392
195, 322, 755, 538, 270
196, 34, 838, 158, 41
197, 797, 295, 486, 369
198, 253, 411, 183, 700
199, 691, 738, 329, 825
200, 517, 780, 254, 733
201, 757, 428, 316, 614
202, 602, 451, 298, 274
203, 811, 626, 740, 504
204, 706, 590, 632, 652
205, 799, 502, 279, 398
206, 619, 278, 505, 606
207, 297, 799, 398, 466
208, 43, 596, 393, 35
209, 796, 352, 368, 485
210, 349, 336, 269, 295
211, 393, 369, 552, 503
212, 308, 819, 627, 391
213, 790, 27, 3, 207
214, 229, 868, 220, 748
215, 909, 625, 905, 906
216, 658, 855, 285, 776
217, 246, 383, 405, 404
218, 404, 405, 356, 247
219, 405, 70, 78, 356
220, 383, 77, 70, 405
221, 403, 406, 576, 611
222, 781, 782, 433, 912
223, 782, 550, 305, 433
224, 212, 863, 766, 195
225, 530, 656, 105, 116
226, 173, 808, 658, 419
227, 481, 548, 583, 565
228, 575, 91, 99, 749
229, 616, 580, 617, 686
230, 205, 613, 428, 757
231, 664, 513, 528, 558
232, 167, 166, 198, 754
233, 305, 204, 688, 411
234, 900, 899, 431, 824
235, 213, 148, 19, 12
236, 199, 488, 593, 694
237, 188, 807, 354, 400
238, 682, 209, 698, 221
239, 729, 461, 550, 782
240, 906, 905, 375, 307
241, 919, 686, 223, 918
242, 762, 694, 189, 166
243, 703, 179, 150, 574
244, 803, 145, 907, 908
245, 152, 829, 636, 822
246, 600, 861, 314, 505
247, 853, 699, 423, 819
248, 168, 125, 135, 252
249, 65, 55, 427, 425
250, 425, 427, 426, 242
251, 427, 66, 74, 426
252, 55, 5, 66, 427
253, 409, 339, 911, 218
254, 841, 355, 809, 712
255, 704, 681, 579, 702
256, 362, 338, 377, 786
257, 638, 739, 81, 84
258, 421, 871, 180, 850
259, 171, 689, 585, 793
260, 252, 135, 124, 418
261, 527, 770, 311, 185
262, 561, 913, 310, 143
263, 491, 196, 415, 408
264, 871, 333, 841, 180
265, 218, 911, 113, 103
266, 812, 769, 256, 671
267, 291, 167, 754, 761
268, 62, 52, 444, 441
269, 441, 444, 442, 272
270, 444, 443, 237, 442
271, 52, 63, 443, 444
272, 299, 274, 597, 374
273, 59, 49, 450, 856
274, 503, 552, 467, 838
275, 352, 396, 811, 368
276, 681, 847, 460, 579
277, 904, 903, 403, 364
278, 614, 316, 167, 291
279, 915, 647, 831, 423
280, 596, 797, 369, 393
281, 159, 156, 487, 468
282, 276, 397, 842, 334
283, 335, 479, 276, 800
284, 64, 54, 454, 452
285, 452, 454, 453, 241
286, 454, 425, 242, 453
287, 54, 65, 425, 454
288, 47, 58, 773, 457
289, 386, 508, 282, 839
290, 798, 394, 349, 373
291, 540, 610, 465, 600
292, 50, 61, 396, 352
293, 741, 266, 539, 294
294, 507, 817, 286, 620
295, 278, 540, 600, 505
296, 146, 700, 172, 173
297, 791, 162, 844, 695
298, 346, 558, 680, 629
299, 363, 668, 182, 389
300, 79, 72, 464, 358
301, 358, 464, 462, 249
302, 464, 463, 251, 462
303, 72, 80, 463, 464
304, 597, 446, 372, 370
305, 499, 856, 498, 820
306, 501, 157, 299, 265
307, 599, 507, 620, 288
308, 143, 310, 672, 318
309, 416, 337, 670, 633
310, 847, 685, 644, 460
311, 361, 194, 421, 859
312, 227, 652, 480, 194
313, 178, 731, 438, 863
314, 228, 211, 514, 868
315, 550, 201, 204, 305
316, 63, 53, 476, 443
317, 443, 476, 475, 237
318, 476, 452, 241, 475
319, 53, 64, 452, 476
320, 387, 265, 156, 159
321, 275, 455, 817, 507
322, 399, 820, 608, 755
323, 456, 280, 161, 843
324, 488, 815, 805, 593
325, 360, 515, 85, 83
326, 149, 422, 580, 616
327, 590, 557, 390, 632
328, 612, 169, 803, 516
329, 514, 581, 559, 225
330, 401, 554, 777, 208
331, 354, 875, 430, 555
332, 372, 628, 281, 760
333, 41, 158, 350, 33
334, 484, 456, 843, 296
335, 820, 498, 477, 608
336, 712, 809, 571, 572
337, 840, 388, 409, 689
338, 417, 389, 900, 901
339, 529, 312, 726, 260
340, 242, 426, 490, 489
341, 489, 490, 342, 244
342, 490, 67, 75, 342
343, 426, 74, 67, 490
344, 182, 510, 898, 899
345, 532, 749, 865, 200
346, 303, 771, 646, 348
347, 739, 769, 6, 81
348, 492, 873, 835, 736
349, 402, 291, 761, 687
350, 584, 526, 144, 511
351, 896, 895, 209, 682
352, 239, 496, 497, 494
353, 494, 497, 495, 245
354, 497, 382, 246, 495
355, 496, 243, 382, 497
356, 816, 445, 392, 394
357, 295, 269, 756, 486
358, 156, 374, 283, 487
359, 536, 458, 501, 478
360, 760, 281, 623, 277
361, 457, 773, 399, 160
362, 265, 299, 374, 156
363, 842, 387, 159, 818
364, 447, 818, 621, 385
365, 279, 386, 839, 506
366, 160, 399, 755, 322
367, 538, 615, 772, 479
368, 296, 843, 293, 509
369, 509, 293, 540, 278
370, 552, 759, 484, 467
371, 487, 283, 455, 275
372, 551, 95, 88, 365
373, 804, 634, 533, 449
374, 850, 180, 669, 524
375, 365, 88, 96, 531
376, 534, 662, 548, 481
377, 560, 217, 362, 179
378, 523, 230, 661, 875
379, 549, 768, 679, 327
380, 247, 357, 522, 519
381, 519, 522, 520, 233
382, 522, 521, 248, 520
383, 357, 249, 521, 522
384, 410, 781, 228, 317
385, 701, 193, 650, 543
386, 848, 473, 612, 854
387, 180, 841, 712, 669
388, 862, 87, 95, 551
389, 714, 407, 346, 849
390, 255, 859, 696, 319
391, 786, 377, 697, 474
392, 355, 321, 728, 809
393, 668, 483, 510, 182
394, 493, 109, 120, 328
395, 645, 638, 84, 82
396, 506, 839, 451, 602
397, 281, 267, 567, 623
398, 334, 842, 818, 447
399, 759, 459, 456, 484
400, 836, 857, 807, 188
401, 217, 170, 338, 362
402, 695, 844, 472, 169
403, 711, 534, 481, 175
404, 233, 520, 547, 544
405, 544, 547, 545, 234
406, 547, 546, 258, 545
407, 520, 248, 546, 547
408, 422, 2, 25, 580
409, 777, 778, 866, 347
410, 559, 618, 417, 181
411, 556, 779, 162, 791
412, 801, 798, 373, 151
413, 459, 800, 280, 456
414, 609, 268, 787, 628
415, 46, 57, 445, 816
416, 400, 354, 555, 692
417, 190, 655, 379, 222
418, 510, 542, 897, 898
419, 878, 791, 695, 473
420, 434, 874, 289, 304
421, 877, 419, 657, 814
422, 666, 527, 185, 250
423, 531, 96, 89, 586
424, 203, 824, 448, 378
425, 366, 592, 810, 210
426, 301, 317, 229, 751
427, 206, 177, 827, 663
428, 781, 912, 211, 228
429, 250, 185, 693, 709
430, 758, 867, 557, 590
431, 528, 574, 302, 306
432, 234, 545, 569, 566
433, 566, 569, 567, 267
434, 569, 568, 259, 567
435, 545, 258, 568, 569
436, 851, 361, 859, 255
437, 220, 225, 573, 752
438, 461, 747, 201, 550
439, 144, 840, 689, 171
440, 863, 438, 683, 766
441, 433, 305, 411, 253
442, 332, 474, 216, 562
443, 815, 202, 176, 805
444, 696, 850, 524, 857
445, 872, 577, 613, 205
446, 591, 325, 832, 785
447, 652, 632, 432, 480
448, 580, 25, 28, 617
449, 345, 878, 473, 848
450, 340, 192, 437, 867
451, 836, 188, 753, 870
452, 578, 549, 327, 219
453, 651, 715, 534, 711
454, 738, 531, 586, 329
455, 380, 328, 895, 896
456, 245, 495, 588, 587
457, 587, 588, 519, 233
458, 588, 404, 247, 519
459, 495, 246, 404, 588
460, 191, 792, 287, 743
461, 751, 229, 748, 470
462, 437, 192, 792, 191
463, 747, 705, 561, 201
464, 654, 635, 22, 15
465, 225, 559, 181, 573
466, 216, 197, 212, 577
467, 583, 365, 531, 738
468, 57, 47, 457, 445
469, 394, 392, 336, 349
470, 44, 801, 151, 36
471, 61, 51, 601, 396
472, 843, 161, 324, 293
473, 157, 602, 274, 299
474, 58, 48, 499, 773
475, 479, 772, 397, 276
476, 236, 604, 605, 603
477, 603, 605, 544, 234
478, 605, 587, 233, 544
479, 604, 245, 587, 605
480, 537, 153, 39, 32
481, 336, 322, 270, 269
482, 283, 370, 323, 455
483, 36, 151, 596, 43
484, 860, 277, 263, 742
485, 621, 468, 155, 845
486, 269, 270, 335, 756
487, 284, 845, 846, 794
488, 570, 493, 328, 380
489, 410, 729, 782, 781
490, 517, 591, 785, 780
491, 916, 806, 647, 915
492, 155, 275, 507, 599
493, 773, 499, 820, 399
494, 385, 621, 845, 284
495, 794, 846, 821, 290
496, 378, 448, 20, 13
497, 753, 261, 715, 651
498, 165, 300, 729, 410
499, 196, 804, 449, 415
500, 391, 627, 852, 637
501, 153, 637, 31, 39
502, 294, 539, 268, 609
503, 610, 284, 794, 465
504, 792, 434, 304, 287
505, 731, 565, 691, 438
506, 713, 649, 685, 847
507, 702, 579, 325, 591
508, 369, 486, 759, 552
509, 273, 485, 799, 297
510, 37, 395, 801, 44
511, 800, 276, 334, 280
512, 472, 470, 909, 145
513, 226, 711, 175, 381
514, 857, 524, 523, 807
515, 835, 873, 874, 434
516, 866, 119, 109, 493
517, 765, 553, 106, 117
518, 713, 168, 252, 649
519, 300, 629, 461, 729
520, 314, 308, 391, 309
521, 636, 292, 861, 830
522, 505, 314, 309, 606
523, 852, 315, 30, 38
524, 564, 837, 127, 137
525, 331, 146, 877, 535
526, 389, 182, 899, 900
527, 893, 210, 24, 17
528, 152, 639, 640, 313
529, 313, 640, 122, 9
530, 640, 589, 133, 122
531, 639, 289, 589, 640
532, 238, 642, 643, 641
533, 641, 643, 442, 237
534, 643, 598, 272, 442
535, 642, 271, 598, 643
536, 215, 532, 200, 367
537, 431, 858, 148, 213
538, 698, 111, 1, 10
539, 687, 761, 584, 582
540, 183, 869, 303, 659
541, 789, 864, 232, 518
542, 318, 672, 750, 214
543, 868, 514, 225, 220
544, 805, 176, 174, 177
545, 917, 420, 806, 916
546, 810, 594, 23, 16
547, 780, 660, 732, 254
548, 316, 762, 166, 167
549, 924, 908, 366, 894
550, 307, 375, 654, 594
551, 824, 431, 213, 448
552, 554, 730, 440, 435
553, 688, 318, 214, 869
554, 577, 212, 195, 613
555, 649, 252, 418, 492
556, 895, 110, 121, 209
557, 875, 661, 737, 430
558, 408, 415, 262, 730
559, 734, 595, 656, 530
560, 689, 409, 218, 585
561, 662, 862, 551, 548
562, 207, 3, 30, 315
563, 806, 790, 207, 647
564, 249, 462, 667, 521
565, 521, 667, 665, 248
566, 667, 666, 250, 665
567, 462, 251, 666, 667
568, 905, 904, 364, 375
569, 833, 7, 86, 864
570, 154, 221, 18, 11
571, 573, 181, 902, 903
572, 897, 896, 682, 330
573, 515, 645, 82, 85
574, 903, 902, 406, 403
575, 224, 29, 27, 790
576, 317, 228, 868, 229
577, 693, 631, 257, 709
578, 388, 914, 339, 409
579, 543, 650, 739, 638
580, 237, 475, 675, 641
581, 641, 675, 673, 238
582, 675, 674, 240, 673
583, 475, 241, 674, 675
584, 235, 677, 678, 676
585, 676, 678, 642, 238
586, 678, 607, 271, 642
587, 677, 266, 607, 678
588, 179, 362, 786, 150
589, 164, 171, 793, 439
590, 659, 303, 348, 186
591, 828, 186, 196, 491
592, 428, 653, 762, 316
593, 865, 92, 100, 768
594, 353, 575, 749, 532
595, 219, 327, 112, 102
596, 785, 832, 227, 525
597, 802, 570, 380, 542
598, 912, 331, 535, 211
599, 483, 802, 542, 510
600, 251, 671, 527, 666
601, 581, 814, 618, 559
602, 255, 319, 170, 217
603, 542, 380, 896, 897
604, 181, 417, 901, 902
605, 338, 630, 226, 377
606, 686, 617, 414, 223
607, 808, 735, 855, 658
608, 576, 378, 13, 21
609, 186, 348, 804, 196
610, 345, 848, 541, 837
611, 653, 199, 694, 762
612, 210, 810, 16, 24
613, 898, 897, 330, 858
614, 684, 702, 591, 517
615, 822, 636, 830, 290
616, 292, 853, 819, 308
617, 375, 364, 635, 654
618, 460, 644, 758, 429
619, 685, 736, 340, 644
620, 418, 124, 134, 320
621, 920, 616, 686, 919
622, 870, 753, 651, 630
623, 618, 363, 389, 417
624, 778, 108, 119, 866
625, 331, 253, 700, 146
626, 683, 825, 815, 488
627, 175, 481, 565, 731
628, 771, 402, 687, 646
629, 248, 665, 710, 546
630, 546, 710, 708, 258
631, 710, 709, 257, 708
632, 665, 250, 709, 710
633, 730, 262, 765, 440
634, 634, 582, 376, 533
635, 231, 90, 98, 413
636, 548, 551, 365, 583
637, 558, 528, 306, 680
638, 169, 472, 145, 803
639, 185, 311, 728, 693
640, 707, 512, 914, 388
641, 241, 453, 717, 674
642, 674, 717, 716, 240
643, 717, 489, 244, 716
644, 453, 242, 489, 717
645, 288, 620, 720, 718
646, 718, 720, 304, 289
647, 720, 719, 287, 304
648, 620, 286, 719, 720
649, 258, 708, 723, 568
650, 568, 723, 721, 259
651, 723, 722, 260, 721
652, 708, 257, 722, 723
653, 260, 726, 727, 721
654, 721, 727, 724, 259
655, 727, 725, 263, 724
656, 726, 264, 725, 727
657, 436, 437, 191, 187
658, 748, 220, 752, 625
659, 415, 449, 326, 262
660, 631, 834, 722, 257
661, 911, 219, 102, 113
662, 367, 200, 549, 578
663, 321, 826, 834, 631
664, 482, 813, 312, 529
665, 854, 612, 516, 876
666, 864, 86, 94, 232
667, 470, 748, 625, 909
668, 306, 302, 624, 705
669, 571, 311, 770, 193
670, 690, 97, 90, 231
671, 648, 922, 129, 139
672, 914, 367, 578, 339
673, 446, 609, 628, 372
674, 392, 160, 322, 336
675, 845, 155, 599, 846
676, 838, 467, 795, 158
677, 264, 743, 744, 725
678, 725, 744, 742, 263
679, 744, 719, 286, 742
680, 743, 287, 719, 744
681, 240, 716, 746, 745
682, 745, 746, 496, 239
683, 746, 343, 243, 496
684, 716, 244, 343, 746
685, 644, 340, 867, 758
686, 647, 207, 315, 831
687, 285, 184, 802, 483
688, 733, 254, 513, 664
689, 377, 226, 381, 697
690, 190, 222, 681, 704
691, 416, 345, 837, 564
692, 173, 172, 828, 808
693, 595, 164, 439, 656
694, 684, 517, 733, 163
695, 663, 827, 215, 512
696, 412, 826, 321, 355
697, 328, 120, 110, 895
698, 680, 306, 705, 747
699, 189, 206, 663, 910
700, 406, 203, 378, 576
701, 174, 413, 575, 353
702, 471, 648, 139, 128
703, 518, 232, 862, 662
704, 728, 321, 631, 693
705, 293, 324, 610, 540
706, 772, 536, 478, 397
707, 323, 760, 277, 860
708, 500, 816, 394, 798
709, 735, 491, 408, 401
710, 492, 418, 320, 873
711, 432, 767, 412, 333
712, 310, 205, 757, 672
713, 819, 423, 831, 627
714, 51, 62, 441, 601
715, 622, 619, 606, 537
716, 350, 371, 619, 622
717, 407, 664, 558, 346
718, 807, 523, 875, 354
719, 564, 137, 126, 655
720, 430, 737, 645, 515
721, 238, 673, 764, 676
722, 676, 764, 763, 235
723, 764, 745, 239, 763
724, 673, 240, 745, 764
725, 553, 530, 116, 106
726, 197, 178, 863, 212
727, 736, 835, 192, 340
728, 901, 900, 824, 203
729, 692, 555, 360, 833
730, 844, 751, 470, 472
731, 679, 93, 8, 101
732, 768, 100, 93, 679
733, 327, 679, 101, 112
734, 211, 535, 581, 514
735, 48, 59, 856, 499
736, 498, 273, 297, 477
737, 373, 349, 295, 797
738, 615, 469, 536, 772
739, 235, 763, 775, 774
740, 774, 775, 604, 236
741, 775, 494, 245, 604
742, 763, 239, 494, 775
743, 848, 854, 471, 541
744, 776, 285, 483, 668
745, 170, 870, 630, 338
746, 670, 163, 407, 714
747, 624, 562, 872, 913
748, 376, 511, 164, 595
749, 661, 701, 543, 737
750, 694, 593, 206, 189
751, 813, 436, 187, 312
752, 449, 533, 734, 326
753, 586, 89, 97, 690
754, 192, 835, 434, 792
755, 347, 866, 493, 570
756, 556, 714, 849, 779
757, 660, 851, 560, 732
758, 632, 390, 767, 432
759, 236, 783, 784, 774
760, 774, 784, 677, 235
761, 784, 539, 266, 677
762, 783, 268, 539, 784
763, 907, 906, 307, 592
764, 222, 379, 168, 713
765, 302, 332, 562, 624
766, 223, 414, 224, 420
767, 268, 783, 788, 787
768, 787, 788, 566, 267
769, 788, 603, 234, 566
770, 783, 236, 603, 788
771, 557, 436, 813, 390
772, 894, 366, 210, 893
773, 910, 663, 512, 707
774, 825, 329, 202, 815
775, 779, 165, 301, 162
776, 435, 118, 108, 778
777, 204, 143, 318, 688
778, 613, 195, 653, 428
779, 351, 506, 602, 157
780, 370, 372, 760, 323
781, 451, 741, 294, 298
782, 274, 298, 446, 597
783, 151, 373, 797, 596
784, 740, 598, 271, 508
785, 486, 756, 459, 759
786, 818, 159, 468, 621
787, 4, 45, 395, 37
788, 396, 601, 626, 811
789, 755, 608, 615, 538
790, 697, 381, 178, 197
791, 162, 301, 751, 844
792, 330, 682, 221, 154
793, 400, 692, 789, 261
794, 562, 216, 577, 872
795, 921, 149, 616, 920
796, 194, 480, 871, 421
797, 150, 786, 474, 332
798, 166, 189, 910, 198
799, 827, 353, 532, 215
800, 474, 697, 197, 216
801, 414, 26, 29, 224
802, 902, 901, 203, 406
803, 524, 669, 230, 523
804, 732, 560, 179, 703
805, 633, 556, 791, 878
806, 473, 695, 169, 612
807, 535, 877, 814, 581
808, 808, 828, 491, 735
809, 455, 323, 860, 817
810, 467, 484, 296, 795
811, 468, 487, 275, 155
812, 60, 50, 352, 796
813, 849, 346, 629, 300
814, 80, 73, 812, 463
815, 913, 872, 205, 310
816, 401, 408, 730, 554
817, 413, 98, 91, 575
818, 657, 776, 668, 363
819, 222, 713, 847, 681
820, 754, 198, 147, 526
821, 846, 599, 288, 821
822, 374, 597, 370, 283
823, 397, 478, 387, 842
824, 158, 795, 371, 350
825, 33, 350, 622, 40
826, 839, 282, 741, 451
827, 161, 447, 385, 324
828, 756, 335, 800, 459
829, 152, 822, 823, 639
830, 639, 823, 718, 289
831, 823, 821, 288, 718
832, 822, 290, 821, 823
833, 554, 435, 778, 777
834, 893, 17, 2, 422
835, 793, 585, 114, 104
836, 924, 894, 149, 921
837, 660, 525, 361, 851
838, 435, 440, 107, 118
839, 187, 191, 743, 264
840, 516, 803, 908, 924
841, 145, 909, 906, 907
842, 672, 757, 614, 750
843, 333, 412, 355, 841
844, 637, 852, 38, 31
845, 424, 699, 853, 829
846, 829, 853, 292, 636
847, 830, 861, 600, 465
848, 858, 330, 154, 148
849, 861, 292, 308, 314
850, 899, 898, 858, 431
851, 700, 183, 659, 172
852, 826, 482, 529, 834
853, 326, 734, 530, 553
854, 312, 187, 264, 726
855, 572, 571, 193, 701
856, 73, 6, 769, 812
857, 594, 654, 15, 23
858, 582, 584, 511, 376
859, 232, 94, 87, 862
860, 208, 777, 347, 184
861, 809, 728, 311, 571
862, 448, 213, 12, 20
863, 611, 576, 21, 14
864, 368, 811, 504, 502
865, 277, 623, 724, 263
866, 469, 466, 458, 536
867, 56, 46, 816, 500
868, 262, 326, 553, 765
869, 390, 813, 482, 767
870, 513, 703, 574, 528
871, 478, 501, 265, 387
872, 466, 398, 351, 458
873, 450, 796, 485, 273
874, 623, 567, 259, 724
875, 463, 812, 671, 251
876, 202, 690, 231, 176
877, 198, 910, 707, 147
878, 565, 583, 738, 691
879, 270, 538, 479, 335
880, 298, 294, 609, 446
881, 601, 441, 272, 626
882, 45, 56, 500, 395
883, 49, 60, 796, 450
884, 398, 279, 506, 351
885, 280, 334, 447, 161
886, 504, 740, 508, 386
887, 692, 833, 864, 789
888, 325, 429, 706, 832
889, 585, 218, 103, 114
890, 146, 173, 419, 877
891, 381, 175, 731, 178
892, 329, 586, 690, 202
893, 655, 126, 136, 379
894, 221, 698, 10, 18
895, 172, 659, 186, 828
896, 188, 400, 261, 753
897, 876, 923, 922, 648
898, 761, 754, 526, 584
899, 912, 433, 253, 331
900, 867, 437, 436, 557
901, 574, 150, 332, 302
902, 617, 28, 26, 414
903, 309, 391, 637, 153
904, 627, 831, 315, 852
905, 148, 154, 11, 19
906, 165, 410, 317, 301
907, 834, 529, 260, 722
908, 290, 830, 465, 794
909, 313, 424, 829, 152
910, 606, 309, 153, 537
911, 833, 360, 83, 7
912, 656, 439, 115, 105
913, 193, 770, 256, 650
914, 671, 256, 770, 527
915, 735, 401, 208, 855
916, 147, 707, 388, 840
917, 458, 351, 157, 501
918, 35, 393, 503, 42
919, 42, 503, 838, 34
920, 176, 231, 413, 174
921, 650, 256, 769, 739
922, 859, 421, 850, 696
923, 629, 680, 747, 461
924, 319, 696, 857, 836
925, 214, 750, 402, 771
926, 715, 518, 662, 534
927, 669, 712, 572, 230
928, 440, 765, 117, 107
929, 856, 450, 273, 498
930, 628, 787, 267, 281
931, 795, 296, 509, 371
932, 767, 482, 826, 412
933, 635, 611, 14, 22
934, 420, 224, 790, 806
935, 416, 564, 655, 190
936, 737, 543, 638, 645
937, 592, 307, 594, 810
938, 814, 657, 363, 618
939, 419, 658, 776, 657
940, 876, 516, 924, 923
941, 254, 732, 703, 513
942, 163, 733, 664, 407
943, 411, 688, 869, 183
944, 563, 874, 873, 320
945, 123, 563, 320, 134
946, 589, 289, 874, 563
947, 133, 589, 563, 123
948, 555, 430, 515, 360
949, 480, 432, 333, 871
950, 348, 646, 634, 804
951, 184, 347, 570, 802
952, 869, 214, 771, 303
953, 230, 572, 701, 661
954, 749, 99, 92, 865
955, 512, 215, 367, 914
956, 832, 706, 652, 227
957, 438, 691, 825, 683
958, 200, 865, 768, 549
959, 429, 758, 590, 706
960, 750, 614, 291, 402
961, 337, 684, 163, 670
962, 630, 651, 711, 226
963, 416, 633, 878, 345
964, 379, 136, 125, 168
965, 633, 670, 714, 556
966, 837, 541, 138, 127
967, 439, 793, 104, 115
968, 854, 876, 648, 471
969, 593, 805, 177, 206
970, 261, 789, 518, 715
971, 526, 147, 840, 144
972, 879, 424, 313, 9
973, 880, 879, 9, 132
974, 881, 880, 132, 142
975, 882, 881, 142, 131
976, 883, 882, 131, 141
977, 884, 883, 141, 130
978, 885, 884, 130, 140
979, 922, 885, 140, 129
980, 886, 699, 424, 879
981, 887, 886, 879, 880
982, 888, 887, 880, 881
983, 889, 888, 881, 882
984, 890, 889, 882, 883
985, 891, 890, 883, 884
986, 892, 891, 884, 885
987, 923, 892, 885, 922
988, 915, 423, 699, 886
989, 916, 915, 886, 887
990, 917, 916, 887, 888
991, 918, 917, 888, 889
992, 919, 918, 889, 890
993, 920, 919, 890, 891
994, 921, 920, 891, 892
995, 924, 921, 892, 923
*ELSET,ELSET=contact_source
99, 100, 101, 102, 103, 104, 105, 106, 107, 108, 
109, 110, 111, 112, 113, 114, 115, 116, 117, 118, 
119, 120, 
*ELSET,ELSET=contact_drain
39, 40, 41, 42, 43, 44, 45, 46, 47, 48, 
49, 50, 51, 52, 53, 54, 55, 56, 57, 58, 
59, 60, 
*ELSET,ELSET=probe_A
77, 78, 79, 80, 81, 82, 
*ELSET,ELSET=probe_B
17, 18, 19, 20, 21, 22, 
*ELSET,ELSET=walls
1, 2, 3, 4, 5, 6, 7, 8, 9, 10, 
11, 12, 13, 14, 15, 16, 23, 24, 25, 26, 
27, 28, 29, 30, 31, 32, 33, 34, 35, 36, 
37, 38, 61, 62, 63, 64, 65, 66, 67, 68, 
69, 70, 71, 72, 73, 74, 75, 76, 83, 84, 
85, 86, 87, 88, 89, 90, 91, 92, 93, 94, 
95, 96, 97, 98, 121, 122, 123, 124, 125, 126, 
127, 128, 129, 130, 131, 132, 133, 134, 135, 136, 
137, 138, 139, 140, 141, 142, 
*ELSET,ELSET=domain
143, 144, 145, 146, 147, 148, 149, 150, 151, 152, 
153, 154, 155, 156, 157, 158, 159, 160, 161, 162, 
163, 164, 165, 166, 167, 168, 169, 170, 171, 172, 
173, 174, 175, 176, 177, 178, 179, 180, 181, 182, 
183, 184, 185, 186, 187, 188, 189, 190, 191, 192, 
193, 194, 195, 196, 197, 198, 199, 200, 201, 202, 
203, 204, 205, 206, 207, 208, 209, 210, 211, 212, 
213, 214, 215, 216, 217, 218, 219, 220, 221, 222, 
223, 224, 225, 226, 227, 228, 229, 230, 231, 232, 
233, 234, 235, 236, 237, 238, 239, 240, 241, 242, 
243, 244, 245, 246, 247, 248, 249, 250, 251, 252, 
253, 254, 255, 256, 257, 258, 259, 260, 261, 262, 
263, 264, 265, 266, 267, 268, 269, 270, 271, 272, 
273, 274, 275, 276, 277, 278, 279, 280, 281, 282, 
283, 284, 285, 286, 287, 288, 289, 290, 291, 292, 
293, 294, 295, 296, 297, 298, 299, 300, 301, 302, 
303, 304, 305, 306, 307, 308, 309, 310, 311, 312, 
313, 314, 315, 316, 317, 318, 319, 320, 321, 322, 
323, 324, 325, 326, 327, 328, 329, 330, 331, 332, 
333, 334, 335, 336, 337, 338, 339, 340, 341, 342, 
343, 344, 345, 346, 347, 348, 349, 350, 351, 352, 
353, 354, 355, 356, 357, 358, 359, 360, 361, 362, 
363, 364, 365, 366, 367, 368, 369, 370, 371, 372, 
373, 374, 375, 376, 377, 378, 379, 380, 381, 382, 
383, 384, 385, 386, 387, 388, 389, 390, 391, 392, 
393, 394, 395, 396, 397, 398, 399, 400, 401, 402, 
403, 404, 405, 406, 407, 408, 409, 410, 411, 412, 
413, 414, 415, 416, 417, 418, 419, 420, 421, 422, 
423, 424, 425, 426, 427, 428, 429, 430, 431, 432, 
433, 434, 435, 436, 437, 438, 439, 440, 441, 442, 
443, 444, 445, 446, 447, 448, 449, 450, 451, 452, 
453, 454, 455, 456, 457, 458, 459, 460, 461, 462, 
463, 464, 465, 466, 467, 468, 469, 470, 471, 472, 
473, 474, 475, 476, 477, 478, 479, 480, 481, 482, 
483, 484, 485, 486, 487, 488, 489, 490, 491, 492, 
493, 494, 495, 496, 497, 498, 499, 500, 501, 502, 
503, 504, 505, 506, 507, 508, 509, 510, 511, 512, 
513, 514, 515, 516, 517, 518, 519, 520, 521, 522, 
523, 524, 525, 526, 527, 528, 529, 530, 531, 532, 
533, 534, 535, 536, 537, 538, 539, 540, 541, 542, 
543, 544, 545, 546, 547, 548, 549, 550, 551, 552, 
553, 554, 555, 556, 557, 558, 559, 560, 561, 562, 
563, 564, 565, 566, 567, 568, 569, 570, 571, 572, 
573, 574, 575, 576, 577, 578, 579, 580, 581, 582, 
583, 584, 585, 586, 587, 588, 589, 590, 591, 592, 
593, 594, 595, 596, 597, 598, 599, 600, 601, 602, 
603, 604, 605, 606, 607, 608, 609, 610, 611, 612, 
613, 614, 615, 616, 617, 618, 619, 620, 621, 622, 
623, 624, 625, 626, 627, 628, 629, 630, 631, 632, 
633, 634, 635, 636, 637, 638, 639, 640, 641, 642, 
643, 644, 645, 646, 647, 648, 649, 650, 651, 652, 
653, 654, 655, 656, 657, 658, 659, 660, 661, 662, 
663, 664, 665, 666, 667, 668, 669, 670, 671, 672, 
673, 674, 675, 676, 677, 678, 679, 680, 681, 682, 
683, 684, 685, 686, 687, 688, 689, 690, 691, 692, 
693, 694, 695, 696, 697, 698, 699, 700, 701, 702, 
703, 704, 705, 706, 707, 708, 709, 710, 711, 712, 
713, 714, 715, 716, 717, 718, 719, 720, 721, 722, 
723, 724, 725, 726, 727, 728, 729, 730, 731, 732, 
733, 734, 735, 736, 737, 738, 739, 740, 741, 742, 
743, 744, 745, 746, 747, 748, 749, 750, 751, 752, 
753, 754, 755, 756, 757, 758, 759, 760, 761, 762, 
763, 764, 765, 766, 767, 768, 769, 770, 771, 772, 
773, 774, 775, 776, 777, 778, 779, 780, 781, 782, 
783, 784, 785, 786, 787, 788, 789, 790, 791, 792, 
793, 794, 795, 796, 797, 798, 799, 800, 801, 802, 
803, 804, 805, 806, 807, 808, 809, 810, 811, 812, 
813, 814, 815, 816, 817, 818, 819, 820, 821, 822, 
823, 824, 825, 826, 827, 828, 829, 830, 831, 832, 
833, 834, 835, 836, 837, 838, 839, 840, 841, 842, 
843, 844, 845, 846, 847, 848, 849, 850, 851, 852, 
853, 854, 855, 856, 857, 858, 859, 860, 861, 862, 
863, 864, 865, 866, 867, 868, 869, 870, 871, 872, 
873, 874, 875, 876, 877, 878, 879, 880, 881, 882, 
883, 884, 885, 886, 887, 888, 889, 890, 891, 892, 
893, 894, 895, 896, 897, 898, 899, 900, 901, 902, 
903, 904, 905, 906, 907, 908, 909, 910, 911, 912, 
913, 914, 915, 916, 917, 918, 919, 920, 921, 922, 
923, 924, 925, 926, 927, 928, 929, 930, 931, 932, 
933, 934, 935, 936, 937, 938, 939, 940, 941, 942, 
943, 944, 945, 946, 947, 948, 949, 950, 951, 952, 
953, 954, 955, 956, 957, 958, 959, 960, 961, 962, 
963, 964, 965, 966, 967, 968, 969, 970, 971, 972, 
973, 974, 975, 976, 977, 978, 979, 980, 981, 982, 
983, 984, 985, 986, 987, 988, 989, 990, 991, 992, 
993, 994, 995, 
*NSET,NSET=contact_source
1, 8, 101, 102, 103, 104, 105, 106, 107, 108, 
109, 110, 111, 112, 113, 114, 115, 116, 117, 118, 
119, 120, 121, 
*NSET,NSET=contact_drain
4, 5, 45, 46, 47, 48, 49, 50, 51, 52, 
53, 54, 55, 56, 57, 58, 59, 60, 61, 62, 
63, 64, 65, 
*NSET,NSET=probe_A
6, 7, 81, 82, 83, 84, 85, 
*NSET,NSET=probe_B
2, 3, 25, 26, 27, 28, 29, 
*NSET,NSET=walls
1, 2, 3, 4, 5, 6, 7, 8, 9, 10, 
11, 12, 13, 14, 15, 16, 17, 18, 19, 20, 
21, 22, 23, 24, 30, 31, 32, 33, 34, 35, 
36, 37, 38, 39, 40, 41, 42, 43, 44, 66, 
67, 68, 69, 70, 71, 72, 73, 74, 75, 76, 
77, 78, 79, 80, 86, 87, 88, 89, 90, 91, 
92, 93, 94, 95, 96, 97, 98, 99, 100, 122, 
123, 124, 125, 126, 127, 128, 129, 130, 131, 132, 
133, 134, 135, 136, 137, 138, 139, 140, 141, 142, 
*NSET,NSET=domain
1, 2, 3, 4, 5, 6, 7, 8, 9, 10, 
11, 12, 13, 14, 15, 16, 17, 18, 19, 20, 
21, 22, 23, 24, 25, 26, 27, 28, 29, 30, 
31, 32, 33, 34, 35, 36, 37, 38, 39, 40, 
41, 42, 43, 44, 45, 46, 47, 48, 49, 50, 
51, 52, 53, 54, 55, 56, 57, 58, 59, 60, 
61, 62, 63, 64, 65, 66, 67, 68, 69, 70, 
71, 72, 73, 74, 75, 76, 77, 78, 79, 80, 
81, 82, 83, 84, 85, 86, 87, 88, 89, 90, 
91, 92, 93, 94, 95, 96, 97, 98, 99, 100, 
101, 102, 103, 104, 105, 106, 107, 108, 109, 110, 
111, 112, 113, 114, 115, 116, 117, 118, 119, 120, 
121, 122, 123, 124, 125, 126, 127, 128, 129, 130, 
131, 132, 133, 134, 135, 136, 137, 138, 139, 140, 
141, 142, 143, 144, 145, 146, 147, 148, 149, 150, 
151, 152, 153, 154, 155, 156, 157, 158, 159, 160, 
161, 162, 163, 164, 165, 166, 167, 168, 169, 170, 
171, 172, 173, 174, 175, 176, 177, 178, 179, 180, 
181, 182, 183, 184, 185, 186, 187, 188, 189, 190, 
191, 192, 193, 194, 195, 196, 197, 198, 199, 200, 
201, 202, 203, 204, 205, 206, 207, 208, 209, 210, 
211, 212, 213, 214, 215, 216, 217, 218, 219, 220, 
221, 222, 223, 224, 225, 226, 227, 228, 229, 230, 
231, 232, 233, 234, 235, 236, 237, 238, 239, 240, 
241, 242, 243, 244, 245, 246, 247, 248, 249, 250, 
251, 252, 253, 254, 255, 256, 257, 258, 259, 260, 
261, 262, 263, 264, 265, 266, 267, 268, 269, 270, 
271, 272, 273, 274, 275, 276, 277, 278, 279, 280, 
281, 282, 283, 284, 285, 286, 287, 288, 289, 290, 
291, 292, 293, 294, 295, 296, 297, 298, 299, 300, 
301, 302, 303, 304, 305, 306, 307, 308, 309, 310, 
311, 312, 313, 314, 315, 316, 317, 318, 319, 320, 
321, 322, 323, 324, 325, 326, 327, 328, 329, 330, 
331, 332, 333, 334, 335, 336, 337, 338, 339, 340, 
341, 342, 343, 344, 345, 346, 347, 348, 349, 350, 
351, 352, 353, 354, 355, 356, 357, 358, 359, 360, 
361, 362, 363, 364, 365, 366, 367, 368, 369, 370, 
371, 372, 373, 374, 375, 376, 377, 378, 379, 380, 
381, 382, 383, 384, 385, 386, 387, 388, 389, 390, 
391, 392, 393, 394, 395, 396, 397, 398, 399, 400, 
401, 402, 403, 404, 405, 406, 407, 408, 409, 410, 
411, 412, 413, 414, 415, 416, 417, 418, 419, 420, 
421, 422, 423, 424, 425, 426, 427, 428, 429, 430, 
431, 432, 433, 434, 435, 436, 437, 438, 439, 440, 
441, 442, 443, 444, 445, 446, 447, 448, 449, 450, 
451, 452, 453, 454, 455, 456, 457, 458, 459, 460, 
461, 462, 463, 464, 465, 466, 467, 468, 469, 470, 
471, 472, 473, 474, 475, 476, 477, 478, 479, 480, 
481, 482, 483, 484, 485, 486, 487, 488, 489, 490, 
491, 492, 493, 494, 495, 496, 497, 498, 499, 500, 
501, 502, 503, 504, 505, 506, 507, 508, 509, 510, 
511, 512, 513, 514, 515, 516, 517, 518, 519, 520, 
521, 522, 523, 524, 525, 526, 527, 528, 529, 530, 
531, 532, 533, 534, 535, 536, 537, 538, 539, 540, 
541, 542, 543, 544, 545, 546, 547, 548, 549, 550, 
551, 552, 553, 554, 555, 556, 557, 558, 559, 560, 
561, 562, 563, 564, 565, 566, 567, 568, 569, 570, 
571, 572, 573, 574, 575, 576, 577, 578, 579, 580, 
581, 582, 583, 584, 585, 586, 587, 588, 589, 590, 
591, 592, 593, 594, 595, 596, 597, 598, 599, 600, 
601, 602, 603, 604, 605, 606, 607, 608, 609, 610, 
611, 612, 613, 614, 615, 616, 617, 618, 619, 620, 
621, 622, 623, 624, 625, 626, 627, 628, 629, 630, 
631, 632, 633, 634, 635, 636, 637, 638, 639, 640, 
641, 642, 643, 644, 645, 646, 647, 648, 649, 650, 
651, 652, 653, 654, 655, 656, 657, 658, 659, 660, 
661, 662, 663, 664, 665, 666, 667, 668, 669, 670, 
671, 672, 673, 674, 675, 676, 677, 678, 679, 680, 
681, 682, 683, 684, 685, 686, 687, 688, 689, 690, 
691, 692, 693, 694, 695, 696, 697, 698, 699, 700, 
701, 702, 703, 704, 705, 706, 707, 708, 709, 710, 
711, 712, 713, 714, 715, 716, 717, 718, 719, 720, 
721, 722, 723, 724, 725, 726, 727, 728, 729, 730, 
731, 732, 733, 734, 735, 736, 737, 738, 739, 740, 
741, 742, 743, 744, 745, 746, 747, 748, 749, 750, 
751, 752, 753, 754, 755, 756, 757, 758, 759, 760, 
761, 762, 763, 764, 765, 766, 767, 768, 769, 770, 
771, 772, 773, 774, 775, 776, 777, 778, 779, 780, 
781, 782, 783, 784, 785, 786, 787, 788, 789, 790, 
791, 792, 793, 794, 795, 796, 797, 798, 799, 800, 
801, 802, 803, 804, 805, 806, 807, 808, 809, 810, 
811, 812, 813, 814, 815, 816, 817, 818, 819, 820, 
821, 822, 823, 824, 825, 826, 827, 828, 829, 830, 
831, 832, 833, 834, 835, 836, 837, 838, 839, 840, 
841, 842, 843, 844, 845, 846, 847, 848, 849, 850, 
851, 852, 853, 854, 855, 856, 857, 858, 859, 860, 
861, 862, 863, 864, 865, 866, 867, 868, 869, 870, 
871, 872, 873, 874, 875, 876, 877, 878, 879, 880, 
881, 882, 883, 884, 885, 886, 887, 888, 889, 890, 
891, 892, 893, 894, 895, 896, 897, 898, 899, 900, 
901, 902, 903, 904, 905, 906, 907, 908, 909, 910, 
911, 912, 913, 914, 915, 916, 917, 918, 919, 920, 
921, 922, 923, 924, 
