*Heading
 /Users/juliagao/geometry-optimization-net/scripts/../runs/2d/shape_40.inp
*NODE
1, 0, -0.3, 0
2, 0.425, -0.3, 0
3, 0.575, -0.3, 0
4, 1, -0.3, 0
5, 1, 0.3, 0
6, 0.575, 0.3, 0
7, 0.425, 0.3, 0
8, 0, 0.3, 0
9, 0.5977773009, -0.1495994047, 0
10, 0.02604376518787, -0.3, 0
11, 0.079076078065141, -0.3, 0
12, 0.13307550839678, -0.3, 0
13, 0.18651788399428, -0.3, 0
14, 0.23938345292263, -0.3, 0
15, 0.29250447155164, -0.3, 0
16, 0.34593142606344, -0.3, 0
17, 0.39883571895966, -0.3, 0
18, 0.05208753037574, -0.3, 0
19, 0.10606462575454, -0.3, 0
20, 0.16008639103902, -0.3, 0
21, 0.21294937694954, -0.3, 0
22, 0.26581752889573, -0.3, 0
23, 0.31919141420756, -0.3, 0
24, 0.37267143791931, -0.3, 0
25, 0.45077009180353, -0.3, 0
26, 0.50080760375685, -0.3, 0
27, 0.55003751195332, -0.3, 0
28, 0.47654018360705, -0.3, 0
29, 0.52507502390664, -0.3, 0
30, 0.60067988862264, -0.3, 0
31, 0.65321726942922, -0.3, 0
32, 0.70737647812242, -0.3, 0
33, 0.76218436474281, -0.3, 0
34, 0.81750629648009, -0.3, 0
35, 0.87236682560118, -0.3, 0
36, 0.92497883495084, -0.3, 0
37, 0.97527303840278, -0.3, 0
38, 0.62635977724527, -0.3, 0
39, 0.68007476161316, -0.3, 0
40, 0.73467819463168, -0.3, 0
41, 0.78969053485394, -0.3, 0
42, 0.84532205810624, -0.3, 0
43, 0.89941159309611, -0.3, 0
44, 0.95054607680557, -0.3, 0
45, 1, -0.27406971654802, 0
46, 1, -0.22066622603645, 0
47, 1, -0.16476393017835, 0
48, 1, -0.10837462020923, 0
49, 1, -0.05325291221431, 0
50, 1, 0.0010735772880859, 0
51, 1, 0.055658575117467, 0
52, 1, 0.11064486538677, 0
53, 1, 0.16620795867442, 0
54, 1, 0.22130174175166, 0
55, 1, 0.27419936332963, 0
56, 1, -0.24813943309605, 0
57, 1, -0.19319301897685, 0
58, 1, -0.13633484137985, 0
59, 1, -0.080414399038622, 0
60, 1, -0.026091425389999, 0
61, 1, 0.028238579966171, 0
62, 1, 0.083078570268763, 0
63, 1, 0.13821116050478, 0
64, 1, 0.19420475684406, 0
65, 1, 0.24839872665925, 0
66, 0.97499573226696, 0.3, 0
67, 0.92427202363679, 0.3, 0
68, 0.87189301861386, 0.3, 0
69, 0.81783230014991, 0.3, 0
70, 0.76236359733793, 0.3, 0
71, 0.70649294833022, 0.3, 0
72, 0.6519980746421, 0.3, 0
73, 0.60015315074392, 0.3, 0
74, 0.94999146453391, 0.3, 0
75, 0.89855258273967, 0.3, 0
76, 0.84523345448805, 0.3, 0
77, 0.79043114581177, 0.3, 0
78, 0.73429604886409, 0.3, 0
79, 0.67868984779636, 0.3, 0
80, 0.62530630148785, 0.3, 0
81, 0.55637914218013, 0.3, 0
82, 0.51939523309967, 0.3, 0
83, 0.48237095906799, 0.3, 0
84, 0.44435486814845, 0.3, 0
85, 0.53775828436026, 0.3, 0
86, 0.50103218183907, 0.3, 0
87, 0.46370973629691, 0.3, 0
88, 0.39875146554451, 0.3, 0
89, 0.34542525333497, 0.3, 0
90, 0.29125889228615, 0.3, 0
91, 0.23766053686345, 0.3, 0
92, 0.18499793423881, 0.3, 0
93, 0.13255561895341, 0.3, 0
94, 0.07970207473275, 0.3, 0
95, 0.026568957650393, 0.3, 0
96, 0.37250293108901, 0.3, 0
97, 0.31834757558093, 0.3, 0
98, 0.26417020899138, 0.3, 0
99, 0.21115086473551, 0.3, 0
100, 0.15884500374211, 0.3, 0
101, 0.10626623416471, 0.3, 0
102, 0.053137915300786, 0.3, 0
103, 0, 0.27321855306861, 0
104, 0, 0.21915010237602, 0
105, 0, 0.1641585309549, 0
106, 0, 0.10874926113682, 0
107, 0, 0.053482055557312, 0
108, 0, -0.0016637217309494, 0
109, 0, -0.05674922905731, 0
110, 0, -0.11158809317752, 0
111, 0, -0.16614640859297, 0
112, 0, -0.22026985312634, 0
113, 0, -0.27358580645251, 0
114, 0, 0.24643710613722, 0
115, 0, 0.19186309861482, 0
116, 0, 0.13645396329498, 0
117, 0, 0.081044558978665, 0
118, 0, 0.02591955213596, 0
119, 0, -0.029246995597858, 0
120, 0, -0.084251462516761, 0
121, 0, -0.13892472383827, 0
122, 0, -0.19336809334766, 0
123, 0, -0.24717161290501, 0
124, 0.59369685277851, -0.12164765647004, 0
125, 0.56259290057713, -0.074482633746309, 0
126, 0.50988261379074, -0.052322817586011, 0
127, 0.45388794306444, -0.063378301412467, 0
128, 0.41371847384645, -0.1036005058877, 0
129, 0.40265645393548, -0.15879910567531, 0
130, 0.42279787263809, -0.20960133848488, 0
131, 0.46497486202685, -0.24088817835927, 0
132, 0.51598474674775, -0.2460612541929, 0
133, 0.56361449097742, -0.2238530046142, 0
134, 0.59366314328772, -0.17766390255132, 0
135, 0.58179608270419, -0.096028877704581, 0
136, 0.53793596896456, -0.059481355507966, 0
137, 0.48096277397465, -0.053693280910746, 0
138, 0.4308011844933, -0.080520287020424, 0
139, 0.40407692058548, -0.13064779769392, 0
140, 0.40932568839171, -0.18618587369998, 0
141, 0.44216320803059, -0.22843661704742, 0
142, 0.49026093709511, -0.24689046852946, 0
143, 0.540601034027, -0.23854858455474, 0
144, 0.5816668949038, -0.203366670006, 0
145, 0.59786134666993, 0.240301863476, 0
146, 0.58310356038688, -0.25925303197126, 0
147, 0.40678295304632, 0.2383603149844, 0
148, 0.053213168536492, -0.13631739261031, 0
149, 0.36205657239059, -0.19338753042567, 0
150, 0.1597801851611, -0.27269903219425, 0
151, 0.31870084882053, 0.15134285355206, 0
152, 0.36585323581042, 0.064764515049207, 0
153, 0.18894983979273, 0.13358687732164, 0
154, 0.23959094128891, -0.2727122065926, 0
155, 0.65406372821992, -0.14355542409966, 0
156, 0.6325895395177, -0.24351377873786, 0
157, 0.68132408400748, -0.24159232926057, 0
158, 0.94488030370809, -0.137514964841, 0
159, 0.78512527104429, -0.24431123687444, 0
160, 0.73265638789819, -0.24353996168565, 0
161, 0.83842699081957, -0.24480880120923, 0
162, 0.94515426047638, -0.1902171935319, 0
163, 0.94580423587596, -0.24390709093528, 0
164, 0.89213719861414, -0.24431720519979, 0
165, 0.38843318321842, -0.049692540356042, 0
166, 0.026914317343499, 0.27270264968297, 0
167, 0.23660749837442, -0.19028774170985, 0
168, 0.35783916276506, -0.13108574951822, 0
169, 0.10611465274201, -0.16263028058003, 0
170, 0.39794889348477, -0.21929110202456, 0
171, 0.24662565367034, 0.0013034463461633, 0
172, 0.23783047939379, 0.27202851908443, 0
173, 0.10651140979288, -0.21788263292644, 0
174, 0.2903952287381, 0.1835459070061, 0
175, 0.27335077646387, -0.024369892415661, 0
176, 0.26611429585295, -0.24600244124284, 0
177, 0.13327200430385, 0.24451278591462, 0
178, 0.13319377210468, -0.27281867300223, 0
179, 0.40396597868344, -0.074427714844677, 0
180, 0.30656795091841, 0.048299605924407, 0
181, 0.21502602474608, -0.050999384128258, 0
182, 0.45350622273197, 0.23625627260469, 0
183, 0.49992427609785, 0.23643058345522, 0
184, 0.4070796227558, 0.17701907523737, 0
185, 0.67200683597497, 0.21193809825209, 0
186, 0.45576504522055, 0.17859436062968, 0
187, 0.46871731744894, 0.12213155188092, 0
188, 0.42107519546154, 0.11508650812074, 0
189, 0.39119412695671, 0.08337086158977, 0
190, 0.21031066388761, -0.16189372707785, 0
191, 0.2105617429769, -0.13369609323821, 0
192, 0.38916723604677, 0.27066136303087, 0
193, 0.10668155318281, -0.24542217872553, 0
194, 0.19070833964969, 0.080272029505312, 0
195, 0.58246082836587, 0.042729430412559, 0
196, 0.47342711300228, -0.0061636588880199, 0
197, 0.61898613913476, 0.11692390738724, 0
198, 0.18632859092906, -0.2725967421766, 0
199, 0.079924995398211, -0.19057350851877, 0
200, 0.080238197965467, 0.24489613049224, 0
201, 0.3839104984411, 0.23960516605486, 0
202, 0.3650755556322, 0.27125640412268, 0
203, 0.24540673858016, 0.10398076044864, 0
204, 0.33467219505765, -0.13186195500035, 0
205, 0.13281921671361, -0.21777475328588, 0
206, 0.3376752665743, 0.021522986480985, 0
207, 0.026722195571684, 0.054044049882053, 0
208, 0.3570819148896, -0.16261974635703, 0
209, 0.13467081219095, 0.13498142536713, 0
210, 0.10657840077146, 0.27233192733743, 0
211, 0.36001151910621, 0.20902689070277, 0
212, 0.026888538041744, 0.24549061815252, 0
213, 0.39054558655582, 0.14222516347574, 0
214, 0.10657257073853, -0.080006648125675, 0
215, 0.053461689433183, 0.16311694905827, 0
216, 0.1586795647169, -0.18993765617991, 0
217, 0.080277538187553, 0.21743304717643, 0
218, 0.34361947552574, 0.14800132514475, 0
219, 0.29716146378501, 0.12587886842094, 0
220, 0.1329806460569, 0.27222045239913, 0
221, 0.13510654074396, 0.10807936744647, 0
222, 0.36771695459208, 0.14467213689483, 0
223, 0.16112209214244, 0.16155885690774, 0
224, 0.053211579252638, -0.10891396568412, 0
225, 0.438018469432, -0.036690478440261, 0
226, 0.26647908381748, -0.27288340353002, 0
227, 0.23845263187019, 0.21510693633501, 0
228, 0.10610611549975, -0.13499807499122, 0
229, 0.18793390306121, 0.16082153528364, 0
230, 0.07999643499892, -0.27284723507806, 0
231, 0.10737103976774, -0.025674592097343, 0
232, 0.053595180544299, -0.21830804718466, 0
233, 0.30537374138116, -0.00018511989319429, 0
234, 0.36221374344855, 0.17690438223725, 0
235, 0.053692047044404, -0.24551978227516, 0
236, 0.026672619969667, -0.00059719002348954, 0
237, 0.10730159137444, 0.16249169088149, 0
238, 0.79328537043715, 0.18704745988129, 0
239, 0.74373808128494, 0.18527901561327, 0
240, 0.74054182229298, 0.12636541608925, 0
241, 0.79185248216185, 0.12954550643063, 0
242, 0.8432914927699, 0.13060895970715, 0
243, 0.89505990125715, 0.13170442366647, 0
244, 0.94739661293597, 0.13395694051793, 0
245, 0.84382615865538, 0.18749788532015, 0
246, 0.89511207620738, 0.1877906668871, 0
247, 0.9472492892141, 0.18918955729435, 0
248, 0.94692137761148, 0.24423595514443, 0
249, 0.89516400573135, 0.24403979473919, 0
250, 0.84367831386092, 0.24449610614367, 0
251, 0.7415727508888, 0.24441272175554, 0
252, 0.79230814056794, 0.24480348181813, 0
253, 0.69232103265384, 0.2431953780403, 0
254, 0.6728216591176, 0.18073875693352, 0
255, 0.64474183953367, 0.24183302263101, 0
256, 0.54827351509506, 0.24095269371248, 0
257, 0.67083535240659, 0.14935076993795, 0
258, 0.58033134975037, -0.026799309317337, 0
259, 0.69597707895664, 0.18218042215144, 0
260, 0.54645115910261, 0.027770493357672, 0
261, 0.69053111321842, 0.12092474113516, 0
262, 0.67706265442853, 0.064433537035602, 0
263, 0.5170685579376, 0.11990086425934, 0
264, 0.50132540345359, 0.207866026474, 0
265, 0.55156333866436, 0.21536680741488, 0
266, 0.61873407119682, 0.061727118396707, 0
267, 0.58085588413443, 0.15780439569679, 0
268, 0.67060328122193, 0.012836083791558, 0
269, 0.60263585381817, 0.21126113017259, 0
270, 0.84172692175332, 0.07467917838753, 0
271, 0.73301829326068, 0.070785845869078, 0
272, 0.78847389696819, 0.074294303574196, 0
273, 0.78626082803469, 0.021294622382162, 0
274, 0.72833057123212, 0.018772450671989, 0
275, 0.84010692995821, 0.019553295590207, 0
276, 0.94703296041762, 0.078601352138325, 0
277, 0.89431763734121, 0.075932832832227, 0
278, 0.89322326133297, 0.020580857058866, 0
279, 0.94650474309794, 0.023468357330491, 0
280, 0.94485688497506, -0.084965172512103, 0
281, 0.88782690282925, -0.087502288910961, 0
282, 0.94583534077266, -0.031216097593452, 0
283, 0.89157262715377, -0.034267859892491, 0
284, 0.82830295275576, -0.088668999057018, 0
285, 0.76324768615738, -0.085098744096021, 0
286, 0.7307969296647, -0.033210523021906, 0
287, 0.83771594927322, -0.035698304105649, 0
288, 0.78545513509494, -0.032433208666509, 0
289, 0.50935098658722, 0.031808983101744, 0
290, 0.61118239709371, 0.012215637593614, 0
291, 0.67482149830804, -0.037530065203154, 0
292, 0.69894691236956, -0.089095075123306, 0
293, 0.64027489642512, -0.092188506255209, 0
294, 0.61181712395691, -0.039624246352726, 0
295, 0.65854706462109, -0.19119615021603, 0
296, 0.71215768608978, -0.13875258194327, 0
297, 0.83288608494299, -0.19030468794068, 0
298, 0.88742177959306, -0.13851750764676, 0
299, 0.82889602070337, -0.13820185462019, 0
300, 0.77025355767155, -0.13567602983643, 0
301, 0.72047199431393, -0.1894714925185, 0
302, 0.77709908020336, -0.18892911986354, 0
303, 0.88902252358772, -0.19043389941811, 0
304, 0.55410825126842, 0.069795822934398, 0
305, 0.61109166614776, -0.01351341699697, 0
306, 0.54861429974083, 0.048885096591921, 0
307, 0.23622500665207, -0.13347909298535, 0
308, 0.26343111294245, -0.10469780466328, 0
309, 0.10755575594847, 0.13537680562651, 0
310, 0.61172922803126, -0.099841372116566, 0
311, 0.58944956535598, -0.061028786513421, 0
312, 0.63306781477225, -0.064270620880564, 0
313, 0.57998938811975, -0.0034629926134099, 0
314, 0.57735986668985, 0.12809459983791, 0
315, 0.51041709988715, 0.051016846504214, 0
316, 0.47644786255934, 0.072986382429756, 0
317, 0.54026798666479, -0.035331080299168, 0
318, 0.73927170592841, -0.061407932251575, 0
319, 0.75795132302336, -0.023903358729534, 0
320, 0.78244956600371, -0.061576996457408, 0
321, 0.50918215515245, 0.011824948597794, 0
322, 0.50394504185411, 0.17955331653324, 0
323, 0.21314398051591, -0.078066027277637, 0
324, 0.15908620978784, -0.10648304362246, 0
325, 0.33694489009427, 0.21048632463515, 0
326, 0.24696514494735, 0.077834017892388, 0
327, 0.30184062998767, 0.098818854676645, 0
328, 0.40202759588277, 0.10795335961017, 0
329, 0.44164283420823, 0.12609925655079, 0
330, 0.48164795883763, 0.093978563270062, 0
331, 0.43891471862505, 0.085014699555936, 0
332, 0.18707332573901, 0.18838827564011, 0
333, 0.28609786443769, -0.16233409568882, 0
334, 0.21761346572046, 0.10559588094603, 0
335, 0.1902080715009, 0.001715483650095, 0
336, 0.97321791457332, 0.02561265761378, 0
337, 0.94679488788759, 0.05099438910108, 0
338, 0.97348842459434, 0.080601826120298, 0
339, 0.97336870169502, 0.053069102108366, 0
340, 0.16052560612128, 0.1889678138028, 0
341, 0.33491223434807, 0.069536078304279, 0
342, 0.23949124973902, 0.18661403765104, 0
343, 0.97372190628458, 0.13582988090863, 0
344, 0.94744138254457, 0.16160860004848, 0
345, 0.97361906895332, 0.19096894707667, 0
346, 0.97379196227537, 0.16346594658947, 0
347, 0.78775951450526, -0.2724592960871, 0
348, 0.81167922641261, -0.24470828548551, 0
349, 0.84143225251446, -0.27254711045328, 0
350, 0.8145538250458, -0.2726239988184, 0
351, 0.37978626337977, -0.24693059330912, 0
352, 0.13550109768944, 0.054746149523542, 0
353, 0.18447326255011, -0.16193545569602, 0
354, 0.16296412323583, 0.080943035217434, 0
355, 0.94505566180163, -0.1637948184124, 0
356, 0.97289348286615, -0.13694041283231, 0
357, 0.9729055244274, -0.19091407466477, 0
358, 0.97300171643971, -0.16392687804376, 0
359, 0.94706140979004, -0.27153730047871, 0
360, 0.97276959484897, -0.24475462363562, 0
361, 0.97311811757187, -0.27186810831544, 0
362, 0.26391758082166, 0.21430308835271, 0
363, 0.313239544358, 0.21194549909636, 0
364, 0.026618001134781, -0.1100513281825, 0
365, 0.053440041706378, -0.2727377254005, 0
366, 0.26353473712896, 0.2433512847881, 0
367, 0.10627810717464, -0.19027395233583, 0
368, 0.38922227175501, -0.1007070335638, 0
369, 0.13502119073679, 0.0015276566038975, 0
370, 0.026613038296901, -0.082682510073362, 0
371, 0.26228687697771, -0.1907529771458, 0
372, 0.43266783218637, 0.048927759082626, 0
373, 0.27679459262142, 0.025621055686309, 0
374, 0.053442048132573, -0.026967775883266, 0
375, 0.026874218843945, -0.21893590280248, 0
376, 0.21075061475293, -0.19001040722571, 0
377, 0.13537087628866, 0.0281647966482, 0
378, 0.52362959264335, 0.23831830496846, 0
379, 0.4996854073416, 0.26649485634609, 0
380, 0.54379498075087, 0.26842329920852, 0
381, 0.52142691775123, 0.26719608367452, 0
382, 0.70680012778212, -0.24271584503255, 0
383, 0.73488225876246, -0.27213552040231, 0
384, 0.6838644434882, -0.27138965407052, 0
385, 0.7090384126887, -0.27181648732945, 0
386, 0.13385688327479, -0.052231127946401, 0
387, 0.18918346471576, -0.02466833061704, 0
388, 0.40268156268618, -0.0090181170090773, 0
389, 0.24761900089254, 0.026732535282697, 0
390, 0.053624117867325, 0.081556666418163, 0
391, 0.31518717404692, 0.27184647113791, 0
392, 0.026620727732462, -0.055306267341372, 0
393, 0.026879952658636, -0.27278083680247, 0
394, 0.15952077001903, -0.24526489322085, 0
395, 0.29321149422827, -0.076127328180933, 0
396, 0.37768384881775, -0.27260686768769, 0
397, 0.21901696676339, 0.027459222039812, 0
398, 0.24315414089375, 0.13084568066413, 0
399, 0.15847315221675, -0.16208285738897, 0
400, 0.21258837821448, 0.21572030477356, 0
401, 0.026659641033815, 0.10872948395074, 0
402, 0.32125993185885, -0.24716729373929, 0
403, 0.79127067152382, 0.27291647021102, 0
404, 0.76680339722242, 0.24477169786536, 0
405, 0.73850882607903, 0.2728985713754, 0
406, 0.76482371130183, 0.27301968668218, 0
407, 0.94617516203043, -0.0039499192986816, 0
408, 0.97292522738347, -0.028993132305266, 0
409, 0.97305552632899, -0.0017425659031511, 0
410, 0.75879481897668, -0.24401359352956, 0
411, 0.76118235285198, -0.27232491128873, 0
412, 0.40193548350382, 0.034903948224298, 0
413, 0.026708579849367, 0.19091094856391, 0
414, 0.3362265313837, -0.0017583659681653, 0
415, 0.079914902208102, -0.08067588172876, 0
416, 0.28773141496454, -0.19140219449102, 0
417, 0.053257500507101, -0.081536347683293, 0
418, 0.32128238434924, -0.2732440281849, 0
419, 0.16249581869832, 0.10754704562895, 0
420, 0.94723228143933, 0.10626808203918, 0
421, 0.97359570124181, 0.1081949578767, 0
422, 0.97269234338121, -0.083131343584359, 0
423, 0.94548708978356, -0.05827657383794, 0
424, 0.97281741104794, -0.056141647833135, 0
425, 0.080101352365569, 0.27244228525559, 0
426, 0.079765736932172, -0.10807629716131, 0
427, 0.15986991062445, -0.078981235953263, 0
428, 0.26157071387683, -0.13324723558394, 0
429, 0.94478645017072, -0.11128047391657, 0
430, 0.97278979419463, -0.11001821636683, 0
431, 0.13310004595703, -0.24536761241057, 0
432, 0.40346900430205, 0.012472404083223, 0
433, 0.29339990680094, -0.24655835724067, 0
434, 0.65644411988424, -0.24129077121705, 0
435, 0.63500499777945, -0.27233867905966, 0
436, 0.65936699708055, -0.27138014228263, 0
437, 0.81796005642377, 0.2446942529105, 0
438, 0.84397910855355, 0.27256446396275, 0
439, 0.81767818717532, 0.27275953283713, 0
440, 0.71672454777292, 0.24388675216336, 0
441, 0.68684078722836, 0.27235540557147, 0
442, 0.71247310319363, 0.27270809090541, 0
443, 0.86941504054125, 0.24426236288385, 0
444, 0.89605352225234, 0.27212455681924, 0
445, 0.8701083754035, 0.27235527642059, 0
446, 0.92115645025327, 0.13261699777847, 0
447, 0.89518287540241, 0.15971908627746, 0
448, 0.92106617553534, 0.18824055671317, 0
449, 0.92121378216169, 0.16042925473178, 0
450, 0.13423102523718, 0.16209464957526, 0
451, 0.10696339232305, -0.052749139034812, 0
452, 0.37558738749055, -0.073301297027081, 0
453, 0.13322468543996, -0.079460122873614, 0
454, 0.42203898096345, -0.053115891403844, 0
455, 0.36494244511547, -0.0263698516601, 0
456, 0.78130388175751, -0.21629431433007, 0
457, 0.80494205724113, -0.18972275620693, 0
458, 0.83557302266228, -0.21728248408212, 0
459, 0.80836264610812, -0.21693029362697, 0
460, 0.47670114848112, 0.23585414436697, 0
461, 0.45664724813356, 0.26665006947834, 0
462, 0.47821023473895, 0.26634249769116, 0
463, 0.053560663992999, 0.10869354146553, 0
464, 0.41232287305994, 0.26901195425415, 0
465, 0.053618261096933, 0.2451042899369, 0
466, 0.58956195123374, 0.26948288808854, 0
467, 0.573617260483, 0.23999248874845, 0
468, 0.56681479682979, 0.26818822527013, 0
469, 0.86527878003344, -0.24467650638542, 0
470, 0.89478271801883, -0.27201953876404, 0
471, 0.86822062406208, -0.27236888412884, 0
472, 0.63699957239728, 0.27153447290431, 0
473, 0.66834977635848, 0.24249237788538, 0
474, 0.66167951342001, 0.27197925959824, 0
475, 0.026705201303837, 0.026728852295286, 0
476, 0.10795256297416, 0.028047010963871, 0
477, 0.080306949999107, 0.19006800504847, 0
478, 0.9189701268944, -0.24394445741962, 0
479, 0.92102856097219, -0.27166657587999, 0
480, 0.94701121055472, 0.21671123863681, 0
481, 0.97320953490758, 0.24530360292255, 0
482, 0.97340910381104, 0.21823979082614, 0
483, 0.94750130386595, 0.27194252081285, 0
484, 0.97334092010521, 0.27232959401365, 0
485, 0.621332235363, 0.24124681225042, 0
486, 0.6128416993396, 0.27098733199705, 0
487, 0.21252352586903, -0.245327570628, 0
488, 0.10771446851056, 0.0012410326984938, 0
489, 0.10781505337648, 0.10841295472071, 0
490, 0.2134234337195, 0.18763022713845, 0
491, 0.43009491043637, 0.23743014252698, 0
492, 0.43470021711474, 0.26741046726733, 0
493, 0.76833760124639, 0.1864874366578, 0
494, 0.79287666962917, 0.15812200519069, 0
495, 0.76613847697566, 0.12868637989311, 0
496, 0.74276622448456, 0.15558952658493, 0
497, 0.767682325973, 0.15733653801145, 0
498, 0.10658918120211, -0.27284320340851, 0
499, 0.15930930593875, 0.27212900472579, 0
500, 0.290619790242, -0.21954002090244, 0
501, 0.10678689978948, 0.24470657421457, 0
502, 0.23978345624595, -0.077546048110859, 0
503, 0.18650900849389, -0.078529173951902, 0
504, 0.26122025202599, -0.16210917587041, 0
505, 0.18476244803254, -0.18989809463303, 0
506, 0.3128791486083, -0.19219845175449, 0
507, 0.2168499831882, -0.024487021095042, 0
508, 0.18596178608121, 0.24410467953813, 0
509, 0.26381425576715, 0.27203495266636, 0
510, 0.36892804967456, 0.040873609155106, 0
511, 0.33076502563664, 0.094957271346744, 0
512, 0.2651821120082, 0.18527220982999, 0
513, 0.38260209399691, 0.20776918926805, 0
514, 0.28868878125214, 0.24291213762832, 0
515, 0.15908948743217, -0.21768280292146, 0
516, 0.62748825283376, 0.18012272582927, 0
517, 0.53094604895348, 0.15718792519341, 0
518, 0.55392548616123, 0.19071701266861, 0
519, 0.79306101630386, 0.21605229666007, 0
520, 0.74334238879031, 0.2150384006546, 0
521, 0.76802936376446, 0.21577225585543, 0
522, 0.92096660310618, 0.24395699426717, 0
523, 0.92181347541582, 0.27194642214555, 0
524, 0.73048353632764, -0.087969735081748, 0
525, 0.76682267808863, -0.10977084560576, 0
526, 0.74138295139464, -0.13711688326227, 0
527, 0.70684257582801, -0.11361074495055, 0
528, 0.73685298410443, -0.11190044289858, 0
529, 0.053537568810108, 0.00021206119884928, 0
530, 0.026697250543591, 0.081370084540468, 0
531, 0.33953394008404, -0.10187093764035, 0
532, 0.94535684305539, -0.21687794050749, 0
533, 0.97282566546463, -0.21783800905501, 0
534, 0.59702951134707, 0.11940583523338, 0
535, 0.47074361417563, 0.036591031562117, 0
536, 0.56829767944347, -0.047141603980025, 0
537, 0.89041011298852, -0.06128107885137, 0
538, 0.85850616194668, -0.08832569923687, 0
539, 0.83540104347362, -0.063154407770045, 0
540, 0.8645316617657, -0.035226285023738, 0
541, 0.8628383515657, -0.06236906733211, 0
542, 0.60943108885845, -0.2505226227522, 0
543, 0.57927717964491, -0.27956259377632, 0
544, 0.60916860035857, -0.27524795477573, 0
545, 0.080123118460364, -0.21804330221469, 0
546, 0.16081489141728, -0.051789314302287, 0
547, 0.24237411746869, -0.050593533559345, 0
548, 0.10709913451198, 0.18976049379614, 0
549, 0.64835813459709, 0.062290862961887, 0
550, 0.52579346338576, 0.21115330390609, 0
551, 0.65709521746516, 0.089100199735166, 0
552, 0.47737653171938, 0.20676450998052, 0
553, 0.38594128526188, -0.19199750936572, 0
554, 0.30491669272323, 0.073139056349688, 0
555, 0.3104301153943, -0.16257753001229, 0
556, 0.4385716867618, -0.0169416192581, 0
557, 0.27018632410856, 0.12870002806841, 0
558, 0.080732652951338, 0.081629395285541, 0
559, 0.23758932718163, -0.10523526228632, 0
560, 0.91870351898296, -0.03293862714486, 0
561, 0.91656939505566, -0.086376779274502, 0
562, 0.91799265331819, -0.059936341920591, 0
563, 0.49382498246038, 0.11958787615942, 0
564, 0.64787081381079, 0.14811431067772, 0
565, 0.89249425258014, -0.0069347490303375, 0
566, 0.91983986488502, 0.021801335634262, 0
567, 0.91931556379841, -0.0056611376489216, 0
568, 0.47861593245231, -0.27275187932662, 0
569, 0.43081592710838, -0.26487216343721, 0
570, 0.45335257412166, -0.26935404204495, 0
571, 0.19084122183036, 0.027901245829654, 0
572, 0.10693875274728, 0.21717280615857, 0
573, 0.28887669578072, 0.21325593289857, 0
574, 0.64927734062552, -0.11770331296603, 0
575, 0.62527816947909, -0.14873304973433, 0
576, 0.62186408732637, -0.12355744222616, 0
577, 0.47405023763851, -0.028923691886538, 0
578, 0.83915062805342, -0.0080298198822943, 0
579, 0.81131846848697, -0.035199489910546, 0
580, 0.78587834815387, -0.0051659476974396, 0
581, 0.81343708274067, 0.019980183574846, 0
582, 0.81265000100044, -0.0073688832829767, 0
583, 0.92064263693044, 0.077060759900975, 0
584, 0.89381626736942, 0.048207912268041, 0
585, 0.92027937347142, 0.049385043203591, 0
586, 0.13385064795185, 0.18940938851483, 0
587, 0.10799490143276, 0.081572556071664, 0
588, 0.080626424907811, 0.10860226263475, 0
589, 0.080354369849894, -0.026232769947158, 0
590, 0.3698617735605, 0.017891107442739, 0
591, 0.86665613371548, 0.019809115594303, 0
592, 0.8657567157154, -0.0077650762229878, 0
593, 0.026633812131124, -0.13739512965903, 0
594, 0.34996277241822, -0.24759694045879, 0
595, 0.39957489570666, -0.029416740850855, 0
596, 0.24485419280322, -0.024378369808405, 0
597, 0.30673559572371, 0.023967739692831, 0
598, 0.026639633106836, 0.13612012701304, 0
599, 0.080766913883281, 0.054700298092418, 0
600, 0.21868363397053, 0.07926930599885, 0
601, 0.30257927273209, -0.024538026868995, 0
602, 0.026646903793205, -0.027942347012162, 0
603, 0.16298419987957, 0.028123254527162, 0
604, 0.080487539830866, 0.1356554157678, 0
605, 0.15859859976503, -0.13422223068593, 0
606, 0.72698362677814, -0.215680841908, 0
607, 0.74915413632787, -0.18913032515028, 0
608, 0.75429078879129, -0.21605050192365, 0
609, 0.34934121124354, -0.27324497846243, 0
610, 0.13353996327571, 0.21689600573119, 0
611, 0.89474559774374, 0.10376610845705, 0
612, 0.92094122633222, 0.10481384489328, 0
613, 0.56101111190599, -0.24842130372463, 0
614, 0.52943083535226, -0.27038499207529, 0
615, 0.55227372186571, -0.27393714784589, 0
616, 0.70375033882943, -0.036421443973609, 0
617, 0.67105197420179, -0.012471445548489, 0
618, 0.69963512548034, 0.015230356558245, 0
619, 0.72829997501412, -0.0069144957855804, 0
620, 0.70006800807658, -0.010481221852839, 0
621, 0.86803392476143, 0.075159566268933, 0
622, 0.84256956655145, 0.10249974713437, 0
623, 0.86911326530041, 0.13108200527813, 0
624, 0.86863645227583, 0.10303048662402, 0
625, 0.43650378033595, 0.026481537257578, 0
626, 0.43835893766564, 0.0044296610696951, 0
627, 0.1080497987657, 0.054803480043556, 0
628, 0.91632261238355, -0.13808316135917, 0
629, 0.88725552760501, -0.11300520474568, 0
630, 0.91624040893616, -0.11227146772179, 0
631, 0.3709346257522, -0.22167592697764, 0
632, 0.053558864645616, 0.27252994396433, 0
633, 0.16250281246359, 0.0016858822733496, 0
634, 0.35677690615189, -0.049003574232014, 0
635, 0.84091248590857, 0.047076674731978, 0
636, 0.86738265054549, 0.047439187411132, 0
637, 0.28963663706106, 0.27200604944655, 0
638, 0.21461389289248, 0.15981679134438, 0
639, 0.026674892699374, -0.16468190646758, 0
640, 0.81845922411735, 0.1873520447595, 0
641, 0.84374678055223, 0.21606437553981, 0
642, 0.81831983527829, 0.2161243034524, 0
643, 0.46884341009005, 0.055960509381437, 0
644, 0.31715165114334, -0.22048600532996, 0
645, 0.21917478323646, 0.05328415027927, 0
646, 0.27566102841607, 0.075841659924603, 0
647, 0.40544068276345, -0.27034569312517, 0
648, 0.50485575383538, -0.27330000018831, 0
649, 0.81527332068019, 0.074425178496676, 0
650, 0.78711082981209, 0.04763554957437, 0
651, 0.81425345403276, 0.047143551233745, 0
652, 0.10626829272828, -0.10743681175092, 0
653, 0.23920135502551, -0.2455810861333, 0
654, 0.36853920131973, -0.0044255985810929, 0
655, 0.053499114423662, 0.19040356193301, 0
656, 0.080367448834383, 0.16280863662773, 0
657, 0.65615414234385, -0.16830961030763, 0
658, 0.62286035283284, -0.19515267805499, 0
659, 0.62448636037967, -0.17336870115377, 0
660, 0.37718397273323, 0.11295329812728, 0
661, 0.32685283917358, -0.049211506409125, 0
662, 0.080555715697669, 0.00081151917385998, 0
663, 0.053427493720292, -0.19104127735405, 0
664, 0.34037014362183, 0.27163877857116, 0
665, 0.64900186723167, 0.21118543241814, 0
666, 0.64210849511438, 0.11661709994481, 0
667, 0.55553284523394, 0.16629705007309, 0
668, 0.69533389667805, 0.21297125315974, 0
669, 0.65006847930353, 0.17984849238404, 0
670, 0.51521842728384, 0.06977261018085, 0
671, 0.48531441642353, 0.14909195774478, 0
672, 0.32018029329276, -0.075144900265582, 0
673, 0.33410144035913, -0.16274703364311, 0
674, 0.71961055671716, 0.1837903466529, 0
675, 0.71910088799218, 0.21407556215177, 0
676, 0.68295525913573, -0.1406517755418, 0
677, 0.66884091110352, -0.089875175266956, 0
678, 0.6775504115248, -0.11519050288051, 0
679, 0.69432665743445, 0.15132086554314, 0
680, 0.58796417855092, 0.065234354607837, 0
681, 0.60313789936736, 0.088701621080015, 0
682, 0.55744418727983, 0.10727321367752, 0
683, 0.31440540283191, -0.10304917475746, 0
684, 0.18537725603056, -0.10607766483795, 0
685, 0.29322430102124, 0.15426497253352, 0
686, 0.33767119527471, -0.19301306613077, 0
687, 0.40535792617822, 0.20770308101016, 0
688, 0.185558368244, 0.27204409623998, 0
689, 0.68380589838417, 0.091762237071213, 0
690, 0.5565886890837, 0.14052340117168, 0
691, 0.50850652229509, 0.15047332322559, 0
692, 0.45335429326225, 0.20713852748167, 0
693, 0.57643048163037, 0.09206583734794, 0
694, 0.29367894971397, -0.27308564464877, 0
695, 0.13240547172036, -0.13457045792669, 0
696, 0.13271138581745, -0.10692434058768, 0
697, 0.18598305360958, -0.24521499003188, 0
698, 0.13234979654946, -0.16231645073742, 0
699, 0.16180922577746, 0.13440831432703, 0
700, 0.19101001814745, 0.05403659579107, 0
701, 0.2642253555358, -0.21875998354237, 0
702, 0.21162304363128, -0.21784340753256, 0
703, 0.31089383968716, -0.1324980579117, 0
704, 0.2129048935669, -0.27262571956415, 0
705, 0.86092636059635, -0.19053312334406, 0
706, 0.89035332023185, -0.21709806138487, 0
707, 0.86291942826721, -0.217326897663, 0
708, 0.71535000905257, 0.12369971473085, 0
709, 0.71830925884026, 0.15351488380324, 0
710, 0.46073948493626, 0.15032717942971, 0
711, 0.60337255441136, 0.1511942273497, 0
712, 0.16005151025264, 0.21657702728196, 0
713, 0.23790560830218, -0.21819299331245, 0
714, 0.16175414810165, -0.024918880891677, 0
715, 0.7368890335637, 0.098003936851345, 0
716, 0.70517031725519, 0.067429128396596, 0
717, 0.71034161799789, 0.094868334460656, 0
718, 0.080231458301264, -0.24547247581713, 0
719, 0.41188860808904, 0.14620012702532, 0
720, 0.02696637609362, -0.24587777914201, 0
721, 0.21821222212085, 0.0016004042444632, 0
722, 0.34390580004245, -0.22142163350465, 0
723, 0.43078321419425, 0.18003213651552, 0
724, 0.42907598895676, 0.20837244098709, 0
725, 0.1846649481654, -0.13393444888141, 0
726, 0.080123798062262, -0.053390805563824, 0
727, 0.026635689569532, 0.16352607908986, 0
728, 0.57798792489889, 0.21281088308417, 0
729, 0.58047794644519, 0.18567538044944, 0
730, 0.053338567919371, -0.05421626023838, 0
731, 0.079762212141582, -0.16306958941284, 0
732, 0.02679650813597, 0.21823280433554, 0
733, 0.31334050257262, 0.24228633521581, 0
734, 0.05361639447666, 0.027341493070566, 0
735, 0.43486988122618, 0.15254498919252, 0
736, 0.64397011395568, -0.037962633530368, 0
737, 0.64101230997094, 0.01167979984107, 0
738, 0.64106312791339, -0.013462411798396, 0
739, 0.28904337257116, -0.1039922921752, 0
740, 0.33742377126664, 0.24154590330035, 0
741, 0.7300586023288, 0.044520924738342, 0
742, 0.67272313027058, 0.038388641168423, 0
743, 0.70151928046947, 0.041074369904901, 0
744, 0.21173196087039, 0.27203650523705, 0
745, 0.27560608494381, 0.00075281461871501, 0
746, 0.24110114684708, 0.15844940941776, 0
747, 0.61076667671428, -0.21957739570446, 0
748, 0.58979086185832, -0.23355383196208, 0
749, 0.338996114838, 0.17910663337434, 0
750, 0.080703084559656, 0.027775111345511, 0
751, 0.053497748728911, 0.13587876897982, 0
752, 0.37961916305753, -0.16166116234518, 0
753, 0.18535405696559, -0.21767698698317, 0
754, 0.61344758399628, 0.037182737554817, 0
755, 0.54587124382414, 0.0064737781799203, 0
756, 0.63007048494704, 0.087459508988828, 0
757, 0.53748552100886, 0.092506380773145, 0
758, 0.91712883723536, -0.19021471810209, 0
759, 0.91784423963001, -0.21682125555359, 0
760, 0.79670040482483, -0.087986160659698, 0
761, 0.82786483586961, -0.11311658345353, 0
762, 0.79945026250279, -0.13714111972725, 0
763, 0.79737529916572, -0.11193798426208, 0
764, 0.28649688319142, -0.13294323525799, 0
765, 0.39804464496255, 0.058298725216918, 0
766, 0.079707664004091, -0.13555670010582, 0
767, 0.36447908918014, -0.10074345267211, 0
768, 0.053281096079867, -0.16370498379027, 0
769, 0.36092472806241, 0.24066275903602, 0
770, 0.89501422195296, 0.21590725571857, 0
771, 0.92089560633735, 0.21607147309965, 0
772, 0.053652065966082, 0.05444747562778, 0
773, 0.33720844079929, 0.045180113428979, 0
774, 0.32406925462082, 0.12229152305634, 0
775, 0.38471289282542, 0.17536595184092, 0
776, 0.13449697521655, -0.025247650878565, 0
777, 0.88807018964083, -0.16427728050578, 0
778, 0.91666599240391, -0.16401287525386, 0
779, 0.80833808239951, -0.063288730720007, 0
780, 0.36044137307252, 0.089978884316397, 0
781, 0.18785928924863, -0.051388549030139, 0
782, 0.26732893212196, 0.15662640756886, 0
783, 0.85826344637568, -0.13862379462815, 0
784, 0.85782304372392, -0.11336310042666, 0
785, 0.86937351455145, 0.18760167906481, 0
786, 0.86931024351021, 0.2159601027795, 0
787, 0.83067280579552, -0.16394802467475, 0
788, 0.85938272002775, -0.16431876824002, 0
789, 0.48012010593768, 0.17806326031633, 0
790, 0.53672043945447, 0.12798165556418, 0
791, 0.84370619335883, 0.15897196768609, 0
792, 0.86935382447062, 0.15928823321226, 0
793, 0.053563772774023, 0.21773335025818, 0
794, 0.41072755791157, -0.24241672287379, 0
795, 0.81755335295643, 0.13014667459508, 0
796, 0.7902127612287, 0.10155931383808, 0
797, 0.81646577081107, 0.10205721516976, 0
798, 0.81821769235228, 0.15862925260536, 0
799, 0.62603744958372, 0.21099076647141, 0
800, 0.5073936088622, -0.029269536891154, 0
801, 0.6046096672723, 0.1817371147806, 0
802, 0.76102097564944, 0.074246181597467, 0
803, 0.76365819573244, 0.10090241490026, 0
804, 0.66608594258749, 0.11839398968318, 0
805, 0.15967434187517, 0.24431625692152, 0
806, 0.21607107855708, 0.13243549870106, 0
807, 0.13252110133771, -0.19007515464032, 0
808, 0.64338837782793, 0.036874795888411, 0
809, 0.29807092195603, -0.049668804386464, 0
810, 0.42437914425847, 0.072382106327585, 0
811, 0.77359750567724, -0.16212299974816, 0
812, 0.80203447217626, -0.16313635433547, 0
813, 0.71626633414268, -0.16409358179925, 0
814, 0.69056453689367, -0.18995329181888, 0
815, 0.68662792636445, -0.16565108128823, 0
816, 0.67024249899709, -0.21428745002027, 0
817, 0.69911862986404, -0.21502474852262, 0
818, 0.16314071675708, 0.054504078779031, 0
819, 0.186425081471, 0.21618761722241, 0
820, 0.35084093210102, 0.1179322322956, 0
821, 0.75766496568266, 0.023995651729606, 0
822, 0.75731947826417, -4.0665091701972e-05, 0
823, 0.54580614756987, -0.014694229288845, 0
824, 0.34756412728544, -0.074052765254341, 0
825, 0.27680617942687, 0.050552793769741, 0
826, 0.24773024422782, 0.052161419349711, 0
827, 0.75894920659248, 0.048675565259336, 0
828, 0.2379665853763, 0.243665217344, 0
829, 0.33291394865834, -0.025065627553042, 0
830, 0.026769105702471, -0.19187390875268, 0
831, 0.74522817408628, -0.16294144193348, 0
832, 0.27000137954487, -0.050150085822283, 0
833, 0.6865101696234, -0.063543036607918, 0
834, 0.71363226441239, -0.063319983750908, 0
835, 0.31503266741792, 0.18143619040301, 0
836, 0.27344398836785, 0.1017716597017, 0
837, 0.62544186172814, 0.14859995389499, 0
838, 0.26645276104894, -0.076917934671746, 0
839, 0.58027549673586, 0.019821237555332, 0
840, 0.50964877026958, 0.091699913708926, 0
841, 0.65923447833181, -0.063374987699713, 0
842, 0.38067186009253, -0.13048548877786, 0
843, 0.52803450578139, 0.1844642713328, 0
844, 0.47243163749438, 0.015662932787077, 0
845, 0.64018174069754, -0.2150207854195, 0
846, 0.5091456578155, -0.0084774716747471, 0
847, 0.21208164427759, 0.24390982896496, 0
848, 0.61088255286988, -0.074796218860437, 0
849, 0.75986948300469, -0.04934700048137, 0
850, 0.13540226754016, 0.0813574908355, 0
851, 0.21155727138981, -0.10567668582887, 0
852, 0.45359735713408, 0.10095778716017, 0
853, 0.23592159277229, -0.1619532550197, 0
854, 0.18999078376425, 0.10674744653647, 0
******* E L E M E N T S *************
*ELEMENT, type=T3D2, ELSET=Line1
1, 1, 10
2, 10, 18
3, 18, 11
4, 11, 19
5, 19, 12
6, 12, 20
7, 20, 13
8, 13, 21
9, 21, 14
10, 14, 22
11, 22, 15
12, 15, 23
13, 23, 16
14, 16, 24
15, 24, 17
16, 17, 2
*ELEMENT, type=T3D2, ELSET=Line2
17, 2, 25
18, 25, 28
19, 28, 26
20, 26, 29
21, 29, 27
22, 27, 3
*ELEMENT, type=T3D2, ELSET=Line3
23, 3, 30
24, 30, 38
25, 38, 31
26, 31, 39
27, 39, 32
28, 32, 40
29, 40, 33
30, 33, 41
31, 41, 34
32, 34, 42
33, 42, 35
34, 35, 43
35, 43, 36
36, 36, 44
37, 44, 37
38, 37, 4
*ELEMENT, type=T3D2, ELSET=Line4
39, 4, 45
40, 45, 56
41, 56, 46
42, 46, 57
43, 57, 47
44, 47, 58
45, 58, 48
46, 48, 59
47, 59, 49
48, 49, 60
49, 60, 50
50, 50, 61
51, 61, 51
52, 51, 62
53, 62, 52
54, 52, 63
55, 63, 53
56, 53, 64
57, 64, 54
58, 54, 65
59, 65, 55
60, 55, 5
*ELEMENT, type=T3D2, ELSET=Line5
61, 5, 66
62, 66, 74
63, 74, 67
64, 67, 75
65, 75, 68
66, 68, 76
67, 76, 69
68, 69, 77
69, 77, 70
70, 70, 78
71, 78, 71
72, 71, 79
73, 79, 72
74, 72, 80
75, 80, 73
76, 73, 6
*ELEMENT, type=T3D2, ELSET=Line6
77, 6, 81
78, 81, 85
79, 85, 82
80, 82, 86
81, 86, 83
82, 83, 87
83, 87, 84
84, 84, 7
*ELEMENT, type=T3D2, ELSET=Line7
85, 7, 88
86, 88, 96
87, 96, 89
88, 89, 97
89, 97, 90
90, 90, 98
91, 98, 91
92, 91, 99
93, 99, 92
94, 92, 100
95, 100, 93
96, 93, 101
97, 101, 94
98, 94, 102
99, 102, 95
100, 95, 8
*ELEMENT, type=T3D2, ELSET=Line8
101, 8, 103
102, 103, 114
103, 114, 104
104, 104, 115
105, 115, 105
106, 105, 116
107, 116, 106
108, 106, 117
109, 117, 107
110, 107, 118
111, 118, 108
112, 108, 119
113, 119, 109
114, 109, 120
115, 120, 110
116, 110, 121
117, 121, 111
118, 111, 122
119, 122, 112
120, 112, 123
121, 123, 113
122, 113, 1
*ELEMENT, type=T3D2, ELSET=Line9
123, 9, 124
124, 124, 135
125, 135, 125
126, 125, 136
127, 136, 126
128, 126, 137
129, 137, 127
130, 127, 138
131, 138, 128
132, 128, 139
133, 139, 129
134, 129, 140
135, 140, 130
136, 130, 141
137, 141, 131
138, 131, 142
139, 142, 132
140, 132, 143
141, 143, 133
142, 133, 144
143, 144, 134
144, 134, 9
*ELEMENT, type=CPS4, ELSET=Surface1
145, 605, 695, 698, 399
146, 661, 809, 395, 672
147, 412, 510, 590, 432
148, 61, 51, 339, 336
149, 336, 339, 337, 279
150, 339, 338, 276, 337
151, 51, 62, 338, 339
152, 835, 363, 573, 174
153, 830, 122, 112, 375
154, 193, 718, 230, 498
155, 221, 489, 587, 850
156, 63, 53, 346, 343
157, 343, 346, 344, 244
158, 346, 345, 247, 344
159, 53, 64, 345, 346
160, 41, 34, 350, 347
161, 347, 350, 348, 159
162, 350, 349, 161, 348
163, 34, 42, 349, 350
164, 588, 463, 390, 558
165, 718, 235, 365, 230
166, 229, 332, 340, 223
167, 396, 609, 16, 24
168, 162, 357, 358, 355
169, 355, 358, 356, 158
170, 358, 47, 58, 356
171, 357, 57, 47, 358
172, 44, 37, 361, 359
173, 359, 361, 360, 163
174, 361, 45, 56, 360
175, 37, 4, 45, 361
176, 328, 213, 222, 660
177, 167, 376, 702, 713
178, 695, 228, 169, 698
179, 529, 236, 602, 374
180, 601, 175, 832, 809
181, 850, 587, 627, 352
182, 201, 192, 202, 769
183, 511, 774, 219, 327
184, 838, 502, 559, 308
185, 387, 714, 546, 781
186, 775, 513, 211, 234
187, 609, 418, 23, 16
188, 476, 750, 662, 488
189, 765, 152, 510, 412
190, 213, 719, 184, 775
191, 171, 721, 507, 596
192, 452, 824, 531, 767
193, 500, 701, 176, 433
194, 325, 740, 733, 363
195, 256, 380, 381, 378
196, 378, 381, 379, 183
197, 381, 82, 86, 379
198, 380, 85, 82, 381
199, 157, 384, 385, 382
200, 382, 385, 383, 160
201, 385, 32, 40, 383
202, 384, 39, 32, 385
203, 402, 433, 694, 418
204, 455, 829, 661, 634
205, 610, 177, 501, 572
206, 634, 661, 672, 824
207, 514, 637, 509, 366
208, 602, 119, 109, 392
209, 392, 109, 120, 370
210, 772, 207, 475, 734
211, 714, 776, 386, 546
212, 208, 673, 686, 149
213, 210, 101, 94, 425
214, 732, 212, 114, 104
215, 475, 118, 108, 236
216, 189, 660, 820, 780
217, 509, 98, 91, 172
218, 766, 148, 768, 731
219, 660, 222, 218, 820
220, 739, 308, 428, 764
221, 745, 171, 596, 175
222, 227, 828, 847, 400
223, 553, 170, 130, 140
224, 235, 720, 393, 365
225, 78, 405, 406, 70
226, 70, 406, 403, 77
227, 406, 404, 252, 403
228, 405, 251, 404, 406
229, 282, 408, 409, 407
230, 407, 409, 336, 279
231, 409, 50, 61, 336
232, 408, 60, 50, 409
233, 160, 383, 411, 410
234, 410, 411, 347, 159
235, 411, 33, 41, 347
236, 383, 40, 33, 411
237, 201, 147, 464, 192
238, 224, 364, 593, 148
239, 720, 123, 113, 393
240, 663, 830, 375, 232
241, 646, 326, 826, 825
242, 192, 464, 7, 88
243, 225, 454, 127, 137
244, 696, 652, 228, 695
245, 662, 529, 374, 589
246, 237, 548, 477, 656
247, 836, 203, 326, 646
248, 586, 610, 572, 548
249, 276, 338, 421, 420
250, 420, 421, 343, 244
251, 421, 52, 63, 343
252, 338, 62, 52, 421
253, 282, 423, 424, 408
254, 408, 424, 49, 60
255, 424, 422, 59, 49
256, 423, 280, 422, 424
257, 553, 149, 631, 170
258, 701, 713, 653, 176
259, 598, 727, 105, 116
260, 503, 427, 324, 684
261, 511, 327, 554, 341
262, 656, 477, 655, 215
263, 683, 739, 764, 703
264, 545, 232, 235, 718
265, 58, 48, 430, 356
266, 356, 430, 429, 158
267, 430, 422, 280, 429
268, 48, 59, 422, 430
269, 506, 416, 500, 644
270, 530, 117, 107, 207
271, 340, 712, 610, 586
272, 189, 780, 152, 765
273, 156, 435, 436, 434
274, 434, 436, 384, 157
275, 436, 31, 39, 384
276, 435, 38, 31, 436
277, 250, 438, 439, 437
278, 437, 439, 403, 252
279, 439, 69, 77, 403
280, 438, 76, 69, 439
281, 78, 71, 442, 405
282, 405, 442, 440, 251
283, 442, 441, 253, 440
284, 71, 79, 441, 442
285, 249, 444, 445, 443
286, 443, 445, 438, 250
287, 445, 68, 76, 438
288, 444, 75, 68, 445
289, 244, 344, 449, 446
290, 446, 449, 447, 243
291, 449, 448, 246, 447
292, 344, 247, 448, 449
293, 463, 401, 530, 390
294, 176, 653, 154, 226
295, 425, 94, 102, 632
296, 362, 366, 828, 227
297, 223, 340, 586, 450
298, 400, 847, 508, 819
299, 427, 453, 696, 324
300, 414, 233, 601, 829
301, 161, 458, 459, 348
302, 348, 459, 456, 159
303, 459, 457, 302, 456
304, 458, 297, 457, 459
305, 183, 379, 462, 460
306, 460, 462, 461, 182
307, 462, 83, 87, 461
308, 379, 86, 83, 462
309, 810, 328, 660, 189
310, 236, 108, 119, 602
311, 432, 590, 654, 388
312, 740, 664, 391, 733
313, 6, 81, 468, 466
314, 466, 468, 467, 145
315, 468, 380, 256, 467
316, 81, 85, 380, 468
317, 42, 35, 471, 349
318, 349, 471, 469, 161
319, 471, 470, 164, 469
320, 35, 43, 470, 471
321, 255, 473, 474, 472
322, 472, 474, 72, 80
323, 474, 441, 79, 72
324, 473, 253, 441, 474
325, 588, 604, 751, 463
326, 749, 325, 363, 835
327, 202, 96, 89, 664
328, 366, 509, 172, 828
329, 43, 36, 479, 470
330, 470, 479, 478, 164
331, 479, 359, 163, 478
332, 36, 44, 359, 479
333, 64, 54, 482, 345
334, 345, 482, 480, 247
335, 482, 481, 248, 480
336, 54, 65, 481, 482
337, 65, 55, 484, 481
338, 481, 484, 483, 248
339, 484, 66, 74, 483
340, 55, 5, 66, 484
341, 80, 73, 486, 472
342, 472, 486, 485, 255
343, 486, 466, 145, 485
344, 73, 6, 466, 486
345, 401, 598, 116, 106
346, 793, 465, 212, 732
347, 593, 121, 111, 639
348, 744, 99, 92, 688
349, 182, 461, 492, 491
350, 491, 492, 464, 147
351, 492, 84, 7, 464
352, 461, 87, 84, 492
353, 239, 496, 497, 493
354, 493, 497, 494, 238
355, 497, 495, 241, 494
356, 496, 240, 495, 497
357, 180, 825, 373, 597
358, 415, 417, 224, 426
359, 794, 647, 569, 141
360, 698, 169, 367, 807
361, 499, 100, 93, 220
362, 700, 818, 603, 571
363, 704, 198, 13, 21
364, 226, 154, 14, 22
365, 842, 752, 129, 139
366, 703, 764, 333, 555
367, 233, 745, 175, 601
368, 652, 426, 766, 228
369, 454, 179, 138, 127
370, 213, 775, 234, 222
371, 367, 199, 545, 173
372, 780, 820, 774, 511
373, 645, 700, 571, 397
374, 746, 342, 490, 638
375, 809, 832, 838, 395
376, 373, 389, 171, 745
377, 399, 698, 807, 216
378, 334, 854, 194, 600
379, 154, 704, 21, 14
380, 377, 476, 488, 369
381, 257, 679, 259, 254
382, 728, 467, 256, 265
383, 643, 810, 372, 535
384, 269, 145, 467, 728
385, 251, 520, 521, 404
386, 404, 521, 519, 252
387, 521, 493, 238, 519
388, 520, 239, 493, 521
389, 248, 483, 523, 522
390, 522, 523, 444, 249
391, 523, 67, 75, 444
392, 483, 74, 67, 523
393, 292, 527, 528, 524
394, 524, 528, 525, 285
395, 528, 526, 300, 525
396, 527, 296, 526, 528
397, 686, 506, 644, 722
398, 221, 209, 309, 489
399, 418, 694, 15, 23
400, 631, 722, 594, 351
401, 163, 360, 533, 532
402, 532, 533, 357, 162
403, 533, 46, 57, 357
404, 360, 56, 46, 533
405, 534, 711, 267, 314
406, 844, 625, 626, 196
407, 823, 846, 800, 317
408, 283, 540, 541, 537
409, 537, 541, 538, 281
410, 541, 539, 284, 538
411, 540, 287, 539, 541
412, 146, 543, 544, 542
413, 542, 544, 435, 156
414, 544, 30, 38, 435
415, 543, 3, 30, 544
416, 752, 208, 149, 553
417, 217, 200, 465, 793
418, 824, 672, 683, 531
419, 836, 557, 398, 203
420, 843, 322, 691, 517
421, 680, 266, 756, 681
422, 323, 503, 684, 851
423, 324, 696, 695, 605
424, 853, 190, 376, 167
425, 352, 627, 476, 377
426, 428, 307, 853, 504
427, 204, 703, 555, 673
428, 805, 499, 220, 177
429, 369, 488, 231, 776
430, 283, 537, 562, 560
431, 560, 562, 423, 282
432, 562, 561, 280, 423
433, 537, 281, 561, 562
434, 799, 665, 255, 485
435, 183, 460, 552, 264
436, 460, 182, 692, 552
437, 279, 566, 567, 407
438, 407, 567, 560, 282
439, 567, 565, 283, 560
440, 566, 278, 565, 567
441, 141, 569, 570, 131
442, 131, 570, 568, 142
443, 570, 25, 28, 568
444, 569, 2, 25, 570
445, 807, 367, 173, 205
446, 644, 500, 433, 402
447, 734, 475, 236, 529
448, 512, 362, 227, 342
449, 293, 310, 576, 574
450, 574, 576, 575, 155
451, 576, 124, 9, 575
452, 310, 135, 124, 576
453, 670, 316, 643, 315
454, 535, 372, 625, 844
455, 693, 534, 314, 682
456, 275, 581, 582, 578
457, 578, 582, 579, 287
458, 582, 580, 288, 579
459, 581, 273, 580, 582
460, 277, 584, 585, 583
461, 583, 585, 337, 276
462, 585, 566, 279, 337
463, 584, 278, 566, 585
464, 780, 511, 341, 152
465, 654, 414, 829, 455
466, 603, 377, 369, 633
467, 152, 341, 773, 510
468, 179, 368, 128, 138
469, 594, 402, 418, 609
470, 327, 836, 646, 554
471, 190, 353, 505, 376
472, 278, 591, 592, 565
473, 565, 592, 540, 283
474, 592, 578, 287, 540
475, 591, 275, 578, 592
476, 501, 210, 425, 200
477, 776, 231, 451, 386
478, 218, 749, 835, 151
479, 596, 507, 181, 547
480, 655, 793, 732, 413
481, 234, 211, 325, 749
482, 368, 767, 168, 842
483, 342, 227, 400, 490
484, 225, 595, 165, 454
485, 554, 646, 825, 180
486, 354, 850, 352, 818
487, 417, 370, 364, 224
488, 490, 400, 819, 332
489, 818, 352, 377, 603
490, 222, 234, 749, 218
491, 604, 656, 215, 751
492, 159, 456, 608, 410
493, 410, 608, 606, 160
494, 608, 607, 301, 606
495, 456, 302, 607, 608
496, 209, 450, 237, 309
497, 450, 586, 548, 237
498, 260, 755, 313, 839
499, 398, 746, 638, 806
500, 244, 446, 612, 420
501, 420, 612, 583, 276
502, 612, 611, 277, 583
503, 446, 243, 611, 612
504, 143, 614, 615, 613
505, 613, 615, 543, 146
506, 615, 27, 3, 543
507, 614, 29, 27, 615
508, 286, 619, 620, 616
509, 616, 620, 617, 291
510, 620, 618, 268, 617
511, 619, 274, 618, 620
512, 243, 623, 624, 611
513, 611, 624, 621, 277
514, 624, 622, 270, 621
515, 623, 242, 622, 624
516, 775, 184, 687, 513
517, 419, 699, 209, 221
518, 730, 392, 370, 417
519, 548, 572, 217, 477
520, 281, 629, 630, 561
521, 561, 630, 429, 280
522, 630, 628, 158, 429
523, 629, 298, 628, 630
524, 794, 351, 396, 647
525, 625, 412, 432, 626
526, 764, 428, 504, 333
527, 153, 229, 223, 699
528, 199, 663, 232, 545
529, 386, 451, 214, 453
530, 220, 93, 101, 210
531, 781, 546, 427, 503
532, 270, 635, 636, 621
533, 621, 636, 584, 277
534, 636, 591, 278, 584
535, 635, 275, 591, 636
536, 454, 165, 452, 179
537, 556, 388, 595, 225
538, 627, 599, 750, 476
539, 245, 641, 642, 640
540, 640, 642, 519, 238
541, 642, 437, 252, 519
542, 641, 250, 437, 642
543, 513, 687, 147, 201
544, 832, 547, 502, 838
545, 847, 744, 688, 508
546, 664, 89, 97, 391
547, 29, 614, 648, 26
548, 26, 648, 568, 28
549, 648, 132, 142, 568
550, 614, 143, 132, 648
551, 272, 650, 651, 649
552, 649, 651, 635, 270
553, 651, 581, 275, 635
554, 650, 273, 581, 651
555, 172, 91, 99, 744
556, 390, 530, 207, 772
557, 508, 688, 499, 805
558, 200, 425, 632, 465
559, 451, 726, 415, 214
560, 203, 398, 806, 334
561, 332, 819, 712, 340
562, 725, 605, 399, 353
563, 9, 134, 659, 575
564, 575, 659, 657, 155
565, 659, 658, 295, 657
566, 134, 144, 658, 659
567, 175, 596, 547, 832
568, 721, 335, 387, 507
569, 693, 681, 197, 534
570, 192, 88, 96, 202
571, 768, 639, 830, 663
572, 722, 644, 402, 594
573, 215, 655, 413, 727
574, 510, 773, 206, 590
575, 256, 378, 550, 265
576, 518, 843, 517, 667
577, 267, 729, 518, 667
578, 682, 790, 263, 757
579, 378, 183, 264, 550
580, 316, 330, 852, 331
581, 195, 839, 290, 754
582, 308, 559, 307, 428
583, 774, 151, 685, 219
584, 321, 844, 196, 846
585, 251, 440, 675, 520
586, 520, 675, 674, 239
587, 675, 668, 259, 674
588, 440, 253, 668, 675
589, 296, 527, 678, 676
590, 676, 678, 574, 155
591, 678, 677, 293, 574
592, 527, 292, 677, 678
593, 306, 260, 839, 195
594, 322, 789, 671, 691
595, 185, 668, 253, 473
596, 419, 221, 850, 354
597, 694, 226, 22, 15
598, 647, 17, 2, 569
599, 653, 487, 704, 154
600, 685, 174, 512, 782
601, 502, 323, 851, 559
602, 351, 594, 609, 396
603, 840, 563, 187, 330
604, 671, 710, 187, 563
605, 258, 536, 311, 294
606, 265, 550, 843, 518
607, 577, 556, 225, 137
608, 550, 264, 322, 843
609, 729, 728, 265, 518
610, 317, 136, 125, 536
611, 216, 807, 205, 515
612, 810, 189, 765, 372
613, 206, 597, 233, 414
614, 194, 354, 818, 700
615, 854, 419, 354, 194
616, 673, 555, 506, 686
617, 750, 734, 529, 662
618, 212, 166, 103, 114
619, 733, 391, 637, 514
620, 207, 107, 118, 475
621, 397, 571, 335, 721
622, 169, 731, 199, 367
623, 394, 431, 178, 150
624, 161, 469, 707, 458
625, 458, 707, 705, 297
626, 707, 706, 303, 705
627, 469, 164, 706, 707
628, 239, 674, 709, 496
629, 496, 709, 708, 240
630, 709, 679, 261, 708
631, 674, 259, 679, 709
632, 552, 692, 186, 789
633, 711, 801, 729, 267
634, 516, 669, 665, 799
635, 315, 643, 535, 289
636, 829, 601, 809, 661
637, 363, 733, 514, 573
638, 489, 309, 604, 588
639, 240, 708, 717, 715
640, 715, 717, 716, 271
641, 717, 689, 262, 716
642, 708, 261, 689, 717
643, 372, 765, 412, 625
644, 672, 395, 739, 683
645, 782, 512, 342, 746
646, 170, 631, 351, 794
647, 179, 452, 767, 368
648, 228, 766, 731, 169
649, 751, 215, 727, 598
650, 230, 365, 18, 11
651, 186, 692, 724, 723
652, 723, 724, 687, 184
653, 724, 491, 147, 687
654, 692, 182, 491, 724
655, 806, 638, 229, 153
656, 637, 90, 98, 509
657, 826, 645, 397, 389
658, 149, 686, 722, 631
659, 327, 219, 557, 836
660, 699, 223, 450, 209
661, 810, 331, 188, 328
662, 507, 387, 781, 181
663, 197, 666, 564, 837
664, 549, 808, 742, 262
665, 254, 259, 668, 185
666, 756, 266, 549, 551
667, 174, 573, 362, 512
668, 453, 214, 652, 696
669, 638, 490, 332, 229
670, 370, 120, 110, 364
671, 232, 375, 720, 235
672, 825, 826, 389, 373
673, 389, 397, 721, 171
674, 187, 710, 735, 329
675, 329, 735, 719, 188
676, 735, 723, 184, 719
677, 710, 186, 723, 735
678, 291, 617, 738, 736
679, 736, 738, 305, 294
680, 738, 737, 290, 305
681, 617, 268, 737, 738
682, 769, 202, 664, 740
683, 335, 633, 714, 387
684, 726, 730, 417, 415
685, 271, 716, 743, 741
686, 741, 743, 618, 274
687, 743, 742, 268, 618
688, 716, 262, 742, 743
689, 557, 782, 746, 398
690, 309, 237, 656, 604
691, 559, 851, 191, 307
692, 639, 111, 122, 830
693, 513, 201, 769, 211
694, 353, 399, 216, 505
695, 688, 92, 100, 499
696, 558, 390, 772, 599
697, 146, 542, 748, 613
698, 613, 748, 133, 143
699, 748, 747, 144, 133
700, 542, 156, 747, 748
701, 837, 564, 669, 516
702, 289, 535, 844, 321
703, 219, 685, 782, 557
704, 150, 178, 12, 20
705, 148, 593, 639, 768
706, 633, 369, 776, 714
707, 820, 218, 151, 774
708, 727, 413, 115, 105
709, 401, 106, 117, 530
710, 170, 794, 141, 130
711, 304, 757, 840, 670
712, 304, 670, 315, 306
713, 669, 254, 185, 665
714, 551, 549, 262, 689
715, 564, 257, 254, 669
716, 681, 756, 666, 197
717, 264, 552, 789, 322
718, 164, 478, 759, 706
719, 706, 759, 758, 303
720, 759, 532, 162, 758
721, 478, 163, 532, 759
722, 285, 525, 763, 760
723, 760, 763, 761, 284
724, 763, 762, 299, 761
725, 525, 300, 762, 763
726, 307, 191, 190, 853
727, 477, 217, 793, 655
728, 647, 396, 24, 17
729, 205, 173, 193, 431
730, 555, 333, 416, 506
731, 181, 781, 503, 323
732, 214, 415, 426, 652
733, 168, 204, 673, 208
734, 247, 480, 771, 448
735, 448, 771, 770, 246
736, 771, 522, 249, 770
737, 480, 248, 522, 771
738, 854, 153, 699, 419
739, 173, 545, 718, 193
740, 498, 230, 11, 19
741, 393, 113, 1, 10
742, 326, 600, 645, 826
743, 597, 373, 745, 233
744, 697, 394, 150, 198
745, 177, 220, 210, 501
746, 158, 628, 778, 355
747, 355, 778, 758, 162
748, 778, 777, 303, 758
749, 628, 298, 777, 778
750, 288, 320, 779, 579
751, 579, 779, 539, 287
752, 779, 760, 284, 539
753, 320, 285, 760, 779
754, 374, 602, 392, 730
755, 504, 853, 167, 371
756, 231, 589, 726, 451
757, 365, 393, 10, 18
758, 572, 501, 200, 217
759, 463, 751, 598, 401
760, 731, 768, 663, 199
761, 281, 538, 784, 629
762, 629, 784, 783, 298
763, 784, 761, 299, 783
764, 538, 284, 761, 784
765, 246, 770, 786, 785
766, 785, 786, 641, 245
767, 786, 443, 250, 641
768, 770, 249, 443, 786
769, 297, 705, 788, 787
770, 787, 788, 783, 299
771, 788, 777, 298, 783
772, 705, 303, 777, 788
773, 823, 317, 536, 258
774, 757, 263, 563, 840
775, 666, 756, 551, 804
776, 306, 315, 289, 260
777, 245, 791, 792, 785
778, 785, 792, 447, 246
779, 792, 623, 243, 447
780, 791, 242, 623, 792
781, 375, 112, 123, 720
782, 589, 374, 730, 726
783, 505, 216, 515, 753
784, 851, 684, 725, 191
785, 241, 796, 797, 795
786, 795, 797, 622, 242
787, 797, 649, 270, 622
788, 796, 272, 649, 797
789, 242, 791, 798, 795
790, 795, 798, 494, 241
791, 798, 640, 238, 494
792, 791, 245, 640, 798
793, 804, 551, 689, 261
794, 789, 186, 710, 671
795, 316, 331, 810, 643
796, 711, 837, 516, 801
797, 272, 796, 803, 802
798, 802, 803, 715, 271
799, 803, 495, 240, 715
800, 796, 241, 495, 803
801, 801, 516, 799, 269
802, 314, 690, 790, 682
803, 517, 691, 263, 790
804, 314, 267, 667, 690
805, 334, 806, 153, 854
806, 752, 553, 140, 129
807, 371, 167, 713, 701
808, 547, 181, 323, 502
809, 268, 742, 808, 737
810, 737, 808, 754, 290
811, 317, 800, 126, 136
812, 534, 197, 837, 711
813, 328, 188, 719, 213
814, 416, 371, 701, 500
815, 368, 842, 139, 128
816, 333, 504, 371, 416
817, 299, 762, 812, 787
818, 787, 812, 457, 297
819, 812, 811, 302, 457
820, 762, 300, 811, 812
821, 295, 814, 815, 657
822, 657, 815, 676, 155
823, 815, 813, 296, 676
824, 814, 301, 813, 815
825, 301, 814, 817, 606
826, 606, 817, 382, 160
827, 817, 816, 157, 382
828, 814, 295, 816, 817
829, 702, 753, 697, 487
830, 773, 180, 597, 206
831, 712, 805, 177, 610
832, 376, 505, 753, 702
833, 274, 619, 822, 821
834, 821, 822, 580, 273
835, 822, 319, 288, 580
836, 619, 286, 319, 822
837, 573, 514, 366, 362
838, 395, 838, 308, 739
839, 431, 193, 498, 178
840, 819, 508, 805, 712
841, 433, 176, 226, 694
842, 828, 172, 744, 847
843, 341, 554, 180, 773
844, 166, 95, 8, 103
845, 271, 741, 827, 802
846, 802, 827, 650, 272
847, 827, 821, 273, 650
848, 741, 274, 821, 827
849, 713, 702, 487, 653
850, 487, 697, 198, 704
851, 165, 634, 824, 452
852, 842, 168, 208, 752
853, 595, 455, 634, 165
854, 632, 102, 95, 166
855, 426, 224, 148, 766
856, 300, 526, 831, 811
857, 811, 831, 607, 302
858, 831, 813, 301, 607
859, 526, 296, 813, 831
860, 753, 515, 394, 697
861, 364, 110, 121, 593
862, 599, 772, 734, 750
863, 413, 732, 104, 115
864, 286, 616, 834, 318
865, 318, 834, 524, 285
866, 834, 833, 292, 524
867, 616, 291, 833, 834
868, 684, 324, 605, 725
869, 304, 680, 681, 693
870, 590, 206, 414, 654
871, 801, 269, 728, 729
872, 388, 654, 455, 595
873, 531, 683, 703, 204
874, 178, 498, 19, 12
875, 546, 386, 453, 427
876, 670, 840, 330, 316
877, 196, 626, 556, 577
878, 680, 195, 754, 266
879, 691, 671, 563, 263
880, 666, 804, 257, 564
881, 266, 754, 808, 549
882, 291, 736, 841, 833
883, 833, 841, 677, 292
884, 841, 312, 293, 677
885, 736, 294, 312, 841
886, 191, 725, 353, 190
887, 600, 194, 700, 645
888, 767, 531, 204, 168
889, 151, 835, 174, 685
890, 665, 185, 473, 255
891, 304, 306, 195, 680
892, 755, 321, 846, 823
893, 667, 517, 790, 690
894, 295, 658, 845, 816
895, 816, 845, 434, 157
896, 845, 747, 156, 434
897, 658, 144, 747, 845
898, 839, 313, 305, 290
899, 313, 258, 294, 305
900, 846, 196, 577, 800
901, 626, 432, 388, 556
902, 515, 205, 431, 394
903, 211, 769, 740, 325
904, 293, 312, 848, 310
905, 310, 848, 311, 135
906, 312, 294, 311, 848
907, 804, 261, 679, 257
908, 536, 125, 135, 311
909, 755, 823, 258, 313
910, 304, 693, 682, 757
911, 800, 577, 137, 126
912, 285, 320, 849, 318
913, 318, 849, 319, 286
914, 320, 288, 319, 849
915, 269, 799, 485, 145
916, 260, 289, 321, 755
917, 391, 97, 90, 637
918, 198, 150, 20, 13
919, 465, 632, 166, 212
920, 203, 334, 600, 326
921, 571, 603, 633, 335
922, 488, 662, 589, 231
923, 188, 331, 852, 329
924, 329, 852, 330, 187
925, 587, 558, 599, 627
926, 489, 588, 558, 587
*ELSET,ELSET=contact_source
101, 102, 103, 104, 105, 106, 107, 108, 109, 110, 
111, 112, 113, 114, 115, 116, 117, 118, 119, 120, 
121, 122, 
*ELSET,ELSET=contact_drain
39, 40, 41, 42, 43, 44, 45, 46, 47, 48, 
49, 50, 51, 52, 53, 54, 55, 56, 57, 58, 
59, 60, 
*ELSET,ELSET=probe_A
77, 78, 79, 80, 81, 82, 83, 84, 
*ELSET,ELSET=probe_B
17, 18, 19, 20, 21, 22, 
*ELSET,ELSET=walls
1, 2, 3, 4, 5, 6, 7, 8, 9, 10, 
11, 12, 13, 14, 15, 16, 23, 24, 25, 26, 
27, 28, 29, 30, 31, 32, 33, 34, 35, 36, 
37, 38, 61, 62, 63, 64, 65, 66, 67, 68, 
69, 70, 71, 72, 73, 74, 75, 76, 85, 86, 
87, 88, 89, 90, 91, 92, 93, 94, 95, 96, 
97, 98, 99, 100, 123, 124, 125, 126, 127, 128, 
129, 130, 131, 132, 133, 134, 135, 136, 137, 138, 
139, 140, 141, 142, 143, 144, 
*ELSET,ELSET=domain
145, 146, 147, 148, 149, 150, 151, 152, 153, 154, 
155, 156, 157, 158, 159, 160, 161, 162, 163, 164, 
165, 166, 167, 168, 169, 170, 171, 172, 173, 174, 
175, 176, 177, 178, 179, 180, 181, 182, 183, 184, 
185, 186, 187, 188, 189, 190, 191, 192, 193, 194, 
195, 196, 197, 198, 199, 200, 201, 202, 203, 204, 
205, 206, 207, 208, 209, 210, 211, 212, 213, 214, 
215, 216, 217, 218, 219, 220, 221, 222, 223, 224, 
225, 226, 227, 228, 229, 230, 231, 232, 233, 234, 
235, 236, 237, 238, 239, 240, 241, 242, 243, 244, 
245, 246, 247, 248, 249, 250, 251, 252, 253, 254, 
255, 256, 257, 258, 259, 260, 261, 262, 263, 264, 
265, 266, 267, 268, 269, 270, 271, 272, 273, 274, 
275, 276, 277, 278, 279, 280, 281, 282, 283, 284, 
285, 286, 287, 288, 289, 290, 291, 292, 293, 294, 
295, 296, 297, 298, 299, 300, 301, 302, 303, 304, 
305, 306, 307, 308, 309, 310, 311, 312, 313, 314, 
315, 316, 317, 318, 319, 320, 321, 322, 323, 324, 
325, 326, 327, 328, 329, 330, 331, 332, 333, 334, 
335, 336, 337, 338, 339, 340, 341, 342, 343, 344, 
345, 346, 347, 348, 349, 350, 351, 352, 353, 354, 
355, 356, 357, 358, 359, 360, 361, 362, 363, 364, 
365, 366, 367, 368, 369, 370, 371, 372, 373, 374, 
375, 376, 377, 378, 379, 380, 381, 382, 383, 384, 
385, 386, 387, 388, 389, 390, 391, 392, 393, 394, 
395, 396, 397, 398, 399, 400, 401, 402, 403, 404, 
405, 406, 407, 408, 409, 410, 411, 412, 413, 414, 
415, 416, 417, 418, 419, 420, 421, 422, 423, 424, 
425, 426, 427, 428, 429, 430, 431, 432, 433, 434, 
435, 436, 437, 438, 439, 440, 441, 442, 443, 444, 
445, 446, 447, 448, 449, 450, 451, 452, 453, 454, 
455, 456, 457, 458, 459, 460, 461, 462, 463, 464, 
465, 466, 467, 468, 469, 470, 471, 472, 473, 474, 
475, 476, 477, 478, 479, 480, 481, 482, 483, 484, 
485, 486, 487, 488, 489, 490, 491, 492, 493, 494, 
495, 496, 497, 498, 499, 500, 501, 502, 503, 504, 
505, 506, 507, 508, 509, 510, 511, 512, 513, 514, 
515, 516, 517, 518, 519, 520, 521, 522, 523, 524, 
525, 526, 527, 528, 529, 530, 531, 532, 533, 534, 
535, 536, 537, 538, 539, 540, 541, 542, 543, 544, 
545, 546, 547, 548, 549, 550, 551, 552, 553, 554, 
555, 556, 557, 558, 559, 560, 561, 562, 563, 564, 
565, 566, 567, 568, 569, 570, 571, 572, 573, 574, 
575, 576, 577, 578, 579, 580, 581, 582, 583, 584, 
585, 586, 587, 588, 589, 590, 591, 592, 593, 594, 
595, 596, 597, 598, 599, 600, 601, 602, 603, 604, 
605, 606, 607, 608, 609, 610, 611, 612, 613, 614, 
615, 616, 617, 618, 619, 620, 621, 622, 623, 624, 
625, 626, 627, 628, 629, 630, 631, 632, 633, 634, 
635, 636, 637, 638, 639, 640, 641, 642, 643, 644, 
645, 646, 647, 648, 649, 650, 651, 652, 653, 654, 
655, 656, 657, 658, 659, 660, 661, 662, 663, 664, 
665, 666, 667, 668, 669, 670, 671, 672, 673, 674, 
675, 676, 677, 678, 679, 680, 681, 682, 683, 684, 
685, 686, 687, 688, 689, 690, 691, 692, 693, 694, 
695, 696, 697, 698, 699, 700, 701, 702, 703, 704, 
705, 706, 707, 708, 709, 710, 711, 712, 713, 714, 
715, 716, 717, 718, 719, 720, 721, 722, 723, 724, 
725, 726, 727, 728, 729, 730, 731, 732, 733, 734, 
735, 736, 737, 738, 739, 740, 741, 742, 743, 744, 
745, 746, 747, 748, 749, 750, 751, 752, 753, 754, 
755, 756, 757, 758, 759, 760, 761, 762, 763, 764, 
765, 766, 767, 768, 769, 770, 771, 772, 773, 774, 
775, 776, 777, 778, 779, 780, 781, 782, 783, 784, 
785, 786, 787, 788, 789, 790, 791, 792, 793, 794, 
795, 796, 797, 798, 799, 800, 801, 802, 803, 804, 
805, 806, 807, 808, 809, 810, 811, 812, 813, 814, 
815, 816, 817, 818, 819, 820, 821, 822, 823, 824, 
825, 826, 827, 828, 829, 830, 831, 832, 833, 834, 
835, 836, 837, 838, 839, 840, 841, 842, 843, 844, 
845, 846, 847, 848, 849, 850, 851, 852, 853, 854, 
855, 856, 857, 858, 859, 860, 861, 862, 863, 864, 
865, 866, 867, 868, 869, 870, 871, 872, 873, 874, 
875, 876, 877, 878, 879, 880, 881, 882, 883, 884, 
885, 886, 887, 888, 889, 890, 891, 892, 893, 894, 
895, 896, 897, 898, 899, 900, 901, 902, 903, 904, 
905, 906, 907, 908, 909, 910, 911, 912, 913, 914, 
915, 916, 917, 918, 919, 920, 921, 922, 923, 924, 
925, 926, 
*NSET,NSET=contact_source
1, 8, 103, 104, 105, 106, 107, 108, 109, 110, 
111, 112, 113, 114, 115, 116, 117, 118, 119, 120, 
121, 122, 123, 
*NSET,NSET=contact_drain
4, 5, 45, 46, 47, 48, 49, 50, 51, 52, 
53, 54, 55, 56, 57, 58, 59, 60, 61, 62, 
63, 64, 65, 
*NSET,NSET=probe_A
6, 7, 81, 82, 83, 84, 85, 86, 87, 
*NSET,NSET=probe_B
2, 3, 25, 26, 27, 28, 29, 
*NSET,NSET=walls
1, 2, 3, 4, 5, 6, 7, 8, 9, 10, 
11, 12, 13, 14, 15, 16, 17, 18, 19, 20, 
21, 22, 23, 24, 30, 31, 32, 33, 34, 35, 
36, 37, 38, 39, 40, 41, 42, 43, 44, 66, 
67, 68, 69, 70, 71, 72, 73, 74, 75, 76, 
77, 78, 79, 80, 88, 89, 90, 91, 92, 93, 
94, 95, 96, 97, 98, 99, 100, 101, 102, 124, 
125, 126, 127, 128, 129, 130, 131, 132, 133, 134, 
135, 136, 137, 138, 139, 140, 141, 142, 143, 144, 
*NSET,NSET=domain
1, 2, 3, 4, 5, 6, 7, 8, 9, 10, 
11, 12, 13, 14, 15, 16, 17, 18, 19, 20, 
21, 22, 23, 24, 25, 26, 27, 28, 29, 30, 
31, 32, 33, 34, 35, 36, 37, 38, 39, 40, 
41, 42, 43, 44, 45, 46, 47, 48, 49, 50, 
51, 52, 53, 54, 55, 56, 57, 58, 59, 60, 
61, 62, 63, 64, 65, 66, 67, 68, 69, 70, 
71, 72, 73, 74, 75, 76, 77, 78, 79, 80, 
81, 82, 83, 84, 85, 86, 87, 88, 89, 90, 
91, 92, 93, 94, 95, 96, 97, 98, 99, 100, 
101, 102, 103, 104, 105, 106, 107, 108, 109, 110, 
111, 112, 113, 114, 115, 116, 117, 118, 119, 120, 
121, 122, 123, 124, 125, 126, 127, 128, 129, 130, 
131, 132, 133, 134, 135, 136, 137, 138, 139, 140, 
141, 142, 143, 144, 145, 146, 147, 148, 149, 150, 
151, 152, 153, 154, 155, 156, 157, 158, 159, 160, 
161, 162, 163, 164, 165, 166, 167, 168, 169, 170, 
171, 172, 173, 174, 175, 176, 177, 178, 179, 180, 
181, 182, 183, 184, 185, 186, 187, 188, 189, 190, 
191, 192, 193, 194, 195, 196, 197, 198, 199, 200, 
201, 202, 203, 204, 205, 206, 207, 208, 209, 210, 
211, 212, 213, 214, 215, 216, 217, 218, 219, 220, 
221, 222, 223, 224, 225, 226, 227, 228, 229, 230, 
231, 232, 233, 234, 235, 236, 237, 238, 239, 240, 
241, 242, 243, 244, 245, 246, 247, 248, 249, 250, 
251, 252, 253, 254, 255, 256, 257, 258, 259, 260, 
261, 262, 263, 264, 265, 266, 267, 268, 269, 270, 
271, 272, 273, 274, 275, 276, 277, 278, 279, 280, 
281, 282, 283, 284, 285, 286, 287, 288, 289, 290, 
291, 292, 293, 294, 295, 296, 297, 298, 299, 300, 
301, 302, 303, 304, 305, 306, 307, 308, 309, 310, 
311, 312, 313, 314, 315, 316, 317, 318, 319, 320, 
321, 322, 323, 324, 325, 326, 327, 328, 329, 330, 
331, 332, 333, 334, 335, 336, 337, 338, 339, 340, 
341, 342, 343, 344, 345, 346, 347, 348, 349, 350, 
351, 352, 353, 354, 355, 356, 357, 358, 359, 360, 
361, 362, 363, 364, 365, 366, 367, 368, 369, 370, 
371, 372, 373, 374, 375, 376, 377, 378, 379, 380, 
381, 382, 383, 384, 385, 386, 387, 388, 389, 390, 
391, 392, 393, 394, 395, 396, 397, 398, 399, 400, 
401, 402, 403, 404, 405, 406, 407, 408, 409, 410, 
411, 412, 413, 414, 415, 416, 417, 418, 419, 420, 
421, 422, 423, 424, 425, 426, 427, 428, 429, 430, 
431, 432, 433, 434, 435, 436, 437, 438, 439, 440, 
441, 442, 443, 444, 445, 446, 447, 448, 449, 450, 
451, 452, 453, 454, 455, 456, 457, 458, 459, 460, 
461, 462, 463, 464, 465, 466, 467, 468, 469, 470, 
471, 472, 473, 474, 475, 476, 477, 478, 479, 480, 
481, 482, 483, 484, 485, 486, 487, 488, 489, 490, 
491, 492, 493, 494, 495, 496, 497, 498, 499, 500, 
501, 502, 503, 504, 505, 506, 507, 508, 509, 510, 
511, 512, 513, 514, 515, 516, 517, 518, 519, 520, 
521, 522, 523, 524, 525, 526, 527, 528, 529, 530, 
531, 532, 533, 534, 535, 536, 537, 538, 539, 540, 
541, 542, 543, 544, 545, 546, 547, 548, 549, 550, 
551, 552, 553, 554, 555, 556, 557, 558, 559, 560, 
561, 562, 563, 564, 565, 566, 567, 568, 569, 570, 
571, 572, 573, 574, 575, 576, 577, 578, 579, 580, 
581, 582, 583, 584, 585, 586, 587, 588, 589, 590, 
591, 592, 593, 594, 595, 596, 597, 598, 599, 600, 
601, 602, 603, 604, 605, 606, 607, 608, 609, 610, 
611, 612, 613, 614, 615, 616, 617, 618, 619, 620, 
621, 622, 623, 624, 625, 626, 627, 628, 629, 630, 
631, 632, 633, 634, 635, 636, 637, 638, 639, 640, 
641, 642, 643, 644, 645, 646, 647, 648, 649, 650, 
651, 652, 653, 654, 655, 656, 657, 658, 659, 660, 
661, 662, 663, 664, 665, 666, 667, 668, 669, 670, 
671, 672, 673, 674, 675, 676, 677, 678, 679, 680, 
681, 682, 683, 684, 685, 686, 687, 688, 689, 690, 
691, 692, 693, 694, 695, 696, 697, 698, 699, 700, 
701, 702, 703, 704, 705, 706, 707, 708, 709, 710, 
711, 712, 713, 714, 715, 716, 717, 718, 719, 720, 
721, 722, 723, 724, 725, 726, 727, 728, 729, 730, 
731, 732, 733, 734, 735, 736, 737, 738, 739, 740, 
741, 742, 743, 744, 745, 746, 747, 748, 749, 750, 
751, 752, 753, 754, 755, 756, 757, 758, 759, 760, 
761, 762, 763, 764, 765, 766, 767, 768, 769, 770, 
771, 772, 773, 774, 775, 776, 777, 778, 779, 780, 
781, 782, 783, 784, 785, 786, 787, 788, 789, 790, 
791, 792, 793, 794, 795, 796, 797, 798, 799, 800, 
801, 802, 803, 804, 805, 806, 807, 808, 809, 810, 
811, 812, 813, 814, 815, 816, 817, 818, 819, 820, 
821, 822, 823, 824, 825, 826, 827, 828, 829, 830, 
831, 832, 833, 834, 835, 836, 837, 838, 839, 840, 
841, 842, 843, 844, 845, 846, 847, 848, 849, 850, 
851, 852, 853, 854, 
