*Heading
 /Users/juliagao/geometry-optimization-net/scripts/../runs/2d/shape_54.inp
*NODE
1, 0, -0.3, 0
2, 0.425, -0.3, 0
3, 0.575, -0.3, 0
4, 1, -0.3, 0
5, 1, 0.3, 0
6, 0.575, 0.3, 0
7, 0.425, 0.3, 0
8, 0, 0.3, 0
9, 0.6002382239, -0.15, 0
10, 0.025873024812472, -0.3, 0
11, 0.077780730781706, -0.3, 0
12, 0.12994144362843, -0.3, 0
13, 0.18242411419125, -0.3, 0
14, 0.23555440181173, -0.3, 0
15, 0.28957347455491, -0.3, 0
16, 0.34423626966639, -0.3, 0
17, 0.39832682039115, -0.3, 0
18, 0.051746049624944, -0.3, 0
19, 0.10381541193847, -0.3, 0
20, 0.15606747531838, -0.3, 0
21, 0.20878075306412, -0.3, 0
22, 0.26232805055935, -0.3, 0
23, 0.31681889855048, -0.3, 0
24, 0.3716536407823, -0.3, 0
25, 0.44456799982231, -0.3, 0
26, 0.48243791542948, -0.3, 0
27, 0.51881667607327, -0.3, 0
28, 0.5559467604661, -0.3, 0
29, 0.46413599964462, -0.3, 0
30, 0.50073983121433, -0.3, 0
31, 0.5368935209322, -0.3, 0
32, 0.60077039554227, -0.3, 0
33, 0.65282765949373, -0.3, 0
34, 0.70577257491669, -0.3, 0
35, 0.75971933639491, -0.3, 0
36, 0.81464665845816, -0.3, 0
37, 0.86948211698008, -0.3, 0
38, 0.92273804096085, -0.3, 0
39, 0.97439855700927, -0.3, 0
40, 0.62654079108455, -0.3, 0
41, 0.67911452790291, -0.3, 0
42, 0.73243062193048, -0.3, 0
43, 0.78700805085933, -0.3, 0
44, 0.84228526605699, -0.3, 0
45, 0.89667896790318, -0.3, 0
46, 0.94879711401853, -0.3, 0
47, 1, -0.27325864909961, 0
48, 1, -0.21899220455451, 0
49, 1, -0.16411761991893, 0
50, 1, -0.10976159054292, 0
51, 1, -0.056018059428821, 0
52, 1, -0.0024341961970073, 0
53, 1, 0.051865305345699, 0
54, 1, 0.10748640545361, 0
55, 1, 0.16349582226473, 0
56, 1, 0.21872117231242, 0
57, 1, 0.27305278730852, 0
58, 1, -0.24651729819923, 0
59, 1, -0.19146711090978, 0
60, 1, -0.13676812892807, 0
61, 1, -0.082755052157771, 0
62, 1, -0.029281066699872, 0
63, 1, 0.024412674305857, 0
64, 1, 0.07931793638554, 0
65, 1, 0.13565487452167, 0
66, 1, 0.1913367700078, 0
67, 1, 0.24610557461704, 0
68, 0.97352401084542, 0.3, 0
69, 0.92098947458742, 0.3, 0
70, 0.86903728518913, 0.3, 0
71, 0.81632299550323, 0.3, 0
72, 0.76196919736602, 0.3, 0
73, 0.70710051220118, 0.3, 0
74, 0.65306766880336, 0.3, 0
75, 0.60068517991209, 0.3, 0
76, 0.94704802169084, 0.3, 0
77, 0.89493092748401, 0.3, 0
78, 0.84314364289426, 0.3, 0
79, 0.78950234811221, 0.3, 0
80, 0.73443604661983, 0.3, 0
81, 0.67976497778254, 0.3, 0
82, 0.62637035982418, 0.3, 0
83, 0.55608125729379, 0.3, 0
84, 0.51868208440479, 0.3, 0
85, 0.48164602758362, 0.3, 0
86, 0.44404520047262, 0.3, 0
87, 0.53716251458758, 0.3, 0
88, 0.500201654222, 0.3, 0
89, 0.46309040094524, 0.3, 0
90, 0.39855356047111, 0.3, 0
91, 0.3446828763439, 0.3, 0
92, 0.28992191112641, 0.3, 0
93, 0.23622645841965, 0.3, 0
94, 0.18395924200923, 0.3, 0
95, 0.13171321828507, 0.3, 0
96, 0.079018076129944, 0.3, 0
97, 0.026330236688065, 0.3, 0
98, 0.37210712094221, 0.3, 0
99, 0.31725863174558, 0.3, 0
100, 0.26258519050723, 0.3, 0
101, 0.20986772633208, 0.3, 0
102, 0.15805075768638, 0.3, 0
103, 0.10537567888376, 0.3, 0
104, 0.052660473376129, 0.3, 0
105, 0, 0.27340849156716, 0
106, 0, 0.21941376144371, 0
107, 0, 0.16428168043812, 0
108, 0, 0.10875268285384, 0
109, 0, 0.053461407833621, 0
110, 0, -0.0011785050204458, 0
111, 0, -0.055813663827467, 0
112, 0, -0.11090131097609, 0
113, 0, -0.1659386906574, 0
114, 0, -0.22029454113756, 0
115, 0, -0.27360713819058, 0
116, 0, 0.24681698313431, 0
117, 0, 0.1920105397531, 0
118, 0, 0.13655282112314, 0
119, 0, 0.080952544584539, 0
120, 0, 0.025970271082702, 0
121, 0, -0.028327281123594, 0
122, 0, -0.08330004653134, 0
123, 0, -0.13850257542084, 0
124, 0, -0.19337480589396, 0
125, 0, -0.24721427638116, 0
126, 0.59684679165286, -0.12414655969689, 0
127, 0.57089271257677, -0.079134459381241, 0
128, 0.52574384187209, -0.053124017284396, 0
129, 0.47288015889752, -0.05350017745303, 0
130, 0.42617269918108, -0.08219711534418, 0
131, 0.40129345443327, -0.13254378989812, 0
132, 0.40726457630307, -0.18805052856704, 0
133, 0.44001082753651, -0.23030566988188, 0
134, 0.48576586786761, -0.24922243145534, 0
135, 0.53257429542099, -0.24479776731231, 0
136, 0.57275003755226, -0.21895747584604, 0
137, 0.59696518090772, -0.17540580839183, 0
138, 0.58690198475541, -0.10004255322, 0
139, 0.5499907573631, -0.063117173054296, 0
140, 0.49973473457794, -0.049762127131877, 0
141, 0.44800980889359, -0.064298649158907, 0
142, 0.41019326804997, -0.10547526132878, 0
143, 0.4003696954146, -0.16102288088422, 0
144, 0.42134032823109, -0.21213177587957, 0
145, 0.46273452710578, -0.2430536726087, 0
146, 0.50960257041318, -0.2497772121117, 0
147, 0.55375485016588, -0.23460565879259, 0
148, 0.58735980095783, -0.19915248416739, 0
149, 0.41099482286917, 0.24372753603475, 0
150, 0.44466091213759, 0.099109565252515, 0
151, 0.10320965130563, -0.24595813122503, 0
152, 0.05157565703286, -0.24632496597737, 0
153, 0.15487056412833, -0.24590494545474, 0
154, 0.2575939741553, -0.24712252231677, 0
155, 0.2064566275232, -0.24622366125407, 0
156, 0.33647202280542, -0.27479983990967, 0
157, 0.30721172931318, -0.24876891776159, 0
158, 0.94824802020325, -0.080699162505605, 0
159, 0.55298118959301, 0.00044301074198988, 0
160, 0.66324105305257, -0.25490916578215, 0
161, 0.59214872646045, -0.28357106764088, 0
162, 0.94748900572158, -0.1350589916104, 0
163, 0.72405843770188, -0.24594372833868, 0
164, 0.78289513342561, -0.24342111752962, 0
165, 0.83951868953739, -0.2434886641956, 0
166, 0.9471617209106, -0.19003127539035, 0
167, 0.8942790347896, -0.24425573153936, 0
168, 0.94753983443756, -0.2451735911901, 0
169, 0.25575947137274, 0.19126590963573, 0
170, 0.25279452723985, 0.13755681197822, 0
171, 0.20315816891756, 0.13754740872973, 0
172, 0.10215695943634, 0.13698938661862, 0
173, 0.15288612666234, 0.1372928168271, 0
174, 0.051148746119472, 0.136727278546, 0
175, 0.10301992994833, 0.19146493022937, 0
176, 0.15425489128583, 0.19150042443096, 0
177, 0.051566429514843, 0.1915523347019, 0
178, 0.052087588646764, 0.24600622823911, 0
179, 0.15596324507167, 0.24574304690201, 0
180, 0.1041092949554, 0.24580064168366, 0
181, 0.20518337758617, 0.19149297650499, 0
182, 0.20759346660108, 0.24567652146114, 0
183, 0.25927141401517, 0.24549290959866, 0
184, 0.31102170720219, 0.24510074010822, 0
185, 0.35535354759875, 0.18936993697692, 0
186, 0.36208084707328, 0.24447363484354, 0
187, 0.65781753140584, 0.27153507934444, 0
188, 0.44725894216409, 0.12843003158582, 0
189, 0.4039293721298, 0.1876778208909, 0
190, 0.44126996416362, 0.068926575655487, 0
191, 0.39809707764591, 0.131922318823, 0
192, 0.30588579006323, 0.19060845353894, 0
193, 0.34987063927395, 0.13511769548904, 0
194, 0.301666744382, 0.13692890040478, 0
195, 0.34444817393257, 0.083040414858906, 0
196, 0.29833124086761, 0.084745852971414, 0
197, 0.39068464759098, 0.07709642321439, 0
198, 0.57686412451484, 0.064856294432513, 0
199, 0.52289931342076, 0.064842634514025, 0
200, 0.49514678846528, 0.0031702634963087, 0
201, 0.38508177490586, 0.05086657141617, 0
202, 0.65531770535763, 0.070806281076129, 0
203, 0.29707742124049, 0.034487389143363, 0
204, 0.33974226055134, 0.036460180981372, 0
205, 0.15197025257478, 0.083102294699305, 0
206, 0.20179844124665, 0.083832142460867, 0
207, 0.25073764390623, 0.084538550859371, 0
208, 0.25018977570312, 0.03189331599079, 0
209, 0.20137244597426, 0.030046653469909, 0
210, 0.15161868568652, 0.02878481111847, 0
211, 0.10157867618245, 0.082439584241445, 0
212, 0.050866738140825, 0.081792650540532, 0
213, 0.050731281465758, 0.026981297926236, 0
214, 0.10132294363158, 0.027831213331433, 0
215, 0.15372577890242, -0.19143444170591, 0
216, 0.051299888553414, -0.19220415496941, 0
217, 0.10256574931372, -0.19161595234218, 0
218, 0.20460355938513, -0.19178557907118, 0
219, 0.25476325295496, -0.19310303455521, 0
220, 0.2035309045727, -0.1363165305135, 0
221, 0.25391757216731, -0.13691737848048, 0
222, 0.10202594611012, -0.13686606089588, 0
223, 0.15287674924758, -0.13642527346275, 0
224, 0.051044964406926, -0.13754825802382, 0
225, 0.050739537228753, -0.027735419482456, 0
226, 0.10136494874493, -0.026919254779335, 0
227, 0.10162194737094, -0.081871486690937, 0
228, 0.050851301817271, -0.082617427856929, 0
229, 0.25155560002065, -0.021939732630431, 0
230, 0.15177591667855, -0.025915255631122, 0
231, 0.20187178147829, -0.024475723096443, 0
232, 0.25337703230433, -0.078825653805578, 0
233, 0.15225076989738, -0.081089637643781, 0
234, 0.20274660416253, -0.080168293242256, 0
235, 0.41096758009555, -0.21963703945386, 0
236, 0.30313267564471, -0.19624717132295, 0
237, 0.30392186433596, -0.13940219850386, 0
238, 0.35267558130469, -0.14689229391506, 0
239, 0.36677352044255, -0.068919007370067, 0
240, 0.30546605147142, -0.076288888449301, 0
241, 0.30053962812075, -0.016527324893908, 0
242, 0.34633513950701, -0.0035257897635273, 0
243, 0.35437664996034, 0.019928399461652, 0
244, 0.79532697700471, 0.18948639417184, 0
245, 0.74436414825082, 0.18841513647042, 0
246, 0.74867023633844, 0.1335513745606, 0
247, 0.84824159731856, 0.13583005490768, 0
248, 0.79831295724272, 0.13509651531857, 0
249, 0.89854380003089, 0.13596172569993, 0
250, 0.94917727094651, 0.13579286776259, 0
251, 0.84635457920669, 0.19012736067786, 0
252, 0.89744570668581, 0.19047174126076, 0
253, 0.94866329715794, 0.19074498209865, 0
254, 0.94801491576117, 0.24549022502437, 0
255, 0.84442438302066, 0.24494754008563, 0
256, 0.89621937496687, 0.24520775910515, 0
257, 0.7922284081989, 0.2445716378566, 0
258, 0.73974208095117, 0.24404395261278, 0
259, 0.68758370859815, 0.24342516306127, 0
260, 0.60350799137684, 0.066123559714305, 0
261, 0.62651133442417, 0.097848693522521, 0
262, 0.52242043466773, 0.15525854328976, 0
263, 0.52259133316006, 0.1256263842895, 0
264, 0.59849847303227, 0.12621696864757, 0
265, 0.54582131977815, 0.18440947663879, 0
266, 0.49803343840877, 0.15568863269981, 0
267, 0.69361752599513, 0.18705901576691, 0
268, 0.45151880166293, 0.1860321625917, 0
269, 0.69899249842846, 0.13112045102918, 0
270, 0.7048812244209, 0.076243377641535, 0
271, 0.43840349378445, 0.27166918285424, 0
272, 0.57318457526445, 0.12564192822894, 0
273, 0.4537005432171, 0.21458666891836, 0
274, 0.5939715183275, 0.18470416072992, 0
275, 0.57489648135416, 0.095587769135507, 0
276, 0.84969110216447, 0.08238643781058, 0
277, 0.75297005192395, 0.080186155340864, 0
278, 0.80096289210497, 0.082041971063369, 0
279, 0.80267909757533, 0.031062550615778, 0
280, 0.75727971617443, 0.029950700503342, 0
281, 0.85019285471466, 0.030131572814758, 0
282, 0.94948711286669, 0.080962686241121, 0
283, 0.8992783803175, 0.081924640087933, 0
284, 0.9494558143334, 0.026744890175163, 0
285, 0.89934535709488, 0.028565194549882, 0
286, 0.89658461440183, -0.07791025100397, 0
287, 0.94901612484228, -0.026932332991509, 0
288, 0.89843627930242, -0.024423210070108, 0
289, 0.70519333500733, -0.03169602510502, 0
290, 0.77759303152096, -0.037486116683663, 0
291, 0.78972968682489, -0.092996936976083, 0
292, 0.55412826599232, -0.033282034632792, 0
293, 0.71268026091017, 0.023908137883723, 0
294, 0.66497246352896, 0.012962187243498, 0
295, 0.8249022559653, -0.01953672089427, 0
296, 0.63961918096968, -0.20601733529954, 0
297, 0.68182266512114, -0.15910988410408, 0
298, 0.83869564528645, -0.18625050271055, 0
299, 0.79518865962165, -0.066214367124433, 0
300, 0.89461807470089, -0.13257945491953, 0
301, 0.78076174492327, -0.18440624308717, 0
302, 0.71796053408588, -8.6686373919715e-05, 0
303, 0.71704650565534, -0.18662211305177, 0
304, 0.8936698696039, -0.18830319413626, 0
305, 0.82593255160151, 0.0055037767174013, 0
306, 0.72479360689503, -0.021481910249772, 0
307, 0.38255614701821, -0.21038959944078, 0
308, 0.42628788192186, -0.23907015196989, 0
309, 0.34897192611365, -0.17618427619531, 0
310, 0.35316484658262, -0.25041976955898, 0
311, 0.63902744046955, 0.0069681011973426, 0
312, 0.75070167588194, -0.051250964625015, 0
313, 0.8027322666346, 0.0064998988525263, 0
314, 0.35610456211508, -0.029186491325773, 0
315, 0.37975211566091, -0.010413235705974, 0
316, 0.39629512330859, -0.036288192508861, 0
317, 0.47049571821402, 0.097324762721433, 0
318, 0.57153245176393, 0.15520575841203, 0
319, 0.63455030755429, -0.26344307881199, 0
320, 0.55745355655832, -0.2728119718241, 0
321, 0.57588082140659, -0.2779328740708, 0
322, 0.50677752615907, -0.27256310262792, 0
323, 0.65275056661595, -0.23192981849058, 0
324, 0.37392790911997, -0.25032613757688, 0
325, 0.32731780725222, -0.22458030595488, 0
326, 0.37604047732381, -0.15356843001847, 0
327, 0.49857442967411, 0.18487923269023, 0
328, 0.47371357181297, 0.15639756685337, 0
329, 0.42252562452484, 0.1301012845798, 0
330, 0.61148613727458, 0.0015694691955621, 0
331, 0.61851625321233, -0.034611236538597, 0
332, 0.58648176379667, -0.046215935153974, 0
333, 0.76004687231062, -0.014204563487216, 0
334, 0.71628095912825, -0.15180199818048, 0
335, 0.6064871031453, -0.08332537503592, 0
336, 0.025374904956138, 0.026525678202908, 0
337, 0.050719502348684, -0.00037101612429185, 0
338, 0.02537609131811, -0.028082060448413, 0
339, 0.025367055526958, -0.00077718263334813, 0
340, 0.78492074918415, -0.27185310372076, 0
341, 0.81146041009755, -0.24328976543369, 0
342, 0.84071867298155, -0.27180173256617, 0
343, 0.81294337783369, -0.27174149992675, 0
344, 0.56485176730151, 0.24240133860836, 0
345, 0.54995425801482, 0.064540945391032, 0
346, 0.025581709038899, 0.13662521825619, 0
347, 0.050986576976583, 0.10925635200464, 0
348, 0.025440863236832, 0.081422489080101, 0
349, 0.02550284782149, 0.10901486547435, 0
350, 0.31139472974357, -0.27444316776735, 0
351, 0.38408260716017, -0.27418967258979, 0
352, 0.33081596753834, -0.24972365881201, 0
353, 0.12904112488604, -0.24589350304189, 0
354, 0.15549737067465, -0.27297936636284, 0
355, 0.10353133950144, -0.27300060687056, 0
356, 0.12950208840614, -0.27296913634786, 0
357, 0.97472357429239, 0.080266281999508, 0
358, 0.94936615020564, 0.10832872090591, 0
359, 0.97457736199663, 0.13568961949828, 0
360, 0.97466898229237, 0.10794320429397, 0
361, 0.07738640509642, -0.24609919929921, 0
362, 0.051690066458344, -0.27319207754742, 0
363, 0.07759747609004, -0.27307336798542, 0
364, 0.97382089652669, -0.2457286433705, 0
365, 0.94803860261424, -0.27261975368974, 0
366, 0.97406615087213, -0.27290723712069, 0
367, 0.10472091317488, 0.2729104722356, 0
368, 0.078110380467131, 0.24586975680163, 0
369, 0.052372556258746, 0.27303596966423, 0
370, 0.078554891619204, 0.27295440395512, 0
371, 0.051340652815321, 0.16416870367116, 0
372, 0.02578967428719, 0.19171013592634, 0
373, 0.025678908027037, 0.16419884609048, 0
374, 0.6718483911886, -0.27721431240779, 0
375, 0.58786955670455, -0.22654200241187, 0
376, 0.62168261587494, -0.24765594977594, 0
377, 0.18179144251808, 0.2457181006412, 0
378, 0.15692887855763, 0.27287055491004, 0
379, 0.20880162151959, 0.27282859633511, 0
380, 0.18287096775932, 0.27285368204844, 0
381, 0.97448430551645, -0.028095280079811, 0
382, 0.97411831327634, -0.081802596580152, 0
383, 0.94865857945027, -0.053761158600618, 0
384, 0.97431141760012, -0.054922512644584, 0
385, 0.025526933166462, -0.1379839283809, 0
386, 0.025430790068466, -0.08297608593422, 0
387, 0.050939199696918, -0.11009521446455, 0
388, 0.025474455676109, -0.11048900224142, 0
389, 0.79075598739289, 0.27226734951617, 0
390, 0.76599118646281, 0.24433233594728, 0
391, 0.73720140753537, 0.27199742999214, 0
392, 0.76399949388722, 0.27213957660371, 0
393, 0.051166579450307, -0.16492793597579, 0
394, 0.025652276445515, -0.19268443430073, 0
395, 0.025586869424643, -0.16538639975316, 0
396, 0.97376496900167, -0.13600267309205, 0
397, 0.94784002011478, -0.10779189147602, 0
398, 0.97392673565127, -0.10884144891351, 0
399, 0.026048008972159, 0.24627202131268, 0
400, 0.026187797309898, 0.27318040984504, 0
401, 0.66839961978548, 0.1863618010202, 0
402, 0.64896513798773, 0.12840361735261, 0
403, 0.18068789996849, -0.246008303278, 0
404, 0.20762799140984, -0.27315908920728, 0
405, 0.18155451968076, -0.27303873950535, 0
406, 0.13006266296223, 0.24576528873049, 0
407, 0.13085275335182, 0.27288650465364, 0
408, 0.94929064431893, -0.00011527499036881, 0
409, 0.97470231632701, 0.025693684010784, 0
410, 0.9746180295086, -0.0012414654509758, 0
411, 0.25981920189479, -0.27364095613255, 0
412, 0.28270306744363, -0.24785984246763, 0
413, 0.28577852946746, -0.27401712747983, 0
414, 0.97362098881266, -0.19078273458268, 0
415, 0.94725059362999, -0.16248566287444, 0
416, 0.97365571979253, -0.16335079408262, 0
417, 0.050780621976453, 0.054369476607746, 0
418, 0.025398494893711, 0.053943014866666, 0
419, 0.050783142621723, -0.055157360114455, 0
420, 0.025398124035905, -0.055504703744462, 0
421, 0.36649663240923, 0.27219422261491, 0
422, 0.33670672671478, 0.24481481058252, 0
423, 0.3139974481768, 0.2725190294105, 0
424, 0.34039540442711, 0.27236862864115, 0
425, 0.8703487537963, 0.24508811509715, 0
426, 0.84361388565026, 0.27246146325134, 0
427, 0.89559348511493, 0.27260241366278, 0
428, 0.86964414012369, 0.27253272696741, 0
429, 0.97432224927429, 0.19096126799217, 0
430, 0.94835807757603, 0.2181505555051, 0
431, 0.97399126356687, 0.2457209201004, 0
432, 0.97416814454799, 0.21839123676325, 0
433, 0.025783615808324, -0.24666796428303, 0
434, 0.025836687550901, -0.27336698287376, 0
435, 0.232129074529, -0.24658484699205, 0
436, 0.23375923250157, -0.27335531604925, 0
437, 0.94894150157237, 0.16328395843604, 0
438, 0.97445969152445, 0.16335669551832, 0
439, 0.68397487679432, 0.27168642085053, 0
440, 0.71357801793037, 0.24373469548767, 0
441, 0.71050474616176, 0.27184196493982, 0
442, 0.75377875308612, -0.24415798942226, 0
443, 0.72841303856152, -0.27315275102706, 0
444, 0.75675236766226, -0.27226344805588, 0
445, 0.69379583464683, -0.24931466332095, 0
446, 0.70009174701162, -0.27472186147499, 0
447, 0.26104986206168, 0.2727269984652, 0
448, 0.28516540081957, 0.2453285886174, 0
449, 0.28750405598369, 0.2726385018791, 0
450, 0.49657300879429, 0.096178110302061, 0
451, 0.56761283505746, 0.21350434926283, 0
452, 0.67123552879708, 0.15802154896424, 0
453, 0.92432326411068, 0.081498971577168, 0
454, 0.89897831775093, 0.10887645485519, 0
455, 0.92382948823147, 0.13590607943748, 0
456, 0.92412419281534, 0.10863830804309, 0
457, 0.94952013530753, 0.053770719025585, 0
458, 0.97473819928108, 0.052896010861012, 0
459, 0.86710717248957, -0.24383595569349, 0
460, 0.89520369369853, -0.27215325087508, 0
461, 0.86812494036276, -0.27195333016831, 0
462, 0.23341422543553, 0.24560605250639, 0
463, 0.23486878068356, 0.27278874814783, 0
464, 0.81838078894099, 0.24478537952832, 0
465, 0.81727077759569, 0.27237634591735, 0
466, 0.94760889547647, 0.27276144532753, 0
467, 0.97378223929356, 0.27288437996111, 0
468, 0.9210538952303, -0.24469628891049, 0
469, 0.92175783101579, -0.27237270663374, 0
470, 0.92209934048643, 0.24533572623035, 0
471, 0.92157490584936, 0.27267463873363, 0
472, 0.38691027764949, 0.24410478571204, 0
473, 0.41630769049857, 0.2718267622066, 0
474, 0.39188207913183, 0.27200859492435, 0
475, 0.58783351254404, 0.24246573688501, 0
476, 0.56974622636234, 0.18447285987468, 0
477, 0.51992618669198, 0.2712570465975, 0
478, 0.051815431021472, 0.21883578665181, 0
479, 0.025913900647337, 0.21906115976711, 0
480, 0.45934681805934, 0.27152904734217, 0
481, 0.54787036624694, 0.1254539931743, 0
482, 0.62377304872189, 0.12717431418125, 0
483, 0.79377395349986, 0.21696457076425, 0
484, 0.76983458148515, 0.18901351688172, 0
485, 0.74211865222778, 0.21617955956882, 0
486, 0.76793515397071, 0.21659689986849, 0
487, 0.64021969959323, 0.21428203110748, 0
488, 0.58301010704338, 0.27123847955312, 0
489, 0.63206875575591, 0.2714045748944, 0
490, 0.76303434324819, -0.085774928749727, 0
491, 0.81317656010161, -0.12612961187299, 0
492, 0.84525220921716, -0.073659079547932, 0
493, 0.82617958529976, 0.030713105217176, 0
494, 0.74208625252183, -0.014862071261974, 0
495, 0.051439709995257, -0.21933050857611, 0
496, 0.025719529594645, -0.21974807893798, 0
497, 0.17976501123894, 0.19151199953502, 0
498, 0.15507585996505, 0.21861871146002, 0
499, 0.20636695364844, 0.21855968898459, 0
500, 0.18075235572293, 0.21860125204578, 0
501, 0.479699853554, 0.27141407699391, 0
502, 0.64334542886392, 0.18570694299889, 0
503, 0.43064322083803, 0.21510257366315, 0
504, 0.6296928595504, 0.068187899559204, 0
505, 0.94725276388641, -0.21762013638435, 0
506, 0.97367287974164, -0.21828354192259, 0
507, 0.25161455250679, 0.11096269528801, 0
508, 0.27732785528833, 0.13735627039919, 0
509, 0.29985225109024, 0.11060356039244, 0
510, 0.27472778600007, 0.084763042827398, 0
511, 0.27587827362492, 0.11090905143066, 0
512, 0.92239805678951, -0.079421718976247, 0
513, 0.9211246422405, -0.13393710271166, 0
514, 0.89553952581632, -0.10507835276675, 0
515, 0.92171526054631, -0.10657083387578, 0
516, 0.20410474422084, 0.16448645939272, 0
517, 0.17808664627761, 0.13743510185505, 0
518, 0.15352192689792, 0.16439134086109, 0
519, 0.17886310057985, 0.16445614125875, 0
520, 0.87334087005545, 0.13593843946158, 0
521, 0.87438556230761, 0.082220611825596, 0
522, 0.84904712222225, 0.1089761294295, 0
523, 0.87394314947662, 0.1089930593652, 0
524, 0.92364419025294, -0.025730506531659, 0
525, 0.89759543597566, -0.051049392619029, 0
526, 0.92306992227259, -0.052493915775367, 0
527, 0.54445789871688, 0.21347871697607, 0
528, 0.47223027173353, 0.12711637363831, 0
529, 0.85010695822834, 0.056111744268229, 0
530, 0.80201375129679, 0.056270639689663, 0
531, 0.82522012180918, 0.082367307690844, 0
532, 0.82589202677447, 0.056345139231384, 0
533, 0.89901914669739, 0.0020527136397936, 0
534, 0.87347121527673, -0.02299397433471, 0
535, 0.87460547257563, 0.029375838383732, 0
536, 0.87423595728963, 0.0031884519676589, 0
537, 0.61984083070302, -0.17327862195152, 0
538, 0.81640910536299, -0.097618451650907, 0
539, 0.84735117416894, -0.04724089191577, 0
540, 0.82292322792083, -0.044652885219434, 0
541, 0.80181081533202, -0.017516571797367, 0
542, 0.076252683049871, 0.082121836086514, 0
543, 0.076679450792731, 0.13685008742165, 0
544, 0.10183180431573, 0.10972104771146, 0
545, 0.076435840315052, 0.1094884564719, 0
546, 0.79684927895617, 0.16217873823068, 0
547, 0.77347569775064, 0.13445083198664, 0
548, 0.74653368955226, 0.16084913987455, 0
549, 0.77167424191779, 0.1615902591477, 0
550, 0.12867550748519, 0.19147833759149, 0
551, 0.10354167824877, 0.21865331022817, 0
552, 0.12933798690494, 0.21862958874906, 0
553, 0.78135111831325, -0.21436667784572, 0
554, 0.8102402270024, -0.18521158530599, 0
555, 0.83879292728252, -0.21497852133158, 0
556, 0.8104597571334, -0.21448486923207, 0
557, 0.076073966401695, -0.02734413865838, 0
558, 0.10147416784556, -0.054373264559551, 0
559, 0.07625247554615, -0.082245872050931, 0
560, 0.076145270529321, -0.054778678915953, 0
561, 0.87085182266659, -0.076024972003589, 0
562, 0.73440855462855, -0.039043008949557, 0
563, 0.87231673919779, -0.049323962172323, 0
564, 0.64460505932286, -0.28091078809112, 0
565, 0.12660604017812, -0.026449066633232, 0
566, 0.15199101841576, -0.053452215856497, 0
567, 0.12695794006702, -0.081487488933747, 0
568, 0.1267555029578, -0.053938465414576, 0
569, 0.92431929405345, 0.027693203213538, 0
570, 0.92407044364568, 0.0009735190131763, 0
571, 0.076055888959366, 0.02740613411216, 0
572, 0.10131346034861, 0.00048196606615754, 0
573, 0.076040640082644, 4.4878495494907e-05, 0
574, 0.36808148292901, -0.22798565612606, 0
575, 0.40678435941472, -0.2724688648753, 0
576, 0.40034027017375, -0.20420319190947, 0
577, 0.61549537653385, 0.21390634556735, 0
578, 0.67403850581634, 0.12975314060717, 0
579, 0.44945390152686, 0.15733937260114, 0
580, 0.25747524177775, 0.21832915724353, 0
581, 0.30832625863982, 0.21778326886437, 0
582, 0.28089657215604, 0.19100211455328, 0
583, 0.28294930787968, 0.21810427187944, 0
584, 0.12816690134838, -0.19147125898145, 0
585, 0.15426605840208, -0.21873416713092, 0
586, 0.10288060689448, -0.21883701001014, 0
587, 0.12858718966794, -0.21873533434122, 0
588, 0.43813570417751, -0.040146263258909, 0
589, 0.46419849984264, 0.0013415258849125, 0
590, 0.49714750294448, -0.025485213355286, 0
591, 0.467954514708, -0.029073881314918, 0
592, 0.92303795363699, 0.19060319271539, 0
593, 0.89802233054809, 0.16317216024569, 0
594, 0.92345811959751, 0.16323524314513, 0
595, 0.076547996921188, -0.13717643536396, 0
596, 0.10180815421772, -0.10938017209968, 0
597, 0.076386438691473, -0.10972510310495, 0
598, 0.69075167148557, 0.21520709508605, 0
599, 0.64618256491757, 0.15707111159785, 0
600, 0.45623554089911, 0.24306853218728, 0
601, 0.52093614582407, 0.24247043935569, 0
602, 0.25419043250953, 0.16433108754335, 0
603, 0.30367363265904, 0.16363172014956, 0
604, 0.27900650217608, 0.16407232619877, 0
605, 0.10141357365073, 0.055146959655389, 0
606, 0.076123205378699, 0.054761359691927, 0
607, 0.69632167075418, 0.15902637305512, 0
608, 0.62118795180666, 0.1562235204529, 0
609, 0.899413942666, 0.055155904636446, 0
610, 0.87463840106945, 0.055713595421528, 0
611, 0.73754626430438, -0.073630668380549, 0
612, 0.81107987426979, -0.1556234133868, 0
613, 0.69612413302185, -0.0072144562125924, 0
614, 0.78041702126434, 0.007108000659534, 0
615, 0.73854529117574, 0.0048345482242829, 0
616, 0.17921857256182, -0.19152413194068, 0
617, 0.20542653788044, -0.21911913255346, 0
618, 0.17989372912572, -0.21885020013056, 0
619, 0.39127653037547, -0.090209109451341, 0
620, 0.41194124885802, -0.062224854885556, 0
621, 0.92439242085392, 0.054508254371874, 0
622, 0.22981937459558, -0.19227978066318, 0
623, 0.25588489375688, -0.2203250093879, 0
624, 0.23079517272116, -0.2195910937131, 0
625, 0.12652101557598, 0.028283714585812, 0
626, 0.15164412451443, 0.0014970488129167, 0
627, 0.12652071705239, 0.00095770272524234, 0
628, 0.71995751229894, -0.21748921771264, 0
629, 0.74983238775535, -0.18443851360687, 0
630, 0.7512536853211, -0.21509824940736, 0
631, 0.61046861380067, -0.27291504322628, 0
632, 0.60566791411128, -0.2350386814882, 0
633, 0.5971946692698, -0.26226019896774, 0
634, 0.12683111464632, 0.082763968489376, 0
635, 0.15172035931267, 0.055974107459625, 0
636, 0.12662523867499, 0.055545975643173, 0
637, 0.33072606379646, 0.19005909458576, 0
638, 0.35846434983209, 0.21685179835768, 0
639, 0.33352736467057, 0.21736296621806, 0
640, 0.1782331279432, -0.13631572767118, 0
641, 0.20398900184318, -0.16418124652232, 0
642, 0.15326593812805, -0.16399128340597, 0
643, 0.17867326567216, -0.16400698539327, 0
644, 0.70179633312716, 0.10349659545778, 0
645, 0.60081859787824, 0.096471210106488, 0
646, 0.61182005866979, 0.24261748774734, 0
647, 0.56641454076198, -0.24493608480434, 0
648, 0.22875946742885, -0.13648546780096, 0
649, 0.25416711481344, -0.16532121729913, 0
650, 0.22917507250692, -0.16458148958849, 0
651, 0.73508860355036, 0.027708416131353, 0
652, 0.77167061797276, -0.060062141467844, 0
653, 0.84981741028464, 0.004330988055334, 0
654, 0.83935274572862, -0.15745782904276, 0
655, 0.32660279834112, -0.17166113801722, 0
656, 0.71895199938804, 0.1877601799353, 0
657, 0.71636792225814, 0.21569706949694, 0
658, 0.82083070104854, 0.18984255112393, 0
659, 0.84536703922126, 0.21748797883112, 0
660, 0.81959104469702, 0.21726356701002, 0
661, 0.64862165774444, -0.16831983861136, 0
662, 0.60853514106808, -0.20260570897484, 0
663, 0.7800180450318, -0.015579663493927, 0
664, 0.35713371596429, -0.11412066278884, 0
665, 0.38068978329817, -0.12325071534801, 0
666, 0.8937724434384, -0.21629892069984, 0
667, 0.86643352866157, -0.18732013017737, 0
668, 0.8665204650878, -0.21561684758552, 0
669, 0.077313542703324, 0.19148145735168, 0
670, 0.077695690252308, 0.21871221648098, 0
671, 0.076940161938813, -0.19185653904559, 0
672, 0.07716184379749, -0.21903240088962, 0
673, 0.29806956833014, 0.0095315294123904, 0
674, 0.31914362388777, 0.035805805791463, 0
675, 0.33974589177996, 0.016494322413063, 0
676, 0.32423870943205, -0.01143534091803, 0
677, 0.32015944483077, 0.012726928268783, 0
678, 0.52421243776084, 0.0025872403265787, 0
679, 0.52545200599044, -0.02705112439363, 0
680, 0.72385759556664, 0.13242210903908, 0
681, 0.72142226930306, 0.15999183655205, 0
682, 0.32581674541744, 0.13620651009666, 0
683, 0.35254937315018, 0.16208538341434, 0
684, 0.32817827828911, 0.16297618912336, 0
685, 0.75081323104445, 0.10662847210101, 0
686, 0.72902014025546, 0.078473930348722, 0
687, 0.72636466907124, 0.10520829669708, 0
688, 0.47507453495093, 0.18536889813229, 0
689, 0.54265081494137, 0.24240168241326, 0
690, 0.52212629184155, 0.18455362893828, 0
691, 0.23052500555993, 0.19141865215564, 0
692, 0.23194620699678, 0.2184745981216, 0
693, 0.37976705570485, 0.18855535329353, 0
694, 0.4071130686564, 0.21567707537254, 0
695, 0.38302495377959, 0.21627797434673, 0
696, 0.33364246336521, -0.073829509961695, 0
697, 0.32858251815211, -0.14223744650818, 0
698, 0.30499824269065, -0.10855692448781, 0
699, 0.33113654623658, -0.11006271594413, 0
700, 0.36322076543154, 0.056228464122261, 0
701, 0.40903384640344, 0.043540868609362, 0
702, 0.37695283735461, 0.026974137938016, 0
703, 0.5819741367413, -0.25324971913765, 0
704, 0.56108541564816, 0.2712169410272, 0
705, 0.41936758165353, 0.10157687899267, 0
706, 0.3215546438165, 0.084267763829209, 0
707, 0.34717649944209, 0.10866747434924, 0
708, 0.32358123293877, 0.10990820772858, 0
709, 0.60689068848676, 0.034768130510787, 0
710, 0.49570138305671, 0.065541716046297, 0
711, 0.6595145165596, 0.041912820865681, 0
712, 0.63368232153752, 0.037976613775844, 0
713, 0.49982309154467, 0.27132444574441, 0
714, 0.40102421135189, 0.15975110969664, 0
715, 0.49944299698099, 0.24261440686651, 0
716, 0.22805795038354, 0.13760290931877, 0
717, 0.22921265098297, 0.16445683907034, 0
718, 0.59126982774776, 0.21363727132938, 0
719, 0.59629447949131, 0.15557758919166, 0
720, 0.54883909604549, 0.095302254148329, 0
721, 0.20236838882339, 0.11067100748815, 0
722, 0.22639757090832, 0.084205240001571, 0
723, 0.22709680606983, 0.11086013372342, 0
724, 0.89684253017625, 0.21783475731806, 0
725, 0.92258509685771, 0.21797902860442, 0
726, 0.12756155248002, 0.13713957004025, 0
727, 0.10255415760195, 0.16424032394805, 0
728, 0.12807781043013, 0.16431371667772, 0
729, 0.3739073943398, 0.13366765820703, 0
730, 0.37680625873343, 0.16099165612493, 0
731, 0.10227928223668, -0.16428646945863, 0
732, 0.076732984880076, -0.16456496015931, 0
733, 0.076969643458531, 0.16418696104532, 0
734, 0.66187287076291, 0.24311252466702, 0
735, 0.68035692386342, 0.073594389609974, 0
736, 0.42522089143846, 0.15849991144629, 0
737, 0.63655913549464, 0.24283880296378, 0
738, 0.5469103839507, 0.15510411430314, 0
739, 0.92054149012813, -0.18921011209374, 0
740, 0.92065068883911, -0.21696107575006, 0
741, 0.87189207653434, 0.19033455381186, 0
742, 0.87111289628155, 0.21768182413964, 0
743, 0.68946065495649, 0.018853699796574, 0
744, 0.75516842121448, 0.054564496877126, 0
745, 0.70843413641651, 0.049589548675521, 0
746, 0.73191895344538, 0.052525219805413, 0
747, 0.89396529393566, -0.16035371544673, 0
748, 0.92071272158564, -0.16150320890558, 0
749, 0.47644485962483, 0.21414647471653, 0
750, 0.54023152823942, 0.27122224540842, 0
751, 0.12747302636555, -0.1366117919401, 0
752, 0.12779452319994, -0.1640929077875, 0
753, 0.84081259129629, -0.12884650496784, 0
754, 0.75908745933435, 0.0068381591080684, 0
755, 0.1523573380348, 0.11020062457244, 0
756, 0.12714268066128, 0.10995782443087, 0
757, 0.55134656998561, 0.032980732238315, 0
758, 0.57929240784836, 0.032927117778325, 0
759, 0.30352527025888, -0.044994740114051, 0
760, 0.32971548138586, -0.039579547372426, 0
761, 0.84291949465704, -0.1008388057727, 0
762, 0.71812134404068, -0.054075988451669, 0
763, 0.75028594826868, -0.15169809295383, 0
764, 0.27927844819699, -0.19437945863188, 0
765, 0.2789880446853, -0.13778877279374, 0
766, 0.30309768187568, -0.16857798641217, 0
767, 0.2788619591095, -0.16657226927501, 0
768, 0.17696521347302, 0.083459418094674, 0
769, 0.1774458115749, 0.11044282876274, 0
770, 0.61851538970588, 0.18513153062303, 0
771, 0.47795160794776, 0.24281344141569, 0
772, 0.17750643561038, -0.080659336665215, 0
773, 0.17686551270294, -0.025277782484799, 0
774, 0.2023068580239, -0.052191237171127, 0
775, 0.17717317451798, -0.05288697626823, 0
776, 0.84732957848212, 0.16289864673262, 0
777, 0.87264889825426, 0.16307912240386, 0
778, 0.27618072366351, -0.019788338463199, 0
779, 0.27905111140299, -0.077796650897584, 0
780, 0.25258596706, -0.049997273537662, 0
781, 0.27788649020791, -0.048080877243552, 0
782, 0.20145149226799, 0.056983530295347, 0
783, 0.17657395083024, 0.029360607270344, 0
784, 0.17667868420745, 0.056449269847031, 0
785, 0.41521535771379, 0.072798429760051, 0
786, 0.49736888474681, 0.12617477877575, 0
787, 0.78451338177805, -0.12244131353645, 0
788, 0.86788949708773, -0.13091673925863, 0
789, 0.8668961784503, -0.15902464675744, 0
790, 0.2537511357235, -0.10798135318537, 0
791, 0.27923055578442, -0.10806182082206, 0
792, 0.15254445830092, -0.1087700103786, 0
793, 0.127194348324, -0.10906353255844, 0
794, 0.22593149397516, 0.030879072595335, 0
795, 0.25065929098555, 0.0052783159483876, 0
796, 0.22677669406424, -0.023415468010264, 0
797, 0.2015334116487, 0.0029241835576981, 0
798, 0.22621912396358, 0.0039372867589627, 0
799, 0.7994221168346, -0.041447168990824, 0
800, 0.81993793181688, -0.070508409176245, 0
801, 0.8488945082934, -0.021365327241884, 0
802, 0.65719894284278, -0.056372855552051, 0
803, 0.68212076378234, -0.19303759696457, 0
804, 0.67237383927552, -0.015775745004169, 0
805, 0.82323136152943, 0.13555368960964, 0
806, 0.82206144725446, 0.16259849084623, 0
807, 0.86928358570342, -0.10322756745588, 0
808, 0.68728284278583, -0.22264374506372, 0
809, 0.2031430769468, -0.10826719509933, 0
810, 0.22800929621979, -0.079578499027537, 0
811, 0.22842184022593, -0.10808095445272, 0
812, 0.78163895198269, -0.15356161324281, 0
813, 0.25022125496589, 0.058231721598543, 0
814, 0.22599993769969, 0.057581139490724, 0
815, 0.49903626343605, 0.21381938692551, 0
816, 0.42782592374669, 0.18682049517646, 0
817, 0.77691382399034, 0.081373619516318, 0
818, 0.77972690228624, 0.030915054162577, 0
819, 0.77846751288296, 0.055742991279806, 0
820, 0.17785759335277, -0.10850288487315, 0
821, 0.68437999193176, 0.045920820103517, 0
822, 0.79971021047203, 0.10837991171028, 0
823, 0.82431176911101, 0.10880980674899, 0
824, 0.52165364105179, 0.21359084918282, 0
825, 0.66533987823584, 0.21472132352358, 0
826, 0.3947878310963, 0.1043047528544, 0
827, 0.3044480362497, -0.22282058332741, 0
828, 0.2805213241109, -0.22138875717441, 0
829, 0.36960697087089, -0.18255523558231, 0
830, 0.39931100063196, -0.22596143230845, 0
831, 0.29730551751487, 0.059404889565576, 0
832, 0.34179719853797, 0.058749824269068, 0
833, 0.3199007482542, 0.059531664419921, 0
834, 0.52271525334388, 0.095516770310138, 0
835, 0.49500269005568, 0.034280468860246, 0
836, 0.39846226964848, 0.01397810220412, 0
837, 0.46598707193355, 0.034813760695508, 0
838, 0.7752263959093, 0.10765939099335, 0
839, 0.63104557331811, -0.069000389427297, 0
840, 0.17665369815773, 0.0021347565937924, 0
841, 0.68250340403362, -0.043985356646908, 0
842, 0.60706890095469, 0.27130357102922, 0
843, 0.52332720911726, 0.033665899797216, 0
844, 0.65191622462328, 0.099631772954843, 0
845, 0.2274323759603, -0.051276574542766, 0
846, 0.36077051192659, -0.27483926502796, 0
847, 0.27397283192743, 0.033112471743748, 0
848, 0.2747059291183, 0.0070870590611338, 0
849, 0.36731595873228, 0.080705608486509, 0
850, 0.3586034589393, 0.034985543930242, 0
851, 0.42680491974492, -0.0047962816214, 0
852, 0.37082170933601, 0.10677905638881, 0
853, 0.27404311944445, 0.058880069549054, 0
854, 0.46839005083229, 0.066728330251556, 0
855, 0.36484950081538, 0.0081990033025534, 0
856, 0.64656671825631, -0.024914529856617, 0
857, 0.38728311694178, -0.19163249995348, 0
858, 0.34869224510769, -0.2264640618544, 0
859, 0.7536548714578, -0.11701808265518, 0
860, 0.43628880290813, 0.036509354065639, 0
861, 0.43401839197495, 0.24338099404065, 0
862, 0.62031094081286, -0.28542073393736, 0
863, 0.48217091248467, -0.271922023058, 0
864, 0.39296182105384, -0.24873617588629, 0
865, 0.6770056858159, 0.10159198087958, 0
866, 0.58238766073582, -0.0016586101871538, 0
867, 0.39425045990821, -0.21334798488471, 0
868, 0.38504444628623, -0.22826486904116, 0
869, 0.36650109438259, -0.2062208534642, 0
870, 0.34732879747551, -0.2022048348704, 0
871, 0.3259784065939, -0.19883879800932, 0
872, 0.41024917587073, -0.24503418843408, 0
873, 0.42868452199311, -0.26952069147336, 0
874, 0.4527025779789, -0.26481114137378, 0
875, 0.60420593840199, -0.29032137311137, 0
876, 0.53649920453715, -0.26728063193034, 0
877, 0.66902128803577, -0.087977252629659, 0
878, 0.64196429353944, -0.1011512673332, 0
879, 0.61748874625986, -0.11326885001145, 0
880, 0.62224248039384, -0.14307784840522, 0
881, 0.64863426805689, -0.13400656543275, 0
882, 0.67928871050113, -0.12249007585037, 0
883, 0.74511449759835, -0.029025100468485, 0
884, 0.75873324042544, -0.033056416340848, 0
885, 0.69611464976252, -0.072656901185155, 0
886, 0.71651710438685, -0.10762338731407, 0
******* E L E M E N T S *************
*ELEMENT, type=CPS4, ELSET=Surface1
1, 120, 110, 339, 336
2, 336, 339, 337, 213
3, 339, 338, 225, 337
4, 110, 121, 338, 339
5, 44, 342, 343, 36
6, 36, 343, 340, 43
7, 343, 341, 164, 340
8, 342, 165, 341, 343
9, 75, 842, 489, 82
10, 824, 690, 265, 527
11, 720, 345, 198, 275
12, 118, 108, 349, 346
13, 346, 349, 347, 174
14, 349, 348, 212, 347
15, 108, 119, 348, 349
16, 235, 576, 867, 830
17, 766, 655, 697, 237
18, 309, 829, 326, 238
19, 874, 308, 872, 873
20, 151, 355, 356, 353
21, 353, 356, 354, 153
22, 356, 12, 20, 354
23, 355, 19, 12, 356
24, 65, 359, 360, 54
25, 54, 360, 357, 64
26, 360, 358, 282, 357
27, 359, 250, 358, 360
28, 152, 362, 363, 361
29, 361, 363, 355, 151
30, 363, 11, 19, 355
31, 362, 18, 11, 363
32, 168, 365, 366, 364
33, 364, 366, 47, 58
34, 366, 39, 4, 47
35, 365, 46, 39, 366
36, 103, 96, 370, 367
37, 367, 370, 368, 180
38, 370, 369, 178, 368
39, 96, 104, 369, 370
40, 177, 372, 373, 371
41, 371, 373, 346, 174
42, 373, 107, 118, 346
43, 372, 117, 107, 373
44, 632, 376, 323, 296
45, 321, 28, 3, 161
46, 876, 322, 30, 27
47, 376, 319, 160, 323
48, 182, 379, 380, 377
49, 377, 380, 378, 179
50, 380, 94, 102, 378
51, 379, 101, 94, 380
52, 287, 383, 384, 381
53, 381, 384, 51, 62
54, 384, 382, 61, 51
55, 383, 158, 382, 384
56, 224, 387, 388, 385
57, 385, 388, 112, 123
58, 388, 386, 122, 112
59, 387, 228, 386, 388
60, 80, 391, 392, 72
61, 72, 392, 389, 79
62, 392, 390, 257, 389
63, 391, 258, 390, 392
64, 123, 113, 395, 385
65, 385, 395, 393, 224
66, 395, 394, 216, 393
67, 113, 124, 394, 395
68, 158, 397, 398, 382
69, 382, 398, 50, 61
70, 398, 396, 60, 50
71, 397, 162, 396, 398
72, 178, 369, 400, 399
73, 399, 400, 105, 116
74, 400, 97, 8, 105
75, 369, 104, 97, 400
76, 713, 715, 601, 477
77, 476, 318, 719, 274
78, 718, 274, 770, 577
79, 150, 190, 854, 317
80, 153, 354, 405, 403
81, 403, 405, 404, 155
82, 405, 13, 21, 404
83, 354, 20, 13, 405
84, 179, 378, 407, 406
85, 406, 407, 367, 180
86, 407, 95, 103, 367
87, 378, 102, 95, 407
88, 287, 381, 410, 408
89, 408, 410, 409, 284
90, 410, 52, 63, 409
91, 381, 62, 52, 410
92, 23, 350, 413, 15
93, 15, 413, 411, 22
94, 413, 412, 154, 411
95, 350, 157, 412, 413
96, 162, 415, 416, 396
97, 396, 416, 49, 60
98, 416, 414, 59, 49
99, 415, 166, 414, 416
100, 119, 109, 418, 348
101, 348, 418, 417, 212
102, 418, 336, 213, 417
103, 109, 120, 336, 418
104, 225, 338, 420, 419
105, 419, 420, 386, 228
106, 420, 111, 122, 386
107, 338, 121, 111, 420
108, 99, 423, 424, 91
109, 91, 424, 421, 98
110, 424, 422, 186, 421
111, 423, 184, 422, 424
112, 256, 427, 428, 425
113, 425, 428, 426, 255
114, 428, 70, 78, 426
115, 427, 77, 70, 428
116, 66, 56, 432, 429
117, 429, 432, 430, 253
118, 432, 431, 254, 430
119, 56, 67, 431, 432
120, 125, 115, 434, 433
121, 433, 434, 362, 152
122, 434, 10, 18, 362
123, 115, 1, 10, 434
124, 155, 404, 436, 435
125, 435, 436, 411, 154
126, 436, 14, 22, 411
127, 404, 21, 14, 436
128, 65, 55, 438, 359
129, 359, 438, 437, 250
130, 438, 429, 253, 437
131, 55, 66, 429, 438
132, 259, 440, 441, 439
133, 439, 441, 73, 81
134, 441, 391, 80, 73
135, 440, 258, 391, 441
136, 163, 443, 444, 442
137, 442, 444, 340, 164
138, 444, 35, 43, 340
139, 443, 42, 35, 444
140, 160, 374, 446, 445
141, 445, 446, 443, 163
142, 446, 34, 42, 443
143, 374, 41, 34, 446
144, 183, 448, 449, 447
145, 447, 449, 92, 100
146, 449, 423, 99, 92
147, 448, 184, 423, 449
148, 749, 688, 327, 815
149, 189, 714, 736, 816
150, 261, 504, 202, 844
151, 250, 455, 456, 358
152, 358, 456, 453, 282
153, 456, 454, 283, 453
154, 455, 249, 454, 456
155, 284, 409, 458, 457
156, 457, 458, 357, 282
157, 458, 53, 64, 357
158, 409, 63, 53, 458
159, 44, 37, 461, 342
160, 342, 461, 459, 165
161, 461, 460, 167, 459
162, 37, 45, 460, 461
163, 100, 93, 463, 447
164, 447, 463, 462, 183
165, 463, 379, 182, 462
166, 93, 101, 379, 463
167, 255, 426, 465, 464
168, 464, 465, 389, 257
169, 465, 71, 79, 389
170, 426, 78, 71, 465
171, 67, 57, 467, 431
172, 431, 467, 466, 254
173, 467, 68, 76, 466
174, 57, 5, 68, 467
175, 45, 38, 469, 460
176, 460, 469, 468, 167
177, 469, 365, 168, 468
178, 38, 46, 365, 469
179, 254, 466, 471, 470
180, 470, 471, 427, 256
181, 471, 69, 77, 427
182, 466, 76, 69, 471
183, 149, 473, 474, 472
184, 472, 474, 421, 186
185, 474, 90, 98, 421
186, 473, 7, 90, 474
187, 275, 198, 260, 645
188, 188, 150, 317, 528
189, 178, 399, 479, 478
190, 478, 479, 372, 177
191, 479, 106, 117, 372
192, 399, 116, 106, 479
193, 328, 528, 786, 266
194, 710, 835, 843, 199
195, 815, 327, 690, 824
196, 257, 390, 486, 483
197, 483, 486, 484, 244
198, 486, 485, 245, 484
199, 390, 258, 485, 486
200, 578, 865, 644, 269
201, 401, 452, 607, 267
202, 715, 815, 824, 601
203, 489, 737, 734, 187
204, 149, 694, 503, 861
205, 528, 317, 450, 786
206, 88, 713, 477, 84
207, 333, 754, 615, 494
208, 332, 331, 330, 866
209, 334, 303, 629, 763
210, 124, 114, 496, 394
211, 394, 496, 495, 216
212, 496, 433, 152, 495
213, 114, 125, 433, 496
214, 181, 499, 500, 497
215, 497, 500, 498, 176
216, 500, 377, 179, 498
217, 499, 182, 377, 500
218, 272, 275, 645, 264
219, 771, 749, 815, 715
220, 191, 826, 705, 329
221, 85, 501, 713, 88
222, 59, 414, 506, 48
223, 48, 506, 364, 58
224, 506, 505, 168, 364
225, 414, 166, 505, 506
226, 207, 510, 511, 507
227, 507, 511, 508, 170
228, 511, 509, 194, 508
229, 510, 196, 509, 511
230, 286, 514, 515, 512
231, 512, 515, 397, 158
232, 515, 513, 162, 397
233, 514, 300, 513, 515
234, 181, 497, 519, 516
235, 516, 519, 517, 171
236, 519, 518, 173, 517
237, 497, 176, 518, 519
238, 247, 522, 523, 520
239, 520, 523, 454, 249
240, 523, 521, 283, 454
241, 522, 276, 521, 523
242, 288, 525, 526, 524
243, 524, 526, 383, 287
244, 526, 512, 158, 383
245, 525, 286, 512, 526
246, 770, 608, 599, 502
247, 402, 844, 865, 578
248, 646, 577, 487, 737
249, 276, 531, 532, 529
250, 529, 532, 493, 281
251, 532, 530, 279, 493
252, 531, 278, 530, 532
253, 285, 535, 536, 533
254, 533, 536, 534, 288
255, 663, 614, 754, 333
256, 763, 629, 301, 812
257, 762, 562, 306, 289
258, 802, 841, 804, 856
259, 536, 535, 281, 653
260, 306, 494, 615, 302
261, 211, 544, 545, 542
262, 542, 545, 347, 212
263, 545, 543, 174, 347
264, 544, 172, 543, 545
265, 244, 484, 549, 546
266, 546, 549, 547, 248
267, 549, 548, 246, 547
268, 484, 245, 548, 549
269, 176, 498, 552, 550
270, 550, 552, 551, 175
271, 552, 406, 180, 551
272, 498, 179, 406, 552
273, 165, 555, 556, 341
274, 341, 556, 553, 164
275, 556, 554, 301, 553
276, 555, 298, 554, 556
277, 228, 559, 560, 419
278, 419, 560, 557, 225
279, 560, 558, 226, 557
280, 559, 227, 558, 560
281, 562, 883, 494, 306
282, 534, 563, 525, 288
283, 563, 561, 286, 525
284, 289, 306, 302, 613
285, 873, 872, 864, 575
286, 647, 703, 632, 375
287, 703, 633, 376, 632
288, 830, 867, 307, 868
289, 227, 567, 568, 558
290, 558, 568, 565, 226
291, 568, 566, 230, 565
292, 567, 233, 566, 568
293, 284, 569, 570, 408
294, 408, 570, 524, 287
295, 570, 533, 288, 524
296, 569, 285, 533, 570
297, 225, 557, 573, 337
298, 337, 573, 571, 213
299, 573, 572, 214, 571
300, 557, 226, 572, 573
301, 352, 310, 858, 325
302, 827, 325, 871, 236
303, 868, 307, 869, 574
304, 157, 352, 325, 827
305, 527, 265, 476, 451
306, 601, 824, 527, 689
307, 89, 480, 501, 85
308, 844, 202, 735, 865
309, 169, 582, 583, 580
310, 580, 583, 448, 183
311, 583, 581, 184, 448
312, 582, 192, 581, 583
313, 217, 586, 587, 584
314, 584, 587, 585, 215
315, 587, 353, 153, 585
316, 586, 151, 353, 587
317, 140, 590, 591, 129
318, 129, 591, 588, 141
319, 201, 197, 849, 700
320, 590, 200, 589, 591
321, 252, 593, 594, 592
322, 592, 594, 437, 253
323, 594, 455, 250, 437
324, 593, 249, 455, 594
325, 222, 596, 597, 595
326, 595, 597, 387, 224
327, 597, 559, 228, 387
328, 596, 227, 559, 597
329, 503, 816, 268, 273
330, 345, 757, 758, 198
331, 477, 601, 689, 750
332, 854, 837, 835, 710
333, 170, 508, 604, 602
334, 602, 604, 582, 169
335, 604, 603, 192, 582
336, 508, 194, 603, 604
337, 212, 417, 606, 542
338, 542, 606, 605, 211
339, 606, 571, 214, 605
340, 417, 213, 571, 606
341, 860, 837, 854, 190
342, 268, 579, 328, 688
343, 283, 521, 610, 609
344, 609, 610, 535, 285
345, 610, 529, 281, 535
346, 521, 276, 529, 610
347, 884, 333, 494, 883
348, 878, 877, 802, 839
349, 291, 538, 800, 299
350, 812, 301, 554, 612
351, 491, 612, 654, 753
352, 312, 884, 883, 562
353, 866, 758, 757, 159
354, 859, 787, 291, 490
355, 215, 585, 618, 616
356, 616, 618, 617, 218
357, 618, 403, 155, 617
358, 585, 153, 403, 618
359, 141, 588, 620, 130
360, 130, 620, 619, 142
361, 851, 836, 315, 316
362, 700, 832, 204, 850
363, 282, 453, 621, 457
364, 457, 621, 569, 284
365, 621, 609, 285, 569
366, 453, 283, 609, 621
367, 218, 617, 624, 622
368, 622, 624, 623, 219
369, 624, 435, 154, 623
370, 617, 155, 435, 624
371, 226, 565, 627, 572
372, 572, 627, 625, 214
373, 627, 626, 210, 625
374, 565, 230, 626, 627
375, 164, 553, 630, 442
376, 442, 630, 628, 163
377, 630, 629, 303, 628
378, 553, 301, 629, 630
379, 321, 161, 631, 633
380, 876, 135, 146, 322
381, 319, 564, 374, 160
382, 32, 40, 862, 875
383, 210, 635, 636, 625
384, 625, 636, 605, 214
385, 636, 634, 211, 605
386, 635, 205, 634, 636
387, 185, 638, 639, 637
388, 637, 639, 581, 192
389, 639, 422, 184, 581
390, 638, 186, 422, 639
391, 223, 642, 643, 640
392, 640, 643, 641, 220
393, 643, 616, 218, 641
394, 642, 215, 616, 643
395, 786, 450, 834, 263
396, 475, 718, 577, 646
397, 577, 770, 502, 487
398, 863, 134, 145, 874
399, 40, 33, 564, 862
400, 161, 875, 862, 631
401, 320, 321, 633, 703
402, 220, 641, 650, 648
403, 648, 650, 649, 221
404, 650, 622, 219, 649
405, 641, 218, 622, 650
406, 612, 554, 298, 654
407, 799, 541, 663, 290
408, 614, 818, 280, 754
409, 132, 143, 857, 576
410, 325, 858, 870, 871
411, 235, 144, 132, 576
412, 846, 351, 324, 310
413, 258, 440, 657, 485
414, 485, 657, 656, 245
415, 657, 598, 267, 656
416, 440, 259, 598, 657
417, 251, 659, 660, 658
418, 658, 660, 483, 244
419, 660, 464, 257, 483
420, 659, 255, 464, 660
421, 877, 885, 841, 802
422, 753, 654, 789, 788
423, 866, 330, 709, 758
424, 142, 619, 665, 131
425, 131, 665, 326, 143
426, 665, 664, 238, 326
427, 619, 239, 664, 665
428, 304, 667, 668, 666
429, 666, 668, 459, 167
430, 668, 555, 165, 459
431, 667, 298, 555, 668
432, 180, 368, 670, 551
433, 551, 670, 669, 175
434, 670, 478, 177, 669
435, 368, 178, 478, 670
436, 216, 495, 672, 671
437, 671, 672, 586, 217
438, 672, 361, 151, 586
439, 495, 152, 361, 672
440, 241, 676, 677, 673
441, 673, 677, 674, 203
442, 677, 675, 204, 674
443, 676, 242, 675, 677
444, 331, 856, 311, 330
445, 332, 335, 839, 331
446, 679, 590, 140, 128
447, 678, 200, 590, 679
448, 245, 656, 681, 548
449, 548, 681, 680, 246
450, 681, 607, 269, 680
451, 656, 267, 607, 681
452, 193, 683, 684, 682
453, 682, 684, 603, 194
454, 684, 637, 192, 603
455, 683, 185, 637, 684
456, 246, 680, 687, 685
457, 685, 687, 686, 277
458, 687, 644, 270, 686
459, 680, 269, 644, 687
460, 74, 187, 439, 81
461, 502, 599, 452, 401
462, 865, 735, 270, 644
463, 183, 462, 692, 580
464, 580, 692, 691, 169
465, 692, 499, 181, 691
466, 462, 182, 499, 692
467, 189, 694, 695, 693
468, 693, 695, 638, 185
469, 695, 472, 186, 638
470, 694, 149, 472, 695
471, 240, 698, 699, 696
472, 696, 699, 664, 239
473, 699, 697, 238, 664
474, 698, 237, 697, 699
475, 850, 204, 675, 243
476, 702, 850, 243, 855
477, 836, 701, 201, 702
478, 855, 243, 675, 242
479, 322, 863, 26, 30
480, 633, 631, 319, 376
481, 322, 146, 134, 863
482, 320, 31, 28, 321
483, 734, 825, 598, 259
484, 504, 712, 711, 202
485, 329, 705, 150, 188
486, 481, 720, 275, 272
487, 195, 707, 708, 706
488, 706, 708, 509, 196
489, 708, 682, 194, 509
490, 707, 193, 682, 708
491, 294, 711, 712, 311
492, 264, 645, 261, 482
493, 480, 600, 771, 501
494, 86, 271, 480, 89
495, 842, 646, 737, 489
496, 599, 402, 578, 452
497, 171, 716, 717, 516
498, 516, 717, 691, 181
499, 717, 602, 169, 691
500, 716, 170, 602, 717
501, 600, 273, 749, 771
502, 482, 261, 844, 402
503, 690, 262, 738, 265
504, 206, 722, 723, 721
505, 721, 723, 716, 171
506, 723, 507, 170, 716
507, 722, 207, 507, 723
508, 256, 724, 725, 470
509, 470, 725, 430, 254
510, 725, 592, 253, 430
511, 724, 252, 592, 725
512, 176, 550, 728, 518
513, 518, 728, 726, 173
514, 728, 727, 172, 726
515, 550, 175, 727, 728
516, 191, 714, 730, 729
517, 729, 730, 683, 193
518, 730, 693, 185, 683
519, 714, 189, 693, 730
520, 217, 731, 732, 671
521, 671, 732, 393, 216
522, 732, 595, 224, 393
523, 731, 222, 595, 732
524, 174, 543, 733, 371
525, 371, 733, 669, 177
526, 733, 727, 175, 669
527, 543, 172, 727, 733
528, 579, 188, 528, 328
529, 87, 750, 704, 83
530, 7, 473, 271, 86
531, 167, 468, 740, 666
532, 666, 740, 739, 304
533, 740, 505, 166, 739
534, 468, 168, 505, 740
535, 252, 724, 742, 741
536, 741, 742, 659, 251
537, 742, 425, 255, 659
538, 724, 256, 425, 742
539, 653, 281, 493, 305
540, 126, 879, 335, 138
541, 277, 686, 746, 744
542, 744, 746, 651, 280
543, 746, 745, 293, 651
544, 686, 270, 745, 746
545, 162, 513, 748, 415
546, 415, 748, 739, 166
547, 748, 747, 304, 739
548, 513, 300, 747, 748
549, 488, 475, 646, 842
550, 266, 786, 263, 262
551, 737, 487, 825, 734
552, 222, 731, 752, 751
553, 751, 752, 642, 223
554, 752, 584, 215, 642
555, 731, 217, 584, 752
556, 859, 763, 812, 787
557, 490, 291, 299, 652
558, 611, 312, 562, 762
559, 492, 561, 563, 539
560, 211, 634, 756, 544
561, 544, 756, 726, 172
562, 756, 755, 173, 726
563, 634, 205, 755, 756
564, 292, 679, 128, 139
565, 292, 159, 678, 679
566, 198, 758, 709, 260
567, 239, 314, 760, 696
568, 696, 760, 759, 240
569, 760, 676, 241, 759
570, 314, 242, 676, 760
571, 330, 311, 712, 709
572, 540, 295, 541, 799
573, 787, 491, 538, 291
574, 236, 766, 767, 764
575, 764, 767, 649, 219
576, 767, 765, 221, 649
577, 766, 237, 765, 767
578, 171, 517, 769, 721
579, 721, 769, 768, 206
580, 769, 755, 205, 768
581, 517, 173, 755, 769
582, 688, 328, 266, 327
583, 202, 711, 821, 735
584, 344, 451, 718, 475
585, 834, 199, 345, 720
586, 234, 774, 775, 772
587, 772, 775, 566, 233
588, 775, 773, 230, 566
589, 774, 231, 773, 775
590, 251, 776, 777, 741
591, 741, 777, 593, 252
592, 777, 520, 249, 593
593, 776, 247, 520, 777
594, 229, 780, 781, 778
595, 778, 781, 759, 241
596, 781, 779, 240, 759
597, 780, 232, 779, 781
598, 210, 783, 784, 635
599, 635, 784, 768, 205
600, 784, 782, 206, 768
601, 783, 209, 782, 784
602, 714, 191, 329, 736
603, 736, 329, 188, 579
604, 260, 709, 712, 504
605, 300, 788, 789, 747
606, 747, 789, 667, 304
607, 754, 280, 651, 615
608, 886, 611, 762, 885
609, 237, 698, 791, 765
610, 765, 791, 790, 221
611, 791, 779, 232, 790
612, 698, 240, 779, 791
613, 223, 792, 793, 751
614, 751, 793, 596, 222
615, 793, 567, 227, 596
616, 792, 233, 567, 793
617, 209, 797, 798, 794
618, 794, 798, 795, 208
619, 798, 796, 229, 795
620, 797, 231, 796, 798
621, 563, 534, 801, 539
622, 332, 127, 138, 335
623, 611, 490, 652, 312
624, 886, 334, 763, 859
625, 312, 652, 290, 884
626, 290, 663, 333, 884
627, 787, 812, 612, 491
628, 491, 753, 761, 538
629, 247, 776, 806, 805
630, 805, 806, 546, 248
631, 806, 658, 244, 546
632, 776, 251, 658, 806
633, 652, 299, 799, 290
634, 801, 653, 305, 295
635, 807, 514, 286, 561
636, 788, 300, 514, 807
637, 303, 803, 808, 628
638, 628, 808, 445, 163
639, 808, 323, 160, 445
640, 803, 296, 323, 808
641, 221, 790, 811, 648
642, 648, 811, 809, 220
643, 811, 810, 234, 809
644, 790, 232, 810, 811
645, 302, 615, 651, 293
646, 539, 801, 295, 540
647, 661, 537, 662, 296
648, 761, 807, 561, 492
649, 207, 722, 814, 813
650, 813, 814, 794, 208
651, 814, 782, 209, 794
652, 722, 206, 782, 814
653, 82, 489, 187, 74
654, 265, 738, 318, 476
655, 274, 719, 608, 770
656, 277, 744, 819, 817
657, 817, 819, 530, 278
658, 819, 818, 279, 530
659, 744, 280, 818, 819
660, 233, 792, 820, 772
661, 772, 820, 809, 234
662, 820, 640, 220, 809
663, 792, 223, 640, 820
664, 293, 745, 821, 743
665, 743, 821, 711, 294
666, 262, 263, 481, 738
667, 318, 272, 264, 719
668, 248, 822, 823, 805
669, 805, 823, 522, 247
670, 823, 531, 276, 522
671, 822, 278, 531, 823
672, 327, 266, 262, 690
673, 825, 401, 267, 598
674, 719, 264, 482, 608
675, 473, 149, 861, 271
676, 738, 481, 272, 318
677, 6, 488, 842, 75
678, 450, 710, 199, 834
679, 154, 412, 828, 623
680, 623, 828, 764, 219
681, 828, 827, 236, 764
682, 412, 157, 827, 828
683, 655, 309, 238, 697
684, 25, 873, 575, 2
685, 858, 574, 869, 870
686, 308, 235, 830, 872
687, 204, 832, 833, 674
688, 674, 833, 831, 203
689, 833, 706, 196, 831
690, 832, 195, 706, 833
691, 608, 482, 402, 599
692, 273, 268, 688, 749
693, 837, 589, 200, 835
694, 316, 315, 314, 239
695, 278, 822, 838, 817
696, 817, 838, 685, 277
697, 838, 547, 246, 685
698, 822, 248, 547, 838
699, 753, 788, 807, 761
700, 534, 536, 653, 801
701, 295, 305, 313, 541
702, 885, 762, 289, 841
703, 541, 313, 614, 663
704, 654, 298, 667, 789
705, 800, 492, 539, 540
706, 804, 613, 743, 294
707, 231, 797, 840, 773
708, 773, 840, 626, 230
709, 840, 783, 210, 626
710, 797, 209, 783, 840
711, 299, 800, 540, 799
712, 305, 493, 279, 313
713, 886, 859, 490, 611
714, 263, 834, 720, 481
715, 501, 771, 715, 713
716, 735, 821, 745, 270
717, 816, 736, 579, 268
718, 332, 292, 139, 127
719, 843, 835, 200, 678
720, 750, 689, 344, 704
721, 851, 860, 701, 836
722, 451, 476, 274, 718
723, 231, 774, 845, 796
724, 796, 845, 780, 229
725, 845, 810, 232, 780
726, 774, 234, 810, 845
727, 870, 869, 829, 309
728, 310, 324, 574, 858
729, 871, 870, 309, 655
730, 236, 871, 655, 766
731, 241, 673, 848, 778
732, 778, 848, 795, 229
733, 848, 847, 208, 795
734, 673, 203, 847, 848
735, 851, 588, 591, 589
736, 702, 201, 700, 850
737, 836, 702, 855, 315
738, 851, 589, 837, 860
739, 452, 578, 269, 607
740, 84, 477, 750, 87
741, 271, 861, 600, 480
742, 645, 260, 504, 261
743, 197, 826, 852, 849
744, 849, 852, 707, 195
745, 852, 729, 193, 707
746, 826, 191, 729, 852
747, 207, 813, 853, 510
748, 510, 853, 831, 196
749, 853, 847, 203, 831
750, 813, 208, 847, 853
751, 83, 704, 488, 6
752, 187, 734, 259, 439
753, 199, 843, 757, 345
754, 861, 503, 273, 600
755, 701, 785, 197, 201
756, 705, 785, 190, 150
757, 851, 316, 620, 588
758, 849, 195, 832, 700
759, 537, 137, 148, 662
760, 879, 878, 839, 335
761, 143, 326, 829, 857
762, 864, 868, 574, 324
763, 2, 575, 351, 17
764, 857, 829, 869, 307
765, 872, 830, 868, 864
766, 308, 133, 144, 235
767, 856, 804, 294, 311
768, 841, 289, 613, 804
769, 538, 761, 492, 800
770, 315, 855, 242, 314
771, 620, 316, 239, 619
772, 860, 190, 785, 701
773, 694, 189, 816, 503
774, 487, 502, 401, 825
775, 704, 344, 475, 488
776, 161, 3, 32, 875
777, 375, 662, 148, 136
778, 863, 874, 29, 26
779, 375, 632, 296, 662
780, 33, 41, 374, 564
781, 631, 862, 564, 319
782, 876, 320, 703, 647
783, 874, 145, 133, 308
784, 575, 864, 324, 351
785, 689, 527, 451, 344
786, 317, 854, 710, 450
787, 826, 197, 785, 705
788, 332, 866, 159, 292
789, 159, 757, 843, 678
790, 331, 839, 802, 856
791, 613, 302, 293, 743
792, 313, 279, 818, 614
793, 156, 846, 310, 352
794, 350, 156, 352, 157
795, 576, 857, 307, 867
796, 24, 17, 351, 846
797, 16, 24, 846, 156
798, 23, 16, 156, 350
799, 876, 27, 31, 320
800, 874, 873, 25, 29
801, 647, 375, 136, 147
802, 876, 647, 147, 135
803, 297, 661, 296, 803
804, 334, 297, 803, 303
805, 880, 9, 137, 537
806, 881, 880, 537, 661
807, 882, 881, 661, 297
808, 886, 882, 297, 334
809, 880, 879, 126, 9
810, 881, 878, 879, 880
811, 882, 877, 878, 881
812, 886, 885, 877, 882
*ELSET,ELSET=contact_source
103, 104, 105, 106, 107, 108, 109, 110, 111, 112, 
113, 114, 115, 116, 117, 118, 119, 120, 121, 122, 
123, 124, 
*ELSET,ELSET=contact_drain
41, 42, 43, 44, 45, 46, 47, 48, 49, 50, 
51, 52, 53, 54, 55, 56, 57, 58, 59, 60, 
61, 62, 
*ELSET,ELSET=probe_A
79, 80, 81, 82, 83, 84, 85, 86, 
*ELSET,ELSET=probe_B
17, 18, 19, 20, 21, 22, 23, 24, 
*ELSET,ELSET=walls
1, 2, 3, 4, 5, 6, 7, 8, 9, 10, 
11, 12, 13, 14, 15, 16, 25, 26, 27, 28, 
29, 30, 31, 32, 33, 34, 35, 36, 37, 38, 
39, 40, 63, 64, 65, 66, 67, 68, 69, 70, 
71, 72, 73, 74, 75, 76, 77, 78, 87, 88, 
89, 90, 91, 92, 93, 94, 95, 96, 97, 98, 
99, 100, 101, 102, 125, 126, 127, 128, 129, 130, 
131, 132, 133, 134, 135, 136, 137, 138, 139, 140, 
141, 142, 143, 144, 145, 146, 147, 148, 
*ELSET,ELSET=domain
149, 150, 151, 152, 153, 154, 155, 156, 157, 158, 
159, 160, 161, 162, 163, 164, 165, 166, 167, 168, 
169, 170, 171, 172, 173, 174, 175, 176, 177, 178, 
179, 180, 181, 182, 183, 184, 185, 186, 187, 188, 
189, 190, 191, 192, 193, 194, 195, 196, 197, 198, 
199, 200, 201, 202, 203, 204, 205, 206, 207, 208, 
209, 210, 211, 212, 213, 214, 215, 216, 217, 218, 
219, 220, 221, 222, 223, 224, 225, 226, 227, 228, 
229, 230, 231, 232, 233, 234, 235, 236, 237, 238, 
239, 240, 241, 242, 243, 244, 245, 246, 247, 248, 
249, 250, 251, 252, 253, 254, 255, 256, 257, 258, 
259, 260, 261, 262, 263, 264, 265, 266, 267, 268, 
269, 270, 271, 272, 273, 274, 275, 276, 277, 278, 
279, 280, 281, 282, 283, 284, 285, 286, 287, 288, 
289, 290, 291, 292, 293, 294, 295, 296, 297, 298, 
299, 300, 301, 302, 303, 304, 305, 306, 307, 308, 
309, 310, 311, 312, 313, 314, 315, 316, 317, 318, 
319, 320, 321, 322, 323, 324, 325, 326, 327, 328, 
329, 330, 331, 332, 333, 334, 335, 336, 337, 338, 
339, 340, 341, 342, 343, 344, 345, 346, 347, 348, 
349, 350, 351, 352, 353, 354, 355, 356, 357, 358, 
359, 360, 361, 362, 363, 364, 365, 366, 367, 368, 
369, 370, 371, 372, 373, 374, 375, 376, 377, 378, 
379, 380, 381, 382, 383, 384, 385, 386, 387, 388, 
389, 390, 391, 392, 393, 394, 395, 396, 397, 398, 
399, 400, 401, 402, 403, 404, 405, 406, 407, 408, 
409, 410, 411, 412, 413, 414, 415, 416, 417, 418, 
419, 420, 421, 422, 423, 424, 425, 426, 427, 428, 
429, 430, 431, 432, 433, 434, 435, 436, 437, 438, 
439, 440, 441, 442, 443, 444, 445, 446, 447, 448, 
449, 450, 451, 452, 453, 454, 455, 456, 457, 458, 
459, 460, 461, 462, 463, 464, 465, 466, 467, 468, 
469, 470, 471, 472, 473, 474, 475, 476, 477, 478, 
479, 480, 481, 482, 483, 484, 485, 486, 487, 488, 
489, 490, 491, 492, 493, 494, 495, 496, 497, 498, 
499, 500, 501, 502, 503, 504, 505, 506, 507, 508, 
509, 510, 511, 512, 513, 514, 515, 516, 517, 518, 
519, 520, 521, 522, 523, 524, 525, 526, 527, 528, 
529, 530, 531, 532, 533, 534, 535, 536, 537, 538, 
539, 540, 541, 542, 543, 544, 545, 546, 547, 548, 
549, 550, 551, 552, 553, 554, 555, 556, 557, 558, 
559, 560, 561, 562, 563, 564, 565, 566, 567, 568, 
569, 570, 571, 572, 573, 574, 575, 576, 577, 578, 
579, 580, 581, 582, 583, 584, 585, 586, 587, 588, 
589, 590, 591, 592, 593, 594, 595, 596, 597, 598, 
599, 600, 601, 602, 603, 604, 605, 606, 607, 608, 
609, 610, 611, 612, 613, 614, 615, 616, 617, 618, 
619, 620, 621, 622, 623, 624, 625, 626, 627, 628, 
629, 630, 631, 632, 633, 634, 635, 636, 637, 638, 
639, 640, 641, 642, 643, 644, 645, 646, 647, 648, 
649, 650, 651, 652, 653, 654, 655, 656, 657, 658, 
659, 660, 661, 662, 663, 664, 665, 666, 667, 668, 
669, 670, 671, 672, 673, 674, 675, 676, 677, 678, 
679, 680, 681, 682, 683, 684, 685, 686, 687, 688, 
689, 690, 691, 692, 693, 694, 695, 696, 697, 698, 
699, 700, 701, 702, 703, 704, 705, 706, 707, 708, 
709, 710, 711, 712, 713, 714, 715, 716, 717, 718, 
719, 720, 721, 722, 723, 724, 725, 726, 727, 728, 
729, 730, 731, 732, 733, 734, 735, 736, 737, 738, 
739, 740, 741, 742, 743, 744, 745, 746, 747, 748, 
749, 750, 751, 752, 753, 754, 755, 756, 757, 758, 
759, 760, 761, 762, 763, 764, 765, 766, 767, 768, 
769, 770, 771, 772, 773, 774, 775, 776, 777, 778, 
779, 780, 781, 782, 783, 784, 785, 786, 787, 788, 
789, 790, 791, 792, 793, 794, 795, 796, 797, 798, 
799, 800, 801, 802, 803, 804, 805, 806, 807, 808, 
809, 810, 811, 812, 813, 814, 815, 816, 817, 818, 
819, 820, 821, 822, 823, 824, 825, 826, 827, 828, 
829, 830, 831, 832, 833, 834, 835, 836, 837, 838, 
839, 840, 841, 842, 843, 844, 845, 846, 847, 848, 
849, 850, 851, 852, 853, 854, 855, 856, 857, 858, 
859, 860, 861, 862, 863, 864, 865, 866, 867, 868, 
869, 870, 871, 872, 873, 874, 875, 876, 877, 878, 
879, 880, 881, 882, 883, 884, 885, 886, 887, 888, 
889, 890, 891, 892, 893, 894, 895, 896, 897, 898, 
899, 900, 901, 902, 903, 904, 905, 906, 907, 908, 
909, 910, 911, 912, 913, 914, 915, 916, 917, 918, 
919, 920, 921, 922, 923, 924, 925, 926, 927, 928, 
929, 930, 931, 932, 933, 934, 935, 936, 937, 938, 
939, 940, 941, 942, 943, 944, 945, 946, 947, 948, 
949, 950, 951, 952, 953, 954, 955, 956, 957, 958, 
959, 960, 
*NSET,NSET=contact_source
1, 8, 105, 106, 107, 108, 109, 110, 111, 112, 
113, 114, 115, 116, 117, 118, 119, 120, 121, 122, 
123, 124, 125, 
*NSET,NSET=contact_drain
4, 5, 47, 48, 49, 50, 51, 52, 53, 54, 
55, 56, 57, 58, 59, 60, 61, 62, 63, 64, 
65, 66, 67, 
*NSET,NSET=probe_A
6, 7, 83, 84, 85, 86, 87, 88, 89, 
*NSET,NSET=probe_B
2, 3, 25, 26, 27, 28, 29, 30, 31, 
*NSET,NSET=walls
1, 2, 3, 4, 5, 6, 7, 8, 9, 10, 
11, 12, 13, 14, 15, 16, 17, 18, 19, 20, 
21, 22, 23, 24, 32, 33, 34, 35, 36, 37, 
38, 39, 40, 41, 42, 43, 44, 45, 46, 68, 
69, 70, 71, 72, 73, 74, 75, 76, 77, 78, 
79, 80, 81, 82, 90, 91, 92, 93, 94, 95, 
96, 97, 98, 99, 100, 101, 102, 103, 104, 126, 
127, 128, 129, 130, 131, 132, 133, 134, 135, 136, 
137, 138, 139, 140, 141, 142, 143, 144, 145, 146, 
147, 148, 
*NSET,NSET=domain
1, 2, 3, 4, 5, 6, 7, 8, 9, 10, 
11, 12, 13, 14, 15, 16, 17, 18, 19, 20, 
21, 22, 23, 24, 25, 26, 27, 28, 29, 30, 
31, 32, 33, 34, 35, 36, 37, 38, 39, 40, 
41, 42, 43, 44, 45, 46, 47, 48, 49, 50, 
51, 52, 53, 54, 55, 56, 57, 58, 59, 60, 
61, 62, 63, 64, 65, 66, 67, 68, 69, 70, 
71, 72, 73, 74, 75, 76, 77, 78, 79, 80, 
81, 82, 83, 84, 85, 86, 87, 88, 89, 90, 
91, 92, 93, 94, 95, 96, 97, 98, 99, 100, 
101, 102, 103, 104, 105, 106, 107, 108, 109, 110, 
111, 112, 113, 114, 115, 116, 117, 118, 119, 120, 
121, 122, 123, 124, 125, 126, 127, 128, 129, 130, 
131, 132, 133, 134, 135, 136, 137, 138, 139, 140, 
141, 142, 143, 144, 145, 146, 147, 148, 149, 150, 
151, 152, 153, 154, 155, 156, 157, 158, 159, 160, 
161, 162, 163, 164, 165, 166, 167, 168, 169, 170, 
171, 172, 173, 174, 175, 176, 177, 178, 179, 180, 
181, 182, 183, 184, 185, 186, 187, 188, 189, 190, 
191, 192, 193, 194, 195, 196, 197, 198, 199, 200, 
201, 202, 203, 204, 205, 206, 207, 208, 209, 210, 
211, 212, 213, 214, 215, 216, 217, 218, 219, 220, 
221, 222, 223, 224, 225, 226, 227, 228, 229, 230, 
231, 232, 233, 234, 235, 236, 237, 238, 239, 240, 
241, 242, 243, 244, 245, 246, 247, 248, 249, 250, 
251, 252, 253, 254, 255, 256, 257, 258, 259, 260, 
261, 262, 263, 264, 265, 266, 267, 268, 269, 270, 
271, 272, 273, 274, 275, 276, 277, 278, 279, 280, 
281, 282, 283, 284, 285, 286, 287, 288, 289, 290, 
291, 292, 293, 294, 295, 296, 297, 298, 299, 300, 
301, 302, 303, 304, 305, 306, 307, 308, 309, 310, 
311, 312, 313, 314, 315, 316, 317, 318, 319, 320, 
321, 322, 323, 324, 325, 326, 327, 328, 329, 330, 
331, 332, 333, 334, 335, 336, 337, 338, 339, 340, 
341, 342, 343, 344, 345, 346, 347, 348, 349, 350, 
351, 352, 353, 354, 355, 356, 357, 358, 359, 360, 
361, 362, 363, 364, 365, 366, 367, 368, 369, 370, 
371, 372, 373, 374, 375, 376, 377, 378, 379, 380, 
381, 382, 383, 384, 385, 386, 387, 388, 389, 390, 
391, 392, 393, 394, 395, 396, 397, 398, 399, 400, 
401, 402, 403, 404, 405, 406, 407, 408, 409, 410, 
411, 412, 413, 414, 415, 416, 417, 418, 419, 420, 
421, 422, 423, 424, 425, 426, 427, 428, 429, 430, 
431, 432, 433, 434, 435, 436, 437, 438, 439, 440, 
441, 442, 443, 444, 445, 446, 447, 448, 449, 450, 
451, 452, 453, 454, 455, 456, 457, 458, 459, 460, 
461, 462, 463, 464, 465, 466, 467, 468, 469, 470, 
471, 472, 473, 474, 475, 476, 477, 478, 479, 480, 
481, 482, 483, 484, 485, 486, 487, 488, 489, 490, 
491, 492, 493, 494, 495, 496, 497, 498, 499, 500, 
501, 502, 503, 504, 505, 506, 507, 508, 509, 510, 
511, 512, 513, 514, 515, 516, 517, 518, 519, 520, 
521, 522, 523, 524, 525, 526, 527, 528, 529, 530, 
531, 532, 533, 534, 535, 536, 537, 538, 539, 540, 
541, 542, 543, 544, 545, 546, 547, 548, 549, 550, 
551, 552, 553, 554, 555, 556, 557, 558, 559, 560, 
561, 562, 563, 564, 565, 566, 567, 568, 569, 570, 
571, 572, 573, 574, 575, 576, 577, 578, 579, 580, 
581, 582, 583, 584, 585, 586, 587, 588, 589, 590, 
591, 592, 593, 594, 595, 596, 597, 598, 599, 600, 
601, 602, 603, 604, 605, 606, 607, 608, 609, 610, 
611, 612, 613, 614, 615, 616, 617, 618, 619, 620, 
621, 622, 623, 624, 625, 626, 627, 628, 629, 630, 
631, 632, 633, 634, 635, 636, 637, 638, 639, 640, 
641, 642, 643, 644, 645, 646, 647, 648, 649, 650, 
651, 652, 653, 654, 655, 656, 657, 658, 659, 660, 
661, 662, 663, 664, 665, 666, 667, 668, 669, 670, 
671, 672, 673, 674, 675, 676, 677, 678, 679, 680, 
681, 682, 683, 684, 685, 686, 687, 688, 689, 690, 
691, 692, 693, 694, 695, 696, 697, 698, 699, 700, 
701, 702, 703, 704, 705, 706, 707, 708, 709, 710, 
711, 712, 713, 714, 715, 716, 717, 718, 719, 720, 
721, 722, 723, 724, 725, 726, 727, 728, 729, 730, 
731, 732, 733, 734, 735, 736, 737, 738, 739, 740, 
741, 742, 743, 744, 745, 746, 747, 748, 749, 750, 
751, 752, 753, 754, 755, 756, 757, 758, 759, 760, 
761, 762, 763, 764, 765, 766, 767, 768, 769, 770, 
771, 772, 773, 774, 775, 776, 777, 778, 779, 780, 
781, 782, 783, 784, 785, 786, 787, 788, 789, 790, 
791, 792, 793, 794, 795, 796, 797, 798, 799, 800, 
801, 802, 803, 804, 805, 806, 807, 808, 809, 810, 
811, 812, 813, 814, 815, 816, 817, 818, 819, 820, 
821, 822, 823, 824, 825, 826, 827, 828, 829, 830, 
831, 832, 833, 834, 835, 836, 837, 838, 839, 840, 
841, 842, 843, 844, 845, 846, 847, 848, 849, 850, 
851, 852, 853, 854, 855, 856, 857, 858, 859, 860, 
861, 862, 863, 864, 865, 866, 867, 868, 869, 870, 
871, 872, 873, 874, 875, 876, 877, 878, 879, 880, 
881, 882, 883, 884, 885, 886, 
