*Heading
 /Users/juliagao/geometry-optimization-net/scripts/../runs/2d/shape_42.inp
*NODE
1, 0, -0.3, 0
2, 0.425, -0.3, 0
3, 0.575, -0.3, 0
4, 1, -0.3, 0
5, 1, 0.3, 0
6, 0.575, 0.3, 0
7, 0.425, 0.3, 0
8, 0, 0.3, 0
9, 0.5966104993, -0.15, 0
10, 0.025790903631945, -0.3, 0
11, 0.078201472362193, -0.3, 0
12, 0.13164353231619, -0.3, 0
13, 0.1849754360925, -0.3, 0
14, 0.23800704528594, -0.3, 0
15, 0.29111869990881, -0.3, 0
16, 0.34456095932208, -0.3, 0
17, 0.39820683219265, -0.3, 0
18, 0.05158180726389, -0.3, 0
19, 0.10482113746049, -0.3, 0
20, 0.15846592717189, -0.3, 0
21, 0.21148494501312, -0.3, 0
22, 0.26452914555876, -0.3, 0
23, 0.31770825425886, -0.3, 0
24, 0.37141366438531, -0.3, 0
25, 0.45071544819874, -0.3, 0
26, 0.50046451531398, -0.3, 0
27, 0.54974906711524, -0.3, 0
28, 0.47643089639748, -0.3, 0
29, 0.52449813423048, -0.3, 0
30, 0.60146233978578, -0.3, 0
31, 0.65462303248265, -0.3, 0
32, 0.70799553028613, -0.3, 0
33, 0.76199743308423, -0.3, 0
34, 0.81722594132979, -0.3, 0
35, 0.87221543402435, -0.3, 0
36, 0.92481001823246, -0.3, 0
37, 0.97515793004294, -0.3, 0
38, 0.62792467957157, -0.3, 0
39, 0.68132138539373, -0.3, 0
40, 0.73466967517853, -0.3, 0
41, 0.78932519098993, -0.3, 0
42, 0.84512669166966, -0.3, 0
43, 0.89930417637905, -0.3, 0
44, 0.95031586008587, -0.3, 0
45, 1, -0.27376994712498, 0
46, 1, -0.21988868115513, 0
47, 1, -0.1637565785059, 0
48, 1, -0.10762444220333, 0
49, 1, -0.05303985144546, 0
50, 1, 0.0011009031834049, 0
51, 1, 0.055824309781405, 0
52, 1, 0.11088901074767, 0
53, 1, 0.16593094421198, 0
54, 1, 0.22034012811716, 0
55, 1, 0.27362804177272, 0
56, 1, -0.24753989424995, 0
57, 1, -0.1922374680603, 0
58, 1, -0.13527568895149, 0
59, 1, -0.079973195455167, 0
60, 1, -0.026106507435753, 0
61, 1, 0.028308313802563, 0
62, 1, 0.083340305760247, 0
63, 1, 0.13843771573509, 0
64, 1, 0.19342417268888, 0
65, 1, 0.24725608354545, 0
66, 0.97376184316853, 0.3, 0
67, 0.92104142577309, 0.3, 0
68, 0.86741843198745, 0.3, 0
69, 0.81265766034956, 0.3, 0
70, 0.75817624788333, 0.3, 0
71, 0.70531584463985, 0.3, 0
72, 0.65306548473937, 0.3, 0
73, 0.60090707701619, 0.3, 0
74, 0.94752368633706, 0.3, 0
75, 0.89455916520912, 0.3, 0
76, 0.84027769876577, 0.3, 0
77, 0.78503762193334, 0.3, 0
78, 0.73131487383333, 0.3, 0
79, 0.67931681544637, 0.3, 0
80, 0.62681415403238, 0.3, 0
81, 0.55014299801416, 0.3, 0
82, 0.50064050241943, 0.3, 0
83, 0.45049750440527, 0.3, 0
84, 0.52528599602832, 0.3, 0
85, 0.47599500881054, 0.3, 0
86, 0.39894932310184, 0.3, 0
87, 0.34619413514399, 0.3, 0
88, 0.29252057856545, 0.3, 0
89, 0.23857541093064, 0.3, 0
90, 0.18495452722428, 0.3, 0
91, 0.13161621596198, 0.3, 0
92, 0.078367192847776, 0.3, 0
93, 0.025905859702736, 0.3, 0
94, 0.37289864620368, 0.3, 0
95, 0.3194896240843, 0.3, 0
96, 0.2655515330466, 0.3, 0
97, 0.21159928881468, 0.3, 0
98, 0.15830976563389, 0.3, 0
99, 0.10492266629008, 0.3, 0
100, 0.051811719405472, 0.3, 0
101, 0, 0.27419839615932, 0
102, 0, 0.22216086478755, 0
103, 0, 0.16839087003979, 0
104, 0, 0.11251813326303, 0
105, 0, 0.056280828148752, 0
106, 0, 0.00060847688896581, 0
107, 0, -0.054899767959444, 0
108, 0, -0.11015184560214, 0
109, 0, -0.16533033970434, 0
110, 0, -0.22020303675424, 0
111, 0, -0.27370739410091, 0
112, 0, 0.24839679231864, 0
113, 0, 0.19592493725646, 0
114, 0, 0.14085680282312, 0
115, 0, 0.08417946370294, 0
116, 0, 0.028382192594564, 0
117, 0, -0.027165238816632, 0
118, 0, -0.082634297102255, 0
119, 0, -0.13766939410202, 0
120, 0, -0.19299128530667, 0
121, 0, -0.24741478820182, 0
122, 0.59276900073998, -0.12302777289897, 0
123, 0.56385545307578, -0.077501244259063, 0
124, 0.51564730430545, -0.054665061873766, 0
125, 0.4625766911404, -0.060932135309517, 0
126, 0.41967873659715, -0.096314962793139, 0
127, 0.4033981112139, -0.1512897942145, 0
128, 0.42091507245717, -0.2054902036666, 0
129, 0.46359003293494, -0.2394868864868, 0
130, 0.51506143071697, -0.24542925071524, 0
131, 0.56283284942223, -0.22338679447655, 0
132, 0.59261036400469, -0.177511978536, 0
133, 0.58155000449807, -0.098200528663424, 0
134, 0.5410875575152, -0.062562015360897, 0
135, 0.48901749108364, -0.054015766581504, 0
136, 0.43913082113498, -0.074976460075263, 0
137, 0.40740128508259, -0.12244883892125, 0
138, 0.4081698678222, -0.18001358682539, 0
139, 0.44053622686334, -0.22614228946909, 0
140, 0.4894117868175, -0.24602852843706, 0
141, 0.53964884812585, -0.23809970130216, 0
142, 0.58094121039659, -0.20274570080624, 0
143, 0.41463134674096, 0.24391503266194, 0
144, 0.57139047022678, 0.24536840350516, 0
145, 0.054131823830776, -0.24440763413167, 0
146, 0.30455701308971, -0.14594585465598, 0
147, 0.10767143285551, -0.24482475441651, 0
148, 0.14290825875598, -0.04343198590914, 0
149, 0.33019582620263, -0.11433434320162, 0
150, 0.37793687603379, -0.2400283685255, 0
151, 0.19018135231011, -0.22221589986871, 0
152, 0.87459686951782, -0.049666530155807, 0
153, 0.63641401946168, -0.059890165187365, 0
154, 0.7087851680738, -0.067870721613087, 0
155, 0.63495708054114, -0.2349146151066, 0
156, 0.97409231862931, -0.27263109029494, 0
157, 0.92428981704135, -0.16335016510064, 0
158, 0.92450754598257, -0.079231064706909, 0
159, 0.9230062068129, -0.21832673570458, 0
160, 0.82239933089167, -0.19258749363424, 0
161, 0.84892520798423, -0.020416388182067, 0
162, 0.69720490250277, -0.19064317699355, 0
163, 0.25614659660484, 0.18440804954097, 0
164, 0.25515421542998, 0.12423199559288, 0
165, 0.20629035539713, 0.12348552125609, 0
166, 0.15657206430085, 0.12487316359413, 0
167, 0.10553719383187, 0.12782089830344, 0
168, 0.053186925139492, 0.13258812904415, 0
169, 0.10588970795275, 0.18555625627167, 0
170, 0.15663901594852, 0.18408598952283, 0
171, 0.053837514767805, 0.18864837137316, 0
172, 0.054352959159649, 0.2442933879998, 0
173, 0.15771916725159, 0.24282665380791, 0
174, 0.10646629162152, 0.2432299333013, 0
175, 0.20654956715169, 0.18370166572228, 0
176, 0.20866863368485, 0.242879088419, 0
177, 0.25964078109298, 0.24329083938564, 0
178, 0.31096540240907, 0.2438014576315, 0
179, 0.35745679961939, 0.18782004206163, 0
180, 0.36277716095387, 0.24414864587205, 0
181, 0.46649044800923, 0.24394864593107, 0
182, 0.40924739883694, 0.18793934861391, 0
183, 0.46159930772209, 0.1891369072201, 0
184, 0.40730910992186, 0.13171126784504, 0
185, 0.45971993551783, 0.13495402385123, 0
186, 0.30621031619065, 0.18601914533697, 0
187, 0.35549426519301, 0.13181501144789, 0
188, 0.30434244255301, 0.12738721691147, 0
189, 0.47918632309003, -0.032278185592678, 0
190, 0.30542423504245, 0.067888041779409, 0
191, 0.33158223535178, 0.043729258408522, 0
192, 0.43281506240048, 0.022579864780471, 0
193, 0.43317485459492, 0.077810426088473, 0
194, 0.2649751456241, 0.00018601878315946, 0
195, 0.31102420914746, 0.0062846569034484, 0
196, 0.15877142000523, 0.065865106027572, 0
197, 0.20904606468012, 0.062730510814483, 0
198, 0.25748747055349, 0.062880759769306, 0
199, 0.21603867710067, 0.0019108492744169, 0
200, 0.16387846487869, 0.0078651451348143, 0
201, 0.053466870633654, 0.076391837099697, 0
202, 0.10669606512955, 0.07049976632334, 0
203, 0.10958030603175, 0.014328738742685, 0
204, 0.054564328769343, 0.020848608676991, 0
205, 0.13529392448489, -0.21821420563637, 0
206, 0.1089209357736, -0.19001992411185, 0
207, 0.054420254213481, -0.18966369924127, 0
208, 0.18911849909138, -0.19518046466976, 0
209, 0.14790976117004, -0.14145293726907, 0
210, 0.24562336722637, -0.21334271196659, 0
211, 0.11640678284028, -0.13902063457795, 0
212, 0.056605307951643, -0.13672495424531, 0
213, 0.11372482066686, -0.039592951753344, 0
214, 0.05594954702968, -0.033166937039249, 0
215, 0.057002016808583, -0.085353407819584, 0
216, 0.11721130602937, -0.090391019814576, 0
217, 0.25335592935158, -0.1684434614055, 0
218, 0.1359811225427, -0.19082404298104, 0
219, 0.27681441823072, -0.14493279288599, 0
220, 0.34893736052203, -0.2697045228943, 0
221, 0.28300207604738, -0.06161536731148, 0
222, 0.35833841934178, -0.17689746619435, 0
223, 0.17299981445619, -0.16753608173677, 0
224, 0.35732201768463, -0.10620243274909, 0
225, 0.33420996307579, -0.053674434221092, 0
226, 0.3838891237876, 0.046563293019537, 0
227, 0.46060690479177, 0.055649379351536, 0
228, 0.44797229973616, -0.042134833213483, 0
229, 0.78733660884424, 0.19571246425772, 0
230, 0.84112481244296, 0.19533034094731, 0
231, 0.73469653683303, 0.14391327435634, 0
232, 0.78892505414957, 0.14348164559864, 0
233, 0.84244483805693, 0.14258032175288, 0
234, 0.89547752633329, 0.14133878683523, 0
235, 0.94810098521758, 0.13995152502305, 0
236, 0.89453450955567, 0.19445041603689, 0
237, 0.94758364668072, 0.19355446793514, 0
238, 0.94711449448873, 0.24678799498142, 0
239, 0.89392936183099, 0.24730673477243, 0
240, 0.84030333211633, 0.24788266288592, 0
241, 0.7863630140044, 0.24791572615219, 0
242, 0.7330364264584, 0.19553059034242, 0
243, 0.73229476411988, 0.24740759506466, 0
244, 0.6783185300382, 0.19504211562324, 0
245, 0.67828884098825, 0.24696103422039, 0
246, 0.62356472496716, 0.19406506957796, 0
247, 0.62459987998202, 0.24643638467137, 0
248, 0.51871471626129, 0.24433156776841, 0
249, 0.56906840447024, 0.19234672978028, 0
250, 0.51502574747778, 0.19056731762383, 0
251, 0.56892055188247, 0.14035757219925, 0
252, 0.5140313702779, 0.13780468854021, 0
253, 0.62429109739664, 0.14266269975977, 0
254, 0.67971763357254, 0.14376641995888, 0
255, 0.62733851307762, 0.091968246782649, 0
256, 0.68304332604423, 0.092779772880235, 0
257, 0.57142815681536, 0.089149071436167, 0
258, 0.51584094241869, 0.086129017206235, 0
259, 0.52163071505708, 0.03618399836309, 0
260, 0.63344763245965, 0.041723078286894, 0
261, 0.57746673726334, 0.038496214415284, 0
262, 0.87406962037868, -0.16382093370651, 0
263, 0.6584610196107, -0.27145732878864, 0
264, 0.84425017556571, 0.089344608114905, 0
265, 0.7914498408803, 0.090875284797485, 0
266, 0.73779749847648, 0.092155192298206, 0
267, 0.80269743335482, -0.075599882498885, 0
268, 0.65959512160073, -0.24224390939336, 0
269, 0.8965365844007, 0.087699118355976, 0
270, 0.94849276933375, 0.085854070319286, 0
271, 0.72355299946282, -0.012914968682693, 0
272, 0.67112630120943, -0.0094549651668665, 0
273, 0.89718700558537, -0.2731385237603, 0
274, 0.9489183990734, 0.0037190090471877, 0
275, 0.62381978347932, -0.034003058858424, 0
276, 0.65122008180783, -0.034375631278793, 0
277, 0.71265796254654, -0.098968248260816, 0
278, 0.77414984929267, -0.016472920518251, 0
279, 0.68527786810251, -0.064967953966178, 0
280, 0.7321135694475, -0.070410594925166, 0
281, 0.58848205700127, -0.012172652798694, 0
282, 0.54386133576201, -0.038138476697708, 0
283, 0.74720581798048, -0.19257122201904, 0
284, 0.64386897792448, -0.0086087054492359, 0
285, 0.66134268860433, 0.041982888155312, 0
286, 0.53495768259638, -0.012619519974944, 0
287, 0.89730702431773, -0.21882668947947, 0
288, 0.58486423893188, -0.25766355499163, 0
289, 0.71595378907954, 0.040700898262557, 0
290, 0.64736352978673, -0.18154114234918, 0
291, 0.82468754185527, -0.16422603043986, 0
292, 0.84772495660549, 0.0075687649224346, 0
293, 0.84439514710375, -0.27386725771609, 0
294, 0.97459309850228, -0.079986700215183, 0
295, 0.94965905986741, -0.1076182581992, 0
296, 0.80110412532293, -0.046484454447529, 0
297, 0.76553203162715, -0.2473762874591, 0
298, 0.97437942222516, 0.002566332908502, 0
299, 0.16277503922906, -0.1922390099645, 0
300, 0.29770840569069, -0.23800832077849, 0
301, 0.14603909354536, -0.069314031178722, 0
302, 0.61604213974896, -0.0092510442084798, 0
303, 0.65984326097511, -0.15587732995908, 0
304, 0.66935189965898, -0.092757235557628, 0
305, 0.34815328761132, -0.07873076083581, 0
306, 0.33020058061698, 0.072423728168169, 0
307, 0.40737904299261, 0.01236033079161, 0
308, 0.27328436914822, -0.2376696375288, 0
309, 0.29160780575009, -0.20570093266413, 0
310, 0.21524920669315, -0.13051302242157, 0
311, 0.79497486806497, 0.037303795716403, 0
312, 0.74899876368708, -0.014766166291064, 0
313, 0.75716403707834, -0.10289488675481, 0
314, 0.71271891512711, -0.13121645382374, 0
315, 0.72878943898564, -0.16322522988, 0
316, 0.622627103863, -0.16823072982808, 0
317, 0.68886695623726, 0.041558289251034, 0
318, 0.82663246320333, -0.07667549427232, 0
319, 0.79702429341575, 0.0099230799800915, 0
320, 0.82403563212772, -0.01929114012837, 0
321, 0.69092283689102, -0.21809036836611, 0
322, 0.77146793930664, 0.011288380100629, 0
323, 0.59600553994101, -0.03715821797854, 0
324, 0.57229317845326, -0.047890229460965, 0
325, 0.38263791185129, 0.075279657216313, 0
326, 0.35948346726112, -0.0025982161944504, 0
327, 0.92418919544062, -0.051097965241927, 0
328, 0.97497446323977, -0.16343474607538, 0
329, 0.82242003744015, 0.0086830462562011, 0
330, 0.87211373140657, 0.034184398116794, 0
331, 0.75237922996956, -0.043121928903355, 0
332, 0.82705287340623, -0.10592755630235, 0
333, 0.89680469067103, -0.24607640023855, 0
334, 0.9743242862396, 0.084730835933681, 0
335, 0.94873294524597, -0.21815651835683, 0
336, 0.94866400078957, 0.058612568789952, 0
337, 0.97437618942473, 0.05738042861303, 0
338, 0.053160511446002, 0.10446873000298, 0
339, 0.026696903509447, 0.080017293902711, 0
340, 0.026637506019911, 0.13608422339434, 0
341, 0.026535414026864, 0.10807398668613, 0
342, 0.02788223390326, -0.13670034646356, 0
343, 0.028033786764575, -0.083738806446315, 0
344, 0.057040755947347, -0.1110222745688, 0
345, 0.028057869513904, -0.11020906402849, 0
346, 0.055550805850399, -0.16283130224592, 0
347, 0.02714206797849, -0.19056627726879, 0
348, 0.027494668468003, -0.16344151027744, 0
349, 0.027170802748068, 0.024382699002473, 0
350, 0.055234877481125, -0.0063892087238304, 0
351, 0.027665031181679, -0.030244594470013, 0
352, 0.027418797485438, -0.0030751671474298, 0
353, 0.84013171688089, 0.27404420817801, 0
354, 0.81336021407067, 0.24802071373248, 0
355, 0.78588059983375, 0.27400447343919, 0
356, 0.81300872089795, 0.27414288663262, 0
357, 0.29687580146571, -0.26948151909224, 0
358, 0.14914941120243, -0.11812547603736, 0
359, 0.2655154941017, -0.089396868895256, 0
360, 0.21212863112302, -0.10581940025742, 0
361, 0.17204474086223, -0.047803379997995, 0
362, 0.22911102660453, -0.057734896526349, 0
363, 0.8447605000623, -0.24714008601197, 0
364, 0.71000235714148, -0.27318775659531, 0
365, 0.73668347311812, -0.27358259987307, 0
366, 0.67864944114844, 0.27329492781836, 0
367, 0.65139440539454, 0.24677214615066, 0
368, 0.62560989555407, 0.27306716619825, 0
369, 0.65208474615473, 0.27324580032335, 0
370, 0.13215580244132, 0.24298079041534, 0
371, 0.1061705489287, 0.27182651659618, 0
372, 0.15816620287898, 0.27170462542128, 0
373, 0.13218741750568, 0.27176001115081, 0
374, 0.94830638905804, 0.11296650054795, 0
375, 0.97418230395439, 0.13922162011712, 0
376, 0.9742625239837, 0.1120164900804, 0
377, 0.24851970344487, -0.24267088097839, 0
378, 0.16247931528486, -0.21963266855905, 0
379, 0.24574678961402, -0.27143624657574, 0
380, 0.73198476330259, 0.2735683691907, 0
381, 0.70526904401606, 0.24712335942704, 0
382, 0.70526830163681, 0.27334034203136, 0
383, 0.70552967333493, -0.16208235449565, 0
384, 0.94974959867234, -0.13553608697048, 0
385, 0.80033152327856, -0.16425569040363, 0
386, 0.87096260664386, -0.27357968644257, 0
387, 0.28524353986555, 0.2435495050851, 0
388, 0.26227083572893, 0.27200510033668, 0
389, 0.31465110342638, 0.27216625900283, 0
390, 0.28843962780195, 0.2721042664395, 0
391, 0.056580857334895, -0.059461356402549, 0
392, 0.027876326049455, -0.057117300299953, 0
393, 0.79447997091685, -0.22047135651196, 0
394, 0.8492690737292, -0.16406162939812, 0
395, 0.85105628649126, -0.10645702567209, 0
396, 0.21011244763552, 0.27178508905184, 0
397, 0.18321040883242, 0.24278056305366, 0
398, 0.18412762783901, 0.2716928437056, 0
399, 0.2341302416949, 0.24306924523328, 0
400, 0.23616111358704, 0.27191151873195, 0
401, 0.10659914669413, -0.27236671135934, 0
402, 0.18015909475188, -0.099213053906642, 0
403, 0.21638652552857, -0.15333751701989, 0
404, 0.63526614222117, -0.26915764701154, 0
405, 0.94945230044806, -0.079661109591636, 0
406, 0.77898448965816, -0.074235694905493, 0
407, 0.65155150045168, -0.12113714484779, 0
408, 0.9478733680822, 0.166810122223, 0
409, 0.97390620666149, 0.19329839837475, 0
410, 0.97408703325299, 0.16632583450429, 0
411, 0.77675410088496, -0.044951214604547, 0
412, 0.77941624945198, -0.13444526785699, 0
413, 0.6976528077283, -0.011053282112597, 0
414, 0.29374610879747, -0.089922278813983, 0
415, 0.37582662153303, -0.2694144293577, 0
416, 0.13469617583856, -0.24541239846776, 0
417, 0.33681835935118, 0.24403092614225, 0
418, 0.36707467111069, 0.27217266225156, 0
419, 0.34087957321935, 0.27221328524392, 0
420, 0.49254720349937, 0.24404142469495, 0
421, 0.47047563618258, 0.271740976749, 0
422, 0.52163504419429, 0.2718104327947, 0
423, 0.49604650130172, 0.2716659121004, 0
424, 0.97357512329347, 0.24677084125565, 0
425, 0.94710377744814, 0.27336577100781, 0
426, 0.97351074389313, 0.27334959457257, 0
427, 0.053966904586468, 0.048474986562117, 0
428, 0.026936994869539, 0.052094799291196, 0
429, 0.10587964187838, 0.099074075190323, 0
430, 0.080174556710466, 0.073258535230295, 0
431, 0.079512694717646, 0.12991609179488, 0
432, 0.079646244863589, 0.10152503819324, 0
433, 0.87516520584075, -0.078191214348241, 0
434, 0.92262666132951, -0.24553510695378, 0
435, 0.080575924025909, 0.2436348615623, 0
436, 0.053876947332474, 0.27209174959472, 0
437, 0.080088549083844, 0.27194259316806, 0
438, 0.86716907428545, 0.24762909957506, 0
439, 0.89397013631846, 0.27367837700002, 0
440, 0.86713309591959, 0.27388595683192, 0
441, 0.94730798730934, 0.2202038293367, 0
442, 0.97372354485691, 0.22010370060727, 0
443, 0.59792825721587, 0.24597894042102, 0
444, 0.57317577739843, 0.27243117917553, 0
445, 0.59929164537638, 0.27282478712638, 0
446, 0.080871952338451, -0.24447990020704, 0
447, 0.053538739688111, -0.27206960991402, 0
448, 0.079988146535613, -0.27220381442507, 0
449, 0.97445376266977, -0.2185471682608, 0
450, 0.81849868550195, -0.24746236371825, 0
451, 0.54498563501007, 0.24474765475352, 0
452, 0.54731246670421, 0.27202670489957, 0
453, 0.9205762246557, 0.24699079504621, 0
454, 0.92061231834271, 0.27347434140285, 0
455, 0.027239929071275, -0.24503345389107, 0
456, 0.027067818546179, -0.27226181094846, 0
457, 0.94904701777085, -0.02394321691672, 0
458, 0.68558798247943, -0.24514458888683, 0
459, 0.38873171884342, 0.24402849628143, 0
460, 0.41904151762967, 0.27192550001085, 0
461, 0.39313576221482, 0.27204096243734, 0
462, 0.20611886857969, 0.15368412184093, 0
463, 0.18158253464343, 0.12396221266663, 0
464, 0.15638848325129, 0.15449260325825, 0
465, 0.18167177225361, 0.1837562316245, 0
466, 0.1813654515895, 0.1539095300353, 0
467, 0.027573252432746, 0.24559921160064, 0
468, 0.027359892807203, 0.2725456649311, 0
469, 0.44053255813709, 0.2439244694372, 0
470, 0.44481326343306, 0.27185230877417, 0
471, 0.75933139122751, 0.24769437472888, 0
472, 0.75886305404461, 0.27380621148235, 0
473, 0.053427390716748, 0.16067132157874, 0
474, 0.027160260329634, 0.19143034908587, 0
475, 0.026836670213148, 0.16389967326382, 0
476, 0.16749824243353, -0.020373289834083, 0
477, 0.19031993691954, 0.0047222215712283, 0
478, 0.2214069552937, -0.028222495403306, 0
479, 0.20696940187489, -0.0798343917056, 0
480, 0.19484246168298, -0.024345716809789, 0
481, 0.94963099468469, -0.16330019544395, 0
482, 0.89971887671648, -0.13546249731437, 0
483, 0.94920910369372, -0.19084122975886, 0
484, 0.75235568930982, -0.16383563465398, 0
485, 0.67756270435707, -0.036267282412725, 0
486, 0.25760303495173, 0.21404598445218, 0
487, 0.30819638740867, 0.215047462582, 0
488, 0.28106736840032, 0.18512807121348, 0
489, 0.28281136758593, 0.21451589443287, 0
490, 0.054239806472384, 0.21651147240708, 0
491, 0.027478566973996, 0.21862388980437, 0
492, 0.20744241543641, 0.21346875541011, 0
493, 0.15714848442414, 0.21356897302272, 0
494, 0.18234161130449, 0.21341853109603, 0
495, 0.11151355271914, -0.012984679944779, 0
496, 0.13690389839965, 0.011099978627687, 0
497, 0.13964187178896, -0.016558802373967, 0
498, 0.054274985006536, -0.21696500653553, 0
499, 0.027175207919378, -0.21783248444267, 0
500, 0.23681690536267, -0.086144583242037, 0
501, 0.21742553708714, -0.27424223601638, 0
502, 0.34245602993936, -0.20890286799083, 0
503, 0.23566777115154, -0.18386559148825, 0
504, 0.25636621559283, -0.060754409627988, 0
505, 0.19051439051885, -0.24781197492057, 0
506, 0.33082449223205, -0.14463811519581, 0
507, 0.28164991279533, -0.17402245941956, 0
508, 0.082080561375227, 0.01755058814288, 0
509, 0.084686559813262, -0.036217385847598, 0
510, 0.083318755498125, -0.0096302299239145, 0
511, 0.34992095908289, -0.23970010443084, 0
512, 0.31691840898118, -0.20743892304131, 0
513, 0.1483816007984, -0.094177648165988, 0
514, 0.67156251268832, -0.12602380145122, 0
515, 0.89908298107541, -0.16355394819463, 0
516, 0.3562967019003, 0.077132509200594, 0
517, 0.39757725733266, -0.086537696237286, 0
518, 0.40074952744594, -0.022662368951244, 0
519, 0.4082863401537, 0.044221835176031, 0
520, 0.086076270353785, -0.13752049029214, 0
521, 0.086746318793165, -0.087526336465687, 0
522, 0.11751076569298, -0.11481446448731, 0
523, 0.086849086006627, -0.11253668418264, 0
524, 0.89990897521069, -0.10714222021878, 0
525, 0.875352535877, -0.10684462090988, 0
526, 0.64726236656087, -0.089027681689216, 0
527, 0.89599310731701, 0.11460355756599, 0
528, 0.87044054563675, 0.088535008033577, 0
529, 0.8432855013608, 0.11605010800764, 0
530, 0.86901085529999, 0.14198876600153, 0
531, 0.86969023453345, 0.11534954536109, 0
532, 0.89974219201728, -0.078746744925938, 0
533, 0.66544285387824, -0.21485011831196, 0
534, 0.97473678625762, -0.19114009548, 0
535, 0.84650316271255, 0.035162862441112, 0
536, 0.69287619629922, 0.015547649857701, 0
537, 0.74262323968784, 0.039619904891202, 0
538, 0.97438512096291, -0.024887273886911, 0
539, 0.5809944213402, -0.27867335562255, 0
540, 0.61220945520073, -0.24655877776364, 0
541, 0.61074435161651, -0.2734364124097, 0
542, 0.84064583677211, 0.22162784256528, 0
543, 0.81428707344637, 0.19561197189152, 0
544, 0.78680559282661, 0.22180892916526, 0
545, 0.8137697626729, 0.22182576375629, 0
546, 0.92255489627238, 0.086819056713079, 0
547, 0.9218480636031, 0.14065427958486, 0
548, 0.92220303766686, 0.11381408463391, 0
549, 0.13139659533084, 0.18467836501579, 0
550, 0.10627547777635, 0.21443402620011, 0
551, 0.13181353849828, 0.21390355626147, 0
552, 0.25530502451313, 0.15445929467427, 0
553, 0.30493323639484, 0.15678996911703, 0
554, 0.27960898043337, 0.12552961484714, 0
555, 0.27999012333876, 0.1554590198008, 0
556, 0.94859513641528, -0.27252625966259, 0
557, 0.89710481930932, 0.060589494768707, 0
558, 0.92290430744816, 0.059648910250859, 0
559, 0.477385816439, -0.27212409741947, 0
560, 0.42820032964833, -0.26340657914211, 0
561, 0.45143021434263, -0.26826393895318, 0
562, 0.38270573197112, -0.18010551322866, 0
563, 0.35483271310609, -0.14164028118316, 0
564, 0.38126273295366, -0.11483119111312, 0
565, 0.37832909654994, -0.14677849949857, 0
566, 0.30446994354574, 0.097784698959437, 0
567, 0.28136898661346, 0.064718649201164, 0
568, 0.25581843467013, 0.093717403507186, 0
569, 0.28001159681651, 0.095309338203282, 0
570, 0.33166451455042, 0.18698919733217, 0
571, 0.35963763224802, 0.21599870012733, 0
572, 0.33380549408662, 0.21558698116863, 0
573, 0.11577591144775, -0.065381303398713, 0
574, 0.085920831765884, -0.062156426097858, 0
575, 0.10794943536689, 0.042204418615896, 0
576, 0.081013159013468, 0.045221495251648, 0
577, 0.66126862236638, -0.06201389264155, 0
578, 0.60750287174408, -0.10163593793122, 0
579, 0.13292521854861, 0.0680388129032, 0
580, 0.16095253360434, 0.036669741514236, 0
581, 0.13464043768672, 0.039352817774668, 0
582, 0.678165626091, 0.22089842064012, 0
583, 0.65092431634739, 0.19465056136762, 0
584, 0.62389492782757, 0.2201111064078, 0
585, 0.65099338458964, 0.2205863891821, 0
586, 0.76863044942101, -0.22044784436582, 0
587, 0.84533131748329, 0.062402884445699, 0
588, 0.87125543409857, 0.061495999426766, 0
589, 0.5699857563576, 0.21870185537416, 0
590, 0.54198420681105, 0.19134891189246, 0
591, 0.5165228565483, 0.21729905737711, 0
592, 0.54319322347902, 0.21789845931178, 0
593, 0.2717020847913, -0.26953431882419, 0
594, 0.21967424809107, -0.22553361877762, 0
595, 0.24756362151351, -0.14085512214848, 0
596, 0.89817138486172, -0.19133658021936, 0
597, 0.71676350707901, -0.2195444388345, 0
598, 0.5686967439276, 0.16624425278509, 0
599, 0.54142994631712, 0.13889179572772, 0
600, 0.5141977074044, 0.16407252822246, 0
601, 0.54138605802731, 0.1650264267097, 0
602, 0.43089601674252, -0.0035174348429433, 0
603, 0.23134296269351, 0.18392554081424, 0
604, 0.23250554385915, 0.21369199880462, 0
605, 0.727859202934, -0.040996426136703, 0
606, 0.73469688379232, -0.10118074068765, 0
607, 0.81793402411836, 0.090129556100587, 0
608, 0.71950220160953, 0.014218303531657, 0
609, 0.79309666589115, 0.064254772038526, 0
610, 0.81929473531766, 0.063324254907238, 0
611, 0.9235579988859, 0.0046999991305292, 0
612, 0.7635839475917, -0.27383934177966, 0
613, 0.92302121773858, -0.27271024291212, 0
614, 0.70300795418855, -0.038641606898747, 0
615, 0.73886599702734, -0.24705635468813, 0
616, 0.89932674599242, -0.050417535915109, 0
617, 0.89881993141443, -0.022271472994318, 0
618, 0.68375150625752, -0.27261288537657, 0
619, 0.80274994841275, -0.13493674832416, 0
620, 0.10826262098831, -0.21738579784416, 0
621, 0.20449597051614, -0.17266640241645, 0
622, 0.32325041205363, -0.2388472232479, 0
623, 0.32149978163505, -0.087058394143589, 0
624, 0.18860568898426, -0.27336660046109, 0
625, 0.36803194015263, -0.2102083442564, 0
626, 0.40801657255607, -0.23808911339318, 0
627, 0.39469661020631, -0.21153016078502, 0
628, 0.40276441605398, -0.2681234018217, 0
629, 0.48820314772135, 0.18983696156917, 0
630, 0.46360149894553, 0.21644674730885, 0
631, 0.48997614303229, 0.21680853120213, 0
632, 0.73259563595341, 0.22141503595012, 0
633, 0.70570867501895, 0.19530922905784, 0
634, 0.70538555409976, 0.22113942880834, 0
635, 0.52952071674337, -0.26995757859854, 0
636, 0.50429352463146, -0.27288715829777, 0
637, 0.32958661454427, 0.12966072322642, 0
638, 0.35610381308926, 0.15971950318547, 0
639, 0.33028072952165, 0.15832548008164, 0
640, 0.56109566809653, -0.24823055847402, 0
641, 0.55312473030289, -0.27377225608876, 0
642, 0.84756042037249, -0.19224530334233, 0
643, 0.97491727725686, -0.13557150285116, 0
644, 0.94879595396929, 0.031236934564749, 0
645, 0.7121573015153, -0.24641657332698, 0
646, 0.92365038274961, -0.19095759238289, 0
647, 0.8949921257183, 0.16794132285764, 0
648, 0.92111208272388, 0.19396569768401, 0
649, 0.921489405554, 0.16736125041084, 0
650, 0.5739284667641, 0.063780478773022, 0
651, 0.5501234341018, 0.035585364296136, 0
652, 0.51808773796296, 0.060899405980255, 0
653, 0.54372193367597, 0.087103358024173, 0
654, 0.54627035068883, 0.061375594566134, 0
655, 0.48672430973414, 0.1365428174102, 0
656, 0.46034291275004, 0.16197387942415, 0
657, 0.48713969835738, 0.16307849702481, 0
658, 0.8941563320627, 0.22089923320882, 0
659, 0.92078153359199, 0.22049945644922, 0
660, 0.67881263253711, 0.16934521789645, 0
661, 0.65203160772824, 0.1433660635407, 0
662, 0.62367479009321, 0.16826059303042, 0
663, 0.65124782162205, 0.16892326947534, 0
664, 0.38336033596459, 0.18787039734287, 0
665, 0.41143679432645, 0.21593135964227, 0
666, 0.38553921393499, 0.21596304862004, 0
667, 0.59627086288737, 0.19328908954988, 0
668, 0.59688914061411, 0.21948149002578, 0
669, 0.46308590570303, 0.0078620924333275, 0
670, 0.50300299565523, -0.0091877364045706, 0
671, 0.51180323300003, -0.03113316173173, 0
672, 0.51455140185228, 0.11179829480568, 0
673, 0.56980141800289, 0.11466493512685, 0
674, 0.54217262575881, 0.1129241929887, 0
675, 0.6404769814474, -0.20798578370064, 0
676, 0.60785454366421, -0.21518593093357, 0
677, 0.61628458136842, -0.1926489969422, 0
678, 0.23077139351578, 0.12355667665192, 0
679, 0.23072736236268, 0.15386367120928, 0
680, 0.59225836539363, -0.073094756525013, 0
681, 0.85060475857716, -0.13539980240296, 0
682, 0.77621234137317, -0.16414144781982, 0
683, 0.75547466230134, -0.072523909952375, 0
684, 0.8175481264803, -0.27407058755753, 0
685, 0.58220766218292, 0.013195515189861, 0
686, 0.52691415994445, 0.011907259960726, 0
687, 0.55567884803565, 0.0093608408157276, 0
688, 0.68110404469937, 0.11826222358685, 0
689, 0.65527686041251, 0.092609470229485, 0
690, 0.62548487866083, 0.11724136952264, 0
691, 0.6533481438049, 0.1179417615924, 0
692, 0.7602526281638, 0.19567544184509, 0
693, 0.75974342257041, 0.22165639591214, 0
694, 0.43528281596868, 0.18847589356728, 0
695, 0.43742970750223, 0.21615331444418, 0
696, 0.8708611382203, -0.24667454417658, 0
697, 0.74566245305269, 0.01274707511412, 0
698, 0.84999248419772, -0.048795085390432, 0
699, 0.73371322651721, 0.16971125262892, 0
700, 0.70728951437603, 0.1439249854438, 0
701, 0.70631945282934, 0.16958521625203, 0
702, 0.45995015003298, 0.081597504273547, 0
703, 0.46159603069998, 0.030798486000365, 0
704, 0.38155060948251, 0.13168057227696, 0
705, 0.40791031954633, 0.15989227956869, 0
706, 0.38205991779781, 0.15977432239423, 0
707, 0.2072123182706, 0.093153098719116, 0
708, 0.23344710745622, 0.06227641211406, 0
709, 0.23161760407489, 0.093024618025654, 0
710, 0.59656402003979, 0.14164627073745, 0
711, 0.59614211691377, 0.16735590955187, 0
712, 0.78802825088361, 0.16961542838344, 0
713, 0.76190943700749, 0.14375963452929, 0
714, 0.7609538826033, 0.16972349802876, 0
715, 0.73604313426285, 0.11808378195931, 0
716, 0.7105618648223, 0.092589483374618, 0
717, 0.70868399981035, 0.11828029025886, 0
718, 0.38064934580093, -0.014919393596069, 0
719, 0.31743315689163, -0.026058471658878, 0
720, 0.4332309465059, 0.13321286063033, 0
721, 0.43392857980142, 0.16084308724107, 0
722, 0.86787130674183, 0.19492708629187, 0
723, 0.86744292441452, 0.22130109470831, 0
724, 0.92323423814855, 0.032282031718179, 0
725, 0.79730218591687, -0.19276058202249, 0
726, 0.79208784325336, -0.247503331145, 0
727, 0.59934453683866, 0.090800835436813, 0
728, 0.5976037377148, 0.11613471843055, 0
729, 0.21529077697912, -0.20120951078086, 0
730, 0.11295394284278, -0.16375994667158, 0
731, 0.18184997630777, -0.12304620676977, 0
732, 0.97438085715042, 0.029985778688005, 0
733, 0.77224127236028, -0.19277443333225, 0
734, 0.94837540723932, -0.24531910086699, 0
735, 0.79913174711691, -0.017983176154597, 0
736, 0.63799102748061, 0.016635581566541, 0
737, 0.97476974303809, -0.10773158716967, 0
738, 0.63757770545748, -0.14747764558647, 0
739, 0.17654261656687, -0.074111994142208, 0
740, 0.27150340880071, -0.031413523293596, 0
741, 0.28830515721296, 0.0019747427368226, 0
742, 0.29506103099271, -0.030116175829778, 0
743, 0.87281038538066, -0.19180993211567, 0
744, 0.66570095847361, 0.01647699022831, 0
745, 0.080059232377828, 0.18681698325513, 0
746, 0.080455494388009, 0.21524773499007, 0
747, 0.0817075297397, -0.18960333689265, 0
748, 0.081280426721185, -0.21694951581599, 0
749, 0.30743912931949, 0.037502957223768, 0
750, 0.42007405171744, -0.060485457185583, 0
751, 0.26042678186344, 0.031691500788395, 0
752, 0.28397458160164, 0.033640256989098, 0
753, 0.35557374474077, 0.10423925314351, 0
754, 0.329554953594, 0.10103047337771, 0
755, 0.76893809842768, 0.038458412534297, 0
756, 0.87163374851994, -0.21941854432268, 0
757, 0.60538100960223, 0.04056730960351, 0
758, 0.60997551604706, 0.015612066385994, 0
759, 0.16216523494601, -0.24631896326698, 0
760, 0.22029029350216, -0.24961233706337, 0
761, 0.084025161785088, -0.16302054166276, 0
762, 0.84172703509437, 0.16899120126624, 0
763, 0.86840477339232, 0.1684999950219, 0
764, 0.58938831898943, -0.23231070055713, 0
765, 0.30179239139612, -0.11743882034488, 0
766, 0.14251585182148, -0.1650923151106, 0
767, 0.89768068967587, 0.033239656600602, 0
768, 0.82024698975606, -0.22031524499472, 0
769, 0.7647512600205, 0.091563291183455, 0
770, 0.79005960501943, 0.11725743209188, 0
771, 0.76316509671696, 0.11772933260877, 0
772, 0.92387775276266, -0.023099819458616, 0
773, 0.87384359999318, -0.021394832070274, 0
774, 0.89825909083728, 0.0056218579232089, 0
775, 0.72219219721959, -0.19198453658098, 0
776, 0.13122679871216, 0.12616122457784, 0
777, 0.10557787414647, 0.15666839339904, 0
778, 0.13113833744158, 0.15540682180295, 0
779, 0.33385514308429, 0.01454933617094, 0
780, 0.4877327625947, 0.084493047934783, 0
781, 0.4917554246208, 0.035283532224821, 0
782, 0.4892574330392, 0.05937269389281, 0
783, 0.079679398537467, 0.15836510228841, 0
784, 0.81575985645161, 0.14308854439158, 0
785, 0.81494389020619, 0.1693773389902, 0
786, 0.30862692675685, -0.1760255025165, 0
787, 0.18108204936269, -0.1455825157938, 0
788, 0.20088117008072, -0.05266843853973, 0
789, 0.4956461634595, 0.01256306036413, 0
790, 0.40733103020175, 0.10325183537, 0
791, 0.38177080626356, 0.1035550011921, 0
792, 0.81675389098606, 0.11669371515648, 0
793, 0.73998921674869, 0.066039220607515, 0
794, 0.68560768912897, 0.06724717203367, 0
795, 0.71297368386175, 0.066768877026729, 0
796, 0.1573278562158, 0.095303142105942, 0
797, 0.1317893429449, 0.097011897397788, 0
798, 0.74270895938198, -0.2201960557817, 0
799, 0.69095906472477, -0.096164293402891, 0
800, 0.18416103440283, 0.064045064441639, 0
801, 0.18246860409953, 0.093983269904918, 0
802, 0.62995146188061, 0.066810508807551, 0
803, 0.65790732247523, 0.067316209663698, 0
804, 0.4596249326873, 0.10812138155483, 0
805, 0.3381570764441, -0.016195854563323, 0
806, 0.43304603136044, 0.10554505303821, 0
807, 0.21194429004679, 0.032281371912074, 0
808, 0.1867580682522, 0.034245381417368, 0
809, 0.40780115889683, 0.07424788549604, 0
810, 0.92469136610056, -0.10739651356651, 0
811, 0.87299167189672, 0.006560412063422, 0
812, 0.92464888592862, -0.13547803332759, 0
813, 0.76668054413817, 0.065174987414514, 0
814, 0.27283332827898, -0.11712471632946, 0
815, 0.60189282006547, 0.065621731155062, 0
816, 0.48692037812035, 0.1102989447915, 0
817, 0.82550263288073, -0.047751653487117, 0
818, 0.24090270961888, 0.00029855716130997, 0
819, 0.24693157540186, -0.030653422663856, 0
820, 0.23646912037609, 0.03133915576279, 0
821, 0.46962773179223, -0.01251694996549, 0
822, 0.40659119700047, -0.044456209231609, 0
823, 0.33427428566281, -0.1766879140442, 0
824, 0.30903279022107, -0.059713121626169, 0
825, 0.80337680585588, -0.10519439598161, 0
826, 0.24329908091775, -0.11370767207805, 0
827, 0.26746056226176, -0.20400247559251, 0
828, 0.32258843987688, -0.26960086603269, 0
829, 0.84595685705639, -0.21993064878676, 0
830, 0.82649888373887, -0.1352451131077, 0
831, 0.73431653139471, -0.13268596982366, 0
832, 0.82080802164164, 0.036200698315494, 0
833, 0.79056575945857, -0.27399873734175, 0
834, 0.78006692056205, -0.10420543940597, 0
835, 0.67225558124698, -0.18772049910207, 0
836, 0.97441202876414, -0.052386173597482, 0
837, 0.37159126147223, -0.053619976564164, 0
838, 0.35645384833296, -0.037097291938312, 0
839, 0.1334696983725, -0.2726025692253, 0
840, 0.69182311871907, -0.12911052359927, 0
841, 0.38449243514297, 0.016793162305923, 0
842, 0.1607266289687, -0.27287800750778, 0
843, 0.94919995592816, -0.051747546534562, 0
844, 0.68256486336277, -0.15993862947824, 0
845, 0.87502372993432, -0.13545622225388, 0
846, 0.9741429643223, -0.24566620060715, 0
847, 0.56356692120973, -0.018122193795747, 0
848, 0.38015665606711, -0.074604091742989, 0
849, 0.85079094703964, -0.077518753658787, 0
850, 0.75657579596217, -0.13372142743223, 0
851, 0.61511141304816, -0.13445035322481, 0
852, 0.62390906467202, -0.086701137604822, 0
853, 0.61096769717085, -0.060815428880655, 0
854, 0.63050349444102, -0.11463039907543, 0
855, 0.43328965198323, 0.050048410171499, 0
856, 0.35899292084359, 0.024460406966238, 0
857, 0.3575639465461, 0.05059152813369, 0
858, 0.43690009060065, -0.024033027003735, 0
******* E L E M E N T S *************
*ELEMENT, type=CPS4, ELSET=Surface1
1, 330, 588, 587, 535
2, 273, 333, 696, 386
3, 846, 449, 335, 734
4, 270, 336, 337, 334
5, 334, 337, 51, 62
6, 644, 336, 558, 724
7, 291, 830, 619, 385
8, 168, 340, 341, 338
9, 338, 341, 339, 201
10, 341, 104, 115, 339
11, 340, 114, 104, 341
12, 212, 344, 345, 342
13, 342, 345, 108, 119
14, 345, 343, 118, 108
15, 344, 215, 343, 345
16, 120, 347, 348, 109
17, 109, 348, 342, 119
18, 348, 346, 212, 342
19, 347, 207, 346, 348
20, 117, 351, 352, 106
21, 106, 352, 349, 116
22, 352, 350, 204, 349
23, 351, 214, 350, 352
24, 77, 355, 356, 69
25, 69, 356, 353, 76
26, 356, 354, 240, 353
27, 355, 241, 354, 356
28, 362, 478, 480, 788
29, 828, 23, 16, 220
30, 209, 211, 730, 766
31, 503, 621, 208, 729
32, 308, 377, 379, 593
33, 511, 220, 415, 150
34, 206, 620, 205, 218
35, 205, 416, 759, 378
36, 646, 157, 515, 596
37, 37, 156, 556, 44
38, 537, 793, 795, 289
39, 831, 314, 383, 315
40, 80, 368, 369, 72
41, 72, 369, 366, 79
42, 369, 367, 245, 366
43, 368, 247, 367, 369
44, 173, 372, 373, 370
45, 370, 373, 371, 174
46, 373, 91, 99, 371
47, 372, 98, 91, 373
48, 63, 375, 376, 52
49, 52, 376, 334, 62
50, 376, 374, 270, 334
51, 375, 235, 374, 376
52, 731, 402, 513, 358
53, 593, 22, 15, 357
54, 759, 842, 624, 505
55, 217, 827, 309, 507
56, 78, 71, 382, 380
57, 380, 382, 381, 243
58, 382, 366, 245, 381
59, 71, 79, 366, 382
60, 825, 267, 406, 834
61, 159, 646, 596, 287
62, 536, 317, 285, 744
63, 43, 273, 386, 35
64, 178, 389, 390, 387
65, 387, 390, 388, 177
66, 390, 88, 96, 388
67, 389, 95, 88, 390
68, 117, 107, 392, 351
69, 351, 392, 391, 214
70, 392, 343, 215, 391
71, 107, 118, 343, 392
72, 285, 803, 802, 260
73, 384, 295, 810, 812
74, 364, 645, 458, 618
75, 618, 458, 268, 263
76, 173, 397, 398, 372
77, 372, 398, 90, 98
78, 398, 396, 97, 90
79, 397, 176, 396, 398
80, 96, 89, 400, 388
81, 388, 400, 399, 177
82, 400, 396, 176, 399
83, 89, 97, 396, 400
84, 361, 476, 497, 148
85, 786, 823, 506, 146
86, 217, 507, 219, 595
87, 310, 360, 402, 731
88, 853, 852, 526, 153
89, 61, 51, 337, 732
90, 267, 296, 411, 406
91, 296, 735, 278, 411
92, 63, 53, 410, 375
93, 375, 410, 408, 235
94, 410, 409, 237, 408
95, 53, 64, 409, 410
96, 312, 697, 608, 271
97, 696, 756, 829, 363
98, 311, 609, 813, 755
99, 332, 318, 267, 825
100, 620, 147, 416, 205
101, 823, 502, 625, 222
102, 787, 731, 358, 209
103, 180, 418, 419, 417
104, 417, 419, 389, 178
105, 419, 87, 95, 389
106, 418, 94, 87, 419
107, 248, 422, 423, 420
108, 420, 423, 421, 181
109, 423, 82, 85, 421
110, 422, 84, 82, 423
111, 74, 425, 426, 66
112, 66, 426, 55, 5
113, 426, 424, 65, 55
114, 425, 238, 424, 426
115, 204, 427, 428, 349
116, 349, 428, 105, 116
117, 428, 339, 115, 105
118, 427, 201, 339, 428
119, 167, 431, 432, 429
120, 429, 432, 430, 202
121, 432, 338, 201, 430
122, 431, 168, 338, 432
123, 642, 394, 291, 160
124, 44, 556, 613, 36
125, 734, 335, 159, 434
126, 836, 538, 457, 843
127, 99, 92, 437, 371
128, 371, 437, 435, 174
129, 437, 436, 172, 435
130, 92, 100, 436, 437
131, 239, 439, 440, 438
132, 438, 440, 353, 240
133, 440, 68, 76, 353
134, 439, 75, 68, 440
135, 64, 54, 442, 409
136, 409, 442, 441, 237
137, 442, 424, 238, 441
138, 54, 65, 424, 442
139, 80, 73, 445, 368
140, 368, 445, 443, 247
141, 445, 444, 144, 443
142, 73, 6, 444, 445
143, 145, 447, 448, 446
144, 446, 448, 401, 147
145, 448, 11, 19, 401
146, 447, 18, 11, 448
147, 4, 45, 156, 37
148, 433, 152, 698, 849
149, 843, 457, 772, 327
150, 608, 289, 317, 536
151, 248, 451, 452, 422
152, 422, 452, 81, 84
153, 452, 444, 6, 81
154, 451, 144, 444, 452
155, 238, 425, 454, 453
156, 453, 454, 439, 239
157, 454, 67, 75, 439
158, 425, 74, 67, 454
159, 121, 111, 456, 455
160, 455, 456, 447, 145
161, 456, 10, 18, 447
162, 111, 1, 10, 456
163, 331, 683, 406, 411
164, 538, 298, 274, 457
165, 726, 393, 586, 297
166, 313, 850, 412, 834
167, 143, 460, 461, 459
168, 459, 461, 418, 180
169, 461, 86, 94, 418
170, 460, 7, 86, 461
171, 175, 465, 466, 462
172, 462, 466, 463, 165
173, 466, 464, 166, 463
174, 465, 170, 464, 466
175, 100, 93, 468, 436
176, 436, 468, 467, 172
177, 468, 101, 112, 467
178, 93, 8, 101, 468
179, 181, 421, 470, 469
180, 469, 470, 460, 143
181, 470, 83, 7, 460
182, 421, 85, 83, 470
183, 77, 70, 472, 355
184, 355, 472, 471, 241
185, 472, 380, 243, 471
186, 70, 78, 380, 472
187, 171, 474, 475, 473
188, 473, 475, 340, 168
189, 475, 103, 114, 340
190, 474, 113, 103, 475
191, 502, 511, 150, 625
192, 476, 480, 477, 200
193, 480, 478, 199, 477
194, 359, 414, 221, 504
195, 328, 643, 384, 481
196, 773, 811, 292, 161
197, 292, 535, 832, 329
198, 681, 395, 332, 830
199, 276, 577, 279, 485
200, 58, 48, 737, 643
201, 295, 405, 158, 810
202, 772, 611, 774, 617
203, 163, 488, 489, 486
204, 486, 489, 387, 177
205, 489, 487, 178, 387
206, 488, 186, 487, 489
207, 172, 467, 491, 490
208, 490, 491, 474, 171
209, 491, 102, 113, 474
210, 467, 112, 102, 491
211, 176, 397, 494, 492
212, 492, 494, 465, 175
213, 494, 493, 170, 465
214, 397, 173, 493, 494
215, 148, 497, 495, 213
216, 495, 497, 496, 203
217, 497, 476, 200, 496
218, 221, 824, 742, 740
219, 120, 110, 499, 347
220, 347, 499, 498, 207
221, 499, 455, 145, 498
222, 110, 121, 455, 499
223, 378, 759, 505, 151
224, 219, 146, 765, 814
225, 595, 826, 360, 310
226, 403, 310, 731, 787
227, 357, 15, 23, 828
228, 500, 362, 788, 479
229, 146, 506, 149, 765
230, 839, 12, 20, 842
231, 214, 509, 510, 350
232, 350, 510, 508, 204
233, 510, 495, 203, 508
234, 509, 213, 495, 510
235, 220, 16, 24, 415
236, 362, 504, 819, 478
237, 209, 358, 522, 211
238, 379, 501, 21, 14
239, 840, 514, 303, 844
240, 329, 832, 311, 319
241, 40, 365, 364, 32
242, 822, 750, 228, 858
243, 718, 841, 856, 326
244, 306, 190, 749, 191
245, 211, 522, 523, 520
246, 520, 523, 344, 212
247, 523, 521, 215, 344
248, 522, 216, 521, 523
249, 272, 485, 614, 413
250, 314, 840, 844, 383
251, 605, 280, 683, 331
252, 56, 46, 449, 846
253, 234, 530, 531, 527
254, 527, 531, 528, 269
255, 531, 529, 264, 528
256, 530, 233, 529, 531
257, 724, 558, 557, 767
258, 698, 161, 320, 817
259, 830, 332, 825, 619
260, 811, 330, 535, 292
261, 263, 268, 155, 404
262, 318, 817, 296, 267
263, 525, 433, 849, 395
264, 767, 557, 588, 330
265, 155, 540, 541, 404
266, 404, 541, 30, 38
267, 541, 539, 3, 30
268, 540, 288, 539, 541
269, 241, 544, 545, 354
270, 354, 545, 542, 240
271, 545, 543, 230, 542
272, 544, 229, 543, 545
273, 235, 547, 548, 374
274, 374, 548, 546, 270
275, 548, 527, 269, 546
276, 547, 234, 527, 548
277, 170, 493, 551, 549
278, 549, 551, 550, 169
279, 551, 370, 174, 550
280, 493, 173, 370, 551
281, 164, 554, 555, 552
282, 552, 555, 488, 163
283, 555, 553, 186, 488
284, 554, 188, 553, 555
285, 269, 557, 558, 546
286, 546, 558, 336, 270
287, 844, 303, 290, 835
288, 36, 613, 273, 43
289, 139, 560, 561, 129
290, 129, 561, 559, 140
291, 561, 25, 28, 559
292, 560, 2, 25, 561
293, 137, 564, 565, 127
294, 127, 565, 562, 138
295, 565, 563, 222, 562
296, 564, 224, 563, 565
297, 188, 554, 569, 566
298, 566, 569, 567, 190
299, 569, 568, 198, 567
300, 554, 164, 568, 569
301, 179, 571, 572, 570
302, 570, 572, 487, 186
303, 572, 417, 178, 487
304, 571, 180, 417, 572
305, 216, 573, 574, 521
306, 521, 574, 391, 215
307, 574, 509, 214, 391
308, 573, 213, 509, 574
309, 203, 575, 576, 508
310, 508, 576, 427, 204
311, 576, 430, 201, 427
312, 575, 202, 430, 576
313, 280, 606, 313, 683
314, 324, 847, 286, 282
315, 303, 738, 316, 290
316, 852, 854, 407, 526
317, 200, 580, 581, 496
318, 496, 581, 575, 203
319, 581, 579, 202, 575
320, 580, 196, 579, 581
321, 245, 367, 585, 582
322, 582, 585, 583, 244
323, 585, 584, 246, 583
324, 367, 247, 584, 585
325, 264, 587, 588, 528
326, 528, 588, 557, 269
327, 483, 481, 157, 646
328, 59, 49, 836, 294
329, 144, 451, 592, 589
330, 589, 592, 590, 249
331, 592, 591, 250, 590
332, 451, 248, 591, 592
333, 149, 224, 305, 623
334, 787, 209, 766, 223
335, 824, 225, 719, 742
336, 505, 624, 501, 760
337, 312, 331, 411, 278
338, 158, 327, 616, 532
339, 645, 597, 321, 458
340, 157, 812, 482, 515
341, 249, 590, 601, 598
342, 598, 601, 599, 251
343, 601, 600, 252, 599
344, 590, 250, 600, 601
345, 837, 305, 224, 848
346, 703, 781, 782, 227
347, 669, 821, 670, 789
348, 177, 399, 604, 486
349, 486, 604, 603, 163
350, 604, 492, 175, 603
351, 399, 176, 492, 604
352, 281, 302, 758, 685
353, 154, 277, 606, 280
354, 413, 614, 605, 271
355, 514, 407, 738, 303
356, 265, 609, 610, 607
357, 607, 610, 587, 264
358, 407, 854, 851, 738
359, 458, 321, 533, 268
360, 413, 536, 744, 272
361, 596, 515, 262, 743
362, 289, 795, 794, 317
363, 534, 328, 481, 483
364, 293, 363, 450, 684
365, 434, 159, 287, 333
366, 60, 50, 298, 538
367, 817, 320, 735, 296
368, 737, 294, 405, 295
369, 394, 681, 830, 291
370, 405, 843, 327, 158
371, 50, 61, 732, 298
372, 827, 210, 377, 308
373, 479, 788, 361, 739
374, 765, 149, 623, 414
375, 151, 505, 760, 594
376, 823, 222, 563, 506
377, 147, 401, 839, 416
378, 622, 828, 220, 511
379, 416, 839, 842, 759
380, 150, 626, 627, 625
381, 625, 627, 562, 222
382, 627, 128, 138, 562
383, 626, 139, 128, 627
384, 2, 560, 628, 17
385, 17, 628, 415, 24
386, 628, 626, 150, 415
387, 560, 139, 626, 628
388, 250, 591, 631, 629
389, 629, 631, 630, 183
390, 631, 420, 181, 630
391, 591, 248, 420, 631
392, 243, 381, 634, 632
393, 632, 634, 633, 242
394, 634, 582, 244, 633
395, 381, 245, 582, 634
396, 29, 635, 636, 26
397, 26, 636, 559, 28
398, 636, 130, 140, 559
399, 635, 141, 130, 636
400, 187, 638, 639, 637
401, 637, 639, 553, 188
402, 639, 570, 186, 553
403, 638, 179, 570, 639
404, 141, 635, 641, 640
405, 640, 641, 539, 288
406, 641, 27, 3, 539
407, 635, 29, 27, 641
408, 277, 314, 831, 606
409, 612, 297, 615, 365
410, 597, 775, 162, 321
411, 395, 849, 318, 332
412, 235, 408, 649, 547
413, 547, 649, 647, 234
414, 649, 648, 236, 647
415, 408, 237, 648, 649
416, 257, 653, 654, 650
417, 650, 654, 651, 261
418, 654, 652, 259, 651
419, 653, 258, 652, 654
420, 252, 600, 657, 655
421, 655, 657, 656, 185
422, 657, 629, 183, 656
423, 600, 250, 629, 657
424, 237, 441, 659, 648
425, 648, 659, 658, 236
426, 659, 453, 239, 658
427, 441, 238, 453, 659
428, 244, 583, 663, 660
429, 660, 663, 661, 254
430, 663, 662, 253, 661
431, 583, 246, 662, 663
432, 182, 665, 666, 664
433, 664, 666, 571, 179
434, 666, 459, 180, 571
435, 665, 143, 459, 666
436, 247, 443, 668, 584
437, 584, 668, 667, 246
438, 668, 589, 249, 667
439, 443, 144, 589, 668
440, 847, 687, 686, 286
441, 257, 673, 674, 653
442, 653, 674, 672, 258
443, 674, 599, 252, 672
444, 673, 251, 599, 674
445, 290, 316, 677, 675
446, 675, 677, 676, 155
447, 677, 132, 142, 676
448, 316, 9, 132, 677
449, 163, 603, 679, 552
450, 552, 679, 678, 164
451, 679, 462, 165, 678
452, 603, 175, 462, 679
453, 39, 618, 263, 31
454, 586, 733, 283, 798
455, 682, 484, 283, 733
456, 271, 605, 331, 312
457, 46, 57, 534, 449
458, 526, 407, 514, 304
459, 275, 153, 577, 276
460, 261, 651, 687, 685
461, 286, 686, 789, 670
462, 323, 853, 153, 275
463, 651, 259, 686, 687
464, 254, 661, 691, 688
465, 688, 691, 689, 256
466, 691, 690, 255, 689
467, 661, 253, 690, 691
468, 241, 471, 693, 544
469, 544, 693, 692, 229
470, 693, 632, 242, 692
471, 471, 243, 632, 693
472, 183, 630, 695, 694
473, 694, 695, 665, 182
474, 695, 469, 143, 665
475, 630, 181, 469, 695
476, 45, 56, 846, 156
477, 363, 829, 768, 450
478, 481, 384, 812, 157
479, 242, 633, 701, 699
480, 699, 701, 700, 231
481, 701, 660, 254, 700
482, 633, 244, 660, 701
483, 518, 822, 858, 602
484, 325, 791, 753, 516
485, 750, 517, 126, 136
486, 184, 705, 706, 704
487, 704, 706, 638, 187
488, 706, 664, 179, 638
489, 705, 182, 664, 706
490, 197, 708, 709, 707
491, 707, 709, 678, 165
492, 709, 568, 164, 678
493, 708, 198, 568, 709
494, 246, 667, 711, 662
495, 662, 711, 710, 253
496, 711, 598, 251, 710
497, 667, 249, 598, 711
498, 229, 692, 714, 712
499, 712, 714, 713, 232
500, 714, 699, 231, 713
501, 692, 242, 699, 714
502, 231, 700, 717, 715
503, 715, 717, 716, 266
504, 717, 688, 256, 716
505, 700, 254, 688, 717
506, 189, 135, 124, 671
507, 809, 790, 791, 325
508, 718, 326, 805, 838
509, 191, 749, 195, 779
510, 185, 656, 721, 720
511, 720, 721, 705, 184
512, 721, 694, 182, 705
513, 656, 183, 694, 721
514, 236, 658, 723, 722
515, 722, 723, 542, 230
516, 723, 438, 240, 542
517, 658, 239, 438, 723
518, 304, 514, 840, 799
519, 271, 608, 536, 413
520, 294, 836, 843, 405
521, 535, 587, 610, 832
522, 257, 727, 728, 673
523, 673, 728, 710, 251
524, 728, 690, 253, 710
525, 727, 255, 690, 728
526, 500, 359, 504, 362
527, 360, 479, 739, 402
528, 513, 301, 573, 216
529, 504, 221, 740, 819
530, 755, 813, 793, 537
531, 383, 844, 835, 162
532, 774, 767, 330, 811
533, 484, 315, 775, 283
534, 35, 386, 293, 42
535, 385, 619, 412, 682
536, 449, 534, 483, 335
537, 335, 483, 646, 159
538, 195, 741, 742, 719
539, 403, 787, 223, 621
540, 208, 151, 594, 729
541, 741, 194, 740, 742
542, 832, 610, 609, 311
543, 532, 616, 152, 433
544, 272, 744, 736, 284
545, 613, 434, 333, 273
546, 174, 435, 746, 550
547, 550, 746, 745, 169
548, 746, 490, 171, 745
549, 435, 172, 490, 746
550, 207, 498, 748, 747
551, 747, 748, 620, 206
552, 748, 446, 147, 620
553, 498, 145, 446, 748
554, 518, 602, 192, 307
555, 750, 136, 125, 228
556, 702, 780, 816, 804
557, 190, 567, 752, 749
558, 749, 752, 741, 195
559, 752, 751, 194, 741
560, 567, 198, 751, 752
561, 602, 858, 821, 669
562, 566, 754, 637, 188
563, 754, 753, 187, 637
564, 602, 669, 703, 192
565, 268, 533, 675, 155
566, 49, 60, 538, 836
567, 606, 831, 850, 313
568, 697, 537, 289, 608
569, 261, 685, 758, 757
570, 757, 758, 736, 260
571, 758, 302, 284, 736
572, 324, 282, 134, 123
573, 842, 20, 13, 624
574, 308, 593, 357, 300
575, 512, 622, 511, 502
576, 206, 730, 761, 747
577, 747, 761, 346, 207
578, 761, 520, 212, 346
579, 730, 211, 520, 761
580, 230, 762, 763, 722
581, 722, 763, 647, 236
582, 763, 530, 234, 647
583, 762, 233, 530, 763
584, 288, 540, 764, 640
585, 640, 764, 131, 141
586, 764, 676, 142, 131
587, 540, 155, 676, 764
588, 624, 13, 21, 501
589, 507, 309, 512, 786
590, 739, 361, 148, 301
591, 377, 760, 501, 379
592, 152, 773, 161, 698
593, 850, 831, 315, 484
594, 297, 586, 798, 615
595, 833, 726, 297, 612
596, 265, 770, 771, 769
597, 769, 771, 715, 266
598, 771, 713, 231, 715
599, 770, 232, 713, 771
600, 315, 383, 162, 775
601, 317, 794, 803, 285
602, 279, 799, 277, 154
603, 768, 160, 725, 393
604, 170, 549, 778, 464
605, 464, 778, 776, 166
606, 778, 777, 167, 776
607, 549, 169, 777, 778
608, 307, 519, 226, 841
609, 779, 195, 719, 805
610, 782, 652, 258, 780
611, 781, 259, 652, 782
612, 169, 745, 783, 777
613, 777, 783, 431, 167
614, 783, 473, 168, 431
615, 745, 171, 473, 783
616, 233, 762, 785, 784
617, 784, 785, 712, 232
618, 785, 543, 229, 712
619, 762, 230, 543, 785
620, 595, 219, 814, 826
621, 301, 148, 213, 573
622, 621, 223, 299, 208
623, 826, 814, 359, 500
624, 809, 193, 806, 790
625, 821, 189, 671, 670
626, 789, 686, 259, 781
627, 282, 286, 670, 671
628, 187, 753, 791, 704
629, 704, 791, 790, 184
630, 518, 307, 841, 718
631, 232, 770, 792, 784
632, 784, 792, 529, 233
633, 792, 607, 264, 529
634, 770, 265, 607, 792
635, 256, 794, 795, 716
636, 716, 795, 793, 266
637, 616, 617, 773, 152
638, 829, 642, 160, 768
639, 202, 579, 797, 429
640, 429, 797, 776, 167
641, 797, 796, 166, 776
642, 579, 196, 796, 797
643, 48, 59, 294, 737
644, 160, 291, 385, 725
645, 262, 845, 681, 394
646, 47, 58, 643, 328
647, 165, 463, 801, 707
648, 707, 801, 800, 197
649, 801, 796, 196, 800
650, 463, 166, 796, 801
651, 255, 802, 803, 689
652, 689, 803, 794, 256
653, 322, 755, 537, 697
654, 725, 385, 682, 733
655, 184, 790, 806, 720
656, 720, 806, 804, 185
657, 822, 848, 517, 750
658, 227, 782, 780, 702
659, 200, 477, 808, 580
660, 580, 808, 800, 196
661, 808, 807, 197, 800
662, 477, 199, 807, 808
663, 519, 809, 325, 226
664, 192, 703, 227, 855
665, 754, 566, 190, 306
666, 516, 306, 191, 857
667, 450, 768, 393, 726
668, 33, 612, 365, 40
669, 327, 772, 617, 616
670, 756, 743, 642, 829
671, 321, 162, 835, 533
672, 615, 798, 597, 645
673, 34, 684, 833, 41
674, 515, 482, 845, 262
675, 485, 279, 154, 614
676, 793, 813, 769, 266
677, 813, 609, 265, 769
678, 278, 322, 697, 312
679, 503, 729, 594, 210
680, 507, 786, 146, 219
681, 593, 379, 14, 22
682, 299, 378, 151, 208
683, 260, 802, 815, 757
684, 757, 815, 650, 261
685, 815, 727, 257, 650
686, 802, 255, 727, 815
687, 855, 227, 702, 193
688, 804, 816, 655, 185
689, 816, 672, 252, 655
690, 780, 258, 672, 816
691, 32, 364, 618, 39
692, 156, 846, 734, 556
693, 611, 724, 767, 774
694, 320, 329, 319, 735
695, 300, 357, 828, 622
696, 478, 819, 818, 199
697, 819, 740, 194, 818
698, 826, 500, 479, 360
699, 199, 818, 820, 807
700, 807, 820, 708, 197
701, 820, 751, 198, 708
702, 818, 194, 751, 820
703, 193, 702, 804, 806
704, 841, 226, 857, 856
705, 518, 837, 848, 822
706, 217, 403, 621, 503
707, 402, 739, 301, 513
708, 766, 730, 206, 218
709, 786, 512, 502, 823
710, 287, 596, 743, 756
711, 812, 810, 524, 482
712, 365, 615, 645, 364
713, 798, 283, 775, 597
714, 218, 205, 378, 299
715, 223, 766, 218, 299
716, 788, 480, 476, 361
717, 506, 563, 224, 149
718, 814, 765, 414, 359
719, 623, 305, 225, 824
720, 358, 513, 216, 522
721, 31, 263, 404, 38
722, 735, 319, 322, 278
723, 849, 698, 817, 318
724, 578, 851, 854, 852
725, 41, 833, 612, 33
726, 743, 262, 394, 642
727, 732, 337, 336, 644
728, 744, 285, 260, 736
729, 810, 158, 532, 524
730, 614, 154, 280, 605
731, 533, 835, 290, 675
732, 619, 825, 834, 412
733, 217, 503, 210, 827
734, 414, 623, 824, 221
735, 210, 594, 760, 377
736, 57, 47, 328, 534
737, 845, 525, 395, 681
738, 284, 276, 485, 272
739, 524, 532, 433, 525
740, 457, 274, 611, 772
741, 386, 696, 363, 293
742, 799, 840, 314, 277
743, 482, 524, 525, 845
744, 518, 718, 838, 837
745, 856, 779, 805, 326
746, 858, 228, 189, 821
747, 838, 805, 719, 225
748, 837, 838, 225, 305
749, 217, 595, 310, 403
750, 309, 300, 622, 512
751, 302, 275, 276, 284
752, 738, 851, 9, 316
753, 683, 313, 834, 406
754, 857, 191, 779, 856
755, 226, 325, 516, 857
756, 517, 564, 137, 126
757, 401, 19, 12, 839
758, 827, 308, 300, 309
759, 319, 311, 755, 322
760, 680, 578, 852, 853
761, 393, 725, 733, 586
762, 577, 304, 799, 279
763, 412, 850, 484, 682
764, 153, 526, 304, 577
765, 333, 287, 756, 696
766, 643, 737, 295, 384
767, 161, 292, 329, 320
768, 42, 293, 684, 34
769, 684, 450, 726, 833
770, 556, 734, 434, 613
771, 847, 281, 685, 687
772, 324, 123, 133, 680
773, 669, 789, 781, 703
774, 228, 125, 135, 189
775, 753, 754, 306, 516
776, 274, 644, 724, 611
777, 617, 774, 811, 773
778, 298, 732, 644, 274
779, 282, 671, 124, 134
780, 323, 275, 302, 281
781, 122, 9, 851, 578
782, 133, 122, 578, 680
783, 324, 680, 853, 323
784, 324, 323, 281, 847
785, 307, 192, 855, 519
786, 848, 224, 564, 517
787, 519, 855, 193, 809
*ELSET,ELSET=contact_source
99, 100, 101, 102, 103, 104, 105, 106, 107, 108, 
109, 110, 111, 112, 113, 114, 115, 116, 117, 118, 
119, 120, 
*ELSET,ELSET=contact_drain
39, 40, 41, 42, 43, 44, 45, 46, 47, 48, 
49, 50, 51, 52, 53, 54, 55, 56, 57, 58, 
59, 60, 
*ELSET,ELSET=probe_A
77, 78, 79, 80, 81, 82, 
*ELSET,ELSET=probe_B
17, 18, 19, 20, 21, 22, 
*ELSET,ELSET=walls
1, 2, 3, 4, 5, 6, 7, 8, 9, 10, 
11, 12, 13, 14, 15, 16, 23, 24, 25, 26, 
27, 28, 29, 30, 31, 32, 33, 34, 35, 36, 
37, 38, 61, 62, 63, 64, 65, 66, 67, 68, 
69, 70, 71, 72, 73, 74, 75, 76, 83, 84, 
85, 86, 87, 88, 89, 90, 91, 92, 93, 94, 
95, 96, 97, 98, 121, 122, 123, 124, 125, 126, 
127, 128, 129, 130, 131, 132, 133, 134, 135, 136, 
137, 138, 139, 140, 141, 142, 
*ELSET,ELSET=domain
143, 144, 145, 146, 147, 148, 149, 150, 151, 152, 
153, 154, 155, 156, 157, 158, 159, 160, 161, 162, 
163, 164, 165, 166, 167, 168, 169, 170, 171, 172, 
173, 174, 175, 176, 177, 178, 179, 180, 181, 182, 
183, 184, 185, 186, 187, 188, 189, 190, 191, 192, 
193, 194, 195, 196, 197, 198, 199, 200, 201, 202, 
203, 204, 205, 206, 207, 208, 209, 210, 211, 212, 
213, 214, 215, 216, 217, 218, 219, 220, 221, 222, 
223, 224, 225, 226, 227, 228, 229, 230, 231, 232, 
233, 234, 235, 236, 237, 238, 239, 240, 241, 242, 
243, 244, 245, 246, 247, 248, 249, 250, 251, 252, 
253, 254, 255, 256, 257, 258, 259, 260, 261, 262, 
263, 264, 265, 266, 267, 268, 269, 270, 271, 272, 
273, 274, 275, 276, 277, 278, 279, 280, 281, 282, 
283, 284, 285, 286, 287, 288, 289, 290, 291, 292, 
293, 294, 295, 296, 297, 298, 299, 300, 301, 302, 
303, 304, 305, 306, 307, 308, 309, 310, 311, 312, 
313, 314, 315, 316, 317, 318, 319, 320, 321, 322, 
323, 324, 325, 326, 327, 328, 329, 330, 331, 332, 
333, 334, 335, 336, 337, 338, 339, 340, 341, 342, 
343, 344, 345, 346, 347, 348, 349, 350, 351, 352, 
353, 354, 355, 356, 357, 358, 359, 360, 361, 362, 
363, 364, 365, 366, 367, 368, 369, 370, 371, 372, 
373, 374, 375, 376, 377, 378, 379, 380, 381, 382, 
383, 384, 385, 386, 387, 388, 389, 390, 391, 392, 
393, 394, 395, 396, 397, 398, 399, 400, 401, 402, 
403, 404, 405, 406, 407, 408, 409, 410, 411, 412, 
413, 414, 415, 416, 417, 418, 419, 420, 421, 422, 
423, 424, 425, 426, 427, 428, 429, 430, 431, 432, 
433, 434, 435, 436, 437, 438, 439, 440, 441, 442, 
443, 444, 445, 446, 447, 448, 449, 450, 451, 452, 
453, 454, 455, 456, 457, 458, 459, 460, 461, 462, 
463, 464, 465, 466, 467, 468, 469, 470, 471, 472, 
473, 474, 475, 476, 477, 478, 479, 480, 481, 482, 
483, 484, 485, 486, 487, 488, 489, 490, 491, 492, 
493, 494, 495, 496, 497, 498, 499, 500, 501, 502, 
503, 504, 505, 506, 507, 508, 509, 510, 511, 512, 
513, 514, 515, 516, 517, 518, 519, 520, 521, 522, 
523, 524, 525, 526, 527, 528, 529, 530, 531, 532, 
533, 534, 535, 536, 537, 538, 539, 540, 541, 542, 
543, 544, 545, 546, 547, 548, 549, 550, 551, 552, 
553, 554, 555, 556, 557, 558, 559, 560, 561, 562, 
563, 564, 565, 566, 567, 568, 569, 570, 571, 572, 
573, 574, 575, 576, 577, 578, 579, 580, 581, 582, 
583, 584, 585, 586, 587, 588, 589, 590, 591, 592, 
593, 594, 595, 596, 597, 598, 599, 600, 601, 602, 
603, 604, 605, 606, 607, 608, 609, 610, 611, 612, 
613, 614, 615, 616, 617, 618, 619, 620, 621, 622, 
623, 624, 625, 626, 627, 628, 629, 630, 631, 632, 
633, 634, 635, 636, 637, 638, 639, 640, 641, 642, 
643, 644, 645, 646, 647, 648, 649, 650, 651, 652, 
653, 654, 655, 656, 657, 658, 659, 660, 661, 662, 
663, 664, 665, 666, 667, 668, 669, 670, 671, 672, 
673, 674, 675, 676, 677, 678, 679, 680, 681, 682, 
683, 684, 685, 686, 687, 688, 689, 690, 691, 692, 
693, 694, 695, 696, 697, 698, 699, 700, 701, 702, 
703, 704, 705, 706, 707, 708, 709, 710, 711, 712, 
713, 714, 715, 716, 717, 718, 719, 720, 721, 722, 
723, 724, 725, 726, 727, 728, 729, 730, 731, 732, 
733, 734, 735, 736, 737, 738, 739, 740, 741, 742, 
743, 744, 745, 746, 747, 748, 749, 750, 751, 752, 
753, 754, 755, 756, 757, 758, 759, 760, 761, 762, 
763, 764, 765, 766, 767, 768, 769, 770, 771, 772, 
773, 774, 775, 776, 777, 778, 779, 780, 781, 782, 
783, 784, 785, 786, 787, 788, 789, 790, 791, 792, 
793, 794, 795, 796, 797, 798, 799, 800, 801, 802, 
803, 804, 805, 806, 807, 808, 809, 810, 811, 812, 
813, 814, 815, 816, 817, 818, 819, 820, 821, 822, 
823, 824, 825, 826, 827, 828, 829, 830, 831, 832, 
833, 834, 835, 836, 837, 838, 839, 840, 841, 842, 
843, 844, 845, 846, 847, 848, 849, 850, 851, 852, 
853, 854, 855, 856, 857, 858, 859, 860, 861, 862, 
863, 864, 865, 866, 867, 868, 869, 870, 871, 872, 
873, 874, 875, 876, 877, 878, 879, 880, 881, 882, 
883, 884, 885, 886, 887, 888, 889, 890, 891, 892, 
893, 894, 895, 896, 897, 898, 899, 900, 901, 902, 
903, 904, 905, 906, 907, 908, 909, 910, 911, 912, 
913, 914, 915, 916, 917, 918, 919, 920, 921, 922, 
923, 924, 925, 926, 927, 928, 929, 
*NSET,NSET=contact_source
1, 8, 101, 102, 103, 104, 105, 106, 107, 108, 
109, 110, 111, 112, 113, 114, 115, 116, 117, 118, 
119, 120, 121, 
*NSET,NSET=contact_drain
4, 5, 45, 46, 47, 48, 49, 50, 51, 52, 
53, 54, 55, 56, 57, 58, 59, 60, 61, 62, 
63, 64, 65, 
*NSET,NSET=probe_A
6, 7, 81, 82, 83, 84, 85, 
*NSET,NSET=probe_B
2, 3, 25, 26, 27, 28, 29, 
*NSET,NSET=walls
1, 2, 3, 4, 5, 6, 7, 8, 9, 10, 
11, 12, 13, 14, 15, 16, 17, 18, 19, 20, 
21, 22, 23, 24, 30, 31, 32, 33, 34, 35, 
36, 37, 38, 39, 40, 41, 42, 43, 44, 66, 
67, 68, 69, 70, 71, 72, 73, 74, 75, 76, 
77, 78, 79, 80, 86, 87, 88, 89, 90, 91, 
92, 93, 94, 95, 96, 97, 98, 99, 100, 122, 
123, 124, 125, 126, 127, 128, 129, 130, 131, 132, 
133, 134, 135, 136, 137, 138, 139, 140, 141, 142, 
*NSET,NSET=domain
1, 2, 3, 4, 5, 6, 7, 8, 9, 10, 
11, 12, 13, 14, 15, 16, 17, 18, 19, 20, 
21, 22, 23, 24, 25, 26, 27, 28, 29, 30, 
31, 32, 33, 34, 35, 36, 37, 38, 39, 40, 
41, 42, 43, 44, 45, 46, 47, 48, 49, 50, 
51, 52, 53, 54, 55, 56, 57, 58, 59, 60, 
61, 62, 63, 64, 65, 66, 67, 68, 69, 70, 
71, 72, 73, 74, 75, 76, 77, 78, 79, 80, 
81, 82, 83, 84, 85, 86, 87, 88, 89, 90, 
91, 92, 93, 94, 95, 96, 97, 98, 99, 100, 
101, 102, 103, 104, 105, 106, 107, 108, 109, 110, 
111, 112, 113, 114, 115, 116, 117, 118, 119, 120, 
121, 122, 123, 124, 125, 126, 127, 128, 129, 130, 
131, 132, 133, 134, 135, 136, 137, 138, 139, 140, 
141, 142, 143, 144, 145, 146, 147, 148, 149, 150, 
151, 152, 153, 154, 155, 156, 157, 158, 159, 160, 
161, 162, 163, 164, 165, 166, 167, 168, 169, 170, 
171, 172, 173, 174, 175, 176, 177, 178, 179, 180, 
181, 182, 183, 184, 185, 186, 187, 188, 189, 190, 
191, 192, 193, 194, 195, 196, 197, 198, 199, 200, 
201, 202, 203, 204, 205, 206, 207, 208, 209, 210, 
211, 212, 213, 214, 215, 216, 217, 218, 219, 220, 
221, 222, 223, 224, 225, 226, 227, 228, 229, 230, 
231, 232, 233, 234, 235, 236, 237, 238, 239, 240, 
241, 242, 243, 244, 245, 246, 247, 248, 249, 250, 
251, 252, 253, 254, 255, 256, 257, 258, 259, 260, 
261, 262, 263, 264, 265, 266, 267, 268, 269, 270, 
271, 272, 273, 274, 275, 276, 277, 278, 279, 280, 
281, 282, 283, 284, 285, 286, 287, 288, 289, 290, 
291, 292, 293, 294, 295, 296, 297, 298, 299, 300, 
301, 302, 303, 304, 305, 306, 307, 308, 309, 310, 
311, 312, 313, 314, 315, 316, 317, 318, 319, 320, 
321, 322, 323, 324, 325, 326, 327, 328, 329, 330, 
331, 332, 333, 334, 335, 336, 337, 338, 339, 340, 
341, 342, 343, 344, 345, 346, 347, 348, 349, 350, 
351, 352, 353, 354, 355, 356, 357, 358, 359, 360, 
361, 362, 363, 364, 365, 366, 367, 368, 369, 370, 
371, 372, 373, 374, 375, 376, 377, 378, 379, 380, 
381, 382, 383, 384, 385, 386, 387, 388, 389, 390, 
391, 392, 393, 394, 395, 396, 397, 398, 399, 400, 
401, 402, 403, 404, 405, 406, 407, 408, 409, 410, 
411, 412, 413, 414, 415, 416, 417, 418, 419, 420, 
421, 422, 423, 424, 425, 426, 427, 428, 429, 430, 
431, 432, 433, 434, 435, 436, 437, 438, 439, 440, 
441, 442, 443, 444, 445, 446, 447, 448, 449, 450, 
451, 452, 453, 454, 455, 456, 457, 458, 459, 460, 
461, 462, 463, 464, 465, 466, 467, 468, 469, 470, 
471, 472, 473, 474, 475, 476, 477, 478, 479, 480, 
481, 482, 483, 484, 485, 486, 487, 488, 489, 490, 
491, 492, 493, 494, 495, 496, 497, 498, 499, 500, 
501, 502, 503, 504, 505, 506, 507, 508, 509, 510, 
511, 512, 513, 514, 515, 516, 517, 518, 519, 520, 
521, 522, 523, 524, 525, 526, 527, 528, 529, 530, 
531, 532, 533, 534, 535, 536, 537, 538, 539, 540, 
541, 542, 543, 544, 545, 546, 547, 548, 549, 550, 
551, 552, 553, 554, 555, 556, 557, 558, 559, 560, 
561, 562, 563, 564, 565, 566, 567, 568, 569, 570, 
571, 572, 573, 574, 575, 576, 577, 578, 579, 580, 
581, 582, 583, 584, 585, 586, 587, 588, 589, 590, 
591, 592, 593, 594, 595, 596, 597, 598, 599, 600, 
601, 602, 603, 604, 605, 606, 607, 608, 609, 610, 
611, 612, 613, 614, 615, 616, 617, 618, 619, 620, 
621, 622, 623, 624, 625, 626, 627, 628, 629, 630, 
631, 632, 633, 634, 635, 636, 637, 638, 639, 640, 
641, 642, 643, 644, 645, 646, 647, 648, 649, 650, 
651, 652, 653, 654, 655, 656, 657, 658, 659, 660, 
661, 662, 663, 664, 665, 666, 667, 668, 669, 670, 
671, 672, 673, 674, 675, 676, 677, 678, 679, 680, 
681, 682, 683, 684, 685, 686, 687, 688, 689, 690, 
691, 692, 693, 694, 695, 696, 697, 698, 699, 700, 
701, 702, 703, 704, 705, 706, 707, 708, 709, 710, 
711, 712, 713, 714, 715, 716, 717, 718, 719, 720, 
721, 722, 723, 724, 725, 726, 727, 728, 729, 730, 
731, 732, 733, 734, 735, 736, 737, 738, 739, 740, 
741, 742, 743, 744, 745, 746, 747, 748, 749, 750, 
751, 752, 753, 754, 755, 756, 757, 758, 759, 760, 
761, 762, 763, 764, 765, 766, 767, 768, 769, 770, 
771, 772, 773, 774, 775, 776, 777, 778, 779, 780, 
781, 782, 783, 784, 785, 786, 787, 788, 789, 790, 
791, 792, 793, 794, 795, 796, 797, 798, 799, 800, 
801, 802, 803, 804, 805, 806, 807, 808, 809, 810, 
811, 812, 813, 814, 815, 816, 817, 818, 819, 820, 
821, 822, 823, 824, 825, 826, 827, 828, 829, 830, 
831, 832, 833, 834, 835, 836, 837, 838, 839, 840, 
841, 842, 843, 844, 845, 846, 847, 848, 849, 850, 
851, 852, 853, 854, 855, 856, 857, 858, 
