*Heading
 /Users/juliagao/geometry-optimization-net/scripts/../runs/2d/shape_12.inp
*NODE
1, 0, -0.3, 0
2, 0.425, -0.3, 0
3, 0.575, -0.3, 0
4, 1, -0.3, 0
5, 1, 0.3, 0
6, 0.575, 0.3, 0
7, 0.425, 0.3, 0
8, 0, 0.3, 0
9, 0.5688475485, -0.043814284, 0
10, 0.025946141321908, -0.3, 0
11, 0.078515113514029, -0.3, 0
12, 0.1318631280413, -0.3, 0
13, 0.18508890993314, -0.3, 0
14, 0.23836312706166, -0.3, 0
15, 0.29234757608064, -0.3, 0
16, 0.34643685900586, -0.3, 0
17, 0.39915765590292, -0.3, 0
18, 0.051892282643816, -0.3, 0
19, 0.10513794438424, -0.3, 0
20, 0.15858831169836, -0.3, 0
21, 0.21158950816792, -0.3, 0
22, 0.2651367459554, -0.3, 0
23, 0.31955840620588, -0.3, 0
24, 0.37331531180584, -0.3, 0
25, 0.44990765611303, -0.3, 0
26, 0.49941780895778, -0.3, 0
27, 0.54951015284475, -0.3, 0
28, 0.47481531222607, -0.3, 0
29, 0.5240203056895, -0.3, 0
30, 0.60108460930048, -0.3, 0
31, 0.65380201824421, -0.3, 0
32, 0.70724424379629, -0.3, 0
33, 0.76090463367832, -0.3, 0
34, 0.8144637845997, -0.3, 0
35, 0.86752581145072, -0.3, 0
36, 0.9203890168457, -0.3, 0
37, 0.97344919116893, -0.3, 0
38, 0.62716921860096, -0.3, 0
39, 0.68043481788746, -0.3, 0
40, 0.73405366970512, -0.3, 0
41, 0.78775559765151, -0.3, 0
42, 0.84117197154789, -0.3, 0
43, 0.89387965135354, -0.3, 0
44, 0.94689838233785, -0.3, 0
45, 1, -0.27326713451376, 0
46, 1, -0.21933851376409, 0
47, 1, -0.16478938667724, 0
48, 1, -0.1102242220528, 0
49, 1, -0.055724168432506, 0
50, 1, -0.00090110644943292, 0
51, 1, 0.054221076622712, 0
52, 1, 0.1093620715936, 0
53, 1, 0.16461511446397, 0
54, 1, 0.21960801958607, 0
55, 1, 0.27345074745017, 0
56, 1, -0.24653426902753, 0
57, 1, -0.19214275850066, 0
58, 1, -0.13743601485382, 0
59, 1, -0.083012429251784, 0
60, 1, -0.028435907613229, 0
61, 1, 0.026633694714363, 0
62, 1, 0.081808458531061, 0
63, 1, 0.13691568465613, 0
64, 1, 0.19231454427181, 0
65, 1, 0.24690149490034, 0
66, 0.97335991216689, 0.3, 0
67, 0.92033293163666, 0.3, 0
68, 0.86743705011134, 0.3, 0
69, 0.81388860312851, 0.3, 0
70, 0.76012360993449, 0.3, 0
71, 0.70725914640528, 0.3, 0
72, 0.65469590012468, 0.3, 0
73, 0.60163579116695, 0.3, 0
74, 0.94671982433378, 0.3, 0
75, 0.89394603893954, 0.3, 0
76, 0.84092806128314, 0.3, 0
77, 0.78684914497387, 0.3, 0
78, 0.73339807489511, 0.3, 0
79, 0.68112021791546, 0.3, 0
80, 0.62827158233389, 0.3, 0
81, 0.55001609983719, 0.3, 0
82, 0.50039174212033, 0.3, 0
83, 0.45037564228314, 0.3, 0
84, 0.52503219967437, 0.3, 0
85, 0.47575128456628, 0.3, 0
86, 0.39896336478817, 0.3, 0
87, 0.34654242974046, 0.3, 0
88, 0.29324618255875, 0.3, 0
89, 0.23948781967045, 0.3, 0
90, 0.18602655836939, 0.3, 0
91, 0.13254470492835, 0.3, 0
92, 0.07892928672042, 0.3, 0
93, 0.026090438097466, 0.3, 0
94, 0.37292672957634, 0.3, 0
95, 0.32015812990458, 0.3, 0
96, 0.26633423521292, 0.3, 0
97, 0.21264140412798, 0.3, 0
98, 0.15941171261079, 0.3, 0
99, 0.10567769724591, 0.3, 0
100, 0.052180876194932, 0.3, 0
101, 0, 0.27364770183659, 0
102, 0, 0.22045758180181, 0
103, 0, 0.16561086577543, 0
104, 0, 0.10919865409237, 0
105, 0, 0.053107551166076, 0
106, 0, -0.0018059730744448, 0
107, 0, -0.056363746863486, 0
108, 0, -0.11147254150281, 0
109, 0, -0.1668610412655, 0
110, 0, -0.22108606720506, 0
111, 0, -0.27384967653725, 0
112, 0, 0.24729540367319, 0
113, 0, 0.19361975993043, 0
114, 0, 0.13760197162043, 0
115, 0, 0.080795336564312, 0
116, 0, 0.025419765767841, 0
117, 0, -0.02903171191673, 0
118, 0, -0.083695781810242, 0
119, 0, -0.13924930119537, 0
120, 0, -0.19447278133563, 0
121, 0, -0.2476993530745, 0
122, 0.56473729705191, -0.020382099195978, 0
123, 0.53447652256805, 0.015778956116987, 0
124, 0.48773486567086, 0.023931943572917, 0
125, 0.44683609442483, -6.9752658538404e-05, 0
126, 0.43115975747947, -0.044817225416599, 0
127, 0.44800333340283, -0.088940014731128, 0
128, 0.48905553527636, -0.11178636369532, 0
129, 0.53492800740029, -0.10314403354096, 0
130, 0.56473332039178, -0.06725745251288, 0
131, 0.55289731066976, 0.00025224997311043, 0
132, 0.51183413314949, 0.024008559989184, 0
133, 0.46513841870611, 0.015554521083956, 0
134, 0.43502890630531, -0.02103837877401, 0
135, 0.43571998944135, -0.068473260715544, 0
136, 0.46653691852423, -0.1039824409492, 0
137, 0.51288562240497, -0.11144523584493, 0
138, 0.55288235393321, -0.087898765787631, 0
139, 0.41687786455517, -0.24610952335443, 0
140, 0.44613256175724, -0.27285334111608, 0
141, 0.58436025014181, 0.065881189505842, 0
142, 0.052490354440864, -0.24674543795975, 0
143, 0.10464759397128, -0.24683271240125, 0
144, 0.15682346040787, -0.24684798262294, 0
145, 0.20907382509709, -0.24690567738655, 0
146, 0.26132557495357, -0.24708061004406, 0
147, 0.49178569666409, -0.17887103139767, 0
148, 0.36519392513088, -0.2464503451506, 0
149, 0.31341754205501, -0.24698789646675, 0
150, 0.62204717954385, -0.031744414571348, 0
151, 0.56877284349549, -0.11338638742225, 0
152, 0.65462397828867, -0.13508464687152, 0
153, 0.68450482752554, -0.24535709077826, 0
154, 0.73638516165574, -0.24552368271007, 0
155, 0.7886941486294, -0.24563164408426, 0
156, 0.84129334694455, -0.24558154185112, 0
157, 0.8940584401805, -0.2455795765895, 0
158, 0.94692043789113, -0.24575710129453, 0
159, 0.27537070607424, 0.0037242040431375, 0
160, 0.71452865955446, 0.10495345189172, 0
161, 0.3792709763464, 0.065880722022261, 0
162, 0.10068512812634, 0.027769823567117, 0
163, 0.58710877396925, 0.19482728204788, 0
164, 0.050733926938285, -0.11130297156992, 0
165, 0.39164609469533, 0.22190922069998, 0
166, 0.84158990516593, 0.024578675005959, 0
167, 0.10098510126702, -0.055709602682715, 0
168, 0.051771396149436, 0.21971754287869, 0
169, 0.15109965618978, -0.055220189605921, 0
170, 0.33097527240979, 0.11583535900753, 0
171, 0.18119919884395, 0.2203327641112, 0
172, 0.74013067704569, 0.10505259490298, 0
173, 0.26368760368187, 0.27386874686259, 0
174, 0.13141384643367, 0.27367486366331, 0
175, 0.17992768061188, 0.19339384872795, 0
176, 0.10066225895569, 0.055537146644133, 0
177, 0.050652681927776, -0.0561722885332, 0
178, 0.66533724109229, 0.19026201333996, 0
179, 0.2499949721145, -0.025421821478025, 0
180, 0.10071521839783, 0.083215253494267, 0
181, 0.33825433246308, 0.2213824608841, 0
182, 0.050362008139526, 0.13775008252099, 0
183, 0.31675979056121, 0.27383928657758, 0
184, 0.12587001176534, -0.027605431835043, 0
185, 0.43825986034005, 0.12408881174917, 0
186, 0.44746244408356, 0.2477991990111, 0
187, 0.396049942421, 0.27368459187336, 0
188, 0.3024149214438, 0.060400940576306, 0
189, 0.05058465970267, -0.00077562180476313, 0
190, 0.42242374375566, 0.27359796434942, 0
191, 0.2757684095892, -0.081944570159449, 0
192, 0.27615884273151, 0.031637962131906, 0
193, 0.30367303615461, 0.087698578139702, 0
194, 0.20348511854218, 0.13943816909972, 0
195, 0.79253809455057, 0.18958856179833, 0
196, 0.22649451740933, -0.082478788215637, 0
197, 0.3241280171266, -0.081267275611444, 0
198, 0.31408518109354, 0.24756907108865, 0
199, 0.20162699993201, -0.082692469983144, 0
200, 0.22561444531514, -0.054295017163946, 0
201, 0.1548827487121, -0.1928876514086, 0
202, 0.10334814644154, -0.19289153887013, 0
203, 0.051694424194868, -0.19303483347853, 0
204, 0.20634690456885, -0.19291367254432, 0
205, 0.25767839244239, -0.19293045823069, 0
206, 0.25441941564949, -0.13802348754873, 0
207, 0.20382279143781, -0.1381769467311, 0
208, 0.15303566388659, -0.13829454362862, 0
209, 0.10206452703296, -0.1384447035289, 0
210, 0.050934642848963, -0.1386981270982, 0
211, 0.1778970146068, 0.13908592159707, 0
212, 0.35713515072618, 0.11721274317902, 0
213, 0.17658889217703, 0.084246591660405, 0
214, 0.38843546734768, -0.048247895840809, 0
215, 0.27444818358599, -0.053319324304898, 0
216, 0.025568931843193, 0.19273931620691, 0
217, 0.18262791047744, 0.24709519130473, 0
218, 0.10075444171281, -5.5062445216395e-05, 0
219, 0.41113186225505, -0.19246983241901, 0
220, 0.6329512511054, -0.19033209678737, 0
221, 0.35987989562824, -0.19215393889802, 0
222, 0.30882589017294, -0.19267445308996, 0
223, 0.30488004420905, -0.13770032323684, 0
224, 0.35539177707882, -0.13726038041893, 0
225, 0.43106303216032, -0.13883214420339, 0
226, 0.25179535014733, 0.058388215308594, 0
227, 0.71615863386639, 0.1892901037626, 0
228, 0.30653410045896, 0.14159422983655, 0
229, 0.28557463701446, 0.22107590778605, 0
230, 0.43518832968173, 0.099009457565809, 0
231, 0.38778076577656, 0.17065848552492, 0
232, 0.30285593878631, -0.10992377565626, 0
233, 0.84338173497005, 0.21773192656042, 0
234, 0.79066680179456, 0.078138307664638, 0
235, 0.63647407674638, 0.079749470298883, 0
236, 0.94789839464132, 0.13579217510053, 0
237, 0.89580612524584, 0.13496484159502, 0
238, 0.68774240370815, 0.2452635148741, 0
239, 0.89562434953102, 0.19023334553974, 0
240, 0.94773590252198, 0.19085704928488, 0
241, 0.94716447456865, 0.24563833388196, 0
242, 0.89478019653613, 0.24535363192246, 0
243, 0.54803768256559, 0.03484602666525, 0
244, 0.78712341243667, -0.0029744725232177, 0
245, 0.61236753520018, 0.2196309493865, 0
246, 0.61006982612809, 0.24647686167303, 0
247, 0.53094311231352, 0.17475896311981, 0
248, 0.55993319140218, 0.17230163150673, 0
249, 0.63994455533857, 0.13605522728591, 0
250, 0.45708195256045, 0.058665773571222, 0
251, 0.64884675786179, -0.0044928801353684, 0
252, 0.39354759110848, -0.080328185744431, 0
253, 0.71083119454965, 0.27265973681639, 0
254, 0.20190745325438, 0.084689742432155, 0
255, 0.68968934178926, 0.21752400072855, 0
256, 0.81759251686211, 0.21769310193875, 0
257, 0.47513592035103, 0.27342316739174, 0
258, 0.68688993252959, 0.077166852667153, 0
259, 0.55850443350376, 0.10080760342228, 0
260, 0.79075965534915, 0.24539959051164, 0
261, 0.34610079194299, -0.020555947068148, 0
262, 0.70489056396459, -0.0039274165624038, 0
263, 0.76135874425532, 0.023308489053437, 0
264, 0.66199193975895, 0.24558264250878, 0
265, 0.47469983902275, 0.24790877603891, 0
266, 0.71345539938775, 0.24509245322864, 0
267, 0.52960236276447, 0.24763513902661, 0
268, 0.6117959614383, 0.083388684805205, 0
269, 0.76289647580086, 0.27285901244965, 0
270, 0.50006162106756, 0.15277570640474, 0
271, 0.65361203841318, 0.022121975497971, 0
272, 0.94774839033597, 0.080731035530298, 0
273, 0.89537334612536, 0.079888991115399, 0
274, 0.89467479013881, 0.025287597847084, 0
275, 0.94750410603016, 0.025936700886085, 0
276, 0.89390123796857, -0.082825056790026, 0
277, 0.94707195670841, -0.08284724870471, 0
278, 0.8941037271829, -0.028848356689204, 0
279, 0.94723197551963, -0.028542203053547, 0
280, 0.84043084421683, -0.082798362126538, 0
281, 0.78656298354769, -0.08265772798124, 0
282, 0.73207774091913, -0.082393954681869, 0
283, 0.73200577844742, -0.02984630866963, 0
284, 0.7866340410506, -0.029534747219295, 0
285, 0.84061029279931, -0.029194714785284, 0
286, 0.67675831760562, -0.030267304414406, 0
287, 0.67655855057991, -0.082424028492015, 0
288, 0.61883867923007, -0.084471450647134, 0
289, 0.46999484806845, -0.24777550322138, 0
290, 0.6049570339556, -0.27291764582211, 0
291, 0.57888440566889, -0.27307025556756, 0
292, 0.55248489078507, -0.27350264021249, 0
293, 0.60520881461835, -0.16433833334546, 0
294, 0.68126396741872, -0.13508838078519, 0
295, 0.65870654394211, -0.18989581784213, 0
296, 0.68450776964159, -0.18988162188178, 0
297, 0.49634070565673, -0.22476796773421, 0
298, 0.94710625610925, -0.13713165623387, 0
299, 0.89404805774166, -0.13690150744213, 0
300, 0.84090719372257, -0.13667846806474, 0
301, 0.78773241591714, -0.13630141644804, 0
302, 0.73452388229574, -0.13568122107186, 0
303, 0.78870321375007, -0.19077854864583, 0
304, 0.73640417902345, -0.19032844787229, 0
305, 0.89417425841696, -0.19117355449007, 0
306, 0.84132724507653, -0.19101170054316, 0
307, 0.94711257765984, -0.19145021405754, 0
308, 0.076264344834617, 0.16537966555867, 0
309, 0.81681306320498, 0.078610237341313, 0
310, 0.3081424772409, 0.16825952646971, 0
311, 0.38072093061519, -0.13717463947438, 0
312, 0.36714862245844, -0.04965530133893, 0
313, 0.4607735806321, 0.082027261585613, 0
314, 0.025230921377765, 0.16528358371652, 0
315, 0.75994307736953, -0.0032941129850505, 0
316, 0.69047101320768, 0.13340745468428, 0
317, 0.49785562253995, -0.24873249690791, 0
318, 0.34322484423483, 0.27376428870762, 0
319, 0.38361476958503, 0.11897701079234, 0
320, 0.66384901587401, 0.10616015160848, 0
321, 0.71520974678492, 0.21728301877739, 0
322, 0.5594539434597, 0.12422597887126, 0
323, 0.63612872995385, 0.24600652983563, 0
324, 0.52275024452247, -0.17880304694955, 0
325, 0.57582159874179, -0.14038010841083, 0
326, 0.4401340550618, -0.22020059599448, 0
327, 0.40338654125218, -0.10961985408995, 0
328, 0.63356591481627, -0.21790789373737, 0
329, 0.20454369370063, 0.16660268956299, 0
330, 0.41056579573284, 0.12123667347309, 0
331, 0.52263382880185, 0.065782302122102, 0
332, 0.97386954620791, 0.19141623425727, 0
333, 0.97396432225129, 0.13632379246143, 0
334, 0.94788842320684, 0.16334343851213, 0
335, 0.97397516224597, 0.16389829237387, 0
336, 0.73550345719692, -0.27294594917849, 0
337, 0.76249296251327, -0.2455998455626, 0
338, 0.78829502202446, -0.27294324614113, 0
339, 0.76187316675493, -0.27296286373642, 0
340, 0.97356155505311, -0.082897103925414, 0
341, 0.97358212906218, -0.13728310181087, 0
342, 0.94706724652439, -0.10998454769627, 0
343, 0.97355082453882, -0.11008740766387, 0
344, 0.15771708970543, -0.27354131520189, 0
345, 0.18294172294309, -0.24684096667105, 0
346, 0.21041126735998, -0.27357130148079, 0
347, 0.18405240990152, -0.27351157985679, 0
348, 0.37801453164251, -0.10951690809904, 0
349, 0.2265692508126, 0.057672918228836, 0
350, 0.12599736933903, 0.083537819418859, 0
351, 0.18422772401606, 0.27364903922657, 0
352, 0.68302406207533, -0.27289178216921, 0
353, 0.71038759667825, -0.24543544006558, 0
354, 0.70921445878706, -0.272924379656, 0
355, 0.97389519181236, 0.08121759592684, 0
356, 0.97380623451876, 0.026269764003603, 0
357, 0.94763739748178, 0.053292384488059, 0
358, 0.97385978981253, 0.053717654316925, 0
359, 0.97358056855605, -0.19170192878847, 0
360, 0.94713894494041, -0.16428787133784, 0
361, 0.97361018122275, -0.16449569795203, 0
362, 0.94783539616576, 0.1082406856621, 0
363, 0.97392351208635, 0.10875630351996, 0
364, 0.052213155301887, 0.24666975741499, 0
365, 0.15100803181907, 0.056227214572422, 0
366, 0.026160514770273, 0.24672390489308, 0
367, 0.12579416519175, 0.00027245301924582, 0
368, 0.84116479973008, -0.27283450618535, 0
369, 0.86766237825527, -0.24554190892769, 0
370, 0.89396024204164, -0.27279669347001, 0
371, 0.86756519707967, -0.27276823865178, 0
372, 0.26327841255587, -0.27374514977665, 0
373, 0.28740467267467, -0.24711185936422, 0
374, 0.31622331818074, -0.27373441037132, 0
375, 0.28977447375366, -0.27381524409207, 0
376, 0.47409140969293, 0.22311635744004, 0
377, 0.58037237954519, 0.27324893526232, 0
378, 0.36704981569801, 0.24761130442322, 0
379, 0.25614579074158, 0.16732102339504, 0
380, 0.51829354866353, 0.045850882761758, 0
381, 0.49824517995443, 0.13042323443671, 0
382, 0.74156284923619, 0.18926094184114, 0
383, 0.60660002280909, 0.27333526094254, 0
384, 0.94712521197776, -0.055706467699581, 0
385, 0.97366651434529, -0.028435105019587, 0
386, 0.97359435653318, -0.05568750271018, 0
387, 0.94736686013036, -0.0013359882204749, 0
388, 0.97374769085656, -0.0011155540414178, 0
389, 0.92047385232377, -0.24565228455239, 0
390, 0.94682726027464, -0.27289384483791, 0
391, 0.92037831199467, -0.27284457406489, 0
392, 0.78819836629812, 0.023755796004189, 0
393, 0.49580638371755, 0.10867798802796, 0
394, 0.81412174102075, -0.0026636811317883, 0
395, 0.52568361016387, 0.086089762336014, 0
396, 0.10505788462343, -0.27355526209692, 0
397, 0.13072700253924, -0.24686240933765, 0
398, 0.1313792953258, -0.27357659995786, 0
399, 0.46440211627138, 0.10517170076186, 0
400, 0.25264695454409, 0.08588100174481, 0
401, 0.10260544789319, 0.19282755398519, 0
402, 0.075515556675633, 0.11047767940018, 0
403, 0.27928687536227, 0.11389045390458, 0
404, 0.44302372674834, 0.17327596992819, 0
405, 0.21066755965935, 0.27372494809332, 0
406, 0.30504601203487, 0.11475290347969, 0
407, 0.025390992237304, -0.13891997014161, 0
408, 0.70740898766036, 0.022452578279346, 0
409, 0.17664661071375, -0.082884088835336, 0
410, 0.5568254595762, 0.077906552847475, 0
411, 0.1552255425643, 0.22020834205838, 0
412, 0.32197025130559, -0.051833105537228, 0
413, 0.81496696014138, -0.24562801065197, 0
414, 0.8147340326874, -0.27290877791298, 0
415, 0.62371801324344, -0.10924871940706, 0
416, 0.65926419181703, -0.21763046522425, 0
417, 0.54530018407068, -0.12653758760893, 0
418, 0.73442003646511, 0.022861053948284, 0
419, 0.81539976026682, 0.27299351747087, 0
420, 0.84404841494716, 0.16208760118827, 0
421, 0.5875148581713, 0.11764362094444, 0
422, 0.024938826273898, 0.10973322632353, 0
423, 0.025927558877332, 0.21986886309712, 0
424, 0.076898729632116, 0.19265741316046, 0
425, 0.7645604707066, 0.077673404714711, 0
426, 0.65888048265218, 0.27295131659578, 0
427, 0.81588679147274, 0.05126770270467, 0
428, 0.25365067209406, 0.11318965567364, 0
429, 0.69102729155835, 0.1615512028632, 0
430, 0.92183586997335, 0.13534481719379, 0
431, 0.89581317773179, 0.16259627520803, 0
432, 0.92164483899061, 0.19048136787659, 0
433, 0.92182255742613, 0.16292085889561, 0
434, 0.15586932176277, -0.21995392181579, 0
435, 0.18062540626263, -0.19288881533432, 0
436, 0.20770164827149, -0.22001198365991, 0
437, 0.18178724737478, -0.21996081653308, 0
438, 0.97342093039234, -0.24597172870993, 0
439, 0.97333416038888, -0.27299507672845, 0
440, 0.23520615332174, -0.24699148545867, 0
441, 0.23681992426803, -0.27364726779763, 0
442, 0.89428179564547, 0.27275482931937, 0
443, 0.86868012280306, 0.24535376032528, 0
444, 0.86801724083774, 0.27278501767954, 0
445, 0.55387372677624, -0.24785413718867, 0
446, 0.51732178756032, -0.13505182274129, 0
447, 0.58143122805102, -0.2200778694708, 0
448, 0.48665990191168, -0.13495729104179, 0
449, 0.52938548252797, 0.12900069728199, 0
450, 0.7126054138534, 0.077048157040251, 0
451, 0.07857870015579, -0.24679036526851, 0
452, 0.052559296765358, -0.27341213060668, 0
453, 0.078779782386928, -0.27351912249515, 0
454, 0.68909370401477, 0.10524082278234, 0
455, 0.55990942324474, 0.14807239235465, 0
456, 0.17604987998061, -0.054953512748825, 0
457, 0.32937764732997, 0.088965933057723, 0
458, 0.05017086348058, 0.11014007264183, 0
459, 0.97350020708888, 0.24603457568113, 0
460, 0.94686278165929, 0.27287668179165, 0
461, 0.97329912269431, 0.27307501839787, 0
462, 0.92093635624316, 0.24542654412774, 0
463, 0.9205483978819, 0.27276365474872, 0
464, 0.50131744388638, 0.17570699521069, 0
465, 0.76628475508321, 0.21741575133597, 0
466, 0.051239100919543, -0.1659473234278, 0
467, 0.025825668395754, -0.19341452375364, 0
468, 0.025531316516456, -0.16627346892429, 0
469, 0.60771013814959, -0.2186805851398, 0
470, 0.49429822977193, -0.20151078100683, 0
471, 0.3609207122576, 0.16966749003045, 0
472, 0.57313825540995, 0.015695969757036, 0
473, 0.27810928069892, 0.086690992320585, 0
474, 0.075845298920099, -0.055948621295068, 0
475, 0.94749031187952, 0.21829761493025, 0
476, 0.97371989025191, 0.21880705696513, 0
477, 0.92156942023901, 0.080297751273322, 0
478, 0.92112215509964, 0.025614261002814, 0
479, 0.89503581838976, 0.052520817278879, 0
480, 0.9213576973044, 0.05290206654335, 0
481, 0.3686844895111, -0.27334209491396, 0
482, 0.33934947264844, -0.24677121723606, 0
483, 0.34254918725701, -0.2736026095308, 0
484, 0.026317409702858, -0.24690896931792, 0
485, 0.02637031981673, -0.27340198678008, 0
486, 0.29023692910836, 0.27390592910125, 0
487, 0.38574906768961, 0.14493668329547, 0
488, 0.55361318576329, -0.1982732078117, 0
489, 0.10425835997481, 0.24690343533702, 0
490, 0.44619779212877, 0.222642632934, 0
491, 0.15157601703367, -0.083066251292158, 0
492, 0.15128771760511, 0.08387183718875, 0
493, 0.075494466966889, 0.055170508136317, 0
494, 0.420376943433, -0.27290831815264, 0
495, 0.55230290399495, -0.17409968093364, 0
496, 0.52571058139692, -0.2737259546567, 0
497, 0.39100140126794, -0.24617841063425, 0
498, 0.39459974487441, -0.27308673914301, 0
499, 0.89564328411114, 0.10738109446222, 0
500, 0.92173564727086, 0.10778942169592, 0
501, 0.86917468962498, 0.079481557725486, 0
502, 0.55950239602622, 0.19689306581466, 0
503, 0.86983215464132, 0.13462155598087, 0
504, 0.8695779477198, 0.10699024435511, 0
505, 0.47180275430753, 0.17500907734359, 0
506, 0.7658607318522, 0.1053615434353, 0
507, 0.6491652235211, -0.030736090150858, 0
508, 0.61438089613223, 0.13881291168078, 0
509, 0.50233667002731, 0.22321179436332, 0
510, 0.94704238247882, -0.21860925855088, 0
511, 0.97352819190454, -0.21886879314924, 0
512, 0.9205912160848, -0.1370083626867, 0
513, 0.89395004092525, -0.10983897636225, 0
514, 0.92052077993993, -0.082829571253299, 0
515, 0.92053381389474, -0.10990618826416, 0
516, 0.15392021459975, -0.16566718636601, 0
517, 0.17845261396523, -0.13823223394242, 0
518, 0.20504540749962, -0.16563267176453, 0
519, 0.17950058531055, -0.16564380710918, 0
520, 0.73667725897942, -0.21792757079245, 0
521, 0.76250738606843, -0.19057844238779, 0
522, 0.78884097194356, -0.21820361928786, 0
523, 0.76270604873727, -0.21808935594249, 0
524, 0.89395594161339, -0.055838477704742, 0
525, 0.9207100530363, -0.028686406922303, 0
526, 0.92058038904585, -0.055763933801274, 0
527, 0.052163315204911, -0.21996507446284, 0
528, 0.026131515368844, -0.22027492759041, 0
529, 0.15645534448171, 0.24704414435017, 0
530, 0.07822625526712, 0.24679077345178, 0
531, 0.73852280853128, 0.077275007510334, 0
532, 0.6144226346011, 0.16589583616433, 0
533, 0.53061036428462, 0.2227808826031, 0
534, 0.47315906293981, 0.19885332568537, 0
535, 0.71579199496908, 0.13304026908074, 0
536, 0.53039718677895, 0.1515681564951, 0
537, 0.69077105369381, 0.18960528948039, 0
538, 0.49274219027007, 0.087515158578805, 0
539, 0.55852891112136, 0.22185310289361, 0
540, 0.68497048320408, -0.21762392791867, 0
541, 0.71040314463598, -0.19007160024959, 0
542, 0.71076565820441, -0.21775554459881, 0
543, 0.86720744721025, -0.082818953432986, 0
544, 0.84044076630258, -0.055988955457213, 0
545, 0.86740778147782, -0.029019574089118, 0
546, 0.86724598349714, -0.05591673354341, 0
547, 0.025177860719079, 0.054064872800556, 0
548, 0.30009159571528, -0.081616642832819, 0
549, 0.12680832950523, 0.13850614074683, 0
550, 0.15085735581588, -0.027297353789175, 0
551, 0.89414545667817, -0.21836693397806, 0
552, 0.84136968036523, -0.21828976693047, 0
553, 0.86773161610946, -0.1910818422001, 0
554, 0.86773630601901, -0.21830429419519, 0
555, 0.7611336603581, -0.13601695941241, 0
556, 0.78830815146904, -0.16345340535934, 0
557, 0.73564206777738, -0.162872444691, 0
558, 0.76194836565753, -0.16318906031966, 0
559, 0.8681654184749, 0.024945211476465, 0
560, 0.78910253065898, 0.27294033564354, 0
561, 0.86868097205878, 0.052129449155097, 0
562, 0.22603941519521, 0.029950243863813, 0
563, 0.22911716352592, 0.13984913994466, 0
564, 0.076512031445209, -0.13855018593226, 0
565, 0.10122642991163, -0.083430143446129, 0
566, 0.22810029251819, 0.11261420737311, 0
567, 0.79168719596622, 0.10576335273118, 0
568, 0.28060588755881, 0.1409035228605, 0
569, 0.17592459122623, 0.028871880239832, 0
570, 0.68322011574695, -0.16230705414414, 0
571, 0.70790063041867, -0.1353415876101, 0
572, 0.70939648554228, -0.16254971982561, 0
573, 0.63279391153233, 0.27315106301843, 0
574, 0.52785498802801, 0.10714918152309, 0
575, 0.7923903901212, 0.13359950554287, 0
576, 0.20269365963793, -0.11054045573216, 0
577, 0.61357870523937, 0.11138182815024, 0
578, 0.32255134373729, -0.02225976396738, 0
579, 0.39181759120225, -0.015784117978693, 0
580, 0.68391669904751, 0.049379236026438, 0
581, 0.58082780979809, -0.24647322877834, 0
582, 0.6309334688398, -0.27285693026614, 0
583, 0.8149802963309, -0.19092149963609, 0
584, 0.81506688210602, -0.21826991010044, 0
585, 0.28771451983795, 0.24756309167093, 0
586, 0.22782003430997, -0.11042139295749, 0
587, 0.46993786939011, 0.15150765261628, 0
588, 0.84393166211106, 0.1342916840549, 0
589, 0.63874950646992, 0.10806026036969, 0
590, 0.81666024333211, 0.24547689195673, 0
591, 0.50214551099244, 0.24785041366223, 0
592, 0.81814922571671, 0.18978114663644, 0
593, 0.58043879500316, 0.040054862018094, 0
594, 0.81758947493753, 0.10618805235566, 0
595, 0.59600768845451, -0.033936231325021, 0
596, 0.68487997171575, 0.27277464862892, 0
597, 0.84116194995099, -0.16379570883992, 0
598, 0.81432299840315, -0.13652054904265, 0
599, 0.81471488548394, -0.16365401101781, 0
600, 0.89434317627082, -0.0018222925131989, 0
601, 0.9208954570527, -0.0015723669105955, 0
602, 0.48621849386767, 0.046172547822268, 0
603, 0.64024661225436, 0.1637823741327, 0
604, 0.76715980557519, 0.161316438581, 0
605, 0.50149979171555, 0.27329038893028, 0
606, 0.63112318253631, -0.16282417076839, 0
607, 0.65693661053116, -0.27287887929275, 0
608, 0.42874871033933, -0.10964481144235, 0
609, 0.76493134036663, 0.24527747629625, 0
610, 0.81831922756362, 0.16184076504639, 0
611, 0.58791941799267, 0.14335542941243, 0
612, 0.6657049091169, 0.16237340543642, 0
613, 0.55377915088093, 0.055746055700011, 0
614, 0.73680602186494, 0.27273923279521, 0
615, 0.6397338459258, 0.19131447154711, 0
616, 0.74122099436463, 0.13304925737332, 0
617, 0.59332874370671, -0.0051274564120846, 0
618, 0.07575865407307, -0.028192534288192, 0
619, 0.35173686499312, 0.036247005908439, 0
620, 0.30989553808414, 0.19478897829026, 0
621, 0.45458591675495, 0.035333226219034, 0
622, 0.86770661953451, -0.0020867502090167, 0
623, 0.22725438792883, 0.085225439835489, 0
624, 0.025037260793484, 0.081856257170754, 0
625, 0.3012624189491, 0.032830022735158, 0
626, 0.1040487793245, -0.21992976370766, 0
627, 0.12912568254258, -0.1928921233, 0
628, 0.12995872204451, -0.2199531930683, 0
629, 0.20089924468529, -0.054652165526732, 0
630, 0.12834034738984, 0.19301826965122, 0
631, 0.15225217059956, -0.11076401005369, 0
632, 0.025304273710053, -0.11143047353858, 0
633, 0.2594481027375, -0.22011658217079, 0
634, 0.28327322361333, -0.19285712038393, 0
635, 0.31098799763851, -0.21993234308217, 0
636, 0.28524752728887, -0.2200918350161, 0
637, 0.05033328856336, 0.054714153968029, 0
638, 0.051215881627798, 0.19256777650486, 0
639, 0.025400700115142, -0.028792145114861, 0
640, 0.20884549088118, 0.24721738282575, 0
641, 0.17882234232076, 0.1663069537189, 0
642, 0.23169659773437, 0.19389380285089, 0
643, 0.12930630389068, 0.22009158134044, 0
644, 0.44877187172574, 0.27350563052113, 0
645, 0.58644594254883, 0.091832083484793, 0
646, 0.70443291932294, -0.030018147430122, 0
647, 0.84172749187348, 0.27289481209491, 0
648, 0.76701487397084, 0.1893947718218, 0
649, 0.075967873772863, -0.083616591910899, 0
650, 0.36965267235214, 0.27372249083747, 0
651, 0.075445861644862, 0.082870916266967, 0
652, 0.15081049363895, 0.00061712487081115, 0
653, 0.67686196357253, -0.056479094127402, 0
654, 0.64812973485358, -0.082993999323222, 0
655, 0.62188969797639, -0.058892848203381, 0
656, 0.64928837279438, -0.057210898020086, 0
657, 0.40603663848877, -0.13746550908847, 0
658, 0.052476789336225, 0.27342851369122, 0
659, 0.25939748298962, 0.22089706151961, 0
660, 0.6652254068957, 0.13433557734651, 0
661, 0.58368294985829, 0.24685917774212, 0
662, 0.40796517196933, 0.095379001449439, 0
663, 0.65871438732893, -0.24534521194846, 0
664, 0.60705222965551, -0.24580062423814, 0
665, 0.47225359844204, -0.27330468033467, 0
666, 0.55415641587915, -0.22282332018316, 0
667, 0.46479612802417, -0.19837564939303, 0
668, 0.5260639079306, -0.24876759378317, 0
669, 0.250150829392, -0.053858988833777, 0
670, 0.125773688604, 0.028111530512906, 0
671, 0.050701650450256, 0.16523903684604, 0
672, 0.28371752747124, 0.1944742284, 0
673, 0.60711442659142, -0.19153224033593, 0
674, 0.57925753341754, -0.1672190570879, 0
675, 0.46757597681028, -0.22290500709758, 0
676, 0.52557259704104, -0.22471123541495, 0
677, 0.42047481863244, 0.24773316287407, 0
678, 0.23715852904991, 0.27381123659323, 0
679, 0.35284963084102, -0.1095683266865, 0
680, 0.17715239237602, 0.11173345747174, 0
681, 0.41296253504725, 0.14666699737735, 0
682, 0.15781839357583, 0.2736595778595, 0
683, 0.23509831276518, 0.24735750970531, 0
684, 0.37721021627883, 0.038662914530067, 0
685, 0.50206534314966, 0.19918575320138, 0
686, 0.73194617571532, -0.056117586425191, 0
687, 0.70448732364602, -0.082312281268191, 0
688, 0.70445226126146, -0.056202351465643, 0
689, 0.25600950596241, -0.16556364790924, 0
690, 0.27965788324866, -0.13789052192573, 0
691, 0.30682691440536, -0.16526337323983, 0
692, 0.28143065691109, -0.16545551060368, 0
693, 0.3118459545405, 0.22121826512463, 0
694, 0.44087482865593, 0.14875344026245, 0
695, 0.3552717712001, 0.090577363972421, 0
696, 0.20137033642961, 0.057095744497331, 0
697, 0.41388925217278, -0.21937528341636, 0
698, 0.48904698691819, -0.15676282161187, 0
699, 0.60164769971229, -0.13723055924459, 0
700, 0.12748975719762, 0.16581871862238, 0
701, 0.075802805051901, 0.1379831361789, 0
702, 0.15234074433225, 0.13878264027479, 0
703, 0.84298501893351, 0.079058945888706, 0
704, 0.40532344834192, 0.068909711466224, 0
705, 0.25766424737369, 0.19417482396423, 0
706, 0.32782408100089, -0.10972668601532, 0
707, 0.73254313217641, -0.0036148315821654, 0
708, 0.61376745654718, 0.19279535385348, 0
709, 0.62074148608017, -0.0047332100134197, 0
710, 0.76299208763801, 0.050300301782922, 0
711, 0.23203442766184, -0.19293579122505, 0
712, 0.23359386269315, -0.22007230989653, 0
713, 0.49885429116658, -0.27361556916469, 0
714, 0.63294469667188, -0.24544590336863, 0
715, 0.36234266595332, -0.21938099574711, 0
716, 0.38544503525829, -0.19206720228976, 0
717, 0.38803980291021, -0.21920024673367, 0
718, 0.25288220658598, -0.11028334541803, 0
719, 0.22538351970465, -0.02604969499541, 0
720, 0.15085371002247, 0.028468017674685, 0
721, 0.3534736644871, 0.06359380190015, 0
722, 0.078718502963005, 0.27356203640048, 0
723, 0.17618569032168, 0.05662363136332, 0
724, 0.27788753566041, -0.11011767522277, 0
725, 0.050626545272875, -0.028494006875304, 0
726, 0.17578584557711, -0.026953295617529, 0
727, 0.33435391390968, -0.19241963213287, 0
728, 0.33667936449847, -0.21968332228855, 0
729, 0.92063790706983, -0.19129042133551, 0
730, 0.9205809755063, -0.21846446353122, 0
731, 0.10503633728351, 0.27362647773007, 0
732, 0.10158428497578, -0.11101268897222, 0
733, 0.025336397729955, -0.083880757312784, 0
734, 0.026295867608464, 0.27337105568872, 0
735, 0.4447654400098, 0.19785307934785, 0
736, 0.20578903541796, 0.19362939108163, 0
737, 0.12694507009102, -0.11088382165567, 0
738, 0.12643212087639, -0.083246677886052, 0
739, 0.28207517476039, 0.16775626624146, 0
740, 0.34052393300813, 0.2475695761903, 0
741, 0.0253946095046, -0.0012369011270985, 0
742, 0.25109240880798, 0.030696115174473, 0
743, 0.6028615960629, 0.024898046053054, 0
744, 0.58780683536317, -0.087145749405521, 0
745, 0.59461344497136, -0.06217883744218, 0
746, 0.22914423102062, -0.13811266503331, 0
747, 0.23054902916048, -0.16561298218646, 0
748, 0.33011502802449, -0.13747486943488, 0
749, 0.35762723888449, -0.16477643203987, 0
750, 0.3322196068113, -0.1650163564545, 0
751, 0.89413900329354, -0.16401457916923, 0
752, 0.92064198417368, -0.16413667927849, 0
753, 0.2009858070908, 0.029354858943737, 0
754, 0.48929923962523, 0.066789151976813, 0
755, 0.2984249567493, -0.052651225803824, 0
756, 0.43182224294427, 0.073148989421394, 0
757, 0.075689680669395, -0.00039405676530581, 0
758, 0.89526480798917, 0.21783367185287, 0
759, 0.92133774266139, 0.2179931738982, 0
760, 0.73324622955813, -0.10884332174981, 0
761, 0.67890030910197, -0.10841734052078, 0
762, 0.70615046009421, -0.10857363936773, 0
763, 0.23328537422056, 0.22070577348896, 0
764, 0.58580621001358, 0.22074001852027, 0
765, 0.07617517330025, -0.11115493527265, 0
766, 0.100902882797, 0.11078276062739, 0
767, 0.22566753135031, 0.0020533480566079, 0
768, 0.077540268253821, -0.19291926334001, 0
769, 0.078125637073743, -0.21991699939433, 0
770, 0.40851329848359, -0.16518947104454, 0
771, 0.38305955814356, -0.16471861712921, 0
772, 0.86748414490085, -0.13679638060978, 0
773, 0.86764112133465, -0.16390475941068, 0
774, 0.3814246441754, 0.092653620942584, 0
775, 0.025047769477926, 0.13758501880774, 0
776, 0.86969262919526, 0.19005784663138, 0
777, 0.86927616169717, 0.2177547784547, 0
778, 0.74073103960665, 0.21728715867612, 0
779, 0.52784353098875, 0.27324098101556, 0
780, 0.84386456126284, 0.18992432349066, 0
781, 0.10265576135187, -0.16573321205526, 0
782, 0.12757337419428, -0.13836456583422, 0
783, 0.12830678989517, -0.16569723048968, 0
784, 0.29863648710283, -0.023587207424247, 0
785, 0.250538690775, 0.00278606718913, 0
786, 0.81355696504253, -0.082747904542393, 0
787, 0.78648272250827, -0.056079602777446, 0
788, 0.81369328097346, -0.029368055070378, 0
789, 0.8135258414789, -0.056045160775221, 0
790, 0.55414444706392, 0.27315517015338, 0
791, 0.86988292954893, 0.16232787217402, 0
792, 0.73917282003495, 0.24514215526322, 0
793, 0.15172159387975, 0.11139001214465, 0
794, 0.3449374190071, -0.050842167335014, 0
795, 0.38972242690521, 0.19627433264631, 0
796, 0.025390695992171, -0.056335427953712, 0
797, 0.050666148376687, -0.083786763361312, 0
798, 0.076963600192761, -0.1658018404781, 0
799, 0.12583390190739, 0.055876022071652, 0
800, 0.58778353784853, 0.16905602913668, 0
801, 0.20260761515319, 0.11213561645553, 0
802, 0.25481399550205, 0.14033064416437, 0
803, 0.050206729551162, 0.082451330626884, 0
804, 0.34779444000669, -0.080927718793484, 0
805, 0.60854431482773, 0.054595535666498, 0
806, 0.68040786159214, 0.022156525310746, 0
807, 0.2303118893737, 0.16694037871632, 0
808, 0.13033368775294, 0.24699921915837, 0
809, 0.84355592773098, 0.10659753877308, 0
810, 0.53102730135489, 0.19850450565479, 0
811, 0.84063376335888, -0.10967978718597, 0
812, 0.86731670551216, -0.10976843693215, 0
813, 0.27706820060613, 0.05928148082165, 0
814, 0.75940966789203, -0.029692538759666, 0
815, 0.7667564343597, 0.1332743260073, 0
816, 0.71634398108557, 0.16118368554984, 0
817, 0.55684279324549, 0.24722997612604, 0
818, 0.84263520834974, 0.24542520535386, 0
819, 0.74171418103635, 0.1611516346421, 0
820, 0.6769739898731, -0.0042225180265518, 0
821, 0.32643888969118, 0.034338953830067, 0
822, 0.32786998405598, 0.061810084152204, 0
823, 0.33265184849818, 0.14245564087082, 0
824, 0.62745158024444, 0.022703149582031, 0
825, 0.075586006244049, 0.027405143314514, 0
826, 0.39368670051509, 0.24767833509791, 0
827, 0.10083600775823, -0.027898475521615, 0
828, 0.75941723149043, -0.082531310137089, 0
829, 0.75929303152554, -0.056096326704181, 0
830, 0.20722167764081, 0.22050857112209, 0
831, 0.12607273025059, -0.055468341275592, 0
832, 0.81811643062274, 0.13395270632552, 0
833, 0.63839236310261, 0.21871352758419, 0
834, 0.1034335364006, 0.21994660871114, 0
835, 0.52051582566944, -0.15680163567824, 0
836, 0.65144547200639, -0.10855065239164, 0
837, 0.78709803722869, -0.10936713523485, 0
838, 0.7602206792389, -0.10912521225268, 0
839, 0.6614826881925, 0.077912097538862, 0
840, 0.78944921563207, 0.050789771267348, 0
841, 0.35902577545029, 0.14354957754735, 0
842, 0.79189950121274, 0.21756803372739, 0
843, 0.8138974724683, -0.10955141324017, 0
844, 0.33440276148817, 0.16887968856247, 0
845, 0.84229760080458, 0.051714614670608, 0
846, 0.79269230493513, 0.1615689079279, 0
847, 0.59578831008141, -0.11086691889525, 0
848, 0.46163933480493, -0.17394771657595, 0
849, 0.26138761646247, 0.24747532194762, 0
850, 0.33625012552983, 0.19516878701324, 0
851, 0.077595850462459, 0.21980584428456, 0
852, 0.65804228282822, 0.049773295535421, 0
853, 0.3709825155426, -0.080632155739164, 0
854, 0.27442980402663, -0.024619176643983, 0
855, 0.025292966689938, 0.026366709169552, 0
856, 0.43406943908318, -0.16685065898717, 0
857, 0.54993819316235, -0.1501930933928, 0
858, 0.66411754511516, 0.21800278196006, 0
859, 0.17750305360781, -0.11065071666648, 0
860, 0.36921101361404, -0.018395195996956, 0
861, 0.10186524446468, 0.16558781779361, 0
862, 0.20063637325448, -0.02654781871962, 0
863, 0.20075344342212, 0.0014744865593305, 0
864, 0.84097313989854, -0.0023671590991436, 0
865, 0.12630664672345, 0.11108084580487, 0
866, 0.71014495580994, 0.049487146361639, 0
867, 0.42861992475257, 0.046128075703758, 0
868, 0.41509915184265, 0.17186692910792, 0
869, 0.1757991097752, 0.0010075302835413, 0
870, 0.10129417128478, 0.13823916100026, 0
871, 0.5809316926823, -0.19372474251352, 0
872, 0.41699789960341, 0.19701092875006, 0
873, 0.44303130198345, -0.24640773519882, 0
874, 0.62802858563032, -0.1356209248503, 0
875, 0.52443480894501, -0.20140765260336, 0
876, 0.81493852637243, 0.024182347676327, 0
877, 0.73653912829031, 0.049840439635211, 0
878, 0.15313957061339, 0.16605332587054, 0
879, 0.050465772236906, 0.026965098641031, 0
880, 0.43716526539321, -0.19382552038593, 0
881, 0.36483881474129, 0.22161241605327, 0
882, 0.46748637997645, 0.1282692274806, 0
883, 0.40287921853425, 0.041774763260427, 0
884, 0.36283644492133, 0.19565825018697, 0
885, 0.2512204789676, -0.082232087700789, 0
886, 0.4187415730045, 0.22225198722428, 0
887, 0.63281466061767, 0.051180534984452, 0
888, 0.45841755161034, -0.14946214415539, 0
889, 0.65712446326413, -0.16230492657705, 0
890, 0.15411160331795, 0.19320002993479, 0
891, 0.30017909037814, 0.0049313009250406, 0
892, 0.32499985242234, 0.0064867988412456, 0
893, 0.34990440108878, 0.0084894668671895, 0
894, 0.37501876742994, 0.01105189788508, 0
895, 0.40051572488692, 0.014261074949359, 0
896, 0.45614356644362, -0.1251190337417, 0
897, 0.41524362200185, -0.0795374181174, 0
898, 0.40877921976306, -0.046599714387051, 0
899, 0.41381299024265, -0.0131527270676, 0
900, 0.42639587380195, 0.01794750968104, 0
******* E L E M E N T S *************
*ELEMENT, type=T3D2, ELSET=Line1
1, 1, 10
2, 10, 18
3, 18, 11
4, 11, 19
5, 19, 12
6, 12, 20
7, 20, 13
8, 13, 21
9, 21, 14
10, 14, 22
11, 22, 15
12, 15, 23
13, 23, 16
14, 16, 24
15, 24, 17
16, 17, 2
*ELEMENT, type=T3D2, ELSET=Line2
17, 2, 25
18, 25, 28
19, 28, 26
20, 26, 29
21, 29, 27
22, 27, 3
*ELEMENT, type=T3D2, ELSET=Line3
23, 3, 30
24, 30, 38
25, 38, 31
26, 31, 39
27, 39, 32
28, 32, 40
29, 40, 33
30, 33, 41
31, 41, 34
32, 34, 42
33, 42, 35
34, 35, 43
35, 43, 36
36, 36, 44
37, 44, 37
38, 37, 4
*ELEMENT, type=T3D2, ELSET=Line4
39, 4, 45
40, 45, 56
41, 56, 46
42, 46, 57
43, 57, 47
44, 47, 58
45, 58, 48
46, 48, 59
47, 59, 49
48, 49, 60
49, 60, 50
50, 50, 61
51, 61, 51
52, 51, 62
53, 62, 52
54, 52, 63
55, 63, 53
56, 53, 64
57, 64, 54
58, 54, 65
59, 65, 55
60, 55, 5
*ELEMENT, type=T3D2, ELSET=Line5
61, 5, 66
62, 66, 74
63, 74, 67
64, 67, 75
65, 75, 68
66, 68, 76
67, 76, 69
68, 69, 77
69, 77, 70
70, 70, 78
71, 78, 71
72, 71, 79
73, 79, 72
74, 72, 80
75, 80, 73
76, 73, 6
*ELEMENT, type=T3D2, ELSET=Line6
77, 6, 81
78, 81, 84
79, 84, 82
80, 82, 85
81, 85, 83
82, 83, 7
*ELEMENT, type=T3D2, ELSET=Line7
83, 7, 86
84, 86, 94
85, 94, 87
86, 87, 95
87, 95, 88
88, 88, 96
89, 96, 89
90, 89, 97
91, 97, 90
92, 90, 98
93, 98, 91
94, 91, 99
95, 99, 92
96, 92, 100
97, 100, 93
98, 93, 8
*ELEMENT, type=T3D2, ELSET=Line8
99, 8, 101
100, 101, 112
101, 112, 102
102, 102, 113
103, 113, 103
104, 103, 114
105, 114, 104
106, 104, 115
107, 115, 105
108, 105, 116
109, 116, 106
110, 106, 117
111, 117, 107
112, 107, 118
113, 118, 108
114, 108, 119
115, 119, 109
116, 109, 120
117, 120, 110
118, 110, 121
119, 121, 111
120, 111, 1
*ELEMENT, type=T3D2, ELSET=Line9
121, 9, 122
122, 122, 131
123, 131, 123
124, 123, 132
125, 132, 124
126, 124, 133
127, 133, 125
128, 125, 134
129, 134, 126
130, 126, 135
131, 135, 127
132, 127, 136
133, 136, 128
134, 128, 137
135, 137, 129
136, 129, 138
137, 138, 130
138, 130, 9
*ELEMENT, type=CPS4, ELSET=Surface1
139, 240, 334, 335, 332
140, 332, 335, 53, 64
141, 335, 333, 63, 53
142, 334, 236, 333, 335
143, 41, 338, 339, 33
144, 33, 339, 336, 40
145, 339, 337, 154, 336
146, 338, 155, 337, 339
147, 277, 342, 343, 340
148, 340, 343, 48, 59
149, 343, 341, 58, 48
150, 342, 298, 341, 343
151, 20, 13, 347, 344
152, 344, 347, 345, 144
153, 347, 346, 145, 345
154, 13, 21, 346, 347
155, 409, 491, 631, 859
156, 314, 216, 113, 103
157, 630, 643, 834, 401
158, 733, 118, 108, 632
159, 40, 336, 354, 32
160, 32, 354, 352, 39
161, 354, 353, 153, 352
162, 336, 154, 353, 354
163, 272, 357, 358, 355
164, 355, 358, 51, 62
165, 358, 356, 61, 51
166, 357, 275, 356, 358
167, 298, 360, 361, 341
168, 341, 361, 47, 58
169, 361, 359, 57, 47
170, 360, 307, 359, 361
171, 63, 333, 363, 52
172, 52, 363, 355, 62
173, 363, 362, 272, 355
174, 333, 236, 362, 363
175, 839, 258, 454, 320
176, 831, 167, 565, 738
177, 569, 723, 365, 720
178, 365, 492, 350, 799
179, 42, 35, 371, 368
180, 368, 371, 369, 156
181, 371, 370, 157, 369
182, 35, 43, 370, 371
183, 23, 374, 375, 15
184, 15, 375, 372, 22
185, 375, 373, 146, 372
186, 374, 149, 373, 375
187, 648, 195, 842, 465
188, 841, 471, 844, 823
189, 351, 90, 98, 682
190, 218, 757, 618, 827
191, 743, 824, 887, 805
192, 172, 506, 815, 616
193, 790, 81, 84, 779
194, 465, 842, 260, 609
195, 60, 385, 386, 49
196, 49, 386, 340, 59
197, 386, 384, 277, 340
198, 385, 279, 384, 386
199, 61, 356, 388, 50
200, 50, 388, 385, 60
201, 388, 387, 279, 385
202, 356, 275, 387, 388
203, 157, 370, 391, 389
204, 389, 391, 390, 158
205, 391, 36, 44, 390
206, 370, 43, 36, 391
207, 160, 172, 616, 535
208, 805, 268, 645, 141
209, 617, 472, 131, 122
210, 19, 12, 398, 396
211, 396, 398, 397, 143
212, 398, 344, 144, 397
213, 12, 20, 344, 398
214, 644, 83, 7, 190
215, 849, 173, 678, 683
216, 680, 211, 702, 793
217, 264, 238, 596, 426
218, 164, 632, 407, 210
219, 218, 162, 825, 757
220, 563, 807, 329, 194
221, 183, 95, 88, 486
222, 899, 898, 126, 134
223, 833, 858, 264, 323
224, 350, 865, 766, 180
225, 214, 312, 853, 252
226, 329, 736, 175, 641
227, 200, 629, 199, 196
228, 740, 318, 183, 198
229, 310, 620, 672, 739
230, 156, 413, 414, 368
231, 368, 414, 34, 42
232, 414, 338, 41, 34
233, 413, 155, 338, 414
234, 488, 875, 676, 666
235, 874, 699, 293, 606
236, 582, 290, 30, 38
237, 153, 663, 607, 352
238, 709, 251, 271, 824
239, 393, 381, 882, 399
240, 810, 533, 509, 685
241, 818, 443, 444, 647
242, 840, 427, 309, 234
243, 168, 364, 366, 423
244, 184, 827, 167, 831
245, 189, 879, 855, 741
246, 492, 793, 865, 350
247, 821, 822, 188, 625
248, 226, 400, 623, 349
249, 778, 465, 609, 792
250, 425, 234, 567, 506
251, 844, 850, 620, 310
252, 878, 890, 630, 700
253, 739, 672, 705, 379
254, 240, 432, 433, 334
255, 334, 433, 430, 236
256, 433, 431, 237, 430
257, 432, 239, 431, 433
258, 145, 436, 437, 345
259, 345, 437, 434, 144
260, 437, 435, 201, 434
261, 436, 204, 435, 437
262, 44, 37, 439, 390
263, 390, 439, 438, 158
264, 439, 45, 56, 438
265, 37, 4, 45, 439
266, 22, 372, 441, 14
267, 14, 441, 346, 21
268, 441, 440, 145, 346
269, 372, 146, 440, 441
270, 449, 536, 270, 381
271, 68, 444, 442, 75
272, 444, 443, 242, 442
273, 806, 408, 866, 580
274, 889, 606, 220, 295
275, 665, 140, 25, 28
276, 606, 293, 673, 220
277, 668, 317, 713, 496
278, 780, 776, 777, 233
279, 267, 779, 605, 591
280, 243, 613, 331, 380
281, 708, 245, 764, 163
282, 142, 452, 453, 451
283, 451, 453, 396, 143
284, 453, 11, 19, 396
285, 452, 18, 11, 453
286, 550, 184, 831, 169
287, 756, 230, 662, 704
288, 576, 859, 517, 207
289, 808, 174, 731, 489
290, 312, 794, 804, 853
291, 625, 188, 813, 192
292, 741, 855, 116, 106
293, 643, 808, 489, 834
294, 65, 55, 461, 459
295, 459, 461, 460, 241
296, 461, 66, 74, 460
297, 55, 5, 66, 461
298, 241, 460, 463, 462
299, 462, 463, 442, 242
300, 463, 67, 75, 442
301, 460, 74, 67, 463
302, 602, 754, 250, 621
303, 824, 271, 852, 887
304, 410, 259, 574, 395
305, 380, 602, 124, 132
306, 119, 109, 468, 407
307, 407, 468, 466, 210
308, 468, 467, 203, 466
309, 109, 120, 467, 468
310, 494, 140, 873, 139
311, 848, 856, 880, 667
312, 295, 220, 328, 416
313, 570, 889, 295, 296
314, 693, 198, 585, 229
315, 245, 833, 323, 246
316, 869, 652, 550, 726
317, 870, 861, 308, 701
318, 785, 742, 562, 767
319, 834, 489, 530, 851
320, 608, 897, 252, 327
321, 159, 192, 742, 785
322, 64, 54, 476, 332
323, 332, 476, 475, 240
324, 476, 459, 241, 475
325, 54, 65, 459, 476
326, 273, 479, 480, 477
327, 477, 480, 357, 272
328, 480, 478, 275, 357
329, 479, 274, 478, 480
330, 148, 482, 483, 481
331, 481, 483, 16, 24
332, 483, 374, 23, 16
333, 482, 149, 374, 483
334, 121, 111, 485, 484
335, 484, 485, 452, 142
336, 485, 10, 18, 452
337, 111, 1, 10, 485
338, 229, 585, 849, 659
339, 898, 214, 252, 897
340, 724, 718, 206, 690
341, 249, 660, 612, 603
342, 495, 324, 875, 488
343, 296, 295, 416, 540
344, 220, 673, 469, 328
345, 674, 495, 488, 871
346, 899, 579, 214, 898
347, 718, 586, 746, 206
348, 185, 694, 681, 330
349, 186, 644, 190, 677
350, 813, 473, 400, 226
351, 490, 186, 677, 886
352, 260, 590, 419, 560
353, 823, 844, 310, 228
354, 663, 714, 582, 607
355, 857, 835, 324, 495
356, 581, 445, 292, 291
357, 24, 17, 498, 481
358, 481, 498, 497, 148
359, 498, 494, 139, 497
360, 17, 2, 494, 498
361, 236, 430, 500, 362
362, 362, 500, 477, 272
363, 500, 499, 273, 477
364, 430, 237, 499, 500
365, 237, 503, 504, 499
366, 499, 504, 501, 273
367, 381, 270, 587, 882
368, 764, 661, 817, 539
369, 464, 685, 534, 505
370, 394, 864, 166, 876
371, 313, 399, 230, 756
372, 603, 612, 178, 615
373, 158, 438, 511, 510
374, 510, 511, 359, 307
375, 511, 46, 57, 359
376, 438, 56, 46, 511
377, 277, 514, 515, 342
378, 342, 515, 512, 298
379, 515, 513, 299, 512
380, 514, 276, 513, 515
381, 204, 518, 519, 435
382, 435, 519, 516, 201
383, 519, 517, 208, 516
384, 518, 207, 517, 519
385, 155, 522, 523, 337
386, 337, 523, 520, 154
387, 523, 521, 304, 520
388, 522, 303, 521, 523
389, 279, 525, 526, 384
390, 384, 526, 514, 277
391, 526, 524, 276, 514
392, 525, 278, 524, 526
393, 120, 110, 528, 467
394, 467, 528, 527, 203
395, 528, 484, 142, 527
396, 110, 121, 484, 528
397, 695, 212, 170, 457
398, 616, 815, 604, 819
399, 872, 886, 165, 795
400, 893, 619, 821, 892
401, 743, 805, 141, 593
402, 257, 85, 83, 644
403, 377, 6, 81, 790
404, 419, 647, 76, 69
405, 256, 233, 818, 590
406, 233, 777, 443, 818
407, 376, 265, 186, 490
408, 605, 82, 85, 257
409, 154, 520, 542, 353
410, 353, 542, 540, 153
411, 542, 541, 296, 540
412, 520, 304, 541, 542
413, 278, 545, 546, 524
414, 524, 546, 543, 276
415, 546, 544, 280, 543
416, 545, 285, 544, 546
417, 865, 549, 870, 766
418, 684, 161, 721, 619
419, 592, 780, 233, 256
420, 851, 530, 364, 168
421, 305, 553, 554, 551
422, 551, 554, 369, 157
423, 554, 552, 156, 369
424, 553, 306, 552, 554
425, 302, 557, 558, 555
426, 555, 558, 556, 301
427, 558, 521, 303, 556
428, 557, 304, 521, 558
429, 273, 501, 561, 479
430, 479, 561, 559, 274
431, 611, 800, 248, 455
432, 322, 455, 536, 449
433, 548, 191, 724, 232
434, 694, 404, 868, 681
435, 235, 839, 320, 589
436, 560, 419, 69, 77
437, 774, 319, 212, 695
438, 487, 231, 471, 841
439, 196, 199, 576, 586
440, 763, 683, 640, 830
441, 304, 557, 572, 541
442, 541, 572, 570, 296
443, 572, 571, 294, 570
444, 557, 302, 571, 572
445, 573, 426, 72, 80
446, 163, 764, 539, 502
447, 661, 377, 790, 817
448, 392, 876, 427, 840
449, 700, 630, 401, 861
450, 891, 625, 192, 159
451, 619, 721, 822, 821
452, 819, 604, 648, 382
453, 225, 657, 770, 856
454, 291, 292, 27, 3
455, 415, 847, 699, 874
456, 151, 417, 857, 325
457, 306, 583, 584, 552
458, 552, 584, 413, 156
459, 584, 522, 155, 413
460, 583, 303, 522, 584
461, 217, 351, 682, 529
462, 367, 218, 827, 184
463, 192, 813, 226, 742
464, 162, 176, 493, 825
465, 617, 709, 824, 743
466, 709, 150, 507, 251
467, 805, 887, 235, 268
468, 418, 263, 710, 877
469, 394, 788, 285, 864
470, 533, 267, 591, 509
471, 502, 539, 533, 810
472, 251, 507, 286, 820
473, 245, 246, 661, 764
474, 589, 320, 660, 249
475, 380, 331, 754, 602
476, 645, 421, 322, 259
477, 300, 598, 599, 597
478, 597, 599, 583, 306
479, 599, 556, 303, 583
480, 598, 301, 556, 599
481, 275, 478, 601, 387
482, 387, 601, 525, 279
483, 601, 600, 278, 525
484, 478, 274, 600, 601
485, 399, 882, 185, 230
486, 427, 845, 703, 309
487, 864, 285, 545, 622
488, 820, 262, 408, 806
489, 219, 880, 856, 770
490, 445, 668, 496, 292
491, 470, 667, 675, 297
492, 270, 464, 505, 587
493, 472, 243, 123, 131
494, 864, 622, 559, 166
495, 647, 444, 68, 76
496, 532, 603, 615, 708
497, 613, 410, 395, 331
498, 882, 587, 694, 185
499, 505, 534, 735, 404
500, 247, 810, 685, 464
501, 250, 313, 756, 867
502, 534, 376, 490, 735
503, 610, 420, 780, 592
504, 621, 250, 867, 900
505, 315, 244, 392, 263
506, 577, 508, 611, 421
507, 710, 840, 234, 425
508, 215, 669, 885, 191
509, 471, 884, 850, 844
510, 885, 196, 586, 718
511, 704, 662, 774, 161
512, 274, 559, 622, 600
513, 600, 622, 545, 278
514, 246, 383, 377, 661
515, 244, 284, 788, 394
516, 816, 819, 382, 227
517, 179, 719, 200, 669
518, 736, 830, 171, 175
519, 402, 701, 182, 458
520, 143, 397, 628, 626
521, 626, 628, 627, 202
522, 628, 434, 201, 627
523, 397, 144, 434, 628
524, 868, 872, 795, 231
525, 867, 756, 704, 883
526, 850, 181, 693, 620
527, 896, 888, 698, 448
528, 149, 635, 636, 373
529, 373, 636, 633, 146
530, 636, 634, 205, 633
531, 635, 222, 634, 636
532, 458, 182, 775, 422
533, 615, 178, 858, 833
534, 227, 382, 778, 321
535, 639, 117, 107, 796
536, 308, 424, 638, 671
537, 195, 592, 256, 842
538, 575, 832, 610, 846
539, 261, 578, 412, 794
540, 876, 166, 845, 427
541, 271, 806, 580, 852
542, 472, 593, 613, 243
543, 262, 707, 418, 408
544, 723, 213, 492, 365
545, 529, 682, 174, 808
546, 830, 640, 217, 171
547, 612, 429, 537, 178
548, 286, 507, 656, 653
549, 653, 656, 654, 287
550, 656, 655, 288, 654
551, 507, 150, 655, 656
552, 171, 217, 529, 411
553, 330, 681, 487, 319
554, 784, 854, 215, 755
555, 405, 97, 90, 351
556, 383, 573, 80, 73
557, 898, 897, 135, 126
558, 180, 766, 402, 651
559, 608, 127, 135, 897
560, 673, 871, 447, 469
561, 744, 847, 415, 288
562, 325, 857, 495, 674
563, 496, 713, 26, 29
564, 676, 297, 317, 668
565, 761, 836, 152, 294
566, 225, 856, 848, 888
567, 875, 470, 297, 676
568, 737, 732, 209, 782
569, 531, 425, 506, 172
570, 258, 450, 160, 454
571, 632, 108, 119, 407
572, 675, 326, 873, 289
573, 607, 582, 38, 31
574, 540, 416, 663, 153
575, 297, 675, 289, 317
576, 624, 422, 104, 115
577, 853, 804, 679, 348
578, 702, 878, 700, 549
579, 795, 165, 881, 884
580, 631, 737, 782, 208
581, 568, 739, 379, 802
582, 662, 330, 319, 774
583, 474, 177, 797, 649
584, 892, 821, 625, 891
585, 348, 679, 224, 311
586, 238, 266, 253, 596
587, 652, 367, 184, 550
588, 283, 646, 688, 686
589, 686, 688, 687, 282
590, 688, 653, 287, 687
591, 646, 286, 653, 688
592, 222, 691, 692, 634
593, 634, 692, 689, 205
594, 692, 690, 206, 689
595, 691, 223, 690, 692
596, 491, 738, 737, 631
597, 845, 561, 501, 703
598, 174, 91, 99, 731
599, 672, 229, 659, 705
600, 801, 194, 211, 680
601, 742, 226, 349, 562
602, 618, 725, 177, 474
603, 862, 726, 456, 629
604, 486, 88, 96, 173
605, 683, 678, 405, 640
606, 188, 193, 473, 813
607, 682, 98, 91, 174
608, 328, 469, 664, 714
609, 657, 311, 771, 770
610, 2, 25, 140, 494
611, 327, 252, 853, 348
612, 169, 831, 738, 491
613, 216, 423, 102, 113
614, 266, 792, 614, 253
615, 535, 616, 819, 816
616, 842, 256, 590, 260
617, 669, 200, 196, 885
618, 187, 86, 94, 650
619, 726, 550, 169, 456
620, 408, 418, 877, 866
621, 251, 820, 806, 271
622, 617, 122, 9, 595
623, 707, 283, 814, 315
624, 146, 633, 712, 440
625, 440, 712, 436, 145
626, 712, 711, 204, 436
627, 633, 205, 711, 712
628, 129, 417, 151, 138
629, 835, 698, 147, 324
630, 713, 665, 28, 26
631, 289, 873, 140, 665
632, 219, 716, 717, 697
633, 697, 717, 497, 139
634, 717, 715, 148, 497
635, 716, 221, 715, 717
636, 316, 535, 816, 429
637, 198, 183, 486, 585
638, 807, 642, 736, 329
639, 230, 185, 330, 662
640, 658, 100, 93, 734
641, 231, 795, 884, 471
642, 197, 548, 232, 706
643, 489, 731, 722, 530
644, 175, 171, 411, 890
645, 604, 846, 195, 648
646, 189, 741, 639, 725
647, 268, 235, 589, 577
648, 890, 411, 643, 630
649, 182, 671, 314, 775
650, 651, 402, 458, 803
651, 640, 405, 351, 217
652, 221, 727, 728, 715
653, 715, 728, 482, 148
654, 728, 635, 149, 482
655, 727, 222, 635, 728
656, 307, 729, 730, 510
657, 510, 730, 389, 158
658, 730, 551, 157, 389
659, 729, 305, 551, 730
660, 855, 547, 105, 116
661, 802, 379, 807, 563
662, 167, 474, 649, 565
663, 803, 458, 422, 624
664, 757, 825, 879, 189
665, 366, 734, 101, 112
666, 861, 401, 424, 308
667, 670, 799, 176, 162
668, 199, 409, 859, 576
669, 894, 684, 619, 893
670, 411, 529, 808, 643
671, 701, 308, 671, 182
672, 678, 89, 97, 405
673, 309, 703, 809, 594
674, 863, 753, 569, 869
675, 732, 765, 564, 209
676, 9, 130, 745, 595
677, 595, 745, 655, 150
678, 745, 744, 288, 655
679, 130, 138, 744, 745
680, 205, 689, 747, 711
681, 711, 747, 518, 204
682, 747, 746, 207, 518
683, 689, 206, 746, 747
684, 221, 749, 750, 727
685, 727, 750, 691, 222
686, 750, 748, 223, 691
687, 749, 224, 748, 750
688, 298, 512, 752, 360
689, 360, 752, 729, 307
690, 752, 751, 305, 729
691, 512, 299, 751, 752
692, 422, 775, 114, 104
693, 866, 877, 531, 450
694, 641, 175, 890, 878
695, 578, 784, 755, 412
696, 900, 899, 134, 125
697, 382, 648, 465, 778
698, 815, 575, 846, 604
699, 706, 232, 223, 748
700, 242, 758, 759, 462
701, 462, 759, 475, 241
702, 759, 432, 240, 475
703, 758, 239, 432, 759
704, 282, 687, 762, 760
705, 760, 762, 571, 302
706, 762, 761, 294, 571
707, 687, 287, 761, 762
708, 493, 651, 803, 637
709, 796, 107, 118, 733
710, 530, 722, 658, 364
711, 642, 763, 830, 736
712, 565, 649, 765, 732
713, 367, 670, 162, 218
714, 671, 638, 216, 314
715, 755, 215, 191, 548
716, 203, 527, 769, 768
717, 768, 769, 626, 202
718, 769, 451, 143, 626
719, 527, 142, 451, 769
720, 219, 770, 771, 716
721, 716, 771, 749, 221
722, 771, 311, 224, 749
723, 896, 448, 128, 136
724, 306, 553, 773, 597
725, 597, 773, 772, 300
726, 773, 751, 299, 772
727, 553, 305, 751, 773
728, 450, 531, 172, 160
729, 579, 860, 312, 214
730, 401, 834, 851, 424
731, 721, 695, 457, 822
732, 239, 758, 777, 776
733, 263, 392, 840, 710
734, 509, 591, 265, 376
735, 758, 242, 443, 777
736, 820, 286, 646, 262
737, 887, 852, 839, 235
738, 262, 646, 283, 707
739, 877, 710, 425, 531
740, 201, 516, 783, 627
741, 627, 783, 781, 202
742, 783, 782, 209, 781
743, 516, 208, 782, 783
744, 403, 568, 802, 428
745, 822, 457, 193, 188
746, 895, 883, 684, 894
747, 708, 615, 833, 245
748, 285, 788, 789, 544
749, 544, 789, 786, 280
750, 789, 787, 281, 786
751, 788, 284, 787, 789
752, 587, 505, 404, 694
753, 776, 791, 431, 239
754, 791, 503, 237, 431
755, 455, 248, 247, 536
756, 428, 802, 563, 566
757, 705, 659, 763, 642
758, 456, 169, 491, 409
759, 679, 706, 748, 224
760, 406, 228, 568, 403
761, 637, 803, 624, 547
762, 765, 164, 210, 564
763, 741, 106, 117, 639
764, 210, 466, 798, 564
765, 564, 798, 781, 209
766, 798, 768, 202, 781
767, 466, 203, 768, 798
768, 879, 637, 547, 855
769, 886, 677, 826, 165
770, 508, 249, 603, 532
771, 883, 704, 161, 684
772, 567, 594, 832, 575
773, 379, 705, 642, 807
774, 364, 658, 734, 366
775, 860, 261, 794, 312
776, 621, 900, 125, 133
777, 593, 141, 410, 613
778, 395, 574, 393, 538
779, 532, 708, 163, 800
780, 194, 329, 641, 211
781, 735, 490, 886, 872
782, 190, 7, 86, 187
783, 652, 720, 670, 367
784, 539, 817, 267, 533
785, 536, 247, 464, 270
786, 703, 501, 504, 809
787, 276, 543, 812, 513
788, 513, 812, 772, 299
789, 812, 811, 300, 772
790, 543, 280, 811, 812
791, 608, 896, 136, 127
792, 506, 567, 575, 815
793, 794, 412, 197, 804
794, 826, 187, 650, 378
795, 269, 560, 77, 70
796, 315, 814, 284, 244
797, 248, 502, 810, 247
798, 809, 504, 503, 588
799, 800, 163, 502, 248
800, 792, 609, 269, 614
801, 383, 73, 6, 377
802, 538, 393, 399, 313
803, 767, 562, 753, 863
804, 170, 823, 228, 406
805, 753, 696, 723, 569
806, 255, 321, 266, 238
807, 141, 645, 259, 410
808, 268, 577, 421, 645
809, 685, 509, 376, 534
810, 508, 532, 800, 611
811, 404, 735, 872, 868
812, 457, 170, 406, 193
813, 731, 99, 92, 722
814, 228, 310, 739, 568
815, 283, 686, 829, 814
816, 814, 829, 787, 284
817, 829, 828, 281, 787
818, 686, 282, 828, 829
819, 594, 809, 588, 832
820, 596, 253, 71, 79
821, 766, 870, 701, 402
822, 623, 566, 801, 254
823, 421, 611, 455, 322
824, 420, 791, 776, 780
825, 243, 380, 132, 123
826, 779, 84, 82, 605
827, 881, 378, 740, 181
828, 173, 96, 89, 678
829, 254, 801, 680, 213
830, 319, 487, 841, 212
831, 697, 326, 880, 219
832, 469, 447, 581, 664
833, 888, 848, 147, 698
834, 301, 837, 838, 555
835, 555, 838, 760, 302
836, 838, 828, 282, 760
837, 837, 281, 828, 838
838, 620, 693, 229, 672
839, 696, 254, 213, 723
840, 677, 190, 187, 826
841, 213, 680, 793, 492
842, 301, 598, 843, 837
843, 837, 843, 786, 281
844, 843, 811, 280, 786
845, 598, 300, 811, 843
846, 804, 197, 706, 679
847, 424, 851, 168, 638
848, 165, 826, 378, 881
849, 660, 316, 429, 612
850, 754, 538, 313, 250
851, 707, 315, 263, 418
852, 244, 394, 876, 392
853, 591, 605, 257, 265
854, 152, 874, 606, 889
855, 147, 848, 667, 470
856, 871, 488, 666, 447
857, 318, 87, 95, 183
858, 176, 180, 651, 493
859, 412, 755, 548, 197
860, 734, 93, 8, 101
861, 846, 610, 592, 195
862, 320, 454, 316, 660
863, 349, 623, 254, 696
864, 566, 563, 194, 801
865, 884, 881, 181, 850
866, 193, 406, 403, 473
867, 588, 503, 791, 420
868, 614, 269, 70, 78
869, 294, 152, 889, 570
870, 667, 880, 326, 675
871, 426, 596, 79, 72
872, 617, 595, 150, 709
873, 265, 257, 644, 186
874, 331, 395, 538, 754
875, 681, 868, 231, 487
876, 825, 493, 637, 879
877, 378, 650, 318, 740
878, 253, 614, 78, 71
879, 797, 733, 632, 164
880, 423, 366, 112, 102
881, 454, 160, 535, 316
882, 793, 702, 549, 865
883, 638, 168, 423, 216
884, 181, 740, 198, 693
885, 609, 260, 560, 269
886, 659, 849, 683, 763
887, 608, 225, 888, 896
888, 854, 179, 669, 215
889, 725, 639, 796, 177
890, 900, 867, 883, 895
891, 585, 486, 173, 849
892, 537, 227, 321, 255
893, 859, 631, 208, 517
894, 246, 323, 573, 383
895, 400, 428, 566, 623
896, 178, 537, 255, 858
897, 757, 189, 725, 618
898, 549, 700, 861, 870
899, 664, 581, 291, 290
900, 290, 291, 3, 30
901, 714, 664, 290, 582
902, 138, 151, 847, 744
903, 323, 264, 426, 573
904, 799, 350, 180, 176
905, 775, 314, 103, 114
906, 161, 774, 695, 721
907, 666, 676, 668, 445
908, 446, 448, 698, 835
909, 836, 415, 874, 152
910, 288, 415, 836, 654
911, 139, 873, 326, 697
912, 352, 607, 31, 39
913, 293, 674, 871, 673
914, 417, 446, 835, 857
915, 137, 446, 417, 129
916, 574, 449, 381, 393
917, 602, 621, 133, 124
918, 259, 322, 449, 574
919, 577, 589, 249, 508
920, 738, 565, 732, 737
921, 832, 588, 420, 610
922, 429, 816, 227, 537
923, 191, 885, 718, 724
924, 847, 151, 325, 699
925, 317, 289, 665, 713
926, 324, 147, 470, 875
927, 447, 666, 445, 581
928, 650, 94, 87, 318
929, 211, 641, 878, 702
930, 719, 862, 629, 200
931, 321, 778, 792, 266
932, 234, 309, 594, 567
933, 166, 559, 561, 845
934, 852, 580, 258, 839
935, 858, 255, 238, 264
936, 649, 797, 164, 765
937, 720, 365, 799, 670
938, 562, 349, 696, 753
939, 586, 576, 207, 746
940, 722, 92, 100, 658
941, 473, 403, 428, 400
942, 869, 569, 720, 652
943, 177, 796, 733, 797
944, 590, 818, 647, 419
945, 608, 327, 657, 225
946, 292, 496, 29, 27
947, 699, 325, 674, 293
948, 827, 618, 474, 167
949, 232, 724, 690, 223
950, 817, 790, 779, 267
951, 617, 743, 593, 472
952, 580, 866, 450, 258
953, 128, 448, 446, 137
954, 327, 348, 311, 657
955, 654, 836, 761, 287
956, 416, 328, 714, 663
957, 629, 456, 409, 199
958, 547, 624, 115, 105
959, 212, 841, 823, 170
960, 863, 869, 726, 862
961, 767, 863, 862, 719
962, 785, 767, 719, 179
963, 159, 785, 179, 854
964, 891, 159, 854, 784
965, 892, 891, 784, 578
966, 893, 892, 578, 261
967, 894, 893, 261, 860
968, 895, 894, 860, 579
969, 900, 895, 579, 899
*ELSET,ELSET=contact_source
99, 100, 101, 102, 103, 104, 105, 106, 107, 108, 
109, 110, 111, 112, 113, 114, 115, 116, 117, 118, 
119, 120, 
*ELSET,ELSET=contact_drain
39, 40, 41, 42, 43, 44, 45, 46, 47, 48, 
49, 50, 51, 52, 53, 54, 55, 56, 57, 58, 
59, 60, 
*ELSET,ELSET=probe_A
77, 78, 79, 80, 81, 82, 
*ELSET,ELSET=probe_B
17, 18, 19, 20, 21, 22, 
*ELSET,ELSET=walls
1, 2, 3, 4, 5, 6, 7, 8, 9, 10, 
11, 12, 13, 14, 15, 16, 23, 24, 25, 26, 
27, 28, 29, 30, 31, 32, 33, 34, 35, 36, 
37, 38, 61, 62, 63, 64, 65, 66, 67, 68, 
69, 70, 71, 72, 73, 74, 75, 76, 83, 84, 
85, 86, 87, 88, 89, 90, 91, 92, 93, 94, 
95, 96, 97, 98, 121, 122, 123, 124, 125, 126, 
127, 128, 129, 130, 131, 132, 133, 134, 135, 136, 
137, 138, 
*ELSET,ELSET=domain
139, 140, 141, 142, 143, 144, 145, 146, 147, 148, 
149, 150, 151, 152, 153, 154, 155, 156, 157, 158, 
159, 160, 161, 162, 163, 164, 165, 166, 167, 168, 
169, 170, 171, 172, 173, 174, 175, 176, 177, 178, 
179, 180, 181, 182, 183, 184, 185, 186, 187, 188, 
189, 190, 191, 192, 193, 194, 195, 196, 197, 198, 
199, 200, 201, 202, 203, 204, 205, 206, 207, 208, 
209, 210, 211, 212, 213, 214, 215, 216, 217, 218, 
219, 220, 221, 222, 223, 224, 225, 226, 227, 228, 
229, 230, 231, 232, 233, 234, 235, 236, 237, 238, 
239, 240, 241, 242, 243, 244, 245, 246, 247, 248, 
249, 250, 251, 252, 253, 254, 255, 256, 257, 258, 
259, 260, 261, 262, 263, 264, 265, 266, 267, 268, 
269, 270, 271, 272, 273, 274, 275, 276, 277, 278, 
279, 280, 281, 282, 283, 284, 285, 286, 287, 288, 
289, 290, 291, 292, 293, 294, 295, 296, 297, 298, 
299, 300, 301, 302, 303, 304, 305, 306, 307, 308, 
309, 310, 311, 312, 313, 314, 315, 316, 317, 318, 
319, 320, 321, 322, 323, 324, 325, 326, 327, 328, 
329, 330, 331, 332, 333, 334, 335, 336, 337, 338, 
339, 340, 341, 342, 343, 344, 345, 346, 347, 348, 
349, 350, 351, 352, 353, 354, 355, 356, 357, 358, 
359, 360, 361, 362, 363, 364, 365, 366, 367, 368, 
369, 370, 371, 372, 373, 374, 375, 376, 377, 378, 
379, 380, 381, 382, 383, 384, 385, 386, 387, 388, 
389, 390, 391, 392, 393, 394, 395, 396, 397, 398, 
399, 400, 401, 402, 403, 404, 405, 406, 407, 408, 
409, 410, 411, 412, 413, 414, 415, 416, 417, 418, 
419, 420, 421, 422, 423, 424, 425, 426, 427, 428, 
429, 430, 431, 432, 433, 434, 435, 436, 437, 438, 
439, 440, 441, 442, 443, 444, 445, 446, 447, 448, 
449, 450, 451, 452, 453, 454, 455, 456, 457, 458, 
459, 460, 461, 462, 463, 464, 465, 466, 467, 468, 
469, 470, 471, 472, 473, 474, 475, 476, 477, 478, 
479, 480, 481, 482, 483, 484, 485, 486, 487, 488, 
489, 490, 491, 492, 493, 494, 495, 496, 497, 498, 
499, 500, 501, 502, 503, 504, 505, 506, 507, 508, 
509, 510, 511, 512, 513, 514, 515, 516, 517, 518, 
519, 520, 521, 522, 523, 524, 525, 526, 527, 528, 
529, 530, 531, 532, 533, 534, 535, 536, 537, 538, 
539, 540, 541, 542, 543, 544, 545, 546, 547, 548, 
549, 550, 551, 552, 553, 554, 555, 556, 557, 558, 
559, 560, 561, 562, 563, 564, 565, 566, 567, 568, 
569, 570, 571, 572, 573, 574, 575, 576, 577, 578, 
579, 580, 581, 582, 583, 584, 585, 586, 587, 588, 
589, 590, 591, 592, 593, 594, 595, 596, 597, 598, 
599, 600, 601, 602, 603, 604, 605, 606, 607, 608, 
609, 610, 611, 612, 613, 614, 615, 616, 617, 618, 
619, 620, 621, 622, 623, 624, 625, 626, 627, 628, 
629, 630, 631, 632, 633, 634, 635, 636, 637, 638, 
639, 640, 641, 642, 643, 644, 645, 646, 647, 648, 
649, 650, 651, 652, 653, 654, 655, 656, 657, 658, 
659, 660, 661, 662, 663, 664, 665, 666, 667, 668, 
669, 670, 671, 672, 673, 674, 675, 676, 677, 678, 
679, 680, 681, 682, 683, 684, 685, 686, 687, 688, 
689, 690, 691, 692, 693, 694, 695, 696, 697, 698, 
699, 700, 701, 702, 703, 704, 705, 706, 707, 708, 
709, 710, 711, 712, 713, 714, 715, 716, 717, 718, 
719, 720, 721, 722, 723, 724, 725, 726, 727, 728, 
729, 730, 731, 732, 733, 734, 735, 736, 737, 738, 
739, 740, 741, 742, 743, 744, 745, 746, 747, 748, 
749, 750, 751, 752, 753, 754, 755, 756, 757, 758, 
759, 760, 761, 762, 763, 764, 765, 766, 767, 768, 
769, 770, 771, 772, 773, 774, 775, 776, 777, 778, 
779, 780, 781, 782, 783, 784, 785, 786, 787, 788, 
789, 790, 791, 792, 793, 794, 795, 796, 797, 798, 
799, 800, 801, 802, 803, 804, 805, 806, 807, 808, 
809, 810, 811, 812, 813, 814, 815, 816, 817, 818, 
819, 820, 821, 822, 823, 824, 825, 826, 827, 828, 
829, 830, 831, 832, 833, 834, 835, 836, 837, 838, 
839, 840, 841, 842, 843, 844, 845, 846, 847, 848, 
849, 850, 851, 852, 853, 854, 855, 856, 857, 858, 
859, 860, 861, 862, 863, 864, 865, 866, 867, 868, 
869, 870, 871, 872, 873, 874, 875, 876, 877, 878, 
879, 880, 881, 882, 883, 884, 885, 886, 887, 888, 
889, 890, 891, 892, 893, 894, 895, 896, 897, 898, 
899, 900, 901, 902, 903, 904, 905, 906, 907, 908, 
909, 910, 911, 912, 913, 914, 915, 916, 917, 918, 
919, 920, 921, 922, 923, 924, 925, 926, 927, 928, 
929, 930, 931, 932, 933, 934, 935, 936, 937, 938, 
939, 940, 941, 942, 943, 944, 945, 946, 947, 948, 
949, 950, 951, 952, 953, 954, 955, 956, 957, 958, 
959, 960, 961, 962, 963, 964, 965, 966, 967, 968, 
969, 
*NSET,NSET=contact_source
1, 8, 101, 102, 103, 104, 105, 106, 107, 108, 
109, 110, 111, 112, 113, 114, 115, 116, 117, 118, 
119, 120, 121, 
*NSET,NSET=contact_drain
4, 5, 45, 46, 47, 48, 49, 50, 51, 52, 
53, 54, 55, 56, 57, 58, 59, 60, 61, 62, 
63, 64, 65, 
*NSET,NSET=probe_A
6, 7, 81, 82, 83, 84, 85, 
*NSET,NSET=probe_B
2, 3, 25, 26, 27, 28, 29, 
*NSET,NSET=walls
1, 2, 3, 4, 5, 6, 7, 8, 9, 10, 
11, 12, 13, 14, 15, 16, 17, 18, 19, 20, 
21, 22, 23, 24, 30, 31, 32, 33, 34, 35, 
36, 37, 38, 39, 40, 41, 42, 43, 44, 66, 
67, 68, 69, 70, 71, 72, 73, 74, 75, 76, 
77, 78, 79, 80, 86, 87, 88, 89, 90, 91, 
92, 93, 94, 95, 96, 97, 98, 99, 100, 122, 
123, 124, 125, 126, 127, 128, 129, 130, 131, 132, 
133, 134, 135, 136, 137, 138, 
*NSET,NSET=domain
1, 2, 3, 4, 5, 6, 7, 8, 9, 10, 
11, 12, 13, 14, 15, 16, 17, 18, 19, 20, 
21, 22, 23, 24, 25, 26, 27, 28, 29, 30, 
31, 32, 33, 34, 35, 36, 37, 38, 39, 40, 
41, 42, 43, 44, 45, 46, 47, 48, 49, 50, 
51, 52, 53, 54, 55, 56, 57, 58, 59, 60, 
61, 62, 63, 64, 65, 66, 67, 68, 69, 70, 
71, 72, 73, 74, 75, 76, 77, 78, 79, 80, 
81, 82, 83, 84, 85, 86, 87, 88, 89, 90, 
91, 92, 93, 94, 95, 96, 97, 98, 99, 100, 
101, 102, 103, 104, 105, 106, 107, 108, 109, 110, 
111, 112, 113, 114, 115, 116, 117, 118, 119, 120, 
121, 122, 123, 124, 125, 126, 127, 128, 129, 130, 
131, 132, 133, 134, 135, 136, 137, 138, 139, 140, 
141, 142, 143, 144, 145, 146, 147, 148, 149, 150, 
151, 152, 153, 154, 155, 156, 157, 158, 159, 160, 
161, 162, 163, 164, 165, 166, 167, 168, 169, 170, 
171, 172, 173, 174, 175, 176, 177, 178, 179, 180, 
181, 182, 183, 184, 185, 186, 187, 188, 189, 190, 
191, 192, 193, 194, 195, 196, 197, 198, 199, 200, 
201, 202, 203, 204, 205, 206, 207, 208, 209, 210, 
211, 212, 213, 214, 215, 216, 217, 218, 219, 220, 
221, 222, 223, 224, 225, 226, 227, 228, 229, 230, 
231, 232, 233, 234, 235, 236, 237, 238, 239, 240, 
241, 242, 243, 244, 245, 246, 247, 248, 249, 250, 
251, 252, 253, 254, 255, 256, 257, 258, 259, 260, 
261, 262, 263, 264, 265, 266, 267, 268, 269, 270, 
271, 272, 273, 274, 275, 276, 277, 278, 279, 280, 
281, 282, 283, 284, 285, 286, 287, 288, 289, 290, 
291, 292, 293, 294, 295, 296, 297, 298, 299, 300, 
301, 302, 303, 304, 305, 306, 307, 308, 309, 310, 
311, 312, 313, 314, 315, 316, 317, 318, 319, 320, 
321, 322, 323, 324, 325, 326, 327, 328, 329, 330, 
331, 332, 333, 334, 335, 336, 337, 338, 339, 340, 
341, 342, 343, 344, 345, 346, 347, 348, 349, 350, 
351, 352, 353, 354, 355, 356, 357, 358, 359, 360, 
361, 362, 363, 364, 365, 366, 367, 368, 369, 370, 
371, 372, 373, 374, 375, 376, 377, 378, 379, 380, 
381, 382, 383, 384, 385, 386, 387, 388, 389, 390, 
391, 392, 393, 394, 395, 396, 397, 398, 399, 400, 
401, 402, 403, 404, 405, 406, 407, 408, 409, 410, 
411, 412, 413, 414, 415, 416, 417, 418, 419, 420, 
421, 422, 423, 424, 425, 426, 427, 428, 429, 430, 
431, 432, 433, 434, 435, 436, 437, 438, 439, 440, 
441, 442, 443, 444, 445, 446, 447, 448, 449, 450, 
451, 452, 453, 454, 455, 456, 457, 458, 459, 460, 
461, 462, 463, 464, 465, 466, 467, 468, 469, 470, 
471, 472, 473, 474, 475, 476, 477, 478, 479, 480, 
481, 482, 483, 484, 485, 486, 487, 488, 489, 490, 
491, 492, 493, 494, 495, 496, 497, 498, 499, 500, 
501, 502, 503, 504, 505, 506, 507, 508, 509, 510, 
511, 512, 513, 514, 515, 516, 517, 518, 519, 520, 
521, 522, 523, 524, 525, 526, 527, 528, 529, 530, 
531, 532, 533, 534, 535, 536, 537, 538, 539, 540, 
541, 542, 543, 544, 545, 546, 547, 548, 549, 550, 
551, 552, 553, 554, 555, 556, 557, 558, 559, 560, 
561, 562, 563, 564, 565, 566, 567, 568, 569, 570, 
571, 572, 573, 574, 575, 576, 577, 578, 579, 580, 
581, 582, 583, 584, 585, 586, 587, 588, 589, 590, 
591, 592, 593, 594, 595, 596, 597, 598, 599, 600, 
601, 602, 603, 604, 605, 606, 607, 608, 609, 610, 
611, 612, 613, 614, 615, 616, 617, 618, 619, 620, 
621, 622, 623, 624, 625, 626, 627, 628, 629, 630, 
631, 632, 633, 634, 635, 636, 637, 638, 639, 640, 
641, 642, 643, 644, 645, 646, 647, 648, 649, 650, 
651, 652, 653, 654, 655, 656, 657, 658, 659, 660, 
661, 662, 663, 664, 665, 666, 667, 668, 669, 670, 
671, 672, 673, 674, 675, 676, 677, 678, 679, 680, 
681, 682, 683, 684, 685, 686, 687, 688, 689, 690, 
691, 692, 693, 694, 695, 696, 697, 698, 699, 700, 
701, 702, 703, 704, 705, 706, 707, 708, 709, 710, 
711, 712, 713, 714, 715, 716, 717, 718, 719, 720, 
721, 722, 723, 724, 725, 726, 727, 728, 729, 730, 
731, 732, 733, 734, 735, 736, 737, 738, 739, 740, 
741, 742, 743, 744, 745, 746, 747, 748, 749, 750, 
751, 752, 753, 754, 755, 756, 757, 758, 759, 760, 
761, 762, 763, 764, 765, 766, 767, 768, 769, 770, 
771, 772, 773, 774, 775, 776, 777, 778, 779, 780, 
781, 782, 783, 784, 785, 786, 787, 788, 789, 790, 
791, 792, 793, 794, 795, 796, 797, 798, 799, 800, 
801, 802, 803, 804, 805, 806, 807, 808, 809, 810, 
811, 812, 813, 814, 815, 816, 817, 818, 819, 820, 
821, 822, 823, 824, 825, 826, 827, 828, 829, 830, 
831, 832, 833, 834, 835, 836, 837, 838, 839, 840, 
841, 842, 843, 844, 845, 846, 847, 848, 849, 850, 
851, 852, 853, 854, 855, 856, 857, 858, 859, 860, 
861, 862, 863, 864, 865, 866, 867, 868, 869, 870, 
871, 872, 873, 874, 875, 876, 877, 878, 879, 880, 
881, 882, 883, 884, 885, 886, 887, 888, 889, 890, 
891, 892, 893, 894, 895, 896, 897, 898, 899, 900, 
