*Heading
 /Users/juliagao/geometry-optimization-net/scripts/../runs/2d/shape_29.inp
*NODE
1, 0, -0.3, 0
2, 0.425, -0.3, 0
3, 0.575, -0.3, 0
4, 1, -0.3, 0
5, 1, 0.3, 0
6, 0.575, 0.3, 0
7, 0.425, 0.3, 0
8, 0, 0.3, 0
9, 0.5962515266, -0.1491537616, 0
10, 0.025609779312896, -0.3, 0
11, 0.077021832879555, -0.3, 0
12, 0.12898967108236, -0.3, 0
13, 0.18156969247836, -0.3, 0
14, 0.23477031183073, -0.3, 0
15, 0.288785804016, -0.3, 0
16, 0.34357181244471, -0.3, 0
17, 0.39806424529678, -0.3, 0
18, 0.051219558625792, -0.3, 0
19, 0.10282410713332, -0.3, 0
20, 0.1551552350314, -0.3, 0
21, 0.20798414992531, -0.3, 0
22, 0.26155647373614, -0.3, 0
23, 0.31601513429586, -0.3, 0
24, 0.37112849059356, -0.3, 0
25, 0.45067350547821, -0.3, 0
26, 0.50047152101153, -0.3, 0
27, 0.54979801553332, -0.3, 0
28, 0.47634701095642, -0.3, 0
29, 0.52459603106665, -0.3, 0
30, 0.60135564632142, -0.3, 0
31, 0.65489704149745, -0.3, 0
32, 0.7090230495318, -0.3, 0
33, 0.76251973758616, -0.3, 0
34, 0.81552890187255, -0.3, 0
35, 0.86861532037328, -0.3, 0
36, 0.92175441136814, -0.3, 0
37, 0.97412990963703, -0.3, 0
38, 0.62771129264283, -0.3, 0
39, 0.68208279035206, -0.3, 0
40, 0.73596330871154, -0.3, 0
41, 0.78907616646077, -0.3, 0
42, 0.84198163728433, -0.3, 0
43, 0.89524900346222, -0.3, 0
44, 0.94825981927406, -0.3, 0
45, 1, -0.27323664161362, 0
46, 1, -0.21937051388154, 0
47, 1, -0.16473124346246, 0
48, 1, -0.10970080520181, 0
49, 1, -0.05496704094057, 0
50, 1, -0.00029115305829119, 0
51, 1, 0.055143429969115, 0
52, 1, 0.11119293392288, 0
53, 1, 0.16655217779847, 0
54, 1, 0.22048190958153, 0
55, 1, 0.27355168961183, 0
56, 1, -0.24647328322724, 0
57, 1, -0.19226774453584, 0
58, 1, -0.13719474238907, 0
59, 1, -0.082206868014542, 0
60, 1, -0.027727213866598, 0
61, 1, 0.027144907750016, 0
62, 1, 0.083141952188214, 0
63, 1, 0.13924391565755, 0
64, 1, 0.19386043993938, 0
65, 1, 0.24710337922367, 0
66, 0.97398438351534, 0.3, 0
67, 0.92150386151692, 0.3, 0
68, 0.86854112918664, 0.3, 0
69, 0.81545138456515, 0.3, 0
70, 0.76200897740786, 0.3, 0
71, 0.70811401758223, 0.3, 0
72, 0.65415186883165, 0.3, 0
73, 0.6011170952772, 0.3, 0
74, 0.94796876703069, 0.3, 0
75, 0.89503895600315, 0.3, 0
76, 0.84204330237014, 0.3, 0
77, 0.78885946676016, 0.3, 0
78, 0.73515848805557, 0.3, 0
79, 0.68106954710889, 0.3, 0
80, 0.62723419055441, 0.3, 0
81, 0.54995975013817, 0.3, 0
82, 0.50064875081192, 0.3, 0
83, 0.45068900067375, 0.3, 0
84, 0.52491950027634, 0.3, 0
85, 0.47637800134751, 0.3, 0
86, 0.39899293935397, 0.3, 0
87, 0.34648796432734, 0.3, 0
88, 0.29344212325072, 0.3, 0
89, 0.24003076955008, 0.3, 0
90, 0.18640036635622, 0.3, 0
91, 0.13295774031127, 0.3, 0
92, 0.079652738443762, 0.3, 0
93, 0.02651169321597, 0.3, 0
94, 0.37298587870794, 0.3, 0
95, 0.31999004994674, 0.3, 0
96, 0.26689419655469, 0.3, 0
97, 0.21316734254548, 0.3, 0
98, 0.15963339016696, 0.3, 0
99, 0.10628209045558, 0.3, 0
100, 0.05302338643194, 0.3, 0
101, 0, 0.27333772368976, 0
102, 0, 0.21944860446961, 0
103, 0, 0.16447019939318, 0
104, 0, 0.10881155137666, 0
105, 0, 0.053050218091729, 0
106, 0, -0.002481747834261, 0
107, 0, -0.057631734991102, 0
108, 0, -0.11232715868028, 0
109, 0, -0.16669042362531, 0
110, 0, -0.22069059453468, 0
111, 0, -0.27377532776121, 0
112, 0, 0.24667544737953, 0
113, 0, 0.19222176155968, 0
114, 0, 0.13671863722667, 0
115, 0, 0.080904465526652, 0
116, 0, 0.025195970656806, 0
117, 0, -0.030159466325328, 0
118, 0, -0.085104003656877, 0
119, 0, -0.13955031370367, 0
120, 0, -0.19383053354694, 0
121, 0, -0.24755065552241, 0
122, 0.59286685111031, -0.12385347938647, 0
123, 0.56706485246006, -0.080112746027937, 0
124, 0.52266704388718, -0.055609325735124, 0
125, 0.47220306624284, -0.057003413090206, 0
126, 0.42883735722625, -0.084344544607487, 0
127, 0.40542826602345, -0.13125003450887, 0
128, 0.40972022124223, -0.18252917051125, 0
129, 0.43805616029908, -0.22282408846269, 0
130, 0.481099243475, -0.24353128959778, 0
131, 0.5280176628244, -0.24123723911826, 0
132, 0.5687124590933, -0.21655520290674, 0
133, 0.59299225500294, -0.17398915550863, 0
134, 0.58295086707005, -0.10033255807565, 0
135, 0.54639235525337, -0.064820460377491, 0
136, 0.49735692062668, -0.052938531955176, 0
137, 0.44899720226854, -0.06752612575058, 0
138, 0.4139720947952, -0.10598483910696, 0
139, 0.40414575495027, -0.15788989339221, 0
140, 0.42151354673238, -0.20486940537617, 0
141, 0.4585839705763, -0.2360391389805, 0
142, 0.5047632692008, -0.24528735395748, 0
143, 0.54958703880357, -0.231649106366, 0
144, 0.58343517157892, -0.1971425982254, 0
145, 0.42420996828578, 0.24504905956315, 0
146, 0.92079182358435, 0.16381275371557, 0
147, 0.24109804307273, -0.21700102413963, 0
148, 0.32960447578929, -0.097412295133674, 0
149, 0.26003021023311, -0.12493999615842, 0
150, 0.37995686223706, -0.041641990121422, 0
151, 0.21809239972565, -0.095251960179756, 0
152, 0.17398479430391, -0.2450984020658, 0
153, 0.89435282146115, 0.2727899192477, 0
154, 0.64292583914132, -0.13727495609957, 0
155, 0.68052600068437, -0.24822189043065, 0
156, 0.62066604501604, -0.2495216936161, 0
157, 0.73773631165178, -0.10751222804311, 0
158, 0.84246340669188, -0.19074682162289, 0
159, 0.92115192612109, -0.16338890851152, 0
160, 0.70839668748837, -0.27352069770936, 0
161, 0.81513140332286, -0.026241593339287, 0
162, 0.76146847608352, 0.0011598604218824, 0
163, 0.2138849800985, 0.19520800685126, 0
164, 0.26851595189951, 0.14229488013845, 0
165, 0.21375557880832, 0.14341193363976, 0
166, 0.15917752543653, 0.1432493190139, 0
167, 0.10510458873407, 0.14200645285804, 0
168, 0.051866902899056, 0.13979576989107, 0
169, 0.10561722465602, 0.19452746241034, 0
170, 0.15961477196201, 0.1952045963154, 0
171, 0.052271005211976, 0.19334770493122, 0
172, 0.052728770850221, 0.24673701354116, 0
173, 0.10601478512562, 0.24716287243869, 0
174, 0.15976041095387, 0.24743216460201, 0
175, 0.21367810995103, 0.24745209927239, 0
176, 0.26801435677418, 0.19438335564118, 0
177, 0.26739250258912, 0.24707852645629, 0
178, 0.32154863110364, 0.19278218940663, 0
179, 0.32052485699078, 0.2463964681425, 0
180, 0.3740087650314, 0.19080240589876, 0
181, 0.37275564594898, 0.24558029830736, 0
182, 0.47588239263554, 0.2454367327667, 0
183, 0.42525542322598, 0.18968591345019, 0
184, 0.47650178243556, 0.19200823845011, 0
185, 0.47803114823458, 0.1370473437939, 0
186, 0.42849222669565, 0.13349612290099, 0
187, 0.37660356584304, 0.13631038504066, 0
188, 0.32301484789124, 0.13980536933233, 0
189, 0.38126015051271, 0.083647519265287, 0
190, 0.32440735573823, 0.088303867205376, 0
191, 0.50266879175109, 0.084171890811095, 0
192, 0.43937655839839, 0.079627734367285, 0
193, 0.43839940356613, 0.030144085554096, 0
194, 0.50068561590704, 0.036758026258391, 0
195, 0.32173222260545, 0.038787517743229, 0
196, 0.37986544072947, 0.034316843199094, 0
197, 0.15818421281216, 0.0913844488282, 0
198, 0.21280188371386, 0.0920591510267, 0
199, 0.2682266261249, 0.091149561748063, 0
200, 0.2099663873717, 0.040726222436516, 0
201, 0.26506571284689, 0.040804966447026, 0
202, 0.15612574000488, 0.039138178352542, 0
203, 0.1043924025214, 0.089383285643632, 0
204, 0.051540847646179, 0.086021390618828, 0
205, 0.051167913979558, 0.03190107939259, 0
206, 0.10324073598888, 0.036274510393088, 0
207, 0.025247058325242, -0.053649472531388, 0
208, 0.025250647843669, -0.19189808512124, 0
209, 0.28670250425742, -0.094260129075034, 0
210, 0.14620428778268, -0.18705135351776, 0
211, 0.050157314747078, -0.078234004496936, 0
212, 0.21439573956789, -0.15587927286126, 0
213, 0.074970255881081, -0.075698691086127, 0
214, 0.30263803602478, -0.12718864530699, 0
215, 0.05011295832993, -0.19040611646788, 0
216, 0.050483084973887, -0.21821434025716, 0
217, 0.10155488715461, -0.017872110300899, 0
218, 0.050677426350563, -0.022789011294847, 0
219, 0.27084833928641, -0.2468513060561, 0
220, 0.14969699553894, -0.24504967171362, 0
221, 0.25756795020625, -0.010300888522515, 0
222, 0.20463951170543, -0.011792037301934, 0
223, 0.1527839958573, -0.014348300924846, 0
224, 0.36192357252575, -0.14046737754509, 0
225, 0.10058310302446, -0.045504514357154, 0
226, 0.17590015778338, -0.040368791083349, 0
227, 0.27998008186058, -0.15754923582279, 0
228, 0.21542230483013, -0.12532632595387, 0
229, 0.075191267290043, -0.2174671858448, 0
230, 0.30106057068956, -0.15968235537161, 0
231, 0.19468077600442, -0.21622090714074, 0
232, 0.39802046026997, -0.088335115367624, 0
233, 0.31217908848246, -0.010547924048287, 0
234, 0.36900720910423, -0.013864353449452, 0
235, 0.42740411026737, -0.020463275869779, 0
236, 0.49863006181528, -0.0072205465659438, 0
237, 0.68486527084176, 0.19013607662757, 0
238, 0.76232639587884, 0.27297707398149, 0
239, 0.92123089899982, 0.10939408609876, 0
240, 0.94747449193725, 0.13702207567256, 0
241, 0.71070723780641, 0.21807496886858, 0
242, 0.84154048198622, 0.054823292133649, 0
243, 0.76126013847813, 0.027979311828292, 0
244, 0.68358851778489, 0.13497396418515, 0
245, 0.81520795968247, 0.2455557544723, 0
246, 0.63107224060145, 0.13410935432014, 0
247, 0.70988508881148, 0.1353486735606, 0
248, 0.84170294622072, 0.13615955040276, 0
249, 0.62292232599401, 0.031010876319356, 0
250, 0.84157536262354, 0.19076696438541, 0
251, 0.62505844270035, 0.080946575752553, 0
252, 0.73639484924874, 0.24569912503601, 0
253, 0.94721069576182, 0.16425602379314, 0
254, 0.52909388112532, 0.24521707903618, 0
255, 0.76164474646259, 0.081614650494943, 0
256, 0.53058068629315, 0.19185642935653, 0
257, 0.52919090005711, 0.13704018704379, 0
258, 0.7102191130769, 0.24567453212722, 0
259, 0.57875509298094, 0.27230452255509, 0
260, 0.84150234851148, 0.21814265293881, 0
261, 0.76291750938036, 0.19070107781478, 0
262, 0.70788208263262, 0.081315838682673, 0
263, 0.65846214533379, 0.16206318421077, 0
264, 0.70710224039195, 0.028410580266002, 0
265, 0.81529016497019, 0.13608722373388, 0
266, 0.60449478409524, 0.27254035935438, 0
267, 0.57898654857436, 0.13313308704654, 0
268, 0.65314715632539, 0.080977902488273, 0
269, 0.73534149936509, -0.025435318670104, 0
270, 0.89464711921103, -0.053869885985836, 0
271, 0.8684277823196, -0.21815599684408, 0
272, 0.68477850699449, 0.21788642153587, 0
273, 0.9469792642171, 0.27278504083186, 0
274, 0.89458790796033, 0.13636533132967, 0
275, 0.78823195503871, 0.00096343042316757, 0
276, 0.78974756336782, -0.21859232557517, 0
277, 0.84194702406719, -0.080864238957557, 0
278, 0.78857225740739, -0.026060184359826, 0
279, 0.89464376300706, -0.21810988884713, 0
280, 0.76440279527024, -0.19145627053729, 0
281, 0.89490562363386, -0.13586647449948, 0
282, 0.89468982280618, -0.081166559685027, 0
283, 0.97377842896664, -0.1366525798768, 0
284, 0.84198963474051, -0.24557891890047, 0
285, 0.81555085645146, -0.080713872830778, 0
286, 0.84250899698416, -0.13566502348719, 0
287, 0.56943890214718, -0.020224191617427, 0
288, 0.68190089413817, -0.023993793466594, 0
289, 0.6274629611229, -0.019364827891064, 0
290, 0.68252303830058, -0.079043207019165, 0
291, 0.6269351397231, -0.073468571588893, 0
292, 0.68925588408884, -0.13585661535421, 0
293, 0.6366006694084, -0.19904936530936, 0
294, 0.68749816638062, -0.1945186771445, 0
295, 0.92105122990624, -0.2727757288854, 0
296, 0.81599168593173, -0.21834261884836, 0
297, 0.92104046447756, -0.081356674157996, 0
298, 0.56259859614231, 0.030810294081576, 0
299, 0.89473069268198, -0.27281740819083, 0
300, 0.94732460711829, -0.19090856688307, 0
301, 0.94735918138192, -0.026928218081524, 0
302, 0.36823039489561, -0.10736661775066, 0
303, 0.076695508760577, -0.27292840251851, 0
304, 0.84221576183481, -0.21821866365463, 0
305, 0.7637303706846, -0.10774120812977, 0
306, 0.59281296411964, 0.033660475128363, 0
307, 0.2874225002592, -0.21941397239523, 0
308, 0.39813741810353, -0.017046696912669, 0
309, 0.34729735505948, -0.25136658816504, 0
310, 0.59643843573848, -0.012593771887971, 0
311, 0.63481459603129, -0.048128698799815, 0
312, 0.59449700245032, -0.05097434700484, 0
313, 0.52294859942765, -0.26864018823369, 0
314, 0.47714440825072, -0.27005958731495, 0
315, 0.099663428987935, -0.073550365403119, 0
316, 0.19762785449046, -0.06720598148158, 0
317, 0.34262425321136, -0.13439503893883, 0
318, 0.73555285687531, -0.27324982112174, 0
319, 0.81551636499702, -0.27283840359071, 0
320, 0.86829895807114, -0.24554486301578, 0
321, 0.78908823683337, 0.19075023122809, 0
322, 0.86867886456253, -0.13575294871554, 0
323, 0.89479161223341, -0.19069726821339, 0
324, 0.81562067735097, -0.24565172548785, 0
325, 0.76255682386244, -0.24613543752173, 0
326, 0.73620117570747, 0.13564017481116, 0
327, 0.48240210758996, 0.10755303931131, 0
328, 0.50362790796761, 0.14581321366141, 0
329, 0.52419275939012, 0.10765044070415, 0
330, 0.051364917784401, -0.27301898955542, 0
331, 0.20112934897943, -0.039044675673943, 0
332, 0.074299786406571, -0.13233489149386, 0
333, 0.35503203216649, -0.038711620962593, 0
334, 0.84169383805097, 0.10897312923139, 0
335, 0.92036357271035, 0.24553397526104, 0
336, 0.6516574520002, 0.029645782273988, 0
337, 0.86801583344288, 0.27279273407028, 0
338, 0.025713533114902, 0.13835196047082, 0
339, 0.051697578014999, 0.11294095350709, 0
340, 0.025569288638348, 0.083725100348941, 0
341, 0.025626733795654, 0.11106327155086, 0
342, 0.15974059221682, 0.273666852489, 0
343, 0.13284542870033, 0.24732226691083, 0
344, 0.10616259692224, 0.27355413539778, 0
345, 0.13291879894853, 0.27361639772632, 0
346, 0.76285206975841, 0.21821643862438, 0
347, 0.68241343067642, 0.10780064284794, 0
348, 0.86815972835726, 0.054862295112979, 0
349, 0.59610950690196, 0.081319934260974, 0
350, 0.32088688236084, -0.24945639552677, 0
351, 0.3179888925305, -0.064964305803134, 0
352, 0.34251122215686, -0.16762615057529, 0
353, 0.025670723971431, -0.2463737351809, 0
354, 0.079302016485572, 0.24696102050683, 0
355, 0.052922567362733, 0.27338608413725, 0
356, 0.079492378959226, 0.27347723975434, 0
357, 0.24058443316353, 0.24733190222726, 0
358, 0.21348515849787, 0.27369842366661, 0
359, 0.26711423841668, 0.27353213429309, 0
360, 0.24034012610823, 0.27366382239568, 0
361, 0.71056900278023, -0.052320928040392, 0
362, 0.76346881310417, -0.21901332018981, 0
363, 0.81483359702187, 0.027825635149297, 0
364, 0.97375772364449, -0.10927075585793, 0
365, 0.86814457731411, -0.026492863466853, 0
366, 0.86860537273444, -0.19070411677846, 0
367, 0.73859969520678, -0.19208441824168, 0
368, 0.67978850308853, 0.054930297888164, 0
369, 0.62399410433563, -0.27370774464237, 0
370, 0.65148062475426, -0.24921747579752, 0
371, 0.68080150369279, -0.27380836767335, 0
372, 0.65264518893841, -0.27402949159098, 0
373, 0.025454859886323, 0.028925372942538, 0
374, 0.051364490734656, 0.059016677878473, 0
375, 0.025508183540094, 0.056345782959954, 0
376, 0.18671974784964, 0.24747924568187, 0
377, 0.18660652020985, 0.27369566420095, 0
378, 0.71426547212245, -0.16451970999857, 0
379, 0.76280083087958, -0.053044841938948, 0
380, 0.97368126118407, -0.027225919006003, 0
381, 0.34675883432299, 0.24601012860227, 0
382, 0.32022722354811, 0.27323905728679, 0
383, 0.37264439440693, 0.27287863531425, 0
384, 0.34653383958274, 0.27309389238048, 0
385, 0.63330652806345, 0.18947792453914, 0
386, 0.86820161466607, 0.081944548762502, 0
387, 0.7367374363564, 0.21817778996663, 0
388, 0.02532117093432, -0.026063776810781, 0
389, 0.050936704913898, 0.0046422620185899, 0
390, 0.025390924653113, 0.0014600191380004, 0
391, 0.15075319737743, -0.041873153096434, 0
392, 0.21524108219227, -0.1864243585236, 0
393, 0.12263602134669, -0.18761458084605, 0
394, 0.049969547746788, -0.10621911669345, 0
395, 0.12528527416583, -0.24508481680375, 0
396, 0.12218333054338, -0.15843790836364, 0
397, 0.94731548770398, -0.27267915223601, 0
398, 0.70755708884814, 0.0019258628839928, 0
399, 0.92100534500674, -0.054040113665011, 0
400, 0.92054043569526, 0.19103957330141, 0
401, 0.1471212458627, -0.098786972935637, 0
402, 0.10071891894443, -0.24518727017142, 0
403, 0.73904765653768, -0.13556531375211, 0
404, 0.92100008567136, -0.026737812899585, 0
405, 0.294056608479, 0.24674883197675, 0
406, 0.29374888296864, 0.27337238202881, 0
407, 0.25196642411678, -0.037044021808095, 0
408, 0.14758111467915, -0.21631360484517, 0
409, 0.24624695542335, -0.065107896266455, 0
410, 0.12370702572932, -0.21656775370501, 0
411, 0.97377014455757, -0.16402012710419, 0
412, 0.81636805414932, -0.19085353020868, 0
413, 0.8681083685958, 0.027782014812132, 0
414, 0.76215045112441, 0.10863477824716, 0
415, 0.81533324683362, 0.16338667747622, 0
416, 0.4165919985342, -0.062540520514944, 0
417, 0.33528081892495, -0.2244934348193, 0
418, 0.19257481284813, -0.12603149974328, 0
419, 0.052046412329292, 0.16659495124656, 0
420, 0.02596701321257, 0.19269336026151, 0
421, 0.025810095054503, 0.16556882315721, 0
422, 0.63233210414814, 0.24513353062244, 0
423, 0.97401458875786, 0.082736969353224, 0
424, 0.97362709602138, 0.16510410809788, 0
425, 0.049898982509707, -0.16240382468899, 0
426, 0.025420776722772, -0.21926059262782, 0
427, 0.25850910105077, -0.15636740987802, 0
428, 0.62891656745017, 0.10699496588178, 0
429, 0.76263536514236, 0.24567723325182, 0
430, 0.86832552840821, -0.081009635311952, 0
431, 0.58091243264273, 0.2446742747012, 0
432, 0.8148758049367, 0.054795940303213, 0
433, 0.73438525906545, 0.054766303606004, 0
434, 0.92105154925518, 0.00053522170502893, 0
435, 0.684136183739, 0.24556682248868, 0
436, 0.40275937374788, -0.046352711496474, 0
437, 0.098460547924833, -0.13067763576032, 0
438, 0.92083496244595, -0.24544562048945, 0
439, 0.89460112307907, 0.00061097175028005, 0
440, 0.73570835512846, -0.24662714426166, 0
441, 0.0251202555324, -0.13668026839123, 0
442, 0.28200386197196, -0.18910754007208, 0
443, 0.8678677009726, 0.19078628447835, 0
444, 0.81654572705323, -0.16323434185932, 0
445, 0.9732654705275, 0.2191918462853, 0
446, 0.63043455147466, 0.2727391045181, 0
447, 0.60765484958012, 0.18929551337209, 0
448, 0.71063054429063, -0.22069997614821, 0
449, 0.71191461768352, -0.10719249742661, 0
450, 0.92102863177688, -0.19074864756724, 0
451, 0.59368226992497, 0.057260360097461, 0
452, 0.97374117440387, 0.00015598808745418, 0
453, 0.026299735205089, 0.2465670898889, 0
454, 0.026450533249176, 0.27332127447344, 0
455, 0.07710319724618, 0.034311419761579, 0
456, 0.077834023432012, 0.087887717605519, 0
457, 0.10388329316012, 0.062921711180469, 0
458, 0.07750255079508, 0.061178556854302, 0
459, 0.50245085006405, 0.24627709316577, 0
460, 0.4757189055269, 0.27240886697368, 0
461, 0.52752150792047, 0.27221258514606, 0
462, 0.50162624971093, 0.27256839768158, 0
463, 0.39854705963437, 0.24522040692177, 0
464, 0.42429915959076, 0.2725697527672, 0
465, 0.39854612268907, 0.27268291003326, 0
466, 0.92126092932687, 0.054995486527354, 0
467, 0.73428351952578, 0.028140230272178, 0
468, 0.86809215174729, 0.00067150927475173, 0
469, 0.84195227451442, -0.27283831918034, 0
470, 0.81641462502856, -0.13559776429539, 0
471, 0.92115865464036, 0.027779106873705, 0
472, 0.81524743457434, 0.27284946532646, 0
473, 0.73681440471983, 0.1905910254152, 0
474, 0.84152995369137, 0.00073969811624289, 0
475, 0.8418748457461, -0.053593022114933, 0
476, 0.89407155911279, 0.2454859846122, 0
477, 0.58198158418648, 0.21701081501443, 0
478, 0.97398881873976, 0.05514835779331, 0
479, 0.076083603700576, -0.020108154931113, 0
480, 0.10245726485512, 0.009367349546049, 0
481, 0.076625818935112, 0.0072324857740889, 0
482, 0.078355903850524, 0.14101796756999, 0
483, 0.10478441969844, 0.11572656667991, 0
484, 0.078106640998628, 0.11448733173949, 0
485, 0.76280917974046, 0.16322223756579, 0
486, 0.78890191495529, 0.13599308542936, 0
487, 0.68444376576724, 0.16245666169312, 0
488, 0.94674321919187, 0.21855230765159, 0
489, 0.65817113937876, 0.24539735243022, 0
490, 0.73582830348912, 0.27302259859461, 0
491, 0.13118187384131, 0.090544039018004, 0
492, 0.15731448649182, 0.065355780036222, 0
493, 0.12957754560158, 0.037868692137673, 0
494, 0.13048810641078, 0.064304347896503, 0
495, 0.44990444244109, 0.24515050622715, 0
496, 0.4499913376107, 0.27253433773064, 0
497, 0.89481748128992, -0.10849252410888, 0
498, 0.70945459658158, -0.079672324277516, 0
499, 0.76461280946631, -0.1355401329077, 0
500, 0.84165581955667, -0.026378727899863, 0
501, 0.78901448125641, -0.27291204055063, 0
502, 0.86800996108484, 0.16348233140361, 0
503, 0.86826702421838, -0.053728396095953, 0
504, 0.76487027385644, -0.16354603732178, 0
505, 0.7371208959912, -0.21969069397306, 0
506, 0.94748046065327, -0.13627526432098, 0
507, 0.89457371481826, -0.24549219841916, 0
508, 0.18674081388339, 0.19529996873329, 0
509, 0.1597173786392, 0.22127996430324, 0
510, 0.21380853850884, 0.22128125765383, 0
511, 0.18676217605769, 0.22134562223737, 0
512, 0.13255760482319, 0.19494069056365, 0
513, 0.10583218731931, 0.22082316622664, 0
514, 0.13272509044118, 0.2211001508358, 0
515, 0.5551525034048, 0.24475299657381, 0
516, 0.55315651580523, 0.27217145483128, 0
517, 0.36348930785507, -0.17324931737335, 0
518, 0.36074102623967, -0.22811436149103, 0
519, 0.12711201145036, -0.015975230749142, 0
520, 0.22197078809445, -0.066043321608869, 0
521, 0.2377110373237, -0.18677565306996, 0
522, 0.92117779763852, -0.13602971584223, 0
523, 0.84258840317932, -0.16320470371044, 0
524, 0.075506739969095, -0.047749318846571, 0
525, 0.09891796824404, -0.10197325115717, 0
526, 0.052503425297601, 0.2200600834056, 0
527, 0.026132148791418, 0.2196905439807, 0
528, 0.71386440063072, -0.1356509948942, 0
529, 0.73459264844545, 0.0014590023906187, 0
530, 0.68290679728265, 0.27300738013984, 0
531, 0.78891320528554, 0.24562143327754, 0
532, 0.63256503033872, 0.16167850852795, 0
533, 0.73561349420942, 0.10842729379183, 0
534, 0.86813736780893, 0.13623880286672, 0
535, 0.86835910649431, -0.27285131487764, 0
536, 0.65189492220611, 0.055215421505569, 0
537, 0.71296355965194, -0.19305812074071, 0
538, 0.86821126254088, 0.10906228587466, 0
539, 0.9211294157033, -0.10868274218788, 0
540, 0.97369583611537, -0.081905243995923, 0
541, 0.89459432159781, -0.026604117355375, 0
542, 0.15460373070728, 0.012613011144321, 0
543, 0.12844205140139, 0.011141503788321, 0
544, 0.22647435372623, -0.037918771405135, 0
545, 0.14877814747619, -0.070029239170835, 0
546, 0.68384251555684, -0.22213041111106, 0
547, 0.70904108669654, 0.1081499490109, 0
548, 0.76238669422064, -0.27303355773094, 0
549, 0.65571081768109, 0.10739712427671, 0
550, 0.7613345910616, 0.054763087714979, 0
551, 0.60488923851561, 0.13384867785759, 0
552, 0.84161444944118, 0.081868844708246, 0
553, 0.38214738134881, -0.07551584949692, 0
554, 0.074612318804421, -0.18924047075964, 0
555, 0.19250492039946, -0.18641268693522, 0
556, 0.025141802258045, -0.16434407423436, 0
557, 0.37595093733747, 0.010129821129079, 0
558, 0.40915958930373, 0.03170861638578, 0
559, 0.43441311628143, 0.0049008950834175, 0
560, 0.4052715554059, 0.0071635974946774, 0
561, 0.92128794148743, 0.082196831980234, 0
562, 0.89418699088288, 0.19085811861587, 0
563, 0.17123251785473, -0.21618617139385, 0
564, 0.23792960955483, -0.12491569466743, 0
565, 0.29438941297227, -0.064372321405756, 0
566, 0.38768510991991, -0.23173998236485, 0
567, 0.050403835821567, -0.050414457973575, 0
568, 0.12310625627647, -0.1002835568284, 0
569, 0.025148644191798, -0.10898025253805, 0
570, 0.55854542963038, -0.041020891308091, 0
571, 0.49806607606252, -0.028544894317887, 0
572, 0.53463947626491, -0.010821027036761, 0
573, 0.52954233760034, -0.031817566159871, 0
574, 0.37321464385629, 0.21819995177673, 0
575, 0.34793430867475, 0.1917984755513, 0
576, 0.32096032172202, 0.21955175097985, 0
577, 0.34722419553302, 0.21888338123585, 0
578, 0.78880715158049, 0.27291338429623, 0
579, 0.76253930244739, 0.13585089954462, 0
580, 0.79033787806012, -0.1910738288859, 0
581, 0.63324778772984, 0.21733844757405, 0
582, 0.94671856854795, 0.24565239154203, 0
583, 0.81491299306053, 0.00083141227234696, 0
584, 0.86871279387698, -0.16322192626851, 0
585, 0.76197693505126, -0.025805785339768, 0
586, 0.70845581214451, -0.24732060443008, 0
587, 0.70865738893371, -0.024876341172318, 0
588, 0.8160215469896, -0.10806699873108, 0
589, 0.94745187050269, -0.16360578295704, 0
590, 0.60202598651338, 0.10678900936229, 0
591, 0.56337256321726, 0.055434907372829, 0
592, 0.94757162206384, 0.027744280699264, 0
593, 0.97323287400079, 0.24604373562642, 0
594, 0.78815000238963, 0.054775858135013, 0
595, 0.7072359972262, 0.054807694327664, 0
596, 0.81500243815762, 0.081798926413041, 0
597, 0.78835358116897, 0.081718539980249, 0
598, 0.89466401813023, 0.027781409108618, 0
599, 0.43869646452015, -0.04197622341996, 0
600, 0.46248879534657, -0.011483408503633, 0
601, 0.46681927612494, -0.032672194948171, 0
602, 0.12236638077258, -0.12925821406078, 0
603, 0.025188126292386, -0.081296128225781, 0
604, 0.32295882328908, -0.13001429935559, 0
605, 0.21795277119993, -0.21646462914484, 0
606, 0.32624215870353, -0.19488937557284, 0
607, 0.098394570797697, -0.15951963529556, 0
608, 0.38177563431119, -0.14870809175253, 0
609, 0.16949306329656, -0.18664049039216, 0
610, 0.4358547150961, -0.25314277938723, 0
611, 0.60576320911345, -0.085673235064401, 0
612, 0.58173474593049, -0.064274854570132, 0
613, 0.27041636826197, -0.06449876334602, 0
614, 0.30402643039202, -0.19148587058211, 0
615, 0.62071177010401, -0.14287678396729, 0
616, 0.63749315377255, -0.10484359486963, 0
617, 0.61602415695088, -0.11308836525551, 0
618, 0.18642217642317, 0.14347669939997, 0
619, 0.15944265868105, 0.16919955309636, 0
620, 0.2138843602446, 0.1692491397852, 0
621, 0.18663987104058, 0.16934566265416, 0
622, 0.68069192119347, 0.081135261566425, 0
623, 0.81531223720882, 0.19076246567948, 0
624, 0.78866861819139, 0.10878278149244, 0
625, 0.3997652550124, 0.18999660730091, 0
626, 0.42454071515399, 0.21744613033516, 0
627, 0.39895856912382, 0.21765458362423, 0
628, 0.29488839966136, 0.19365984270549, 0
629, 0.26769534392182, 0.2206793934403, 0
630, 0.2944347407599, 0.22015795335568, 0
631, 0.074306411974961, -0.16081931414283, 0
632, 0.38549693064597, -0.17907818782333, 0
633, 0.56922681242709, -0.26604732660077, 0
634, 0.54728009324735, -0.26882934449065, 0
635, 0.19818060686448, -0.24526633029242, 0
636, 0.24131421811848, -0.094492482309051, 0
637, 0.28163453024547, -0.12560536441035, 0
638, 0.098778264292222, -0.18833129489293, 0
639, 0.31099686380442, -0.22157834289227, 0
640, 0.34952911678369, -0.10127156989918, 0
641, 0.38604227629539, -0.11781632898194, 0
642, 0.41515251368043, -0.2325218716881, 0
643, 0.40281645683918, 0.13460705575133, 0
644, 0.37514405584307, 0.16346319665261, 0
645, 0.42647954085694, 0.16168761410115, 0
646, 0.4010231708024, 0.16227359230299, 0
647, 0.58721285851268, -0.24634521193843, 0
648, 0.59561901935865, -0.27190929809356, 0
649, 0.92066909209047, 0.27279958217376, 0
650, 0.78809610499477, 0.027882784852284, 0
651, 0.89473698432612, 0.054918877394735, 0
652, 0.94711983720045, -0.24541749014488, 0
653, 0.89490278565687, -0.16327549166754, 0
654, 0.73612961707552, -0.080061574900163, 0
655, 0.68485916305339, -0.051687783009983, 0
656, 0.78911564682976, -0.053269875458069, 0
657, 0.7105003135937, 0.16279523571145, 0
658, 0.97334580843004, 0.27289679397122, 0
659, 0.84165624947031, 0.16342898664255, 0
660, 0.50348176360241, 0.19535097451561, 0
661, 0.47619060258624, 0.21872904297071, 0
662, 0.53008441950276, 0.2185370892105, 0
663, 0.50307989778861, 0.22058452686668, 0
664, 0.19462892879925, -0.096260027882781, 0
665, 0.57513455626546, 0.10534219029852, 0
666, 0.81525293598191, 0.21817165801117, 0
667, 0.9739955822149, 0.11031282645038, 0
668, 0.53046211950574, 0.16485552712976, 0
669, 0.47692992730531, 0.1649509964987, 0
670, 0.50365639040541, 0.17050690331011, 0
671, 0.24099381498324, 0.19490870747282, 0
672, 0.24080269632728, 0.22106755345996, 0
673, 0.3499692193464, 0.13812798940169, 0
674, 0.32225983683686, 0.16616940846279, 0
675, 0.34887001351159, 0.16484257182188, 0
676, 0.64239205407608, -0.16918154097134, 0
677, 0.61026268637356, -0.20098944315747, 0
678, 0.61864338984395, -0.1728496995196, 0
679, 0.41004404911597, 0.081197402699811, 0
680, 0.37830161763648, 0.10954652573217, 0
681, 0.43164760775971, 0.10552212666343, 0
682, 0.40517337730056, 0.10729562953225, 0
683, 0.30857601421567, -0.095239519948696, 0
684, 0.37533144511679, -0.25366180794947, 0
685, 0.28462160342676, -0.010139065713073, 0
686, 0.049865113771349, -0.13430703611591, 0
687, 0.30343928830742, -0.03646674644067, 0
688, 0.050970079541243, -0.24575760214562, 0
689, 0.29583436134168, 0.14121363861867, 0
690, 0.26831300107389, 0.16823994637882, 0
691, 0.29538206679262, 0.16732193468837, 0
692, 0.92104243033007, 0.13659687543202, 0
693, 0.73662417712066, 0.16304921986169, 0
694, 0.94773211093415, 0.082420053361932, 0
695, 0.94769964407103, 0.055083118538637, 0
696, 0.89472884479144, 0.10918824555122, 0
697, 0.84150321483987, 0.24551040721194, 0
698, 0.67961627050162, 0.028867913771895, 0
699, 0.56602225342865, 0.079715615158413, 0
700, 0.58118866314072, 0.16123174086871, 0
701, 0.35065839558409, 0.036825547840692, 0
702, 0.32377429345165, 0.063393000925693, 0
703, 0.35274645024521, 0.086142569733337, 0
704, 0.38152083056483, 0.058786813119705, 0
705, 0.35253183656516, 0.061282573823175, 0
706, 0.73483921812376, 0.081480069522489, 0
707, 0.65896151322236, 0.21763550964518, 0
708, 0.32367431607298, 0.11379111423436, 0
709, 0.35110392844362, 0.11179780545914, 0
710, 0.31797757980068, 0.014261167992191, 0
711, 0.34030644748541, -0.011720041972711, 0
712, 0.34676404377345, 0.01258852093163, 0
713, 0.12565689074137, -0.04357072584803, 0
714, 0.36253443969423, -0.069899335880259, 0
715, 0.45069048815649, 0.19033295791173, 0
716, 0.45016951222697, 0.21781194420226, 0
717, 0.45356065494076, 0.13411722981828, 0
718, 0.45163681389429, 0.16249029622347, 0
719, 0.65498408964845, -0.022477069198614, 0
720, 0.65512774527014, -0.077723158350066, 0
721, 0.659614406912, -0.0506065278333, 0
722, 0.29622947083523, 0.089983085357865, 0
723, 0.26850400546153, 0.11658384559546, 0
724, 0.29611139496398, 0.11540111316942, 0
725, 0.62803145437864, -0.22577382486788, 0
726, 0.59794876746995, -0.22562487232146, 0
727, 0.92035844692408, 0.21827925424297, 0
728, 0.92088474301142, -0.21810209027905, 0
729, 0.81518052243458, 0.10888824806475, 0
730, 0.606766466625, 0.16147292827039, 0
731, 0.078839536463842, 0.1939847611837, 0
732, 0.079080186062198, 0.22046525031653, 0
733, 0.55375324122642, 0.1340123048702, 0
734, 0.55653440992726, 0.19002242219957, 0
735, 0.5558845664566, 0.16225891954076, 0
736, 0.55623938768486, 0.21744909562974, 0
737, 0.44007674224433, 0.055058830941062, 0
738, 0.410690800781, 0.056375468848834, 0
739, 0.65903734651756, 0.18981025922392, 0
740, 0.68028088205671, 0.0026753720528787, 0
741, 0.62404352994499, 0.0061350217853567, 0
742, 0.65259658560932, 0.0039287358452336, 0
743, 0.40524871603963, -0.25548425819076, 0
744, 0.24651131126298, -0.24608646994264, 0
745, 0.73938006304458, -0.16391398394435, 0
746, 0.81548427461909, -0.053445804938629, 0
747, 0.24113622980611, 0.14302687484868, 0
748, 0.24112647021241, 0.16888711549365, 0
749, 0.025863472816153, -0.27322785767163, 0
750, 0.3726044287529, -0.20414422855772, 0
751, 0.79043051054046, -0.13555505549019, 0
752, 0.86776717340165, 0.21813089974489, 0
753, 0.78983807689346, -0.10791859405288, 0
754, 0.94694797450838, 0.19142958905045, 0
755, 0.1053730929594, 0.16826274265463, 0
756, 0.078591272934229, 0.16750862968924, 0
757, 0.29553967245848, -0.24794625553907, 0
758, 0.34899366647863, -0.1993038465557, 0
759, 0.84225557442858, -0.10820373952719, 0
760, 0.78916182495815, -0.24583156785598, 0
761, 0.24041451458778, 0.091826666577601, 0
762, 0.21341805357225, 0.11768883535175, 0
763, 0.24092274250568, 0.11733871145156, 0
764, 0.075962830882347, -0.24539036083442, 0
765, 0.17860984228756, -0.012955404086446, 0
766, 0.26420415227467, -0.21793817535855, 0
767, 0.39703645474843, -0.20751291585306, 0
768, 0.2931919396844, 0.04010039103404, 0
769, 0.26712265146917, 0.065949724644822, 0
770, 0.29529647783375, 0.064953625765606, 0
771, 0.65731355932599, 0.13454015252344, 0
772, 0.6076000535278, 0.21712848084929, 0
773, 0.97343263303395, 0.19223673283529, 0
774, 0.86779028873855, 0.24548214375414, 0
775, 0.78903024224548, 0.21820606845452, 0
776, 0.9738267745743, 0.13779513210455, 0
777, 0.78904808262717, 0.16332722866153, 0
778, 0.13205917894608, 0.1427535040608, 0
779, 0.13233888412109, 0.16883214375491, 0
780, 0.18539158179934, 0.091897967526224, 0
781, 0.15877307107729, 0.11732513582898, 0
782, 0.18602567488396, 0.11767258005517, 0
783, 0.56383783614556, 0.0056787160661086, 0
784, 0.59347968774527, 0.010438307495781, 0
785, 0.60659241563322, 0.24489175457256, 0
786, 0.07454599943692, -0.10392127034016, 0
787, 0.26422301849097, -0.094100535498499, 0
788, 0.21167788782402, 0.066450310862763, 0
789, 0.18291024721635, 0.04009592348769, 0
790, 0.18437185960733, 0.066078396431457, 0
791, 0.34088885867687, -0.066628632973493, 0
792, 0.23664026980138, -0.15588054882904, 0
793, 0.1460248293384, -0.12802188787617, 0
794, 0.2619051539738, 0.015491916695929, 0
795, 0.28969208980657, 0.015187417942198, 0
796, 0.13168414811574, 0.11667212095065, 0
797, 0.23733663967732, 0.040985410226835, 0
798, 0.23925442924449, 0.066427565533518, 0
799, 0.49957653704734, 0.013974528504626, 0
800, 0.53217811790338, 0.034444584608246, 0
801, 0.53265595277304, 0.011231773405807, 0
802, 0.84164969704104, 0.27281581055924, 0
803, 0.65658575727187, 0.27293326585298, 0
804, 0.70933833642013, 0.27304931448969, 0
805, 0.71079330590066, 0.1904059513356, 0
806, 0.97365041458036, -0.054567296813074, 0
807, 0.97386782641427, 0.027605504574158, 0
808, 0.16943272566401, -0.12694382304725, 0
809, 0.17096482351954, -0.097447569597932, 0
810, 0.099587010935888, -0.21694033314826, 0
811, 0.16889389430566, -0.15678021626167, 0
812, 0.79062040631424, -0.16333795891026, 0
813, 0.62332580876666, 0.055838173865302, 0
814, 0.20761347988227, 0.014715253691835, 0
815, 0.18097829461779, 0.013806495286603, 0
816, 0.1918047147118, -0.15621260996206, 0
817, 0.12426024726481, -0.07168488367381, 0
818, 0.46902121701411, 0.034021682658762, 0
819, 0.46625619199432, 0.010708642613037, 0
820, 0.68636906123792, -0.10671972334141, 0
821, 0.66550060024948, -0.13633646651258, 0
822, 0.66133572341916, -0.1059968513742, 0
823, 0.46991383219362, 0.081124560566035, 0
824, 0.45753976429506, 0.10565449758432, 0
825, 0.89438969952555, 0.16358914346513, 0
826, 0.94744998291447, -0.10893500088193, 0
827, 0.50174750930755, 0.060487514136614, 0
828, 0.47046482688601, 0.057749557629458, 0
829, 0.58210064713658, 0.18921654238754, 0
830, 0.32183229839376, -0.16300451077923, 0
831, 0.25994296579745, -0.18760793891488, 0
832, 0.22233006116763, -0.24557725319193, 0
833, 0.89404737610005, 0.21816351778723, 0
834, 0.94743371270531, 0.00040611772364751, 0
835, 0.23093458007536, -0.010886040221133, 0
836, 0.23456734858393, 0.015300730217393, 0
837, 0.53530920295627, 0.081284733479994, 0
838, 0.89476447263198, 0.082046223781158, 0
839, 0.53291131306118, 0.058036101915911, 0
840, 0.68966634514285, -0.16549803324086, 0
841, 0.73659117839662, -0.052743522597533, 0
842, 0.8685239468249, -0.10834069994949, 0
843, 0.17323090231632, -0.068540673268563, 0
844, 0.84149946813041, 0.02779450866934, 0
845, 0.54907396787455, 0.10569988499646, 0
846, 0.7891294707332, -0.080543807900389, 0
847, 0.66211955147422, -0.19659424070791, 0
848, 0.6657067234477, -0.16704294297051, 0
849, 0.65646327365162, -0.22399188420107, 0
850, 0.947679961023, 0.10973936041383, 0
851, 0.14568306679752, -0.15752891992708, 0
852, 0.94737618736664, -0.081600086061475, 0
853, 0.27762525862783, -0.03651298023578, 0
854, 0.60827101734293, -0.037454766349818, 0
855, 0.50015718481012, -0.27845716509379, 0
856, 0.32932417491322, -0.037107288587157, 0
857, 0.94733699449937, -0.054264204683635, 0
858, 0.76266667459996, -0.080335142601604, 0
859, 0.94718061717904, -0.21817620109343, 0
860, 0.50342434940572, 0.11984326661892, 0
861, 0.9736691296247, -0.19132276784842, 0
862, 0.97355826966169, -0.21851486976847, 0
863, 0.97349376455662, -0.24561541910066, 0
864, 0.97355905300231, -0.2726933444303, 0
865, 0.10193740838817, -0.27292604085044, 0
866, 0.12714405920341, -0.27296482994875, 0
867, 0.15233002623447, -0.27301717176402, 0
868, 0.17751926107302, -0.27310472127657, 0
869, 0.20274273798213, -0.27325695339182, 0
870, 0.22805493836487, -0.2734673534548, 0
871, 0.25352665095225, -0.27376319094619, 0
872, 0.27927749217262, -0.27415102329923, 0
873, 0.30546513545753, -0.27464592618392, 0
874, 0.33235072879115, -0.27528323198317, 0
875, 0.36022958249737, -0.27597491109426, 0
876, 0.3896049955557, -0.27678978390596, 0
877, 0.42063934643063, -0.27687164660852, 0
878, 0.45079105616844, -0.2710910416091, 0
******* E L E M E N T S *************
*ELEMENT, type=T3D2, ELSET=Line1
1, 1, 10
2, 10, 18
3, 18, 11
4, 11, 19
5, 19, 12
6, 12, 20
7, 20, 13
8, 13, 21
9, 21, 14
10, 14, 22
11, 22, 15
12, 15, 23
13, 23, 16
14, 16, 24
15, 24, 17
16, 17, 2
*ELEMENT, type=T3D2, ELSET=Line2
17, 2, 25
18, 25, 28
19, 28, 26
20, 26, 29
21, 29, 27
22, 27, 3
*ELEMENT, type=T3D2, ELSET=Line3
23, 3, 30
24, 30, 38
25, 38, 31
26, 31, 39
27, 39, 32
28, 32, 40
29, 40, 33
30, 33, 41
31, 41, 34
32, 34, 42
33, 42, 35
34, 35, 43
35, 43, 36
36, 36, 44
37, 44, 37
38, 37, 4
*ELEMENT, type=T3D2, ELSET=Line4
39, 4, 45
40, 45, 56
41, 56, 46
42, 46, 57
43, 57, 47
44, 47, 58
45, 58, 48
46, 48, 59
47, 59, 49
48, 49, 60
49, 60, 50
50, 50, 61
51, 61, 51
52, 51, 62
53, 62, 52
54, 52, 63
55, 63, 53
56, 53, 64
57, 64, 54
58, 54, 65
59, 65, 55
60, 55, 5
*ELEMENT, type=T3D2, ELSET=Line5
61, 5, 66
62, 66, 74
63, 74, 67
64, 67, 75
65, 75, 68
66, 68, 76
67, 76, 69
68, 69, 77
69, 77, 70
70, 70, 78
71, 78, 71
72, 71, 79
73, 79, 72
74, 72, 80
75, 80, 73
76, 73, 6
*ELEMENT, type=T3D2, ELSET=Line6
77, 6, 81
78, 81, 84
79, 84, 82
80, 82, 85
81, 85, 83
82, 83, 7
*ELEMENT, type=T3D2, ELSET=Line7
83, 7, 86
84, 86, 94
85, 94, 87
86, 87, 95
87, 95, 88
88, 88, 96
89, 96, 89
90, 89, 97
91, 97, 90
92, 90, 98
93, 98, 91
94, 91, 99
95, 99, 92
96, 92, 100
97, 100, 93
98, 93, 8
*ELEMENT, type=T3D2, ELSET=Line8
99, 8, 101
100, 101, 112
101, 112, 102
102, 102, 113
103, 113, 103
104, 103, 114
105, 114, 104
106, 104, 115
107, 115, 105
108, 105, 116
109, 116, 106
110, 106, 117
111, 117, 107
112, 107, 118
113, 118, 108
114, 108, 119
115, 119, 109
116, 109, 120
117, 120, 110
118, 110, 121
119, 121, 111
120, 111, 1
*ELEMENT, type=T3D2, ELSET=Line9
121, 9, 122
122, 122, 134
123, 134, 123
124, 123, 135
125, 135, 124
126, 124, 136
127, 136, 125
128, 125, 137
129, 137, 126
130, 126, 138
131, 138, 127
132, 127, 139
133, 139, 128
134, 128, 140
135, 140, 129
136, 129, 141
137, 141, 130
138, 130, 142
139, 142, 131
140, 131, 143
141, 143, 132
142, 132, 144
143, 144, 133
144, 133, 9
*ELEMENT, type=CPS4, ELSET=Surface1
145, 303, 330, 18, 11
146, 853, 685, 221, 407
147, 230, 214, 637, 227
148, 262, 622, 368, 595
149, 423, 694, 695, 478
150, 76, 69, 472, 802
151, 582, 335, 727, 488
152, 115, 340, 341, 104
153, 104, 341, 338, 114
154, 341, 339, 168, 338
155, 340, 204, 339, 341
156, 98, 91, 345, 342
157, 342, 345, 343, 174
158, 345, 344, 173, 343
159, 91, 99, 344, 345
160, 246, 551, 590, 428
161, 696, 538, 386, 838
162, 598, 413, 468, 439
163, 79, 72, 803, 530
164, 518, 758, 606, 417
165, 642, 767, 750, 566
166, 809, 843, 545, 401
167, 425, 686, 441, 556
168, 99, 92, 356, 344
169, 344, 356, 354, 173
170, 356, 355, 172, 354
171, 92, 100, 355, 356
172, 177, 359, 360, 357
173, 357, 360, 358, 175
174, 360, 89, 97, 358
175, 359, 96, 89, 360
176, 362, 280, 367, 505
177, 475, 500, 161, 746
178, 366, 584, 523, 158
179, 532, 730, 551, 246
180, 438, 728, 279, 507
181, 861, 411, 589, 300
182, 280, 504, 745, 367
183, 379, 585, 269, 841
184, 39, 371, 372, 31
185, 31, 372, 369, 38
186, 372, 370, 156, 369
187, 371, 155, 370, 372
188, 205, 374, 375, 373
189, 373, 375, 105, 116
190, 375, 340, 115, 105
191, 374, 204, 340, 375
192, 97, 90, 377, 358
193, 358, 377, 376, 175
194, 377, 342, 174, 376
195, 90, 98, 342, 377
196, 368, 536, 336, 698
197, 539, 297, 282, 497
198, 746, 161, 278, 656
199, 507, 279, 271, 320
200, 181, 383, 384, 381
201, 381, 384, 382, 179
202, 384, 87, 95, 382
203, 383, 94, 87, 384
204, 729, 624, 597, 596
205, 75, 68, 337, 153
206, 6, 81, 516, 259
207, 240, 692, 239, 850
208, 218, 389, 390, 388
209, 388, 390, 106, 117
210, 390, 373, 116, 106
211, 389, 205, 373, 390
212, 684, 518, 417, 309
213, 604, 148, 683, 214
214, 147, 521, 392, 605
215, 556, 441, 119, 109
216, 878, 314, 142, 130
217, 207, 388, 117, 107
218, 317, 640, 148, 604
219, 225, 217, 479, 524
220, 584, 322, 286, 523
221, 656, 278, 585, 379
222, 504, 499, 403, 745
223, 281, 497, 842, 322
224, 209, 565, 613, 787
225, 150, 308, 234, 333
226, 524, 479, 218, 567
227, 395, 410, 810, 402
228, 666, 775, 321, 623
229, 776, 240, 850, 667
230, 153, 337, 774, 476
231, 321, 261, 485, 777
232, 96, 359, 406, 88
233, 88, 406, 382, 95
234, 406, 405, 179, 382
235, 359, 177, 405, 406
236, 808, 809, 401, 793
237, 417, 606, 614, 639
238, 352, 317, 604, 830
239, 330, 688, 353, 749
240, 548, 325, 440, 318
241, 248, 265, 729, 334
242, 760, 276, 362, 325
243, 34, 319, 501, 41
244, 252, 258, 241, 387
245, 550, 433, 467, 243
246, 429, 252, 387, 346
247, 400, 562, 825, 146
248, 219, 766, 147, 744
249, 309, 417, 639, 350
250, 208, 556, 109, 120
251, 608, 139, 127, 641
252, 171, 420, 421, 419
253, 419, 421, 338, 168
254, 421, 103, 114, 338
255, 420, 113, 103, 421
256, 258, 435, 272, 241
257, 259, 516, 515, 431
258, 55, 658, 593, 65
259, 229, 554, 215, 216
260, 867, 220, 395, 866
261, 392, 212, 816, 555
262, 331, 222, 765, 226
263, 692, 274, 696, 239
264, 273, 649, 335, 582
265, 414, 533, 706, 255
266, 838, 386, 348, 651
267, 430, 503, 475, 277
268, 397, 652, 438, 295
269, 249, 306, 784, 741
270, 593, 582, 488, 445
271, 286, 759, 588, 470
272, 411, 283, 506, 589
273, 667, 850, 694, 423
274, 49, 60, 380, 806
275, 394, 211, 603, 569
276, 632, 128, 139, 608
277, 545, 391, 713, 817
278, 416, 126, 137, 599
279, 43, 299, 535, 35
280, 276, 580, 280, 362
281, 270, 541, 365, 503
282, 522, 539, 497, 281
283, 766, 831, 521, 147
284, 148, 791, 351, 683
285, 873, 757, 219, 872
286, 393, 396, 607, 638
287, 842, 430, 277, 759
288, 501, 760, 325, 548
289, 498, 361, 655, 290
290, 535, 320, 284, 469
291, 698, 336, 742, 740
292, 66, 74, 273, 658
293, 239, 696, 838, 561
294, 562, 443, 502, 825
295, 488, 727, 400, 754
296, 285, 746, 656, 846
297, 587, 398, 740, 288
298, 318, 440, 586, 160
299, 348, 242, 844, 413
300, 654, 841, 361, 498
301, 299, 507, 320, 535
302, 301, 834, 434, 404
303, 100, 93, 454, 355
304, 355, 454, 453, 172
305, 454, 101, 112, 453
306, 93, 8, 101, 454
307, 206, 457, 458, 455
308, 455, 458, 374, 205
309, 458, 456, 204, 374
310, 457, 203, 456, 458
311, 254, 461, 462, 459
312, 459, 462, 460, 182
313, 462, 82, 85, 460
314, 461, 84, 82, 462
315, 145, 464, 465, 463
316, 463, 465, 383, 181
317, 465, 86, 94, 383
318, 464, 7, 86, 465
319, 272, 707, 739, 237
320, 622, 268, 536, 368
321, 658, 273, 582, 593
322, 478, 695, 592, 807
323, 751, 753, 305, 499
324, 157, 654, 498, 449
325, 266, 259, 431, 785
326, 335, 476, 833, 727
327, 361, 587, 288, 655
328, 858, 379, 841, 654
329, 305, 858, 654, 157
330, 440, 505, 448, 586
331, 238, 490, 252, 429
332, 803, 446, 422, 489
333, 502, 659, 248, 534
334, 64, 773, 424, 53
335, 217, 480, 481, 479
336, 479, 481, 389, 218
337, 481, 455, 205, 389
338, 480, 206, 455, 481
339, 204, 456, 484, 339
340, 339, 484, 482, 168
341, 484, 483, 167, 482
342, 456, 203, 483, 484
343, 346, 387, 473, 261
344, 813, 451, 306, 249
345, 579, 326, 533, 414
346, 485, 693, 326, 579
347, 65, 593, 445, 54
348, 657, 487, 244, 247
349, 534, 248, 334, 538
350, 206, 493, 494, 457
351, 457, 494, 491, 203
352, 494, 492, 197, 491
353, 493, 202, 492, 494
354, 182, 460, 496, 495
355, 495, 496, 464, 145
356, 496, 83, 7, 464
357, 460, 85, 83, 496
358, 364, 540, 852, 826
359, 279, 323, 366, 271
360, 265, 486, 624, 729
361, 336, 249, 741, 742
362, 32, 160, 371, 39
363, 70, 78, 490, 238
364, 753, 846, 858, 305
365, 812, 751, 499, 504
366, 552, 596, 432, 242
367, 35, 535, 469, 42
368, 349, 699, 591, 451
369, 541, 439, 468, 365
370, 163, 510, 511, 508
371, 508, 511, 509, 170
372, 511, 376, 174, 509
373, 510, 175, 376, 511
374, 174, 343, 514, 509
375, 509, 514, 512, 170
376, 514, 513, 169, 512
377, 343, 173, 513, 514
378, 334, 729, 596, 552
379, 473, 805, 657, 693
380, 516, 461, 254, 515
381, 81, 84, 461, 516
382, 641, 127, 138, 232
383, 851, 793, 602, 396
384, 758, 352, 830, 606
385, 402, 810, 229, 764
386, 469, 284, 324, 319
387, 864, 863, 652, 397
388, 862, 861, 300, 859
389, 73, 6, 259, 266
390, 632, 608, 224, 517
391, 608, 641, 302, 224
392, 635, 231, 563, 152
393, 564, 636, 151, 228
394, 172, 453, 527, 526
395, 526, 527, 420, 171
396, 527, 102, 113, 420
397, 453, 112, 102, 527
398, 304, 158, 412, 296
399, 586, 448, 546, 155
400, 580, 812, 504, 280
401, 319, 324, 760, 501
402, 54, 445, 773, 64
403, 61, 807, 452, 50
404, 805, 237, 487, 657
405, 72, 80, 446, 803
406, 528, 449, 820, 292
407, 324, 296, 276, 760
408, 255, 706, 433, 550
409, 323, 653, 584, 366
410, 653, 281, 322, 584
411, 537, 378, 840, 294
412, 40, 318, 160, 32
413, 589, 506, 522, 159
414, 217, 519, 543, 480
415, 480, 543, 493, 206
416, 543, 542, 202, 493
417, 519, 223, 542, 543
418, 664, 316, 843, 809
419, 713, 519, 217, 225
420, 767, 140, 128, 632
421, 744, 147, 605, 832
422, 158, 523, 444, 412
423, 241, 272, 237, 805
424, 160, 586, 155, 371
425, 386, 552, 242, 348
426, 487, 263, 771, 244
427, 428, 590, 349, 251
428, 69, 77, 578, 472
429, 67, 75, 153, 649
430, 872, 219, 744, 871
431, 636, 409, 520, 151
432, 553, 436, 150, 714
433, 787, 613, 409, 636
434, 234, 308, 560, 557
435, 557, 560, 558, 196
436, 560, 559, 193, 558
437, 308, 235, 559, 560
438, 271, 366, 158, 304
439, 295, 438, 507, 299
440, 443, 250, 659, 502
441, 759, 277, 285, 588
442, 606, 830, 230, 614
443, 831, 427, 792, 521
444, 520, 544, 331, 316
445, 544, 835, 222, 331
446, 517, 224, 317, 352
447, 396, 602, 437, 607
448, 307, 442, 831, 766
449, 391, 223, 519, 713
450, 287, 572, 573, 570
451, 570, 573, 124, 135
452, 573, 571, 136, 124
453, 572, 236, 571, 573
454, 181, 381, 577, 574
455, 574, 577, 575, 180
456, 577, 576, 178, 575
457, 381, 179, 576, 577
458, 581, 772, 447, 385
459, 380, 452, 834, 301
460, 268, 251, 813, 536
461, 578, 238, 429, 531
462, 772, 477, 829, 447
463, 306, 298, 783, 784
464, 466, 651, 598, 471
465, 754, 400, 146, 253
466, 57, 47, 411, 861
467, 41, 501, 548, 33
468, 367, 745, 378, 537
469, 863, 862, 859, 652
470, 59, 49, 806, 540
471, 852, 857, 399, 297
472, 300, 589, 159, 450
473, 447, 829, 700, 730
474, 245, 531, 775, 666
475, 444, 470, 751, 812
476, 60, 50, 452, 380
477, 503, 365, 500, 475
478, 53, 424, 776, 63
479, 432, 594, 650, 363
480, 277, 475, 746, 285
481, 785, 431, 477, 772
482, 267, 733, 845, 665
483, 435, 489, 707, 272
484, 594, 550, 243, 650
485, 477, 736, 734, 829
486, 146, 825, 274, 692
487, 242, 432, 363, 844
488, 387, 241, 805, 473
489, 5, 66, 658, 55
490, 136, 571, 601, 125
491, 125, 601, 599, 137
492, 601, 600, 235, 599
493, 571, 236, 600, 601
494, 767, 632, 517, 750
495, 232, 416, 436, 553
496, 442, 227, 427, 831
497, 688, 216, 426, 353
498, 302, 553, 714, 640
499, 303, 764, 688, 330
500, 441, 569, 108, 119
501, 224, 302, 640, 317
502, 427, 149, 564, 792
503, 614, 230, 227, 442
504, 563, 609, 210, 408
505, 567, 218, 388, 207
506, 291, 312, 612, 611
507, 611, 612, 123, 134
508, 612, 570, 135, 123
509, 312, 287, 570, 612
510, 214, 683, 209, 637
511, 213, 524, 567, 211
512, 750, 517, 352, 758
513, 521, 792, 212, 392
514, 154, 616, 617, 615
515, 615, 617, 122, 9
516, 617, 611, 134, 122
517, 616, 291, 611, 617
518, 165, 620, 621, 618
519, 618, 621, 619, 166
520, 621, 508, 170, 619
521, 620, 163, 508, 621
522, 844, 363, 583, 474
523, 471, 598, 439, 434
524, 590, 665, 699, 349
525, 449, 498, 290, 820
526, 183, 626, 627, 625
527, 625, 627, 574, 180
528, 627, 463, 181, 574
529, 626, 145, 463, 627
530, 177, 629, 630, 405
531, 405, 630, 576, 179
532, 630, 628, 178, 576
533, 629, 176, 628, 630
534, 877, 743, 684, 876
535, 149, 787, 636, 564
536, 215, 425, 556, 208
537, 816, 418, 808, 811
538, 29, 27, 634, 313
539, 313, 634, 131, 142
540, 634, 633, 143, 131
541, 27, 3, 633, 634
542, 610, 642, 566, 743
543, 686, 394, 569, 441
544, 856, 711, 233, 687
545, 639, 614, 442, 307
546, 878, 130, 141, 610
547, 640, 714, 791, 148
548, 876, 684, 309, 875
549, 832, 605, 231, 635
550, 416, 599, 235, 436
551, 525, 315, 213, 786
552, 332, 786, 394, 686
553, 638, 607, 631, 554
554, 186, 645, 646, 643
555, 643, 646, 644, 187
556, 646, 625, 180, 644
557, 645, 183, 625, 646
558, 156, 647, 648, 369
559, 369, 648, 30, 38
560, 648, 633, 3, 30
561, 647, 143, 633, 648
562, 71, 79, 530, 804
563, 62, 423, 478, 51
564, 739, 385, 532, 263
565, 825, 502, 534, 274
566, 467, 264, 398, 529
567, 505, 367, 537, 448
568, 269, 529, 398, 587
569, 320, 271, 304, 284
570, 595, 368, 698, 264
571, 597, 255, 550, 594
572, 857, 301, 404, 399
573, 450, 159, 653, 323
574, 256, 662, 663, 660
575, 660, 663, 661, 184
576, 663, 459, 182, 661
577, 662, 254, 459, 663
578, 875, 309, 350, 874
579, 568, 817, 315, 525
580, 315, 225, 524, 213
581, 605, 392, 555, 231
582, 68, 76, 802, 337
583, 326, 247, 547, 533
584, 623, 321, 777, 415
585, 413, 844, 474, 468
586, 184, 669, 670, 660
587, 660, 670, 668, 256
588, 670, 328, 257, 668
589, 669, 185, 328, 670
590, 176, 629, 672, 671
591, 671, 672, 510, 163
592, 672, 357, 175, 510
593, 629, 177, 357, 672
594, 180, 575, 675, 644
595, 644, 675, 673, 187
596, 675, 674, 188, 673
597, 575, 178, 674, 675
598, 9, 133, 678, 615
599, 615, 678, 676, 154
600, 678, 677, 293, 676
601, 133, 144, 677, 678
602, 192, 681, 682, 679
603, 679, 682, 680, 189
604, 682, 643, 187, 680
605, 681, 186, 643, 682
606, 220, 408, 410, 395
607, 810, 638, 554, 229
608, 793, 401, 568, 602
609, 232, 138, 126, 416
610, 642, 129, 140, 767
611, 210, 851, 396, 393
612, 602, 568, 525, 437
613, 811, 808, 793, 851
614, 188, 674, 691, 689
615, 689, 691, 690, 164
616, 691, 628, 176, 690
617, 674, 178, 628, 691
618, 298, 800, 801, 783
619, 52, 667, 423, 62
620, 697, 245, 666, 260
621, 651, 348, 413, 598
622, 706, 262, 595, 433
623, 829, 734, 735, 700
624, 237, 739, 263, 487
625, 260, 666, 623, 250
626, 693, 657, 247, 326
627, 244, 771, 549, 347
628, 77, 70, 238, 578
629, 196, 704, 705, 701
630, 701, 705, 702, 195
631, 705, 703, 190, 702
632, 704, 189, 703, 705
633, 777, 485, 579, 486
634, 775, 346, 261, 321
635, 422, 785, 772, 581
636, 699, 837, 839, 591
637, 190, 703, 709, 708
638, 708, 709, 673, 188
639, 709, 680, 187, 673
640, 703, 189, 680, 709
641, 233, 711, 712, 710
642, 710, 712, 701, 195
643, 712, 557, 196, 701
644, 711, 234, 557, 712
645, 410, 393, 638, 810
646, 613, 853, 407, 409
647, 569, 603, 118, 108
648, 869, 635, 152, 868
649, 184, 661, 716, 715
650, 715, 716, 626, 183
651, 716, 495, 145, 626
652, 661, 182, 495, 716
653, 185, 669, 718, 717
654, 717, 718, 645, 186
655, 718, 715, 183, 645
656, 669, 184, 715, 718
657, 289, 311, 721, 719
658, 719, 721, 655, 288
659, 721, 720, 290, 655
660, 311, 291, 720, 721
661, 190, 708, 724, 722
662, 722, 724, 723, 199
663, 724, 689, 164, 723
664, 708, 188, 689, 724
665, 144, 132, 726, 677
666, 677, 726, 725, 293
667, 726, 647, 156, 725
668, 132, 143, 647, 726
669, 403, 157, 449, 528
670, 551, 267, 665, 590
671, 806, 380, 301, 857
672, 284, 304, 296, 324
673, 274, 534, 538, 696
674, 665, 845, 837, 699
675, 347, 549, 268, 622
676, 78, 71, 804, 490
677, 173, 354, 732, 513
678, 513, 732, 731, 169
679, 732, 526, 171, 731
680, 354, 172, 526, 732
681, 263, 532, 246, 771
682, 752, 260, 250, 443
683, 735, 668, 257, 733
684, 734, 256, 668, 735
685, 256, 734, 736, 662
686, 662, 736, 515, 254
687, 431, 515, 736, 477
688, 193, 737, 738, 558
689, 558, 738, 704, 196
690, 738, 679, 189, 704
691, 737, 192, 679, 738
692, 700, 735, 733, 267
693, 649, 153, 476, 335
694, 742, 719, 288, 740
695, 741, 289, 719, 742
696, 408, 210, 393, 410
697, 152, 563, 408, 220
698, 351, 856, 687, 565
699, 603, 207, 107, 118
700, 297, 399, 270, 282
701, 859, 300, 450, 728
702, 278, 275, 162, 585
703, 585, 162, 529, 269
704, 163, 620, 748, 671
705, 671, 748, 690, 176
706, 748, 747, 164, 690
707, 620, 165, 747, 748
708, 554, 631, 425, 215
709, 786, 213, 211, 394
710, 426, 208, 120, 110
711, 565, 687, 853, 613
712, 448, 537, 294, 546
713, 807, 592, 834, 452
714, 44, 397, 295, 36
715, 472, 578, 531, 245
716, 650, 243, 162, 275
717, 530, 803, 489, 435
718, 80, 73, 266, 446
719, 251, 349, 451, 813
720, 168, 482, 756, 419
721, 419, 756, 731, 171
722, 756, 755, 169, 731
723, 482, 167, 755, 756
724, 437, 525, 786, 332
725, 631, 332, 686, 425
726, 401, 545, 817, 568
727, 871, 744, 832, 870
728, 826, 852, 297, 539
729, 470, 588, 753, 751
730, 728, 450, 323, 279
731, 47, 58, 283, 411
732, 165, 762, 763, 747
733, 747, 763, 723, 164
734, 763, 761, 199, 723
735, 762, 198, 761, 763
736, 878, 25, 28, 314
737, 216, 215, 208, 426
738, 418, 664, 809, 808
739, 228, 151, 664, 418
740, 195, 702, 770, 768
741, 768, 770, 769, 201
742, 770, 722, 199, 769
743, 702, 190, 722, 770
744, 773, 754, 253, 424
745, 771, 246, 428, 549
746, 804, 530, 435, 258
747, 415, 777, 486, 265
748, 250, 623, 415, 659
749, 247, 244, 347, 547
750, 385, 447, 730, 532
751, 261, 473, 693, 485
752, 170, 512, 779, 619
753, 619, 779, 778, 166
754, 779, 755, 167, 778
755, 512, 169, 755, 779
756, 165, 618, 782, 762
757, 762, 782, 780, 198
758, 782, 781, 197, 780
759, 618, 166, 781, 782
760, 363, 650, 275, 583
761, 264, 698, 740, 398
762, 784, 310, 289, 741
763, 783, 287, 310, 784
764, 490, 804, 258, 252
765, 476, 774, 752, 833
766, 538, 334, 552, 386
767, 695, 466, 471, 592
768, 353, 426, 110, 121
769, 714, 150, 333, 791
770, 749, 111, 1, 10
771, 830, 604, 214, 230
772, 202, 789, 790, 492
773, 492, 790, 780, 197
774, 790, 788, 198, 780
775, 789, 200, 788, 790
776, 870, 832, 635, 869
777, 874, 350, 757, 873
778, 792, 564, 228, 212
779, 791, 333, 856, 351
780, 201, 794, 795, 768
781, 768, 795, 710, 195
782, 795, 685, 233, 710
783, 794, 221, 685, 795
784, 203, 491, 796, 483
785, 483, 796, 778, 167
786, 796, 781, 166, 778
787, 491, 197, 781, 796
788, 201, 769, 798, 797
789, 797, 798, 788, 200
790, 798, 761, 198, 788
791, 769, 199, 761, 798
792, 531, 429, 346, 775
793, 783, 801, 572, 287
794, 801, 799, 236, 572
795, 800, 194, 799, 801
796, 63, 776, 667, 52
797, 833, 752, 443, 562
798, 489, 422, 581, 707
799, 561, 838, 651, 466
800, 337, 802, 697, 774
801, 774, 697, 260, 752
802, 533, 547, 262, 706
803, 497, 282, 430, 842
804, 596, 597, 594, 432
805, 325, 362, 505, 440
806, 592, 471, 434, 834
807, 694, 561, 466, 695
808, 687, 233, 685, 853
809, 407, 221, 835, 544
810, 607, 437, 332, 631
811, 866, 395, 402, 865
812, 609, 811, 851, 210
813, 817, 713, 225, 315
814, 757, 307, 766, 219
815, 212, 228, 418, 816
816, 841, 269, 587, 361
817, 161, 583, 275, 278
818, 499, 305, 157, 403
819, 659, 415, 265, 248
820, 222, 814, 815, 765
821, 765, 815, 542, 223
822, 815, 789, 202, 542
823, 814, 200, 789, 815
824, 878, 610, 743, 877
825, 231, 555, 609, 563
826, 226, 765, 223, 391
827, 333, 234, 711, 856
828, 236, 799, 819, 600
829, 600, 819, 559, 235
830, 819, 818, 193, 559
831, 799, 194, 818, 819
832, 154, 821, 822, 616
833, 616, 822, 720, 291
834, 822, 820, 290, 720
835, 821, 292, 820, 822
836, 192, 823, 824, 681
837, 681, 824, 717, 186
838, 824, 327, 185, 717
839, 823, 191, 327, 824
840, 506, 826, 539, 522
841, 51, 478, 807, 61
842, 33, 548, 318, 40
843, 536, 813, 249, 336
844, 192, 737, 828, 823
845, 823, 828, 827, 191
846, 828, 818, 194, 827
847, 737, 193, 818, 828
848, 296, 412, 580, 276
849, 283, 364, 826, 506
850, 850, 239, 561, 694
851, 591, 839, 800, 298
852, 316, 331, 226, 843
853, 868, 152, 220, 867
854, 566, 750, 758, 518
855, 211, 567, 207, 603
856, 555, 816, 811, 609
857, 350, 639, 307, 757
858, 865, 402, 764, 303
859, 743, 566, 518, 684
860, 588, 285, 846, 753
861, 745, 403, 528, 378
862, 37, 864, 397, 44
863, 451, 591, 298, 306
864, 200, 814, 836, 797
865, 797, 836, 794, 201
866, 836, 835, 221, 794
867, 814, 222, 835, 836
868, 194, 800, 839, 827
869, 827, 839, 837, 191
870, 445, 488, 754, 773
871, 433, 595, 264, 467
872, 36, 295, 299, 43
873, 424, 253, 240, 776
874, 730, 700, 267, 551
875, 48, 59, 540, 364
876, 378, 528, 292, 840
877, 253, 146, 692, 240
878, 365, 468, 474, 500
879, 243, 467, 529, 162
880, 610, 141, 129, 642
881, 749, 353, 121, 111
882, 843, 226, 391, 545
883, 409, 407, 544, 520
884, 257, 329, 845, 733
885, 74, 67, 649, 273
886, 624, 414, 255, 597
887, 329, 191, 837, 845
888, 282, 270, 503, 430
889, 846, 656, 379, 858
890, 652, 859, 728, 438
891, 58, 48, 364, 283
892, 294, 840, 848, 847
893, 847, 848, 676, 293
894, 848, 821, 154, 676
895, 840, 292, 821, 848
896, 293, 725, 849, 847
897, 847, 849, 546, 294
898, 849, 370, 155, 546
899, 725, 156, 370, 849
900, 486, 579, 414, 624
901, 727, 833, 562, 400
902, 547, 347, 622, 262
903, 549, 428, 251, 268
904, 683, 351, 565, 209
905, 330, 749, 10, 18
906, 707, 581, 385, 739
907, 446, 266, 785, 422
908, 523, 286, 470, 444
909, 436, 235, 308, 150
910, 151, 520, 316, 664
911, 637, 209, 787, 149
912, 287, 312, 854, 310
913, 310, 854, 311, 289
914, 312, 291, 311, 854
915, 142, 314, 855, 313
916, 313, 855, 26, 29
917, 314, 28, 26, 855
918, 641, 232, 553, 302
919, 227, 637, 149, 427
920, 764, 229, 216, 688
921, 412, 444, 812, 580
922, 159, 522, 281, 653
923, 802, 472, 245, 697
924, 399, 404, 541, 270
925, 404, 434, 439, 541
926, 540, 806, 857, 852
927, 42, 469, 319, 34
928, 322, 842, 759, 286
929, 500, 474, 583, 161
930, 191, 329, 860, 327
931, 327, 860, 328, 185
932, 329, 257, 328, 860
933, 46, 57, 861, 862
934, 56, 46, 862, 863
935, 45, 56, 863, 864
936, 4, 45, 864, 37
937, 865, 303, 11, 19
938, 866, 865, 19, 12
939, 867, 866, 12, 20
940, 868, 867, 20, 13
941, 869, 868, 13, 21
942, 870, 869, 21, 14
943, 871, 870, 14, 22
944, 872, 871, 22, 15
945, 873, 872, 15, 23
946, 874, 873, 23, 16
947, 875, 874, 16, 24
948, 876, 875, 24, 17
949, 877, 876, 17, 2
950, 878, 877, 2, 25
*ELSET,ELSET=contact_source
99, 100, 101, 102, 103, 104, 105, 106, 107, 108, 
109, 110, 111, 112, 113, 114, 115, 116, 117, 118, 
119, 120, 
*ELSET,ELSET=contact_drain
39, 40, 41, 42, 43, 44, 45, 46, 47, 48, 
49, 50, 51, 52, 53, 54, 55, 56, 57, 58, 
59, 60, 
*ELSET,ELSET=probe_A
77, 78, 79, 80, 81, 82, 
*ELSET,ELSET=probe_B
17, 18, 19, 20, 21, 22, 
*ELSET,ELSET=walls
1, 2, 3, 4, 5, 6, 7, 8, 9, 10, 
11, 12, 13, 14, 15, 16, 23, 24, 25, 26, 
27, 28, 29, 30, 31, 32, 33, 34, 35, 36, 
37, 38, 61, 62, 63, 64, 65, 66, 67, 68, 
69, 70, 71, 72, 73, 74, 75, 76, 83, 84, 
85, 86, 87, 88, 89, 90, 91, 92, 93, 94, 
95, 96, 97, 98, 121, 122, 123, 124, 125, 126, 
127, 128, 129, 130, 131, 132, 133, 134, 135, 136, 
137, 138, 139, 140, 141, 142, 143, 144, 
*ELSET,ELSET=domain
145, 146, 147, 148, 149, 150, 151, 152, 153, 154, 
155, 156, 157, 158, 159, 160, 161, 162, 163, 164, 
165, 166, 167, 168, 169, 170, 171, 172, 173, 174, 
175, 176, 177, 178, 179, 180, 181, 182, 183, 184, 
185, 186, 187, 188, 189, 190, 191, 192, 193, 194, 
195, 196, 197, 198, 199, 200, 201, 202, 203, 204, 
205, 206, 207, 208, 209, 210, 211, 212, 213, 214, 
215, 216, 217, 218, 219, 220, 221, 222, 223, 224, 
225, 226, 227, 228, 229, 230, 231, 232, 233, 234, 
235, 236, 237, 238, 239, 240, 241, 242, 243, 244, 
245, 246, 247, 248, 249, 250, 251, 252, 253, 254, 
255, 256, 257, 258, 259, 260, 261, 262, 263, 264, 
265, 266, 267, 268, 269, 270, 271, 272, 273, 274, 
275, 276, 277, 278, 279, 280, 281, 282, 283, 284, 
285, 286, 287, 288, 289, 290, 291, 292, 293, 294, 
295, 296, 297, 298, 299, 300, 301, 302, 303, 304, 
305, 306, 307, 308, 309, 310, 311, 312, 313, 314, 
315, 316, 317, 318, 319, 320, 321, 322, 323, 324, 
325, 326, 327, 328, 329, 330, 331, 332, 333, 334, 
335, 336, 337, 338, 339, 340, 341, 342, 343, 344, 
345, 346, 347, 348, 349, 350, 351, 352, 353, 354, 
355, 356, 357, 358, 359, 360, 361, 362, 363, 364, 
365, 366, 367, 368, 369, 370, 371, 372, 373, 374, 
375, 376, 377, 378, 379, 380, 381, 382, 383, 384, 
385, 386, 387, 388, 389, 390, 391, 392, 393, 394, 
395, 396, 397, 398, 399, 400, 401, 402, 403, 404, 
405, 406, 407, 408, 409, 410, 411, 412, 413, 414, 
415, 416, 417, 418, 419, 420, 421, 422, 423, 424, 
425, 426, 427, 428, 429, 430, 431, 432, 433, 434, 
435, 436, 437, 438, 439, 440, 441, 442, 443, 444, 
445, 446, 447, 448, 449, 450, 451, 452, 453, 454, 
455, 456, 457, 458, 459, 460, 461, 462, 463, 464, 
465, 466, 467, 468, 469, 470, 471, 472, 473, 474, 
475, 476, 477, 478, 479, 480, 481, 482, 483, 484, 
485, 486, 487, 488, 489, 490, 491, 492, 493, 494, 
495, 496, 497, 498, 499, 500, 501, 502, 503, 504, 
505, 506, 507, 508, 509, 510, 511, 512, 513, 514, 
515, 516, 517, 518, 519, 520, 521, 522, 523, 524, 
525, 526, 527, 528, 529, 530, 531, 532, 533, 534, 
535, 536, 537, 538, 539, 540, 541, 542, 543, 544, 
545, 546, 547, 548, 549, 550, 551, 552, 553, 554, 
555, 556, 557, 558, 559, 560, 561, 562, 563, 564, 
565, 566, 567, 568, 569, 570, 571, 572, 573, 574, 
575, 576, 577, 578, 579, 580, 581, 582, 583, 584, 
585, 586, 587, 588, 589, 590, 591, 592, 593, 594, 
595, 596, 597, 598, 599, 600, 601, 602, 603, 604, 
605, 606, 607, 608, 609, 610, 611, 612, 613, 614, 
615, 616, 617, 618, 619, 620, 621, 622, 623, 624, 
625, 626, 627, 628, 629, 630, 631, 632, 633, 634, 
635, 636, 637, 638, 639, 640, 641, 642, 643, 644, 
645, 646, 647, 648, 649, 650, 651, 652, 653, 654, 
655, 656, 657, 658, 659, 660, 661, 662, 663, 664, 
665, 666, 667, 668, 669, 670, 671, 672, 673, 674, 
675, 676, 677, 678, 679, 680, 681, 682, 683, 684, 
685, 686, 687, 688, 689, 690, 691, 692, 693, 694, 
695, 696, 697, 698, 699, 700, 701, 702, 703, 704, 
705, 706, 707, 708, 709, 710, 711, 712, 713, 714, 
715, 716, 717, 718, 719, 720, 721, 722, 723, 724, 
725, 726, 727, 728, 729, 730, 731, 732, 733, 734, 
735, 736, 737, 738, 739, 740, 741, 742, 743, 744, 
745, 746, 747, 748, 749, 750, 751, 752, 753, 754, 
755, 756, 757, 758, 759, 760, 761, 762, 763, 764, 
765, 766, 767, 768, 769, 770, 771, 772, 773, 774, 
775, 776, 777, 778, 779, 780, 781, 782, 783, 784, 
785, 786, 787, 788, 789, 790, 791, 792, 793, 794, 
795, 796, 797, 798, 799, 800, 801, 802, 803, 804, 
805, 806, 807, 808, 809, 810, 811, 812, 813, 814, 
815, 816, 817, 818, 819, 820, 821, 822, 823, 824, 
825, 826, 827, 828, 829, 830, 831, 832, 833, 834, 
835, 836, 837, 838, 839, 840, 841, 842, 843, 844, 
845, 846, 847, 848, 849, 850, 851, 852, 853, 854, 
855, 856, 857, 858, 859, 860, 861, 862, 863, 864, 
865, 866, 867, 868, 869, 870, 871, 872, 873, 874, 
875, 876, 877, 878, 879, 880, 881, 882, 883, 884, 
885, 886, 887, 888, 889, 890, 891, 892, 893, 894, 
895, 896, 897, 898, 899, 900, 901, 902, 903, 904, 
905, 906, 907, 908, 909, 910, 911, 912, 913, 914, 
915, 916, 917, 918, 919, 920, 921, 922, 923, 924, 
925, 926, 927, 928, 929, 930, 931, 932, 933, 934, 
935, 936, 937, 938, 939, 940, 941, 942, 943, 944, 
945, 946, 947, 948, 949, 950, 
*NSET,NSET=contact_source
1, 8, 101, 102, 103, 104, 105, 106, 107, 108, 
109, 110, 111, 112, 113, 114, 115, 116, 117, 118, 
119, 120, 121, 
*NSET,NSET=contact_drain
4, 5, 45, 46, 47, 48, 49, 50, 51, 52, 
53, 54, 55, 56, 57, 58, 59, 60, 61, 62, 
63, 64, 65, 
*NSET,NSET=probe_A
6, 7, 81, 82, 83, 84, 85, 
*NSET,NSET=probe_B
2, 3, 25, 26, 27, 28, 29, 
*NSET,NSET=walls
1, 2, 3, 4, 5, 6, 7, 8, 9, 10, 
11, 12, 13, 14, 15, 16, 17, 18, 19, 20, 
21, 22, 23, 24, 30, 31, 32, 33, 34, 35, 
36, 37, 38, 39, 40, 41, 42, 43, 44, 66, 
67, 68, 69, 70, 71, 72, 73, 74, 75, 76, 
77, 78, 79, 80, 86, 87, 88, 89, 90, 91, 
92, 93, 94, 95, 96, 97, 98, 99, 100, 122, 
123, 124, 125, 126, 127, 128, 129, 130, 131, 132, 
133, 134, 135, 136, 137, 138, 139, 140, 141, 142, 
143, 144, 
*NSET,NSET=domain
1, 2, 3, 4, 5, 6, 7, 8, 9, 10, 
11, 12, 13, 14, 15, 16, 17, 18, 19, 20, 
21, 22, 23, 24, 25, 26, 27, 28, 29, 30, 
31, 32, 33, 34, 35, 36, 37, 38, 39, 40, 
41, 42, 43, 44, 45, 46, 47, 48, 49, 50, 
51, 52, 53, 54, 55, 56, 57, 58, 59, 60, 
61, 62, 63, 64, 65, 66, 67, 68, 69, 70, 
71, 72, 73, 74, 75, 76, 77, 78, 79, 80, 
81, 82, 83, 84, 85, 86, 87, 88, 89, 90, 
91, 92, 93, 94, 95, 96, 97, 98, 99, 100, 
101, 102, 103, 104, 105, 106, 107, 108, 109, 110, 
111, 112, 113, 114, 115, 116, 117, 118, 119, 120, 
121, 122, 123, 124, 125, 126, 127, 128, 129, 130, 
131, 132, 133, 134, 135, 136, 137, 138, 139, 140, 
141, 142, 143, 144, 145, 146, 147, 148, 149, 150, 
151, 152, 153, 154, 155, 156, 157, 158, 159, 160, 
161, 162, 163, 164, 165, 166, 167, 168, 169, 170, 
171, 172, 173, 174, 175, 176, 177, 178, 179, 180, 
181, 182, 183, 184, 185, 186, 187, 188, 189, 190, 
191, 192, 193, 194, 195, 196, 197, 198, 199, 200, 
201, 202, 203, 204, 205, 206, 207, 208, 209, 210, 
211, 212, 213, 214, 215, 216, 217, 218, 219, 220, 
221, 222, 223, 224, 225, 226, 227, 228, 229, 230, 
231, 232, 233, 234, 235, 236, 237, 238, 239, 240, 
241, 242, 243, 244, 245, 246, 247, 248, 249, 250, 
251, 252, 253, 254, 255, 256, 257, 258, 259, 260, 
261, 262, 263, 264, 265, 266, 267, 268, 269, 270, 
271, 272, 273, 274, 275, 276, 277, 278, 279, 280, 
281, 282, 283, 284, 285, 286, 287, 288, 289, 290, 
291, 292, 293, 294, 295, 296, 297, 298, 299, 300, 
301, 302, 303, 304, 305, 306, 307, 308, 309, 310, 
311, 312, 313, 314, 315, 316, 317, 318, 319, 320, 
321, 322, 323, 324, 325, 326, 327, 328, 329, 330, 
331, 332, 333, 334, 335, 336, 337, 338, 339, 340, 
341, 342, 343, 344, 345, 346, 347, 348, 349, 350, 
351, 352, 353, 354, 355, 356, 357, 358, 359, 360, 
361, 362, 363, 364, 365, 366, 367, 368, 369, 370, 
371, 372, 373, 374, 375, 376, 377, 378, 379, 380, 
381, 382, 383, 384, 385, 386, 387, 388, 389, 390, 
391, 392, 393, 394, 395, 396, 397, 398, 399, 400, 
401, 402, 403, 404, 405, 406, 407, 408, 409, 410, 
411, 412, 413, 414, 415, 416, 417, 418, 419, 420, 
421, 422, 423, 424, 425, 426, 427, 428, 429, 430, 
431, 432, 433, 434, 435, 436, 437, 438, 439, 440, 
441, 442, 443, 444, 445, 446, 447, 448, 449, 450, 
451, 452, 453, 454, 455, 456, 457, 458, 459, 460, 
461, 462, 463, 464, 465, 466, 467, 468, 469, 470, 
471, 472, 473, 474, 475, 476, 477, 478, 479, 480, 
481, 482, 483, 484, 485, 486, 487, 488, 489, 490, 
491, 492, 493, 494, 495, 496, 497, 498, 499, 500, 
501, 502, 503, 504, 505, 506, 507, 508, 509, 510, 
511, 512, 513, 514, 515, 516, 517, 518, 519, 520, 
521, 522, 523, 524, 525, 526, 527, 528, 529, 530, 
531, 532, 533, 534, 535, 536, 537, 538, 539, 540, 
541, 542, 543, 544, 545, 546, 547, 548, 549, 550, 
551, 552, 553, 554, 555, 556, 557, 558, 559, 560, 
561, 562, 563, 564, 565, 566, 567, 568, 569, 570, 
571, 572, 573, 574, 575, 576, 577, 578, 579, 580, 
581, 582, 583, 584, 585, 586, 587, 588, 589, 590, 
591, 592, 593, 594, 595, 596, 597, 598, 599, 600, 
601, 602, 603, 604, 605, 606, 607, 608, 609, 610, 
611, 612, 613, 614, 615, 616, 617, 618, 619, 620, 
621, 622, 623, 624, 625, 626, 627, 628, 629, 630, 
631, 632, 633, 634, 635, 636, 637, 638, 639, 640, 
641, 642, 643, 644, 645, 646, 647, 648, 649, 650, 
651, 652, 653, 654, 655, 656, 657, 658, 659, 660, 
661, 662, 663, 664, 665, 666, 667, 668, 669, 670, 
671, 672, 673, 674, 675, 676, 677, 678, 679, 680, 
681, 682, 683, 684, 685, 686, 687, 688, 689, 690, 
691, 692, 693, 694, 695, 696, 697, 698, 699, 700, 
701, 702, 703, 704, 705, 706, 707, 708, 709, 710, 
711, 712, 713, 714, 715, 716, 717, 718, 719, 720, 
721, 722, 723, 724, 725, 726, 727, 728, 729, 730, 
731, 732, 733, 734, 735, 736, 737, 738, 739, 740, 
741, 742, 743, 744, 745, 746, 747, 748, 749, 750, 
751, 752, 753, 754, 755, 756, 757, 758, 759, 760, 
761, 762, 763, 764, 765, 766, 767, 768, 769, 770, 
771, 772, 773, 774, 775, 776, 777, 778, 779, 780, 
781, 782, 783, 784, 785, 786, 787, 788, 789, 790, 
791, 792, 793, 794, 795, 796, 797, 798, 799, 800, 
801, 802, 803, 804, 805, 806, 807, 808, 809, 810, 
811, 812, 813, 814, 815, 816, 817, 818, 819, 820, 
821, 822, 823, 824, 825, 826, 827, 828, 829, 830, 
831, 832, 833, 834, 835, 836, 837, 838, 839, 840, 
841, 842, 843, 844, 845, 846, 847, 848, 849, 850, 
851, 852, 853, 854, 855, 856, 857, 858, 859, 860, 
861, 862, 863, 864, 865, 866, 867, 868, 869, 870, 
871, 872, 873, 874, 875, 876, 877, 878, 
