*Heading
 /Users/juliagao/geometry-optimization-net/scripts/../runs/2d/shape_13.inp
*NODE
1, 0, -0.3, 0
2, 0.425, -0.3, 0
3, 0.575, -0.3, 0
4, 1, -0.3, 0
5, 1, 0.3, 0
6, 0.575, 0.3, 0
7, 0.425, 0.3, 0
8, 0, 0.3, 0
9, 0.6029580836, -0.061180521, 0
10, 0.025307727672001, -0.3, 0
11, 0.075723978029314, -0.3, 0
12, 0.12651069145036, -0.3, 0
13, 0.17954578251278, -0.3, 0
14, 0.23500032032696, -0.3, 0
15, 0.29072321732425, -0.3, 0
16, 0.34537931222556, -0.3, 0
17, 0.39870507380854, -0.3, 0
18, 0.050615455344001, -0.3, 0
19, 0.10083250071463, -0.3, 0
20, 0.1521888821861, -0.3, 0
21, 0.20690268283947, -0.3, 0
22, 0.26309795781445, -0.3, 0
23, 0.31834847683406, -0.3, 0
24, 0.37241014761707, -0.3, 0
25, 0.45044042389438, -0.3, 0
26, 0.50042424126882, -0.3, 0
27, 0.54998381737444, -0.3, 0
28, 0.47588084778876, -0.3, 0
29, 0.52496763474888, -0.3, 0
30, 0.60094041278283, -0.3, 0
31, 0.65357757025868, -0.3, 0
32, 0.70695287944913, -0.3, 0
33, 0.76053006485181, -0.3, 0
34, 0.81481204458314, -0.3, 0
35, 0.86935867485229, -0.3, 0
36, 0.92270145492914, -0.3, 0
37, 0.97444048178147, -0.3, 0
38, 0.62688082556567, -0.3, 0
39, 0.68027431495169, -0.3, 0
40, 0.73363144394656, -0.3, 0
41, 0.78742868575707, -0.3, 0
42, 0.84219540340921, -0.3, 0
43, 0.89652194629536, -0.3, 0
44, 0.94888096356293, -0.3, 0
45, 1, -0.27356462695523, 0
46, 1, -0.22035853978608, 0
47, 1, -0.16648505542159, 0
48, 1, -0.11201001485482, 0
49, 1, -0.056980815456235, 0
50, 1, -0.0012614349137182, 0
51, 1, 0.05518903301479, 0
52, 1, 0.11167228209708, 0
53, 1, 0.16708250048316, 0
54, 1, 0.22095774479241, 0
55, 1, 0.27375900166997, 0
56, 1, -0.24712925391047, 0
57, 1, -0.1935878256617, 0
58, 1, -0.13938228518147, 0
59, 1, -0.084637744528162, 0
60, 1, -0.029323886384309, 0
61, 1, 0.026801016556873, 0
62, 1, 0.083577049472707, 0
63, 1, 0.13976751472146, 0
64, 1, 0.19439748624487, 0
65, 1, 0.24751800333994, 0
66, 0.97411159155661, 0.3, 0
67, 0.92121593789316, 0.3, 0
68, 0.86693730504683, 0.3, 0
69, 0.81302879181147, 0.3, 0
70, 0.75968172064972, 0.3, 0
71, 0.70565441225008, 0.3, 0
72, 0.65169382281882, 0.3, 0
73, 0.60002529811726, 0.3, 0
74, 0.94822318311321, 0.3, 0
75, 0.89420869267311, 0.3, 0
76, 0.83966591742054, 0.3, 0
77, 0.7863916662024, 0.3, 0
78, 0.73297177509704, 0.3, 0
79, 0.67833704940312, 0.3, 0
80, 0.62505059623452, 0.3, 0
81, 0.55053187194354, 0.3, 0
82, 0.50105299763902, 0.3, 0
83, 0.45052112569549, 0.3, 0
84, 0.52606374388707, 0.3, 0
85, 0.47604225139097, 0.3, 0
86, 0.39891826036342, 0.3, 0
87, 0.34593798222658, 0.3, 0
88, 0.2917848966784, 0.3, 0
89, 0.2375116699674, 0.3, 0
90, 0.18379632865599, 0.3, 0
91, 0.13071321836426, 0.3, 0
92, 0.078129095548924, 0.3, 0
93, 0.025965710688495, 0.3, 0
94, 0.37283652072684, 0.3, 0
95, 0.31903944372633, 0.3, 0
96, 0.26453034963048, 0.3, 0
97, 0.21049299030432, 0.3, 0
98, 0.15709966700766, 0.3, 0
99, 0.10432676972086, 0.3, 0
100, 0.051931421376991, 0.3, 0
101, 0, 0.27361540592498, 0
102, 0, 0.22027118857309, 0
103, 0, 0.16578591763254, 0
104, 0, 0.11070447286707, 0
105, 0, 0.055598703594217, 0
106, 0, 0.00027851523143879, 0
107, 0, -0.055173771292462, 0
108, 0, -0.11022412782371, 0
109, 0, -0.1652213982843, 0
110, 0, -0.22002414664458, 0
111, 0, -0.27359895537167, 0
112, 0, 0.24723081184996, 0
113, 0, 0.19331156529621, 0
114, 0, 0.13826026996888, 0
115, 0, 0.083148675765252, 0
116, 0, 0.028048731423182, 0
117, 0, -0.027491700960305, 0
118, 0, -0.08285584162462, 0
119, 0, -0.13759241402279, 0
120, 0, -0.19285038254582, 0
121, 0, -0.24719791074335, 0
122, 0.59923184217901, -0.033732234149413, 0
123, 0.57182865494478, 0.012582689360536, 0
124, 0.52645666287084, 0.038320292339341, 0
125, 0.47422306399422, 0.038498546144791, 0
126, 0.42755363379134, 0.011976098516209, 0
127, 0.40042267748156, -0.035013295425219, 0
128, 0.40081991723909, -0.088815248260935, 0
129, 0.4278751448437, -0.13465413653963, 0
130, 0.47307548289828, -0.16055575574775, 0
131, 0.52459218201534, -0.16115847627123, 0
132, 0.57103584362028, -0.13570753475312, 0
133, 0.59918547025379, -0.088795905415379, 0
134, 0.58832283535617, -0.0082707520615631, 0
135, 0.55054432221882, 0.028516961974215, 0
136, 0.50068102747927, 0.04177531001333, 0
137, 0.44949346039578, 0.028538241920509, 0
138, 0.4107782368453, -0.0098011102035139, 0
139, 0.39704566728688, -0.062059323889794, 0
140, 0.41142542347924, -0.11366776943087, 0
141, 0.44916264696372, -0.15071224984818, 0
142, 0.49868683420638, -0.16413022947694, 0
143, 0.54892015925368, -0.15177403550159, 0
144, 0.58814410283967, -0.11438751362553, 0
145, 0.41571296966757, -0.24247696826842, 0
146, 0.58237679477517, -0.24383358912356, 0
147, 0.42557642912777, 0.24097945458122, 0
148, 0.13154247585038, -0.13662591742175, 0
149, 0.32068683377377, -0.055722140247202, 0
150, 0.2664627867747, -0.27291742633251, 0
151, 0.25002646459251, 0.084224012111654, 0
152, 0.211422087277, -0.27331595894801, 0
153, 0.46964215778986, -0.24830054343877, 0
154, 0.36849953174306, -0.23600268156976, 0
155, 0.21044539366412, -0.1391465470743, 0
156, 0.58104060959679, 0.23795998410731, 0
157, 0.6540824077604, -0.061604050029466, 0
158, 0.52846337479185, -0.248123570872, 0
159, 0.63735197534189, -0.24562223101133, 0
160, 0.68897388021146, -0.24200122667774, 0
161, 0.73851613111524, -0.2410442820864, 0
162, 0.78859326121563, -0.24157262361537, 0
163, 0.8397975795099, -0.24228574252257, 0
164, 0.27713738543621, 0.18809119239733, 0
165, 0.28025925977598, 0.13321140216597, 0
166, 0.2237460720882, 0.13795765276158, 0
167, 0.11050873056603, 0.13966333216029, 0
168, 0.16697220328612, 0.13965876788359, 0
169, 0.054632388928139, 0.13898623367017, 0
170, 0.11054149806892, 0.1920868421026, 0
171, 0.16648606816519, 0.19203524576082, 0
172, 0.0548672772275, 0.19195503435947, 0
173, 0.054496708999547, 0.24526800356238, 0
174, 0.16349531542143, 0.24536469522839, 0
175, 0.10886851697393, 0.24527970004355, 0
176, 0.22228414825484, 0.19092900443419, 0
177, 0.21815066471456, 0.24508423800626, 0
178, 0.27218633331691, 0.2441702914287, 0
179, 0.3247725823565, 0.24255831704202, 0
180, 0.37994322592748, 0.17923297056295, 0
181, 0.37550674457401, 0.24080839519398, 0
182, 0.47690380636253, 0.24281580695664, 0
183, 0.42946729805654, 0.18125047042479, 0
184, 0.48012637768313, 0.18596319499313, 0
185, 0.43952419486527, 0.12618824918355, 0
186, 0.32992862175045, 0.18355302221926, 0
187, 0.38584261711438, 0.11619223949599, 0
188, 0.33507062716208, 0.12475374932127, 0
189, 0.38406937889596, 0.047421833039202, 0
190, 0.12996495486032, -0.10863458519684, 0
191, 0.43906651579915, 0.076693371134796, 0
192, 0.30414824618454, -0.031442747711574, 0
193, 0.026135618428532, -0.081453168469811, 0
194, 0.24569776488693, -0.05306026134224, 0
195, 0.053576557169901, 0.058625831256841, 0
196, 0.079054021172832, -0.13584300670834, 0
197, 0.18670324946806, 0.034338963018502, 0
198, 0.17829321535693, -0.081333470872966, 0
199, 0.080080501687536, -0.19030166785872, 0
200, 0.026102162644103, -0.025607426642532, 0
201, 0.21541785709538, -0.19306139985543, 0
202, 0.13045885414665, -0.27227364928681, 0
203, 0.35272770079742, 0.028012871376852, 0
204, 0.16083754653571, -0.2188426579864, 0
205, 0.17918218251123, -0.021770640778072, 0
206, 0.26413489318097, -0.13824063717523, 0
207, 0.10424327585285, -0.10818223565816, 0
208, 0.21376622711311, 0.033925132670366, 0
209, 0.026245136519933, 0.0022352703952284, 0
210, 0.25154553836614, -0.083381929676682, 0
211, 0.13278257955804, -0.24507434704599, 0
212, 0.16477580529002, 0.087560249340818, 0
213, 0.27099058317314, -0.19108587718837, 0
214, 0.15982104331553, 0.034257867945835, 0
215, 0.21349740684658, -0.16631915299841, 0
216, 0.10779220265688, 0.060375831777089, 0
217, 0.052398801889462, -0.10843914676148, 0
218, 0.078697938079175, 0.0047635337426615, 0
219, 0.29886682850544, -0.18775417718995, 0
220, 0.29758228151899, -0.21543554161848, 0
221, 0.10282117410253, -0.051209555213426, 0
222, 0.42511286129013, -0.1916141254345, 0
223, 0.3756186403817, -0.16266590237056, 0
224, 0.15701990726944, -0.27272885197624, 0
225, 0.026361098774527, -0.13670511265727, 0
226, 0.053030353449596, 0.031312947807279, 0
227, 0.10633288436592, 0.033238462478913, 0
228, 0.34648417851446, -0.14233902379381, 0
229, 0.60815608078, 0.11087978204594, 0
230, 0.83520389358568, 0.1309994283027, 0
231, 0.94499501969002, 0.13374823073737, 0
232, 0.88986047182209, 0.13163468361386, 0
233, 0.89095428150024, 0.1873211372484, 0
234, 0.94494566288192, 0.18883398129125, 0
235, 0.94508687076636, 0.24412393521572, 0
236, 0.89175499372974, 0.2437612569788, 0
237, 0.78427593225362, 0.18813358847148, 0
238, 0.83753186707727, 0.18718870852984, 0
239, 0.8386970818307, 0.24373044542033, 0
240, 0.78530379658895, 0.24408281456748, 0
241, 0.73035383981942, 0.19075848137116, 0
242, 0.73105302593524, 0.24509527612121, 0
243, 0.67697487093367, 0.2423404436153, 0
244, 0.63055915573948, 0.17149834875387, 0
245, 0.62848940983775, 0.23776949078658, 0
246, 0.53103075171842, 0.2417766891545, 0
247, 0.58307044401849, 0.17491279059244, 0
248, 0.5331190650234, 0.1838897118496, 0
249, 0.50850627013227, 0.13294377037428, 0
250, 0.57826266883533, 0.11874831818941, 0
251, 0.67618883420545, 0.18209868449397, 0
252, 0.70286297701173, 0.16594689040203, 0
253, 0.73248177619448, 0.083520907881259, 0
254, 0.57397437011902, 0.070170035572003, 0
255, 0.5069194569646, 0.088764770890743, 0
256, 0.82717805721273, 0.078083310938471, 0
257, 0.75570040860152, 0.13238975355759, 0
258, 0.76112082964281, 0.056731185903436, 0
259, 0.82285258950995, 0.028528819495828, 0
260, 0.94423860801558, 0.079415395426045, 0
261, 0.8865101822227, 0.078018935847277, 0
262, 0.88422092111895, 0.026653076435443, 0
263, 0.94346337215317, 0.026198303301774, 0
264, 0.88526111566617, -0.07605374884019, 0
265, 0.94324918992291, -0.079531096561401, 0
266, 0.88389614616432, -0.024220628877132, 0
267, 0.94308379684044, -0.02653985975015, 0
268, 0.82662501595402, -0.072349087115263, 0
269, 0.76764293682925, -0.067640719752485, 0
270, 0.82312654799418, -0.020995018142709, 0
271, 0.76116300636381, -0.015840541176744, 0
272, 0.69935945896011, -0.0082594047109176, 0
273, 0.70920387553874, -0.062761629811071, 0
274, 0.72266889980376, -0.11828676057304, 0
275, 0.64505359664738, -0.12276704544004, 0
276, 0.57881208467527, -0.19153494731762, 0
277, 0.50043671427381, -0.20525150369708, 0
278, 0.61173880032769, -0.12193715382508, 0
279, 0.63898305340074, -0.19225386012123, 0
280, 0.68765332169652, -0.18078099666911, 0
281, 0.83696012645895, -0.18349506949706, 0
282, 0.94379671557344, -0.13325533443992, 0
283, 0.8320301006968, -0.12631221489987, 0
284, 0.88765411911929, -0.12966551375294, 0
285, 0.77701459396338, -0.12225592197401, 0
286, 0.74290544915342, -0.09211219801634, 0
287, 0.78540641750398, -0.18119451745088, 0
288, 0.73556409249935, -0.17929890626646, 0
289, 0.88996699792616, -0.18540716335328, 0
290, 0.89196871277697, -0.24260042881472, 0
291, 0.94435913189079, -0.18787071085279, 0
292, 0.94509891863195, -0.2432503227341, 0
293, 0.40934729279725, 0.062738700982515, 0
294, 0.44259918797976, 0.053064456848487, 0
295, 0.39775874899956, -0.17807029847881, 0
296, 0.36610761033582, -0.12759924689994, 0
297, 0.59889848546507, -0.16375968695736, 0
298, 0.64035080462376, -0.16269397840353, 0
299, 0.60934309160672, -0.20027028587569, 0
300, 0.78344639273661, 0.15987300868375, 0
301, 0.70561137304688, 0.14022549588738, 0
302, 0.68537363112288, -0.08917541336237, 0
303, 0.63114300675351, 0.026572900040431, 0
304, 0.66472357573276, 0.075955656228129, 0
305, 0.61284616024584, 0.00081205980733965, 0
306, 0.32965744903464, 0.041981028473623, 0
307, 0.35970209130705, -0.089247979439541, 0
308, 0.50637895520629, 0.19388882641896, 0
309, 0.52989310296464, 0.15414794648914, 0
310, 0.48534608721135, 0.15623375555388, 0
311, 0.22846245419796, -0.022250444798958, 0
312, 0.34836739330763, -0.2056338136143, 0
313, 0.32146344197578, -0.2416507791649, 0
314, 0.10424469817205, -0.27202394376408, 0
315, 0.22315284865746, 0.11198126281804, 0
316, 0.18403914635341, -0.27314566410233, 0
317, 0.49912890274919, -0.25556646447596, 0
318, 0.47442747454755, -0.22339774033716, 0
319, 0.5242194851781, -0.22315774958499, 0
320, 0.68444134503283, 0.12079048155482, 0
321, 0.97225213632673, -0.24439476884473, 0
322, 0.94615019692256, -0.27137987929863, 0
323, 0.97269135421315, -0.27180011439534, 0
324, 0.26884976221187, 0.27220411054972, 0
325, 0.32203182561544, 0.2716170085855, 0
326, 0.2987027312301, 0.24345064680176, 0
327, 0.29558211930437, 0.27197643098535, 0
328, 0.29566486068435, -0.2438744100319, 0
329, 0.027081455395669, 0.1386068006768, 0
330, 0.23898840834907, -0.27330605335996, 0
331, 0.24080166922843, -0.16614603249697, 0
332, 0.15556192132407, -0.10938954768495, 0
333, 0.33263403573556, -0.081948059377661, 0
334, 0.24616408399138, 0.058638097568363, 0
335, 0.38287974722284, -0.017555114888357, 0
336, 0.077913188696568, -0.023279722960221, 0
337, 0.31972996950685, -0.27145699039154, 0
338, 0.30759833335885, 0.075661341172188, 0
339, 0.15967297716367, -0.24571456938141, 0
340, 0.24301138633014, -0.21934133320574, 0
341, 0.20659614019414, -0.11121694277582, 0
342, 0.32378190047049, -0.21150285970771, 0
343, 0.33569392657541, 0.068203362968239, 0
344, 0.02666074925047, -0.21827170805225, 0
345, 0.16253800409211, 0.061175435170721, 0
346, 0.35221052480914, -0.17243674661049, 0
347, 0.7885308015851, -0.27126137952525, 0
348, 0.81405808409963, -0.24198452448742, 0
349, 0.84086273044755, -0.27149961043064, 0
350, 0.81460956792115, -0.27144247647171, 0
351, 0.97215834041701, 0.026390315759099, 0
352, 0.94384054421124, 0.052699518185544, 0
353, 0.97244397765809, 0.080992826800975, 0
354, 0.97233756501558, 0.053630463312831, 0
355, 0.73705433760245, -0.27105547846126, 0
356, 0.68595843789286, -0.27146630702792, 0
357, 0.71377843216616, -0.24124398308748, 0
358, 0.71153509015067, -0.27115016947523, 0
359, 0.079659267183599, 0.032399870207582, 0
360, 0.052489983147656, 0.0036787475222392, 0
361, 0.2416046791624, -0.24629993049786, 0
362, 0.10904740493015, 0.087073236684891, 0
363, 0.47048332761611, -0.27342550010201, 0
364, 0.52814603781079, -0.27332293935517, 0
365, 0.49947129455023, -0.27686275192724, 0
366, 0.1840246384879, -0.13840420206999, 0
367, 0.36151321188249, 0.057394340562243, 0
368, 0.10611687251282, -0.24462894303638, 0
369, 0.054777453189231, 0.16547767184008, 0
370, 0.027261168905482, 0.19225252682126, 0
371, 0.027147120245864, 0.16546999315042, 0
372, 0.1608314943265, 0.27249429665184, 0
373, 0.136152692459, 0.24534352691494, 0
374, 0.10707444580582, 0.27241545861865, 0
375, 0.13390220635234, 0.27245518891695, 0
376, 0.73177622832091, 0.27245924380273, 0
377, 0.70355156824992, 0.24545036180795, 0
378, 0.6775381183069, 0.27152354989215, 0
379, 0.7043832145803, 0.27273372822398, 0
380, 0.94348703819595, -0.10628059564839, 0
381, 0.97183625952552, -0.081718073133449, 0
382, 0.97193954976088, -0.13579920591341, 0
383, 0.9718726903589, -0.10873109063365, 0
384, 0.081659019701839, 0.24521956958789, 0
385, 0.053716938574712, 0.2723838300064, 0
386, 0.080356311693367, 0.27237868660661, 0
387, 0.94410728377058, -0.16046300930664, 0
388, 0.9720531693096, -0.19005893572048, 0
389, 0.97200968803765, -0.16291643266966, 0
390, 0.55651541121197, 0.23946859661903, 0
391, 0.52891223198689, 0.27056964593965, 0
392, 0.57875637639184, 0.26918136479461, 0
393, 0.55416114073596, 0.26964529695225, 0
394, 0.24529854854924, 0.24471805347302, 0
395, 0.21489695937411, 0.27246252265156, 0
396, 0.24192618979739, 0.27236933113769, 0
397, 0.94310360921194, -0.052967139584316, 0
398, 0.97189784370007, -0.027751719617402, 0
399, 0.97183648634276, -0.054733446195617, 0
400, 0.19085147591947, 0.24529036497607, 0
401, 0.18784670856732, 0.27250087882158, 0
402, 0.97224281619004, 0.24503939700507, 0
403, 0.94582947332584, 0.27195190642803, 0
404, 0.97257280650687, 0.27220302436248, 0
405, 0.66371810914069, -0.24338690382287, 0
406, 0.63366125947802, -0.27267459809152, 0
407, 0.66010176393794, -0.27197105243465, 0
408, 0.83925358728061, 0.27195612758878, 0
409, 0.81207008017146, 0.24379889593838, 0
410, 0.78582800736248, 0.27199487564165, 0
411, 0.81257525902009, 0.27189179291959, 0
412, 0.94320045106817, -0.00018177578162137, 0
413, 0.97200804433093, -0.00072234336346294, 0
414, 0.026027720302618, -0.053553647786842, 0
415, 0.38118217351509, -0.10208507421291, 0
416, 0.45097586086528, 0.24164262683074, 0
417, 0.42470586824243, 0.27063761199064, 0
418, 0.47603261097413, 0.2711074764014, 0
419, 0.45022727481058, 0.27078140153626, 0
420, 0.027301030415991, 0.24569421305407, 0
421, 0.027050372753307, 0.27258120185394, 0
422, 0.89259885199212, 0.27202478059652, 0
423, 0.86523682842787, 0.24375735107168, 0
424, 0.86593635929506, 0.27205226142067, 0
425, 0.75832206232821, 0.24452851498072, 0
426, 0.75891972723611, 0.2721690634352, 0
427, 0.13291108302944, -0.16409784811672, 0
428, 0.20015762001094, -0.051891774909756, 0
429, 0.082070856679733, 0.11300062317948, 0
430, 0.077465522264623, -0.051629730609211, 0
431, 0.36889619662061, -0.26942334123548, 0
432, 0.13379288362831, -0.21811220113907, 0
433, 0.94467938022162, 0.10642692404497, 0
434, 0.97256017127913, 0.13599821491364, 0
435, 0.97255340154837, 0.10846318150196, 0
436, 0.76341944023443, -0.24120282995769, 0
437, 0.76269065253971, -0.27109877686058, 0
438, 0.97232054931573, 0.19079545257847, 0
439, 0.94490336269324, 0.21644774534995, 0
440, 0.97220645889659, 0.21796052199537, 0
441, 0.86577727710953, -0.24249920742145, 0
442, 0.89354232713109, -0.27139364448663, 0
443, 0.86720197531942, -0.27151442840435, 0
444, 0.50393051509064, 0.24536190603081, 0
445, 0.50251497737223, 0.27212111143925, 0
446, 0.35035563795318, 0.24161096183324, 0
447, 0.3738231768146, 0.27081049399669, 0
448, 0.34811139386525, 0.27122372477553, 0
449, 0.40047611561424, 0.24068567530307, 0
450, 0.39928239437787, 0.27063383485633, 0
451, 0.94501100701516, 0.16125751926206, 0
452, 0.97245175533544, 0.16346520002184, 0
453, 0.60945060483866, -0.24777211753537, 0
454, 0.58035670774624, -0.27167573041711, 0
455, 0.60649061969527, -0.27344360242083, 0
456, 0.55579167474759, -0.24565404153433, 0
457, 0.55458406797006, -0.27236644435332, 0
458, 0.39114943632381, -0.23885337947304, 0
459, 0.41781356028394, -0.27132894228578, 0
460, 0.39287353413716, -0.27023452767871, 0
461, 0.9183883295054, -0.24277075968571, 0
462, 0.9198299242005, -0.27129973443186, 0
463, 0.053301103812126, -0.19048383221435, 0
464, 0.082474635699449, 0.1393618677013, 0
465, 0.20276997508868, -0.082182934201934, 0
466, 0.22136320395298, 0.08620235053323, 0
467, 0.053026223495361, -0.16339297805931, 0
468, 0.18806169613746, -0.21947894039782, 0
469, 0.079650502561671, -0.16320920966622, 0
470, 0.62729025121148, 0.2695435099103, 0
471, 0.60491847259052, 0.23725745346541, 0
472, 0.6030261229814, 0.26906107676423, 0
473, 0.94463847636557, -0.21545605590751, 0
474, 0.97211263648247, -0.21720360937676, 0
475, 0.15246160483847, -0.051176449571439, 0
476, 0.25825341417714, -0.11141944327006, 0
477, 0.13304688891268, 0.033863470672594, 0
478, 0.13090741781667, 0.0061957645108919, 0
479, 0.054389204285629, 0.11239708187287, 0
480, 0.44215015005789, -0.24562333334828, 0
481, 0.44373567044142, -0.27242794544283, 0
482, 0.652229256255, 0.23926049123821, 0
483, 0.65197670119148, 0.2703297047284, 0
484, 0.27489737012095, 0.2160721426147, 0
485, 0.32738450083626, 0.21312629035564, 0
486, 0.30385660724105, 0.18597472796468, 0
487, 0.30142015981779, 0.21470879633045, 0
488, 0.29630643702176, 0.024878735589225, 0
489, 0.27049065536137, -0.21799179689408, 0
490, 0.73805628151437, -0.21033531368818, 0
491, 0.68959999163056, -0.21176520994438, 0
492, 0.71138643613984, -0.17930894054595, 0
493, 0.71378223546162, -0.2105478238003, 0
494, 0.1596178921347, -0.16494583938157, 0
495, 0.08144913864682, 0.086455354903233, 0
496, 0.27892160406771, 0.16040347634642, 0
497, 0.33238591752351, 0.15402032616756, 0
498, 0.30801232431464, 0.12938382782135, 0
499, 0.30601545356211, 0.1574497170379, 0
500, 0.054808603137875, 0.21851285568016, 0
501, 0.027328633533671, 0.21896578524511, 0
502, 0.91833018311266, 0.24385235568113, 0
503, 0.91922072705209, 0.27200749156965, 0
504, 0.91411434910218, 0.026279976216564, 0
505, 0.88515771539069, 0.052165355062087, 0
506, 0.91556335859314, 0.078493477428701, 0
507, 0.91474592978924, 0.052242631551531, 0
508, 0.10358065126263, -0.022598956414471, 0
509, 0.10532097509801, -0.13604908540288, 0
510, 0.70456732665705, -0.035305794607247, 0
511, 0.68097790149596, -0.061254730562817, 0
512, 0.64932279943196, -0.031098527252824, 0
513, 0.66942914727029, -0.0039181011913411, 0
514, 0.67612579668316, -0.032473938517018, 0
515, 0.78758575301093, -0.21140435994847, 0
516, 0.81099058111513, -0.18238996230231, 0
517, 0.83858081541291, -0.21282647628593, 0
518, 0.81290725607091, -0.21215995422717, 0
519, 0.85381056295717, 0.02736782985136, 0
520, 0.82446168564039, 0.053140364823892, 0
521, 0.85707827558008, 0.077884542229009, 0
522, 0.85508500282176, 0.052443951308561, 0
523, 0.80444650111855, -0.12437153735405, 0
524, 0.83487787956711, -0.15456645691482, 0
525, 0.78217381551339, -0.15130932436249, 0
526, 0.8083372231503, -0.15300286762549, 0
527, 0.27445681263717, 0.055498979896676, 0
528, 0.052075060643306, -0.024252521849611, 0
529, 0.080618653222664, 0.059616627269308, 0
530, 0.21416180181315, -0.24650375528742, 0
531, 0.838150883228, 0.21545100238928, 0
532, 0.81090369781676, 0.1874820004073, 0
533, 0.78481661966243, 0.21616238932414, 0
534, 0.81154062265109, 0.2156676782083, 0
535, 0.88635224310889, -0.10259479898627, 0
536, 0.91436106894852, -0.077728001367173, 0
537, 0.91567771550497, -0.13131640403543, 0
538, 0.91495438306691, -0.1043307232893, 0
539, 0.73064620206636, 0.16347586838772, 0
540, 0.75753007679766, 0.18923412451764, 0
541, 0.63310235602026, 0.13816681600383, 0
542, 0.1285712327071, -0.080080728142574, 0
543, 0.34506517143493, -0.0031850394870736, 0
544, 0.25178324858661, 0.109925530391, 0
545, 0.26126202757687, 0.0040418747091046, 0
546, 0.1879896443764, -0.192720472899, 0
547, 0.053390400784049, -0.21747394859195, 0
548, 0.36229925785647, 0.088713153417709, 0
549, 0.1864543564336, -0.1657895625895, 0
550, 0.73056529681989, 0.21786496738923, 0
551, 0.75787607148028, 0.21692662414857, 0
552, 0.026424247331404, -0.16406482793129, 0
553, 0.19017115428726, 0.061047544078976, 0
554, 0.13801768773747, 0.11370248765542, 0
555, 0.56445127051452, -0.17233469323168, 0
556, 0.5873397790184, -0.14843129781553, 0
557, 0.73823866621631, -0.065079247594605, 0
558, 0.73007896757307, -0.012335806086751, 0
559, 0.7641810381462, -0.041416333933257, 0
560, 0.73409921243031, -0.038417995283584, 0
561, 0.7023426709197, 0.19184487418409, 0
562, 0.75914736943301, 0.033029059972426, 0
563, 0.74339877857721, 0.10638264641206, 0
564, 0.75711823254498, 0.16116398320755, 0
565, 0.5051381093979, 0.066379324729904, 0
566, 0.54137393754257, 0.082447124977645, 0
567, 0.56918397831902, 0.046966804923911, 0
568, 0.53762741972778, 0.060550977363151, 0
569, 0.88441895262941, -0.049956472473304, 0
570, 0.91371450093574, -0.025420533203655, 0
571, 0.91393110323726, -0.051447422378175, 0
572, 0.67640067328917, 0.2125481317996, 0
573, 0.70283379589826, 0.2184026950749, 0
574, 0.59859722803914, 0.029325225604253, 0
575, 0.32269097679493, -0.15476853718789, 0
576, 0.24989614360293, 0.18975373150359, 0
577, 0.22056291777646, 0.21788732983471, 0
578, 0.24790305036275, 0.21713975189289, 0
579, 0.15775565424837, -0.13747332340564, 0
580, 0.15423932905577, -0.021875622957694, 0
581, 0.22316518952753, -0.052430689706217, 0
582, 0.053191073866093, -0.24455147028421, 0
583, 0.34927779842975, -0.05735521265711, 0
584, 0.026861853936769, 0.084574445832684, 0
585, 0.31460394172816, -0.0084617372249189, 0
586, 0.34112345002059, -0.11074587731867, 0
587, 0.47817676679584, 0.21460813062505, 0
588, 0.53260098030549, 0.21302857452565, 0
589, 0.50526294531048, 0.21936340737194, 0
590, 0.47221091115828, 0.085935794846422, 0
591, 0.47289654684452, 0.063314789943951, 0
592, 0.49971053998228, -0.18661842358561, 0
593, 0.54326930459061, -0.20081944116349, 0
594, 0.53421206790966, -0.18261113356378, 0
595, 0.55821127004168, 0.17879971705977, 0
596, 0.58244787060892, 0.206404980293, 0
597, 0.55797381044098, 0.20915971064896, 0
598, 0.16533372970503, 0.21855788249618, 0
599, 0.13849968080767, 0.19214230098923, 0
600, 0.10996820591698, 0.21853476452271, 0
601, 0.13763677518363, 0.21859563972006, 0
602, 0.76024754382641, -0.18007154707793, 0
603, 0.76263486965483, -0.21071926720954, 0
604, 0.62887243177811, -0.063686614356956, 0
605, 0.6697655034328, -0.11836651528423, 0
606, 0.74974306161886, -0.12012105938483, 0
607, 0.16079858713306, -0.19199109894052, 0
608, 0.25209891473966, 0.1360486622328, 0
609, 0.20879375203538, 0.0066694333710371, 0
610, 0.26832987581956, -0.1646885275397, 0
611, 0.026693314709288, 0.05733690940482, 0
612, 0.82461673729257, -0.046392732621433, 0
613, 0.85368897740153, -0.02279071366001, 0
614, 0.85600521775565, -0.074307370733124, 0
615, 0.854632412493, -0.048316884537047, 0
616, 0.88378930428748, 0.0012610336191659, 0
617, 0.91375845588296, 0.00044470478940161, 0
618, 0.33443711581441, -0.030804064538027, 0
619, 0.19444238841847, 0.19166253048913, 0
620, 0.19300333802227, 0.21834311435501, 0
621, 0.22335369028579, 0.16426917478048, 0
622, 0.25130416972508, 0.16268148902577, 0
623, 0.45875292392035, -0.20120806225759, 0
624, 0.29165439934634, -0.05461150121175, 0
625, 0.45486729907251, 0.18305071991455, 0
626, 0.42718697584343, 0.21111899865089, 0
627, 0.45245606374678, 0.21242451077509, 0
628, 0.62432131976558, -0.030887780469207, 0
629, 0.88824596064134, 0.10445834316249, 0
630, 0.91740124874067, 0.13241229882375, 0
631, 0.91654684294124, 0.10519121873217, 0
632, 0.40444910683711, 0.17983945252169, 0
633, 0.37759198152271, 0.21024284920248, 0
634, 0.40225797900478, 0.21035273415258, 0
635, 0.82239629767804, 0.0039167509569116, 0
636, 0.85333563526206, 0.0023756845489536, 0
637, 0.89054148953981, 0.15934357167243, 0
638, 0.91784657901398, 0.18781491998108, 0
639, 0.91770481428215, 0.1600102121899, 0
640, 0.19534211933823, 0.13910037282542, 0
641, 0.16702451415103, 0.16575509277522, 0
642, 0.19522332819632, 0.16525242122304, 0
643, 0.66402759651205, -0.18446873893205, 0
644, 0.63898894729144, -0.21879931690274, 0
645, 0.66502940424618, -0.21429543254977, 0
646, 0.37074225486908, 0.011633726522552, 0
647, 0.41109760511273, 0.12066491504452, 0
648, 0.38242679364001, 0.14779940048318, 0
649, 0.43251847152091, 0.15200358311191, 0
650, 0.40689138181965, 0.14947278667948, 0
651, 0.83120578046383, 0.10387691466521, 0
652, 0.86243865463807, 0.13120282982867, 0
653, 0.85980692663236, 0.10404822978561, 0
654, 0.13378523451151, -0.19119210931055, 0
655, 0.12903457008088, -0.022145292559918, 0
656, 0.86328994709201, -0.18448569881395, 0
657, 0.89091815259139, -0.21388175910925, 0
658, 0.86458745985258, -0.21339370084119, 0
659, 0.38611668608513, 0.083440509030732, 0
660, 0.44009706397805, 0.10145103011457, 0
661, 0.41102509037107, 0.092032555705501, 0
662, 0.080123167672856, -0.21729208524607, 0
663, 0.026690344212364, -0.24524594735082, 0
664, 0.35527257336138, 0.18104886612532, 0
665, 0.35275142204327, 0.21149146039562, 0
666, 0.082651521473339, 0.19197609164414, 0
667, 0.082357184825387, 0.21845974140788, 0
668, 0.1350920321622, 0.0609119027278, 0
669, 0.3708174436033, -0.20025455020461, 0
670, 0.078289079640048, -0.27187433508377, 0
671, 0.19294704444404, 0.08721099912378, 0
672, 0.23712687308101, -0.13930844805923, 0
673, 0.052051592755466, -0.080517983348149, 0
674, 0.62936116508078, 0.20498747051899, 0
675, 0.60722596022037, 0.1719946935504, 0
676, 0.60617927532258, 0.20475901336625, 0
677, 0.62530506360945, -0.14123858623691, 0
678, 0.24310574421881, -0.19267806675252, 0
679, 0.23226194335591, -0.11177728188312, 0
680, 0.02656803558329, -0.19124542869677, 0
681, 0.32321802375501, 0.015822406650078, 0
682, 0.91699143087189, -0.18644319375574, 0
683, 0.91759076589493, -0.21447717246985, 0
684, 0.30871508248875, 0.10208110637426, 0
685, 0.36104826934459, 0.11958421314024, 0
686, 0.20389185416256, -0.021856718637126, 0
687, 0.29136216651874, -0.13491870248047, 0
688, 0.15357280950635, -0.080596540466186, 0
689, 0.35784895364594, 0.15037898305383, 0
690, 0.26810583157179, -0.053778235478607, 0
691, 0.65313751045884, 0.17333402548672, 0
692, 0.65239388993824, 0.20698266685737, 0
693, 0.89128739940267, 0.21548476998261, 0
694, 0.86420126630572, 0.18714879960255, 0
695, 0.86470839926751, 0.21541375884036, 0
696, 0.11069798194668, 0.16583336366643, 0
697, 0.082662050694023, 0.16564889442054, 0
698, 0.91797935363634, 0.21577197310344, 0
699, 0.78169316313321, 0.1313675323941, 0
700, 0.63298507320771, 0.052597958589479, 0
701, 0.60842658191365, 0.13994328913259, 0
702, 0.88893204528856, -0.15729692579, 0
703, 0.91639547279676, -0.15870376567898, 0
704, 0.69861187108696, 0.09022856595558, 0
705, 0.71331628419983, 0.11080469452302, 0
706, 0.69563206999265, 0.067042594912514, 0
707, 0.28038864975417, 0.10669883942078, 0
708, 0.3026457237269, -0.078656555157409, 0
709, 0.17658502872453, -0.051463408173657, 0
710, 0.3263155784789, -0.18206040856592, 0
711, 0.026988190872389, 0.11165139672966, 0
712, 0.051851974743981, -0.05239077890577, 0
713, 0.2688951286273, -0.24542728302356, 0
714, 0.18107621992499, -0.11031650487835, 0
715, 0.27648660450874, -0.082656085078919, 0
716, 0.24108514240419, 0.032675396980337, 0
717, 0.31824282026216, -0.12778324848265, 0
718, 0.13868444656256, 0.13979958567365, 0
719, 0.13883246143367, 0.16590721649849, 0
720, 0.10689607268204, -0.19058558641237, 0
721, 0.33631110293031, 0.096103221787713, 0
722, 0.29348018508287, -0.27228812660821, 0
723, 0.21803984494558, 0.060316034756759, 0
724, 0.052729339501281, -0.13606844984922, 0
725, 0.10329597947582, -0.079863698830393, 0
726, 0.83664979557838, 0.15900217856152, 0
727, 0.86352145027932, 0.15904457883983, 0
728, 0.80824692585929, 0.13101773288717, 0
729, 0.80994734548941, 0.15923699611642, 0
730, 0.85976669337469, -0.12805400713774, 0
731, 0.86175216978212, -0.15597724039589, 0
732, 0.58154749769491, -0.21658552215134, 0
733, 0.61039656379676, -0.2232727782214, 0
734, 0.82907505624617, -0.098933644506074, 0
735, 0.85772255420809, -0.10084703999574, 0
736, 0.47193454005253, 0.13057503673239, 0
737, 0.50828869910427, 0.11086903606428, 0
738, 0.47308048871582, 0.10835987916537, 0
739, 0.2530904837308, -0.023252373192913, 0
740, 0.27813207470056, -0.025604421112483, 0
741, 0.18283127417278, 0.006811968732238, 0
742, 0.77167864701806, -0.094459486092034, 0
743, 0.69590118094762, -0.11733766773332, 0
744, 0.41733782578744, -0.21462282397275, 0
745, 0.39250719804706, -0.20707922529958, 0
746, 0.7966287581804, 0.078754971033337, 0
747, 0.65626006035205, 0.13830980457111, 0
748, 0.80236402777072, 0.10398600659531, 0
749, 0.72659850294435, 0.037022186192917, 0
750, 0.58274418517936, 0.14458650775298, 0
751, 0.66485810699683, 0.10325594113266, 0
752, 0.67781753292722, 0.15110301895162, 0
753, 0.72838428765528, 0.060647451206548, 0
754, 0.60634117302043, 0.083652766209906, 0
755, 0.27885647384124, 0.080867260769918, 0
756, 0.079621431173866, -0.244398509071, 0
757, 0.28471951768338, -0.10904147982264, 0
758, 0.60335183024962, 0.056305967558874, 0
759, 0.73045584676515, 0.13493704553427, 0
760, 0.6835539731045, -0.14870958026393, 0
761, 0.66145318138349, -0.15227270921759, 0
762, 0.62892268640885, -0.094878337155167, 0
763, 0.73131907588082, -0.14826854756027, 0
764, 0.70692605306937, -0.14768229814858, 0
765, 0.34488576145725, -0.27038220848008, 0
766, 0.10627108222666, -0.1634775529547, 0
767, 0.57646681404148, 0.094346232756991, 0
768, 0.63534671037456, 0.079648927366593, 0
769, 0.54528152887479, 0.1267113037366, 0
770, 0.54342122448036, 0.10460941585452, 0
771, 0.16623937731989, 0.11364641948939, 0
772, 0.12784722732381, -0.051074988053484, 0
773, 0.21547556813857, -0.21972168827356, 0
774, 0.663191627464, 0.049262196556783, 0
775, 0.026286372622484, -0.10917401491875, 0
776, 0.13681896895413, 0.087467366791345, 0
777, 0.55618157258786, 0.14948306733242, 0
778, 0.10995831713486, 0.11345429169755, 0
779, 0.30256928123498, 0.050199518726146, 0
780, 0.1069031063388, -0.21756177621537, 0
781, 0.29583833664269, -0.1611939119951, 0
782, 0.1568929956087, 0.0066159036328798, 0
783, 0.79715061033827, -0.070116925557373, 0
784, 0.80039955381616, -0.096792325716016, 0
785, 0.79129706322068, 0.030320855939803, 0
786, 0.7931736046082, 0.05444358441944, 0
787, 0.054038568748314, 0.085635490996311, 0
788, 0.078385833887376, -0.10810376302554, 0
789, 0.69425424145997, 0.04257591751854, 0
790, 0.63676208248371, 0.10745494218283, 0
791, 0.45910808371198, 0.15419093945197, 0
792, 0.28795136672289, -6.5985355584618e-05, 0
793, 0.55358976146516, -0.22026943476128, 0
794, 0.10484286962446, 0.005583918461279, 0
795, 0.19462183936624, 0.113138878151, 0
796, 0.2686712662322, 0.029991555914726, 0
797, 0.79225097147085, -0.018711401777789, 0
798, 0.79442856414689, -0.044099292673855, 0
799, 0.7590664883868, 0.0089481158567471, 0
800, 0.69466203764711, 0.017732389375588, 0
801, 0.72686154775421, 0.012820091943931, 0
802, 0.026467647950395, 0.029897081367232, 0
803, 0.44512440597531, -0.22029055553027, 0
804, 0.65689773913646, -0.090524534390908, 0
805, 0.66285479195235, 0.023261489558476, 0
806, 0.23489327459322, 0.0059257418874336, 0
807, 0.077777677960629, -0.079996215851068, 0
808, 0.71410600832, -0.090121345166667, 0
809, 0.75646159401126, -0.14963696571968, 0
810, 0.7909615239829, 0.0060438273932878, 0
811, 0.22711251056505, -0.082976272264619, 0
812, 0.43511956783237, -0.17112175133978, 0
813, 0.41036383170068, -0.1547856454956, 0
814, 0.6159404613345, -0.17574486003986, 0
815, 0.64063995483952, -0.0010830035627619, 0
816, 0.76516046668903, 0.080282495156583, 0
817, 0.46535926065993, -0.18233245056643, 0
818, 0.50720520084376, 0.16762331468187, 0
819, 0.34579698742646, -0.23860220434154, 0
820, 0.18680603694127, -0.24627856015661, 0
821, 0.49920834194964, -0.23375224994418, 0
822, 0.77314395792012, 0.10460827407605, 0
823, 0.052432015045609, -0.27197762764309, 0
824, 0.026471922495332, -0.272345696441, 0
825, 0.41625205638213, 0.037038352931628, 0
826, 0.39549614372727, 0.017034386758004, 0
827, 0.3914985797433, -0.13463749306634, 0
828, 0.36190478881424, -0.027336302972736, 0
829, 0.37469408011157, -0.060387839470598, 0
830, 0.31148531014355, -0.10254406173287, 0
******* E L E M E N T S *************
*ELEMENT, type=CPS4, ELSET=Surface1
1, 292, 322, 323, 321
2, 321, 323, 45, 56
3, 323, 37, 4, 45
4, 322, 44, 37, 323
5, 178, 326, 327, 324
6, 324, 327, 88, 96
7, 327, 325, 95, 88
8, 326, 179, 325, 327
9, 796, 488, 779, 527
10, 210, 715, 690, 194
11, 200, 528, 360, 209
12, 824, 823, 582, 663
13, 795, 315, 166, 640
14, 678, 213, 610, 331
15, 467, 469, 196, 724
16, 201, 678, 331, 215
17, 765, 431, 154, 819
18, 544, 707, 165, 608
19, 345, 553, 671, 212
20, 820, 530, 773, 468
21, 823, 670, 756, 582
22, 528, 336, 218, 360
23, 584, 787, 479, 711
24, 580, 205, 741, 782
25, 202, 224, 339, 211
26, 581, 194, 739, 311
27, 766, 427, 148, 509
28, 111, 824, 663, 121
29, 489, 220, 219, 213
30, 150, 722, 328, 713
31, 328, 313, 342, 220
32, 782, 741, 197, 214
33, 42, 349, 350, 34
34, 34, 350, 347, 41
35, 350, 348, 162, 347
36, 349, 163, 348, 350
37, 62, 353, 354, 51
38, 51, 354, 351, 61
39, 354, 352, 263, 351
40, 353, 260, 352, 354
41, 161, 357, 358, 355
42, 355, 358, 32, 40
43, 358, 356, 39, 32
44, 357, 160, 356, 358
45, 344, 547, 463, 680
46, 314, 202, 211, 368
47, 226, 359, 529, 195
48, 432, 204, 607, 654
49, 28, 26, 365, 363
50, 363, 365, 317, 153
51, 365, 364, 158, 317
52, 26, 29, 364, 365
53, 121, 663, 344, 110
54, 607, 546, 549, 494
55, 428, 581, 311, 686
56, 228, 575, 710, 346
57, 172, 370, 371, 369
58, 369, 371, 329, 169
59, 371, 103, 114, 329
60, 370, 113, 103, 371
61, 98, 91, 375, 372
62, 372, 375, 373, 174
63, 375, 374, 175, 373
64, 91, 99, 374, 375
65, 79, 378, 379, 71
66, 71, 379, 376, 78
67, 379, 377, 242, 376
68, 378, 243, 377, 379
69, 282, 382, 383, 380
70, 380, 383, 381, 265
71, 383, 48, 59, 381
72, 382, 58, 48, 383
73, 99, 92, 386, 374
74, 374, 386, 384, 175
75, 386, 385, 173, 384
76, 92, 100, 385, 386
77, 291, 388, 389, 387
78, 387, 389, 382, 282
79, 389, 47, 58, 382
80, 388, 57, 47, 389
81, 156, 392, 393, 390
82, 390, 393, 391, 246
83, 393, 81, 84, 391
84, 392, 6, 81, 393
85, 96, 89, 396, 324
86, 324, 396, 394, 178
87, 396, 395, 177, 394
88, 89, 97, 395, 396
89, 265, 381, 399, 397
90, 397, 399, 398, 267
91, 399, 49, 60, 398
92, 381, 59, 49, 399
93, 97, 90, 401, 395
94, 395, 401, 400, 177
95, 401, 372, 174, 400
96, 90, 98, 372, 401
97, 65, 55, 404, 402
98, 402, 404, 403, 235
99, 404, 66, 74, 403
100, 55, 5, 66, 404
101, 159, 406, 407, 405
102, 405, 407, 356, 160
103, 407, 31, 39, 356
104, 406, 38, 31, 407
105, 76, 69, 411, 408
106, 408, 411, 409, 239
107, 411, 410, 240, 409
108, 69, 77, 410, 411
109, 267, 398, 413, 412
110, 412, 413, 351, 263
111, 413, 50, 61, 351
112, 398, 60, 50, 413
113, 312, 669, 223, 346
114, 475, 709, 205, 580
115, 681, 488, 792, 585
116, 686, 311, 806, 609
117, 182, 418, 419, 416
118, 416, 419, 417, 147
119, 419, 83, 7, 417
120, 418, 85, 83, 419
121, 100, 93, 421, 385
122, 385, 421, 420, 173
123, 421, 101, 112, 420
124, 93, 8, 101, 421
125, 75, 68, 424, 422
126, 422, 424, 423, 236
127, 424, 408, 239, 423
128, 68, 76, 408, 424
129, 240, 410, 426, 425
130, 425, 426, 376, 242
131, 426, 70, 78, 376
132, 410, 77, 70, 426
133, 209, 360, 226, 802
134, 15, 23, 337, 722
135, 465, 811, 581, 428
136, 339, 820, 468, 204
137, 215, 331, 672, 155
138, 205, 686, 609, 741
139, 155, 672, 679, 341
140, 654, 607, 494, 427
141, 62, 52, 435, 353
142, 353, 435, 433, 260
143, 435, 434, 231, 433
144, 52, 63, 434, 435
145, 161, 355, 437, 436
146, 436, 437, 347, 162
147, 437, 33, 41, 347
148, 355, 40, 33, 437
149, 64, 54, 440, 438
150, 438, 440, 439, 234
151, 440, 402, 235, 439
152, 54, 65, 402, 440
153, 42, 35, 443, 349
154, 349, 443, 441, 163
155, 443, 442, 290, 441
156, 35, 43, 442, 443
157, 246, 391, 445, 444
158, 444, 445, 418, 182
159, 445, 82, 85, 418
160, 391, 84, 82, 445
161, 181, 447, 448, 446
162, 446, 448, 325, 179
163, 448, 87, 95, 325
164, 447, 94, 87, 448
165, 147, 417, 450, 449
166, 449, 450, 447, 181
167, 450, 86, 94, 447
168, 417, 7, 86, 450
169, 63, 53, 452, 434
170, 434, 452, 451, 231
171, 452, 438, 234, 451
172, 53, 64, 438, 452
173, 146, 454, 455, 453
174, 453, 455, 406, 159
175, 455, 30, 38, 406
176, 454, 3, 30, 455
177, 158, 364, 457, 456
178, 456, 457, 454, 146
179, 457, 27, 3, 454
180, 364, 29, 27, 457
181, 24, 17, 460, 431
182, 431, 460, 458, 154
183, 460, 459, 145, 458
184, 17, 2, 459, 460
185, 43, 36, 462, 442
186, 442, 462, 461, 290
187, 462, 322, 292, 461
188, 36, 44, 322, 462
189, 806, 545, 796, 716
190, 368, 211, 432, 780
191, 724, 196, 788, 217
192, 361, 713, 489, 340
193, 208, 716, 334, 723
194, 360, 218, 359, 226
195, 543, 203, 306, 681
196, 773, 340, 678, 201
197, 80, 73, 472, 470
198, 470, 472, 471, 245
199, 472, 392, 156, 471
200, 73, 6, 392, 472
201, 57, 388, 474, 46
202, 46, 474, 321, 56
203, 474, 473, 292, 321
204, 388, 291, 473, 474
205, 707, 684, 498, 165
206, 315, 544, 608, 166
207, 788, 207, 725, 807
208, 115, 584, 711, 104
209, 2, 25, 481, 459
210, 459, 481, 480, 145
211, 481, 363, 153, 480
212, 25, 28, 363, 481
213, 79, 72, 483, 378
214, 378, 483, 482, 243
215, 483, 470, 245, 482
216, 72, 80, 470, 483
217, 164, 486, 487, 484
218, 484, 487, 326, 178
219, 487, 485, 179, 326
220, 486, 186, 485, 487
221, 776, 212, 771, 554
222, 663, 582, 547, 344
223, 543, 681, 585, 618
224, 828, 543, 618, 583
225, 288, 492, 493, 490
226, 490, 493, 357, 161
227, 493, 491, 160, 357
228, 492, 280, 491, 493
229, 609, 806, 716, 208
230, 359, 227, 216, 529
231, 811, 210, 194, 581
232, 214, 197, 553, 345
233, 165, 498, 499, 496
234, 496, 499, 486, 164
235, 499, 497, 186, 486
236, 498, 188, 497, 499
237, 173, 420, 501, 500
238, 500, 501, 370, 172
239, 501, 102, 113, 370
240, 420, 112, 102, 501
241, 235, 403, 503, 502
242, 502, 503, 422, 236
243, 503, 67, 75, 422
244, 403, 74, 67, 503
245, 260, 506, 507, 352
246, 352, 507, 504, 263
247, 507, 505, 262, 504
248, 506, 261, 505, 507
249, 714, 341, 465, 198
250, 780, 432, 654, 720
251, 668, 345, 212, 776
252, 151, 755, 707, 544
253, 272, 513, 514, 510
254, 510, 514, 511, 273
255, 514, 512, 157, 511
256, 163, 517, 518, 348
257, 348, 518, 515, 162
258, 518, 516, 287, 515
259, 517, 281, 516, 518
260, 261, 521, 522, 505
261, 505, 522, 519, 262
262, 522, 520, 259, 519
263, 521, 256, 520, 522
264, 285, 525, 526, 523
265, 523, 526, 524, 283
266, 526, 516, 281, 524
267, 525, 287, 516, 526
268, 119, 225, 775, 108
269, 212, 671, 795, 771
270, 553, 723, 466, 671
271, 110, 344, 680, 120
272, 239, 409, 534, 531
273, 531, 534, 532, 238
274, 534, 533, 237, 532
275, 409, 240, 533, 534
276, 284, 537, 538, 535
277, 535, 538, 536, 264
278, 538, 380, 265, 536
279, 537, 282, 380, 538
280, 747, 752, 251, 691
281, 774, 805, 800, 789
282, 751, 790, 768, 304
283, 564, 540, 241, 539
284, 331, 610, 206, 672
285, 366, 155, 341, 714
286, 341, 679, 811, 465
287, 756, 368, 780, 662
288, 672, 206, 476, 679
289, 362, 776, 554, 778
290, 340, 489, 213, 678
291, 237, 533, 551, 540
292, 540, 551, 550, 241
293, 551, 425, 242, 550
294, 533, 240, 425, 551
295, 108, 775, 193, 118
296, 342, 312, 346, 710
297, 206, 687, 757, 476
298, 673, 807, 430, 712
299, 762, 275, 605, 804
300, 556, 555, 276, 297
301, 132, 143, 555, 556
302, 269, 559, 560, 557
303, 557, 560, 510, 273
304, 560, 558, 272, 510
305, 559, 271, 558, 560
306, 728, 729, 300, 699
307, 229, 250, 767, 754
308, 789, 800, 801, 749
309, 253, 753, 258, 816
310, 135, 567, 568, 124
311, 124, 568, 565, 136
312, 568, 566, 255, 565
313, 567, 254, 566, 568
314, 264, 536, 571, 569
315, 569, 571, 570, 266
316, 571, 397, 267, 570
317, 536, 265, 397, 571
318, 243, 572, 573, 377
319, 377, 573, 550, 242
320, 573, 561, 241, 550
321, 572, 251, 561, 573
322, 705, 563, 257, 759
323, 303, 815, 513, 805
324, 817, 592, 142, 130
325, 829, 828, 583, 307
326, 585, 792, 740, 192
327, 294, 591, 590, 191
328, 178, 394, 578, 484
329, 484, 578, 576, 164
330, 578, 577, 176, 576
331, 394, 177, 577, 578
332, 199, 720, 766, 469
333, 336, 508, 794, 218
334, 807, 725, 221, 430
335, 775, 217, 673, 193
336, 104, 711, 329, 114
337, 720, 654, 427, 766
338, 197, 208, 723, 553
339, 120, 680, 552, 109
340, 343, 338, 779, 306
341, 618, 585, 192, 149
342, 248, 588, 589, 308
343, 308, 589, 587, 184
344, 589, 444, 182, 587
345, 588, 246, 444, 589
346, 136, 565, 591, 125
347, 565, 255, 590, 591
348, 277, 593, 594, 592
349, 592, 594, 131, 142
350, 594, 555, 143, 131
351, 593, 276, 555, 594
352, 247, 596, 597, 595
353, 595, 597, 588, 248
354, 597, 390, 246, 588
355, 596, 156, 390, 597
356, 174, 373, 601, 598
357, 598, 601, 599, 171
358, 601, 600, 170, 599
359, 373, 175, 600, 601
360, 288, 490, 603, 602
361, 602, 603, 515, 287
362, 603, 436, 162, 515
363, 490, 161, 436, 603
364, 808, 286, 557, 273
365, 762, 804, 157, 604
366, 278, 556, 297, 677
367, 679, 476, 210, 811
368, 670, 314, 368, 756
369, 552, 467, 724, 225
370, 14, 22, 150, 330
371, 268, 614, 615, 612
372, 612, 615, 613, 270
373, 615, 569, 266, 613
374, 614, 264, 569, 615
375, 263, 504, 617, 412
376, 412, 617, 570, 267
377, 617, 616, 266, 570
378, 504, 262, 616, 617
379, 812, 817, 130, 141
380, 825, 294, 191, 293
381, 827, 813, 129, 140
382, 829, 335, 646, 828
383, 177, 400, 620, 577
384, 577, 620, 619, 176
385, 620, 598, 171, 619
386, 400, 174, 598, 620
387, 164, 576, 622, 496
388, 496, 622, 608, 165
389, 622, 621, 166, 608
390, 576, 176, 621, 622
391, 307, 586, 228, 296
392, 296, 228, 346, 223
393, 717, 830, 757, 687
394, 184, 587, 627, 625
395, 625, 627, 626, 183
396, 627, 416, 147, 626
397, 587, 182, 416, 627
398, 751, 304, 706, 704
399, 512, 628, 604, 157
400, 628, 122, 9, 604
401, 574, 305, 815, 303
402, 260, 433, 631, 506
403, 506, 631, 629, 261
404, 631, 630, 232, 629
405, 433, 231, 630, 631
406, 183, 626, 634, 632
407, 632, 634, 633, 180
408, 634, 449, 181, 633
409, 626, 147, 449, 634
410, 262, 519, 636, 616
411, 616, 636, 613, 266
412, 636, 635, 270, 613
413, 519, 259, 635, 636
414, 231, 451, 639, 630
415, 630, 639, 637, 232
416, 639, 638, 233, 637
417, 451, 234, 638, 639
418, 176, 619, 642, 621
419, 621, 642, 640, 166
420, 642, 641, 168, 640
421, 619, 171, 641, 642
422, 279, 644, 645, 643
423, 643, 645, 491, 280
424, 645, 405, 160, 491
425, 644, 159, 405, 645
426, 812, 222, 623, 817
427, 817, 623, 277, 592
428, 185, 649, 650, 647
429, 647, 650, 648, 187
430, 650, 632, 180, 648
431, 649, 183, 632, 650
432, 261, 629, 653, 521
433, 521, 653, 651, 256
434, 653, 652, 230, 651
435, 629, 232, 652, 653
436, 196, 509, 207, 788
437, 18, 11, 670, 823
438, 716, 796, 527, 334
439, 478, 782, 214, 477
440, 163, 441, 658, 517
441, 517, 658, 656, 281
442, 658, 657, 289, 656
443, 441, 290, 657, 658
444, 191, 660, 661, 293
445, 293, 661, 659, 189
446, 661, 647, 187, 659
447, 660, 185, 647, 661
448, 723, 334, 151, 466
449, 311, 739, 545, 806
450, 802, 226, 195, 611
451, 106, 209, 802, 116
452, 180, 633, 665, 664
453, 664, 665, 485, 186
454, 665, 446, 179, 485
455, 633, 181, 446, 665
456, 175, 384, 667, 600
457, 600, 667, 666, 170
458, 667, 500, 172, 666
459, 384, 173, 500, 667
460, 429, 778, 167, 464
461, 671, 466, 315, 795
462, 330, 150, 713, 361
463, 684, 721, 188, 498
464, 148, 579, 332, 190
465, 306, 779, 488, 681
466, 830, 708, 715, 757
467, 316, 152, 530, 820
468, 245, 471, 676, 674
469, 674, 676, 675, 244
470, 676, 596, 247, 675
471, 471, 156, 596, 676
472, 762, 604, 9, 133
473, 804, 605, 743, 302
474, 302, 808, 273, 511
475, 721, 548, 685, 188
476, 611, 195, 787, 584
477, 211, 339, 204, 432
478, 12, 20, 224, 202
479, 290, 461, 683, 657
480, 657, 683, 682, 289
481, 683, 473, 291, 682
482, 461, 292, 473, 683
483, 554, 771, 168, 718
484, 117, 200, 209, 106
485, 545, 792, 488, 796
486, 711, 479, 169, 329
487, 725, 542, 772, 221
488, 187, 648, 689, 685
489, 685, 689, 497, 188
490, 689, 664, 186, 497
491, 648, 180, 664, 689
492, 19, 12, 202, 314
493, 220, 342, 710, 219
494, 338, 343, 721, 684
495, 243, 482, 692, 572
496, 572, 692, 691, 251
497, 692, 674, 244, 691
498, 482, 245, 674, 692
499, 239, 531, 695, 423
500, 423, 695, 693, 236
501, 695, 694, 233, 693
502, 531, 238, 694, 695
503, 169, 464, 697, 369
504, 369, 697, 666, 172
505, 697, 696, 170, 666
506, 464, 167, 696, 697
507, 234, 439, 698, 638
508, 638, 698, 693, 233
509, 698, 502, 236, 693
510, 439, 235, 502, 698
511, 704, 253, 563, 705
512, 759, 539, 252, 301
513, 300, 237, 540, 564
514, 289, 682, 703, 702
515, 702, 703, 537, 284
516, 703, 387, 282, 537
517, 682, 291, 387, 703
518, 304, 774, 789, 706
519, 320, 301, 252, 752
520, 257, 564, 539, 759
521, 822, 748, 728, 699
522, 794, 478, 477, 227
523, 529, 216, 362, 495
524, 527, 779, 338, 755
525, 225, 724, 217, 775
526, 430, 221, 508, 336
527, 337, 765, 819, 313
528, 313, 819, 312, 342
529, 542, 688, 475, 772
530, 549, 215, 155, 366
531, 221, 772, 655, 508
532, 739, 740, 792, 545
533, 171, 599, 719, 641
534, 641, 719, 718, 168
535, 719, 696, 167, 718
536, 599, 170, 696, 719
537, 477, 214, 345, 668
538, 13, 21, 152, 316
539, 468, 773, 201, 546
540, 494, 549, 366, 579
541, 415, 296, 223, 827
542, 819, 154, 669, 312
543, 741, 609, 208, 197
544, 105, 611, 584, 115
545, 216, 668, 776, 362
546, 343, 367, 548, 721
547, 509, 148, 190, 207
548, 238, 726, 727, 694
549, 694, 727, 637, 233
550, 727, 652, 232, 637
551, 726, 230, 652, 727
552, 230, 726, 729, 728
553, 751, 320, 752, 747
554, 758, 254, 567, 574
555, 726, 238, 532, 729
556, 281, 656, 731, 524
557, 524, 731, 730, 283
558, 731, 702, 284, 730
559, 656, 289, 702, 731
560, 276, 732, 733, 299
561, 299, 733, 644, 279
562, 733, 453, 159, 644
563, 732, 146, 453, 733
564, 283, 730, 735, 734
565, 734, 735, 614, 268
566, 735, 535, 264, 614
567, 730, 284, 535, 735
568, 255, 737, 738, 590
569, 590, 738, 660, 191
570, 738, 736, 185, 660
571, 737, 249, 736, 738
572, 575, 717, 687, 781
573, 193, 673, 712, 414
574, 547, 662, 199, 463
575, 195, 529, 495, 787
576, 22, 15, 722, 150
577, 204, 468, 546, 607
578, 743, 764, 763, 274
579, 808, 274, 606, 286
580, 222, 295, 745, 744
581, 744, 745, 458, 145
582, 745, 669, 154, 458
583, 295, 223, 669, 745
584, 728, 748, 651, 230
585, 748, 746, 256, 651
586, 768, 754, 758, 700
587, 539, 241, 561, 252
588, 562, 799, 810, 785
589, 816, 258, 786, 746
590, 754, 767, 254, 758
591, 541, 244, 675, 701
592, 790, 229, 754, 768
593, 304, 768, 700, 774
594, 563, 822, 699, 257
595, 152, 330, 361, 530
596, 713, 328, 220, 489
597, 194, 690, 740, 739
598, 755, 338, 684, 707
599, 258, 562, 785, 786
600, 751, 704, 705, 320
601, 816, 746, 748, 822
602, 804, 302, 511, 157
603, 677, 297, 814, 298
604, 761, 643, 280, 760
605, 298, 279, 643, 761
606, 288, 763, 764, 492
607, 492, 764, 760, 280
608, 275, 677, 298, 761
609, 367, 189, 659, 548
610, 20, 13, 316, 224
611, 771, 795, 640, 168
612, 333, 149, 708, 830
613, 751, 747, 541, 790
614, 700, 758, 574, 303
615, 253, 816, 822, 563
616, 250, 769, 770, 767
617, 767, 770, 566, 254
618, 770, 737, 255, 566
619, 769, 249, 737, 770
620, 11, 19, 314, 670
621, 680, 463, 467, 552
622, 427, 494, 579, 148
623, 332, 714, 198, 688
624, 335, 826, 189, 646
625, 21, 14, 330, 152
626, 530, 361, 340, 773
627, 546, 201, 215, 549
628, 701, 675, 247, 750
629, 774, 700, 303, 805
630, 772, 475, 580, 655
631, 213, 219, 781, 610
632, 198, 465, 428, 709
633, 579, 366, 714, 332
634, 248, 309, 777, 595
635, 595, 777, 750, 247
636, 777, 769, 250, 750
637, 309, 249, 769, 777
638, 610, 781, 687, 206
639, 118, 193, 414, 107
640, 207, 190, 542, 725
641, 828, 646, 203, 543
642, 190, 332, 688, 542
643, 217, 788, 807, 673
644, 712, 430, 336, 528
645, 646, 189, 367, 203
646, 227, 477, 668, 216
647, 16, 24, 431, 765
648, 268, 783, 784, 734
649, 734, 784, 523, 283
650, 784, 742, 285, 523
651, 783, 269, 742, 784
652, 699, 300, 564, 257
653, 746, 786, 520, 256
654, 786, 785, 259, 520
655, 479, 429, 464, 169
656, 335, 127, 138, 826
657, 107, 414, 200, 117
658, 218, 794, 227, 359
659, 729, 532, 237, 300
660, 320, 705, 759, 301
661, 704, 706, 753, 253
662, 790, 541, 701, 229
663, 185, 736, 791, 649
664, 649, 791, 625, 183
665, 791, 310, 184, 625
666, 736, 249, 310, 791
667, 662, 780, 720, 199
668, 307, 583, 333, 586
669, 116, 802, 611, 105
670, 829, 307, 296, 415
671, 276, 593, 793, 732
672, 732, 793, 456, 146
673, 793, 319, 158, 456
674, 593, 277, 319, 793
675, 583, 618, 149, 333
676, 722, 337, 313, 328
677, 495, 362, 778, 429
678, 688, 198, 709, 475
679, 270, 797, 798, 612
680, 612, 798, 783, 268
681, 798, 559, 269, 783
682, 797, 271, 559, 798
683, 753, 749, 562, 258
684, 799, 801, 558, 271
685, 801, 800, 272, 558
686, 706, 789, 749, 753
687, 709, 428, 686, 205
688, 334, 527, 755, 151
689, 224, 316, 820, 339
690, 548, 659, 187, 685
691, 153, 318, 803, 480
692, 480, 803, 744, 145
693, 803, 623, 222, 744
694, 318, 277, 623, 803
695, 286, 606, 285, 742
696, 762, 278, 677, 275
697, 275, 761, 760, 605
698, 574, 123, 134, 305
699, 747, 691, 244, 541
700, 513, 272, 800, 805
701, 466, 151, 544, 315
702, 508, 655, 478, 794
703, 476, 757, 715, 210
704, 787, 495, 429, 479
705, 606, 809, 525, 285
706, 762, 133, 144, 278
707, 274, 763, 809, 606
708, 287, 525, 809, 602
709, 602, 809, 763, 288
710, 302, 743, 274, 808
711, 259, 785, 810, 635
712, 635, 810, 797, 270
713, 810, 799, 271, 797
714, 749, 801, 799, 562
715, 23, 16, 765, 337
716, 710, 575, 781, 219
717, 829, 415, 128, 139
718, 469, 766, 509, 196
719, 708, 624, 690, 715
720, 203, 367, 343, 306
721, 813, 812, 141, 129
722, 192, 740, 690, 624
723, 827, 223, 295, 813
724, 415, 827, 140, 128
725, 276, 299, 814, 297
726, 278, 144, 132, 556
727, 299, 279, 298, 814
728, 574, 567, 135, 123
729, 305, 628, 512, 815
730, 815, 512, 514, 513
731, 286, 742, 269, 557
732, 605, 760, 764, 743
733, 229, 701, 750, 250
734, 305, 134, 122, 628
735, 752, 252, 561, 251
736, 829, 139, 127, 335
737, 813, 295, 222, 812
738, 586, 717, 575, 228
739, 184, 310, 818, 308
740, 308, 818, 309, 248
741, 310, 249, 309, 818
742, 655, 580, 782, 478
743, 778, 554, 718, 167
744, 414, 712, 528, 200
745, 463, 199, 469, 467
746, 582, 756, 662, 547
747, 109, 552, 225, 119
748, 158, 319, 821, 317
749, 317, 821, 318, 153
750, 319, 277, 318, 821
751, 10, 18, 823, 824
752, 1, 10, 824, 111
753, 826, 825, 293, 189
754, 586, 333, 830, 717
755, 294, 137, 125, 591
756, 825, 126, 137, 294
757, 826, 138, 126, 825
758, 149, 192, 624, 708
*ELSET,ELSET=contact_source
99, 100, 101, 102, 103, 104, 105, 106, 107, 108, 
109, 110, 111, 112, 113, 114, 115, 116, 117, 118, 
119, 120, 
*ELSET,ELSET=contact_drain
39, 40, 41, 42, 43, 44, 45, 46, 47, 48, 
49, 50, 51, 52, 53, 54, 55, 56, 57, 58, 
59, 60, 
*ELSET,ELSET=probe_A
77, 78, 79, 80, 81, 82, 
*ELSET,ELSET=probe_B
17, 18, 19, 20, 21, 22, 
*ELSET,ELSET=walls
1, 2, 3, 4, 5, 6, 7, 8, 9, 10, 
11, 12, 13, 14, 15, 16, 23, 24, 25, 26, 
27, 28, 29, 30, 31, 32, 33, 34, 35, 36, 
37, 38, 61, 62, 63, 64, 65, 66, 67, 68, 
69, 70, 71, 72, 73, 74, 75, 76, 83, 84, 
85, 86, 87, 88, 89, 90, 91, 92, 93, 94, 
95, 96, 97, 98, 121, 122, 123, 124, 125, 126, 
127, 128, 129, 130, 131, 132, 133, 134, 135, 136, 
137, 138, 139, 140, 141, 142, 143, 144, 
*ELSET,ELSET=domain
145, 146, 147, 148, 149, 150, 151, 152, 153, 154, 
155, 156, 157, 158, 159, 160, 161, 162, 163, 164, 
165, 166, 167, 168, 169, 170, 171, 172, 173, 174, 
175, 176, 177, 178, 179, 180, 181, 182, 183, 184, 
185, 186, 187, 188, 189, 190, 191, 192, 193, 194, 
195, 196, 197, 198, 199, 200, 201, 202, 203, 204, 
205, 206, 207, 208, 209, 210, 211, 212, 213, 214, 
215, 216, 217, 218, 219, 220, 221, 222, 223, 224, 
225, 226, 227, 228, 229, 230, 231, 232, 233, 234, 
235, 236, 237, 238, 239, 240, 241, 242, 243, 244, 
245, 246, 247, 248, 249, 250, 251, 252, 253, 254, 
255, 256, 257, 258, 259, 260, 261, 262, 263, 264, 
265, 266, 267, 268, 269, 270, 271, 272, 273, 274, 
275, 276, 277, 278, 279, 280, 281, 282, 283, 284, 
285, 286, 287, 288, 289, 290, 291, 292, 293, 294, 
295, 296, 297, 298, 299, 300, 301, 302, 303, 304, 
305, 306, 307, 308, 309, 310, 311, 312, 313, 314, 
315, 316, 317, 318, 319, 320, 321, 322, 323, 324, 
325, 326, 327, 328, 329, 330, 331, 332, 333, 334, 
335, 336, 337, 338, 339, 340, 341, 342, 343, 344, 
345, 346, 347, 348, 349, 350, 351, 352, 353, 354, 
355, 356, 357, 358, 359, 360, 361, 362, 363, 364, 
365, 366, 367, 368, 369, 370, 371, 372, 373, 374, 
375, 376, 377, 378, 379, 380, 381, 382, 383, 384, 
385, 386, 387, 388, 389, 390, 391, 392, 393, 394, 
395, 396, 397, 398, 399, 400, 401, 402, 403, 404, 
405, 406, 407, 408, 409, 410, 411, 412, 413, 414, 
415, 416, 417, 418, 419, 420, 421, 422, 423, 424, 
425, 426, 427, 428, 429, 430, 431, 432, 433, 434, 
435, 436, 437, 438, 439, 440, 441, 442, 443, 444, 
445, 446, 447, 448, 449, 450, 451, 452, 453, 454, 
455, 456, 457, 458, 459, 460, 461, 462, 463, 464, 
465, 466, 467, 468, 469, 470, 471, 472, 473, 474, 
475, 476, 477, 478, 479, 480, 481, 482, 483, 484, 
485, 486, 487, 488, 489, 490, 491, 492, 493, 494, 
495, 496, 497, 498, 499, 500, 501, 502, 503, 504, 
505, 506, 507, 508, 509, 510, 511, 512, 513, 514, 
515, 516, 517, 518, 519, 520, 521, 522, 523, 524, 
525, 526, 527, 528, 529, 530, 531, 532, 533, 534, 
535, 536, 537, 538, 539, 540, 541, 542, 543, 544, 
545, 546, 547, 548, 549, 550, 551, 552, 553, 554, 
555, 556, 557, 558, 559, 560, 561, 562, 563, 564, 
565, 566, 567, 568, 569, 570, 571, 572, 573, 574, 
575, 576, 577, 578, 579, 580, 581, 582, 583, 584, 
585, 586, 587, 588, 589, 590, 591, 592, 593, 594, 
595, 596, 597, 598, 599, 600, 601, 602, 603, 604, 
605, 606, 607, 608, 609, 610, 611, 612, 613, 614, 
615, 616, 617, 618, 619, 620, 621, 622, 623, 624, 
625, 626, 627, 628, 629, 630, 631, 632, 633, 634, 
635, 636, 637, 638, 639, 640, 641, 642, 643, 644, 
645, 646, 647, 648, 649, 650, 651, 652, 653, 654, 
655, 656, 657, 658, 659, 660, 661, 662, 663, 664, 
665, 666, 667, 668, 669, 670, 671, 672, 673, 674, 
675, 676, 677, 678, 679, 680, 681, 682, 683, 684, 
685, 686, 687, 688, 689, 690, 691, 692, 693, 694, 
695, 696, 697, 698, 699, 700, 701, 702, 703, 704, 
705, 706, 707, 708, 709, 710, 711, 712, 713, 714, 
715, 716, 717, 718, 719, 720, 721, 722, 723, 724, 
725, 726, 727, 728, 729, 730, 731, 732, 733, 734, 
735, 736, 737, 738, 739, 740, 741, 742, 743, 744, 
745, 746, 747, 748, 749, 750, 751, 752, 753, 754, 
755, 756, 757, 758, 759, 760, 761, 762, 763, 764, 
765, 766, 767, 768, 769, 770, 771, 772, 773, 774, 
775, 776, 777, 778, 779, 780, 781, 782, 783, 784, 
785, 786, 787, 788, 789, 790, 791, 792, 793, 794, 
795, 796, 797, 798, 799, 800, 801, 802, 803, 804, 
805, 806, 807, 808, 809, 810, 811, 812, 813, 814, 
815, 816, 817, 818, 819, 820, 821, 822, 823, 824, 
825, 826, 827, 828, 829, 830, 831, 832, 833, 834, 
835, 836, 837, 838, 839, 840, 841, 842, 843, 844, 
845, 846, 847, 848, 849, 850, 851, 852, 853, 854, 
855, 856, 857, 858, 859, 860, 861, 862, 863, 864, 
865, 866, 867, 868, 869, 870, 871, 872, 873, 874, 
875, 876, 877, 878, 879, 880, 881, 882, 883, 884, 
885, 886, 887, 888, 889, 890, 891, 892, 893, 894, 
895, 896, 897, 898, 899, 900, 901, 902, 
*NSET,NSET=contact_source
1, 8, 101, 102, 103, 104, 105, 106, 107, 108, 
109, 110, 111, 112, 113, 114, 115, 116, 117, 118, 
119, 120, 121, 
*NSET,NSET=contact_drain
4, 5, 45, 46, 47, 48, 49, 50, 51, 52, 
53, 54, 55, 56, 57, 58, 59, 60, 61, 62, 
63, 64, 65, 
*NSET,NSET=probe_A
6, 7, 81, 82, 83, 84, 85, 
*NSET,NSET=probe_B
2, 3, 25, 26, 27, 28, 29, 
*NSET,NSET=walls
1, 2, 3, 4, 5, 6, 7, 8, 9, 10, 
11, 12, 13, 14, 15, 16, 17, 18, 19, 20, 
21, 22, 23, 24, 30, 31, 32, 33, 34, 35, 
36, 37, 38, 39, 40, 41, 42, 43, 44, 66, 
67, 68, 69, 70, 71, 72, 73, 74, 75, 76, 
77, 78, 79, 80, 86, 87, 88, 89, 90, 91, 
92, 93, 94, 95, 96, 97, 98, 99, 100, 122, 
123, 124, 125, 126, 127, 128, 129, 130, 131, 132, 
133, 134, 135, 136, 137, 138, 139, 140, 141, 142, 
143, 144, 
*NSET,NSET=domain
1, 2, 3, 4, 5, 6, 7, 8, 9, 10, 
11, 12, 13, 14, 15, 16, 17, 18, 19, 20, 
21, 22, 23, 24, 25, 26, 27, 28, 29, 30, 
31, 32, 33, 34, 35, 36, 37, 38, 39, 40, 
41, 42, 43, 44, 45, 46, 47, 48, 49, 50, 
51, 52, 53, 54, 55, 56, 57, 58, 59, 60, 
61, 62, 63, 64, 65, 66, 67, 68, 69, 70, 
71, 72, 73, 74, 75, 76, 77, 78, 79, 80, 
81, 82, 83, 84, 85, 86, 87, 88, 89, 90, 
91, 92, 93, 94, 95, 96, 97, 98, 99, 100, 
101, 102, 103, 104, 105, 106, 107, 108, 109, 110, 
111, 112, 113, 114, 115, 116, 117, 118, 119, 120, 
121, 122, 123, 124, 125, 126, 127, 128, 129, 130, 
131, 132, 133, 134, 135, 136, 137, 138, 139, 140, 
141, 142, 143, 144, 145, 146, 147, 148, 149, 150, 
151, 152, 153, 154, 155, 156, 157, 158, 159, 160, 
161, 162, 163, 164, 165, 166, 167, 168, 169, 170, 
171, 172, 173, 174, 175, 176, 177, 178, 179, 180, 
181, 182, 183, 184, 185, 186, 187, 188, 189, 190, 
191, 192, 193, 194, 195, 196, 197, 198, 199, 200, 
201, 202, 203, 204, 205, 206, 207, 208, 209, 210, 
211, 212, 213, 214, 215, 216, 217, 218, 219, 220, 
221, 222, 223, 224, 225, 226, 227, 228, 229, 230, 
231, 232, 233, 234, 235, 236, 237, 238, 239, 240, 
241, 242, 243, 244, 245, 246, 247, 248, 249, 250, 
251, 252, 253, 254, 255, 256, 257, 258, 259, 260, 
261, 262, 263, 264, 265, 266, 267, 268, 269, 270, 
271, 272, 273, 274, 275, 276, 277, 278, 279, 280, 
281, 282, 283, 284, 285, 286, 287, 288, 289, 290, 
291, 292, 293, 294, 295, 296, 297, 298, 299, 300, 
301, 302, 303, 304, 305, 306, 307, 308, 309, 310, 
311, 312, 313, 314, 315, 316, 317, 318, 319, 320, 
321, 322, 323, 324, 325, 326, 327, 328, 329, 330, 
331, 332, 333, 334, 335, 336, 337, 338, 339, 340, 
341, 342, 343, 344, 345, 346, 347, 348, 349, 350, 
351, 352, 353, 354, 355, 356, 357, 358, 359, 360, 
361, 362, 363, 364, 365, 366, 367, 368, 369, 370, 
371, 372, 373, 374, 375, 376, 377, 378, 379, 380, 
381, 382, 383, 384, 385, 386, 387, 388, 389, 390, 
391, 392, 393, 394, 395, 396, 397, 398, 399, 400, 
401, 402, 403, 404, 405, 406, 407, 408, 409, 410, 
411, 412, 413, 414, 415, 416, 417, 418, 419, 420, 
421, 422, 423, 424, 425, 426, 427, 428, 429, 430, 
431, 432, 433, 434, 435, 436, 437, 438, 439, 440, 
441, 442, 443, 444, 445, 446, 447, 448, 449, 450, 
451, 452, 453, 454, 455, 456, 457, 458, 459, 460, 
461, 462, 463, 464, 465, 466, 467, 468, 469, 470, 
471, 472, 473, 474, 475, 476, 477, 478, 479, 480, 
481, 482, 483, 484, 485, 486, 487, 488, 489, 490, 
491, 492, 493, 494, 495, 496, 497, 498, 499, 500, 
501, 502, 503, 504, 505, 506, 507, 508, 509, 510, 
511, 512, 513, 514, 515, 516, 517, 518, 519, 520, 
521, 522, 523, 524, 525, 526, 527, 528, 529, 530, 
531, 532, 533, 534, 535, 536, 537, 538, 539, 540, 
541, 542, 543, 544, 545, 546, 547, 548, 549, 550, 
551, 552, 553, 554, 555, 556, 557, 558, 559, 560, 
561, 562, 563, 564, 565, 566, 567, 568, 569, 570, 
571, 572, 573, 574, 575, 576, 577, 578, 579, 580, 
581, 582, 583, 584, 585, 586, 587, 588, 589, 590, 
591, 592, 593, 594, 595, 596, 597, 598, 599, 600, 
601, 602, 603, 604, 605, 606, 607, 608, 609, 610, 
611, 612, 613, 614, 615, 616, 617, 618, 619, 620, 
621, 622, 623, 624, 625, 626, 627, 628, 629, 630, 
631, 632, 633, 634, 635, 636, 637, 638, 639, 640, 
641, 642, 643, 644, 645, 646, 647, 648, 649, 650, 
651, 652, 653, 654, 655, 656, 657, 658, 659, 660, 
661, 662, 663, 664, 665, 666, 667, 668, 669, 670, 
671, 672, 673, 674, 675, 676, 677, 678, 679, 680, 
681, 682, 683, 684, 685, 686, 687, 688, 689, 690, 
691, 692, 693, 694, 695, 696, 697, 698, 699, 700, 
701, 702, 703, 704, 705, 706, 707, 708, 709, 710, 
711, 712, 713, 714, 715, 716, 717, 718, 719, 720, 
721, 722, 723, 724, 725, 726, 727, 728, 729, 730, 
731, 732, 733, 734, 735, 736, 737, 738, 739, 740, 
741, 742, 743, 744, 745, 746, 747, 748, 749, 750, 
751, 752, 753, 754, 755, 756, 757, 758, 759, 760, 
761, 762, 763, 764, 765, 766, 767, 768, 769, 770, 
771, 772, 773, 774, 775, 776, 777, 778, 779, 780, 
781, 782, 783, 784, 785, 786, 787, 788, 789, 790, 
791, 792, 793, 794, 795, 796, 797, 798, 799, 800, 
801, 802, 803, 804, 805, 806, 807, 808, 809, 810, 
811, 812, 813, 814, 815, 816, 817, 818, 819, 820, 
821, 822, 823, 824, 825, 826, 827, 828, 829, 830, 
