*Heading
 /Users/juliagao/geometry-optimization-net/scripts/../runs/2d/shape_20.inp
*NODE
1, 0, -0.3, 0
2, 0.425, -0.3, 0
3, 0.575, -0.3, 0
4, 1, -0.3, 0
5, 1, 0.3, 0
6, 0.575, 0.3, 0
7, 0.425, 0.3, 0
8, 0, 0.3, 0
9, 0.596933977, -0.034958426, 0
10, 0.025592524441329, -0.3, 0
11, 0.076596688744299, -0.3, 0
12, 0.12827890257697, -0.3, 0
13, 0.18216008828032, -0.3, 0
14, 0.23763590199547, -0.3, 0
15, 0.29262403979251, -0.3, 0
16, 0.34636624317653, -0.3, 0
17, 0.39899275537317, -0.3, 0
18, 0.051185048882659, -0.3, 0
19, 0.10200832860594, -0.3, 0
20, 0.154549476548, -0.3, 0
21, 0.20977070001265, -0.3, 0
22, 0.2655011039783, -0.3, 0
23, 0.31974697560673, -0.3, 0
24, 0.37298551074634, -0.3, 0
25, 0.45005790170487, -0.3, 0
26, 0.49985911166226, -0.3, 0
27, 0.54980120995739, -0.3, 0
28, 0.47511580340973, -0.3, 0
29, 0.52460241991479, -0.3, 0
30, 0.60113072808889, -0.3, 0
31, 0.65388256913179, -0.3, 0
32, 0.70761251712408, -0.3, 0
33, 0.7625660270518, -0.3, 0
34, 0.81793905910071, -0.3, 0
35, 0.87171943614291, -0.3, 0
36, 0.9233881119378, -0.3, 0
37, 0.97440238392499, -0.3, 0
38, 0.62726145617778, -0.3, 0
39, 0.6805036820858, -0.3, 0
40, 0.73472135216236, -0.3, 0
41, 0.79041070194124, -0.3, 0
42, 0.84546741626019, -0.3, 0
43, 0.89797145602562, -0.3, 0
44, 0.94880476784997, -0.3, 0
45, 1, -0.2735577771127, 0
46, 1, -0.21991025917031, 0
47, 1, -0.16546927545311, 0
48, 1, -0.11137507546696, 0
49, 1, -0.057319891437683, 0
50, 1, -0.0016617654937213, 0
51, 1, 0.055410969114632, 0
52, 1, 0.11197116197033, 0
53, 1, 0.16764004157633, 0
54, 1, 0.2220601357936, 0
55, 1, 0.27438013094546, 0
56, 1, -0.24711555422541, 0
57, 1, -0.19270496411522, 0
58, 1, -0.138233586791, 0
59, 1, -0.084516564142933, 0
60, 1, -0.030123218732434, 0
61, 1, 0.026799687744991, 0
62, 1, 0.084022250484272, 0
63, 1, 0.13992007345638, 0
64, 1, 0.19536000969627, 0
65, 1, 0.24876026189093, 0
66, 0.97444872004352, 0.3, 0
67, 0.92330494307009, 0.3, 0
68, 0.87088587584083, 0.3, 0
69, 0.8160518087559, 0.3, 0
70, 0.76035572269168, 0.3, 0
71, 0.70562726362979, 0.3, 0
72, 0.6523747833537, 0.3, 0
73, 0.60058108647395, 0.3, 0
74, 0.94889744008704, 0.3, 0
75, 0.89771244605315, 0.3, 0
76, 0.84405930562851, 0.3, 0
77, 0.78804431188329, 0.3, 0
78, 0.73266713350007, 0.3, 0
79, 0.6785873937595, 0.3, 0
80, 0.62616217294789, 0.3, 0
81, 0.54994896176344, 0.3, 0
82, 0.50015921562532, 0.3, 0
83, 0.45021025386188, 0.3, 0
84, 0.52489792352688, 0.3, 0
85, 0.47542050772377, 0.3, 0
86, 0.39879105878006, 0.3, 0
87, 0.34618951562858, 0.3, 0
88, 0.29296931191852, 0.3, 0
89, 0.23860263372774, 0.3, 0
90, 0.18320765051485, 0.3, 0
91, 0.12869946348702, 0.3, 0
92, 0.076508852009703, 0.3, 0
93, 0.025485260379803, 0.3, 0
94, 0.37258211756011, 0.3, 0
95, 0.31979691369704, 0.3, 0
96, 0.26614171014001, 0.3, 0
97, 0.21106355731546, 0.3, 0
98, 0.15535174371424, 0.3, 0
99, 0.1020471832598, 0.3, 0
100, 0.050970520759606, 0.3, 0
101, 0, 0.27431510694939, 0
102, 0, 0.22184763594794, 0
103, 0, 0.16741506716466, 0
104, 0, 0.1118592212566, 0
105, 0, 0.055277065940562, 0
106, 0, -0.0018249239333664, 0
107, 0, -0.057394891632931, 0
108, 0, -0.11141937063137, 0
109, 0, -0.1655894665385, 0
110, 0, -0.22006387773438, 0
111, 0, -0.27362419697775, 0
112, 0, 0.24863021389879, 0
113, 0, 0.19506505799709, 0
114, 0, 0.13976507633222, 0
115, 0, 0.083953366180979, 0
116, 0, 0.026600765700145, 0
117, 0, -0.030250613566878, 0
118, 0, -0.084539169698984, 0
119, 0, -0.13829957156375, 0
120, 0, -0.19287936151325, 0
121, 0, -0.2472483939555, 0
122, 0.59299559299153, -0.0076085536542816, 0
123, 0.56324653948824, 0.038499528844581, 0
124, 0.51276399466609, 0.06113151232726, 0
125, 0.45817326788422, 0.052487101591874, 0
126, 0.41725886355388, 0.015540091213677, 0
127, 0.40311558757547, -0.038057861138021, 0
128, 0.42045764467905, -0.090358872722723, 0
129, 0.46248270354556, -0.124337664908, 0
130, 0.5153422485866, -0.1306705532462, 0
131, 0.56376440195936, -0.10796730811328, 0
132, 0.59300947116366, -0.062261065182506, 0
133, 0.58150047316305, 0.017518889712742, 0
134, 0.53978683092006, 0.053433903626225, 0
135, 0.48466870005591, 0.060755455730407, 0
136, 0.43510712004409, 0.037049281579223, 0
137, 0.40628975751279, -0.010167575914377, 0
138, 0.40806592336794, -0.065688238878378, 0
139, 0.43930163412189, -0.11053556687668, 0
140, 0.48856998801317, -0.13121615675355, 0
141, 0.54094369509942, -0.12282087366786, 0
142, 0.5815537344238, -0.087352931344985, 0
143, 0.42791488438092, -0.24045478178274, 0
144, 0.57654239127653, -0.2419490645425, 0
145, 0.4195147263472, 0.23901078635179, 0
146, 0.053613329279522, -0.24410180765865, 0
147, 0.10643962575158, -0.24394200914564, 0
148, 0.32013869443942, -0.1123904687988, 0
149, 0.40074764161391, -0.27134947776059, 0
150, 0.24110073200047, -0.19105665038467, 0
151, 0.47791564633069, -0.24121511705693, 0
152, 0.21481909031685, -0.16284695957651, 0
153, 0.16239874947209, -0.10650574462421, 0
154, 0.57689993894352, 0.25006835381639, 0
155, 0.52829323318784, -0.24035711695516, 0
156, 0.62877742343606, -0.24477940805973, 0
157, 0.68141683939044, -0.24607436966974, 0
158, 0.73611251166683, -0.24687603947832, 0
159, 0.78961092282526, -0.2459167922521, 0
160, 0.8422162028017, -0.24495452108267, 0
161, 0.89451343227031, -0.24415273035502, 0
162, 0.2173520169049, 0.18867207118189, 0
163, 0.27339173332199, 0.13099634262323, 0
164, 0.219354679261, 0.13319944939835, 0
165, 0.16474790383874, 0.13437490467616, 0
166, 0.10967430332152, 0.13492835146899, 0
167, 0.054469616934751, 0.13612746543394, 0
168, 0.1636553813344, 0.18913002985502, 0
169, 0.054763138830036, 0.19007812156891, 0
170, 0.10944935287929, 0.18907000867242, 0
171, 0.10797717121246, 0.24399451816151, 0
172, 0.054568596165131, 0.2442331661021, 0
173, 0.16132324206595, 0.24463231075971, 0
174, 0.2147614652065, 0.2447297568466, 0
175, 0.27054596850782, 0.1871976651539, 0
176, 0.26794062732462, 0.24395692429348, 0
177, 0.32315927896243, 0.18502049999895, 0
178, 0.3203060396479, 0.2427946840281, 0
179, 0.37124520239083, 0.24100916323136, 0
180, 0.46703714275959, 0.24024632091579, 0
181, 0.40345835842551, 0.14518251468957, 0
182, 0.49728619736063, 0.15908945671588, 0
183, 0.59348762949929, 0.13497630945211, 0
184, 0.43291443058946, 0.074106122592618, 0
185, 0.32717988287615, 0.1285933430223, 0
186, 0.2755559781735, 0.07534441262714, 0
187, 0.32848428719869, 0.073044316358728, 0
188, 0.37496075014316, 0.18028504504484, 0
189, 0.48193436108557, 0.088934684325949, 0
190, 0.38306887984135, 0.061891005045495, 0
191, 0.34800845649804, 0.01531386922688, 0
192, 0.28306990131753, 0.021319681867744, 0
193, 0.16531169213549, 0.080460867592348, 0
194, 0.22080477400732, 0.078644547615253, 0
195, 0.22340330063177, 0.025401971181518, 0
196, 0.16606488058512, 0.027342716304296, 0
197, 0.10957082413715, 0.081275229364314, 0
198, 0.054102073997249, 0.081993707694799, 0
199, 0.053968753370013, 0.027792115940042, 0
200, 0.10964130944259, 0.027994387482874, 0
201, 0.35079060029863, -0.14195367548779, 0
202, 0.10775795802547, -0.18872960134454, 0
203, 0.054027516001183, -0.18947300049862, 0
204, 0.18913693261757, -0.10682943712527, 0
205, 0.15934058338235, -0.24481322124526, 0
206, 0.29405957318658, -0.24584875402455, 0
207, 0.29510662127623, -0.13811502854033, 0
208, 0.10832706011485, -0.13386496900003, 0
209, 0.30330159964703, -0.054530552417, 0
210, 0.054301713573461, -0.1350851260818, 0
211, 0.10948677343002, -0.025221177113358, 0
212, 0.054272760286679, -0.026366979293579, 0
213, 0.05446310957541, -0.080673927330939, 0
214, 0.10882455879312, -0.079202207245621, 0
215, 0.16529866908893, -0.025226974148047, 0
216, 0.22192833420662, -0.026005107584257, 0
217, 0.16304149975109, -0.079035715423599, 0
218, 0.29481981458546, -0.21891051848407, 0
219, 0.43269190285534, -0.17866397181449, 0
220, 0.18770095956509, -0.18995213988752, 0
221, 0.29534219159812, -0.19206667823173, 0
222, 0.48297946953016, -0.18435909069373, 0
223, 0.40262866467176, -0.24255684083373, 0
224, 0.3517569031856, -0.16691350227633, 0
225, 0.24331824001432, -0.079946226272179, 0
226, 0.28033709310774, -0.02783741298522, 0
227, 0.34159399659771, -0.033783232655784, 0
228, 0.79403082768175, 0.18753910817972, 0
229, 0.74264184715366, 0.12987570496448, 0
230, 0.79222391871994, 0.12930751710315, 0
231, 0.84300187026805, 0.13007469296598, 0
232, 0.89482857013214, 0.13145473635965, 0
233, 0.94737628502955, 0.13416533687269, 0
234, 0.84414427766886, 0.18736787494321, 0
235, 0.89510995164005, 0.18762053452357, 0
236, 0.94709958711495, 0.18942903226335, 0
237, 0.94668408571366, 0.24449017915495, 0
238, 0.89496425222811, 0.24405715212104, 0
239, 0.84367601288818, 0.24469587246118, 0
240, 0.79245892691141, 0.24516424363699, 0
241, 0.74432356477479, 0.18843578190112, 0
242, 0.74111433791984, 0.24545523240372, 0
243, 0.69404406257172, 0.19147231074557, 0
244, 0.68902524483111, 0.24632916811448, 0
245, 0.64089156422796, 0.19782199737516, 0
246, 0.63474195791299, 0.24825275159737, 0
247, 0.5185014312608, 0.24632413182446, 0
248, 0.58140186838016, 0.2044809510002, 0
249, 0.51965457167737, 0.19583739909342, 0
250, 0.49320424828866, 0.18671888568049, 0
251, 0.53003798102058, 0.11481825252369, 0
252, 0.64486881325947, 0.14507109853409, 0
253, 0.6940911985334, 0.1341385505872, 0
254, 0.63597931377573, 0.091418331843546, 0
255, 0.58064250492076, 0.11637635273187, 0
256, 0.54696839168967, 0.12794825003022, 0
257, 0.75990038267198, 0.071691022927139, 0
258, 0.63729301681576, 0.027132563323428, 0
259, 0.80956572489061, 0.046059855864443, 0
260, 0.70856399344097, 0.072872247726659, 0
261, 0.67450377925556, 0.047932504147532, 0
262, 0.83951316121073, 0.07419849962493, 0
263, 0.6640316727936, 0.021598989966531, 0
264, 0.83480351821954, 0.02083197900569, 0
265, 0.81553614998945, 0.10112494043824, 0
266, 0.94716078004511, 0.079036914675975, 0
267, 0.89335475678165, 0.076298077394755, 0
268, 0.8911659211628, 0.022839331400209, 0
269, 0.94656514333746, 0.024686991589291, 0
270, 0.88967357142333, -0.081008613788114, 0
271, 0.9453006184557, -0.081862745899541, 0
272, 0.88948799979077, -0.029169260269424, 0
273, 0.94567468991985, -0.028756487966174, 0
274, 0.83280075572698, -0.08068865540804, 0
275, 0.77349994542296, -0.080604190480451, 0
276, 0.83177167075575, -0.03021154819711, 0
277, 0.7723302125478, -0.031831410370166, 0
278, 0.62452033018075, -0.024939911792206, 0
279, 0.71213658363518, -0.033737894297957, 0
280, 0.70907404779312, -0.083828141752289, 0
281, 0.64496486591644, -0.079501611236524, 0
282, 0.61960408538633, -0.13070612342521, 0
283, 0.56093356114242, -0.17450557088458, 0
284, 0.67970014917441, -0.13556062056697, 0
285, 0.6316521471779, -0.18794808435708, 0
286, 0.68204133214616, -0.19142346782382, 0
287, 0.94589604671159, -0.13547598598021, 0
288, 0.83794011207274, -0.13392068665072, 0
289, 0.89175248398293, -0.13431561894992, 0
290, 0.78502926999234, -0.13391664859505, 0
291, 0.73407869955996, -0.13761959331004, 0
292, 0.78854986257208, -0.19028502456304, 0
293, 0.73640492898248, -0.1930192454946, 0
294, 0.84055212886579, -0.18925389421152, 0
295, 0.89320300481269, -0.18889086593136, 0
296, 0.94645656082993, -0.18965425111645, 0
297, 0.94687975376145, -0.24430349226297, 0
298, 0.35625707639964, 0.076952615545405, 0
299, 0.37152027546336, 0.03480483587073, 0
300, 0.32919756880712, 0.042995238797601, 0
301, 0.60929381513431, -0.16560607534508, 0
302, 0.63232442516931, -0.15715914807689, 0
303, 0.61821315357581, 0.15264021550382, 0
304, 0.62635571329308, 0.067994773141337, 0
305, 0.52941226521675, 0.14825788488932, 0
306, 0.58236464868669, -0.18086477288032, 0
307, 0.54285966135807, -0.15029748306758, 0
308, 0.60558509871485, -0.19271565815508, 0
309, 0.61394635175692, -0.076533362631417, 0
310, 0.63725647823768, -0.1060325655585, 0
311, 0.59003464778739, -0.11855398644432, 0
312, 0.23968513012217, -0.24587668495032, 0
313, 0.21367946282507, -0.2181159872037, 0
314, 0.29544996872067, -0.16522166809116, 0
315, 0.18999605762248, -0.079222482553822, 0
316, 0.32305651293968, -0.19244376105456, 0
317, 0.37324058955166, -0.045616528514927, 0
318, 0.40785427562239, 0.11342458060463, 0
319, 0.38221233784339, 0.12013271850355, 0
320, 0.61577745517738, 0.046452759504857, 0
321, 0.68834418377329, -0.10786003183222, 0
322, 0.73025491750829, -0.10798038675918, 0
323, 0.70754268293362, -0.14591947971097, 0
324, 0.81276021692621, 0.073214571430431, 0
325, 0.76441590118661, 0.10020834633797, 0
326, 0.65951785054718, 0.080713962466108, 0
327, 0.72741535554934, 0.043782136475567, 0
328, 0.053607468915636, 0.27179710129928, 0
329, 0.027532802277937, 0.24543310265882, 0
330, 0.027247285260387, 0.27234233637275, 0
331, 0.50329553160909, -0.24109969767563, 0
332, 0.52613810974568, -0.27030198655197, 0
333, 0.47617124431243, -0.27049073776175, 0
334, 0.50125665605359, -0.27043563029081, 0
335, 0.52047973776777, 0.272573057876, 0
336, 0.49192086791002, 0.2429468651169, 0
337, 0.46958491412197, 0.27034827838885, 0
338, 0.49451402089917, 0.27127487207796, 0
339, 0.34604762379697, 0.24222740667204, 0
340, 0.31975388705204, 0.27158404083821, 0
341, 0.3713445066737, 0.27091224148883, 0
342, 0.34575948793756, 0.27134692263864, 0
343, 0.97297050291783, -0.13662710580304, 0
344, 0.94559185561461, -0.10857644562948, 0
345, 0.97274865891769, -0.082838630159827, 0
346, 0.97281438575488, -0.10968732988555, 0
347, 0.054145518410711, -0.16227715465868, 0
348, 0.027008656747021, -0.19073661117915, 0
349, 0.027174760427854, -0.13645357163749, 0
350, 0.027052819579, -0.16359480317505, 0
351, 0.97323379239502, -0.19079026220805, 0
352, 0.94621977083513, -0.16250742221387, 0
353, 0.97314225518548, -0.16367289639178, 0
354, 0.054605817380402, 0.16311822826266, 0
355, 0.027062840530525, 0.13751121068422, 0
356, 0.027326449526415, 0.19177338167692, 0
357, 0.027153250631835, 0.16472415843105, 0
358, 0.054434018152326, -0.10787882521526, 0
359, 0.027271284238188, -0.082211857718766, 0
360, 0.027285446338832, -0.10933754267018, 0
361, 0.39568598196409, 0.23988287697434, 0
362, 0.42094055807527, 0.27010550445925, 0
363, 0.396389311137, 0.27052484234217, 0
364, 0.81806671069157, 0.24502319569075, 0
365, 0.79063755392013, 0.27311228180178, 0
366, 0.84347655162753, 0.27278358290884, 0
367, 0.81710494991183, 0.27307437594216, 0
368, 0.97377277665572, 0.081061149656915, 0
369, 0.94729907027578, 0.10653802006114, 0
370, 0.97372853963053, 0.13652435344569, 0
371, 0.97373584228111, 0.10880466980762, 0
372, 0.65494329260772, -0.24508699244902, 0
373, 0.68100888337154, -0.27304517122403, 0
374, 0.62796529301127, -0.27241766862405, 0
375, 0.65435068021689, -0.27262114526644, 0
376, 0.080059930149615, -0.24380163422635, 0
377, 0.10489564149715, -0.27183606618739, 0
378, 0.052917313533258, -0.27180737828199, 0
379, 0.078887746919686, -0.271665497816, 0
380, 0.89569852673893, -0.27200356058505, 0
381, 0.92065589247234, -0.24402779952455, 0
382, 0.94741753112826, -0.27196360702784, 0
383, 0.92157079112319, -0.27183597179231, 0
384, 0.94733283660412, 0.16181857132277, 0
385, 0.97346281088083, 0.19160269326913, 0
386, 0.97367627433434, 0.1641557988952, 0
387, 0.21307296222971, 0.27259963238657, 0
388, 0.18804149302444, 0.24483896139047, 0
389, 0.15908272267106, 0.27243750130094, 0
390, 0.18602234181434, 0.27266952796583, 0
391, 0.57574977898897, 0.27416886102983, 0
392, 0.54713355942485, 0.24984715932057, 0
393, 0.54776709138574, 0.27404075992053, 0
394, 0.76303257174894, -0.24639668500365, 0
395, 0.78998948722431, -0.27323510190876, 0
396, 0.73571935878879, -0.27350835262731, 0
397, 0.7629533115135, -0.27343961867902, 0
398, 0.19179763312482, -0.052054655791823, 0
399, 0.32047722082892, -0.27273581524932, 0
400, 0.15758525378551, -0.27248973746507, 0
401, 0.32143999857428, -0.24571126135842, 0
402, 0.05431448693497, 0.10908128673169, 0
403, 0.026785586133514, 0.082670691627153, 0
404, 0.026965467772575, 0.11015843340947, 0
405, 0.026970494119417, -0.24499861031596, 0
406, 0.026768936246667, -0.27224368890691, 0
407, 0.63103334776678, 0.27370243889219, 0
408, 0.60625600185143, 0.24936796371725, 0
409, 0.60358544363674, 0.27400626060608, 0
410, 0.3601227016545, -0.064666434067398, 0
411, 0.32238049243627, -0.2189344157854, 0
412, 0.18819945435224, -0.16224636847339, 0
413, 0.18863942798566, -0.13453611710862, 0
414, 0.053929321557914, 0.054888612039879, 0
415, 0.026660728692501, 0.027362836941363, 0
416, 0.026624014746323, 0.055037572633773, 0
417, 0.97363848868871, 0.025676083515226, 0
418, 0.94693552661424, 0.051742946079407, 0
419, 0.97377860620215, 0.053321886182236, 0
420, 0.10595300757497, 0.2718604532657, 0
421, 0.081322496946071, 0.2438642088517, 0
422, 0.079751570034591, 0.27165992601735, 0
423, 0.97328897064495, -0.24510851392045, 0
424, 0.97343126744322, -0.27235328879846, 0
425, 0.29425683121412, 0.24338887897863, 0
426, 0.26688634909706, 0.2721670870332, 0
427, 0.29345784547506, 0.2718600211459, 0
428, 0.7668223339262, 0.24528544534182, 0
429, 0.73771977273505, 0.27310842501447, 0
430, 0.76416797975805, 0.27312363764514, 0
431, 0.18439342362831, -0.27285633099688, 0
432, 0.21274069214507, -0.24565587365371, 0
433, 0.60215182593629, -0.24592602998646, 0
434, 0.57542638138704, -0.27118710283789, 0
435, 0.60137337795054, -0.27286545953631, 0
436, 0.70865904567246, -0.24760545109627, 0
437, 0.70824867217271, -0.27371614749946, 0
438, 0.71523341333271, 0.24578720402648, 0
439, 0.68475568932165, 0.2732258985954, 0
440, 0.71127554205669, 0.27314416329955, 0
441, 0.24141996621961, 0.24442963949291, 0
442, 0.24006052974188, 0.27243904670752, 0
443, 0.55249025236631, -0.23956050393053, 0
444, 0.55068951102807, -0.27014328710571, 0
445, 0.66227892229515, 0.24714172250071, 0
446, 0.65806397447311, 0.27340097946428, 0
447, 0.97303143557439, 0.24575625822177, 0
448, 0.9470798200848, 0.27211557465825, 0
449, 0.97310664572853, 0.27265389557419, 0
450, 0.42614644822896, -0.27043145311907, 0
451, 0.45271447192264, -0.24075972603574, 0
452, 0.45110971349629, -0.27039488101106, 0
453, 0.54936600630829, 0.20482818214191, 0
454, 0.51826468905928, 0.22079418389494, 0
455, 0.57872946753376, 0.22697432150807, 0
456, 0.54767307297407, 0.22683457676157, 0
457, 0.94614512137886, -0.0021272662571336, 0
458, 0.97312377836948, -0.02902294453478, 0
459, 0.97345851201714, -0.0017891366912445, 0
460, 0.61206029095956, 0.20163858268864, 0
461, 0.63794853108026, 0.22311217367391, 0
462, 0.60900567494856, 0.22540986544954, 0
463, 0.026984621618687, -0.027732935987058, 0
464, 0.054449831134564, -0.053493971439039, 0
465, 0.027220373770434, -0.055024136884388, 0
466, 0.2683178469075, -0.10887129315988, 0
467, 0.32231788546644, -0.1398374749031, 0
468, 0.94533578185149, -0.055301759033756, 0
469, 0.97282660695699, -0.055996029725579, 0
470, 0.054059289123395, 0.00071512886437861, 0
471, 0.026737531447146, -0.00025120155128142, 0
472, 0.81597846265103, -0.24546966890836, 0
473, 0.84337686808991, -0.27263751635702, 0
474, 0.81680739044405, -0.27301137151621, 0
475, 0.2675329255127, -0.21875016171132, 0
476, 0.41028464982002, -0.15582185132219, 0
477, 0.268063219053, -0.19157352237899, 0
478, 0.44313638746793, 0.23917838945319, 0
479, 0.44522215730816, 0.27004158603343, 0
480, 0.86838294514626, -0.24447861564698, 0
481, 0.8696521162032, -0.27226549958205, 0
482, 0.13284539606927, -0.24430323070059, 0
483, 0.13110763755371, -0.27210705967792, 0
484, 0.94682122072125, 0.21697503727957, 0
485, 0.97322314068007, 0.21878804625734, 0
486, 0.13463037898166, 0.2443039285878, 0
487, 0.13239058355947, 0.27214204509504, 0
488, 0.9207237967471, 0.24400494557332, 0
489, 0.89556952809854, 0.2721568451629, 0
490, 0.92132439963872, 0.2719520668079, 0
491, 0.86930233171628, 0.24433958982569, 0
492, 0.86962914742997, 0.27246150447735, 0
493, 0.21841046584289, 0.16082314804009, 0
494, 0.19211780272546, 0.1339188459885, 0
495, 0.16428608932664, 0.16164252265719, 0
496, 0.19056414511342, 0.18903589614732, 0
497, 0.19141644291065, 0.16136175509045, 0
498, 0.94666266678232, -0.21690663208703, 0
499, 0.97330235472398, -0.21794243914084, 0
500, 0.053871051776983, -0.21671656237903, 0
501, 0.02696577016116, -0.21786631077245, 0
502, 0.054808807127292, 0.21707348068899, 0
503, 0.02746949069772, 0.21864615232532, 0
504, 0.71435312775181, -0.008445302506107, 0
505, 0.69217955638159, 0.018589908831892, 0
506, 0.77410767219577, -0.0069425940639851, 0
507, 0.74212334848677, -0.032893171510267, 0
508, 0.74429404535307, -0.0079556825395285, 0
509, 0.21615739621325, 0.21668352145373, 0
510, 0.16273591619238, 0.21681588978423, 0
511, 0.18948534775554, 0.21689605523797, 0
512, 0.81900207361923, 0.18742859895224, 0
513, 0.79360865073426, 0.21654029672974, 0
514, 0.84401060784249, 0.21612771918787, 0
515, 0.8187643905953, 0.21636676566483, 0
516, 0.92104532678585, 0.13255194232348, 0
517, 0.89511722036629, 0.15946205912033, 0
518, 0.92097527551088, 0.18820462957223, 0
519, 0.92112303123689, 0.16034206266327, 0
520, 0.21523536353025, -0.13511967252505, 0
521, 0.16196732247749, -0.13409611257739, 0
522, 0.26950275973905, -0.080558093599167, 0
523, 0.27513473395683, -0.05334138845606, 0
524, 0.65644106155716, -0.18861814880581, 0
525, 0.68173219981318, -0.21891518842023, 0
526, 0.62996078672092, -0.21679265341275, 0
527, 0.65563309523379, -0.21719166459221, 0
528, 0.46928060266722, 0.17870346357976, 0
529, 0.37246772595028, 0.21068982210872, 0
530, 0.42029495166491, 0.20710163424956, 0
531, 0.39676258691341, 0.20859110182372, 0
532, 0.45606056311869, 0.11331756161247, 0
533, 0.46699943261704, 0.20970278025258, 0
534, 0.49154602922853, 0.21477632148961, 0
535, 0.18700243563734, -0.21765189733165, 0
536, 0.33178259968435, -0.057100860374506, 0
537, 0.65135802809604, -0.054467487161906, 0
538, 0.6231735531807, -0.051610148595179, 0
539, 0.60356374615056, 0.026999489554789, 0
540, 0.54751949145374, 0.071740052317154, 0
541, 0.57926327625004, 0.052325632340642, 0
542, 0.34929251296943, 0.18395255366727, 0
543, 0.3214603017041, 0.21385133734705, 0
544, 0.34724095281654, 0.21296435018343, 0
545, 0.56899753377259, -0.13917444347077, 0
546, 0.40915982137892, 0.051257724004025, 0
547, 0.37880386155375, 0.0031864799484496, 0
548, 0.39468360025944, 0.025949978820582, 0
549, 0.29428564677462, -0.11023033621091, 0
550, 0.3817023834595, -0.1422441619429, 0
551, 0.39971061537016, -0.10603378517839, 0
552, 0.7150091764607, 0.10184097386605, 0
553, 0.68369841637839, 0.07566564711859, 0
554, 0.70069311994466, 0.045038265469886, 0
555, 0.66758039176421, 0.1091033615682, 0
556, 0.70910524427664, -0.19591910445462, 0
557, 0.7363127483915, -0.22006923969227, 0
558, 0.70890407105993, -0.22163859262984, 0
559, 0.2157231600303, -0.10730612240352, 0
560, 0.23869322085409, -0.27311847173595, 0
561, 0.16041483639322, -0.21709717917407, 0
562, 0.91761710767877, -0.081309670953733, 0
563, 0.91880921182538, -0.13474147588848, 0
564, 0.89090882364172, -0.107429068863, 0
565, 0.91828154832424, -0.10787126945022, 0
566, 0.34460133210843, -0.0093764796002227, 0
567, 0.37437487713608, -0.021446896687575, 0
568, 0.92031014196558, 0.077521528560384, 0
569, 0.91902196687112, 0.023760889659206, 0
570, 0.89229598911555, 0.049344722226639, 0
571, 0.91972271629946, 0.050468041442616, 0
572, 0.35473745310077, 0.1282486860766, 0
573, 0.32520252852466, 0.1565503509585, 0
574, 0.45612175469473, 0.082531441451478, 0
575, 0.35196172889594, 0.15559376772134, 0
576, 0.34757430975786, -0.27254379916007, 0
577, 0.43012467591549, -0.20999314602935, 0
578, 0.2167801090928, -0.079524013429725, 0
579, 0.48608586921685, -0.15758720888775, 0
580, 0.45689970120162, -0.18179875477353, 0
581, 0.43558232940232, -0.14577438138686, 0
582, 0.45923922125093, -0.15280455200097, 0
583, 0.081645918237779, -0.079718275770902, 0
584, 0.1085677450604, -0.10649320206953, 0
585, 0.081357630843604, -0.13424278779232, 0
586, 0.081527390359156, -0.10696090183093, 0
587, 0.081750901127276, 0.081581832183156, 0
588, 0.1095004284015, 0.054587659825671, 0
589, 0.081681403113155, 0.027991700131453, 0
590, 0.081614505156506, 0.054762960490593, 0
591, 0.89423284045651, 0.10369545337848, 0
592, 0.92076178658799, 0.104909884946, 0
593, 0.86639761197094, 0.075219199667403, 0
594, 0.86308026064666, 0.021873970690952, 0
595, 0.83716276115236, 0.047176109759649, 0
596, 0.86475503341683, 0.048267851948174, 0
597, 0.76916651457059, 0.18782262073038, 0
598, 0.74327550350424, 0.21719368638489, 0
599, 0.76847416021764, 0.21677807097601, 0
600, 0.78740415949445, -0.16209529414261, 0
601, 0.81131974798197, -0.13382860278498, 0
602, 0.83949010658704, -0.16146023713472, 0
603, 0.81448250924142, -0.1896732901421, 0
604, 0.81329961373393, -0.16165480374635, 0
605, 0.75458943231787, 0.044105094167598, 0
606, 0.68249206164675, -0.031284022149425, 0
607, 0.68424969021515, -0.0062871621216336, 0
608, 0.78918421608462, -0.21823987898133, 0
609, 0.84138256241538, -0.21712145643718, 0
610, 0.81528693532542, -0.21764755582972, 0
611, 0.51005336969479, -0.18395875193996, 0
612, 0.5145584185999, -0.15702374283832, 0
613, 0.3501728065353, -0.21866858963102, 0
614, 0.16109554229013, -0.18939923183693, 0
615, 0.21146068806118, -0.27302201639132, 0
616, 0.40491493124942, -0.21369490388276, 0
617, 0.32313250844829, -0.16618599716419, 0
618, 0.24720481550206, -0.052713999780601, 0
619, 0.18596078491698, -0.24531957045186, 0
620, 0.26679404209173, -0.24590870434584, 0
621, 0.10964756346461, 0.10805047320078, 0
622, 0.082049384085556, 0.13534219140739, 0
623, 0.081921315463882, 0.10844299613559, 0
624, 0.71935732563114, 0.18960099515272, 0
625, 0.69205128528345, 0.21913957497163, 0
626, 0.71787054873212, 0.21794781614448, 0
627, 0.50502165039967, 0.13307832817733, 0
628, 0.59985533607721, 0.085219778236876, 0
629, 0.40934043938271, 0.081928087933233, 0
630, 0.42303928416428, 0.17459726867206, 0
631, 0.29692646704024, 0.18616660069689, 0
632, 0.26917253562573, 0.21556917710458, 0
633, 0.29543038514824, 0.21475471099634, 0
634, 0.13744868245471, 0.08094100062219, 0
635, 0.16546727487802, 0.053771570125956, 0
636, 0.13777264555259, 0.027791610682678, 0
637, 0.13747434797583, 0.054285594852111, 0
638, 0.86879808945948, 0.13067212488192, 0
639, 0.84155571462108, 0.10187443803426, 0
640, 0.86780694471792, 0.10271958808175, 0
641, 0.24401750010656, 0.18805283483916, 0
642, 0.24273346152875, 0.21623394397189, 0
643, 0.73397804556297, 0.07162732010299, 0
644, 0.64940239784512, 0.053447752936516, 0
645, 0.71068594450287, -0.059203000163581, 0
646, 0.67623087065585, -0.080846103232539, 0
647, 0.68069754756485, -0.056630392094492, 0
648, 0.79361110776716, 0.15839095119939, 0
649, 0.76727714878778, 0.12931479348675, 0
650, 0.74418359055276, 0.15928049508604, 0
651, 0.76881804895241, 0.15860275790862, 0
652, 0.66805784310598, 0.19417481290426, 0
653, 0.66553489660208, 0.22084897294057, 0
654, 0.3779846808405, -0.21769632056538, 0
655, 0.41190376595987, -0.12788477697367, 0
656, 0.76263096811857, -0.19132333548216, 0
657, 0.76293952686933, -0.21902934357819, 0
658, 0.081793577470067, -0.02560031841173, 0
659, 0.10920501254221, -0.052088291396133, 0
660, 0.081782220607236, -0.052579445890374, 0
661, 0.10961091131615, 0.0014378517848835, 0
662, 0.081723078040391, 0.0012327588930264, 0
663, 0.91777412705596, -0.028856437969693, 0
664, 0.89015564685234, -0.0032823219184628, 0
665, 0.91833627717612, -0.0026426166929774, 0
666, 0.88928925166216, -0.055016256876022, 0
667, 0.91748825883916, -0.055033110153443, 0
668, 0.28271989625951, -0.0031455068599524, 0
669, 0.31475815131354, 0.018311953705965, 0
670, 0.3106174871728, -0.029774408127646, 0
671, 0.31365233875174, -0.0055632556148083, 0
672, 0.30023755587932, 0.12972289272401, 0
673, 0.27199287267202, 0.15898702037003, 0
674, 0.29861007267753, 0.15779932412298, 0
675, 0.65307550634837, -0.028272110040814, 0
676, 0.65343891751993, -0.0028160122156173, 0
677, 0.13732025663703, -0.025116994518402, 0
678, 0.29326528173406, -0.27287966845147, 0
679, 0.13596960574604, -0.079005431699859, 0
680, 0.13669024293917, -0.051891092058415, 0
681, 0.73615658755748, -0.1655154359126, 0
682, 0.68238505025808, -0.16353380117, 0
683, 0.70931292050076, -0.17055513687679, 0
684, 0.24644751044296, 0.13220710825532, 0
685, 0.24526890129627, 0.16002214925789, 0
686, 0.86679389193488, -0.18897903834231, 0
687, 0.89379738300185, -0.21645087541655, 0
688, 0.86754355487739, -0.21669609844866, 0
689, 0.37844287212981, 0.15004309791581, 0
690, 0.44350860147315, 0.20765467129147, 0
691, 0.69487451762694, 0.16315877840382, 0
692, 0.66983708518662, 0.13843347343898, 0
693, 0.64341896695068, 0.17193422787695, 0
694, 0.66968848425625, 0.16678340500484, 0
695, 0.13446210854841, -0.18895072471376, 0
696, 0.10727558644506, -0.21626492004243, 0
697, 0.13385420934266, -0.21658683817455, 0
698, 0.71828498213303, 0.13139630138144, 0
699, 0.71960039838229, 0.16072785930888, 0
700, 0.16591242646554, 0.0011140389599863, 0
701, 0.13767228148004, 0.0013931230390756, 0
702, 0.91976491591078, -0.18906552451957, 0
703, 0.92016421086019, -0.21646096089534, 0
704, 0.26836924605161, -0.13682543661674, 0
705, 0.2143438622296, -0.19050665086597, 0
706, 0.83171587205631, -0.055385558327864, 0
707, 0.86082966302512, -0.029627575043066, 0
708, 0.86143164860774, -0.080829505043278, 0
709, 0.86071915020085, -0.055148237848373, 0
710, 0.080951328631543, -0.18884853661545, 0
711, 0.0806305652961, -0.21624065500512, 0
712, 0.8328171901652, -0.004896909709555, 0
713, 0.86164961652713, -0.0040323608393565, 0
714, 0.61020199992435, 0.10415282670331, 0
715, 0.4460702366668, 0.17570085627419, 0
716, 0.75924440457885, -0.13474011672226, 0
717, 0.76179259374887, -0.16318609000143, 0
718, 0.10898911411453, 0.21641123673639, 0
719, 0.082157483967875, 0.1892964285393, 0
720, 0.081968910589878, 0.21645684471706, 0
721, 0.13661667740974, 0.18908643262048, 0
722, 0.13590408529995, 0.21659983630049, 0
723, 0.77200720159893, -0.056376258343566, 0
724, 0.74206424348463, -0.081347681455394, 0
725, 0.74128758451022, -0.057532164332134, 0
726, 0.10806782544074, -0.16127501316808, 0
727, 0.081161035746329, -0.16153301858152, 0
728, 0.52304118499442, 0.17155277940197, 0
729, 0.48221502583233, 0.11742354854633, 0
730, 0.89256033892291, -0.1614918705453, 0
731, 0.91933992138113, -0.16181797207097, 0
732, 0.65158562757675, -0.13216563227642, 0
733, 0.65705441894665, -0.15937720734868, 0
734, 0.80227126675518, -0.030934719279907, 0
735, 0.80363751017295, -0.0058775925299231, 0
736, 0.80359795866046, -0.080567139443239, 0
737, 0.80217766083713, -0.055751368762562, 0
738, 0.22322704232417, -0.0002440129393437, 0
739, 0.25278496326726, 0.023689667534783, 0
740, 0.25082284706411, -0.026725403179908, 0
741, 0.2525994773693, -0.001446426959859, 0
742, 0.89496757543321, 0.21584693508637, 0
743, 0.92075838051961, 0.21609737427966, 0
744, 0.19456837612173, 0.026578826611018, 0
745, 0.19346933466447, -0.025522334058172, 0
746, 0.19439113350583, 0.00058368150722113, 0
747, 0.10962355661063, 0.16192376190775, 0
748, 0.082132770703843, 0.16228102999005, 0
749, 0.38843937464884, -0.078579841052742, 0
750, 0.38150510662373, -0.16596735989151, 0
751, 0.34460996380653, -0.087816428120447, 0
752, 0.4802157385504, -0.21237062371064, 0
753, 0.53162010714183, -0.21023195318886, 0
754, 0.50618701838092, -0.21213381000134, 0
755, 0.24212741928611, -0.10795929209327, 0
756, 0.37611632191117, -0.24476947499457, 0
757, 0.24179054833547, -0.13586475455609, 0
758, 0.86477654775001, -0.13407172277181, 0
759, 0.86592801304958, -0.16139840997223, 0
760, 0.1351983654268, -0.1338461650969, 0
761, 0.13486400344174, -0.16137509604341, 0
762, 0.45470722497743, -0.2111810257408, 0
763, 0.78980126848823, 0.1005172194405, 0
764, 0.64416618417793, 0.11704891040109, 0
765, 0.78201504779555, 0.044980266746041, 0
766, 0.34885346353737, -0.24541567156819, 0
767, 0.13553367026681, -0.10637059902354, 0
768, 0.2201381014418, 0.10580929187368, 0
769, 0.27451797357499, 0.10315436366486, 0
770, 0.24832603099544, 0.077165438560452, 0
771, 0.24743851090626, 0.10459682112438, 0
772, 0.83617516578567, -0.10681640203384, 0
773, 0.86352099806937, -0.10711302946046, 0
774, 0.86950498291915, 0.1873997391287, 0
775, 0.86939988632011, 0.21591746989088, 0
776, 0.58497740972825, 0.18218941077654, 0
777, 0.45056602583709, 0.14382670891486, 0
778, 0.61533646094868, 0.17756032221149, 0
779, 0.514851052602, 0.1017010982611, 0
780, 0.137257483791, 0.13466508155947, 0
781, 0.13701762080785, 0.16177826117679, 0
782, 0.55508045151496, 0.087437479111227, 0
783, 0.56740643984407, 0.10116397239171, 0
784, 0.24149292777719, -0.16353454406671, 0
785, 0.3799425362559, -0.1912940809376, 0
786, 0.35130452843351, -0.19245483102491, 0
787, 0.55237433793728, 0.18375506603, 0
788, 0.84385440925318, 0.15862634132322, 0
789, 0.8693557234764, 0.15894123733336, 0
790, 0.27658704693649, 0.047626363954028, 0
791, 0.30231081255032, 0.073575460593821, 0
792, 0.30353718494186, 0.044942011775675, 0
793, 0.57854068250214, -0.21197756938791, 0
794, 0.60341435154633, -0.21920148123894, 0
795, 0.81747100730141, 0.12961035856811, 0
796, 0.81861277112557, 0.15844346083896, 0
797, 0.40757503718547, -0.18474697237919, 0
798, 0.3755748933545, -0.1198260964327, 0
799, 0.55557717666605, -0.20790268455177, 0
800, 0.32821545322274, 0.10096755909431, 0
801, 0.30136124542145, 0.10177536037872, 0
802, 0.38381763219938, 0.090804073147589, 0
803, 0.69105963552772, 0.10457425834231, 0
804, 0.16507732103303, 0.10732016396682, 0
805, 0.13738868639108, 0.10772582025925, 0
806, 0.58946393189529, 0.068444820666053, 0
807, 0.61959684789856, 0.12629233101431, 0
808, 0.29519497016225, -0.081549332767495, 0
809, 0.16422052152814, -0.051900274889827, 0
810, 0.78192800205556, -0.10612920453699, 0
811, 0.75540024893087, -0.10621496721789, 0
812, 0.80894189499857, -0.10647282085996, 0
813, 0.21944497446855, -0.052321042039159, 0
814, 0.24050357421819, -0.21849845437974, 0
815, 0.22133077133662, 0.051712150129941, 0
816, 0.24909141383405, 0.049956281716976, 0
817, 0.19311145089529, 0.079726709272103, 0
818, 0.19267098418155, 0.10671119451535, 0
819, 0.80635650505002, 0.019711343933386, 0
820, 0.74911813624817, 0.017564615983069, 0
821, 0.77777070812568, 0.018567882948691, 0
822, 0.66332293360485, -0.10611105855005, 0
823, 0.43205976028346, 0.10863844335816, 0
824, 0.35617617398995, 0.10211253533953, 0
825, 0.26831909228376, -0.16431541990092, 0
826, 0.19343368789124, 0.052949484939209, 0
827, 0.72052357701688, 0.017091228368053, 0
828, 0.62245043888179, 0.0021746815855833, 0
829, 0.55687906041697, 0.16337236752197, 0
830, 0.42734235403567, 0.14169824624532, 0
831, 0.34660140847281, -0.11611258371924, 0
832, 0.32024458118123, -0.083358545795449, 0
833, 0.73946156725334, 0.10047225372666, 0
834, 0.35230356088599, 0.051292301527132, 0
835, 0.53657753892193, -0.18007567596821, 0
836, 0.58917215637861, 0.15950679921008, 0
837, 0.59065399321034, -0.14903180170821, 0
838, 0.61294038383011, -0.10055557145692, 0
839, 0.26599548247844, -0.27302171927381, 0
840, 0.1615647878823, -0.16173179828341, 0
841, 0.47413539777693, 0.14751669197423, 0
842, 0.70874731013408, -0.12026213832958, 0
843, 0.51196891930062, 0.082951317626201, 0
844, 0.78619708115061, 0.072323950801464, 0
845, 0.37446203067407, -0.2722489479245, 0
846, 0.36963102111772, -0.095192281254868, 0
847, 0.56537922390056, 0.1422870900149, 0
848, 0.3994760236758, 0.17695282509608, 0
******* E L E M E N T S *************
*ELEMENT, type=CPS4, ELSET=Surface1
1, 100, 93, 330, 328
2, 328, 330, 329, 172
3, 330, 101, 112, 329
4, 93, 8, 101, 330
5, 151, 333, 334, 331
6, 331, 334, 332, 155
7, 334, 26, 29, 332
8, 333, 28, 26, 334
9, 84, 82, 338, 335
10, 335, 338, 336, 247
11, 338, 337, 180, 336
12, 82, 85, 337, 338
13, 179, 341, 342, 339
14, 339, 342, 340, 178
15, 342, 87, 95, 340
16, 341, 94, 87, 342
17, 58, 48, 346, 343
18, 343, 346, 344, 287
19, 346, 345, 271, 344
20, 48, 59, 345, 346
21, 210, 349, 350, 347
22, 347, 350, 348, 203
23, 350, 109, 120, 348
24, 349, 119, 109, 350
25, 57, 47, 353, 351
26, 351, 353, 352, 296
27, 353, 343, 287, 352
28, 47, 58, 343, 353
29, 169, 356, 357, 354
30, 354, 357, 355, 167
31, 357, 103, 114, 355
32, 356, 113, 103, 357
33, 213, 359, 360, 358
34, 358, 360, 349, 210
35, 360, 108, 119, 349
36, 359, 118, 108, 360
37, 145, 362, 363, 361
38, 361, 363, 341, 179
39, 363, 86, 94, 341
40, 362, 7, 86, 363
41, 239, 366, 367, 364
42, 364, 367, 365, 240
43, 367, 69, 77, 365
44, 366, 76, 69, 367
45, 62, 52, 371, 368
46, 368, 371, 369, 266
47, 371, 370, 233, 369
48, 52, 63, 370, 371
49, 156, 374, 375, 372
50, 372, 375, 373, 157
51, 375, 31, 39, 373
52, 374, 38, 31, 375
53, 146, 378, 379, 376
54, 376, 379, 377, 147
55, 379, 11, 19, 377
56, 378, 18, 11, 379
57, 43, 36, 383, 380
58, 380, 383, 381, 161
59, 383, 382, 297, 381
60, 36, 44, 382, 383
61, 63, 53, 386, 370
62, 370, 386, 384, 233
63, 386, 385, 236, 384
64, 53, 64, 385, 386
65, 97, 90, 390, 387
66, 387, 390, 388, 174
67, 390, 389, 173, 388
68, 90, 98, 389, 390
69, 6, 81, 393, 391
70, 391, 393, 392, 154
71, 393, 335, 247, 392
72, 81, 84, 335, 393
73, 158, 396, 397, 394
74, 394, 397, 395, 159
75, 397, 33, 41, 395
76, 396, 40, 33, 397
77, 22, 839, 560, 14
78, 559, 578, 315, 204
79, 561, 614, 695, 697
80, 678, 206, 620, 839
81, 167, 355, 404, 402
82, 402, 404, 403, 198
83, 404, 104, 115, 403
84, 355, 114, 104, 404
85, 1, 10, 406, 111
86, 111, 406, 405, 121
87, 406, 378, 146, 405
88, 10, 18, 378, 406
89, 80, 73, 409, 407
90, 407, 409, 408, 246
91, 409, 391, 154, 408
92, 73, 6, 391, 409
93, 786, 224, 617, 316
94, 798, 846, 751, 831
95, 832, 751, 410, 536
96, 413, 204, 153, 521
97, 116, 415, 416, 105
98, 105, 416, 403, 115
99, 416, 414, 198, 403
100, 415, 199, 414, 416
101, 266, 418, 419, 368
102, 368, 419, 51, 62
103, 419, 417, 61, 51
104, 418, 269, 417, 419
105, 99, 92, 422, 420
106, 420, 422, 421, 171
107, 422, 328, 172, 421
108, 92, 100, 328, 422
109, 297, 382, 424, 423
110, 423, 424, 45, 56
111, 424, 37, 4, 45
112, 382, 44, 37, 424
113, 178, 340, 427, 425
114, 425, 427, 426, 176
115, 427, 88, 96, 426
116, 340, 95, 88, 427
117, 77, 70, 430, 365
118, 365, 430, 428, 240
119, 430, 429, 242, 428
120, 70, 78, 429, 430
121, 139, 128, 551, 655
122, 536, 410, 317, 227
123, 15, 678, 839, 22
124, 757, 755, 559, 520
125, 144, 434, 435, 433
126, 433, 435, 374, 156
127, 435, 30, 38, 374
128, 434, 3, 30, 435
129, 157, 373, 437, 436
130, 436, 437, 396, 158
131, 437, 32, 40, 396
132, 373, 39, 32, 437
133, 78, 71, 440, 429
134, 429, 440, 438, 242
135, 440, 439, 244, 438
136, 71, 79, 439, 440
137, 176, 426, 442, 441
138, 441, 442, 387, 174
139, 442, 89, 97, 387
140, 426, 96, 89, 442
141, 155, 332, 444, 443
142, 443, 444, 434, 144
143, 444, 27, 3, 434
144, 332, 29, 27, 444
145, 79, 72, 446, 439
146, 439, 446, 445, 244
147, 446, 407, 246, 445
148, 72, 80, 407, 446
149, 65, 55, 449, 447
150, 447, 449, 448, 237
151, 449, 66, 74, 448
152, 55, 5, 66, 449
153, 2, 25, 452, 450
154, 450, 452, 451, 143
155, 452, 333, 151, 451
156, 25, 28, 333, 452
157, 248, 455, 456, 453
158, 453, 456, 454, 249
159, 456, 392, 247, 454
160, 455, 154, 392, 456
161, 273, 458, 459, 457
162, 457, 459, 417, 269
163, 459, 50, 61, 417
164, 458, 60, 50, 459
165, 245, 461, 462, 460
166, 460, 462, 455, 248
167, 462, 408, 154, 455
168, 461, 246, 408, 462
169, 117, 107, 465, 463
170, 463, 465, 464, 212
171, 465, 359, 213, 464
172, 107, 118, 359, 465
173, 705, 152, 412, 220
174, 620, 475, 814, 312
175, 578, 225, 618, 813
176, 150, 784, 152, 705
177, 271, 345, 469, 468
178, 468, 469, 458, 273
179, 469, 49, 60, 458
180, 345, 59, 49, 469
181, 116, 106, 471, 415
182, 415, 471, 470, 199
183, 471, 463, 212, 470
184, 106, 117, 463, 471
185, 41, 34, 474, 395
186, 395, 474, 472, 159
187, 474, 473, 160, 472
188, 34, 42, 473, 474
189, 619, 535, 561, 205
190, 654, 785, 786, 613
191, 467, 148, 549, 207
192, 750, 550, 201, 224
193, 180, 337, 479, 478
194, 478, 479, 362, 145
195, 479, 83, 7, 362
196, 337, 85, 83, 479
197, 42, 35, 481, 473
198, 473, 481, 480, 160
199, 481, 380, 161, 480
200, 35, 43, 380, 481
201, 147, 377, 483, 482
202, 149, 223, 756, 845
203, 16, 576, 399, 23
204, 377, 19, 12, 483
205, 64, 54, 485, 385
206, 385, 485, 484, 236
207, 485, 447, 237, 484
208, 54, 65, 447, 485
209, 98, 91, 487, 389
210, 389, 487, 486, 173
211, 487, 420, 171, 486
212, 91, 99, 420, 487
213, 237, 448, 490, 488
214, 488, 490, 489, 238
215, 490, 67, 75, 489
216, 448, 74, 67, 490
217, 238, 489, 492, 491
218, 491, 492, 366, 239
219, 492, 68, 76, 366
220, 489, 75, 68, 492
221, 162, 496, 497, 493
222, 493, 497, 494, 164
223, 497, 495, 165, 494
224, 496, 168, 495, 497
225, 297, 423, 499, 498
226, 498, 499, 351, 296
227, 499, 46, 57, 351
228, 423, 56, 46, 499
229, 120, 110, 501, 348
230, 348, 501, 500, 203
231, 501, 405, 146, 500
232, 110, 121, 405, 501
233, 172, 329, 503, 502
234, 502, 503, 356, 169
235, 503, 102, 113, 356
236, 329, 112, 102, 503
237, 279, 507, 508, 504
238, 595, 259, 819, 264
239, 507, 277, 506, 508
240, 174, 388, 511, 509
241, 509, 511, 496, 162
242, 511, 510, 168, 496
243, 388, 173, 510, 511
244, 234, 514, 515, 512
245, 512, 515, 513, 228
246, 515, 364, 240, 513
247, 514, 239, 364, 515
248, 233, 384, 519, 516
249, 516, 519, 517, 232
250, 519, 518, 235, 517
251, 384, 236, 518, 519
252, 813, 618, 740, 216
253, 315, 578, 813, 398
254, 209, 536, 227, 670
255, 217, 315, 398, 809
256, 285, 526, 527, 524
257, 524, 527, 525, 286
258, 527, 372, 157, 525
259, 526, 156, 372, 527
260, 715, 690, 530, 630
261, 627, 251, 256, 305
262, 531, 361, 179, 529
263, 530, 145, 361, 531
264, 729, 841, 777, 532
265, 319, 572, 824, 802
266, 534, 336, 180, 533
267, 454, 247, 336, 534
268, 316, 617, 314, 221
269, 617, 467, 207, 314
270, 398, 813, 216, 745
271, 225, 522, 523, 618
272, 258, 644, 304, 320
273, 539, 320, 806, 541
274, 538, 309, 281, 537
275, 132, 142, 309, 538
276, 539, 541, 123, 133
277, 541, 540, 134, 123
278, 782, 540, 541, 806
279, 729, 532, 574, 189
280, 542, 544, 543, 177
281, 544, 339, 178, 543
282, 529, 179, 339, 544
283, 545, 283, 306, 837
284, 545, 307, 835, 283
285, 283, 835, 753, 799
286, 835, 611, 754, 753
287, 190, 299, 548, 546
288, 546, 548, 126, 136
289, 548, 547, 137, 126
290, 299, 191, 547, 548
291, 766, 613, 411, 401
292, 218, 221, 477, 475
293, 560, 312, 432, 615
294, 784, 757, 520, 152
295, 265, 763, 844, 324
296, 253, 692, 555, 803
297, 552, 803, 553, 260
298, 286, 525, 558, 556
299, 556, 558, 557, 293
300, 558, 436, 158, 557
301, 525, 157, 436, 558
302, 412, 413, 521, 840
303, 411, 316, 221, 218
304, 520, 559, 204, 413
305, 13, 431, 400, 20
306, 270, 564, 565, 562
307, 562, 565, 344, 271
308, 565, 563, 287, 344
309, 564, 289, 563, 565
310, 227, 317, 567, 566
311, 566, 567, 547, 191
312, 567, 127, 137, 547
313, 317, 138, 127, 567
314, 267, 570, 571, 568
315, 568, 571, 418, 266
316, 571, 569, 269, 418
317, 570, 268, 569, 571
318, 184, 629, 546, 136
319, 572, 575, 573, 185
320, 575, 542, 177, 573
321, 532, 823, 184, 574
322, 220, 412, 840, 614
323, 840, 521, 760, 761
324, 143, 577, 616, 223
325, 432, 313, 535, 619
326, 140, 129, 582, 579
327, 579, 582, 580, 222
328, 582, 581, 219, 580
329, 129, 139, 581, 582
330, 210, 585, 586, 358
331, 358, 586, 583, 213
332, 586, 584, 214, 583
333, 585, 208, 584, 586
334, 199, 589, 590, 414
335, 414, 590, 587, 198
336, 590, 588, 197, 587
337, 589, 200, 588, 590
338, 266, 369, 592, 568
339, 568, 592, 591, 267
340, 592, 516, 232, 591
341, 369, 233, 516, 592
342, 262, 595, 596, 593
343, 593, 596, 570, 267
344, 596, 594, 268, 570
345, 595, 264, 594, 596
346, 240, 428, 599, 513
347, 513, 599, 597, 228
348, 599, 598, 241, 597
349, 428, 242, 598, 599
350, 292, 603, 604, 600
351, 600, 604, 601, 290
352, 604, 602, 288, 601
353, 603, 294, 602, 604
354, 639, 265, 324, 262
355, 607, 606, 279, 504
356, 159, 472, 610, 608
357, 608, 610, 603, 292
358, 610, 609, 294, 603
359, 472, 160, 609, 610
360, 794, 526, 285, 308
361, 611, 612, 579, 222
362, 612, 130, 140, 579
363, 308, 285, 302, 301
364, 831, 751, 832, 148
365, 522, 808, 209, 523
366, 845, 756, 766, 576
367, 839, 620, 312, 560
368, 613, 786, 316, 411
369, 476, 655, 550, 750
370, 814, 150, 705, 313
371, 756, 654, 613, 766
372, 166, 622, 623, 621
373, 621, 623, 587, 197
374, 623, 402, 198, 587
375, 622, 167, 402, 623
376, 242, 438, 626, 598
377, 598, 626, 624, 241
378, 626, 625, 243, 624
379, 438, 244, 625, 626
380, 848, 531, 529, 188
381, 783, 782, 806, 628
382, 836, 776, 787, 829
383, 189, 574, 125, 135
384, 177, 543, 633, 631
385, 631, 633, 632, 175
386, 633, 425, 176, 632
387, 543, 178, 425, 633
388, 200, 636, 637, 588
389, 588, 637, 634, 197
390, 637, 635, 193, 634
391, 636, 196, 635, 637
392, 231, 639, 640, 638
393, 638, 640, 591, 232
394, 640, 593, 267, 591
395, 639, 262, 593, 640
396, 175, 632, 642, 641
397, 641, 642, 509, 162
398, 642, 441, 174, 509
399, 632, 176, 441, 642
400, 325, 833, 643, 257
401, 327, 554, 505, 827
402, 264, 819, 735, 712
403, 281, 646, 647, 537
404, 647, 645, 279, 606
405, 646, 280, 645, 647
406, 228, 597, 651, 648
407, 648, 651, 649, 230
408, 651, 650, 229, 649
409, 597, 241, 650, 651
410, 244, 445, 653, 625
411, 625, 653, 652, 243
412, 653, 461, 245, 652
413, 445, 246, 461, 653
414, 581, 139, 655, 476
415, 400, 205, 482, 483
416, 221, 314, 825, 477
417, 576, 766, 401, 399
418, 159, 608, 657, 394
419, 394, 657, 557, 158
420, 657, 656, 293, 557
421, 608, 292, 656, 657
422, 212, 464, 660, 658
423, 658, 660, 659, 211
424, 660, 583, 214, 659
425, 464, 213, 583, 660
426, 199, 470, 662, 589
427, 589, 662, 661, 200
428, 662, 658, 211, 661
429, 470, 212, 658, 662
430, 269, 569, 665, 457
431, 457, 665, 663, 273
432, 665, 664, 272, 663
433, 569, 268, 664, 665
434, 270, 562, 667, 666
435, 666, 667, 663, 272
436, 667, 468, 273, 663
437, 562, 271, 468, 667
438, 226, 670, 671, 668
439, 668, 671, 669, 192
440, 671, 566, 191, 669
441, 670, 227, 566, 671
442, 185, 573, 674, 672
443, 672, 674, 673, 163
444, 674, 631, 175, 673
445, 573, 177, 631, 674
446, 828, 258, 320, 539
447, 320, 304, 628, 806
448, 211, 659, 680, 677
449, 205, 561, 697, 482
450, 551, 749, 846, 798
451, 659, 214, 679, 680
452, 291, 323, 683, 681
453, 681, 683, 556, 293
454, 683, 682, 286, 556
455, 323, 284, 682, 683
456, 163, 673, 685, 684
457, 684, 685, 493, 164
458, 685, 641, 162, 493
459, 673, 175, 641, 685
460, 160, 480, 688, 609
461, 609, 688, 686, 294
462, 688, 687, 295, 686
463, 480, 161, 687, 688
464, 690, 478, 145, 530
465, 533, 180, 478, 690
466, 243, 652, 694, 691
467, 691, 694, 692, 253
468, 694, 693, 252, 692
469, 652, 245, 693, 694
470, 202, 696, 697, 695
471, 201, 831, 148, 467
472, 401, 411, 218, 206
473, 696, 147, 482, 697
474, 241, 624, 699, 650
475, 650, 699, 698, 229
476, 699, 691, 253, 698
477, 624, 243, 691, 699
478, 215, 700, 701, 677
479, 677, 701, 661, 211
480, 701, 636, 200, 661
481, 700, 196, 636, 701
482, 161, 381, 703, 687
483, 687, 703, 702, 295
484, 703, 498, 296, 702
485, 381, 297, 498, 703
486, 550, 798, 831, 201
487, 704, 466, 755, 757
488, 615, 432, 619, 431
489, 577, 219, 797, 616
490, 274, 708, 709, 706
491, 706, 709, 707, 276
492, 709, 666, 272, 707
493, 708, 270, 666, 709
494, 203, 500, 711, 710
495, 710, 711, 696, 202
496, 711, 376, 147, 696
497, 500, 146, 376, 711
498, 268, 594, 713, 664
499, 664, 713, 707, 272
500, 713, 712, 276, 707
501, 594, 264, 712, 713
502, 823, 318, 629, 184
503, 319, 689, 575, 572
504, 183, 836, 829, 847
505, 292, 600, 717, 656
506, 656, 717, 681, 293
507, 717, 716, 291, 681
508, 600, 290, 716, 717
509, 171, 421, 720, 718
510, 718, 720, 719, 170
511, 720, 502, 169, 719
512, 421, 172, 502, 720
513, 173, 486, 722, 510
514, 510, 722, 721, 168
515, 722, 718, 170, 721
516, 486, 171, 718, 722
517, 279, 645, 725, 507
518, 507, 725, 723, 277
519, 725, 724, 275, 723
520, 645, 280, 724, 725
521, 202, 726, 727, 710
522, 710, 727, 347, 203
523, 727, 585, 210, 347
524, 726, 208, 585, 727
525, 305, 829, 787, 728
526, 252, 693, 778, 303
527, 729, 189, 843, 779
528, 532, 777, 830, 823
529, 287, 563, 731, 352
530, 352, 731, 702, 296
531, 731, 730, 295, 702
532, 563, 289, 730, 731
533, 284, 732, 733, 682
534, 682, 733, 524, 286
535, 733, 302, 285, 524
536, 732, 282, 302, 733
537, 555, 764, 254, 326
538, 231, 795, 265, 639
539, 735, 734, 276, 712
540, 506, 277, 734, 735
541, 277, 723, 737, 734
542, 734, 737, 706, 276
543, 737, 736, 274, 706
544, 723, 275, 736, 737
545, 216, 740, 741, 738
546, 738, 741, 739, 195
547, 741, 668, 192, 739
548, 740, 226, 668, 741
549, 236, 484, 743, 518
550, 518, 743, 742, 235
551, 743, 488, 238, 742
552, 484, 237, 488, 743
553, 196, 700, 746, 744
554, 744, 746, 738, 195
555, 746, 745, 216, 738
556, 700, 215, 745, 746
557, 167, 622, 748, 354
558, 354, 748, 719, 169
559, 748, 747, 170, 719
560, 622, 166, 747, 748
561, 20, 400, 483, 12
562, 825, 704, 757, 784
563, 809, 398, 745, 215
564, 24, 845, 576, 16
565, 151, 331, 754, 752
566, 752, 754, 611, 222
567, 331, 155, 753, 754
568, 618, 523, 226, 740
569, 797, 476, 750, 785
570, 679, 217, 809, 680
571, 204, 315, 217, 153
572, 294, 686, 759, 602
573, 602, 759, 758, 288
574, 759, 730, 289, 758
575, 686, 295, 730, 759
576, 208, 726, 761, 760
577, 410, 749, 138, 317
578, 223, 616, 654, 756
579, 726, 202, 695, 761
580, 151, 752, 762, 451
581, 451, 762, 577, 143
582, 762, 580, 219, 577
583, 752, 222, 580, 762
584, 828, 122, 9, 278
585, 262, 324, 259, 595
586, 466, 522, 225, 755
587, 760, 767, 584, 208
588, 767, 679, 214, 584
589, 312, 814, 313, 432
590, 194, 770, 771, 768
591, 768, 771, 684, 164
592, 771, 769, 163, 684
593, 770, 186, 769, 771
594, 270, 708, 773, 564
595, 564, 773, 758, 289
596, 773, 772, 288, 758
597, 708, 274, 772, 773
598, 235, 742, 775, 774
599, 774, 775, 514, 234
600, 775, 491, 239, 514
601, 742, 238, 491, 775
602, 574, 184, 136, 125
603, 776, 778, 460, 248
604, 778, 693, 245, 460
605, 256, 847, 829, 305
606, 807, 303, 836, 183
607, 729, 627, 182, 841
608, 528, 250, 534, 533
609, 181, 848, 188, 689
610, 168, 721, 781, 495
611, 495, 781, 780, 165
612, 781, 747, 166, 780
613, 721, 170, 747, 781
614, 823, 830, 181, 318
615, 255, 714, 807, 183
616, 303, 778, 776, 836
617, 763, 325, 257, 844
618, 765, 605, 820, 821
619, 17, 149, 845, 24
620, 785, 750, 224, 786
621, 249, 728, 787, 453
622, 453, 787, 776, 248
623, 783, 628, 714, 255
624, 234, 788, 789, 774
625, 774, 789, 517, 235
626, 789, 638, 232, 517
627, 788, 231, 638, 789
628, 192, 669, 792, 790
629, 790, 792, 791, 186
630, 792, 300, 187, 791
631, 669, 191, 300, 792
632, 545, 837, 282, 311
633, 526, 794, 433, 156
634, 794, 793, 144, 433
635, 837, 301, 302, 282
636, 231, 788, 796, 795
637, 795, 796, 648, 230
638, 796, 512, 228, 648
639, 788, 234, 512, 796
640, 399, 401, 206, 678
641, 475, 477, 150, 814
642, 535, 220, 614, 561
643, 219, 581, 476, 797
644, 843, 124, 134, 540
645, 251, 783, 255, 256
646, 841, 528, 715, 777
647, 144, 793, 799, 443
648, 443, 799, 753, 155
649, 283, 799, 793, 306
650, 186, 791, 801, 769
651, 769, 801, 672, 163
652, 801, 800, 185, 672
653, 791, 187, 800, 801
654, 830, 630, 848, 181
655, 779, 782, 783, 251
656, 777, 715, 630, 830
657, 803, 555, 326, 553
658, 553, 326, 644, 261
659, 698, 253, 803, 552
660, 197, 634, 805, 621
661, 621, 805, 780, 166
662, 805, 804, 165, 780
663, 634, 193, 804, 805
664, 528, 533, 690, 715
665, 628, 304, 254, 714
666, 764, 252, 303, 807
667, 313, 705, 220, 535
668, 224, 201, 467, 617
669, 314, 207, 704, 825
670, 751, 846, 749, 410
671, 275, 724, 811, 810
672, 810, 811, 716, 290
673, 811, 322, 291, 716
674, 724, 280, 322, 811
675, 274, 736, 812, 772
676, 772, 812, 601, 288
677, 812, 810, 290, 601
678, 736, 275, 810, 812
679, 14, 560, 615, 21
680, 431, 619, 205, 400
681, 477, 825, 784, 150
682, 186, 770, 816, 790
683, 790, 816, 739, 192
684, 816, 815, 195, 739
685, 770, 194, 815, 816
686, 164, 494, 818, 768
687, 768, 818, 817, 194
688, 818, 804, 193, 817
689, 494, 165, 804, 818
690, 819, 821, 506, 735
691, 795, 230, 763, 265
692, 643, 260, 554, 327
693, 827, 505, 607, 504
694, 257, 643, 327, 605
695, 820, 827, 504, 508
696, 675, 606, 607, 676
697, 284, 321, 822, 732
698, 732, 822, 310, 282
699, 822, 646, 281, 310
700, 321, 280, 646, 822
701, 187, 298, 824, 800
702, 800, 824, 572, 185
703, 318, 319, 802, 629
704, 680, 809, 215, 677
705, 21, 615, 431, 13
706, 808, 832, 536, 209
707, 616, 797, 785, 654
708, 196, 744, 826, 635
709, 635, 826, 817, 193
710, 826, 815, 194, 817
711, 744, 195, 815, 826
712, 324, 844, 765, 259
713, 229, 698, 552, 833
714, 258, 263, 261, 644
715, 554, 261, 263, 505
716, 607, 505, 263, 676
717, 844, 257, 605, 765
718, 256, 255, 183, 847
719, 318, 181, 689, 319
720, 278, 9, 132, 538
721, 675, 537, 647, 606
722, 692, 252, 764, 555
723, 326, 254, 304, 644
724, 182, 728, 249, 250
725, 779, 843, 540, 782
726, 802, 824, 298, 190
727, 841, 182, 250, 528
728, 521, 153, 767, 760
729, 523, 209, 670, 226
730, 755, 225, 578, 559
731, 206, 218, 475, 620
732, 833, 552, 260, 643
733, 230, 649, 325, 763
734, 821, 820, 508, 506
735, 128, 138, 749, 551
736, 207, 549, 466, 704
737, 152, 520, 413, 412
738, 23, 399, 678, 15
739, 187, 300, 834, 298
740, 298, 834, 299, 190
741, 300, 191, 299, 834
742, 545, 131, 141, 307
743, 307, 612, 611, 835
744, 837, 306, 308, 301
745, 828, 278, 675, 676
746, 250, 249, 454, 534
747, 630, 530, 531, 848
748, 307, 141, 130, 612
749, 306, 793, 794, 308
750, 545, 311, 142, 131
751, 142, 311, 838, 309
752, 309, 838, 310, 281
753, 311, 282, 310, 838
754, 614, 840, 761, 695
755, 549, 808, 522, 466
756, 655, 551, 798, 550
757, 148, 832, 808, 549
758, 153, 217, 679, 767
759, 627, 305, 728, 182
760, 188, 529, 544, 542
761, 629, 802, 190, 546
762, 278, 538, 537, 675
763, 828, 539, 133, 122
764, 284, 323, 842, 321
765, 321, 842, 322, 280
766, 323, 291, 322, 842
767, 714, 254, 764, 807
768, 689, 188, 542, 575
769, 260, 553, 261, 554
770, 605, 327, 827, 820
771, 649, 229, 833, 325
772, 828, 676, 263, 258
773, 259, 765, 821, 819
774, 450, 143, 223, 149
775, 2, 450, 149, 17
776, 729, 779, 251, 627
777, 189, 135, 124, 843
*ELSET,ELSET=contact_source
99, 100, 101, 102, 103, 104, 105, 106, 107, 108, 
109, 110, 111, 112, 113, 114, 115, 116, 117, 118, 
119, 120, 
*ELSET,ELSET=contact_drain
39, 40, 41, 42, 43, 44, 45, 46, 47, 48, 
49, 50, 51, 52, 53, 54, 55, 56, 57, 58, 
59, 60, 
*ELSET,ELSET=probe_A
77, 78, 79, 80, 81, 82, 
*ELSET,ELSET=probe_B
17, 18, 19, 20, 21, 22, 
*ELSET,ELSET=walls
1, 2, 3, 4, 5, 6, 7, 8, 9, 10, 
11, 12, 13, 14, 15, 16, 23, 24, 25, 26, 
27, 28, 29, 30, 31, 32, 33, 34, 35, 36, 
37, 38, 61, 62, 63, 64, 65, 66, 67, 68, 
69, 70, 71, 72, 73, 74, 75, 76, 83, 84, 
85, 86, 87, 88, 89, 90, 91, 92, 93, 94, 
95, 96, 97, 98, 121, 122, 123, 124, 125, 126, 
127, 128, 129, 130, 131, 132, 133, 134, 135, 136, 
137, 138, 139, 140, 141, 142, 
*ELSET,ELSET=domain
143, 144, 145, 146, 147, 148, 149, 150, 151, 152, 
153, 154, 155, 156, 157, 158, 159, 160, 161, 162, 
163, 164, 165, 166, 167, 168, 169, 170, 171, 172, 
173, 174, 175, 176, 177, 178, 179, 180, 181, 182, 
183, 184, 185, 186, 187, 188, 189, 190, 191, 192, 
193, 194, 195, 196, 197, 198, 199, 200, 201, 202, 
203, 204, 205, 206, 207, 208, 209, 210, 211, 212, 
213, 214, 215, 216, 217, 218, 219, 220, 221, 222, 
223, 224, 225, 226, 227, 228, 229, 230, 231, 232, 
233, 234, 235, 236, 237, 238, 239, 240, 241, 242, 
243, 244, 245, 246, 247, 248, 249, 250, 251, 252, 
253, 254, 255, 256, 257, 258, 259, 260, 261, 262, 
263, 264, 265, 266, 267, 268, 269, 270, 271, 272, 
273, 274, 275, 276, 277, 278, 279, 280, 281, 282, 
283, 284, 285, 286, 287, 288, 289, 290, 291, 292, 
293, 294, 295, 296, 297, 298, 299, 300, 301, 302, 
303, 304, 305, 306, 307, 308, 309, 310, 311, 312, 
313, 314, 315, 316, 317, 318, 319, 320, 321, 322, 
323, 324, 325, 326, 327, 328, 329, 330, 331, 332, 
333, 334, 335, 336, 337, 338, 339, 340, 341, 342, 
343, 344, 345, 346, 347, 348, 349, 350, 351, 352, 
353, 354, 355, 356, 357, 358, 359, 360, 361, 362, 
363, 364, 365, 366, 367, 368, 369, 370, 371, 372, 
373, 374, 375, 376, 377, 378, 379, 380, 381, 382, 
383, 384, 385, 386, 387, 388, 389, 390, 391, 392, 
393, 394, 395, 396, 397, 398, 399, 400, 401, 402, 
403, 404, 405, 406, 407, 408, 409, 410, 411, 412, 
413, 414, 415, 416, 417, 418, 419, 420, 421, 422, 
423, 424, 425, 426, 427, 428, 429, 430, 431, 432, 
433, 434, 435, 436, 437, 438, 439, 440, 441, 442, 
443, 444, 445, 446, 447, 448, 449, 450, 451, 452, 
453, 454, 455, 456, 457, 458, 459, 460, 461, 462, 
463, 464, 465, 466, 467, 468, 469, 470, 471, 472, 
473, 474, 475, 476, 477, 478, 479, 480, 481, 482, 
483, 484, 485, 486, 487, 488, 489, 490, 491, 492, 
493, 494, 495, 496, 497, 498, 499, 500, 501, 502, 
503, 504, 505, 506, 507, 508, 509, 510, 511, 512, 
513, 514, 515, 516, 517, 518, 519, 520, 521, 522, 
523, 524, 525, 526, 527, 528, 529, 530, 531, 532, 
533, 534, 535, 536, 537, 538, 539, 540, 541, 542, 
543, 544, 545, 546, 547, 548, 549, 550, 551, 552, 
553, 554, 555, 556, 557, 558, 559, 560, 561, 562, 
563, 564, 565, 566, 567, 568, 569, 570, 571, 572, 
573, 574, 575, 576, 577, 578, 579, 580, 581, 582, 
583, 584, 585, 586, 587, 588, 589, 590, 591, 592, 
593, 594, 595, 596, 597, 598, 599, 600, 601, 602, 
603, 604, 605, 606, 607, 608, 609, 610, 611, 612, 
613, 614, 615, 616, 617, 618, 619, 620, 621, 622, 
623, 624, 625, 626, 627, 628, 629, 630, 631, 632, 
633, 634, 635, 636, 637, 638, 639, 640, 641, 642, 
643, 644, 645, 646, 647, 648, 649, 650, 651, 652, 
653, 654, 655, 656, 657, 658, 659, 660, 661, 662, 
663, 664, 665, 666, 667, 668, 669, 670, 671, 672, 
673, 674, 675, 676, 677, 678, 679, 680, 681, 682, 
683, 684, 685, 686, 687, 688, 689, 690, 691, 692, 
693, 694, 695, 696, 697, 698, 699, 700, 701, 702, 
703, 704, 705, 706, 707, 708, 709, 710, 711, 712, 
713, 714, 715, 716, 717, 718, 719, 720, 721, 722, 
723, 724, 725, 726, 727, 728, 729, 730, 731, 732, 
733, 734, 735, 736, 737, 738, 739, 740, 741, 742, 
743, 744, 745, 746, 747, 748, 749, 750, 751, 752, 
753, 754, 755, 756, 757, 758, 759, 760, 761, 762, 
763, 764, 765, 766, 767, 768, 769, 770, 771, 772, 
773, 774, 775, 776, 777, 778, 779, 780, 781, 782, 
783, 784, 785, 786, 787, 788, 789, 790, 791, 792, 
793, 794, 795, 796, 797, 798, 799, 800, 801, 802, 
803, 804, 805, 806, 807, 808, 809, 810, 811, 812, 
813, 814, 815, 816, 817, 818, 819, 820, 821, 822, 
823, 824, 825, 826, 827, 828, 829, 830, 831, 832, 
833, 834, 835, 836, 837, 838, 839, 840, 841, 842, 
843, 844, 845, 846, 847, 848, 849, 850, 851, 852, 
853, 854, 855, 856, 857, 858, 859, 860, 861, 862, 
863, 864, 865, 866, 867, 868, 869, 870, 871, 872, 
873, 874, 875, 876, 877, 878, 879, 880, 881, 882, 
883, 884, 885, 886, 887, 888, 889, 890, 891, 892, 
893, 894, 895, 896, 897, 898, 899, 900, 901, 902, 
903, 904, 905, 906, 907, 908, 909, 910, 911, 912, 
913, 914, 915, 916, 917, 918, 919, 
*NSET,NSET=contact_source
1, 8, 101, 102, 103, 104, 105, 106, 107, 108, 
109, 110, 111, 112, 113, 114, 115, 116, 117, 118, 
119, 120, 121, 
*NSET,NSET=contact_drain
4, 5, 45, 46, 47, 48, 49, 50, 51, 52, 
53, 54, 55, 56, 57, 58, 59, 60, 61, 62, 
63, 64, 65, 
*NSET,NSET=probe_A
6, 7, 81, 82, 83, 84, 85, 
*NSET,NSET=probe_B
2, 3, 25, 26, 27, 28, 29, 
*NSET,NSET=walls
1, 2, 3, 4, 5, 6, 7, 8, 9, 10, 
11, 12, 13, 14, 15, 16, 17, 18, 19, 20, 
21, 22, 23, 24, 30, 31, 32, 33, 34, 35, 
36, 37, 38, 39, 40, 41, 42, 43, 44, 66, 
67, 68, 69, 70, 71, 72, 73, 74, 75, 76, 
77, 78, 79, 80, 86, 87, 88, 89, 90, 91, 
92, 93, 94, 95, 96, 97, 98, 99, 100, 122, 
123, 124, 125, 126, 127, 128, 129, 130, 131, 132, 
133, 134, 135, 136, 137, 138, 139, 140, 141, 142, 
*NSET,NSET=domain
1, 2, 3, 4, 5, 6, 7, 8, 9, 10, 
11, 12, 13, 14, 15, 16, 17, 18, 19, 20, 
21, 22, 23, 24, 25, 26, 27, 28, 29, 30, 
31, 32, 33, 34, 35, 36, 37, 38, 39, 40, 
41, 42, 43, 44, 45, 46, 47, 48, 49, 50, 
51, 52, 53, 54, 55, 56, 57, 58, 59, 60, 
61, 62, 63, 64, 65, 66, 67, 68, 69, 70, 
71, 72, 73, 74, 75, 76, 77, 78, 79, 80, 
81, 82, 83, 84, 85, 86, 87, 88, 89, 90, 
91, 92, 93, 94, 95, 96, 97, 98, 99, 100, 
101, 102, 103, 104, 105, 106, 107, 108, 109, 110, 
111, 112, 113, 114, 115, 116, 117, 118, 119, 120, 
121, 122, 123, 124, 125, 126, 127, 128, 129, 130, 
131, 132, 133, 134, 135, 136, 137, 138, 139, 140, 
141, 142, 143, 144, 145, 146, 147, 148, 149, 150, 
151, 152, 153, 154, 155, 156, 157, 158, 159, 160, 
161, 162, 163, 164, 165, 166, 167, 168, 169, 170, 
171, 172, 173, 174, 175, 176, 177, 178, 179, 180, 
181, 182, 183, 184, 185, 186, 187, 188, 189, 190, 
191, 192, 193, 194, 195, 196, 197, 198, 199, 200, 
201, 202, 203, 204, 205, 206, 207, 208, 209, 210, 
211, 212, 213, 214, 215, 216, 217, 218, 219, 220, 
221, 222, 223, 224, 225, 226, 227, 228, 229, 230, 
231, 232, 233, 234, 235, 236, 237, 238, 239, 240, 
241, 242, 243, 244, 245, 246, 247, 248, 249, 250, 
251, 252, 253, 254, 255, 256, 257, 258, 259, 260, 
261, 262, 263, 264, 265, 266, 267, 268, 269, 270, 
271, 272, 273, 274, 275, 276, 277, 278, 279, 280, 
281, 282, 283, 284, 285, 286, 287, 288, 289, 290, 
291, 292, 293, 294, 295, 296, 297, 298, 299, 300, 
301, 302, 303, 304, 305, 306, 307, 308, 309, 310, 
311, 312, 313, 314, 315, 316, 317, 318, 319, 320, 
321, 322, 323, 324, 325, 326, 327, 328, 329, 330, 
331, 332, 333, 334, 335, 336, 337, 338, 339, 340, 
341, 342, 343, 344, 345, 346, 347, 348, 349, 350, 
351, 352, 353, 354, 355, 356, 357, 358, 359, 360, 
361, 362, 363, 364, 365, 366, 367, 368, 369, 370, 
371, 372, 373, 374, 375, 376, 377, 378, 379, 380, 
381, 382, 383, 384, 385, 386, 387, 388, 389, 390, 
391, 392, 393, 394, 395, 396, 397, 398, 399, 400, 
401, 402, 403, 404, 405, 406, 407, 408, 409, 410, 
411, 412, 413, 414, 415, 416, 417, 418, 419, 420, 
421, 422, 423, 424, 425, 426, 427, 428, 429, 430, 
431, 432, 433, 434, 435, 436, 437, 438, 439, 440, 
441, 442, 443, 444, 445, 446, 447, 448, 449, 450, 
451, 452, 453, 454, 455, 456, 457, 458, 459, 460, 
461, 462, 463, 464, 465, 466, 467, 468, 469, 470, 
471, 472, 473, 474, 475, 476, 477, 478, 479, 480, 
481, 482, 483, 484, 485, 486, 487, 488, 489, 490, 
491, 492, 493, 494, 495, 496, 497, 498, 499, 500, 
501, 502, 503, 504, 505, 506, 507, 508, 509, 510, 
511, 512, 513, 514, 515, 516, 517, 518, 519, 520, 
521, 522, 523, 524, 525, 526, 527, 528, 529, 530, 
531, 532, 533, 534, 535, 536, 537, 538, 539, 540, 
541, 542, 543, 544, 545, 546, 547, 548, 549, 550, 
551, 552, 553, 554, 555, 556, 557, 558, 559, 560, 
561, 562, 563, 564, 565, 566, 567, 568, 569, 570, 
571, 572, 573, 574, 575, 576, 577, 578, 579, 580, 
581, 582, 583, 584, 585, 586, 587, 588, 589, 590, 
591, 592, 593, 594, 595, 596, 597, 598, 599, 600, 
601, 602, 603, 604, 605, 606, 607, 608, 609, 610, 
611, 612, 613, 614, 615, 616, 617, 618, 619, 620, 
621, 622, 623, 624, 625, 626, 627, 628, 629, 630, 
631, 632, 633, 634, 635, 636, 637, 638, 639, 640, 
641, 642, 643, 644, 645, 646, 647, 648, 649, 650, 
651, 652, 653, 654, 655, 656, 657, 658, 659, 660, 
661, 662, 663, 664, 665, 666, 667, 668, 669, 670, 
671, 672, 673, 674, 675, 676, 677, 678, 679, 680, 
681, 682, 683, 684, 685, 686, 687, 688, 689, 690, 
691, 692, 693, 694, 695, 696, 697, 698, 699, 700, 
701, 702, 703, 704, 705, 706, 707, 708, 709, 710, 
711, 712, 713, 714, 715, 716, 717, 718, 719, 720, 
721, 722, 723, 724, 725, 726, 727, 728, 729, 730, 
731, 732, 733, 734, 735, 736, 737, 738, 739, 740, 
741, 742, 743, 744, 745, 746, 747, 748, 749, 750, 
751, 752, 753, 754, 755, 756, 757, 758, 759, 760, 
761, 762, 763, 764, 765, 766, 767, 768, 769, 770, 
771, 772, 773, 774, 775, 776, 777, 778, 779, 780, 
781, 782, 783, 784, 785, 786, 787, 788, 789, 790, 
791, 792, 793, 794, 795, 796, 797, 798, 799, 800, 
801, 802, 803, 804, 805, 806, 807, 808, 809, 810, 
811, 812, 813, 814, 815, 816, 817, 818, 819, 820, 
821, 822, 823, 824, 825, 826, 827, 828, 829, 830, 
831, 832, 833, 834, 835, 836, 837, 838, 839, 840, 
841, 842, 843, 844, 845, 846, 847, 848, 
