*Heading
 /Users/juliagao/geometry-optimization-net/scripts/../runs/2d/shape_43.inp
*NODE
1, 0, -0.3, 0
2, 0.425, -0.3, 0
3, 0.575, -0.3, 0
4, 1, -0.3, 0
5, 1, 0.3, 0
6, 0.575, 0.3, 0
7, 0.425, 0.3, 0
8, 0, 0.3, 0
9, 0.5973272588, -0.1494679579, 0
10, 0.025936256569854, -0.3, 0
11, 0.078234026167911, -0.3, 0
12, 0.1313975969593, -0.3, 0
13, 0.18507800840291, -0.3, 0
14, 0.23889373615095, -0.3, 0
15, 0.29271415856821, -0.3, 0
16, 0.34613269440951, -0.3, 0
17, 0.39883409095058, -0.3, 0
18, 0.051872513139708, -0.3, 0
19, 0.10459553919611, -0.3, 0
20, 0.15819965472249, -0.3, 0
21, 0.21195636208333, -0.3, 0
22, 0.26583111021856, -0.3, 0
23, 0.31959720691786, -0.3, 0
24, 0.37266818190116, -0.3, 0
25, 0.45044284785919, -0.3, 0
26, 0.50029518427411, -0.3, 0
27, 0.54985233641492, -0.3, 0
28, 0.47588569571837, -0.3, 0
29, 0.52470467282984, -0.3, 0
30, 0.6009283157313, -0.3, 0
31, 0.65313978459447, -0.3, 0
32, 0.70627589270039, -0.3, 0
33, 0.76081283251612, -0.3, 0
34, 0.81638167308748, -0.3, 0
35, 0.87089262668547, -0.3, 0
36, 0.92311162749593, -0.3, 0
37, 0.97435226521905, -0.3, 0
38, 0.62685663146261, -0.3, 0
39, 0.67942293772634, -0.3, 0
40, 0.73312884767444, -0.3, 0
41, 0.78849681735781, -0.3, 0
42, 0.84426652881716, -0.3, 0
43, 0.89751872455378, -0.3, 0
44, 0.94870453043809, -0.3, 0
45, 1, -0.27361987992257, 0
46, 1, -0.21981095672291, 0
47, 1, -0.16445551692781, 0
48, 1, -0.10943800485884, 0
49, 1, -0.055298433512822, 0
50, 1, -0.00049075291814699, 0
51, 1, 0.054974384441406, 0
52, 1, 0.11037193933412, 0
53, 1, 0.16612977997304, 0
54, 1, 0.22131291029884, 0
55, 1, 0.27421480108182, 0
56, 1, -0.24723975984513, 0
57, 1, -0.19238215360069, 0
58, 1, -0.13652888025493, 0
59, 1, -0.082347129462761, 0
60, 1, -0.028249737562883, 0
61, 1, 0.027268231726589, 0
62, 1, 0.082680537156222, 0
63, 1, 0.13806334151202, 0
64, 1, 0.19419621843405, 0
65, 1, 0.24842960216364, 0
66, 0.97457034112357, 0.3, 0
67, 0.92292787816935, 0.3, 0
68, 0.86960497045145, 0.3, 0
69, 0.81482254613845, 0.3, 0
70, 0.75911476576816, 0.3, 0
71, 0.70391110925159, 0.3, 0
72, 0.65079534882147, 0.3, 0
73, 0.59992389260526, 0.3, 0
74, 0.94914068224713, 0.3, 0
75, 0.89671507409157, 0.3, 0
76, 0.84249486681133, 0.3, 0
77, 0.78715022546558, 0.3, 0
78, 0.73107930607075, 0.3, 0
79, 0.67674291243243, 0.3, 0
80, 0.62484778521052, 0.3, 0
81, 0.55646349142329, 0.3, 0
82, 0.51951934166173, 0.3, 0
83, 0.48241180261962, 0.3, 0
84, 0.44435595238118, 0.3, 0
85, 0.53792698284658, 0.3, 0
86, 0.50111170047688, 0.3, 0
87, 0.46371190476236, 0.3, 0
88, 0.39886369219965, 0.3, 0
89, 0.34592977813765, 0.3, 0
90, 0.29210586247636, 0.3, 0
91, 0.23805034497533, 0.3, 0
92, 0.18431685208888, 0.3, 0
93, 0.13104965703351, 0.3, 0
94, 0.078155986777115, 0.3, 0
95, 0.025912613395518, 0.3, 0
96, 0.37272738439929, 0.3, 0
97, 0.319132171876, 0.3, 0
98, 0.26507955307673, 0.3, 0
99, 0.21102113687394, 0.3, 0
100, 0.15761256730382, 0.3, 0
101, 0.10448674676319, 0.3, 0
102, 0.051825226791036, 0.3, 0
103, 0, 0.27395293085715, 0
104, 0, 0.2211932829197, 0
105, 0, 0.16705278406105, 0
106, 0, 0.11171015235956, 0
107, 0, 0.056030391791473, 0
108, 0, 0.00047273125598363, 0
109, 0, -0.055196770454833, 0
110, 0, -0.1107489661394, 0
111, 0, -0.16588118750027, 0
112, 0, -0.22034878485203, 0
113, 0, -0.27367973321076, 0
114, 0, 0.24790586171431, 0
115, 0, 0.1944807041251, 0
116, 0, 0.13962486399701, 0
117, 0, 0.083795440722119, 0
118, 0, 0.028265342860827, 0
119, 0, -0.02731988034886, 0
120, 0, -0.083073660560806, 0
121, 0, -0.138424271718, 0
122, 0, -0.19333810328254, 0
123, 0, -0.24735946642152, 0
124, 0.59396041426164, -0.12409009781814, 0
125, 0.56834458312635, -0.080174284130732, 0
126, 0.52452551016508, -0.055281469860096, 0
127, 0.47440246917456, -0.055567150396728, 0
128, 0.42987024389271, -0.08198157041079, 0
129, 0.40478720425063, -0.12929077425396, 0
130, 0.40827588980005, -0.18201458317526, 0
131, 0.43684903645996, -0.22352571313702, 0
132, 0.48027417267863, -0.24477528706345, 0
133, 0.52776966289282, -0.24274947283687, 0
134, 0.56912565579525, -0.21798247461636, 0
135, 0.59397351175325, -0.17479727520966, 0
136, 0.58409281860091, -0.10046802883568, 0
137, 0.54783559655324, -0.064707407048543, 0
138, 0.49957857188402, -0.052141611591411, 0
139, 0.45097087080903, -0.065392160737085, 0
140, 0.41410338567819, -0.10370370505303, 0
141, 0.40292402519978, -0.15645726235032, 0
142, 0.42022988009324, -0.20522926314416, 0
143, 0.45754125718622, -0.23704563969759, 0
144, 0.50420766908002, -0.24670422073225, 0
145, 0.54965828757317, -0.23317369058373, 0
146, 0.58414339998432, -0.19838097703864, 0
147, 0.41264417930241, 0.24726376733979, 0
148, 0.58634892380705, 0.24715040209484, 0
149, 0.051984290649195, -0.24633376571765, 0
150, 0.15669572389297, -0.24606010009176, 0
151, 0.1042219963165, -0.24597712368833, 0
152, 0.26100881655811, -0.24850845691601, 0
153, 0.2091071158348, -0.24674242257883, 0
154, 0.35575134150486, -0.23580117342153, 0
155, 0.31164367501692, -0.25226636070591, 0
156, 0.94452557894187, -0.080027759997207, 0
157, 0.64655815642577, -0.14289364225105, 0
158, 0.6612203187591, -0.25421337137317, 0
159, 0.42525490010526, -0.23036255697277, 0
160, 0.94461667088806, -0.13546357954724, 0
161, 0.72267333558253, -0.24828459920809, 0
162, 0.78121349126369, -0.24605153933494, 0
163, 0.83806472827138, -0.24530285505225, 0
164, 0.94545251622297, -0.19091798052337, 0
165, 0.8931774188353, -0.24530729259995, 0
166, 0.94689200998818, -0.24582883281688, 0
167, 0.25783634731311, 0.19383771005565, 0
168, 0.25534260797842, 0.14072815503069, 0
169, 0.2048270538898, 0.13991479414559, 0
170, 0.15386748534969, 0.13928795416032, 0
171, 0.10266290851988, 0.13894924828431, 0
172, 0.05135001347906, 0.13899081951778, 0
173, 0.15499307455276, 0.19309550471565, 0
174, 0.10331289124395, 0.19301787532173, 0
175, 0.051637579964751, 0.19334693742923, 0
176, 0.051891605304303, 0.2469517878701, 0
177, 0.10400642276185, 0.24664853917026, 0
178, 0.1563256102379, 0.24662557193527, 0
179, 0.20656333276931, 0.19340959597461, 0
180, 0.20874634038567, 0.24674588005677, 0
181, 0.26113184327722, 0.24692731675875, 0
182, 0.31309896941136, 0.24710253880205, 0
183, 0.35828556225046, 0.19453225218083, 0
184, 0.36400218231214, 0.24722046396619, 0
185, 0.45745825895858, 0.24725708997, 0
186, 0.40668248153635, 0.19464139286825, 0
187, 0.45347768256113, 0.19463519589147, 0
188, 0.45062840281309, 0.14221741681402, 0
189, 0.40269493705606, 0.14225221430123, 0
190, 0.30853069467606, 0.19425182258914, 0
191, 0.3542780228393, 0.14209296049747, 0
192, 0.30519702736494, 0.14154296006902, 0
193, 0.30294840284237, 0.089105921156488, 0
194, 0.3511630214199, 0.090216271643216, 0
195, 0.4479540323488, 0.089996411876856, 0
196, 0.39916566182328, 0.090215332116983, 0
197, 0.44475705441129, 0.037471468504645, 0
198, 0.49574275794822, -0.010366967558713, 0
199, 0.39432171694681, 0.038594919737083, 0
200, 0.30215833264961, 0.037003397654174, 0
201, 0.34869831482437, 0.039927003598128, 0
202, 0.20372413268685, 0.08614718508295, 0
203, 0.15312176232333, 0.085113426796899, 0
204, 0.25376942928197, 0.087541305509165, 0
205, 0.25338093691146, 0.033984332319219, 0
206, 0.20340626812599, 0.031866446402553, 0
207, 0.15286397323263, 0.030470363691755, 0
208, 0.051137213599098, 0.084040890833654, 0
209, 0.10220882391519, 0.084430793847776, 0
210, 0.051044617084984, 0.028829259373783, 0
211, 0.10202758168865, 0.029522414512481, 0
212, 0.15535617243579, -0.19153740629823, 0
213, 0.10354655392399, -0.19154378653566, 0
214, 0.05174668481686, -0.19211638094683, 0
215, 0.20697035206821, -0.19232885975577, 0
216, 0.25795580549396, -0.1945759445746, 0
217, 0.20564807679009, -0.13643415079016, 0
218, 0.25674415729729, -0.13754185651299, 0
219, 0.15433904325924, -0.13623675549953, 0
220, 0.10291769930098, -0.13655732358721, 0
221, 0.051462532949934, -0.13728003512922, 0
222, 0.10212264073224, -0.025725409476495, 0
223, 0.051081985317867, -0.026556302246906, 0
224, 0.10243693685174, -0.081180309113826, 0
225, 0.051230464391877, -0.082015245536643, 0
226, 0.25443874642381, -0.02090807656336, 0
227, 0.20386482434514, -0.023334309362694, 0
228, 0.1530687266842, -0.024738716680404, 0
229, 0.25605180670954, -0.078563664090652, 0
230, 0.20472566460322, -0.079678231662577, 0
231, 0.15359665049155, -0.080447186945122, 0
232, 0.38327669886932, -0.26383525198553, 0
233, 0.3073894555747, -0.19964678501221, 0
234, 0.307383405785, -0.14062447456328, 0
235, 0.35636743178133, -0.14788793596999, 0
236, 0.37079695924425, -0.067742571295981, 0
237, 0.30874831990965, -0.076159738684184, 0
238, 0.30434130637286, -0.015986100634197, 0
239, 0.34988511408889, -0.0059665162557377, 0
240, 0.36602884508954, -3.316624009797e-05, 0
241, 0.79253462089006, 0.1945476951477, 0
242, 0.74094200433782, 0.19457209541139, 0
243, 0.74415661692229, 0.14235198992022, 0
244, 0.84512313198139, 0.14171830654826, 0
245, 0.79453831176211, 0.14243212598333, 0
246, 0.8963121756762, 0.14051956833468, 0
247, 0.94803163258391, 0.13929644656449, 0
248, 0.84436090687654, 0.19423685930254, 0
249, 0.89627116120531, 0.19379688387205, 0
250, 0.9481683726676, 0.19356735572595, 0
251, 0.94831897919295, 0.24717776203301, 0
252, 0.89611236806257, 0.24698815812646, 0
253, 0.84325730121383, 0.247075086343, 0
254, 0.73679877550497, 0.2471929985742, 0
255, 0.78999120730027, 0.24717368698085, 0
256, 0.68988811245981, 0.19444687641656, 0
257, 0.68455992473957, 0.24716420566442, 0
258, 0.63988972632373, 0.19435972512901, 0
259, 0.63411132410583, 0.24713976286433, 0
260, 0.54228698506699, 0.24718784226287, 0
261, 0.50001387495073, 0.24722718754679, 0
262, 0.59148411950488, 0.19437188555703, 0
263, 0.49917923134532, 0.19456601181243, 0
264, 0.54481006186063, 0.19446511102096, 0
265, 0.54595189497132, 0.1419239100508, 0
266, 0.49824877191925, 0.14211880877639, 0
267, 0.5942976478921, 0.14171132209103, 0
268, 0.64360172163032, 0.14168832323869, 0
269, 0.69372366817599, 0.1419389871466, 0
270, 0.69690940286145, 0.089572716452496, 0
271, 0.64616448000439, 0.088960294845457, 0
272, 0.54615170269463, 0.089653296366954, 0
273, 0.49704326331778, 0.090006038323692, 0
274, 0.59578307541218, 0.089056674992682, 0
275, 0.54555720181219, 0.037981187069606, 0
276, 0.49573767376241, 0.038618528239514, 0
277, 0.59614805522649, 0.035856995831909, 0
278, 0.64805621502193, 0.035785003130681, 0
279, 0.70028747267822, 0.036846155765414, 0
280, 0.8201363053801, 0.091046670337154, 0
281, 0.77310723815108, 0.066647242455222, 0
282, 0.76572271190683, -0.0439631577411, 0
283, 0.79689453361665, 0.026792266656509, 0
284, 0.82976284266775, -0.044650061085224, 0
285, 0.86466575349562, 0.0095569405804012, 0
286, 0.94754987017692, 0.084912246017679, 0
287, 0.89558413714834, 0.087331550187254, 0
288, 0.94653502374522, 0.030333524992091, 0
289, 0.89340052196287, 0.033955149050157, 0
290, 0.88809240465848, -0.0774353211019, 0
291, 0.8899419677159, -0.020842229191227, 0
292, 0.94526996288069, -0.024707111411994, 0
293, 0.83808743570069, 0.013325493864062, 0
294, 0.84386588930704, 0.064410896826555, 0
295, 0.8598093180993, -0.047004355992887, 0
296, 0.54401259392287, -0.011655459515906, 0
297, 0.59429380246355, -0.02432416166412, 0
298, 0.70401063655689, -0.017900185733143, 0
299, 0.64908447935197, -0.017864415549167, 0
300, 0.74894287059981, 0.065416468258103, 0
301, 0.63679313683434, -0.075535725624547, 0
302, 0.63568438919703, -0.20748859334545, 0
303, 0.70857156086837, -0.13694270788788, 0
304, 0.8334743240851, -0.18991050135057, 0
305, 0.83045114154594, -0.13321058943356, 0
306, 0.88837838809071, -0.13407761037496, 0
307, 0.77480869023216, -0.19104435833217, 0
308, 0.77042718951307, -0.13392188851368, 0
309, 0.71303987186861, -0.19471611407156, 0
310, 0.89017050660267, -0.19006822767025, 0
311, 0.35907842991227, -0.029367089574811, 0
312, 0.44291500834692, 0.010485948112559, 0
313, 0.4057390306651, -0.028726867292895, 0
314, 0.62342234394891, -0.017544803861399, 0
315, 0.64799077209679, -0.044448521194501, 0
316, 0.61091037759817, -0.052101765082662, 0
317, 0.41901365095891, 0.037228593631392, 0
318, 0.44142660206152, -0.01775635885528, 0
319, 0.36871308476963, 0.017389897225183, 0
320, 0.36001662778328, -0.2591382479245, 0
321, 0.33283170212101, -0.23060380027875, 0
322, 0.41500097455625, -0.28551195647663, 0
323, 0.44276785974433, -0.2644323597494, 0
324, 0.69849794554979, 0.063350326391214, 0
325, 0.73268153340479, -0.016381117755676, 0
326, 0.81366217989994, 0.018823713230294, 0
327, 0.39896202692893, -0.25004634792188, 0
328, 0.44550334614807, -0.24214605075597, 0
329, 0.64978453671672, -0.23157659839164, 0
330, 0.33082112090366, -0.17490391077195, 0
331, 0.43333126027423, -0.24900110294203, 0
332, 0.37956764942693, -0.15307877900024, 0
333, 0.54315521303397, -0.035007820570181, 0
334, 0.56736646336167, -0.013891232702152, 0
335, 0.57432149626822, -0.048261106812555, 0
336, 0.67358760865067, -0.07695982230515, 0
337, 0.70504756880122, -0.046686563323406, 0
338, 0.73497681871019, -0.045663231834241, 0
339, 0.18293503485916, -0.24630593851685, 0
340, 0.21047543768324, -0.27346467310482, 0
341, 0.15744756645704, -0.2730739795325, 0
342, 0.1839757702101, -0.27321594753627, 0
343, 0.2351619910198, -0.24744476343781, 0
344, 0.26324885419005, -0.27446690687325, 0
345, 0.23692301824136, -0.27386367956132, 0
346, 0.15699553814689, 0.273322833738, 0
347, 0.13014944580398, 0.24661227010952, 0
348, 0.10429778283211, 0.27334296192418, 0
349, 0.13062175441712, 0.27331964509888, 0
350, 0.025618827616047, -0.082504863976829, 0
351, 0.02554556818177, -0.026949704012602, 0
352, 0.05114793165251, -0.054292651153543, 0
353, 0.025578045584492, -0.054736113897154, 0
354, 0.97399694952924, 0.13871829616871, 0
355, 0.9481216558634, 0.16647595015657, 0
356, 0.97408810465871, 0.19370322740395, 0
357, 0.97405350780224, 0.16625936286741, 0
358, 0.28720049525359, 0.24702024873389, 0
359, 0.26304007193791, 0.2734664758863, 0
360, 0.31592561697024, 0.27355106977623, 0
361, 0.28954304792965, 0.27351149868594, 0
362, 0.73419728666395, 0.27358921303559, 0
363, 0.78856652762848, 0.27357919761619, 0
364, 0.76333260853375, 0.24719862468907, 0
365, 0.76132944155913, 0.27359214838831, 0
366, 0.025527691173363, 0.028536067435335, 0
367, 0.051051328643953, 0.0011531999956149, 0
368, 0.025530752397062, 0.00080421832078178, 0
369, 0.52106629854585, 0.24721585020929, 0
370, 0.50049303358856, 0.27360723450012, 0
371, 0.54031329133031, 0.27358808217449, 0
372, 0.52034498762675, 0.27359957358609, 0
373, 0.23496457408867, 0.24683353675667, 0
374, 0.20991279682596, 0.27337875712196, 0
375, 0.23647810842075, 0.27342100970789, 0
376, 0.13044811914022, -0.24596161364132, 0
377, 0.10449146277103, -0.27301843801772, 0
378, 0.13094403189675, -0.2730143673681, 0
379, 0.2865496052643, -0.25006713078232, 0
380, 0.31523695736815, -0.27659320903011, 0
381, 0.28937872802197, -0.27534938780524, 0
382, 0.025733751946931, -0.13779326230917, 0
383, 0.05134013637435, -0.10968696493045, 0
384, 0.025673487755791, -0.11018585589849, 0
385, 0.97348335175205, -0.24634675178819, 0
386, 0.94777677830626, -0.27297389894531, 0
387, 0.97390916876076, -0.27324183890256, 0
388, 0.051232710325342, 0.11156547600943, 0
389, 0.025573595735893, 0.083919960500091, 0
390, 0.025678747386789, 0.13920479482834, 0
391, 0.025620914930077, 0.11160286038198, 0
392, 0.051606201284428, -0.16476548458841, 0
393, 0.025870739487782, -0.19262431039829, 0
394, 0.025803376729003, -0.1652693306776, 0
395, 0.025975154505358, -0.24671751245321, 0
396, 0.052012210248276, -0.27320609694079, 0
397, 0.025981374837705, -0.27340310978206, 0
398, 0.051079236838056, 0.056457095314944, 0
399, 0.025544580140791, 0.05623687779019, 0
400, 0.18253313780118, 0.24667311544857, 0
401, 0.18343544362905, 0.27334425404924, 0
402, 0.97374197970981, 0.083790578116205, 0
403, 0.97324290484589, 0.028779164186072, 0
404, 0.94710096611035, 0.057672952474111, 0
405, 0.97351725237084, 0.056309365828741, 0
406, 0.67100268595682, -0.27680284300106, 0
407, 0.39372580186023, -0.22779801067237, 0
408, 0.42940603324853, -0.27386573806703, 0
409, 0.36788739288127, 0.27360827518523, 0
410, 0.33873801424675, 0.24717296723866, 0
411, 0.34206905482396, 0.27358441692168, 0
412, 0.97236073983403, -0.13611839402909, 0
413, 0.97277388393589, -0.19154561458038, 0
414, 0.94494542806388, -0.163216221173, 0
415, 0.97252283428082, -0.16383245574602, 0
416, 0.35353495542704, -0.18051119378247, 0
417, 0.3904291403788, -0.28290573808377, 0
418, 0.94784141105195, 0.11212101619455, 0
419, 0.97389465852611, 0.11125385362426, 0
420, 0.94588125932201, 0.0028797738628451, 0
421, 0.97265689708329, -0.026402313835191, 0
422, 0.97293884602431, 0.0011930061154456, 0
423, 0.89513223443104, -0.27269469620251, 0
424, 0.92015625115105, -0.24550019436125, 0
425, 0.92155976399309, -0.27279758875045, 0
426, 0.077921399888108, 0.24675157649252, 0
427, 0.051936230853364, 0.27351288823658, 0
428, 0.078078428583642, 0.27340225059862, 0
429, 0.84276983049913, 0.27353807406539, 0
430, 0.81664692054422, 0.24713426956071, 0
431, 0.81571294289795, 0.27356203238976, 0
432, 0.78485200098831, -0.27306715980983, 0
433, 0.80983569429676, -0.24554982276279, 0
434, 0.84091052803588, -0.27269010899769, 0
435, 0.8130127001224, -0.27281509164794, 0
436, 0.051491271902101, 0.16625366389266, 0
437, 0.025816650070317, 0.19376362667703, 0
438, 0.025746504482204, 0.16657300884097, 0
439, 0.94478947156384, -0.052340315315026, 0
440, 0.97231319847003, -0.081215249261274, 0
441, 0.9724358865621, -0.053821255245634, 0
442, 0.86974342052383, 0.24702649217824, 0
443, 0.89622980848083, 0.27351212940878, 0
444, 0.8695883329734, 0.27351915341678, 0
445, 0.078070915615809, -0.24610032276227, 0
446, 0.078203513487794, -0.27308206799368, 0
447, 0.025930373455298, 0.24729813563511, 0
448, 0.025945071617489, 0.27369265110767, 0
449, 0.94446287451405, -0.10773001468242, 0
450, 0.97228893263276, -0.10863411984224, 0
451, 0.72810678008718, -0.27415830981031, 0
452, 0.75218670147915, -0.24690047403494, 0
453, 0.75654608976328, -0.27348774093885, 0
454, 0.58206990378372, 0.27357569478709, 0
455, 0.56392616037423, 0.24717547472721, 0
456, 0.56069793637049, 0.27358035430125, 0
457, 0.69246848118521, -0.25050749970904, 0
458, 0.69967042172781, -0.27519101300577, 0
459, 0.38870753915396, 0.24725367349686, 0
460, 0.41735334292082, 0.27362700438199, 0
461, 0.39306945359133, 0.27362227368895, 0
462, 0.15564923549908, 0.21988811397369, 0
463, 0.12916122771441, 0.19301768177639, 0
464, 0.10366910104915, 0.21988088926165, 0
465, 0.12965582846567, 0.21985104108171, 0
466, 0.6300299343908, 0.27356578593601, 0
467, 0.60981602500897, 0.24714657897236, 0
468, 0.60557669461029, 0.27357027194154, 0
469, 0.47887873227845, 0.24724837998749, 0
470, 0.46025941909131, 0.27362275329891, 0
471, 0.48051616329356, 0.27361812704939, 0
472, 0.68104799845887, 0.27357927158712, 0
473, 0.65906167936137, 0.24715764939455, 0
474, 0.65528205262612, 0.27356956484796, 0
475, 0.97419570072341, 0.24756580119038, 0
476, 0.94857381642096, 0.2736478155409, 0
477, 0.97433589932945, 0.2738613845648, 0
478, 0.71050534630696, 0.24718811352645, 0
479, 0.70745026548085, 0.27358679837187, 0
480, 0.86581936978843, -0.24523072256709, 0
481, 0.86820776173266, -0.27265448471994, 0
482, 0.9482075124626, 0.22047692497701, 0
483, 0.97412242596124, 0.22076838815287, 0
484, 0.92211512221859, 0.13990217483119, 0
485, 0.89633476400636, 0.16716628474875, 0
486, 0.92222377781387, 0.19363086863399, 0
487, 0.92220928682719, 0.16678757290604, 0
488, 0.43547776053651, 0.24726792117694, 0
489, 0.43936582924295, 0.27362598962611, 0
490, 0.051882744329719, -0.21930341599544, 0
491, 0.025932167771036, -0.21975175257121, 0
492, 0.077017653031094, 0.1389135746375, 0
493, 0.1024097771805, 0.11174091416146, 0
494, 0.07669143369278, 0.084202159202476, 0
495, 0.076836500532854, 0.11160921522856, 0
496, 0.79131035296822, 0.22083382596567, 0
497, 0.76667528648702, 0.19461211930025, 0
498, 0.73901020147467, 0.2208559618817, 0
499, 0.76510788079473, 0.22086327694637, 0
500, 0.051780365285852, 0.22023369232664, 0
501, 0.025882447233728, 0.22062564882553, 0
502, 0.94610516627894, -0.21846286716574, 0
503, 0.97309743985066, -0.21904397865689, 0
504, 0.92228851230912, 0.24702478432753, 0
505, 0.92250441021759, 0.27354592594577, 0
506, 0.076844905080251, -0.081581771687111, 0
507, 0.076615578691567, -0.026153112385327, 0
508, 0.10226414028581, -0.053444966267084, 0
509, 0.076717419429477, -0.053868174242439, 0
510, 0.2593927544564, 0.22038486902794, 0
511, 0.31064467074049, 0.22066739358073, 0
512, 0.28328058463367, 0.19405650535619, 0
513, 0.28511307332592, 0.22053440314204, 0
514, 0.12803234728914, -0.080811528725827, 0
515, 0.12762261456615, -0.025267717239958, 0
516, 0.15330905082816, -0.052550628807546, 0
517, 0.12779428133897, -0.053012518090428, 0
518, 0.20563223250057, 0.16668687632431, 0
519, 0.17939537561886, 0.13956912748915, 0
520, 0.1543965834394, 0.16623120084949, 0
521, 0.18080647520044, 0.19323004166434, 0
522, 0.18005297186251, 0.16643206823289, 0
523, 0.79359692111367, 0.16840744357489, 0
524, 0.76933879512508, 0.14249046926725, 0
525, 0.74262191958303, 0.1684045099499, 0
526, 0.76807387061927, 0.16846974951463, 0
527, 0.15292617762741, 0.0029355146124137, 0
528, 0.17819353080383, 0.031094203919129, 0
529, 0.20355912969745, 0.00440638703562, 0
530, 0.17849777259023, -0.024117803114015, 0
531, 0.17828562868456, 0.0035891818649478, 0
532, 0.2076165597492, 0.22009239751109, 0
533, 0.18164416995112, 0.21997283421443, 0
534, 0.1294658895401, -0.19146607496528, 0
535, 0.15599582356481, -0.21889787062534, 0
536, 0.1038950595664, -0.21883042950225, 0
537, 0.12994936057887, -0.21879216881716, 0
538, 0.20793562514979, -0.21972415958691, 0
539, 0.23258955341215, -0.19320861482836, 0
540, 0.25923027623201, -0.22192431991485, 0
541, 0.23370532219746, -0.2205921511499, 0
542, 0.25648825303236, 0.16728698851064, 0
543, 0.30672717256593, 0.16787484377704, 0
544, 0.28036978093722, 0.14115268018435, 0
545, 0.28170252776814, 0.16759487593526, 0
546, 0.076552430152, 0.029151321039465, 0
547, 0.10208931960815, 0.057019702496307, 0
548, 0.076597722643712, 0.056711917415263, 0
549, 0.1020488334554, 0.0019339505567755, 0
550, 0.12747977322854, 0.029951349272204, 0
551, 0.12751321933101, 0.0023936528650459, 0
552, 0.077195506476571, -0.13687178173021, 0
553, 0.10266393603563, -0.10890236327772, 0
554, 0.077008212724356, -0.10926224814251, 0
555, 0.12769814925877, 0.08472952448902, 0
556, 0.1529383324098, 0.057855114635577, 0
557, 0.12754156959915, 0.05739575452206, 0
558, 0.81808457129051, 0.042175982406589, 0
559, 0.86723607943515, 0.036271787299058, 0
560, 0.70554784276384, -0.076585375645962, 0
561, 0.79672435663562, 0.04482821044489, 0
562, 0.79592323861176, 0.091600534311904, 0
563, 0.076565774335377, 0.0015233791624948, 0
564, 0.2544345857993, 0.11415329201565, 0
565, 0.30393624162744, 0.11528282048503, 0
566, 0.27849023333047, 0.088329936085298, 0
567, 0.27929289170647, 0.11473381995491, 0
568, 0.18121125083941, -0.19180676340698, 0
569, 0.18200705356724, -0.21918814134049, 0
570, 0.89169260513003, 0.0068463490300173, 0
571, 0.729207412602, 0.011468630270409, 0
572, 0.77168542502354, 0.091435851440914, 0
573, 0.82926896891115, -0.074731269170309, 0
574, 0.3335515440768, 0.19441687346555, 0
575, 0.36086088352436, 0.22086018214643, 0
576, 0.33592349151253, 0.22077979667022, 0
577, 0.73970596513425, -0.13512012489875, 0
578, 0.70689444742661, -0.10694955200623, 0
579, 0.75571627025132, 0.014338281574552, 0
580, 0.76882610352001, -0.10448056515719, 0
581, 0.73798473779519, -0.10552823536552, 0
582, 0.20623456166951, -0.1645554310687, 0
583, 0.23124029675962, -0.13683531340295, 0
584, 0.25717730220865, -0.16642885007987, 0
585, 0.2318007544833, -0.16527209924499, 0
586, 0.52192490462009, 0.19452724063878, 0
587, 0.49958671391721, 0.22088257996045, 0
588, 0.5437524946239, 0.220819496694, 0
589, 0.52159216461992, 0.22085741785673, 0
590, 0.52204653172907, 0.14204335909648, 0
591, 0.49873358895483, 0.16832005518048, 0
592, 0.54550853007972, 0.16817936310457, 0
593, 0.52205977697547, 0.16826552641883, 0
594, 0.44500016194886, -0.043887858737146, 0
595, 0.46974061808057, -0.012559048416727, 0
596, 0.49717127425622, -0.032532092983186, 0
597, 0.47160680299923, -0.035630520659569, 0
598, 0.9177306125694, -0.022910523420795, 0
599, 0.91988178540167, 0.032032873154251, 0
600, 0.91880756520133, 0.0046970819210836, 0
601, 0.58930781976559, 0.22075565574134, 0
602, 0.56794536397023, 0.19442366867417, 0
603, 0.56625857234182, 0.22078576476676, 0
604, 0.92146090101608, 0.086094891999093, 0
605, 0.89469590601027, 0.060732838791671, 0
606, 0.92080478103802, 0.059121011917931, 0
607, 0.23225383511304, 0.19361705501664, 0
608, 0.23354413609783, 0.22023366896357, 0
609, 0.39532282174596, -0.088727210663124, 0
610, 0.41755374989903, -0.060536511679885, 0
611, 0.61949649379914, -0.14650870803267, 0
612, 0.60670121613504, -0.090405891540378, 0
613, 0.64404032385232, -0.11162241552099, 0
614, 0.61636102804854, -0.11816927407521, 0
615, 0.58999496768807, -0.067530605102572, 0
616, 0.83558159339267, -0.21773354740201, 0
617, 0.77779116437403, -0.21876128853123, 0
618, 0.80441372690126, -0.19025331375059, 0
619, 0.80693229555553, -0.21806382570757, 0
620, 0.73649375399664, -0.075584261731039, 0
621, 0.83190389253517, -0.014259500525151, 0
622, 0.79786472729108, -0.042420160405707, 0
623, 0.59308674687203, 0.16804007027204, 0
624, 0.57000159052855, 0.14182164193029, 0
625, 0.56914316610819, 0.16811615716823, 0
626, 0.89607642681282, 0.11392414359621, 0
627, 0.92187931282117, 0.11301132925479, 0
628, 0.81841575344951, 0.19443817983512, 0
629, 0.8438053385612, 0.22064429347294, 0
630, 0.81756726966548, 0.22074843207576, 0
631, 0.37769039420103, -0.24238075087178, 0
632, 0.50140944373712, -0.28095273752, 0
633, 0.4074548370861, -0.21583275269479, 0
634, 0.3744299271323, -0.18831549302656, 0
635, 0.34067992159692, -0.27826924319412, 0
636, 0.79641339217973, 0.067278641318422, 0
637, 0.74712348481626, 0.090834647163785, 0
638, 0.86895323422177, 0.062523904566666, 0
639, 0.48866077926478, -0.29030429488154, 0
640, 0.46420168215536, -0.28946013817365, 0
641, 0.8451577457489, 0.11571699464262, 0
642, 0.8706216527606, 0.14115913434361, 0
643, 0.8704658668484, 0.11486522036099, 0
644, 0.88869350010512, -0.049024753121964, 0
645, 0.79724109662368, -0.0066260837299671, 0
646, 0.84187435136816, 0.039033699255058, 0
647, 0.91649694904758, -0.078764458045585, 0
648, 0.91693732570403, -0.050778163758503, 0
649, 0.15481400738608, -0.16398031139134, 0
650, 0.18001935968911, -0.13625816301129, 0
651, 0.18056097622684, -0.16415499570869, 0
652, 0.32983446815848, 0.1418698137408, 0
653, 0.35612893318891, 0.16827160717513, 0
654, 0.33154271422002, 0.1681048253088, 0
655, 0.45544279611274, -0.25674221904151, 0
656, 0.48996434079555, -0.27153033174422, 0
657, 0.75156716051441, 0.040059908760278, 0
658, 0.72397669018328, 0.064230186469678, 0
659, 0.81965678454703, 0.066217556997982, 0
660, 0.77537509888422, 0.042570259893637, 0
661, 0.52040441444512, -0.010334113274421, 0
662, 0.52134068928567, -0.033078220779409, 0
663, 0.71738937005732, -0.2219580242347, 0
664, 0.74448027296087, -0.19242698017902, 0
665, 0.74803864256233, -0.21996846243072, 0
666, 0.33223942393368, -0.14358929328307, 0
667, 0.30828578552046, -0.10893829967033, 0
668, 0.3371830654318, -0.073516767307359, 0
669, 0.36064120171202, -0.1136890026526, 0
670, 0.33457439682253, -0.11028071637346, 0
671, 0.23015855902712, 0.14030677435734, 0
672, 0.23112031624928, 0.16697753765054, 0
673, 0.91665509626366, -0.1347491268222, 0
674, 0.88800787965593, -0.1058117408512, 0
675, 0.91641459047165, -0.10677495134117, 0
676, 0.38267898491418, 0.19460986341737, 0
677, 0.40927924415683, 0.22093420946855, 0
678, 0.38535056201698, 0.22091107086534, 0
679, 0.64483124390019, -0.17368053756039, 0
680, 0.60432668211103, -0.20208983644043, 0
681, 0.6162023645404, -0.17481858037089, 0
682, 0.63732139235199, 0.22074692096614, 0
683, 0.61545339815456, 0.19436329398015, 0
684, 0.61300015914988, 0.22075295005129, 0
685, 0.32716150240024, 0.089777722835826, 0
686, 0.35264504817921, 0.11605352212001, 0
687, 0.32837999784588, 0.11574534575904, 0
688, 0.38425160314735, -0.12161490765204, 0
689, 0.20419357328469, 0.11307436002358, 0
690, 0.22884444248442, 0.086802215228243, 0
691, 0.22939919430677, 0.11358936063485, 0
692, 0.47640155314212, 0.19461434777256, 0
693, 0.45524810120444, 0.22093060690571, 0
694, 0.47753565469521, 0.22090379257075, 0
695, 0.43949868245981, -0.28780571790898, 0
696, 0.077643232279188, -0.19176391084284, 0
697, 0.077870982321545, -0.21900121215372, 0
698, 0.37855596389331, 0.14222055162571, 0
699, 0.40454931052422, 0.16841762384263, 0
700, 0.38046713283401, 0.16837753705085, 0
701, 0.47445215600396, 0.14219020060257, 0
702, 0.45197455983585, 0.16840641512817, 0
703, 0.47539471054741, 0.16838038979505, 0
704, 0.64191311323473, 0.16803941718864, 0
705, 0.61880960405177, 0.14168603823234, 0
706, 0.61733823497124, 0.1680167157162, 0
707, 0.43026479780787, 0.19465516000608, 0
708, 0.43254941616296, 0.2209449559248, 0
709, 0.71529926692416, 0.19453353399286, 0
710, 0.68745043194978, 0.22079603440195, 0
711, 0.71308368794257, 0.22084189474199, 0
712, 0.59610720575041, 0.062627158366258, 0
713, 0.57057376678549, 0.037002144544958, 0
714, 0.54594360068817, 0.063710333023317, 0
715, 0.57085486834229, 0.08935615342045, 0
716, 0.5708745265645, 0.063176820567425, 0
717, 0.077472772780846, 0.19311546038209, 0
718, 0.077711281662763, 0.21999744928033, 0
719, 0.42037599286311, -0.25783195563212, 0
720, 0.89152678265138, -0.21777369552982, 0
721, 0.91794258342848, -0.19042169182056, 0
722, 0.91894188521847, -0.21804255192697, 0
723, 0.66471244540367, 0.19439984799538, 0
724, 0.66217177669334, 0.22075929346346, 0
725, 0.8620298338895, -0.18987001640016, 0
726, 0.86375603022453, -0.21765383777949, 0
727, 0.59570365038575, 0.0080898801121552, 0
728, 0.54490855362322, 0.012746406698142, 0
729, 0.56964271876982, 0.011020762508683, 0
730, 0.42671117730463, 0.14225011140381, 0
731, 0.42837821760791, 0.16841930966649, 0
732, 0.34823561059081, 0.016254812323132, 0
733, 0.37121858213148, 0.040124783871735, 0
734, 0.38977426506179, 0.013020775660203, 0
735, 0.59516197648059, 0.11541552738493, 0
736, 0.54616248051303, 0.1157356276743, 0
737, 0.57056975725337, 0.11556003662747, 0
738, 0.64499965810358, 0.11533697352555, 0
739, 0.62091372450386, 0.088903914194869, 0
740, 0.61998756388636, 0.11532167730066, 0
741, 0.71894122298097, 0.14214039542467, 0
742, 0.69192886444795, 0.16817652912964, 0
743, 0.71721252027848, 0.1683038258812, 0
744, 0.30274606838239, 0.010849919156278, 0
745, 0.32576700657381, 0.038653567890305, 0
746, 0.32828290411275, -0.011722586102404, 0
747, 0.32617581216703, 0.013573406323076, 0
748, 0.1032199831089, -0.1641167944114, 0
749, 0.077412998002058, -0.16438185496754, 0
750, 0.82958336525027, -0.10422037987348, 0
751, 0.80068004753947, -0.13328419388515, 0
752, 0.7985066286411, -0.073908940222716, 0
753, 0.79942415119831, -0.10398156052309, 0
754, 0.88910465721308, -0.16216141684174, 0
755, 0.91717098993657, -0.16264312716263, 0
756, 0.12864307249357, -0.13634648504693, 0
757, 0.12902762525739, -0.16397874599729, 0
758, 0.28206680714134, -0.0776414975763, 0
759, 0.25532470248449, -0.049364677286815, 0
760, 0.2795555184653, -0.018908616846394, 0
761, 0.30690191853963, -0.044656816551596, 0
762, 0.28098895105356, -0.047576227719391, 0
763, 0.67603506999764, -0.018297575405463, 0
764, 0.85907948857566, -0.07603378705128, 0
765, 0.70218901167277, 0.0098969536076593, 0
766, 0.64874147944533, 0.0089566389319911, 0
767, 0.6741203971815, 0.036136386506421, 0
768, 0.67526920555918, 0.0091802658065083, 0
769, 0.74558981394762, 0.11650218116901, 0
770, 0.69532855439765, 0.11576940082678, 0
771, 0.72050330756808, 0.1161365944172, 0
772, 0.66857627094513, 0.14179132296634, 0
773, 0.66679705929642, 0.16809242049816, 0
774, 0.33316551175033, -0.039459870817721, 0
775, 0.62207252373331, 0.035702703302177, 0
776, 0.62248633529494, 0.0087859347793663, 0
777, 0.67151403316357, 0.089192387882964, 0
778, 0.670103671064, 0.11552178836072, 0
779, 0.12829049166228, 0.13907602210845, 0
780, 0.10297475704638, 0.16604061046953, 0
781, 0.12870362338829, 0.16609415975749, 0
782, 0.07723860731831, 0.16608439087444, 0
783, 0.15395282983319, -0.1083747565375, 0
784, 0.12832185929655, -0.10861111051241, 0
785, 0.25374892000648, 0.0068020925851686, 0
786, 0.22920478178113, -0.022315616069601, 0
787, 0.22850123099117, 0.032814434885809, 0
788, 0.22873753184074, 0.0054465888791932, 0
789, 0.89615874150179, 0.22041967513041, 0
790, 0.92222180418684, 0.22038643912786, 0
791, 0.6471628570194, 0.062479200142904, 0
792, 0.67281806983886, 0.062792034158173, 0
793, 0.15344603248757, 0.11224993509969, 0
794, 0.12795826882166, 0.11195290235424, 0
795, 0.4976749947499, 0.11602037730285, 0
796, 0.5215619892969, 0.089902476708391, 0
797, 0.52186625047187, 0.11592195022223, 0
798, 0.28296257817047, -0.19664049061681, 0
799, 0.308982971197, -0.22670729283531, 0
800, 0.2843847300442, -0.22389444420106, 0
801, 0.87030000670535, 0.19402619925047, 0
802, 0.87000588319038, 0.22052745068937, 0
803, 0.84480669152608, 0.089949201701472, 0
804, 0.17916881800089, -0.080083668794592, 0
805, 0.20518103689786, -0.1080934388459, 0
806, 0.17957435334124, -0.10820216627567, 0
807, 0.85965963315743, -0.1335149045077, 0
808, 0.85911251280442, -0.10492068081889, 0
809, 0.28216161113017, -0.13872658183774, 0
810, 0.30691930667374, -0.17093844306642, 0
811, 0.28227702583777, -0.16822831081497, 0
812, 0.17847876993581, 0.085582659417003, 0
813, 0.17886361171673, 0.11262565088352, 0
814, 0.83174854717091, -0.16174667977634, 0
815, 0.86065765875986, -0.16183522632909, 0
816, 0.49539774748215, 0.013616297838053, 0
817, 0.52071166849283, 0.038566672317238, 0
818, 0.52036726465675, 0.013648322135878, 0
819, 0.49635437590404, 0.064177010145517, 0
820, 0.5211543881685, 0.064071199184264, 0
821, 0.23034175689347, -0.079202093911744, 0
822, 0.25646729205715, -0.10813616761501, 0
823, 0.23079675118259, -0.10806227782967, 0
824, 0.84481749591322, 0.16791945354325, 0
825, 0.87053802351082, 0.16755369510391, 0
826, 0.20346905258229, 0.059091705920806, 0
827, 0.17825626238867, 0.058415018467217, 0
828, 0.62158668535762, 0.062406718699975, 0
829, 0.47249891621696, 0.090025712711373, 0
830, 0.44931395627209, 0.11609962864591, 0
831, 0.47349984510292, 0.11607186630215, 0
832, 0.81975144686202, 0.14218913031524, 0
833, 0.79529046231678, 0.11679031630207, 0
834, 0.82010306225274, 0.11642572911968, 0
835, 0.42346301494695, 0.090055083167192, 0
836, 0.40095349080556, 0.11618699422846, 0
837, 0.42512415327813, 0.11613427399296, 0
838, 0.20428434712561, -0.051382488941921, 0
839, 0.17879979850162, -0.052022855923026, 0
840, 0.86158976489267, -0.018168586997168, 0
841, 0.77052280632818, 0.116757584607, 0
842, 0.81917444611672, 0.16821710596119, 0
843, 0.30231414696563, 0.063027238552702, 0
844, 0.34981931444862, 0.064747280145898, 0
845, 0.32623357775584, 0.064051476619085, 0
846, 0.28225581747901, -0.10837183698379, 0
847, 0.67916679129299, -0.19862537507641, 0
848, 0.68518366621725, -0.22531678697666, 0
849, 0.67716664267094, -0.13946638552848, 0
850, 0.71041842495437, -0.16625308476736, 0
851, 0.67808359956589, -0.16939650933522, 0
852, 0.27798475802793, 0.03539232523106, 0
853, 0.27847756671771, 0.0085763380472026, 0
854, 0.25340872291602, 0.060847121793024, 0
855, 0.22853425716524, 0.059901229341961, 0
856, 0.72623510867857, 0.038150136375158, 0
857, 0.67569959630191, -0.046578346008698, 0
858, 0.76263912684795, -0.01334715838511, 0
859, 0.78015724551941, 0.019099445517205, 0
860, 0.47042229740573, 0.038174297525761, 0
861, 0.46966717802971, 0.012497858127272, 0
862, 0.72215479128737, 0.090155252534644, 0
863, 0.77236171923481, -0.16276585059204, 0
864, 0.80231892255197, -0.16200541721047, 0
865, 0.67540762053857, -0.10873108319462, 0
866, 0.37510382229312, 0.090352471374499, 0
867, 0.37680988879528, 0.11619592098667, 0
868, 0.39710113504955, 0.064358920896844, 0
869, 0.37329971909443, 0.064862718915287, 0
870, 0.33615841631903, -0.25526015994868, 0
871, 0.36574502952066, -0.28040563926376, 0
872, 0.22978798408386, -0.050547455984117, 0
873, 0.74177420394822, -0.16412074444266, 0
874, 0.47875918755838, -0.26155256151656, 0
875, 0.27803207062592, 0.06191192620307, 0
876, 0.4464499052274, 0.063860597831813, 0
877, 0.47145284373111, 0.064046336142463, 0
878, 0.4215444698536, 0.063873029083071, 0
879, 0.76738903620782, -0.074472941060987, 0
880, 0.41500800945932, 0.0087694670085209, 0
881, 0.62708646861392, -0.038640705480471, 0
882, 0.3805252288978, -0.011493134401864, 0
883, 0.46787674567914, -0.25040584463066, 0
884, 0.4062548085289, -0.26898440587109, 0
885, 0.86998390709778, 0.088649319672607, 0
886, 0.47719508440672, -0.28016547447956, 0
887, 0.45312422867794, -0.27773240192447, 0
888, 0.56183456354532, -0.032978624764401, 0
889, 0.46607367140493, -0.26915059631013, 0
890, 0.39230869059263, -0.19990581870141, 0
891, 0.37430827404318, -0.21771563622562, 0
892, 0.35339667340514, -0.20981166502415, 0
893, 0.33098553821228, -0.20392062309232, 0
894, 0.41276169290675, -0.23902480811936, 0
895, 0.5130199778467, -0.29029890338491, 0
896, 0.49139183576614, -0.25430959169156, 0
897, 0.50266854674257, -0.26292830998666, 0
898, 0.51413781232094, -0.27132780205869, 0
899, 0.52583657164114, -0.28001777252778, 0
900, 0.53775333646667, -0.28943949075896, 0
901, 0.51533592319658, -0.25365098623822, 0
902, 0.5266870774226, -0.2607495215112, 0
903, 0.5384018388036, -0.26851179588911, 0
904, 0.55048145570941, -0.27738258023794, 0
905, 0.56276471981375, -0.28776619728706, 0
906, 0.53877728461321, -0.24837224078524, 0
907, 0.5504688123788, -0.25499290720853, 0
908, 0.56287631428429, -0.26307873398633, 0
909, 0.57569462857477, -0.27309091856875, 0
910, 0.58848886727772, -0.28534592095567, 0
911, 0.56122769387148, -0.23852760626173, 0
912, 0.57430262902838, -0.24555436798492, 0
913, 0.58828427688859, -0.25497628636989, 0
914, 0.60208647466452, -0.2672980453385, 0
915, 0.61502846516476, -0.28240134824118, 0
916, 0.58278629104931, -0.22376392170667, 0
917, 0.59996980537934, -0.23157712282652, 0
918, 0.61646550015347, -0.2440029340145, 0
919, 0.63054379729064, -0.26049354197922, 0
920, 0.64263451466048, -0.27934055308383, 0
******* E L E M E N T S *************
*ELEMENT, type=CPS4, ELSET=Surface1
1, 150, 341, 342, 339
2, 339, 342, 340, 153
3, 342, 13, 21, 340
4, 341, 20, 13, 342
5, 22, 344, 345, 14
6, 14, 345, 340, 21
7, 345, 343, 153, 340
8, 344, 152, 343, 345
9, 100, 93, 349, 346
10, 346, 349, 347, 178
11, 349, 348, 177, 347
12, 93, 101, 348, 349
13, 225, 352, 353, 350
14, 350, 353, 109, 120
15, 353, 351, 119, 109
16, 352, 223, 351, 353
17, 63, 53, 357, 354
18, 354, 357, 355, 247
19, 357, 356, 250, 355
20, 53, 64, 356, 357
21, 182, 360, 361, 358
22, 358, 361, 359, 181
23, 361, 90, 98, 359
24, 360, 97, 90, 361
25, 254, 364, 365, 362
26, 362, 365, 70, 78
27, 365, 363, 77, 70
28, 364, 255, 363, 365
29, 119, 351, 368, 108
30, 108, 368, 366, 118
31, 368, 367, 210, 366
32, 351, 223, 367, 368
33, 260, 371, 372, 369
34, 369, 372, 370, 261
35, 372, 82, 86, 370
36, 371, 85, 82, 372
37, 98, 91, 375, 359
38, 359, 375, 373, 181
39, 375, 374, 180, 373
40, 91, 99, 374, 375
41, 151, 377, 378, 376
42, 376, 378, 341, 150
43, 378, 12, 20, 341
44, 377, 19, 12, 378
45, 22, 15, 381, 344
46, 344, 381, 379, 152
47, 381, 380, 155, 379
48, 15, 23, 380, 381
49, 221, 383, 384, 382
50, 382, 384, 110, 121
51, 384, 350, 120, 110
52, 383, 225, 350, 384
53, 166, 386, 387, 385
54, 385, 387, 45, 56
55, 387, 37, 4, 45
56, 386, 44, 37, 387
57, 172, 390, 391, 388
58, 388, 391, 389, 208
59, 391, 106, 117, 389
60, 390, 116, 106, 391
61, 121, 111, 394, 382
62, 382, 394, 392, 221
63, 394, 393, 214, 392
64, 111, 122, 393, 394
65, 123, 113, 397, 395
66, 395, 397, 396, 149
67, 397, 10, 18, 396
68, 113, 1, 10, 397
69, 210, 398, 399, 366
70, 366, 399, 107, 118
71, 399, 389, 117, 107
72, 398, 208, 389, 399
73, 178, 400, 401, 346
74, 346, 401, 92, 100
75, 401, 374, 99, 92
76, 400, 180, 374, 401
77, 286, 404, 405, 402
78, 402, 405, 51, 62
79, 405, 403, 61, 51
80, 404, 288, 403, 405
81, 29, 895, 639, 26
82, 902, 901, 896, 897
83, 632, 656, 889, 886
84, 323, 331, 894, 719
85, 97, 360, 411, 89
86, 89, 411, 409, 96
87, 411, 410, 184, 409
88, 360, 182, 410, 411
89, 160, 414, 415, 412
90, 412, 415, 47, 58
91, 415, 413, 57, 47
92, 414, 164, 413, 415
93, 322, 884, 232, 417
94, 901, 144, 132, 896
95, 904, 903, 898, 899
96, 719, 894, 407, 327
97, 286, 402, 419, 418
98, 418, 419, 354, 247
99, 419, 52, 63, 354
100, 402, 62, 52, 419
101, 292, 421, 422, 420
102, 420, 422, 403, 288
103, 422, 50, 61, 403
104, 421, 60, 50, 422
105, 43, 36, 425, 423
106, 423, 425, 424, 165
107, 425, 386, 166, 424
108, 36, 44, 386, 425
109, 101, 94, 428, 348
110, 348, 428, 426, 177
111, 428, 427, 176, 426
112, 94, 102, 427, 428
113, 77, 363, 431, 69
114, 69, 431, 429, 76
115, 431, 430, 253, 429
116, 363, 255, 430, 431
117, 41, 34, 435, 432
118, 432, 435, 433, 162
119, 435, 434, 163, 433
120, 34, 42, 434, 435
121, 175, 437, 438, 436
122, 436, 438, 390, 172
123, 438, 105, 116, 390
124, 437, 115, 105, 438
125, 156, 440, 441, 439
126, 439, 441, 421, 292
127, 441, 49, 60, 421
128, 440, 59, 49, 441
129, 252, 443, 444, 442
130, 442, 444, 429, 253
131, 444, 68, 76, 429
132, 443, 75, 68, 444
133, 149, 396, 446, 445
134, 445, 446, 377, 151
135, 446, 11, 19, 377
136, 396, 18, 11, 446
137, 102, 95, 448, 427
138, 427, 448, 447, 176
139, 448, 103, 114, 447
140, 95, 8, 103, 448
141, 156, 449, 450, 440
142, 440, 450, 48, 59
143, 450, 412, 58, 48
144, 449, 160, 412, 450
145, 41, 432, 453, 33
146, 33, 453, 451, 40
147, 453, 452, 161, 451
148, 432, 162, 452, 453
149, 6, 81, 456, 454
150, 454, 456, 455, 148
151, 456, 371, 260, 455
152, 81, 85, 371, 456
153, 158, 406, 458, 457
154, 457, 458, 451, 161
155, 458, 32, 40, 451
156, 406, 39, 32, 458
157, 147, 460, 461, 459
158, 459, 461, 409, 184
159, 461, 88, 96, 409
160, 460, 7, 88, 461
161, 178, 347, 465, 462
162, 462, 465, 463, 173
163, 465, 464, 174, 463
164, 347, 177, 464, 465
165, 80, 73, 468, 466
166, 466, 468, 467, 259
167, 468, 454, 148, 467
168, 73, 6, 454, 468
169, 261, 370, 471, 469
170, 469, 471, 470, 185
171, 471, 83, 87, 470
172, 370, 86, 83, 471
173, 259, 473, 474, 466
174, 466, 474, 72, 80
175, 474, 472, 79, 72
176, 473, 257, 472, 474
177, 65, 55, 477, 475
178, 475, 477, 476, 251
179, 477, 66, 74, 476
180, 55, 5, 66, 477
181, 78, 71, 479, 362
182, 362, 479, 478, 254
183, 479, 472, 257, 478
184, 71, 79, 472, 479
185, 42, 35, 481, 434
186, 434, 481, 480, 163
187, 481, 423, 165, 480
188, 35, 43, 423, 481
189, 64, 54, 483, 356
190, 356, 483, 482, 250
191, 483, 475, 251, 482
192, 54, 65, 475, 483
193, 247, 355, 487, 484
194, 484, 487, 485, 246
195, 487, 486, 249, 485
196, 355, 250, 486, 487
197, 185, 470, 489, 488
198, 488, 489, 460, 147
199, 489, 84, 7, 460
200, 470, 87, 84, 489
201, 122, 112, 491, 393
202, 393, 491, 490, 214
203, 491, 395, 149, 490
204, 112, 123, 395, 491
205, 208, 494, 495, 388
206, 388, 495, 492, 172
207, 495, 493, 171, 492
208, 494, 209, 493, 495
209, 255, 364, 499, 496
210, 496, 499, 497, 241
211, 499, 498, 242, 497
212, 364, 254, 498, 499
213, 176, 447, 501, 500
214, 500, 501, 437, 175
215, 501, 104, 115, 437
216, 447, 114, 104, 501
217, 166, 385, 503, 502
218, 502, 503, 413, 164
219, 503, 46, 57, 413
220, 385, 56, 46, 503
221, 251, 476, 505, 504
222, 504, 505, 443, 252
223, 505, 67, 75, 443
224, 476, 74, 67, 505
225, 224, 508, 509, 506
226, 506, 509, 352, 225
227, 509, 507, 223, 352
228, 508, 222, 507, 509
229, 167, 512, 513, 510
230, 510, 513, 358, 181
231, 513, 511, 182, 358
232, 512, 190, 511, 513
233, 231, 516, 517, 514
234, 514, 517, 508, 224
235, 517, 515, 222, 508
236, 516, 228, 515, 517
237, 179, 521, 522, 518
238, 518, 522, 519, 169
239, 522, 520, 170, 519
240, 521, 173, 520, 522
241, 241, 497, 526, 523
242, 523, 526, 524, 245
243, 526, 525, 243, 524
244, 497, 242, 525, 526
245, 228, 530, 531, 527
246, 527, 531, 528, 207
247, 531, 529, 206, 528
248, 530, 227, 529, 531
249, 180, 400, 533, 532
250, 532, 533, 521, 179
251, 533, 462, 173, 521
252, 400, 178, 462, 533
253, 213, 536, 537, 534
254, 534, 537, 535, 212
255, 537, 376, 150, 535
256, 536, 151, 376, 537
257, 152, 540, 541, 343
258, 343, 541, 538, 153
259, 541, 539, 215, 538
260, 540, 216, 539, 541
261, 168, 544, 545, 542
262, 542, 545, 512, 167
263, 545, 543, 190, 512
264, 544, 192, 543, 545
265, 211, 547, 548, 546
266, 546, 548, 398, 210
267, 548, 494, 208, 398
268, 547, 209, 494, 548
269, 222, 515, 551, 549
270, 549, 551, 550, 211
271, 551, 527, 207, 550
272, 515, 228, 527, 551
273, 220, 553, 554, 552
274, 552, 554, 383, 221
275, 554, 506, 225, 383
276, 553, 224, 506, 554
277, 207, 556, 557, 550
278, 550, 557, 547, 211
279, 557, 555, 209, 547
280, 556, 203, 555, 557
281, 280, 834, 833, 562
282, 573, 750, 808, 764
283, 324, 658, 862, 270
284, 223, 507, 563, 367
285, 367, 563, 546, 210
286, 563, 549, 211, 546
287, 507, 222, 549, 563
288, 204, 566, 567, 564
289, 564, 567, 544, 168
290, 567, 565, 192, 544
291, 566, 193, 565, 567
292, 212, 535, 569, 568
293, 568, 569, 538, 215
294, 569, 339, 153, 538
295, 535, 150, 339, 569
296, 645, 858, 282, 622
297, 645, 326, 283, 859
298, 338, 337, 560, 620
299, 645, 621, 293, 326
300, 183, 575, 576, 574
301, 574, 576, 511, 190
302, 576, 410, 182, 511
303, 575, 184, 410, 576
304, 308, 580, 581, 577
305, 577, 581, 578, 303
306, 336, 857, 315, 301
307, 765, 571, 856, 279
308, 216, 584, 585, 539
309, 539, 585, 582, 215
310, 585, 583, 217, 582
311, 584, 218, 583, 585
312, 264, 588, 589, 586
313, 586, 589, 587, 263
314, 589, 369, 261, 587
315, 588, 260, 369, 589
316, 265, 592, 593, 590
317, 590, 593, 591, 266
318, 593, 586, 263, 591
319, 592, 264, 586, 593
320, 138, 596, 597, 127
321, 127, 597, 594, 139
322, 313, 882, 311, 236
323, 596, 198, 595, 597
324, 288, 599, 600, 420
325, 420, 600, 598, 292
326, 600, 570, 291, 598
327, 599, 289, 570, 600
328, 148, 455, 603, 601
329, 601, 603, 602, 262
330, 603, 588, 264, 602
331, 455, 260, 588, 603
332, 287, 605, 606, 604
333, 604, 606, 404, 286
334, 606, 599, 288, 404
335, 605, 289, 599, 606
336, 181, 373, 608, 510
337, 510, 608, 607, 167
338, 608, 532, 179, 607
339, 373, 180, 532, 608
340, 139, 594, 610, 128
341, 128, 610, 609, 140
342, 313, 318, 312, 880
343, 313, 880, 734, 882
344, 157, 613, 614, 611
345, 611, 614, 124, 9
346, 614, 612, 136, 124
347, 613, 301, 612, 614
348, 301, 316, 615, 612
349, 612, 615, 125, 136
350, 615, 335, 137, 125
351, 316, 297, 335, 615
352, 304, 618, 619, 616
353, 616, 619, 433, 163
354, 619, 617, 162, 433
355, 618, 307, 617, 619
356, 637, 572, 841, 769
357, 325, 298, 337, 338
358, 621, 840, 285, 293
359, 645, 622, 284, 621
360, 262, 602, 625, 623
361, 623, 625, 624, 267
362, 625, 592, 265, 624
363, 602, 264, 592, 625
364, 247, 484, 627, 418
365, 418, 627, 604, 286
366, 627, 626, 287, 604
367, 484, 246, 626, 627
368, 248, 629, 630, 628
369, 628, 630, 496, 241
370, 630, 430, 255, 496
371, 629, 253, 430, 630
372, 870, 320, 154, 321
373, 883, 143, 131, 328
374, 887, 323, 719, 408
375, 159, 142, 130, 633
376, 233, 893, 330, 810
377, 900, 899, 632, 895
378, 892, 891, 634, 416
379, 27, 900, 895, 29
380, 293, 646, 558, 326
381, 856, 657, 300, 658
382, 621, 284, 295, 840
383, 894, 633, 890, 407
384, 898, 897, 874, 656
385, 640, 887, 408, 695
386, 328, 131, 142, 159
387, 246, 642, 643, 626
388, 281, 636, 562, 572
389, 325, 571, 765, 298
390, 642, 244, 641, 643
391, 579, 859, 660, 657
392, 859, 283, 561, 660
393, 752, 753, 750, 573
394, 862, 637, 769, 771
395, 292, 598, 648, 439
396, 439, 648, 647, 156
397, 648, 644, 290, 647
398, 598, 291, 644, 648
399, 215, 582, 651, 568
400, 568, 651, 649, 212
401, 651, 650, 219, 649
402, 582, 217, 650, 651
403, 191, 653, 654, 652
404, 652, 654, 543, 192
405, 654, 574, 190, 543
406, 653, 183, 574, 654
407, 408, 719, 327, 884
408, 656, 874, 655, 889
409, 895, 632, 886, 639
410, 331, 159, 633, 894
411, 646, 294, 659, 558
412, 657, 660, 281, 300
413, 287, 626, 643, 885
414, 138, 126, 662, 596
415, 596, 662, 661, 198
416, 662, 333, 296, 661
417, 126, 137, 333, 662
418, 162, 617, 665, 452
419, 452, 665, 663, 161
420, 665, 664, 309, 663
421, 617, 307, 664, 665
422, 235, 669, 670, 666
423, 666, 670, 667, 234
424, 670, 668, 237, 667
425, 669, 236, 668, 670
426, 169, 671, 672, 518
427, 518, 672, 607, 179
428, 672, 542, 167, 607
429, 671, 168, 542, 672
430, 290, 674, 675, 647
431, 647, 675, 449, 156
432, 675, 673, 160, 449
433, 674, 306, 673, 675
434, 186, 677, 678, 676
435, 676, 678, 575, 183
436, 678, 459, 184, 575
437, 677, 147, 459, 678
438, 9, 135, 681, 611
439, 611, 681, 679, 157
440, 681, 680, 302, 679
441, 135, 146, 680, 681
442, 259, 467, 684, 682
443, 682, 684, 683, 258
444, 684, 601, 262, 683
445, 467, 148, 601, 684
446, 194, 686, 687, 685
447, 685, 687, 565, 193
448, 687, 652, 192, 565
449, 686, 191, 652, 687
450, 140, 609, 688, 129
451, 129, 688, 332, 141
452, 688, 669, 235, 332
453, 609, 236, 669, 688
454, 202, 690, 691, 689
455, 689, 691, 671, 169
456, 691, 564, 168, 671
457, 690, 204, 564, 691
458, 263, 587, 694, 692
459, 692, 694, 693, 187
460, 694, 469, 185, 693
461, 587, 261, 469, 694
462, 903, 902, 897, 898
463, 2, 322, 417, 17
464, 897, 896, 883, 874
465, 26, 639, 640, 28
466, 151, 536, 697, 445
467, 445, 697, 490, 149
468, 697, 696, 214, 490
469, 536, 213, 696, 697
470, 189, 699, 700, 698
471, 698, 700, 653, 191
472, 700, 676, 183, 653
473, 699, 186, 676, 700
474, 266, 591, 703, 701
475, 701, 703, 702, 188
476, 703, 692, 187, 702
477, 591, 263, 692, 703
478, 258, 683, 706, 704
479, 704, 706, 705, 268
480, 706, 623, 267, 705
481, 683, 262, 623, 706
482, 187, 693, 708, 707
483, 707, 708, 677, 186
484, 708, 488, 147, 677
485, 693, 185, 488, 708
486, 254, 478, 711, 498
487, 498, 711, 709, 242
488, 711, 710, 256, 709
489, 478, 257, 710, 711
490, 274, 715, 716, 712
491, 712, 716, 713, 277
492, 716, 714, 275, 713
493, 715, 272, 714, 716
494, 177, 426, 718, 464
495, 464, 718, 717, 174
496, 718, 500, 175, 717
497, 426, 176, 500, 718
498, 899, 898, 656, 632
499, 889, 655, 331, 323
500, 25, 695, 322, 2
501, 639, 886, 887, 640
502, 165, 424, 722, 720
503, 720, 722, 721, 310
504, 722, 502, 164, 721
505, 424, 166, 502, 722
506, 257, 473, 724, 710
507, 710, 724, 723, 256
508, 724, 682, 258, 723
509, 473, 259, 682, 724
510, 310, 725, 726, 720
511, 720, 726, 480, 165
512, 726, 616, 163, 480
513, 725, 304, 616, 726
514, 277, 713, 729, 727
515, 727, 729, 334, 297
516, 729, 728, 296, 334
517, 713, 275, 728, 729
518, 188, 702, 731, 730
519, 730, 731, 699, 189
520, 731, 707, 186, 699
521, 702, 187, 707, 731
522, 318, 595, 861, 312
523, 882, 734, 319, 240
524, 313, 236, 609, 610
525, 318, 594, 597, 595
526, 267, 624, 737, 735
527, 735, 737, 715, 274
528, 737, 736, 272, 715
529, 624, 265, 736, 737
530, 268, 705, 740, 738
531, 738, 740, 739, 271
532, 740, 735, 274, 739
533, 705, 267, 735, 740
534, 242, 709, 743, 525
535, 525, 743, 741, 243
536, 743, 742, 269, 741
537, 709, 256, 742, 743
538, 238, 746, 747, 744
539, 744, 747, 745, 200
540, 747, 732, 201, 745
541, 746, 239, 732, 747
542, 221, 392, 749, 552
543, 552, 749, 748, 220
544, 749, 696, 213, 748
545, 392, 214, 696, 749
546, 858, 325, 338, 282
547, 750, 753, 751, 305
548, 753, 580, 308, 751
549, 284, 573, 764, 295
550, 160, 673, 755, 414
551, 414, 755, 721, 164
552, 755, 754, 310, 721
553, 673, 306, 754, 755
554, 220, 748, 757, 756
555, 756, 757, 649, 219
556, 757, 534, 212, 649
557, 748, 213, 534, 757
558, 237, 761, 762, 758
559, 758, 762, 759, 229
560, 762, 760, 226, 759
561, 761, 238, 760, 762
562, 285, 559, 646, 293
563, 294, 803, 280, 659
564, 803, 641, 834, 280
565, 279, 767, 768, 765
566, 765, 768, 763, 298
567, 768, 766, 299, 763
568, 767, 278, 766, 768
569, 243, 741, 771, 769
570, 279, 856, 658, 324
571, 858, 579, 571, 325
572, 741, 269, 770, 771
573, 256, 723, 773, 742
574, 742, 773, 772, 269
575, 773, 704, 268, 772
576, 723, 258, 704, 773
577, 236, 311, 774, 668
578, 668, 774, 761, 237
579, 774, 746, 238, 761
580, 311, 239, 746, 774
581, 277, 727, 776, 775
582, 775, 776, 766, 278
583, 776, 314, 299, 766
584, 727, 297, 314, 776
585, 269, 772, 778, 770
586, 770, 778, 777, 270
587, 778, 738, 271, 777
588, 772, 268, 738, 778
589, 173, 463, 781, 520
590, 520, 781, 779, 170
591, 781, 780, 171, 779
592, 463, 174, 780, 781
593, 172, 492, 782, 436
594, 436, 782, 717, 175
595, 782, 780, 174, 717
596, 492, 171, 780, 782
597, 219, 783, 784, 756
598, 756, 784, 553, 220
599, 784, 514, 224, 553
600, 783, 231, 514, 784
601, 205, 787, 788, 785
602, 785, 788, 786, 226
603, 788, 529, 227, 786
604, 787, 206, 529, 788
605, 250, 482, 790, 486
606, 486, 790, 789, 249
607, 790, 504, 252, 789
608, 482, 251, 504, 790
609, 271, 791, 792, 777
610, 777, 792, 324, 270
611, 792, 767, 279, 324
612, 791, 278, 767, 792
613, 209, 555, 794, 493
614, 493, 794, 779, 171
615, 794, 793, 170, 779
616, 555, 203, 793, 794
617, 273, 796, 797, 795
618, 795, 797, 590, 266
619, 797, 736, 265, 590
620, 796, 272, 736, 797
621, 155, 799, 800, 379
622, 379, 800, 540, 152
623, 800, 798, 216, 540
624, 799, 233, 798, 800
625, 249, 789, 802, 801
626, 801, 802, 629, 248
627, 802, 442, 253, 629
628, 789, 252, 442, 802
629, 622, 282, 879, 752
630, 270, 862, 771, 770
631, 659, 280, 562, 636
632, 620, 560, 578, 581
633, 231, 783, 806, 804
634, 804, 806, 805, 230
635, 806, 650, 217, 805
636, 783, 219, 650, 806
637, 674, 808, 807, 306
638, 808, 750, 305, 807
639, 605, 287, 885, 638
640, 233, 810, 811, 798
641, 798, 811, 584, 216
642, 811, 809, 218, 584
643, 810, 234, 809, 811
644, 169, 519, 813, 689
645, 689, 813, 812, 202
646, 813, 793, 203, 812
647, 519, 170, 793, 813
648, 304, 725, 815, 814
649, 814, 815, 807, 305
650, 815, 754, 306, 807
651, 725, 310, 754, 815
652, 198, 661, 818, 816
653, 816, 818, 817, 276
654, 818, 728, 275, 817
655, 661, 296, 728, 818
656, 272, 796, 820, 714
657, 714, 820, 817, 275
658, 820, 819, 276, 817
659, 796, 273, 819, 820
660, 218, 822, 823, 583
661, 583, 823, 805, 217
662, 823, 821, 230, 805
663, 822, 229, 821, 823
664, 248, 824, 825, 801
665, 801, 825, 485, 249
666, 825, 642, 246, 485
667, 824, 244, 642, 825
668, 207, 528, 827, 556
669, 556, 827, 812, 203
670, 827, 826, 202, 812
671, 528, 206, 826, 827
672, 278, 791, 828, 775
673, 775, 828, 712, 277
674, 828, 739, 274, 712
675, 791, 271, 739, 828
676, 188, 830, 831, 701
677, 701, 831, 795, 266
678, 831, 829, 273, 795
679, 830, 195, 829, 831
680, 245, 833, 834, 832
681, 832, 834, 641, 244
682, 764, 808, 674, 290
683, 571, 579, 657, 856
684, 195, 830, 837, 835
685, 835, 837, 836, 196
686, 837, 730, 189, 836
687, 830, 188, 730, 837
688, 230, 838, 839, 804
689, 804, 839, 516, 231
690, 839, 530, 228, 516
691, 838, 227, 530, 839
692, 243, 769, 841, 524
693, 524, 841, 833, 245
694, 326, 558, 561, 283
695, 558, 659, 636, 561
696, 244, 824, 842, 832
697, 832, 842, 523, 245
698, 842, 628, 241, 523
699, 824, 248, 628, 842
700, 201, 844, 845, 745
701, 745, 845, 843, 200
702, 845, 685, 193, 843
703, 844, 194, 685, 845
704, 229, 822, 846, 758
705, 758, 846, 667, 237
706, 846, 809, 234, 667
707, 822, 218, 809, 846
708, 309, 847, 848, 663
709, 663, 848, 457, 161
710, 848, 329, 158, 457
711, 847, 302, 329, 848
712, 302, 847, 851, 679
713, 679, 851, 849, 157
714, 851, 850, 303, 849
715, 847, 309, 850, 851
716, 238, 744, 853, 760
717, 760, 853, 785, 226
718, 853, 852, 205, 785
719, 744, 200, 852, 853
720, 204, 690, 855, 854
721, 854, 855, 787, 205
722, 855, 826, 206, 787
723, 690, 202, 826, 855
724, 752, 879, 580, 753
725, 638, 885, 803, 294
726, 885, 643, 641, 803
727, 660, 561, 636, 281
728, 570, 289, 559, 285
729, 313, 610, 594, 318
730, 860, 861, 816, 276
731, 861, 595, 198, 816
732, 733, 201, 732, 319
733, 295, 764, 290, 644
734, 645, 859, 579, 858
735, 300, 281, 572, 637
736, 289, 605, 638, 559
737, 305, 751, 864, 814
738, 814, 864, 618, 304
739, 864, 863, 307, 618
740, 751, 308, 863, 864
741, 578, 865, 849, 303
742, 865, 613, 157, 849
743, 879, 620, 581, 580
744, 196, 836, 867, 866
745, 866, 867, 686, 194
746, 867, 698, 191, 686
747, 836, 189, 698, 867
748, 199, 868, 869, 733
749, 733, 869, 844, 201
750, 869, 866, 194, 844
751, 868, 196, 866, 869
752, 633, 130, 141, 890
753, 893, 892, 416, 330
754, 884, 327, 631, 232
755, 28, 640, 695, 25
756, 840, 295, 644, 291
757, 336, 301, 613, 865
758, 560, 337, 857, 336
759, 227, 838, 872, 786
760, 786, 872, 759, 226
761, 872, 821, 229, 759
762, 838, 230, 821, 872
763, 308, 577, 873, 863
764, 863, 873, 664, 307
765, 873, 850, 309, 664
766, 577, 303, 850, 873
767, 416, 634, 332, 235
768, 330, 416, 235, 666
769, 321, 154, 892, 893
770, 320, 232, 631, 154
771, 204, 854, 875, 566
772, 566, 875, 843, 193
773, 875, 852, 200, 843
774, 854, 205, 852, 875
775, 276, 819, 877, 860
776, 860, 877, 876, 197
777, 877, 829, 195, 876
778, 819, 273, 829, 877
779, 197, 876, 878, 317
780, 317, 878, 868, 199
781, 878, 835, 196, 868
782, 876, 195, 835, 878
783, 337, 298, 763, 857
784, 857, 763, 299, 315
785, 622, 752, 573, 284
786, 319, 732, 239, 240
787, 882, 240, 239, 311
788, 312, 861, 860, 197
789, 297, 316, 881, 314
790, 314, 881, 315, 299
791, 316, 301, 315, 881
792, 880, 317, 199, 734
793, 734, 199, 733, 319
794, 880, 312, 197, 317
795, 327, 407, 891, 631
796, 799, 321, 893, 233
797, 155, 870, 321, 799
798, 874, 883, 328, 655
799, 896, 132, 143, 883
800, 886, 889, 323, 887
801, 559, 638, 294, 646
802, 282, 338, 620, 879
803, 658, 300, 637, 862
804, 655, 328, 159, 331
805, 407, 890, 634, 891
806, 890, 141, 332, 634
807, 871, 417, 232, 320
808, 810, 330, 666, 234
809, 154, 631, 891, 892
810, 137, 335, 888, 333
811, 333, 888, 334, 296
812, 335, 297, 334, 888
813, 560, 336, 865, 578
814, 572, 562, 833, 841
815, 840, 291, 570, 285
816, 635, 871, 320, 870
817, 380, 635, 870, 155
818, 695, 408, 884, 322
819, 24, 17, 417, 871
820, 16, 24, 871, 635
821, 23, 16, 635, 380
822, 905, 904, 899, 900
823, 3, 905, 900, 27
824, 906, 133, 144, 901
825, 907, 906, 901, 902
826, 908, 907, 902, 903
827, 909, 908, 903, 904
828, 910, 909, 904, 905
829, 30, 910, 905, 3
830, 911, 145, 133, 906
831, 912, 911, 906, 907
832, 913, 912, 907, 908
833, 914, 913, 908, 909
834, 915, 914, 909, 910
835, 38, 915, 910, 30
836, 916, 134, 145, 911
837, 917, 916, 911, 912
838, 918, 917, 912, 913
839, 919, 918, 913, 914
840, 920, 919, 914, 915
841, 31, 920, 915, 38
842, 680, 146, 134, 916
843, 302, 680, 916, 917
844, 329, 302, 917, 918
845, 158, 329, 918, 919
846, 406, 158, 919, 920
847, 39, 406, 920, 31
*ELSET,ELSET=contact_source
101, 102, 103, 104, 105, 106, 107, 108, 109, 110, 
111, 112, 113, 114, 115, 116, 117, 118, 119, 120, 
121, 122, 
*ELSET,ELSET=contact_drain
39, 40, 41, 42, 43, 44, 45, 46, 47, 48, 
49, 50, 51, 52, 53, 54, 55, 56, 57, 58, 
59, 60, 
*ELSET,ELSET=probe_A
77, 78, 79, 80, 81, 82, 83, 84, 
*ELSET,ELSET=probe_B
17, 18, 19, 20, 21, 22, 
*ELSET,ELSET=walls
1, 2, 3, 4, 5, 6, 7, 8, 9, 10, 
11, 12, 13, 14, 15, 16, 23, 24, 25, 26, 
27, 28, 29, 30, 31, 32, 33, 34, 35, 36, 
37, 38, 61, 62, 63, 64, 65, 66, 67, 68, 
69, 70, 71, 72, 73, 74, 75, 76, 85, 86, 
87, 88, 89, 90, 91, 92, 93, 94, 95, 96, 
97, 98, 99, 100, 123, 124, 125, 126, 127, 128, 
129, 130, 131, 132, 133, 134, 135, 136, 137, 138, 
139, 140, 141, 142, 143, 144, 145, 146, 
*ELSET,ELSET=domain
147, 148, 149, 150, 151, 152, 153, 154, 155, 156, 
157, 158, 159, 160, 161, 162, 163, 164, 165, 166, 
167, 168, 169, 170, 171, 172, 173, 174, 175, 176, 
177, 178, 179, 180, 181, 182, 183, 184, 185, 186, 
187, 188, 189, 190, 191, 192, 193, 194, 195, 196, 
197, 198, 199, 200, 201, 202, 203, 204, 205, 206, 
207, 208, 209, 210, 211, 212, 213, 214, 215, 216, 
217, 218, 219, 220, 221, 222, 223, 224, 225, 226, 
227, 228, 229, 230, 231, 232, 233, 234, 235, 236, 
237, 238, 239, 240, 241, 242, 243, 244, 245, 246, 
247, 248, 249, 250, 251, 252, 253, 254, 255, 256, 
257, 258, 259, 260, 261, 262, 263, 264, 265, 266, 
267, 268, 269, 270, 271, 272, 273, 274, 275, 276, 
277, 278, 279, 280, 281, 282, 283, 284, 285, 286, 
287, 288, 289, 290, 291, 292, 293, 294, 295, 296, 
297, 298, 299, 300, 301, 302, 303, 304, 305, 306, 
307, 308, 309, 310, 311, 312, 313, 314, 315, 316, 
317, 318, 319, 320, 321, 322, 323, 324, 325, 326, 
327, 328, 329, 330, 331, 332, 333, 334, 335, 336, 
337, 338, 339, 340, 341, 342, 343, 344, 345, 346, 
347, 348, 349, 350, 351, 352, 353, 354, 355, 356, 
357, 358, 359, 360, 361, 362, 363, 364, 365, 366, 
367, 368, 369, 370, 371, 372, 373, 374, 375, 376, 
377, 378, 379, 380, 381, 382, 383, 384, 385, 386, 
387, 388, 389, 390, 391, 392, 393, 394, 395, 396, 
397, 398, 399, 400, 401, 402, 403, 404, 405, 406, 
407, 408, 409, 410, 411, 412, 413, 414, 415, 416, 
417, 418, 419, 420, 421, 422, 423, 424, 425, 426, 
427, 428, 429, 430, 431, 432, 433, 434, 435, 436, 
437, 438, 439, 440, 441, 442, 443, 444, 445, 446, 
447, 448, 449, 450, 451, 452, 453, 454, 455, 456, 
457, 458, 459, 460, 461, 462, 463, 464, 465, 466, 
467, 468, 469, 470, 471, 472, 473, 474, 475, 476, 
477, 478, 479, 480, 481, 482, 483, 484, 485, 486, 
487, 488, 489, 490, 491, 492, 493, 494, 495, 496, 
497, 498, 499, 500, 501, 502, 503, 504, 505, 506, 
507, 508, 509, 510, 511, 512, 513, 514, 515, 516, 
517, 518, 519, 520, 521, 522, 523, 524, 525, 526, 
527, 528, 529, 530, 531, 532, 533, 534, 535, 536, 
537, 538, 539, 540, 541, 542, 543, 544, 545, 546, 
547, 548, 549, 550, 551, 552, 553, 554, 555, 556, 
557, 558, 559, 560, 561, 562, 563, 564, 565, 566, 
567, 568, 569, 570, 571, 572, 573, 574, 575, 576, 
577, 578, 579, 580, 581, 582, 583, 584, 585, 586, 
587, 588, 589, 590, 591, 592, 593, 594, 595, 596, 
597, 598, 599, 600, 601, 602, 603, 604, 605, 606, 
607, 608, 609, 610, 611, 612, 613, 614, 615, 616, 
617, 618, 619, 620, 621, 622, 623, 624, 625, 626, 
627, 628, 629, 630, 631, 632, 633, 634, 635, 636, 
637, 638, 639, 640, 641, 642, 643, 644, 645, 646, 
647, 648, 649, 650, 651, 652, 653, 654, 655, 656, 
657, 658, 659, 660, 661, 662, 663, 664, 665, 666, 
667, 668, 669, 670, 671, 672, 673, 674, 675, 676, 
677, 678, 679, 680, 681, 682, 683, 684, 685, 686, 
687, 688, 689, 690, 691, 692, 693, 694, 695, 696, 
697, 698, 699, 700, 701, 702, 703, 704, 705, 706, 
707, 708, 709, 710, 711, 712, 713, 714, 715, 716, 
717, 718, 719, 720, 721, 722, 723, 724, 725, 726, 
727, 728, 729, 730, 731, 732, 733, 734, 735, 736, 
737, 738, 739, 740, 741, 742, 743, 744, 745, 746, 
747, 748, 749, 750, 751, 752, 753, 754, 755, 756, 
757, 758, 759, 760, 761, 762, 763, 764, 765, 766, 
767, 768, 769, 770, 771, 772, 773, 774, 775, 776, 
777, 778, 779, 780, 781, 782, 783, 784, 785, 786, 
787, 788, 789, 790, 791, 792, 793, 794, 795, 796, 
797, 798, 799, 800, 801, 802, 803, 804, 805, 806, 
807, 808, 809, 810, 811, 812, 813, 814, 815, 816, 
817, 818, 819, 820, 821, 822, 823, 824, 825, 826, 
827, 828, 829, 830, 831, 832, 833, 834, 835, 836, 
837, 838, 839, 840, 841, 842, 843, 844, 845, 846, 
847, 848, 849, 850, 851, 852, 853, 854, 855, 856, 
857, 858, 859, 860, 861, 862, 863, 864, 865, 866, 
867, 868, 869, 870, 871, 872, 873, 874, 875, 876, 
877, 878, 879, 880, 881, 882, 883, 884, 885, 886, 
887, 888, 889, 890, 891, 892, 893, 894, 895, 896, 
897, 898, 899, 900, 901, 902, 903, 904, 905, 906, 
907, 908, 909, 910, 911, 912, 913, 914, 915, 916, 
917, 918, 919, 920, 921, 922, 923, 924, 925, 926, 
927, 928, 929, 930, 931, 932, 933, 934, 935, 936, 
937, 938, 939, 940, 941, 942, 943, 944, 945, 946, 
947, 948, 949, 950, 951, 952, 953, 954, 955, 956, 
957, 958, 959, 960, 961, 962, 963, 964, 965, 966, 
967, 968, 969, 970, 971, 972, 973, 974, 975, 976, 
977, 978, 979, 980, 981, 982, 983, 984, 985, 986, 
987, 988, 989, 990, 991, 992, 993, 
*NSET,NSET=contact_source
1, 8, 103, 104, 105, 106, 107, 108, 109, 110, 
111, 112, 113, 114, 115, 116, 117, 118, 119, 120, 
121, 122, 123, 
*NSET,NSET=contact_drain
4, 5, 45, 46, 47, 48, 49, 50, 51, 52, 
53, 54, 55, 56, 57, 58, 59, 60, 61, 62, 
63, 64, 65, 
*NSET,NSET=probe_A
6, 7, 81, 82, 83, 84, 85, 86, 87, 
*NSET,NSET=probe_B
2, 3, 25, 26, 27, 28, 29, 
*NSET,NSET=walls
1, 2, 3, 4, 5, 6, 7, 8, 9, 10, 
11, 12, 13, 14, 15, 16, 17, 18, 19, 20, 
21, 22, 23, 24, 30, 31, 32, 33, 34, 35, 
36, 37, 38, 39, 40, 41, 42, 43, 44, 66, 
67, 68, 69, 70, 71, 72, 73, 74, 75, 76, 
77, 78, 79, 80, 88, 89, 90, 91, 92, 93, 
94, 95, 96, 97, 98, 99, 100, 101, 102, 124, 
125, 126, 127, 128, 129, 130, 131, 132, 133, 134, 
135, 136, 137, 138, 139, 140, 141, 142, 143, 144, 
145, 146, 
*NSET,NSET=domain
1, 2, 3, 4, 5, 6, 7, 8, 9, 10, 
11, 12, 13, 14, 15, 16, 17, 18, 19, 20, 
21, 22, 23, 24, 25, 26, 27, 28, 29, 30, 
31, 32, 33, 34, 35, 36, 37, 38, 39, 40, 
41, 42, 43, 44, 45, 46, 47, 48, 49, 50, 
51, 52, 53, 54, 55, 56, 57, 58, 59, 60, 
61, 62, 63, 64, 65, 66, 67, 68, 69, 70, 
71, 72, 73, 74, 75, 76, 77, 78, 79, 80, 
81, 82, 83, 84, 85, 86, 87, 88, 89, 90, 
91, 92, 93, 94, 95, 96, 97, 98, 99, 100, 
101, 102, 103, 104, 105, 106, 107, 108, 109, 110, 
111, 112, 113, 114, 115, 116, 117, 118, 119, 120, 
121, 122, 123, 124, 125, 126, 127, 128, 129, 130, 
131, 132, 133, 134, 135, 136, 137, 138, 139, 140, 
141, 142, 143, 144, 145, 146, 147, 148, 149, 150, 
151, 152, 153, 154, 155, 156, 157, 158, 159, 160, 
161, 162, 163, 164, 165, 166, 167, 168, 169, 170, 
171, 172, 173, 174, 175, 176, 177, 178, 179, 180, 
181, 182, 183, 184, 185, 186, 187, 188, 189, 190, 
191, 192, 193, 194, 195, 196, 197, 198, 199, 200, 
201, 202, 203, 204, 205, 206, 207, 208, 209, 210, 
211, 212, 213, 214, 215, 216, 217, 218, 219, 220, 
221, 222, 223, 224, 225, 226, 227, 228, 229, 230, 
231, 232, 233, 234, 235, 236, 237, 238, 239, 240, 
241, 242, 243, 244, 245, 246, 247, 248, 249, 250, 
251, 252, 253, 254, 255, 256, 257, 258, 259, 260, 
261, 262, 263, 264, 265, 266, 267, 268, 269, 270, 
271, 272, 273, 274, 275, 276, 277, 278, 279, 280, 
281, 282, 283, 284, 285, 286, 287, 288, 289, 290, 
291, 292, 293, 294, 295, 296, 297, 298, 299, 300, 
301, 302, 303, 304, 305, 306, 307, 308, 309, 310, 
311, 312, 313, 314, 315, 316, 317, 318, 319, 320, 
321, 322, 323, 324, 325, 326, 327, 328, 329, 330, 
331, 332, 333, 334, 335, 336, 337, 338, 339, 340, 
341, 342, 343, 344, 345, 346, 347, 348, 349, 350, 
351, 352, 353, 354, 355, 356, 357, 358, 359, 360, 
361, 362, 363, 364, 365, 366, 367, 368, 369, 370, 
371, 372, 373, 374, 375, 376, 377, 378, 379, 380, 
381, 382, 383, 384, 385, 386, 387, 388, 389, 390, 
391, 392, 393, 394, 395, 396, 397, 398, 399, 400, 
401, 402, 403, 404, 405, 406, 407, 408, 409, 410, 
411, 412, 413, 414, 415, 416, 417, 418, 419, 420, 
421, 422, 423, 424, 425, 426, 427, 428, 429, 430, 
431, 432, 433, 434, 435, 436, 437, 438, 439, 440, 
441, 442, 443, 444, 445, 446, 447, 448, 449, 450, 
451, 452, 453, 454, 455, 456, 457, 458, 459, 460, 
461, 462, 463, 464, 465, 466, 467, 468, 469, 470, 
471, 472, 473, 474, 475, 476, 477, 478, 479, 480, 
481, 482, 483, 484, 485, 486, 487, 488, 489, 490, 
491, 492, 493, 494, 495, 496, 497, 498, 499, 500, 
501, 502, 503, 504, 505, 506, 507, 508, 509, 510, 
511, 512, 513, 514, 515, 516, 517, 518, 519, 520, 
521, 522, 523, 524, 525, 526, 527, 528, 529, 530, 
531, 532, 533, 534, 535, 536, 537, 538, 539, 540, 
541, 542, 543, 544, 545, 546, 547, 548, 549, 550, 
551, 552, 553, 554, 555, 556, 557, 558, 559, 560, 
561, 562, 563, 564, 565, 566, 567, 568, 569, 570, 
571, 572, 573, 574, 575, 576, 577, 578, 579, 580, 
581, 582, 583, 584, 585, 586, 587, 588, 589, 590, 
591, 592, 593, 594, 595, 596, 597, 598, 599, 600, 
601, 602, 603, 604, 605, 606, 607, 608, 609, 610, 
611, 612, 613, 614, 615, 616, 617, 618, 619, 620, 
621, 622, 623, 624, 625, 626, 627, 628, 629, 630, 
631, 632, 633, 634, 635, 636, 637, 638, 639, 640, 
641, 642, 643, 644, 645, 646, 647, 648, 649, 650, 
651, 652, 653, 654, 655, 656, 657, 658, 659, 660, 
661, 662, 663, 664, 665, 666, 667, 668, 669, 670, 
671, 672, 673, 674, 675, 676, 677, 678, 679, 680, 
681, 682, 683, 684, 685, 686, 687, 688, 689, 690, 
691, 692, 693, 694, 695, 696, 697, 698, 699, 700, 
701, 702, 703, 704, 705, 706, 707, 708, 709, 710, 
711, 712, 713, 714, 715, 716, 717, 718, 719, 720, 
721, 722, 723, 724, 725, 726, 727, 728, 729, 730, 
731, 732, 733, 734, 735, 736, 737, 738, 739, 740, 
741, 742, 743, 744, 745, 746, 747, 748, 749, 750, 
751, 752, 753, 754, 755, 756, 757, 758, 759, 760, 
761, 762, 763, 764, 765, 766, 767, 768, 769, 770, 
771, 772, 773, 774, 775, 776, 777, 778, 779, 780, 
781, 782, 783, 784, 785, 786, 787, 788, 789, 790, 
791, 792, 793, 794, 795, 796, 797, 798, 799, 800, 
801, 802, 803, 804, 805, 806, 807, 808, 809, 810, 
811, 812, 813, 814, 815, 816, 817, 818, 819, 820, 
821, 822, 823, 824, 825, 826, 827, 828, 829, 830, 
831, 832, 833, 834, 835, 836, 837, 838, 839, 840, 
841, 842, 843, 844, 845, 846, 847, 848, 849, 850, 
851, 852, 853, 854, 855, 856, 857, 858, 859, 860, 
861, 862, 863, 864, 865, 866, 867, 868, 869, 870, 
871, 872, 873, 874, 875, 876, 877, 878, 879, 880, 
881, 882, 883, 884, 885, 886, 887, 888, 889, 890, 
891, 892, 893, 894, 895, 896, 897, 898, 899, 900, 
901, 902, 903, 904, 905, 906, 907, 908, 909, 910, 
911, 912, 913, 914, 915, 916, 917, 918, 919, 920, 
