*Heading
 /Users/juliagao/geometry-optimization-net/scripts/../runs/2d/shape_18.inp
*NODE
1, 0, -0.3, 0
2, 0.425, -0.3, 0
3, 0.575, -0.3, 0
4, 1, -0.3, 0
5, 1, 0.3, 0
6, 0.575, 0.3, 0
7, 0.425, 0.3, 0
8, 0, 0.3, 0
9, 0.5992626582, -0.0596006965, 0
10, 0.026372089946167, -0.3, 0
11, 0.07954802701099, -0.3, 0
12, 0.13343262496486, -0.3, 0
13, 0.18746412102886, -0.3, 0
14, 0.24121078444359, -0.3, 0
15, 0.29493467281945, -0.3, 0
16, 0.34851473325999, -0.3, 0
17, 0.4000834117553, -0.3, 0
18, 0.052744179892334, -0.3, 0
19, 0.10635187412965, -0.3, 0
20, 0.16051337580007, -0.3, 0
21, 0.21441486625766, -0.3, 0
22, 0.26800670262951, -0.3, 0
23, 0.32186264300938, -0.3, 0
24, 0.37516682351061, -0.3, 0
25, 0.44338609096334, -0.3, 0
26, 0.48014966612049, -0.3, 0
27, 0.5172300861125, -0.3, 0
28, 0.55546651095536, -0.3, 0
29, 0.46177218192668, -0.3, 0
30, 0.49852715031429, -0.3, 0
31, 0.53593302191071, -0.3, 0
32, 0.60163611409626, -0.3, 0
33, 0.65521971947084, -0.3, 0
34, 0.70862226398371, -0.3, 0
35, 0.76160672466324, -0.3, 0
36, 0.81481944831393, -0.3, 0
37, 0.86829325897335, -0.3, 0
38, 0.92151448492072, -0.3, 0
39, 0.9739726082072, -0.3, 0
40, 0.62827222819252, -0.3, 0
41, 0.68216721074916, -0.3, 0
42, 0.73507731721827, -0.3, 0
43, 0.78813613210821, -0.3, 0
44, 0.84150276451966, -0.3, 0
45, 0.89508375342704, -0.3, 0
46, 0.94794521641441, -0.3, 0
47, 1, -0.27355397756786, 0
48, 1, -0.2201374341451, 0
49, 1, -0.16581662232249, 0
50, 1, -0.11095869775114, 0
51, 1, -0.056393963544903, 0
52, 1, -0.0022125737771775, 0
53, 1, 0.053260157974979, 0
54, 1, 0.11035093620206, 0
55, 1, 0.16661387972687, 0
56, 1, 0.22088664773026, 0
57, 1, 0.27381940399231, 0
58, 1, -0.24710795513572, 0
59, 1, -0.19316691315448, 0
60, 1, -0.1384663314905, 0
61, 1, -0.083451064011772, 0
62, 1, -0.029336863078033, 0
63, 1, 0.024911715523678, 0
64, 1, 0.081608600426279, 0
65, 1, 0.13909327197785, 0
66, 1, 0.1941344874759, 0
67, 1, 0.24763880798463, 0
68, 0.97386970249608, 0.3, 0
69, 0.92123646620744, 0.3, 0
70, 0.86775102426049, 0.3, 0
71, 0.81381354393138, 0.3, 0
72, 0.75929906614486, 0.3, 0
73, 0.70413155880907, 0.3, 0
74, 0.65047188495856, 0.3, 0
75, 0.5997101089121, 0.3, 0
76, 0.94773940499216, 0.3, 0
77, 0.89473352742271, 0.3, 0
78, 0.84076852109827, 0.3, 0
79, 0.78685856676449, 0.3, 0
80, 0.73173956552522, 0.3, 0
81, 0.67652355209292, 0.3, 0
82, 0.6244202178242, 0.3, 0
83, 0.55028770566096, 0.3, 0
84, 0.50060024693119, 0.3, 0
85, 0.45031254127023, 0.3, 0
86, 0.52557541132193, 0.3, 0
87, 0.47562508254045, 0.3, 0
88, 0.3994971625755, 0.3, 0
89, 0.34736866665235, 0.3, 0
90, 0.2931733898313, 0.3, 0
91, 0.23841130759989, 0.3, 0
92, 0.18445146994982, 0.3, 0
93, 0.13090888832756, 0.3, 0
94, 0.077945817941337, 0.3, 0
95, 0.025878977718157, 0.3, 0
96, 0.373994325151, 0.3, 0
97, 0.3207430081537, 0.3, 0
98, 0.2656037715089, 0.3, 0
99, 0.21121884369089, 0.3, 0
100, 0.15768409620876, 0.3, 0
101, 0.10413368044636, 0.3, 0
102, 0.051757955436313, 0.3, 0
103, 0, 0.27383674045141, 0
104, 0, 0.22096477396488, 0
105, 0, 0.16666630090713, 0
106, 0, 0.11029963872241, 0
107, 0, 0.053271626256516, 0
108, 0, -0.002112875900982, 0
109, 0, -0.056388635938914, 0
110, 0, -0.11109965202845, 0
111, 0, -0.16604645468643, 0
112, 0, -0.22033727817444, 0
113, 0, -0.27362497040629, 0
114, 0, 0.24767348090281, 0
115, 0, 0.19425606702695, 0
116, 0, 0.13907653478731, 0
117, 0, 0.081522742657512, 0
118, 0, 0.025020509855521, 0
119, 0, -0.029246261657485, 0
120, 0, -0.083531010220343, 0
121, 0, -0.13866829383655, 0
122, 0, -0.19342461553631, 0
123, 0, -0.24724994081257, 0
124, 0.59494597191085, -0.030646636133388, 0
125, 0.56305601684471, 0.017060988411861, 0
126, 0.51147231841745, 0.03899677413823, 0
127, 0.45654586053052, 0.029645104292885, 0
128, 0.41476194519631, -0.0087327375882358, 0
129, 0.40085484862952, -0.064429175792095, 0
130, 0.41970786995268, -0.11796377701908, 0
131, 0.46264598490291, -0.15156673814658, 0
132, 0.51510034467592, -0.15770806050777, 0
133, 0.56404203348358, -0.13544061487173, 0
134, 0.59498967597115, -0.088411053199362, 0
135, 0.58237135868358, -0.0042108547151047, 0
136, 0.53845731129675, 0.031909469607717, 0
137, 0.48358098285753, 0.03829461051558, 0
138, 0.43306409618972, 0.013697735044213, 0
139, 0.4037100767418, -0.035489994841112, 0
140, 0.40650863449263, -0.092953954325805, 0
141, 0.43942390416522, -0.13823664153379, 0
142, 0.48858611753343, -0.158204948893, 0
143, 0.54053680575191, -0.15020887823103, 0
144, 0.58253861156162, -0.11474099849759, 0
145, 0.41665927236716, -0.24994380640485, 0
146, 0.5836231180966, -0.25181292894936, 0
147, 0.42099264292295, 0.25066774413627, 0
148, 0.10654729535484, -0.24721575490205, 0
149, 0.053177468123889, -0.24690238036318, 0
150, 0.23985720695796, -0.17570641544851, 0
151, 0.15990423632095, -0.24807700016801, 0
152, 0.24130363271871, -0.059219526641639, 0
153, 0.46171395968819, -0.25565507950368, 0
154, 0.49811798555071, -0.25666730321416, 0
155, 0.26195904636839, -0.22695242526313, 0
156, 0.35110148999283, -0.11629260107801, 0
157, 0.57239563972866, 0.24452704642123, 0
158, 0.68557581584403, 0.051663794217328, 0
159, 0.53904692056686, -0.25329528471731, 0
160, 0.63058038816897, -0.25051539900496, 0
161, 0.6804050836182, -0.24741118674208, 0
162, 0.73276475672422, -0.24523534861645, 0
163, 0.7861637521655, -0.24451900555636, 0
164, 0.8398519352557, -0.24459721389162, 0
165, 0.21223637023561, 0.19311943434962, 0
166, 0.26549609133408, 0.19454250549793, 0
167, 0.2659553687238, 0.14075111586339, 0
168, 0.21266343781838, 0.13880372543404, 0
169, 0.10614189891762, 0.13745485770674, 0
170, 0.15936165532488, 0.13779432434382, 0
171, 0.053033121837296, 0.13772805701888, 0
172, 0.15892148847202, 0.19237661223759, 0
173, 0.10575648313327, 0.19221388590683, 0
174, 0.052808343968825, 0.1926939879441, 0
175, 0.052443430824192, 0.24666672889494, 0
176, 0.10519040388329, 0.24631581944185, 0
177, 0.15838302844668, 0.24635617156925, 0
178, 0.21184783382845, 0.24673396725339, 0
179, 0.26546012855348, 0.24746500562454, 0
180, 0.31878233585094, 0.24854940684933, 0
181, 0.36983059745871, 0.19975207273653, 0
182, 0.37082234924989, 0.24981631388269, 0
183, 0.46993106132798, 0.24989765849627, 0
184, 0.4187102082632, 0.20281607810745, 0
185, 0.46371631872704, 0.2028009237173, 0
186, 0.42135475831086, 0.15662260706031, 0
187, 0.31830156335688, 0.19677286722967, 0
188, 0.3713337555906, 0.14911750448911, 0
189, 0.31902860592755, 0.14406108702913, 0
190, 0.32039249987851, 0.089365037939908, 0
191, 0.37408083351832, 0.096426040898554, 0
192, 0.43462265084078, 0.098548009209922, 0
193, 0.38447265946743, 0.037899934013698, 0
194, 0.266942839939, 0.028366746106114, 0
195, 0.32105960014527, 0.030866416642965, 0
196, 0.2131115718359, 0.083506429707307, 0
197, 0.15972931436322, 0.08251449445725, 0
198, 0.266605130419, 0.085505664032578, 0
199, 0.16006319226405, 0.026624455989274, 0
200, 0.21349960983979, 0.02715236050462, 0
201, 0.053187326111933, 0.08188965253345, 0
202, 0.10642508277453, 0.082074416614619, 0
203, 0.05330596434655, 0.026093837795237, 0
204, 0.106653044789, 0.026393085162471, 0
205, 0.053321886449678, -0.19327370363525, 0
206, 0.15997977846201, -0.19550196179587, 0
207, 0.34348426756911, -0.17106967731823, 0
208, 0.26693754577984, -0.00078072266295344, 0
209, 0.18682860176547, -0.27439828598743, 0
210, 0.10669353510246, -0.19392405832062, 0
211, 0.10689229139782, -0.13975240126936, 0
212, 0.16057976355974, -0.14145996627602, 0
213, 0.053406590520334, -0.13894173041399, 0
214, 0.053390190540354, -0.029143571288283, 0
215, 0.10684338365104, -0.029274822536428, 0
216, 0.053431263485868, -0.084116373845203, 0
217, 0.1069575888113, -0.084750243576543, 0
218, 0.21399853759184, -0.029994508703006, 0
219, 0.16039322621726, -0.029608400254834, 0
220, 0.1606946652727, -0.085847435265202, 0
221, 0.21365282767892, -0.17239297479851, 0
222, 0.48187656586691, -0.21158548640811, 0
223, 0.31325363744417, -0.25043244886253, 0
224, 0.36738304053964, -0.08917996834109, 0
225, 0.38322588959688, -0.13996721933747, 0
226, 0.41325387795183, -0.18927127428352, 0
227, 0.34536709815536, -0.088735657305563, 0
228, 0.26958883683854, -0.089334490881835, 0
229, 0.31906846216381, -0.17481636417762, 0
230, 0.18637400789904, -0.24872849117092, 0
231, 0.31950950924808, 0.00023818371291949, 0
232, 0.79313087736407, 0.19416541392755, 0
233, 0.74053545063133, 0.19211466268624, 0
234, 0.69804746275687, 0.0029940060442228, 0
235, 0.84646436959829, 0.14390826237402, 0
236, 0.79764351132278, 0.14293263928313, 0
237, 0.94784024898906, 0.14026772789203, 0
238, 0.89637856132567, 0.14228911529343, 0
239, 0.89608502806207, 0.19467030871067, 0
240, 0.84463536708472, 0.19497866879718, 0
241, 0.94791539801369, 0.19406821678871, 0
242, 0.94771468013595, 0.24722916316961, 0
243, 0.8426072286503, 0.24725698327578, 0
244, 0.89527622829178, 0.24728831306283, 0
245, 0.73578784981047, 0.24586143719957, 0
246, 0.78958833365095, 0.24679753520615, 0
247, 0.68601136836649, 0.18931646124267, 0
248, 0.68126712205494, 0.2447215086717, 0
249, 0.62858502714146, 0.18654781751349, 0
250, 0.6266229958829, 0.24395723459829, 0
251, 0.51983495142026, 0.24708112276376, 0
252, 0.56752590630579, 0.18647370045805, 0
253, 0.51060306124228, 0.19450604824763, 0
254, 0.57700684818578, 0.083381439880405, 0
255, 0.63518554714746, 0.12756787318, 0
256, 0.66080241075961, 0.15944297377588, 0
257, 0.65142791311039, 0.072371770187891, 0
258, 0.75619167991431, 0.087883938368448, 0
259, 0.56314854277435, 0.15419452505432, 0
260, 0.56668728425342, 0.046381903432322, 0
261, 0.70473020017296, 0.081218259048063, 0
262, 0.72533462132084, -0.019588053514196, 0
263, 0.8041762561599, 0.094592276322124, 0
264, 0.84623587721856, 0.095456788173789, 0
265, 0.82842945168028, 0.047030975623883, 0
266, 0.71678801380298, 0.16373071612888, 0
267, 0.9470721321643, 0.085630293719996, 0
268, 0.89490017584529, 0.089984999757402, 0
269, 0.89081616989074, 0.035773158927538, 0
270, 0.94580602021284, 0.030271224407091, 0
271, 0.89028486200075, -0.078058339352947, 0
272, 0.94530191797946, -0.080808859414772, 0
273, 0.94520321554276, -0.025346740670683, 0
274, 0.88969192176858, -0.021390818931936, 0
275, 0.77328390745836, 0.0090015968487757, 0
276, 0.83492655560391, -0.075755381648049, 0
277, 0.63469854704492, -0.012878418425759, 0
278, 0.83266573199429, -0.018142861301267, 0
279, 0.67140796177916, 0.10378241651798, 0
280, 0.80609510507097, -0.046531271640833, 0
281, 0.67571194553399, -0.00021177130322444, 0
282, 0.69583786034901, -0.12657188660194, 0
283, 0.58886280855048, -0.2035427405595, 0
284, 0.56547568571536, -0.20085993357206, 0
285, 0.78004721173464, -0.07396872837243, 0
286, 0.62885226596419, -0.20317805895619, 0
287, 0.67579636415705, -0.19316287710784, 0
288, 0.838153688129, -0.18878199093697, 0
289, 0.89229539194727, -0.18982445446488, 0
290, 0.94569749470946, -0.13617465961676, 0
291, 0.89121724646807, -0.13414846664766, 0
292, 0.83653989249316, -0.13243288029764, 0
293, 0.7816723000331, -0.13089104548774, 0
294, 0.78702826791325, 0.066358466180282, 0
295, 0.78385932269952, -0.18823603490746, 0
296, 0.72940531743072, -0.18882699100839, 0
297, 0.89352183105115, -0.24507411916644, 0
298, 0.94623413945974, -0.19125032056704, 0
299, 0.94691221973132, -0.24584601907105, 0
300, 0.40667333909086, -0.13687540886566, 0
301, 0.4306309718767, -0.16475633257623, 0
302, 0.39275024849644, -0.16343855572442, 0
303, 0.38644446533405, -0.22174569720092, 0
304, 0.24223827236441, -0.088570531054781, 0
305, 0.26351478819601, -0.25095151934002, 0
306, 0.62374986925269, 0.066095475709685, 0
307, 0.623561903654, 0.010006745514865, 0
308, 0.66038775807674, 0.046920972231356, 0
309, 0.34984631231468, 0.033167414542496, 0
310, 0.23959918651926, -0.27513103484184, 0
311, 0.26715635954132, -0.030086892210726, 0
312, 0.60900333105776, -0.20615134977177, 0
313, 0.62441214895456, -0.18197788249784, 0
314, 0.46135240407776, 0.071386081690014, 0
315, 0.46750850237878, 0.12140419672426, 0
316, 0.75234189744086, -0.045585373525918, 0
317, 0.80828003661423, -0.10322578537037, 0
318, 0.77667872137629, -0.018505579332045, 0
319, 0.71684105888046, 0.030243190970579, 0
320, 0.75125072724679, 0.11343513695552, 0
321, 0.83095497765712, 0.012258318632793, 0
322, 0.74705060289486, 0.13930167426482, 0
323, 0.29331981898926, -0.00028719735440483, 0
324, 0.27230526079503, -0.12027067109865, 0
325, 0.35231473775244, -0.1966783028241, 0
326, 0.82513151711443, 0.097515181991634, 0
327, 0.84284211577251, 0.072384830024116, 0
328, 0.81019908486416, 0.07178658640498, 0
329, 0.59511722971172, 0.057789235903857, 0
330, 0.45186945346238, 0.14311080097551, 0
331, 0.53002380924342, 0.16017933543861, 0
332, 0.76194160404482, 0.062348151361739, 0
333, 0.76830907441673, 0.036188944089014, 0
334, 0.68093286477286, -0.021383220024974, 0
335, 0.40058464352405, 0.10027173774479, 0
336, 0.41456200481265, 0.064351804911723, 0
337, 0.37577441738329, 0.069656940591924, 0
338, 0.48005714318588, -0.25817623214406, 0
339, 0.46573015806258, -0.23408654023897, 0
340, 0.49532109253423, -0.235593541511, 0
341, 0.60977682038381, -0.18963029280435, 0
342, 0.5954058318351, -0.18055218295362, 0
343, 0.57263568554646, -0.16673105239971, 0
344, 0.1064883913596, -0.27364152788562, 0
345, 0.13325986386975, -0.24757341531926, 0
346, 0.16014190431649, -0.27407546517034, 0
347, 0.13332990760308, -0.2738229923694, 0
348, 0.84069279106872, -0.27232881401979, 0
349, 0.86670509618817, -0.24479814681946, 0
350, 0.89423113999089, -0.27256260923395, 0
351, 0.86748102275754, -0.27242483979279, 0
352, 0.81616647648609, 0.247092059905, 0
353, 0.78810310270053, 0.27336299543966, 0
354, 0.84166675546894, 0.27360156800731, 0
355, 0.81494207817679, 0.27351256594309, 0
356, 0.26795670671166, -0.059535727399982, 0
357, 0.21255285538411, -0.24950810714313, 0
358, 0.36836737959159, -0.16768773749678, 0
359, 0.053427387922194, -0.11156568499082, 0
360, 0.026697936175214, -0.13874684390659, 0
361, 0.026709621028318, -0.083868649359417, 0
362, 0.026708894844542, -0.11132087231259, 0
363, 0.18509301956413, 0.24650254993728, 0
364, 0.15805554076107, 0.27319630157733, 0
365, 0.21160374908869, 0.27338670817151, 0
366, 0.18479891978083, 0.27326998823151, 0
367, 0.81299426562335, -0.24449246724568, 0
368, 0.787200785596, -0.27231068504909, 0
369, 0.8139296500447, -0.27228440716726, 0
370, 0.57385879254348, 0.27237700581924, 0
371, 0.54579381731412, 0.24560152606554, 0
372, 0.52286086072591, 0.27350092451765, 0
373, 0.54823481637463, 0.27285514232656, 0
374, 0.30371076763427, -0.20262505534437, 0
375, 0.36958963381878, -0.27458936233753, 0
376, 0.30052652168374, -0.11909011702183, 0
377, 0.86896958830295, 0.24731018655961, 0
378, 0.89491928958953, 0.27363972808315, 0
379, 0.86833020971422, 0.27363830246491, 0
380, 0.97286454923916, -0.13728497695609, 0
381, 0.9454772493222, -0.10851117256635, 0
382, 0.97267367540856, -0.08219650876688, 0
383, 0.97275612554745, -0.10973992467039, 0
384, 0.75940029638868, -0.24473798698828, 0
385, 0.73400205777667, -0.27270065007631, 0
386, 0.76055683763217, -0.27243663788777, 0
387, 0.68138786842969, -0.27376079226397, 0
388, 0.70637199595048, -0.2461100800946, 0
389, 0.70759699288056, -0.27313917662544, 0
390, 0.2939930734661, -0.059598552962068, 0
391, 0.21222482449234, -0.22417306168785, 0
392, 0.23829332835608, -0.25032100832866, 0
393, 0.13172794103813, 0.24629346074113, 0
394, 0.10477327401772, 0.27318788264701, 0
395, 0.13136678149105, 0.27316732607636, 0
396, 0.94595172206227, -0.16376147708259, 0
397, 0.97313298681371, -0.19212453292296, 0
398, 0.97299061981221, -0.16474929431908, 0
399, 0.29221302381572, 0.24796798668502, 0
400, 0.26555625691608, 0.27375597843029, 0
401, 0.31953598920629, 0.27429680138992, 0
402, 0.2926158955271, 0.27400827201061, 0
403, 0.49459216552432, 0.24863961944038, 0
404, 0.47276255802139, 0.2747838574229, 0
405, 0.4977068220963, 0.27419637314068, 0
406, 0.053370687235378, -0.16618810339942, 0
407, 0.026656045520105, -0.1932336755552, 0
408, 0.026681273603623, -0.16605518345585, 0
409, 0.052164544217084, 0.27337971919222, 0
410, 0.02619841831747, 0.24705439412419, 0
411, 0.026058470619679, 0.27357535121912, 0
412, 0.4986931641176, -0.27811926513432, 0
413, 0.46109360449873, -0.27765965911197, 0
414, 0.47998650522831, -0.27842654375666, 0
415, 0.62980399378244, -0.27519717898713, 0
416, 0.65508369512055, -0.24901456400361, 0
417, 0.65538432474185, -0.27450289784205, 0
418, 0.94519561250792, -0.053097133472771, 0
419, 0.9726398838631, -0.027336717347858, 0
420, 0.9726280534292, -0.054766314669674, 0
421, 0.053418758389345, -0.056647501480027, 0
422, 0.026690544275284, -0.029172038842541, 0
423, 0.026704046736408, -0.056518034773792, 0
424, 0.053117181127784, 0.10986346227671, 0
425, 0.026591025053384, 0.081778682036497, 0
426, 0.026511042109121, 0.13818604481501, 0
427, 0.026554853487175, 0.11003287128924, 0
428, 0.44551205632332, 0.25057241828089, 0
429, 0.42285789471402, 0.27523817821842, 0
430, 0.44784304620539, 0.27514086247441, 0
431, 0.94735166543067, -0.27295655722638, 0
432, 0.97348096992911, -0.2463790886742, 0
433, 0.9737055152676, -0.27322555112795, 0
434, 0.079844409801953, -0.24699407046838, 0
435, 0.053035734860586, -0.27348746191617, 0
436, 0.079728663496452, -0.27353012340325, 0
437, 0.97394074446357, 0.19394362304718, 0
438, 0.94782083654194, 0.2207096646464, 0
439, 0.97386586168491, 0.24732215223688, 0
440, 0.97390619590207, 0.22071767580081, 0
441, 0.92025776495814, -0.24542084585027, 0
442, 0.92083975350208, -0.27273851010811, 0
443, 0.026649921131315, 0.025746214838713, 0
444, 0.053352615514688, -0.001580142240309, 0
445, 0.026673458108079, -0.0017827623622859, 0
446, 0.4194898446516, -0.27542556700051, 0
447, 0.44057723152622, -0.25257619160088, 0
448, 0.44114198136394, -0.27651164658405, 0
449, 0.026573374122891, -0.24696212561808, 0
450, 0.026494954760356, -0.27351891866305, 0
451, 0.078770111639653, 0.24643277667629, 0
452, 0.078409944106701, 0.27325495045243, 0
453, 0.97349648633452, 0.08366697389981, 0
454, 0.94755692207947, 0.11304323161943, 0
455, 0.97387928382529, 0.1394797584039, 0
456, 0.97373132924546, 0.11165630514024, 0
457, 0.94538777360535, 0.0024522547541691, 0
458, 0.97292562817242, 0.027753788653349, 0
459, 0.97273207941319, 0.00015028137542583, 0
460, 0.76279494950354, 0.24637885207024, 0
461, 0.73373861725485, 0.27290222608304, 0
462, 0.76099354123428, 0.27315490356371, 0
463, 0.23865300914488, 0.24705404659407, 0
464, 0.23855520953693, 0.27354874008053, 0
465, 0.62576014615084, 0.27206417951705, 0
466, 0.59941346775177, 0.24400344233044, 0
467, 0.59969457807425, 0.27211950354481, 0
468, 0.70859192301412, 0.24528728908845, 0
469, 0.67912449834842, 0.2723674918138, 0
470, 0.706403672255, 0.2726276284216, 0
471, 0.51793581168144, -0.25481918236366, 0
472, 0.5379235885674, -0.27680998612118, 0
473, 0.51797531396094, -0.27746077034602, 0
474, 0.94765723572817, 0.27363928438086, 0
475, 0.97384690345643, 0.27369586697212, 0
476, 0.86524673194055, -0.18925314365299, 0
477, 0.89288422761249, -0.21750154837733, 0
478, 0.83900082410547, -0.21675829802599, 0
479, 0.86596146289119, -0.21708206434269, 0
480, 0.34500838819302, 0.24918468816801, 0
481, 0.37211557506681, 0.27489817658454, 0
482, 0.34600441504594, 0.27460348377033, 0
483, 0.947941681489, 0.16725531155374, 0
484, 0.9739414587548, 0.16683025360561, 0
485, 0.23757436650117, -0.22562007729735, 0
486, 0.21255404640209, -0.19859135385126, 0
487, 0.18783592361364, -0.11493101201181, 0
488, 0.39613262011619, 0.25035701852219, 0
489, 0.39764655428893, 0.27513109112453, 0
490, 0.053250630445623, 0.053943071419239, 0
491, 0.026622875774128, 0.053682245625142, 0
492, 0.94645091137985, 0.058057775388473, 0
493, 0.97321361390322, 0.055700606394345, 0
494, 0.052933244221389, 0.16533598118678, 0
495, 0.026392031567803, 0.19328156791985, 0
496, 0.02645845976895, 0.16587216858151, 0
497, 0.8110254451557, -0.18842868986546, 0
498, 0.78503878648341, -0.21652124194437, 0
499, 0.8120180301936, -0.21655595069193, 0
500, 0.60684252599071, -0.25146547207771, 0
501, 0.58062569830131, -0.27596955312493, 0
502, 0.60482016246007, -0.27567829200381, 0
503, 0.080175716024428, -0.08439061494605, 0
504, 0.10695154177029, -0.11233553769281, 0
505, 0.080135781315848, -0.13926608058082, 0
506, 0.08017308532563, -0.11189068689013, 0
507, 0.65394120984298, 0.24424281942305, 0
508, 0.65231257539135, 0.27216474812947, 0
509, 0.21204418777273, 0.21999333783677, 0
510, 0.1855735854682, 0.19267053680283, 0
511, 0.15865971533915, 0.21943164411078, 0
512, 0.18534267485624, 0.21965011466037, 0
513, 0.32162086462099, -0.088857895933926, 0
514, 0.18762793406744, -0.1428937046649, 0
515, 0.35920816385709, -0.22282258532498, 0
516, 0.18644642228326, -0.19681116647133, 0
517, 0.31898111036797, -0.059647297059111, 0
518, 0.81895118755225, 0.19474506751758, 0
519, 0.79125930176325, 0.2203700687076, 0
520, 0.84360546944466, 0.22102457650477, 0
521, 0.81750348106565, 0.22080667177317, 0
522, 0.91784492300788, -0.079408157739145, 0
523, 0.91848568727234, -0.13512581123005, 0
524, 0.89073037618027, -0.10615752623295, 0
525, 0.91814041607395, -0.10730516921677, 0
526, 0.053261074261518, -0.22017015899726, 0
527, 0.026622193879519, -0.2201759946975, 0
528, 0.92151788236581, 0.24724173356095, 0
529, 0.92133248264326, 0.27363052435649, 0
530, 0.052649531946081, 0.21978323071078, 0
531, 0.026306855000196, 0.22027657787923, 0
532, 0.94655077177874, -0.21860928824069, 0
533, 0.97329416657659, -0.21931624835634, 0
534, 0.56102983083929, -0.25226734475435, 0
535, 0.55872940624398, -0.2763014115383, 0
536, 0.48616620827336, 0.19934503608911, 0
537, 0.46694489006315, 0.22568935781747, 0
538, 0.51599793368691, 0.2207287530248, 0
539, 0.49090752278416, 0.2235476682109, 0
540, 0.15984219234592, -0.22192037174148, 0
541, 0.31747426568118, -0.27512283956995, 0
542, 0.39081775098675, -0.24882071087689, 0
543, 0.33865719468611, -0.24957586001361, 0
544, 0.30883747472228, -0.22614789229958, 0
545, 0.32668724762167, -0.11749295093485, 0
546, 0.67872787362867, -0.22072670066621, 0
547, 0.70228381675071, -0.19022569287085, 0
548, 0.73124878975636, -0.21737681111927, 0
549, 0.70468283485659, -0.21863380217657, 0
550, 0.57039015948616, 0.21610138577522, 0
551, 0.53777423506147, 0.18972072709786, 0
552, 0.54254461760159, 0.21801053862217, 0
553, 0.80914029525146, -0.13167047109793, 0
554, 0.83733116829294, -0.16066391174402, 0
555, 0.78269564630771, -0.15965277548678, 0
556, 0.81005135972174, -0.16011216050398, 0
557, 0.21244355594866, 0.16606930974957, 0
558, 0.18600855078858, 0.13820193189807, 0
559, 0.15915417730709, 0.16517001988784, 0
560, 0.18579464782525, 0.16553030877622, 0
561, 0.44163550773237, 0.20360240441038, 0
562, 0.41952698026855, 0.22647573017177, 0
563, 0.44337428769514, 0.22659279580555, 0
564, 0.39686924605013, 0.15241443146774, 0
565, 0.37026035822731, 0.17461320131375, 0
566, 0.39471428369172, 0.20136893182469, 0
567, 0.41903136111793, 0.17969037593423, 0
568, 0.39522777724257, 0.17705369602265, 0
569, 0.16027642388858, -0.16871063480818, 0
570, 0.28834456479199, -0.25105508753019, 0
571, 0.21526960625082, -0.11643050573004, 0
572, 0.32710339162423, -0.1995251929788, 0
573, 0.10660649153725, -0.22066169544509, 0
574, 0.13336613243315, -0.19456968771452, 0
575, 0.13326766097379, -0.22118180473811, 0
576, 0.61455547047088, -0.021863740817663, 0
577, 0.75664456773156, -0.18830094379453, 0
578, 0.75809248655811, -0.21674444427813, 0
579, 0.72576085597999, -0.12866956090579, 0
580, 0.5396543237078, -0.20333290549212, 0
581, 0.38762760468542, -0.090423734357332, 0
582, 0.3426848722763, -0.030297881378848, 0
583, 0.3858478664031, -0.033269540080258, 0
584, 0.38376326518624, -0.062430401336669, 0
585, 0.67835795675598, 0.0772555640734, 0
586, 0.77267987376648, 0.14132019852803, 0
587, 0.76702905223317, 0.1932678095764, 0
588, 0.79523758019012, 0.16829877572442, 0
589, 0.80117117688966, 0.010936970034291, 0
590, 0.29199627396099, 0.19555239087814, 0
591, 0.26542626372825, 0.22107947512647, 0
592, 0.31837824469796, 0.22272768532511, 0
593, 0.2920021565519, 0.22183585821156, 0
594, 0.51312454232822, -0.20672335642886, 0
595, 0.48530426021437, -0.18158692684661, 0
596, 0.51392842986445, -0.18073069647081, 0
597, 0.4114017083853, 0.024990851467199, 0
598, 0.39458054118238, -0.0037694802942717, 0
599, 0.4603748960419, 0.1825034312501, 0
600, 0.13230282203209, 0.19222702980179, 0
601, 0.10549604039537, 0.21933950273281, 0
602, 0.13199202085834, 0.2193410981061, 0
603, 0.75317060120275, -0.072743947002875, 0
604, 0.62619706445895, -0.04620761131397, 0
605, 0.79601183175059, 0.040087281839863, 0
606, 0.67835838851373, -0.060749051714903, 0
607, 0.70349159305571, -0.043016825650972, 0
608, 0.63041419835024, -0.22630112996363, 0
609, 0.65106375272457, -0.19810324846849, 0
610, 0.65387190624066, -0.22356643329261, 0
611, 0.73800621117973, 0.21891256267483, 0
612, 0.76478014939367, 0.21972570070422, 0
613, 0.10629170533824, 0.10982688727005, 0
614, 0.079797262568809, 0.081969656035795, 0
615, 0.079575800796516, 0.13750607568423, 0
616, 0.079695803283916, 0.1097935821118, 0
617, 0.37004389181561, 0.22477881559357, 0
618, 0.39509823004031, 0.22576035772085, 0
619, 0.29254275269147, 0.14220605330048, 0
620, 0.26567992239399, 0.1677913573145, 0
621, 0.31853416656514, 0.17058985495068, 0
622, 0.2921880577806, 0.16904056286035, 0
623, 0.44898097315844, -0.20100007811506, 0
624, 0.45670318112472, -0.17488816756457, 0
625, 0.37413029836122, -0.11564602978528, 0
626, 0.39611795504235, -0.11566777430744, 0
627, 0.23889016574043, 0.19373745153952, 0
628, 0.2387517029194, 0.2204667518116, 0
629, 0.92080423859617, 0.087683721034075, 0
630, 0.89596598424001, 0.11618123350501, 0
631, 0.92196982146975, 0.14124399746567, 0
632, 0.92157749664603, 0.11455207026395, 0
633, 0.080103758316477, -0.029176275038325, 0
634, 0.10691281897926, -0.057046166421162, 0
635, 0.080148799856397, -0.056811663498884, 0
636, 0.079969605349525, 0.026280333182984, 0
637, 0.10675093794417, -0.001452682573004, 0
638, 0.080043802769975, -0.0014828614803764, 0
639, 0.78086260979283, -0.10224055289556, 0
640, 0.72182187390454, 0.0052467550102198, 0
641, 0.61055723548128, 0.033658971581164, 0
642, 0.58640955895405, 0.025427850121362, 0
643, 0.88985935674761, 0.0072253375251808, 0
644, 0.91851725771094, 0.032826180431495, 0
645, 0.91759499684228, -0.023360856912713, 0
646, 0.91783446959053, 0.0047731829796122, 0
647, 0.88990683071443, -0.049819656004322, 0
648, 0.91763918407299, -0.051431239227564, 0
649, 0.23932020049474, 0.1396365130869, 0
650, 0.23908261204338, 0.16681222338325, 0
651, 0.86193644872434, 0.039758409482379, 0
652, 0.86137890210166, -0.019535586826574, 0
653, 0.86108286906221, 0.0098508172071068, 0
654, 0.68306611751906, -0.040795272774307, 0
655, 0.65905722088732, -0.05069775842988, 0
656, 0.71356437751399, 0.19077044613168, 0
657, 0.68344285784332, 0.21703004948322, 0
658, 0.71090288708805, 0.21798629681784, 0
659, 0.62742183307524, 0.21550250621393, 0
660, 0.59839966875156, 0.18582054389491, 0
661, 0.59891260298374, 0.21536601445885, 0
662, 0.26628540924168, 0.11334714014779, 0
663, 0.23983838184143, 0.084340106847755, 0
664, 0.21289330914643, 0.11128897791784, 0
665, 0.23958421940337, 0.11215942739672, 0
666, 0.13334758607972, 0.026496456332439, 0
667, 0.16022465110813, -0.0014677973545164, 0
668, 0.13360478894072, -0.029422482107779, 0
669, 0.13348216127545, -0.0014612166800278, 0
670, 0.16056644376311, -0.05775879986429, 0
671, 0.13378763509058, -0.085225621872544, 0
672, 0.13371684004981, -0.05736178847409, 0
673, 0.87118664830055, 0.14325630807151, 0
674, 0.86977909875505, 0.09262292503847, 0
675, 0.84687089438844, 0.11924371918792, 0
676, 0.870970215642, 0.11783970434652, 0
677, 0.89635812290317, 0.16844277618457, 0
678, 0.92195417943755, 0.1943489646471, 0
679, 0.92206032927213, 0.16782876914938, 0
680, 0.6652954625686, 0.13125885647738, 0
681, 0.78090959596912, 0.09117485683517, 0
682, 0.43586887358049, 0.04803817029192, 0
683, 0.89304697000114, 0.063359741055939, 0
684, 0.91968568815666, 0.06049523992314, 0
685, 0.8626226252992, -0.076821866720351, 0
686, 0.83393863464604, -0.047199025216783, 0
687, 0.86197520482806, -0.048355796081818, 0
688, 0.86689823874817, 0.067093392987783, 0
689, 0.10654304311505, 0.054249113894777, 0
690, 0.079888782894655, 0.054111292291714, 0
691, 0.3442950224505, 0.19818747713706, 0
692, 0.34443100139522, 0.22373024272203, 0
693, 0.18772424113459, -0.086641411090614, 0
694, 0.34351419716587, -0.27478571694116, 0
695, 0.21334278681731, -0.27476888958743, 0
696, 0.59612470158815, -0.14030463433431, 0
697, 0.63037952302312, -0.091680870623294, 0
698, 0.13306703212797, 0.082246047079163, 0
699, 0.15989903872245, 0.054631957215317, 0
700, 0.13321204120144, 0.054409218692802, 0
701, 0.66039646113276, -0.12227529522536, 0
702, 0.61503434081573, -0.11674997286155, 0
703, 0.61212278014842, -0.16238089291301, 0
704, 0.67065741426559, -0.16301702984623, 0
705, 0.72702523366383, -0.04462940501043, 0
706, 0.72736651266684, -0.15926272019528, 0
707, 0.6990871190355, -0.15997584203803, 0
708, 0.48912047977475, 0.14382104288459, 0
709, 0.50237652078282, 0.16863395876308, 0
710, 0.34532916443155, 0.14635669494996, 0
711, 0.34461044157848, 0.17245164137311, 0
712, 0.44088601504682, 0.18208816953871, 0
713, 0.51755553512539, 0.08130907762839, 0
714, 0.080002827135657, -0.19350130187251, 0
715, 0.079927936441222, -0.22033158310771, 0
716, 0.46982574531474, 0.15740273670202, 0
717, 0.44267296262577, 0.1623189010604, 0
718, 0.54352065413059, 0.06499035411084, 0
719, 0.6577468443001, 0.18784589252245, 0
720, 0.65562254012676, 0.21614615871072, 0
721, 0.6308075043999, 0.15708275235723, 0
722, 0.60134258319585, 0.12276649567847, 0
723, 0.59851710462132, 0.15491197116049, 0
724, 0.079260866220784, 0.19235835086664, 0
725, 0.07904416778099, 0.21948076865202, 0
726, 0.91929065246694, -0.19048952536949, 0
727, 0.91974886390128, -0.21800921375862, 0
728, 0.69357470696126, 0.13432823684553, 0
729, 0.80734803823936, -0.074861431133235, 0
730, 0.32100318686983, 0.060754923611798, 0
731, 0.34736672406752, 0.092448609424235, 0
732, 0.34863256186913, 0.064086043911721, 0
733, 0.64523212387862, -0.17216566493347, 0
734, 0.89569207837174, 0.2209588351006, 0
735, 0.92174710379629, 0.22081638021317, 0
736, 0.18678122132479, 0.026829453609972, 0
737, 0.21370783504256, -0.0013483971062017, 0
738, 0.18720456819849, -0.029813602211748, 0
739, 0.1869787022652, -0.0014470861796896, 0
740, 0.69235222323788, 0.026920221858912, 0
741, 0.70161547578646, -0.067043042100578, 0
742, 0.80419317060464, -0.018025693842399, 0
743, 0.72689388709316, -0.070687462095286, 0
744, 0.5549653023702, 0.11446176862491, 0
745, 0.47961487110936, 0.17684657444396, 0
746, 0.58585680258284, -0.2276024765492, 0
747, 0.60809883440538, -0.22785428795025, 0
748, 0.45754157507773, 0.16737596544511, 0
749, 0.64260937650784, 0.099184054393724, 0
750, 0.61173273091051, 0.09299076280813, 0
751, 0.24021719058501, 0.027642569830624, 0
752, 0.35913160662949, -0.14243726377256, 0
753, 0.24069332253315, -0.03009688853919, 0
754, 0.36537450554254, -0.031319436180432, 0
755, 0.10679791472026, -0.16695790379831, 0
756, 0.080073539880491, -0.16647669419924, 0
757, 0.42691520407422, 0.1316603526047, 0
758, 0.49083906617083, 0.10064287525002, 0
759, 0.29378371382748, 0.029393966143385, 0
760, 0.31846128148984, -0.02996452281056, 0
761, 0.36460368134928, -0.24889332024147, 0
762, 0.87031975510682, 0.19491905832464, 0
763, 0.86965090833505, 0.22105440795469, 0
764, 0.1337005783854, -0.14046162763133, 0
765, 0.1335339916862, -0.16767471075427, 0
766, 0.89174027459219, -0.16203862091201, 0
767, 0.9188708235061, -0.16285790818514, 0
768, 0.5393810601234, -0.22902662301779, 0
769, 0.56283606547804, -0.22750508276062, 0
770, 0.31968710279105, 0.11704160710707, 0
771, 0.37278960979501, 0.12302349163321, 0
772, 0.34630481558842, 0.11973793976381, 0
773, 0.8004860078732, 0.1182826905433, 0
774, 0.82209366871099, 0.14389739012904, 0
775, 0.82368445325848, 0.11973420879983, 0
776, 0.86389975779912, -0.13325049475963, 0
777, 0.86455728309582, -0.16130710603163, 0
778, 0.10596845226515, 0.16492052215653, 0
779, 0.079434865692956, 0.1650331809967, 0
780, 0.51641363891425, -0.23163247578576, 0
781, 0.16072391032113, -0.11379401329878, 0
782, 0.13378951019649, -0.11295253301037, 0
783, 0.29316950655504, -0.02998532057962, 0
784, 0.24038351249523, -0.0011396598740591, 0
785, 0.21440743647159, -0.058743162743444, 0
786, 0.37121569609007, 6.8732796918452e-05, 0
787, 0.26684851965633, 0.057173148796215, 0
788, 0.21331768710492, 0.055449694563724, 0
789, 0.24005545100703, 0.056158871027734, 0
790, 0.8357585722769, -0.10413030013125, 0
791, 0.86325974901743, -0.10509502340858, 0
792, 0.24365810201562, -0.14841340920952, 0
793, 0.41516339030071, -0.22240161003051, 0
794, 0.37972845816075, -0.19372962526173, 0
795, 0.84563017984258, 0.16922253215956, 0
796, 0.87088214935643, 0.16896317912517, 0
797, 0.13273933823653, 0.13754950490617, 0
798, 0.13254005380629, 0.16496976320729, 0
799, 0.73642515558816, 0.058929840314119, 0
800, 0.69813961684828, -0.094424170599257, 0
801, 0.24330448273618, -0.11831711905005, 0
802, 0.18747420181584, -0.05823525186534, 0
803, 0.26157105890435, -0.2036361485471, 0
804, 0.29345026663855, 0.087121933173474, 0
805, 0.29377958799234, 0.058623770180328, 0
806, 0.36424414444135, -0.060900946456197, 0
807, 0.28536848755631, -0.22744043920165, 0
808, 0.77880676876717, -0.046111815425462, 0
809, 0.82049257662313, 0.1690372982689, 0
810, 0.77634152521196, 0.11602394149279, 0
811, 0.71092523783004, 0.055523028747015, 0
812, 0.69880658260589, 0.10747015891306, 0
813, 0.21506819239479, -0.14500779654528, 0
814, 0.39937732161194, 0.12675860904961, 0
815, 0.18641275391665, 0.082917403725709, 0
816, 0.18660162350043, 0.05496157264981, 0
817, 0.21489997584418, -0.087578458432925, 0
818, 0.75347876529478, -0.10089164416138, 0
819, 0.74212942942515, 0.03315991131664, 0
820, 0.15955517599007, 0.11023898381516, 0
821, 0.13291206763284, 0.10996888581377, 0
822, 0.70202275679328, -0.020168276211715, 0
823, 0.75033817866532, -0.019078911579754, 0
824, 0.72071356521154, 0.13697621401293, 0
825, 0.73069417985371, 0.084651747543638, 0
826, 0.29152867540123, -0.27538668478744, 0
827, 0.39503038123209, -0.27474676433012, 0
828, 0.1862160696119, 0.11066631538774, 0
829, 0.44279112315642, -0.22765707923302, 0
830, 0.18622192392592, -0.22291428997509, 0
831, 0.7259804603881, -0.098654768440589, 0
832, 0.67028979000913, -0.085610340528154, 0
833, 0.64559951566894, -0.033782188020473, 0
834, 0.75518402377103, -0.15932038794674, 0
835, 0.29299512033938, 0.11494047177564, 0
836, 0.72538285021155, 0.11061608595376, 0
837, 0.63350272772526, -0.14410296877945, 0
838, 0.75400929543761, -0.12996251451049, 0
839, 0.29627562712157, -0.089238726485966, 0
840, 0.41099232000326, -0.1554235544528, 0
841, 0.33340342214343, -0.22442561958475, 0
842, 0.60220162962245, 0.0024391722293182, 0
843, 0.34549817198146, 0.0005510972358716, 0
844, 0.66866737090524, 0.022678337617754, 0
845, 0.68930341960868, 0.16168451209445, 0
846, 0.28273385231755, -0.20555916883515, 0
847, 0.82616950542079, 0.079794683445234, 0
848, 0.51595370560443, 0.12926418134185, 0
849, 0.74691408061533, 0.0071352041850455, 0
850, 0.39734953492442, 0.077859077895102, 0
851, 0.48046942815797, -0.24196035444711, 0
852, 0.54159172115441, -0.17594816240087, 0
853, 0.74350990844742, 0.16554651026806, 0
854, 0.76962629994194, 0.16709608407793, 0
855, 0.34252550050406, -0.059997560461629, 0
856, 0.23788084082945, -0.20093053378247, 0
857, 0.26562257716172, -0.27538105342186, 0
858, 0.1870088664905, -0.17020485416346, 0
859, 0.33422931591462, -0.14507831212732, 0
860, 0.30776898480717, -0.14871566813183, 0
861, 0.28088689146333, -0.18800456736591, 0
862, 0.26403314642708, -0.18082995887023, 0
863, 0.29649728017543, -0.17997822772807, 0
864, 0.27679063392253, -0.15541425181022, 0
865, 0.64577749358683, -0.068465301779053, 0
866, 0.66245279216853, -0.024645144205094, 0
867, 0.65478148707397, -0.0052284792154002, 0
868, 0.64576381696249, 0.017059345341927, 0
869, 0.63535603971116, 0.040945659470931, 0
870, 0.66824579617876, -0.0386751261521, 0
******* E L E M E N T S *************
*ELEMENT, type=CPS4, ELSET=Surface1
1, 19, 12, 347, 344
2, 344, 347, 345, 148
3, 347, 346, 151, 345
4, 12, 20, 346, 347
5, 44, 37, 351, 348
6, 348, 351, 349, 164
7, 351, 350, 297, 349
8, 37, 45, 350, 351
9, 243, 354, 355, 352
10, 352, 355, 353, 246
11, 355, 71, 79, 353
12, 354, 78, 71, 355
13, 375, 694, 16, 24
14, 813, 571, 487, 514
15, 802, 738, 219, 670
16, 152, 753, 218, 785
17, 216, 361, 362, 359
18, 359, 362, 360, 213
19, 362, 110, 121, 360
20, 361, 120, 110, 362
21, 178, 365, 366, 363
22, 363, 366, 364, 177
23, 366, 92, 100, 364
24, 365, 99, 92, 366
25, 163, 368, 369, 367
26, 367, 369, 348, 164
27, 369, 36, 44, 348
28, 368, 43, 36, 369
29, 6, 83, 373, 370
30, 370, 373, 371, 157
31, 373, 372, 251, 371
32, 83, 86, 372, 373
33, 794, 325, 515, 303
34, 540, 151, 230, 830
35, 544, 807, 570, 223
36, 228, 356, 152, 304
37, 244, 378, 379, 377
38, 377, 379, 354, 243
39, 379, 70, 78, 354
40, 378, 77, 70, 379
41, 60, 50, 383, 380
42, 380, 383, 381, 290
43, 383, 382, 272, 381
44, 50, 61, 382, 383
45, 162, 385, 386, 384
46, 384, 386, 368, 163
47, 386, 35, 43, 368
48, 385, 42, 35, 386
49, 41, 34, 389, 387
50, 387, 389, 388, 161
51, 389, 385, 162, 388
52, 34, 42, 385, 389
53, 839, 513, 517, 390
54, 801, 304, 817, 571
55, 391, 357, 392, 485
56, 514, 212, 569, 858
57, 100, 93, 395, 364
58, 364, 395, 393, 177
59, 395, 394, 176, 393
60, 93, 101, 394, 395
61, 298, 397, 398, 396
62, 396, 398, 380, 290
63, 398, 49, 60, 380
64, 397, 59, 49, 398
65, 180, 401, 402, 399
66, 399, 402, 400, 179
67, 402, 90, 98, 400
68, 401, 97, 90, 402
69, 251, 372, 405, 403
70, 403, 405, 404, 183
71, 405, 84, 87, 404
72, 372, 86, 84, 405
73, 121, 111, 408, 360
74, 360, 408, 406, 213
75, 408, 407, 205, 406
76, 111, 122, 407, 408
77, 102, 95, 411, 409
78, 409, 411, 410, 175
79, 411, 103, 114, 410
80, 95, 8, 103, 411
81, 153, 413, 414, 338
82, 338, 414, 412, 154
83, 414, 26, 30, 412
84, 413, 29, 26, 414
85, 161, 416, 417, 387
86, 387, 417, 33, 41
87, 417, 415, 40, 33
88, 416, 160, 415, 417
89, 61, 51, 420, 382
90, 382, 420, 418, 272
91, 420, 419, 273, 418
92, 51, 62, 419, 420
93, 214, 422, 423, 421
94, 421, 423, 361, 216
95, 423, 109, 120, 361
96, 422, 119, 109, 423
97, 171, 426, 427, 424
98, 424, 427, 425, 201
99, 427, 106, 117, 425
100, 426, 116, 106, 427
101, 183, 404, 430, 428
102, 428, 430, 429, 147
103, 430, 85, 7, 429
104, 404, 87, 85, 430
105, 46, 39, 433, 431
106, 431, 433, 432, 299
107, 433, 47, 58, 432
108, 39, 4, 47, 433
109, 149, 435, 436, 434
110, 434, 436, 344, 148
111, 436, 11, 19, 344
112, 435, 18, 11, 436
113, 66, 56, 440, 437
114, 437, 440, 438, 241
115, 440, 439, 242, 438
116, 56, 67, 439, 440
117, 45, 38, 442, 350
118, 350, 442, 441, 297
119, 442, 431, 299, 441
120, 38, 46, 431, 442
121, 118, 108, 445, 443
122, 443, 445, 444, 203
123, 445, 422, 214, 444
124, 108, 119, 422, 445
125, 2, 25, 448, 446
126, 446, 448, 447, 145
127, 448, 413, 153, 447
128, 25, 29, 413, 448
129, 123, 113, 450, 449
130, 449, 450, 435, 149
131, 450, 10, 18, 435
132, 113, 1, 10, 450
133, 101, 94, 452, 394
134, 394, 452, 451, 176
135, 452, 409, 175, 451
136, 94, 102, 409, 452
137, 64, 54, 456, 453
138, 453, 456, 454, 267
139, 456, 455, 237, 454
140, 54, 65, 455, 456
141, 273, 419, 459, 457
142, 457, 459, 458, 270
143, 459, 52, 63, 458
144, 419, 62, 52, 459
145, 246, 353, 462, 460
146, 460, 462, 461, 245
147, 462, 72, 80, 461
148, 353, 79, 72, 462
149, 98, 91, 464, 400
150, 400, 464, 463, 179
151, 464, 365, 178, 463
152, 91, 99, 365, 464
153, 82, 75, 467, 465
154, 465, 467, 466, 250
155, 467, 370, 157, 466
156, 75, 6, 370, 467
157, 80, 73, 470, 461
158, 461, 470, 468, 245
159, 470, 469, 248, 468
160, 73, 81, 469, 470
161, 154, 412, 473, 471
162, 471, 473, 472, 159
163, 473, 27, 31, 472
164, 412, 30, 27, 473
165, 67, 57, 475, 439
166, 439, 475, 474, 242
167, 475, 68, 76, 474
168, 57, 5, 68, 475
169, 288, 478, 479, 476
170, 476, 479, 477, 289
171, 479, 349, 297, 477
172, 478, 164, 349, 479
173, 182, 481, 482, 480
174, 480, 482, 401, 180
175, 482, 89, 97, 401
176, 481, 96, 89, 482
177, 65, 55, 484, 455
178, 455, 484, 483, 237
179, 484, 437, 241, 483
180, 55, 66, 437, 484
181, 392, 310, 857, 305
182, 572, 374, 544, 841
183, 324, 228, 304, 801
184, 695, 21, 14, 310
185, 147, 429, 489, 488
186, 488, 489, 481, 182
187, 489, 88, 96, 481
188, 429, 7, 88, 489
189, 117, 107, 491, 425
190, 425, 491, 490, 201
191, 491, 443, 203, 490
192, 107, 118, 443, 491
193, 270, 458, 493, 492
194, 492, 493, 453, 267
195, 493, 53, 64, 453
196, 458, 63, 53, 493
197, 174, 495, 496, 494
198, 494, 496, 426, 171
199, 496, 105, 116, 426
200, 495, 115, 105, 496
201, 295, 498, 499, 497
202, 497, 499, 478, 288
203, 499, 367, 164, 478
204, 498, 163, 367, 499
205, 146, 501, 502, 500
206, 500, 502, 415, 160
207, 502, 32, 40, 415
208, 501, 3, 32, 502
209, 216, 359, 506, 503
210, 503, 506, 504, 217
211, 506, 505, 211, 504
212, 359, 213, 505, 506
213, 81, 74, 508, 469
214, 469, 508, 507, 248
215, 508, 465, 250, 507
216, 74, 82, 465, 508
217, 178, 363, 512, 509
218, 509, 512, 510, 165
219, 512, 511, 172, 510
220, 363, 177, 511, 512
221, 303, 515, 761, 542
222, 513, 227, 855, 517
223, 208, 784, 753, 311
224, 485, 392, 305, 155
225, 358, 207, 325, 794
226, 857, 22, 15, 826
227, 855, 806, 754, 582
228, 803, 155, 807, 846
229, 240, 520, 521, 518
230, 518, 521, 519, 232
231, 521, 352, 246, 519
232, 520, 243, 352, 521
233, 271, 524, 525, 522
234, 522, 525, 381, 272
235, 525, 523, 290, 381
236, 524, 291, 523, 525
237, 122, 112, 527, 407
238, 407, 527, 526, 205
239, 527, 449, 149, 526
240, 112, 123, 449, 527
241, 242, 474, 529, 528
242, 528, 529, 378, 244
243, 529, 69, 77, 378
244, 474, 76, 69, 529
245, 175, 410, 531, 530
246, 530, 531, 495, 174
247, 531, 104, 115, 495
248, 410, 114, 104, 531
249, 299, 432, 533, 532
250, 532, 533, 397, 298
251, 533, 48, 59, 397
252, 432, 58, 48, 533
253, 159, 472, 535, 534
254, 534, 535, 501, 146
255, 535, 28, 3, 501
256, 472, 31, 28, 535
257, 253, 538, 539, 536
258, 536, 539, 537, 185
259, 539, 403, 183, 537
260, 538, 251, 403, 539
261, 817, 785, 802, 693
262, 223, 570, 826, 541
263, 516, 830, 391, 486
264, 374, 846, 807, 544
265, 145, 542, 827, 446
266, 230, 209, 695, 357
267, 305, 857, 826, 570
268, 864, 862, 861, 863
269, 161, 388, 549, 546
270, 546, 549, 547, 287
271, 549, 548, 296, 547
272, 388, 162, 548, 549
273, 157, 371, 552, 550
274, 550, 552, 551, 252
275, 552, 538, 253, 551
276, 371, 251, 538, 552
277, 293, 555, 556, 553
278, 553, 556, 554, 292
279, 556, 497, 288, 554
280, 555, 295, 497, 556
281, 165, 510, 560, 557
282, 557, 560, 558, 168
283, 560, 559, 170, 558
284, 510, 172, 559, 560
285, 185, 537, 563, 561
286, 561, 563, 562, 184
287, 563, 428, 147, 562
288, 537, 183, 428, 563
289, 186, 567, 568, 564
290, 564, 568, 565, 188
291, 568, 566, 181, 565
292, 567, 184, 566, 568
293, 862, 803, 846, 861
294, 858, 516, 486, 221
295, 221, 486, 856, 150
296, 228, 839, 390, 356
297, 148, 345, 575, 573
298, 573, 575, 574, 210
299, 575, 540, 206, 574
300, 345, 151, 540, 575
301, 257, 308, 158, 585
302, 315, 330, 757, 192
303, 333, 275, 589, 605
304, 296, 548, 578, 577
305, 577, 578, 498, 295
306, 578, 384, 163, 498
307, 548, 162, 384, 578
308, 852, 596, 594, 580
309, 343, 284, 283, 342
310, 284, 769, 746, 283
311, 343, 133, 143, 852
312, 139, 583, 584, 129
313, 129, 584, 581, 140
314, 830, 230, 357, 391
315, 843, 309, 195, 231
316, 588, 854, 586, 236
317, 719, 249, 721, 256
318, 818, 831, 579, 838
319, 836, 812, 261, 825
320, 187, 592, 593, 590
321, 590, 593, 591, 166
322, 593, 399, 179, 591
323, 592, 180, 399, 593
324, 142, 595, 596, 132
325, 595, 222, 594, 596
326, 150, 856, 803, 862
327, 597, 598, 128, 138
328, 598, 583, 139, 128
329, 843, 786, 193, 309
330, 758, 315, 192, 314
331, 718, 126, 136, 260
332, 177, 393, 602, 511
333, 511, 602, 600, 172
334, 602, 601, 173, 600
335, 393, 176, 601, 602
336, 842, 576, 277, 307
337, 308, 844, 740, 158
338, 681, 294, 328, 263
339, 845, 256, 680, 728
340, 160, 416, 610, 608
341, 608, 610, 609, 286
342, 610, 546, 287, 609
343, 416, 161, 546, 610
344, 245, 611, 612, 460
345, 460, 612, 519, 246
346, 612, 587, 232, 519
347, 611, 233, 587, 612
348, 169, 615, 616, 613
349, 613, 616, 614, 202
350, 616, 424, 201, 614
351, 615, 171, 424, 616
352, 184, 562, 618, 566
353, 566, 618, 617, 181
354, 618, 488, 182, 617
355, 562, 147, 488, 618
356, 189, 621, 622, 619
357, 619, 622, 620, 167
358, 622, 590, 166, 620
359, 621, 187, 590, 622
360, 226, 623, 624, 301
361, 301, 624, 131, 141
362, 624, 595, 142, 131
363, 623, 222, 595, 624
364, 225, 300, 626, 625
365, 841, 544, 223, 543
366, 626, 130, 140, 581
367, 300, 141, 130, 626
368, 179, 463, 628, 591
369, 591, 628, 627, 166
370, 628, 509, 165, 627
371, 463, 178, 509, 628
372, 267, 454, 632, 629
373, 629, 632, 630, 268
374, 632, 631, 238, 630
375, 454, 237, 631, 632
376, 216, 503, 635, 421
377, 421, 635, 633, 214
378, 635, 634, 215, 633
379, 503, 217, 634, 635
380, 203, 444, 638, 636
381, 636, 638, 637, 204
382, 638, 633, 215, 637
383, 444, 214, 633, 638
384, 833, 655, 870, 866
385, 603, 743, 831, 818
386, 680, 255, 749, 279
387, 332, 333, 605, 294
388, 274, 645, 646, 643
389, 643, 646, 644, 269
390, 646, 457, 270, 644
391, 645, 273, 457, 646
392, 274, 647, 648, 645
393, 645, 648, 418, 273
394, 648, 522, 272, 418
395, 647, 271, 522, 648
396, 166, 627, 650, 620
397, 620, 650, 649, 167
398, 650, 557, 168, 649
399, 627, 165, 557, 650
400, 278, 652, 653, 321
401, 321, 653, 651, 265
402, 653, 643, 269, 651
403, 652, 274, 643, 653
404, 743, 741, 800, 831
405, 604, 865, 655, 833
406, 640, 262, 823, 849
407, 294, 605, 265, 328
408, 245, 468, 658, 611
409, 611, 658, 656, 233
410, 658, 657, 247, 656
411, 468, 248, 657, 658
412, 250, 466, 661, 659
413, 659, 661, 660, 249
414, 661, 550, 252, 660
415, 466, 157, 550, 661
416, 167, 649, 665, 662
417, 662, 665, 663, 198
418, 665, 664, 196, 663
419, 649, 168, 664, 665
420, 204, 637, 669, 666
421, 666, 669, 667, 199
422, 669, 668, 219, 667
423, 637, 215, 668, 669
424, 217, 671, 672, 634
425, 634, 672, 668, 215
426, 672, 670, 219, 668
427, 671, 220, 670, 672
428, 235, 675, 676, 673
429, 673, 676, 630, 238
430, 676, 674, 268, 630
431, 675, 264, 674, 676
432, 237, 483, 679, 631
433, 631, 679, 677, 238
434, 679, 678, 239, 677
435, 483, 241, 678, 679
436, 867, 866, 334, 281
437, 869, 868, 844, 308
438, 266, 845, 728, 824
439, 832, 865, 697, 701
440, 138, 127, 682, 597
441, 597, 682, 336, 193
442, 682, 314, 192, 336
443, 127, 137, 314, 682
444, 269, 644, 684, 683
445, 683, 684, 629, 268
446, 684, 492, 267, 629
447, 644, 270, 492, 684
448, 271, 647, 687, 685
449, 685, 687, 686, 276
450, 687, 652, 278, 686
451, 647, 274, 652, 687
452, 265, 651, 688, 327
453, 327, 688, 674, 264
454, 688, 683, 268, 674
455, 651, 269, 683, 688
456, 201, 490, 690, 614
457, 614, 690, 689, 202
458, 690, 636, 204, 689
459, 490, 203, 636, 690
460, 181, 617, 692, 691
461, 691, 692, 592, 187
462, 692, 480, 180, 592
463, 617, 182, 480, 692
464, 310, 14, 22, 857
465, 545, 156, 227, 513
466, 376, 545, 513, 839
467, 856, 485, 155, 803
468, 261, 811, 799, 825
469, 585, 158, 811, 261
470, 838, 834, 555, 293
471, 202, 689, 700, 698
472, 698, 700, 699, 197
473, 700, 666, 199, 699
474, 689, 204, 666, 700
475, 837, 702, 696, 703
476, 296, 706, 707, 547
477, 547, 707, 704, 287
478, 716, 745, 599, 748
479, 744, 848, 758, 713
480, 822, 607, 705, 262
481, 188, 565, 711, 710
482, 710, 711, 621, 189
483, 711, 691, 187, 621
484, 565, 181, 691, 711
485, 848, 331, 709, 708
486, 744, 254, 750, 722
487, 331, 551, 253, 709
488, 744, 259, 331, 848
489, 205, 526, 715, 714
490, 714, 715, 573, 210
491, 715, 434, 148, 573
492, 526, 149, 434, 715
493, 708, 716, 330, 315
494, 745, 536, 185, 599
495, 248, 507, 720, 657
496, 657, 720, 719, 247
497, 720, 659, 249, 719
498, 507, 250, 659, 720
499, 716, 748, 717, 330
500, 660, 723, 721, 249
501, 723, 722, 255, 721
502, 848, 708, 315, 758
503, 176, 451, 725, 601
504, 601, 725, 724, 173
505, 725, 530, 174, 724
506, 451, 175, 530, 725
507, 297, 441, 727, 477
508, 477, 727, 726, 289
509, 727, 532, 298, 726
510, 441, 299, 532, 727
511, 656, 247, 845, 266
512, 819, 849, 275, 333
513, 280, 808, 285, 729
514, 589, 742, 278, 321
515, 191, 731, 732, 337
516, 337, 732, 309, 193
517, 732, 730, 195, 309
518, 731, 190, 730, 732
519, 343, 696, 144, 133
520, 704, 733, 609, 287
521, 733, 313, 286, 609
522, 654, 870, 655, 606
523, 241, 438, 735, 678
524, 678, 735, 734, 239
525, 735, 528, 244, 734
526, 438, 242, 528, 735
527, 199, 667, 739, 736
528, 736, 739, 737, 200
529, 739, 738, 218, 737
530, 667, 219, 738, 739
531, 824, 728, 812, 836
532, 641, 307, 868, 869
533, 247, 719, 256, 845
534, 854, 853, 322, 586
535, 708, 709, 745, 716
536, 825, 799, 332, 258
537, 713, 758, 314, 137
538, 283, 746, 747, 312
539, 608, 747, 500, 160
540, 747, 746, 146, 500
541, 580, 594, 780, 768
542, 744, 722, 723, 259
543, 259, 252, 551, 331
544, 744, 713, 718, 254
545, 257, 749, 750, 306
546, 330, 717, 186, 757
547, 605, 589, 321, 265
548, 749, 255, 722, 750
549, 346, 20, 13, 209
550, 813, 514, 858, 221
551, 224, 625, 626, 581
552, 786, 598, 597, 193
553, 210, 755, 756, 714
554, 714, 756, 406, 205
555, 756, 505, 213, 406
556, 755, 211, 505, 756
557, 254, 718, 260, 329
558, 254, 329, 306, 750
559, 864, 324, 801, 792
560, 792, 813, 221, 150
561, 785, 218, 738, 802
562, 517, 855, 582, 760
563, 239, 734, 763, 762
564, 762, 763, 520, 240
565, 763, 377, 243, 520
566, 734, 244, 377, 763
567, 211, 755, 765, 764
568, 764, 765, 569, 212
569, 765, 574, 206, 569
570, 755, 210, 574, 765
571, 290, 523, 767, 396
572, 396, 767, 726, 298
573, 767, 766, 289, 726
574, 523, 291, 766, 767
575, 159, 534, 769, 768
576, 852, 143, 132, 596
577, 312, 286, 313, 341
578, 534, 146, 746, 769
579, 191, 771, 772, 731
580, 731, 772, 770, 190
581, 772, 710, 189, 770
582, 771, 188, 710, 772
583, 264, 675, 775, 326
584, 326, 775, 773, 263
585, 775, 774, 236, 773
586, 675, 235, 774, 775
587, 288, 476, 777, 554
588, 554, 777, 776, 292
589, 777, 766, 291, 776
590, 476, 289, 766, 777
591, 171, 615, 779, 494
592, 494, 779, 724, 174
593, 779, 778, 173, 724
594, 615, 169, 778, 779
595, 154, 471, 780, 340
596, 340, 780, 594, 222
597, 284, 580, 768, 769
598, 471, 159, 768, 780
599, 212, 781, 782, 764
600, 764, 782, 504, 211
601, 782, 671, 217, 504
602, 781, 220, 671, 782
603, 760, 231, 323, 783
604, 155, 305, 570, 807
605, 863, 861, 846, 374
606, 543, 223, 541, 694
607, 198, 663, 789, 787
608, 787, 789, 751, 194
609, 789, 788, 200, 751
610, 663, 196, 788, 789
611, 271, 685, 791, 524
612, 524, 791, 776, 291
613, 791, 790, 292, 776
614, 685, 276, 790, 791
615, 515, 841, 543, 761
616, 151, 346, 209, 230
617, 793, 303, 542, 145
618, 486, 391, 485, 856
619, 240, 795, 796, 762
620, 762, 796, 677, 239
621, 796, 673, 238, 677
622, 795, 235, 673, 796
623, 172, 600, 798, 559
624, 559, 798, 797, 170
625, 798, 778, 169, 797
626, 600, 173, 778, 798
627, 703, 342, 341, 313
628, 307, 277, 867, 868
629, 696, 702, 134, 144
630, 356, 390, 783, 311
631, 542, 761, 375, 827
632, 541, 826, 15, 23
633, 571, 817, 693, 487
634, 195, 730, 805, 759
635, 759, 805, 787, 194
636, 805, 804, 198, 787
637, 730, 190, 804, 805
638, 752, 225, 625, 156
639, 827, 375, 24, 17
640, 569, 206, 516, 858
641, 806, 224, 581, 584
642, 642, 842, 307, 641
643, 236, 586, 810, 773
644, 277, 833, 866, 867
645, 728, 680, 279, 812
646, 235, 795, 809, 774
647, 774, 809, 588, 236
648, 809, 518, 232, 588
649, 795, 240, 518, 809
650, 285, 603, 818, 639
651, 322, 824, 836, 320
652, 279, 749, 257, 585
653, 773, 810, 681, 263
654, 324, 376, 839, 228
655, 390, 517, 760, 783
656, 304, 152, 785, 817
657, 156, 625, 224, 227
658, 191, 335, 814, 771
659, 771, 814, 564, 188
660, 814, 757, 186, 564
661, 335, 192, 757, 814
662, 199, 736, 816, 699
663, 699, 816, 815, 197
664, 816, 788, 196, 815
665, 736, 200, 788, 816
666, 226, 794, 303, 793
667, 302, 358, 794, 226
668, 751, 200, 737, 784
669, 229, 863, 374, 572
670, 281, 334, 822, 234
671, 319, 640, 849, 819
672, 800, 832, 701, 282
673, 742, 280, 686, 278
674, 202, 698, 821, 613
675, 613, 821, 797, 169
676, 821, 820, 170, 797
677, 698, 197, 820, 821
678, 810, 320, 258, 681
679, 275, 318, 742, 589
680, 258, 332, 294, 681
681, 234, 822, 262, 640
682, 853, 266, 824, 322
683, 729, 285, 639, 317
684, 262, 705, 316, 823
685, 812, 279, 585, 261
686, 207, 229, 572, 325
687, 206, 540, 830, 516
688, 693, 802, 670, 220
689, 761, 543, 694, 375
690, 168, 558, 828, 664
691, 664, 828, 815, 196
692, 828, 820, 197, 815
693, 558, 170, 820, 828
694, 226, 793, 829, 623
695, 623, 829, 339, 222
696, 829, 447, 153, 339
697, 793, 145, 447, 829
698, 446, 827, 17, 2
699, 582, 843, 231, 760
700, 759, 194, 208, 323
701, 194, 751, 784, 208
702, 808, 316, 603, 285
703, 831, 800, 282, 579
704, 866, 870, 654, 334
705, 276, 729, 317, 790
706, 586, 322, 320, 810
707, 256, 721, 255, 680
708, 607, 654, 606, 741
709, 823, 316, 808, 318
710, 295, 555, 834, 577
711, 577, 834, 706, 296
712, 639, 818, 838, 293
713, 686, 280, 729, 276
714, 167, 662, 835, 619
715, 619, 835, 770, 189
716, 835, 804, 190, 770
717, 662, 198, 804, 835
718, 849, 823, 318, 275
719, 306, 869, 308, 257
720, 320, 836, 825, 258
721, 741, 606, 832, 800
722, 316, 705, 743, 603
723, 701, 837, 733, 704
724, 702, 697, 9, 134
725, 703, 696, 343, 342
726, 799, 819, 333, 332
727, 158, 740, 319, 811
728, 701, 704, 707, 282
729, 317, 639, 293, 553
730, 579, 706, 834, 838
731, 487, 693, 220, 781
732, 806, 584, 583, 754
733, 356, 311, 753, 152
734, 694, 541, 23, 16
735, 225, 302, 840, 300
736, 300, 840, 301, 141
737, 302, 226, 301, 840
738, 357, 695, 310, 392
739, 784, 737, 218, 753
740, 582, 754, 786, 843
741, 567, 712, 561, 184
742, 811, 319, 819, 799
743, 790, 317, 553, 292
744, 323, 208, 311, 783
745, 231, 195, 759, 323
746, 754, 583, 598, 786
747, 343, 852, 580, 284
748, 186, 717, 712, 567
749, 712, 599, 185, 561
750, 259, 723, 660, 252
751, 334, 654, 607, 822
752, 606, 655, 865, 832
753, 868, 867, 281, 844
754, 282, 707, 706, 579
755, 701, 697, 702, 837
756, 576, 604, 833, 277
757, 844, 281, 234, 740
758, 318, 808, 280, 742
759, 329, 641, 869, 306
760, 864, 792, 150, 862
761, 859, 752, 156, 545
762, 325, 572, 841, 515
763, 263, 328, 847, 326
764, 326, 847, 327, 264
765, 328, 265, 327, 847
766, 713, 137, 126, 718
767, 709, 253, 536, 745
768, 717, 748, 599, 712
769, 705, 607, 741, 743
770, 740, 234, 640, 319
771, 233, 656, 266, 853
772, 191, 337, 850, 335
773, 335, 850, 336, 192
774, 337, 193, 336, 850
775, 154, 340, 851, 338
776, 338, 851, 339, 153
777, 340, 222, 339, 851
778, 837, 703, 313, 733
779, 342, 283, 312, 341
780, 747, 608, 286, 312
781, 587, 233, 853, 854
782, 232, 587, 854, 588
783, 209, 13, 21, 695
784, 792, 801, 571, 813
785, 227, 224, 806, 855
786, 514, 487, 781, 212
787, 860, 859, 545, 376
788, 864, 860, 376, 324
789, 752, 358, 302, 225
790, 859, 207, 358, 752
791, 860, 229, 207, 859
792, 864, 863, 229, 860
793, 260, 642, 641, 329
794, 9, 697, 865, 604
795, 124, 9, 604, 576
796, 135, 124, 576, 842
797, 125, 135, 842, 642
798, 136, 125, 642, 260
*ELSET,ELSET=contact_source
101, 102, 103, 104, 105, 106, 107, 108, 109, 110, 
111, 112, 113, 114, 115, 116, 117, 118, 119, 120, 
121, 122, 
*ELSET,ELSET=contact_drain
41, 42, 43, 44, 45, 46, 47, 48, 49, 50, 
51, 52, 53, 54, 55, 56, 57, 58, 59, 60, 
61, 62, 
*ELSET,ELSET=probe_A
79, 80, 81, 82, 83, 84, 
*ELSET,ELSET=probe_B
17, 18, 19, 20, 21, 22, 23, 24, 
*ELSET,ELSET=walls
1, 2, 3, 4, 5, 6, 7, 8, 9, 10, 
11, 12, 13, 14, 15, 16, 25, 26, 27, 28, 
29, 30, 31, 32, 33, 34, 35, 36, 37, 38, 
39, 40, 63, 64, 65, 66, 67, 68, 69, 70, 
71, 72, 73, 74, 75, 76, 77, 78, 85, 86, 
87, 88, 89, 90, 91, 92, 93, 94, 95, 96, 
97, 98, 99, 100, 123, 124, 125, 126, 127, 128, 
129, 130, 131, 132, 133, 134, 135, 136, 137, 138, 
139, 140, 141, 142, 143, 144, 
*ELSET,ELSET=domain
145, 146, 147, 148, 149, 150, 151, 152, 153, 154, 
155, 156, 157, 158, 159, 160, 161, 162, 163, 164, 
165, 166, 167, 168, 169, 170, 171, 172, 173, 174, 
175, 176, 177, 178, 179, 180, 181, 182, 183, 184, 
185, 186, 187, 188, 189, 190, 191, 192, 193, 194, 
195, 196, 197, 198, 199, 200, 201, 202, 203, 204, 
205, 206, 207, 208, 209, 210, 211, 212, 213, 214, 
215, 216, 217, 218, 219, 220, 221, 222, 223, 224, 
225, 226, 227, 228, 229, 230, 231, 232, 233, 234, 
235, 236, 237, 238, 239, 240, 241, 242, 243, 244, 
245, 246, 247, 248, 249, 250, 251, 252, 253, 254, 
255, 256, 257, 258, 259, 260, 261, 262, 263, 264, 
265, 266, 267, 268, 269, 270, 271, 272, 273, 274, 
275, 276, 277, 278, 279, 280, 281, 282, 283, 284, 
285, 286, 287, 288, 289, 290, 291, 292, 293, 294, 
295, 296, 297, 298, 299, 300, 301, 302, 303, 304, 
305, 306, 307, 308, 309, 310, 311, 312, 313, 314, 
315, 316, 317, 318, 319, 320, 321, 322, 323, 324, 
325, 326, 327, 328, 329, 330, 331, 332, 333, 334, 
335, 336, 337, 338, 339, 340, 341, 342, 343, 344, 
345, 346, 347, 348, 349, 350, 351, 352, 353, 354, 
355, 356, 357, 358, 359, 360, 361, 362, 363, 364, 
365, 366, 367, 368, 369, 370, 371, 372, 373, 374, 
375, 376, 377, 378, 379, 380, 381, 382, 383, 384, 
385, 386, 387, 388, 389, 390, 391, 392, 393, 394, 
395, 396, 397, 398, 399, 400, 401, 402, 403, 404, 
405, 406, 407, 408, 409, 410, 411, 412, 413, 414, 
415, 416, 417, 418, 419, 420, 421, 422, 423, 424, 
425, 426, 427, 428, 429, 430, 431, 432, 433, 434, 
435, 436, 437, 438, 439, 440, 441, 442, 443, 444, 
445, 446, 447, 448, 449, 450, 451, 452, 453, 454, 
455, 456, 457, 458, 459, 460, 461, 462, 463, 464, 
465, 466, 467, 468, 469, 470, 471, 472, 473, 474, 
475, 476, 477, 478, 479, 480, 481, 482, 483, 484, 
485, 486, 487, 488, 489, 490, 491, 492, 493, 494, 
495, 496, 497, 498, 499, 500, 501, 502, 503, 504, 
505, 506, 507, 508, 509, 510, 511, 512, 513, 514, 
515, 516, 517, 518, 519, 520, 521, 522, 523, 524, 
525, 526, 527, 528, 529, 530, 531, 532, 533, 534, 
535, 536, 537, 538, 539, 540, 541, 542, 543, 544, 
545, 546, 547, 548, 549, 550, 551, 552, 553, 554, 
555, 556, 557, 558, 559, 560, 561, 562, 563, 564, 
565, 566, 567, 568, 569, 570, 571, 572, 573, 574, 
575, 576, 577, 578, 579, 580, 581, 582, 583, 584, 
585, 586, 587, 588, 589, 590, 591, 592, 593, 594, 
595, 596, 597, 598, 599, 600, 601, 602, 603, 604, 
605, 606, 607, 608, 609, 610, 611, 612, 613, 614, 
615, 616, 617, 618, 619, 620, 621, 622, 623, 624, 
625, 626, 627, 628, 629, 630, 631, 632, 633, 634, 
635, 636, 637, 638, 639, 640, 641, 642, 643, 644, 
645, 646, 647, 648, 649, 650, 651, 652, 653, 654, 
655, 656, 657, 658, 659, 660, 661, 662, 663, 664, 
665, 666, 667, 668, 669, 670, 671, 672, 673, 674, 
675, 676, 677, 678, 679, 680, 681, 682, 683, 684, 
685, 686, 687, 688, 689, 690, 691, 692, 693, 694, 
695, 696, 697, 698, 699, 700, 701, 702, 703, 704, 
705, 706, 707, 708, 709, 710, 711, 712, 713, 714, 
715, 716, 717, 718, 719, 720, 721, 722, 723, 724, 
725, 726, 727, 728, 729, 730, 731, 732, 733, 734, 
735, 736, 737, 738, 739, 740, 741, 742, 743, 744, 
745, 746, 747, 748, 749, 750, 751, 752, 753, 754, 
755, 756, 757, 758, 759, 760, 761, 762, 763, 764, 
765, 766, 767, 768, 769, 770, 771, 772, 773, 774, 
775, 776, 777, 778, 779, 780, 781, 782, 783, 784, 
785, 786, 787, 788, 789, 790, 791, 792, 793, 794, 
795, 796, 797, 798, 799, 800, 801, 802, 803, 804, 
805, 806, 807, 808, 809, 810, 811, 812, 813, 814, 
815, 816, 817, 818, 819, 820, 821, 822, 823, 824, 
825, 826, 827, 828, 829, 830, 831, 832, 833, 834, 
835, 836, 837, 838, 839, 840, 841, 842, 843, 844, 
845, 846, 847, 848, 849, 850, 851, 852, 853, 854, 
855, 856, 857, 858, 859, 860, 861, 862, 863, 864, 
865, 866, 867, 868, 869, 870, 871, 872, 873, 874, 
875, 876, 877, 878, 879, 880, 881, 882, 883, 884, 
885, 886, 887, 888, 889, 890, 891, 892, 893, 894, 
895, 896, 897, 898, 899, 900, 901, 902, 903, 904, 
905, 906, 907, 908, 909, 910, 911, 912, 913, 914, 
915, 916, 917, 918, 919, 920, 921, 922, 923, 924, 
925, 926, 927, 928, 929, 930, 931, 932, 933, 934, 
935, 936, 937, 938, 939, 940, 941, 942, 
*NSET,NSET=contact_source
1, 8, 103, 104, 105, 106, 107, 108, 109, 110, 
111, 112, 113, 114, 115, 116, 117, 118, 119, 120, 
121, 122, 123, 
*NSET,NSET=contact_drain
4, 5, 47, 48, 49, 50, 51, 52, 53, 54, 
55, 56, 57, 58, 59, 60, 61, 62, 63, 64, 
65, 66, 67, 
*NSET,NSET=probe_A
6, 7, 83, 84, 85, 86, 87, 
*NSET,NSET=probe_B
2, 3, 25, 26, 27, 28, 29, 30, 31, 
*NSET,NSET=walls
1, 2, 3, 4, 5, 6, 7, 8, 9, 10, 
11, 12, 13, 14, 15, 16, 17, 18, 19, 20, 
21, 22, 23, 24, 32, 33, 34, 35, 36, 37, 
38, 39, 40, 41, 42, 43, 44, 45, 46, 68, 
69, 70, 71, 72, 73, 74, 75, 76, 77, 78, 
79, 80, 81, 82, 88, 89, 90, 91, 92, 93, 
94, 95, 96, 97, 98, 99, 100, 101, 102, 124, 
125, 126, 127, 128, 129, 130, 131, 132, 133, 134, 
135, 136, 137, 138, 139, 140, 141, 142, 143, 144, 
*NSET,NSET=domain
1, 2, 3, 4, 5, 6, 7, 8, 9, 10, 
11, 12, 13, 14, 15, 16, 17, 18, 19, 20, 
21, 22, 23, 24, 25, 26, 27, 28, 29, 30, 
31, 32, 33, 34, 35, 36, 37, 38, 39, 40, 
41, 42, 43, 44, 45, 46, 47, 48, 49, 50, 
51, 52, 53, 54, 55, 56, 57, 58, 59, 60, 
61, 62, 63, 64, 65, 66, 67, 68, 69, 70, 
71, 72, 73, 74, 75, 76, 77, 78, 79, 80, 
81, 82, 83, 84, 85, 86, 87, 88, 89, 90, 
91, 92, 93, 94, 95, 96, 97, 98, 99, 100, 
101, 102, 103, 104, 105, 106, 107, 108, 109, 110, 
111, 112, 113, 114, 115, 116, 117, 118, 119, 120, 
121, 122, 123, 124, 125, 126, 127, 128, 129, 130, 
131, 132, 133, 134, 135, 136, 137, 138, 139, 140, 
141, 142, 143, 144, 145, 146, 147, 148, 149, 150, 
151, 152, 153, 154, 155, 156, 157, 158, 159, 160, 
161, 162, 163, 164, 165, 166, 167, 168, 169, 170, 
171, 172, 173, 174, 175, 176, 177, 178, 179, 180, 
181, 182, 183, 184, 185, 186, 187, 188, 189, 190, 
191, 192, 193, 194, 195, 196, 197, 198, 199, 200, 
201, 202, 203, 204, 205, 206, 207, 208, 209, 210, 
211, 212, 213, 214, 215, 216, 217, 218, 219, 220, 
221, 222, 223, 224, 225, 226, 227, 228, 229, 230, 
231, 232, 233, 234, 235, 236, 237, 238, 239, 240, 
241, 242, 243, 244, 245, 246, 247, 248, 249, 250, 
251, 252, 253, 254, 255, 256, 257, 258, 259, 260, 
261, 262, 263, 264, 265, 266, 267, 268, 269, 270, 
271, 272, 273, 274, 275, 276, 277, 278, 279, 280, 
281, 282, 283, 284, 285, 286, 287, 288, 289, 290, 
291, 292, 293, 294, 295, 296, 297, 298, 299, 300, 
301, 302, 303, 304, 305, 306, 307, 308, 309, 310, 
311, 312, 313, 314, 315, 316, 317, 318, 319, 320, 
321, 322, 323, 324, 325, 326, 327, 328, 329, 330, 
331, 332, 333, 334, 335, 336, 337, 338, 339, 340, 
341, 342, 343, 344, 345, 346, 347, 348, 349, 350, 
351, 352, 353, 354, 355, 356, 357, 358, 359, 360, 
361, 362, 363, 364, 365, 366, 367, 368, 369, 370, 
371, 372, 373, 374, 375, 376, 377, 378, 379, 380, 
381, 382, 383, 384, 385, 386, 387, 388, 389, 390, 
391, 392, 393, 394, 395, 396, 397, 398, 399, 400, 
401, 402, 403, 404, 405, 406, 407, 408, 409, 410, 
411, 412, 413, 414, 415, 416, 417, 418, 419, 420, 
421, 422, 423, 424, 425, 426, 427, 428, 429, 430, 
431, 432, 433, 434, 435, 436, 437, 438, 439, 440, 
441, 442, 443, 444, 445, 446, 447, 448, 449, 450, 
451, 452, 453, 454, 455, 456, 457, 458, 459, 460, 
461, 462, 463, 464, 465, 466, 467, 468, 469, 470, 
471, 472, 473, 474, 475, 476, 477, 478, 479, 480, 
481, 482, 483, 484, 485, 486, 487, 488, 489, 490, 
491, 492, 493, 494, 495, 496, 497, 498, 499, 500, 
501, 502, 503, 504, 505, 506, 507, 508, 509, 510, 
511, 512, 513, 514, 515, 516, 517, 518, 519, 520, 
521, 522, 523, 524, 525, 526, 527, 528, 529, 530, 
531, 532, 533, 534, 535, 536, 537, 538, 539, 540, 
541, 542, 543, 544, 545, 546, 547, 548, 549, 550, 
551, 552, 553, 554, 555, 556, 557, 558, 559, 560, 
561, 562, 563, 564, 565, 566, 567, 568, 569, 570, 
571, 572, 573, 574, 575, 576, 577, 578, 579, 580, 
581, 582, 583, 584, 585, 586, 587, 588, 589, 590, 
591, 592, 593, 594, 595, 596, 597, 598, 599, 600, 
601, 602, 603, 604, 605, 606, 607, 608, 609, 610, 
611, 612, 613, 614, 615, 616, 617, 618, 619, 620, 
621, 622, 623, 624, 625, 626, 627, 628, 629, 630, 
631, 632, 633, 634, 635, 636, 637, 638, 639, 640, 
641, 642, 643, 644, 645, 646, 647, 648, 649, 650, 
651, 652, 653, 654, 655, 656, 657, 658, 659, 660, 
661, 662, 663, 664, 665, 666, 667, 668, 669, 670, 
671, 672, 673, 674, 675, 676, 677, 678, 679, 680, 
681, 682, 683, 684, 685, 686, 687, 688, 689, 690, 
691, 692, 693, 694, 695, 696, 697, 698, 699, 700, 
701, 702, 703, 704, 705, 706, 707, 708, 709, 710, 
711, 712, 713, 714, 715, 716, 717, 718, 719, 720, 
721, 722, 723, 724, 725, 726, 727, 728, 729, 730, 
731, 732, 733, 734, 735, 736, 737, 738, 739, 740, 
741, 742, 743, 744, 745, 746, 747, 748, 749, 750, 
751, 752, 753, 754, 755, 756, 757, 758, 759, 760, 
761, 762, 763, 764, 765, 766, 767, 768, 769, 770, 
771, 772, 773, 774, 775, 776, 777, 778, 779, 780, 
781, 782, 783, 784, 785, 786, 787, 788, 789, 790, 
791, 792, 793, 794, 795, 796, 797, 798, 799, 800, 
801, 802, 803, 804, 805, 806, 807, 808, 809, 810, 
811, 812, 813, 814, 815, 816, 817, 818, 819, 820, 
821, 822, 823, 824, 825, 826, 827, 828, 829, 830, 
831, 832, 833, 834, 835, 836, 837, 838, 839, 840, 
841, 842, 843, 844, 845, 846, 847, 848, 849, 850, 
851, 852, 853, 854, 855, 856, 857, 858, 859, 860, 
861, 862, 863, 864, 865, 866, 867, 868, 869, 870, 
