*Heading
 /Users/juliagao/geometry-optimization-net/scripts/../runs/2d/shape_55.inp
*NODE
1, 0, -0.3, 0
2, 0.425, -0.3, 0
3, 0.575, -0.3, 0
4, 1, -0.3, 0
5, 1, 0.3, 0
6, 0.575, 0.3, 0
7, 0.425, 0.3, 0
8, 0, 0.3, 0
9, 0.5999157644, -0.15, 0
10, 0.026132524812541, -0.3, 0
11, 0.078569468485531, -0.3, 0
12, 0.13128808534811, -0.3, 0
13, 0.18432160830265, -0.3, 0
14, 0.23773731129719, -0.3, 0
15, 0.29146327194591, -0.3, 0
16, 0.34533394917184, -0.3, 0
17, 0.39863752189559, -0.3, 0
18, 0.052265049625082, -0.3, 0
19, 0.10487388734598, -0.3, 0
20, 0.15770228335023, -0.3, 0
21, 0.21094093325507, -0.3, 0
22, 0.26453368933931, -0.3, 0
23, 0.3183928545525, -0.3, 0
24, 0.37227504379118, -0.3, 0
25, 0.45064538545019, -0.3, 0
26, 0.50047255898686, -0.3, 0
27, 0.54982717353667, -0.3, 0
28, 0.47629077090038, -0.3, 0
29, 0.52465434707334, -0.3, 0
30, 0.60109225753361, -0.3, 0
31, 0.65431741523748, -0.3, 0
32, 0.70844246848673, -0.3, 0
33, 0.76245823676271, -0.3, 0
34, 0.8168210455576, -0.3, 0
35, 0.87108953801187, -0.3, 0
36, 0.9237522838245, -0.3, 0
37, 0.97474286539038, -0.3, 0
38, 0.62718451506722, -0.3, 0
39, 0.68145031540774, -0.3, 0
40, 0.73543462156572, -0.3, 0
41, 0.7894818519597, -0.3, 0
42, 0.8441602391555, -0.3, 0
43, 0.89801883686825, -0.3, 0
44, 0.94948573078076, -0.3, 0
45, 1, -0.27330033467792, 0
46, 1, -0.21909742363931, 0
47, 1, -0.16425253857858, 0
48, 1, -0.10992890557472, 0
49, 1, -0.05623672574174, 0
50, 1, -0.0026733991214478, 0
51, 1, 0.051655140267555, 0
52, 1, 0.10733026676059, 0
53, 1, 0.16340135605214, 0
54, 1, 0.21867720630856, 0
55, 1, 0.27304084741221, 0
56, 1, -0.24660066935583, 0
57, 1, -0.19159417792278, 0
58, 1, -0.13691089923437, 0
59, 1, -0.082946911915069, 0
60, 1, -0.029526539568412, 0
61, 1, 0.024179741325516, 0
62, 1, 0.079130539209594, 0
63, 1, 0.13552999431158, 0
64, 1, 0.1912727177927, 0
65, 1, 0.24608169482442, 0
66, 0.97356599888834, 0.3, 0
67, 0.92110279774424, 0.3, 0
68, 0.86922047690478, 0.3, 0
69, 0.81658657665385, 0.3, 0
70, 0.76226561818704, 0.3, 0
71, 0.70737072095188, 0.3, 0
72, 0.65330889398694, 0.3, 0
73, 0.60080089261712, 0.3, 0
74, 0.94713199777667, 0.3, 0
75, 0.89507359771181, 0.3, 0
76, 0.84336735609776, 0.3, 0
77, 0.78980579720995, 0.3, 0
78, 0.73472543916413, 0.3, 0
79, 0.68001600273964, 0.3, 0
80, 0.62660178523424, 0.3, 0
81, 0.54984059921933, 0.3, 0
82, 0.50012547452372, 0.3, 0
83, 0.45028487530439, 0.3, 0
84, 0.52468119843866, 0.3, 0
85, 0.47556975060878, 0.3, 0
86, 0.39841564190423, 0.3, 0
87, 0.34432839878427, 0.3, 0
88, 0.28945014528457, 0.3, 0
89, 0.23569446507284, 0.3, 0
90, 0.18339567378414, 0.3, 0
91, 0.13125875319989, 0.3, 0
92, 0.078841524846462, 0.3, 0
93, 0.0263213687624, 0.3, 0
94, 0.37183128380846, 0.3, 0
95, 0.31682551376008, 0.3, 0
96, 0.26207477680905, 0.3, 0
97, 0.20931415333663, 0.3, 0
98, 0.15747719423165, 0.3, 0
99, 0.10504031216812, 0.3, 0
100, 0.052642737524801, 0.3, 0
101, 0, 0.2733320180484, 0
102, 0, 0.21917423813963, 0
103, 0, 0.16392131392346, 0
104, 0, 0.10836433522645, 0
105, 0, 0.053082571313955, 0
106, 0, -0.0015633310911585, 0
107, 0, -0.05621193509256, 0
108, 0, -0.11126869416459, 0
109, 0, -0.16620043281801, 0
110, 0, -0.22042673938322, 0
111, 0, -0.27364372664814, 0
112, 0, 0.2466640360968, 0
113, 0, 0.19168444018245, 0
114, 0, 0.13615818766447, 0
115, 0, 0.080570482788422, 0
116, 0, 0.025594659839487, 0
117, 0, -0.028721322021804, 0
118, 0, -0.083702548163316, 0
119, 0, -0.13883484016586, 0
120, 0, -0.19356602547016, 0
121, 0, -0.24728745329629, 0
122, 0.59646632588844, -0.12397294007919, 0
123, 0.57013759444277, -0.078839071388271, 0
124, 0.5245328339217, -0.053142889121816, 0
125, 0.4714042327037, -0.05426368532385, 0
126, 0.42496970657736, -0.084018071163236, 0
127, 0.40121789822989, -0.13499145915322, 0
128, 0.40802943113054, -0.18904579849023, 0
129, 0.43921009104866, -0.22929531411412, 0
130, 0.4834340402336, -0.24853288222481, 0
131, 0.5306374816811, -0.24510260081335, 0
132, 0.57170641878675, -0.21957980564335, 0
133, 0.59655232882754, -0.17570617922447, 0
134, 0.58635618314563, -0.09974296573672, 0
135, 0.54900098706796, -0.062924956295219, 0
136, 0.49835829507877, -0.050097724455113, 0
137, 0.44658093268913, -0.065563259653029, 0
138, 0.40942833588582, -0.10781074048358, 0
139, 0.40098473436949, -0.16338420767302, 0
140, 0.42159796178292, -0.2119377136576, 0
141, 0.46054562943407, -0.24179603761728, 0
142, 0.50726708566172, -0.24965113848453, 0
143, 0.55226821904903, -0.23515393858633, 0
144, 0.58668846773527, -0.19968168141356, 0
145, 0.17563018231585, -0.0064549384470648, 0
146, 0.53121454588945, 0.17758722030515, 0
147, 0.05289781142991, -0.24642785609493, 0
148, 0.15861162524455, -0.24650435142059, 0
149, 0.1057576435093, -0.24647539289027, 0
150, 0.26371363616142, -0.24694410785704, 0
151, 0.21124826758515, -0.24649929536986, 0
152, 0.3538805811497, -0.17343382552021, 0
153, 0.36837461942524, -0.22608724822533, 0
154, 0.84381930165256, -0.057563165172516, 0
155, 0.94784687147307, -0.19177523093974, 0
156, 0.70826755962494, -0.27399016974265, 0
157, 0.79096882129659, -0.19334243302893, 0
158, 0.58839432247913, -0.24828237514643, 0
159, 0.72125762032101, 0.055845006843852, 0
160, 0.84642432433361, 0.024563469988226, 0
161, 0.87260929327222, 0.052159101558018, 0
162, 0.89801560734261, 0.05215030068983, 0
163, 0.20653879589863, 0.27353373334389, 0
164, 0.25620866167472, 0.24818724187082, 0
165, 0.05179540207741, 0.27326421986461, 0
166, 0.23267064797213, 0.27382471467085, 0
167, 0.37343161804138, 0.029882787265561, 0
168, 0.074545921238099, 0.16287655775597, 0
169, 0.47384800998679, 0.24921883474283, 0
170, 0.050063086582077, 0.050633472508626, 0
171, 0.12487555673825, 0.021097732126311, 0
172, 0.12477167420216, 0.19101043910378, 0
173, 0.12395565814175, 0.16306663773963, 0
174, 0.25137145569754, 0.19547945619329, 0
175, 0.42878353477313, 0.04199028948704, 0
176, 0.024997135589266, 0.079566986672884, 0
177, 0.025531848860092, -0.0036603182407493, 0
178, 0.43489870588588, 0.087650696505704, 0
179, 0.45959698310049, 0.047157379357153, 0
180, 0.024891996021543, 0.13552601678683, 0
181, 0.44230394338252, 0.17851177267592, 0
182, 0.24625044763316, 0.0013042203161192, 0
183, 0.35110333273906, 0.10173976762838, 0
184, 0.38090232830305, 0.12876775086809, 0
185, 0.22379753071158, 0.16701391221174, 0
186, 0.69099522903358, -0.13678514842085, 0
187, 0.1720571731298, 0.10821589736478, 0
188, 0.18062248836636, 0.27330790520906, 0
189, 0.099257413499483, 0.16285632390785, 0
190, 0.19649724866762, 0.0528735581174, 0
191, 0.58345415961516, 0.24833835562354, 0
192, 0.37243092624372, -0.024694729908708, 0
193, 0.48383374494112, 0.0092689958433145, 0
194, 0.20404486030532, 0.24689005651625, 0
195, 0.025955636831072, 0.27333473240844, 0
196, 0.76570413472543, -0.16583946605153, 0
197, 0.68893490918631, -0.19552395627615, 0
198, 0.587753713982, 0.19862773982371, 0
199, 0.27757602178914, 0.19699793800153, 0
200, 0.2947959475201, 0.01898182035181, 0
201, 0.58987473995643, 0.15002732488195, 0
202, 0.025578626632846, 0.24630029279802, 0
203, 0.61323725831245, 0.22260684243938, 0
204, 0.14770049858526, 0.078651881736537, 0
205, 0.41320253275144, 0.17780076814966, 0
206, 0.098891210433548, 0.13467786431076, 0
207, 0.41660512588034, 0.22540033823495, 0
208, 0.15925584106627, -0.19297762529464, 0
209, 0.10600805993569, -0.19323948298876, 0
210, 0.052737918586462, -0.19312552742083, 0
211, 0.2119337720066, -0.1922612703165, 0
212, 0.26343403978124, -0.19202160972709, 0
213, 0.27283092659012, -0.14014515630235, 0
214, 0.21596245605757, -0.13960327937579, 0
215, 0.16074934814087, -0.14046695807719, 0
216, 0.10631754577211, -0.14063959220898, 0
217, 0.052580394354139, -0.13999919747294, 0
218, 0.10253070922591, -0.034509583585964, 0
219, 0.051281849996214, -0.032672815239026, 0
220, 0.052157305638649, -0.086783069463792, 0
221, 0.10534842404419, -0.08829209926163, 0
222, 0.20326189546416, -0.034079637305169, 0
223, 0.15348075108014, -0.035082952168287, 0
224, 0.2496291331766, -0.029134384994672, 0
225, 0.15938261582639, -0.088846988039422, 0
226, 0.21455775347807, -0.088783439608847, 0
227, 0.31453800573015, -0.2226572525705, 0
228, 0.33555358592741, -0.14839986487674, 0
229, 0.27131945239732, -0.091892587691972, 0
230, 0.34436242142971, -0.10684235875126, 0
231, 0.33369638174392, 0.22462581673997, 0
232, 0.32246511710298, 0.073514946176941, 0
233, 0.52728717755282, 0.27381896679268, 0
234, 0.79674724147539, 0.19202709674464, 0
235, 0.74599187535781, 0.19302354193706, 0
236, 0.74770990318696, 0.13782694569271, 0
237, 0.7979881571225, 0.13646358061504, 0
238, 0.84832466950687, 0.13567287314551, 0
239, 0.89887316999477, 0.13532198574507, 0
240, 0.94953047399995, 0.1352819939596, 0
241, 0.84747133139481, 0.19116823586227, 0
242, 0.8983131125844, 0.19072087173838, 0
243, 0.94916986974345, 0.19076030201201, 0
244, 0.94845612501396, 0.2457830323835, 0
245, 0.89702495137298, 0.24565558511554, 0
246, 0.84550659126773, 0.24606469180446, 0
247, 0.7418730556132, 0.24741385666903, 0
248, 0.79381044271089, 0.24685144418262, 0
249, 0.6896425548027, 0.24767182926467, 0
250, 0.64229989039545, 0.19607640119989, 0
251, 0.63695517535378, 0.24790088818631, 0
252, 0.56115564212385, 0.12965226545121, 0
253, 0.32463551748401, -0.030100156698026, 0
254, 0.41817831425572, -0.0599461254916, 0
255, 0.38866290874099, 0.22530987575973, 0
256, 0.35285452812772, 0.12648089774181, 0
257, 0.69474659167076, 0.1942479421397, 0
258, 0.64490428552435, 0.14424468996922, 0
259, 0.69699714036399, 0.14020166145116, 0
260, 0.73615247982903, -0.24767949339182, 0
261, 0.73830776298926, -0.082609814163904, 0
262, 0.42175509638249, -0.0063503766213823, 0
263, 0.39774314762473, 0.0096102676282742, 0
264, 0.50584501938204, -0.028932593047188, 0
265, 0.2754604023682, 0.17086801345105, 0
266, 0.73949053740472, -0.055715939141512, 0
267, 0.69469328060005, 0.030309959599179, 0
268, 0.84788938737824, 0.080016508072712, 0
269, 0.66150513450692, -0.04963069611935, 0
270, 0.66397334043998, -0.19744903276547, 0
271, 0.94819749852584, -0.0027378549626146, 0
272, 0.64484924117017, -0.16988622619232, 0
273, 0.87190500920819, 0.024520207358012, 0
274, 0.94928386884952, 0.079783035308649, 0
275, 0.71979274661389, 0.028050377727576, 0
276, 0.74038506347896, -0.16578994284378, 0
277, 0.71551115620788, -0.16593591028405, 0
278, 0.84320807109238, -0.27364535283535, 0
279, 0.65228688702051, -0.27450181637142, 0
280, 0.82266946971257, 0.080263383425783, 0
281, 0.61194154072381, -0.027939529255505, 0
282, 0.92388417712982, 0.079820929224142, 0
283, 0.6805794009517, -0.27424615046615, 0
284, 0.87317062075756, 0.079885988594204, 0
285, 0.92233061617182, -0.27281171802785, 0
286, 0.34817700598167, 0.051444304676525, 0
287, 0.97397245022204, -0.24563392683217, 0
288, 0.94894007150863, 0.052144017258687, 0
289, 0.6969827180575, 0.085569401116642, 0
290, 0.97387969029032, -0.029759718531352, 0
291, 0.84550342332795, -0.0029782325008799, 0
292, 0.94774661779691, -0.13796058741053, 0
293, 0.97380225515015, -0.083647641716176, 0
294, 0.9482324548419, -0.27264457482529, 0
295, 0.86912612186401, -0.19282822652253, 0
296, 0.89535149653394, -0.13856248252689, 0
297, 0.89534173100293, -0.21937248361518, 0
298, 0.61699514778721, 0.021659412602163, 0
299, 0.97406297384158, -0.21863087826336, 0
300, 0.81877609066567, -0.030225534332339, 0
301, 0.37858447229226, -0.1080956951077, 0
302, 0.32130207440756, 0.022246781336597, 0
303, 0.50157801874517, 0.17848458565796, 0
304, 0.71332588738478, -0.05446785038768, 0
305, 0.92156986038884, -0.16520159137869, 0
306, 0.76564569256053, -0.056551943676831, 0
307, 0.31744319826154, -0.24891493241857, 0
308, 0.39010344616894, -0.21042566943221, 0
309, 0.36927575669151, -0.15315415047715, 0
310, 0.50029054699306, 0.13375911139324, 0
311, 0.89621966411579, -0.27314352924406, 0
312, 0.346499673504, -0.084722317242828, 0
313, 0.34558647553613, -0.24993681589396, 0
314, 0.38145140326772, -0.18169464297276, 0
315, 0.34077506651065, -0.22466085967771, 0
316, 0.7913279585888, -0.16594535043608, 0
317, 0.79750900100727, 0.080670202646765, 0
318, 0.60705472612639, -0.050852195962873, 0
319, 0.25685882905572, -0.060554816153007, 0
320, 0.56612960775488, -0.047022272510009, 0
321, 0.32538279799769, 0.12411428780567, 0
322, 0.97402685967468, -0.27264838265512, 0
323, 0.79096301902973, -0.084094429255551, 0
324, 0.64560410169745, 0.092006793245215, 0
325, 0.28271723699948, 0.24891042674011, 0
326, 0.5869252717062, 0.010138024232393, 0
327, 0.34747900451744, -0.00097049268520708, 0
328, 0.73926234630559, -0.10981285356163, 0
329, 0.63892451922885, -0.20000934641083, 0
330, 0.9738503948992, -0.11057672428092, 0
331, 0.32214373452089, -0.0037012934439243, 0
332, 0.25908933962947, 0.27422943651606, 0
333, 0.025645748174188, -0.031088787994283, 0
334, 0.12627956105279, -0.0071331611796982, 0
335, 0.56095727641815, 0.15271425935485, 0
336, 0.15275499851146, 0.2462379739503, 0
337, 0.049794959528183, 0.078740705292868, 0
338, 0.025257273955133, 0.21892233409011, 0
339, 0.73555497047956, -0.27383629134428, 0
340, 0.77024666042523, 0.025635944383025, 0
341, 0.89742051910882, 0.02454967483621, 0
342, 0.78974145149153, -0.24727968243952, 0
343, 0.76510943998424, -0.11060532144307, 0
344, 0.62374815323781, -0.14362894309876, 0
345, 0.81780909631312, -0.057415864468064, 0
346, 0.26421628006312, -0.2735898134988, 0
347, 0.29026773131405, -0.2478402467684, 0
348, 0.31852825669369, -0.27431903073867, 0
349, 0.29111161320131, -0.27394593988665, 0
350, 0.33126012924696, 0.19947922120744, 0
351, 0.4718392105084, 0.17878410240176, 0
352, 0.14763714393015, 0.10715087769531, 0
353, 0.099877659627468, 0.1908404882478, 0
354, 0.32155025495509, 0.047976344161992, 0
355, 0.45555454708873, 0.0255770926557, 0
356, 0.52546773730162, 0.047568598081849, 0
357, 0.44482963763241, 0.22536923585732, 0
358, 0.55809418505455, 0.041685800814634, 0
359, 0.12587895018421, 0.21870666402857, 0
360, 0.14798700943135, 0.13546115452299, 0
361, 0.12337602639952, 0.078079409595135, 0
362, 0.4076183521767, 0.10752026472241, 0
363, 0.20005094200258, 0.19289574007054, 0
364, 0.27062318086772, 0.091549686621068, 0
365, 0.23746583973673, -0.24659861944118, 0
366, 0.21115320695502, -0.27335774990625, 0
367, 0.23763069591825, -0.27343360958677, 0
368, 0.94952122664169, 0.10750895504662, 0
369, 0.97481717427491, 0.13533751383507, 0
370, 0.97467220870942, 0.079632841018846, 0
371, 0.97484563965686, 0.10745040123942, 0
372, 0.1321975242391, -0.24649816515824, 0
373, 0.15827440394656, -0.27328263395027, 0
374, 0.1054662661405, -0.27321916548978, 0
375, 0.13185781231214, -0.27324643054372, 0
376, 0.079321066459215, -0.24643821224962, 0
377, 0.052796554266866, -0.27316861417341, 0
378, 0.079112624375964, -0.27319007783888, 0
379, 0.71179802144629, -0.08135136425385, 0
380, 0.69613652103663, 0.058011028491066, 0
381, 0.63218791649424, -0.072958254584885, 0
382, 0.18496815724182, -0.24649427613892, 0
383, 0.18470918116751, -0.27331731614256, 0
384, 0.37495269377627, -0.27415686282761, 0
385, 0.34658564647514, -0.27458561345161, 0
386, 0.86982633867136, -0.27347038989957, 0
387, 0.92153808815862, -0.13829113516841, 0
388, 0.97400095282416, -0.16455674481424, 0
389, 0.8957647950173, -0.057483865162439, 0
390, 0.074265609066751, 0.10648598492172, 0
391, 0.1493595748954, 0.021408095731162, 0
392, 0.8165934537553, -0.22034172945755, 0
393, 0.92151378171033, -0.1113501909283, 0
394, 0.026083417498336, -0.1394462782616, 0
395, 0.052660363376977, -0.16654200315308, 0
396, 0.026255337666844, -0.19314817431052, 0
397, 0.026151267155639, -0.16632048274751, 0
398, 0.025906982620414, -0.085512242362308, 0
399, 0.052417487992999, -0.11344313211159, 0
400, 0.025993872024264, -0.11251717458476, 0
401, 0.76563701058519, -0.1381157008377, 0
402, 0.92174690748193, -0.24582609310066, 0
403, 0.89552604543729, -0.24625884084864, 0
404, 0.76787230131452, 0.24720274147642, 0
405, 0.73874506060091, 0.27403039258005, 0
406, 0.79183148237364, 0.27372152371022, 0
407, 0.76532879558564, 0.27395922202634, 0
408, 0.79131887425766, -0.13848839879058, 0
409, 0.69263866144736, 0.0025354459569738, 0
410, 0.14824713469797, 0.050032590661858, 0
411, 0.94792453170027, -0.029965195615447, 0
412, 0.84299227604143, -0.19308849880994, 0
413, 0.86979901318304, -0.05757580182378, 0
414, 0.074440820954234, 0.078185055298806, 0
415, 0.074307912572595, 0.13473788946062, 0
416, 0.76410643765155, -0.22068638865598, 0
417, 0.7221952263684, 0.083605796239339, 0
418, 0.94786920602592, -0.21865839876408, 0
419, 0.051712771823294, -0.059886066681199, 0
420, 0.025757967664719, -0.058378076913582, 0
421, 0.076108556554953, -0.0061746273302527, 0
422, 0.19853807263101, 0.16550008290556, 0
423, 0.12322912619801, 0.10655542885378, 0
424, 0.87128488629654, 0.24574979983977, 0
425, 0.84431160583884, 0.27316215450551, 0
426, 0.89615449781351, 0.27288231691569, 0
427, 0.87028033860991, 0.27290925471214, 0
428, 0.97458106423344, 0.19092634138881, 0
429, 0.94885207611614, 0.2183518310665, 0
430, 0.97419347463698, 0.24592600077853, 0
431, 0.97440170322687, 0.21851478076629, 0
432, 0.949405428782, 0.16305309283743, 0
433, 0.97472777899148, 0.16318214105025, 0
434, 0.026468043828185, -0.24658283718375, 0
435, 0.026481823723428, -0.27323129024011, 0
436, 0.71579871307582, 0.24757148687832, 0
437, 0.68557816331136, 0.27402392536926, 0
438, 0.71214386069534, 0.27406671230231, 0
439, 0.025330043124762, 0.023929239442486, 0
440, 0.22053088719248, 0.055572719048814, 0
441, 0.44621264380612, 0.2494621939991, 0
442, 0.66337396233228, 0.24777955943072, 0
443, 0.63265622724372, 0.27389502859164, 0
444, 0.65908196324583, 0.27397484565581, 0
445, 0.7089356725252, -0.24818611312568, 0
446, 0.89881713983988, 0.10757032631411, 0
447, 0.92420110382547, 0.13527520050615, 0
448, 0.92416165493005, 0.10753335513573, 0
449, 0.61046812706511, -0.086722706173771, 0
450, 0.89850654608143, 0.079836275658804, 0
451, 0.17243380524278, 0.05108659653373, 0
452, 0.39604251622975, -0.017750995546378, 0
453, 0.76468968472493, -0.08349508203543, 0
454, 0.74497709217148, 0.026576866520457, 0
455, 0.94773169531672, -0.057068013669029, 0
456, 0.81968725891157, 0.24645894578423, 0
457, 0.81816075075849, 0.27345336816309, 0
458, 0.62994521579461, -0.22693098092518, 0
459, 0.79428652648705, -0.0025411559818976, 0
460, 0.9479399868653, 0.27301264713979, 0
461, 0.97393200088716, 0.27311345092398, 0
462, 0.92274067577958, 0.24567450511528, 0
463, 0.92202618501182, 0.27291544735493, 0
464, 0.17260383632217, 0.13641425959849, 0
465, 0.098783699048931, 0.10635426656566, 0
466, 0.49218203940099, 0.049335494252598, 0
467, 0.46955295376456, 0.13386539837205, 0
468, 0.49744171118072, 0.090677106315086, 0
469, 0.26963115090892, 0.064633762399097, 0
470, 0.40534117812181, 0.083945155570223, 0
471, 0.61533499893808, 0.19731230928326, 0
472, 0.92205598154305, -0.030140636764004, 0
473, 0.55204447767476, 0.001846531987583, 0
474, 0.32379226909833, 0.098882009583695, 0
475, 0.17352985534709, 0.16433872520758, 0
476, 0.79547708926264, 0.21957508795354, 0
477, 0.77139540188856, 0.19252070800496, 0
478, 0.74426010706711, 0.22036143824941, 0
479, 0.76989585309503, 0.22000454472798, 0
480, 0.052840103582052, -0.2197560363403, 0
481, 0.026371757616466, -0.21989998389875, 0
482, 0.19972492510531, -0.0051418767114495, 0
483, 0.39114300316246, 0.24987593151359, 0
484, 0.34002630932047, 0.27498171877311, 0
485, 0.15106925311063, 0.21894184401011, 0
486, 0.81709515364475, -0.11152786811457, 0
487, 0.86908613999055, -0.21980020559227, 0
488, 0.59099191531515, -0.065630012511879, 0
489, 0.69124336262397, -0.16649412637299, 0
490, 0.61945032757116, -0.1137583366522, 0
491, 0.28731590626171, -0.075091726200713, 0
492, 0.37509986201595, 0.05541608302656, 0
493, 0.48836547339889, 0.029227173649671, 0
494, 0.4657333994315, 0.090143459465008, 0
495, 0.47261754904131, 0.20178061116165, 0
496, 0.58596116338341, 0.22331027529074, 0
497, 0.45119552426153, 0.0035949288206923, 0
498, 0.55569585472284, 0.021292749111995, 0
499, 0.94766142383068, -0.084076765041721, 0
500, 0.64525687277522, 0.065555071610371, 0
501, 0.09943293397609, 0.049537837148487, 0
502, 0.15110439510337, -0.0070450244125343, 0
503, 0.050868319977743, -0.0051447839851835, 0
504, 0.025144320252874, 0.051684224348172, 0
505, 0.5309898858855, 0.13233398492707, 0
506, 0.17360458072722, 0.022289797516893, 0
507, 0.34891840245462, -0.028621774979674, 0
508, 0.92161018546426, -0.21894248510305, 0
509, 0.74023670829917, -0.13764872683991, 0
510, 0.64019705153901, -0.016245555359767, 0
511, 0.78954954826832, -0.27376097826145, 0
512, 0.76872674010421, -0.0019978120605651, 0
513, 0.73784908601016, -0.22108464961661, 0
514, 0.87041240197235, -0.030361041720342, 0
515, 0.87357442836231, 0.13544433492794, 0
516, 0.81632487553335, -0.24718683549715, 0
517, 0.84826677088364, 0.10784100318018, 0
518, 0.87351351504749, 0.10766002353359, 0
519, 0.7630389508316, -0.24740125016729, 0
520, 0.97403996084138, -0.19159467799791, 0
521, 0.79175402113245, -0.057094809352568, 0
522, 0.66487824224452, -0.021834145531066, 0
523, 0.65849827093455, -0.0769803698012, 0
524, 0.79758736311034, 0.16430055563243, 0
525, 0.77286382775414, 0.137057324801, 0
526, 0.74712823067992, 0.16549314898693, 0
527, 0.77238014526397, 0.16484977508396, 0
528, 0.67088529377742, 0.061148314657031, 0
529, 0.84459822924657, -0.030354517800322, 0
530, 0.64070638660666, -0.10489284698422, 0
531, 0.71527943913074, -0.13715766679778, 0
532, 0.92158031299212, -0.19208263295618, 0
533, 0.84315466591683, -0.13880858371639, 0
534, 0.8967953114041, -0.0029342084920041, 0
535, 0.61305633034381, -0.20243274845804, 0
536, 0.1239122634283, 0.049554397703278, 0
537, 0.07562541130211, 0.21858848364715, 0
538, 0.10332798333739, 0.27323009227498, 0
539, 0.21132848186409, -0.21942925322022, 0
540, 0.23786154762141, -0.19193454894911, 0
541, 0.26295638337635, -0.2197508850176, 0
542, 0.23724758710334, -0.21940133000837, 0
543, 0.76261180296407, -0.27375628661405, 0
544, 0.65222300776868, -0.25006176330173, 0
545, 0.81642645152577, -0.27376843989461, 0
546, 0.076916988898709, -0.033769362770432, 0
547, 0.10394982491708, -0.061679443219398, 0
548, 0.078651777691588, -0.087679592055448, 0
549, 0.077790517971475, -0.060943165812372, 0
550, 0.33839419591213, -0.19734570636139, 0
551, 0.40094303022981, -0.23531624880883, 0
552, 0.1007493960874, 0.21858973390208, 0
553, 0.37235688700698, 0.0033083201646291, 0
554, 0.22761642701195, 0.22088963046984, 0
555, 0.10020366685861, 0.021234567109177, 0
556, 0.12907721033368, 0.27325760719649, 0
557, 0.049782723602659, 0.16309301122492, 0
558, 0.22060832767183, 0.08401225603735, 0
559, 0.61682899093292, 0.17214897684943, 0
560, 0.12807754989078, -0.034948016050345, 0
561, 0.15636480343357, -0.062425631419043, 0
562, 0.13224827835949, -0.08867105493015, 0
563, 0.13015639555551, -0.062163622564089, 0
564, 0.79107179573687, -0.11117080966103, 0
565, 0.64273192272381, 0.011516930235189, 0
566, 0.81717787099149, -0.13872618914267, 0
567, 0.79035127798974, -0.2204887310971, 0
568, 0.92155488329112, -0.084369114283403, 0
569, 0.77150390302956, 0.053425679874205, 0
570, 0.84328388249717, -0.084641255401521, 0
571, 0.84283815349035, -0.22011561164636, 0
572, 0.37700936600933, 0.080245892461094, 0
573, 0.29848053962809, -0.03081143812925, 0
574, 0.61785428438464, 0.14706992293206, 0
575, 0.41486025630532, 0.20146602042982, 0
576, 0.13266606542126, -0.1931734238094, 0
577, 0.15886267644044, -0.21970862953872, 0
578, 0.10589404452862, -0.21980445819486, 0
579, 0.13241258821573, -0.2197881276973, 0
580, 0.89869875340184, 0.16305553038484, 0
581, 0.92374633410722, 0.19068983051451, 0
582, 0.92405470448138, 0.16301163516414, 0
583, 0.18570494902972, -0.19265573785907, 0
584, 0.185186501202, -0.21957229626242, 0
585, 0.31717119915604, -0.082654231621299, 0
586, 0.56043927391845, 0.1761115120884, 0
587, 0.55362404652358, 0.27383213380134, 0
588, 0.69262089249462, 0.22105378236238, 0
589, 0.66872767112855, 0.19506726739652, 0
590, 0.64006474224399, 0.22197141949712, 0
591, 0.66649551478645, 0.22146844721146, 0
592, 0.69617385057596, 0.16729374427824, 0
593, 0.67120565628608, 0.14198000635832, 0
594, 0.64386915704395, 0.17018199760252, 0
595, 0.67025894106006, 0.1685775763058, 0
596, 0.59039013453187, 0.12604173284159, 0
597, 0.59045372926162, 0.078687501874098, 0
598, 0.55633715267372, 0.24858307986037, 0
599, 0.37897184896783, 0.10463154695116, 0
600, 0.049650967001329, 0.13503664746797, 0
601, 0.22126610984013, 0.11202763170191, 0
602, 0.079350624346029, -0.1404104233157, 0
603, 0.10606277268705, -0.11451706869922, 0
604, 0.079127571836428, -0.11410094265739, 0
605, 0.82098258694217, 0.024723773701415, 0
606, 0.71363151620243, -0.1087753536508, 0
607, 0.51775134159842, -0.27472496540179, 0
608, 0.56717653597931, -0.26755114319706, 0
609, 0.54394670868971, -0.27186179022685, 0
610, 0.94788776706604, -0.2455751452832, 0
611, 0.68839717792252, -0.10749716397481, 0
612, 0.68111208221261, -0.24900802377038, 0
613, 0.79558658099531, 0.025055851737701, 0
614, 0.22235650556348, 0.13967759124337, 0
615, 0.27197206793303, 0.11818659418292, 0
616, 0.34737619923295, 0.025602081546592, 0
617, 0.2714174027937, -0.018708517214573, 0
618, 0.33998797420293, -0.12737607470696, 0
619, 0.37284625671806, -0.13078371856531, 0
620, 0.2140848754799, -0.16552390674032, 0
621, 0.24405874059046, -0.13934036148571, 0
622, 0.26829227177104, -0.16520983124695, 0
623, 0.24111224567313, -0.16505073130549, 0
624, 0.6579674937307, -0.22492126976753, 0
625, 0.14869223309233, 0.16354330910221, 0
626, 0.098961948035459, 0.077947186179487, 0
627, 0.24632333418808, 0.11480506487344, 0
628, 0.16011344150896, -0.16651972094889, 0
629, 0.18823556407182, -0.14007865425964, 0
630, 0.18709518048873, -0.16607903184999, 0
631, 0.51811368370299, 0.0088966248862733, 0
632, 0.3546952030823, 0.15110235609335, 0
633, 0.22555341158468, 0.19407600717905, 0
634, 0.17831613979262, 0.24645572084136, 0
635, 0.58901846915324, 0.17421510792367, 0
636, 0.89536550123831, -0.11157795283141, 0
637, 0.92297060802663, 0.024605113908347, 0
638, 0.07757534923663, 0.27322284782905, 0
639, 0.50147227013983, 0.24895093603148, 0
640, 0.17861308953009, -0.034849575695141, 0
641, 0.33655349083547, 0.24980825713567, 0
642, 0.69726367033533, 0.11296454684033, 0
643, 0.64547627712195, 0.11820913189906, 0
644, 0.67162634545396, 0.11523937441858, 0
645, 0.47084338413893, 0.15615911863369, 0
646, 0.53036656232467, 0.11034277100827, 0
647, 0.024897332586541, 0.10753808232006, 0
648, 0.74323245186598, -0.0011050884999826, 0
649, 0.89546607364169, -0.084566839960255, 0
650, 0.9742225761218, 0.024552917438136, 0
651, 0.76710968110339, -0.029405445058566, 0
652, 0.8171537554668, -0.16600793239722, 0
653, 0.42003720469541, -0.26309270354625, 0
654, 0.40024147167264, -0.26888330065535, 0
655, 0.7204686923109, 0.19358699312622, 0
656, 0.71851922766141, 0.2207048141766, 0
657, 0.079345588318284, -0.19320119658483, 0
658, 0.079357550863821, -0.2197731131168, 0
659, 0.82209654501025, 0.19156863539805, 0
660, 0.84660070355006, 0.2187197862567, 0
661, 0.82103858788545, 0.21913371365916, 0
662, 0.46324570990629, -0.27123054409938, 0
663, 0.4899699912776, -0.27447507845483, 0
664, 0.59432695581693, -0.27278416433194, 0
665, 0.94781333407365, -0.16487639034225, 0
666, 0.66763629019428, 0.0060280961030447, 0
667, 0.44357904094106, 0.20175769570623, 0
668, 0.074817375259701, 0.049910961971289, 0
669, 0.87114050581919, -0.0029947571630909, 0
670, 0.71407713271845, -0.19435360476453, 0
671, 0.64557067219979, -0.13768244883675, 0
672, 0.53714905805993, -0.0341698658692, 0
673, 0.40965988253127, 0.13092821052116, 0
674, 0.49517903023376, 0.069791820533206, 0
675, 0.56103507558915, 0.106948453798, 0
676, 0.28584554312288, 0.27462433173057, 0
677, 0.19622938597397, 0.081513350939182, 0
678, 0.20188466568341, 0.2200201504757, 0
679, 0.26952999778565, 0.0096031663484007, 0
680, 0.36720901840527, 0.27490130667954, 0
681, 0.3271611076317, 0.14925935961647, 0
682, 0.2957074415107, -0.0062172497000052, 0
683, 0.47452335104765, 0.2740119667135, 0
684, 0.20835060582323, -0.062256369231408, 0
685, 0.18680237393809, -0.088853204532885, 0
686, 0.18249051155097, -0.062466355642419, 0
687, 0.58991468516171, 0.055389797158041, 0
688, 0.42518223948109, 0.018336473465223, 0
689, 0.4742152293028, -0.031799976674635, 0
690, 0.72245394078432, 0.13884761999967, 0
691, 0.72175735457254, 0.16628891745258, 0
692, 0.025068691153365, 0.19128644759833, 0
693, 0.12343573747743, 0.13490249571541, 0
694, 0.2447416086776, 0.059317363004701, 0
695, 0.22128254102418, 0.026659477448795, 0
696, 0.17638570641055, 0.21935547061297, 0
697, 0.7477634585088, 0.11006295999801, 0
698, 0.81693342362805, -0.19325427417222, 0
699, 0.72259538076485, 0.11128171432283, 0
700, 0.38656186719714, 0.20098897340269, 0
701, 0.19736096545185, 0.13781677328603, 0
702, 0.34949951421523, 0.076770804718639, 0
703, 0.19656287707763, 0.10982686815719, 0
704, 0.24529069139684, 0.087294837011532, 0
705, 0.8692457053276, -0.11170323025867, 0
706, 0.57995506303943, 0.27383474362603, 0
707, 0.41862949002733, 0.24970184581226, 0
708, 0.61848875960447, 0.12203285991055, 0
709, 0.56055579387806, 0.084655693609887, 0
710, 0.5293213027302, 0.088836579899558, 0
711, 0.84311949316775, -0.16596145989432, 0
712, 0.10622491596726, -0.1668456008017, 0
713, 0.079378910947969, -0.16674893617001, 0
714, 0.36102373634852, 0.22505516770442, 0
715, 0.15483305899253, 0.27325929515357, 0
716, 0.38278281325104, 0.15280124485792, 0
717, 0.81715246323964, -0.084463205412538, 0
718, 0.43726723627712, 0.11020752643519, 0
719, 0.58882816431284, 0.032469479379631, 0
720, 0.60629825820705, 0.27383922830648, 0
721, 0.35869955305375, 0.20032625430906, 0
722, 0.076497431193164, 0.24606459368639, 0
723, 0.62154582398176, -0.17391696129052, 0
724, 0.22999132007883, 0.24746902955787, 0
725, 0.0753838778445, 0.021756554564676, 0
726, 0.43966856803601, -0.26661446859305, 0
727, 0.24940169309965, 0.16883210830478, 0
728, 0.24771364477711, 0.14195814523238, 0
729, 0.55962828380492, 0.062860122974405, 0
730, 0.50094385497612, 0.27381187718978, 0
731, 0.89774656234456, 0.2182671911413, 0
732, 0.92330491726475, 0.2182583853043, 0
733, 0.050058058317468, 0.19100274847546, 0
734, 0.04964609243183, 0.10689773549853, 0
735, 0.39702942267713, -0.079008824079804, 0
736, 0.4028398265282, 0.059990566974897, 0
737, 0.92247483523916, -0.0028355976113249, 0
738, 0.64434894361688, 0.038758515302738, 0
739, 0.7966954657786, 0.052812825082015, 0
740, 0.74730680007593, 0.082234954934941, 0
741, 0.61876266326158, 0.096998381079055, 0
742, 0.87288160771148, 0.19086785648815, 0
743, 0.87217450339531, 0.2184002158258, 0
744, 0.13345075816339, -0.140661506104, 0
745, 0.13314822177509, -0.16677740347921, 0
746, 0.89532601194854, -0.19246655502231, 0
747, 0.92346143740478, 0.052165937325529, 0
748, 0.68499889053519, -0.22308292730841, 0
749, 0.82194427621675, 0.052442563723691, 0
750, 0.36377202046929, 0.24991283613678, 0
751, 0.2763132685026, -0.047388040801607, 0
752, 0.47325638912337, 0.22521746903792, 0
753, 0.71152756248168, -0.22182592410107, 0
754, 0.40021356927456, 0.035352233739775, 0
755, 0.53013613820629, 0.22452266030255, 0
756, 0.19757102108109, 0.023945617769674, 0
757, 0.71557774558019, -0.027240335456194, 0
758, 0.74636398667727, 0.054385487773022, 0
759, 0.5017890692583, 0.20146348696383, 0
760, 0.074986082235793, 0.19084407563004, 0
761, 0.84281789300105, -0.24698349961318, 0
762, 0.79294383075098, -0.029929319102071, 0
763, 0.66961856536917, 0.033718858647496, 0
764, 0.61032702596627, 0.24808928685062, 0
765, 0.17479514867765, 0.19198539878228, 0
766, 0.84805660996478, 0.16346652231697, 0
767, 0.87335907467837, 0.16319768673611, 0
768, 0.17196502483925, 0.079759409416468, 0
769, 0.22708155729668, -0.032398558473106, 0
770, 0.14972276798511, 0.1913746442581, 0
771, 0.53085045798888, 0.2008266565246, 0
772, 0.16059696615635, -0.11467531499694, 0
773, 0.133211907683, -0.11470461965462, 0
774, 0.30810606461992, -0.10247393920239, 0
775, 0.43207211277118, 0.064987384183445, 0
776, 0.86938141619957, -0.084666011591463, 0
777, 0.61811647379689, 0.046812556071489, 0
778, 0.8691906720961, -0.16579951164274, 0
779, 0.8472500688382, 0.052242142673966, 0
780, 0.97400531890158, -0.0026820703666074, 0
781, 0.82313245513626, 0.13600978142159, 0
782, 0.82280279903474, 0.16383935263927, 0
783, 0.66770609409167, -0.16774598262251, 0
784, 0.63656415083827, -0.044500902526434, 0
785, 0.97444849462836, 0.051994784847799, 0
786, 0.6186608027297, 0.071931892325819, 0
787, 0.30294589811431, -0.14462869714526, 0
788, 0.28872556002859, -0.19348290910427, 0
789, 0.2958711416871, -0.16767202350921, 0
790, 0.21626367300714, -0.11420183221213, 0
791, 0.1882617072138, -0.11446445365443, 0
792, 0.74130105267207, -0.028560890721173, 0
793, 0.12730368878542, 0.24613306137603, 0
794, 0.050432883404883, 0.022648736629462, 0
795, 0.92173477395124, -0.057311911151735, 0
796, 0.94768115888457, -0.11102996544022, 0
797, 0.86921818662755, -0.13874812928348, 0
798, 0.42122775196219, 0.27450136217693, 0
799, 0.55956222045113, 0.19985148539717, 0
800, 0.27359487056549, 0.14460937154891, 0
801, 0.44088843649433, 0.15555105748431, 0
802, 0.6676746945926, -0.13680379720024, 0
803, 0.2886629858282, -0.22104714978964, 0
804, 0.77239644391624, 0.081298500477027, 0
805, 0.76513326992125, -0.1934575631258, 0
806, 0.94856312507613, 0.024631838902173, 0
807, 0.79795579898092, 0.10857061847325, 0
808, 0.8230832528571, 0.10813498848697, 0
809, 0.35662590825416, 0.17569345403636, 0
810, 0.05046932957292, 0.21870402363838, 0
811, 0.41150000089802, 0.15431827022295, 0
812, 0.46788247534091, 0.11187269716267, 0
813, 0.50109294219146, 0.15592170416486, 0
814, 0.43923782999865, 0.13280766462877, 0
815, 0.10125788993736, -0.0068305024776852, 0
816, 0.024939546127753, 0.16346366863729, 0
817, 0.051066053064039, 0.24614218138041, 0
818, 0.97379316596766, -0.056728899469931, 0
819, 0.77286261754611, 0.10919223205457, 0
820, 0.66388574451146, -0.10606403249206, 0
821, 0.24265711193092, -0.089036317356454, 0
822, 0.27416526415285, -0.11594691007919, 0
823, 0.24470497799405, -0.11431035927562, 0
824, 0.4479556585042, 0.27422412875167, 0
825, 0.46299940707668, 0.068612002703485, 0
826, 0.39429453295822, 0.27475214902618, 0
827, 0.30607054042368, -0.122855849572, 0
828, 0.244913261188, 0.030720442702144, 0
829, 0.27997749173487, 0.22301581967742, 0
830, 0.49910476118818, 0.11200458997653, 0
831, 0.26916015020139, 0.037354298439784, 0
832, 0.52231166675373, 0.027926463951651, 0
833, 0.23351441913568, -0.061713362283508, 0
834, 0.22326304029694, -0.0027237090177012, 0
835, 0.37352965205212, -0.083622379270965, 0
836, 0.32910922206096, 0.1743665920964, 0
837, 0.25363373387329, 0.22192945904003, 0
838, 0.53126134744497, 0.15475782332817, 0
839, 0.59058915026875, 0.1022553594221, 0
840, 0.50175092443163, 0.22491281242332, 0
841, 0.10189980323462, 0.24606823490851, 0
842, 0.55824220430846, 0.22397778537128, 0
843, 0.61506322871966, -0.0033980696913882, 0
844, 0.32463984842697, -0.17002739863082, 0
845, 0.52774127914664, 0.067886657086576, 0
846, 0.3749745106774, -0.24919305285879, 0
847, 0.62157807748979, -0.25065900959998, 0
848, 0.52899635819134, 0.24878374085663, 0
849, 0.69004877563808, -0.025169761352508, 0
850, 0.4443598029116, -0.042551493377578, 0
851, 0.97392587135135, -0.13754194309932, 0
852, 0.3846441387582, 0.17684487179492, 0
853, 0.58372487348835, -0.011203122371558, 0
854, 0.29492535016497, 0.044520574014535, 0
855, 0.29569477872453, 0.070202130276103, 0
856, 0.29689005291194, 0.095911083573096, 0
857, 0.29838467623021, 0.12159201580674, 0
858, 0.30011062517554, 0.14722919640334, 0
859, 0.30204709004191, 0.17282842072427, 0
860, 0.30421507221402, 0.19840160903005, 0
861, 0.30667327707016, 0.22395232913733, 0
862, 0.30951396100311, 0.24945883331278, 0
863, 0.31285602061945, 0.27485057173744, 0
864, 0.32827109176089, -0.058026003771143, 0
865, 0.35150513963287, -0.057665291740163, 0
866, 0.37417742502415, -0.054303160429309, 0
867, 0.39609178021215, -0.047204020631391, 0
868, 0.41951349635576, -0.032282215713103, 0
869, 0.44732988917005, -0.019035570991367, 0
870, 0.47904701225839, -0.010878033007002, 0
871, 0.5128445431188, -0.00980769002593, 0
872, 0.54662723690995, -0.016585652980346, 0
873, 0.57845859477655, -0.030896472143987, 0
874, 0.60034264311656, -0.22741962580857, 0
875, 0.30439637333401, -0.055088002284769, 0
876, 0.68725322671446, -0.052590223105273, 0
877, 0.8692198246027, -0.24669116040955, 0
878, 0.84315553356824, -0.11169535834155, 0
879, 0.89622689340427, -0.030279689670297, 0
880, 0.68516457351004, -0.079571817449554, 0
881, 0.73948347343037, -0.1937392652077, 0
882, 0.89534765435358, -0.16552792282453, 0
883, 0.71784983251981, 0.00031167684077832, 0
884, 0.62333122810263, -0.27429944533853, 0
885, 0.67153064437795, 0.088310825802446, 0
886, 0.8198835809326, -0.0028441312950486, 0
887, 0.31383495028073, -0.19508538400255, 0
888, 0.36287969603793, -0.20145172141636, 0
******* E L E M E N T S *************
*ELEMENT, type=T3D2, ELSET=Line1
1, 1, 10
2, 10, 18
3, 18, 11
4, 11, 19
5, 19, 12
6, 12, 20
7, 20, 13
8, 13, 21
9, 21, 14
10, 14, 22
11, 22, 15
12, 15, 23
13, 23, 16
14, 16, 24
15, 24, 17
16, 17, 2
*ELEMENT, type=T3D2, ELSET=Line2
17, 2, 25
18, 25, 28
19, 28, 26
20, 26, 29
21, 29, 27
22, 27, 3
*ELEMENT, type=T3D2, ELSET=Line3
23, 3, 30
24, 30, 38
25, 38, 31
26, 31, 39
27, 39, 32
28, 32, 40
29, 40, 33
30, 33, 41
31, 41, 34
32, 34, 42
33, 42, 35
34, 35, 43
35, 43, 36
36, 36, 44
37, 44, 37
38, 37, 4
*ELEMENT, type=T3D2, ELSET=Line4
39, 4, 45
40, 45, 56
41, 56, 46
42, 46, 57
43, 57, 47
44, 47, 58
45, 58, 48
46, 48, 59
47, 59, 49
48, 49, 60
49, 60, 50
50, 50, 61
51, 61, 51
52, 51, 62
53, 62, 52
54, 52, 63
55, 63, 53
56, 53, 64
57, 64, 54
58, 54, 65
59, 65, 55
60, 55, 5
*ELEMENT, type=T3D2, ELSET=Line5
61, 5, 66
62, 66, 74
63, 74, 67
64, 67, 75
65, 75, 68
66, 68, 76
67, 76, 69
68, 69, 77
69, 77, 70
70, 70, 78
71, 78, 71
72, 71, 79
73, 79, 72
74, 72, 80
75, 80, 73
76, 73, 6
*ELEMENT, type=T3D2, ELSET=Line6
77, 6, 81
78, 81, 84
79, 84, 82
80, 82, 85
81, 85, 83
82, 83, 7
*ELEMENT, type=T3D2, ELSET=Line7
83, 7, 86
84, 86, 94
85, 94, 87
86, 87, 95
87, 95, 88
88, 88, 96
89, 96, 89
90, 89, 97
91, 97, 90
92, 90, 98
93, 98, 91
94, 91, 99
95, 99, 92
96, 92, 100
97, 100, 93
98, 93, 8
*ELEMENT, type=T3D2, ELSET=Line8
99, 8, 101
100, 101, 112
101, 112, 102
102, 102, 113
103, 113, 103
104, 103, 114
105, 114, 104
106, 104, 115
107, 115, 105
108, 105, 116
109, 116, 106
110, 106, 117
111, 117, 107
112, 107, 118
113, 118, 108
114, 108, 119
115, 119, 109
116, 109, 120
117, 120, 110
118, 110, 121
119, 121, 111
120, 111, 1
*ELEMENT, type=T3D2, ELSET=Line9
121, 9, 122
122, 122, 134
123, 134, 123
124, 123, 135
125, 135, 124
126, 124, 136
127, 136, 125
128, 125, 137
129, 137, 126
130, 126, 138
131, 138, 127
132, 127, 139
133, 139, 128
134, 128, 140
135, 140, 129
136, 129, 141
137, 141, 130
138, 130, 142
139, 142, 131
140, 131, 143
141, 143, 132
142, 132, 144
143, 144, 133
144, 133, 9
*ELEMENT, type=CPS4, ELSET=Surface1
145, 251, 764, 203, 590
146, 614, 601, 627, 728
147, 165, 817, 722, 638
148, 771, 759, 303, 146
149, 809, 836, 681, 632
150, 195, 202, 817, 165
151, 794, 503, 421, 725
152, 531, 277, 276, 509
153, 379, 606, 328, 261
154, 412, 571, 487, 295
155, 322, 37, 4, 45
156, 611, 186, 531, 606
157, 500, 528, 885, 324
158, 453, 343, 564, 323
159, 270, 624, 748, 197
160, 23, 348, 349, 15
161, 15, 349, 346, 22
162, 349, 347, 150, 346
163, 308, 153, 846, 551
164, 98, 715, 188, 90
165, 106, 117, 333, 177
166, 104, 115, 176, 647
167, 679, 200, 854, 831
168, 263, 553, 192, 452
169, 840, 752, 495, 759
170, 851, 388, 47, 58
171, 647, 176, 337, 734
172, 485, 770, 765, 696
173, 170, 794, 725, 668
174, 715, 336, 634, 188
175, 90, 188, 163, 97
176, 734, 337, 414, 390
177, 867, 866, 835, 735
178, 633, 185, 727, 174
179, 151, 366, 367, 365
180, 365, 367, 346, 150
181, 367, 14, 22, 346
182, 366, 21, 14, 367
183, 274, 370, 371, 368
184, 368, 371, 369, 240
185, 371, 52, 63, 369
186, 370, 62, 52, 371
187, 149, 374, 375, 372
188, 372, 375, 373, 148
189, 375, 12, 20, 373
190, 374, 19, 12, 375
191, 147, 377, 378, 376
192, 376, 378, 374, 149
193, 378, 11, 19, 374
194, 377, 18, 11, 378
195, 285, 36, 44, 294
196, 516, 545, 278, 761
197, 324, 643, 708, 741
198, 278, 42, 35, 386
199, 148, 373, 383, 382
200, 382, 383, 366, 151
201, 383, 13, 21, 366
202, 373, 20, 13, 383
203, 313, 846, 153, 315
204, 384, 385, 16, 24
205, 385, 348, 23, 16
206, 803, 227, 887, 788
207, 458, 847, 544, 624
208, 795, 455, 411, 472
209, 880, 611, 606, 379
210, 761, 278, 386, 877
211, 334, 560, 223, 502
212, 559, 635, 201, 574
213, 645, 801, 814, 467
214, 494, 178, 775, 825
215, 288, 785, 370, 274
216, 289, 417, 699, 642
217, 565, 738, 777, 298
218, 161, 162, 450, 284
219, 119, 109, 397, 394
220, 394, 397, 395, 217
221, 397, 396, 210, 395
222, 109, 120, 396, 397
223, 217, 399, 400, 394
224, 394, 400, 108, 119
225, 400, 398, 118, 108
226, 399, 220, 398, 400
227, 763, 267, 380, 528
228, 528, 380, 289, 885
229, 698, 392, 571, 412
230, 413, 389, 879, 514
231, 248, 406, 407, 404
232, 404, 407, 405, 247
233, 407, 70, 78, 405
234, 406, 77, 70, 407
235, 610, 294, 322, 287
236, 520, 299, 46, 57
237, 500, 324, 741, 786
238, 532, 508, 418, 155
239, 171, 334, 502, 391
240, 869, 868, 254, 850
241, 868, 867, 735, 254
242, 363, 422, 185, 633
243, 162, 747, 282, 450
244, 379, 261, 266, 304
245, 416, 519, 342, 567
246, 290, 60, 50, 780
247, 482, 222, 769, 834
248, 839, 675, 709, 597
249, 176, 504, 170, 337
250, 816, 180, 600, 557
251, 664, 608, 3, 30
252, 158, 143, 608, 664
253, 512, 459, 613, 340
254, 522, 849, 409, 666
255, 219, 333, 420, 419
256, 419, 420, 398, 220
257, 420, 107, 118, 398
258, 333, 117, 107, 420
259, 850, 254, 126, 137
260, 553, 327, 507, 192
261, 338, 692, 733, 810
262, 410, 391, 506, 451
263, 245, 426, 427, 424
264, 424, 427, 425, 246
265, 427, 68, 76, 425
266, 426, 75, 68, 427
267, 64, 54, 431, 428
268, 428, 431, 429, 243
269, 431, 430, 244, 429
270, 54, 65, 430, 431
271, 63, 53, 433, 369
272, 369, 433, 432, 240
273, 433, 428, 243, 432
274, 53, 64, 428, 433
275, 121, 111, 435, 434
276, 434, 435, 377, 147
277, 435, 10, 18, 377
278, 111, 1, 10, 435
279, 78, 71, 438, 405
280, 405, 438, 436, 247
281, 438, 437, 249, 436
282, 71, 79, 437, 438
283, 177, 333, 219, 503
284, 801, 811, 673, 814
285, 696, 765, 363, 678
286, 417, 740, 697, 699
287, 79, 72, 444, 437
288, 437, 444, 442, 249
289, 444, 443, 251, 442
290, 72, 80, 443, 444
291, 240, 447, 448, 368
292, 779, 161, 284, 268
293, 318, 873, 320, 488
294, 447, 239, 446, 448
295, 648, 512, 340, 454
296, 877, 386, 311, 403
297, 566, 652, 711, 533
298, 293, 330, 48, 59
299, 325, 862, 863, 676
300, 834, 769, 224, 182
301, 768, 451, 190, 677
302, 92, 638, 538, 99
303, 305, 532, 155, 665
304, 670, 753, 513, 881
305, 568, 393, 796, 499
306, 568, 499, 455, 795
307, 246, 425, 457, 456
308, 456, 457, 406, 248
309, 457, 69, 77, 406
310, 425, 76, 69, 457
311, 612, 283, 156, 445
312, 381, 530, 820, 523
313, 329, 535, 874, 458
314, 65, 55, 461, 430
315, 430, 461, 460, 244
316, 461, 66, 74, 460
317, 55, 5, 66, 461
318, 244, 460, 463, 462
319, 462, 463, 426, 245
320, 463, 67, 75, 426
321, 460, 74, 67, 463
322, 115, 105, 504, 176
323, 145, 640, 222, 482
324, 600, 734, 390, 415
325, 503, 219, 546, 421
326, 852, 809, 632, 716
327, 688, 263, 452, 262
328, 829, 861, 862, 325
329, 320, 672, 124, 135
330, 865, 864, 585, 312
331, 557, 600, 415, 168
332, 163, 194, 724, 166
333, 635, 586, 335, 201
334, 321, 857, 856, 474
335, 303, 351, 645, 813
336, 672, 264, 136, 124
337, 473, 631, 871, 872
338, 353, 189, 173, 172
339, 841, 552, 359, 793
340, 538, 841, 793, 556
341, 247, 478, 479, 404
342, 404, 479, 476, 248
343, 479, 477, 234, 476
344, 478, 235, 477, 479
345, 120, 110, 481, 396
346, 396, 481, 480, 210
347, 481, 434, 147, 480
348, 110, 121, 434, 481
349, 359, 172, 770, 485
350, 468, 494, 825, 674
351, 113, 103, 816, 692
352, 537, 760, 353, 552
353, 291, 669, 273, 160
354, 449, 134, 122, 490
355, 156, 32, 40, 339
356, 261, 453, 306, 266
357, 710, 468, 674, 845
358, 387, 305, 665, 292
359, 167, 616, 327, 553
360, 575, 700, 852, 205
361, 256, 321, 474, 183
362, 873, 872, 672, 320
363, 729, 845, 356, 358
364, 704, 364, 615, 627
365, 723, 133, 144, 535
366, 269, 876, 849, 522
367, 402, 285, 294, 610
368, 749, 779, 268, 280
369, 337, 170, 668, 414
370, 536, 171, 391, 410
371, 440, 695, 828, 694
372, 439, 177, 503, 794
373, 204, 410, 451, 768
374, 793, 359, 485, 336
375, 390, 414, 626, 465
376, 817, 810, 537, 722
377, 342, 511, 545, 516
378, 509, 276, 196, 401
379, 624, 544, 612, 748
380, 886, 291, 160, 605
381, 297, 403, 402, 508
382, 570, 776, 413, 154
383, 564, 408, 566, 486
384, 403, 311, 285, 402
385, 238, 517, 518, 515
386, 515, 518, 446, 239
387, 747, 288, 274, 282
388, 820, 802, 186, 611
389, 511, 41, 34, 545
390, 343, 401, 408, 564
391, 671, 272, 783, 802
392, 408, 316, 652, 566
393, 234, 477, 527, 524
394, 524, 527, 525, 237
395, 527, 526, 236, 525
396, 477, 235, 526, 527
397, 186, 489, 277, 531
398, 804, 317, 807, 819
399, 311, 43, 36, 285
400, 323, 564, 486, 717
401, 783, 270, 197, 489
402, 881, 513, 416, 805
403, 324, 885, 644, 643
404, 567, 342, 516, 392
405, 194, 678, 554, 724
406, 504, 439, 794, 170
407, 874, 132, 143, 158
408, 265, 859, 860, 199
409, 150, 541, 542, 365
410, 365, 542, 539, 151
411, 542, 540, 211, 539
412, 541, 212, 540, 542
413, 753, 445, 260, 513
414, 805, 416, 567, 157
415, 649, 568, 795, 389
416, 649, 636, 393, 568
417, 220, 548, 549, 419
418, 419, 549, 546, 219
419, 549, 547, 218, 546
420, 548, 221, 547, 549
421, 551, 846, 384, 654
422, 315, 153, 888, 550
423, 128, 308, 551, 140
424, 844, 152, 309, 228
425, 166, 724, 164, 332
426, 364, 856, 857, 615
427, 202, 338, 810, 817
428, 103, 114, 180, 816
429, 501, 555, 171, 536
430, 105, 116, 439, 504
431, 187, 768, 677, 703
432, 693, 423, 352, 360
433, 221, 562, 563, 547
434, 547, 563, 560, 218
435, 563, 561, 223, 560
436, 562, 225, 561, 563
437, 884, 664, 30, 38
438, 796, 292, 851, 330
439, 533, 711, 778, 797
440, 514, 879, 534, 669
441, 778, 295, 746, 882
442, 386, 35, 43, 311
443, 652, 698, 412, 711
444, 508, 402, 610, 418
445, 523, 820, 611, 880
446, 705, 797, 296, 636
447, 381, 449, 490, 530
448, 458, 874, 158, 847
449, 631, 193, 870, 871
450, 229, 491, 751, 319
451, 675, 646, 710, 709
452, 277, 670, 881, 276
453, 209, 578, 579, 576
454, 576, 579, 577, 208
455, 579, 372, 148, 577
456, 578, 149, 372, 579
457, 240, 432, 582, 447
458, 447, 582, 580, 239
459, 582, 581, 242, 580
460, 432, 243, 581, 582
461, 151, 539, 584, 382
462, 382, 584, 577, 148
463, 584, 583, 208, 577
464, 539, 211, 583, 584
465, 224, 617, 679, 182
466, 871, 870, 689, 264
467, 571, 761, 877, 487
468, 484, 863, 862, 641
469, 249, 442, 591, 588
470, 588, 591, 589, 257
471, 591, 590, 250, 589
472, 442, 251, 590, 591
473, 257, 589, 595, 592
474, 592, 595, 593, 259
475, 595, 594, 258, 593
476, 589, 250, 594, 595
477, 506, 145, 482, 756
478, 641, 862, 861, 231
479, 185, 614, 728, 727
480, 91, 556, 715, 98
481, 493, 355, 497, 193
482, 189, 206, 693, 173
483, 597, 709, 729, 687
484, 336, 485, 696, 634
485, 216, 603, 604, 602
486, 602, 604, 399, 217
487, 604, 548, 220, 399
488, 603, 221, 548, 604
489, 381, 784, 281, 318
490, 545, 34, 42, 278
491, 196, 805, 157, 316
492, 29, 27, 609, 607
493, 607, 609, 131, 142
494, 609, 608, 143, 131
495, 27, 3, 608, 609
496, 454, 340, 569, 758
497, 513, 260, 519, 416
498, 785, 51, 62, 370
499, 510, 522, 666, 565
500, 183, 474, 232, 702
501, 681, 858, 857, 321
502, 360, 352, 187, 464
503, 627, 615, 800, 728
504, 728, 800, 265, 727
505, 853, 473, 872, 873
506, 319, 751, 617, 224
507, 230, 618, 619, 301
508, 301, 619, 127, 138
509, 619, 309, 139, 127
510, 618, 228, 309, 619
511, 212, 622, 623, 540
512, 540, 623, 620, 211
513, 623, 621, 214, 620
514, 622, 213, 621, 623
515, 272, 329, 270, 783
516, 450, 282, 448, 446
517, 737, 271, 806, 637
518, 449, 488, 123, 134
519, 717, 486, 878, 570
520, 842, 755, 771, 799
521, 878, 533, 797, 705
522, 707, 483, 255, 207
523, 211, 620, 630, 583
524, 583, 630, 628, 208
525, 630, 629, 215, 628
526, 620, 214, 629, 630
527, 326, 498, 473, 853
528, 441, 707, 207, 357
529, 687, 729, 358, 719
530, 362, 599, 572, 470
531, 616, 302, 331, 327
532, 799, 771, 146, 586
533, 677, 190, 440, 558
534, 601, 558, 704, 627
535, 605, 160, 779, 749
536, 651, 762, 459, 512
537, 717, 570, 154, 345
538, 345, 154, 529, 300
539, 310, 467, 812, 830
540, 701, 703, 601, 614
541, 421, 546, 218, 815
542, 451, 506, 756, 190
543, 259, 593, 644, 642
544, 453, 323, 521, 306
545, 339, 40, 33, 543
546, 593, 258, 643, 644
547, 845, 674, 466, 356
548, 471, 198, 635, 559
549, 475, 464, 701, 422
550, 391, 502, 145, 506
551, 411, 290, 780, 271
552, 883, 648, 454, 275
553, 393, 387, 292, 796
554, 797, 778, 882, 296
555, 2, 653, 654, 17
556, 17, 654, 384, 24
557, 314, 888, 153, 308
558, 550, 888, 314, 152
559, 257, 655, 656, 588
560, 588, 656, 436, 249
561, 656, 478, 247, 436
562, 655, 235, 478, 656
563, 210, 480, 658, 657
564, 657, 658, 578, 209
565, 658, 376, 149, 578
566, 480, 147, 376, 658
567, 241, 660, 661, 659
568, 659, 661, 476, 234
569, 661, 456, 248, 476
570, 660, 246, 456, 661
571, 142, 130, 663, 607
572, 607, 663, 26, 29
573, 663, 662, 28, 26
574, 130, 141, 662, 663
575, 882, 746, 532, 305
576, 739, 749, 280, 317
577, 671, 344, 723, 272
578, 879, 472, 737, 534
579, 93, 195, 165, 100
580, 719, 358, 498, 326
581, 634, 696, 678, 194
582, 759, 495, 351, 303
583, 271, 780, 650, 806
584, 529, 514, 669, 291
585, 296, 882, 305, 387
586, 777, 786, 597, 687
587, 232, 855, 854, 354
588, 231, 861, 860, 350
589, 179, 175, 688, 355
590, 146, 303, 813, 838
591, 304, 266, 792, 757
592, 116, 106, 177, 439
593, 689, 850, 137, 125
594, 497, 262, 868, 869
595, 709, 710, 845, 729
596, 760, 168, 189, 353
597, 250, 471, 559, 594
598, 637, 806, 288, 747
599, 225, 685, 686, 561
600, 561, 686, 640, 223
601, 686, 684, 222, 640
602, 685, 226, 684, 686
603, 491, 875, 573, 751
604, 327, 331, 253, 507
605, 870, 869, 850, 689
606, 279, 31, 39, 283
607, 235, 655, 691, 526
608, 526, 691, 690, 236
609, 691, 592, 259, 690
610, 655, 257, 592, 691
611, 815, 218, 560, 334
612, 678, 363, 633, 554
613, 673, 184, 599, 362
614, 101, 112, 202, 195
615, 8, 101, 195, 93
616, 800, 858, 859, 265
617, 255, 714, 721, 700
618, 414, 668, 501, 626
619, 236, 690, 699, 697
620, 488, 320, 135, 123
621, 565, 666, 763, 738
622, 690, 259, 642, 699
623, 354, 854, 200, 302
624, 756, 482, 834, 695
625, 351, 181, 801, 645
626, 207, 255, 700, 575
627, 668, 725, 555, 501
628, 97, 163, 166, 89
629, 178, 470, 736, 775
630, 695, 834, 182, 828
631, 703, 677, 558, 601
632, 361, 536, 410, 204
633, 465, 626, 361, 423
634, 639, 169, 752, 840
635, 181, 205, 811, 801
636, 674, 825, 179, 466
637, 498, 832, 631, 473
638, 848, 639, 840, 755
639, 381, 318, 488, 449
640, 806, 650, 785, 288
641, 741, 708, 596, 839
642, 287, 322, 45, 56
643, 209, 712, 713, 657
644, 657, 713, 395, 210
645, 713, 602, 217, 395
646, 712, 216, 602, 713
647, 667, 575, 205, 181
648, 190, 756, 695, 440
649, 352, 204, 768, 187
650, 880, 379, 304, 876
651, 191, 598, 842, 496
652, 836, 859, 858, 681
653, 254, 735, 138, 126
654, 199, 860, 861, 829
655, 694, 469, 364, 704
656, 502, 223, 640, 145
657, 721, 350, 836, 809
658, 716, 632, 256, 184
659, 755, 840, 759, 771
660, 810, 733, 760, 537
661, 312, 585, 774, 230
662, 725, 421, 815, 555
663, 141, 129, 726, 662
664, 662, 726, 25, 28
665, 726, 653, 2, 25
666, 129, 140, 653, 726
667, 714, 231, 350, 721
668, 174, 199, 829, 837
669, 722, 537, 552, 841
670, 206, 465, 423, 693
671, 617, 682, 200, 679
672, 835, 312, 230, 301
673, 700, 721, 809, 852
674, 736, 492, 167, 754
675, 245, 731, 732, 462
676, 462, 732, 429, 244
677, 732, 581, 243, 429
678, 731, 242, 581, 732
679, 724, 554, 837, 164
680, 423, 361, 204, 352
681, 112, 102, 338, 202
682, 330, 851, 58, 48
683, 193, 497, 869, 870
684, 168, 415, 206, 189
685, 556, 793, 336, 715
686, 569, 739, 317, 804
687, 280, 268, 517, 808
688, 665, 155, 520, 388
689, 157, 567, 392, 698
690, 843, 298, 719, 326
691, 323, 717, 345, 521
692, 155, 418, 299, 520
693, 242, 731, 743, 742
694, 742, 743, 660, 241
695, 743, 424, 246, 660
696, 731, 245, 424, 743
697, 216, 712, 745, 744
698, 744, 745, 628, 215
699, 745, 576, 208, 628
700, 712, 209, 576, 745
701, 298, 777, 687, 719
702, 519, 543, 511, 342
703, 802, 783, 489, 186
704, 472, 411, 271, 737
705, 570, 878, 705, 776
706, 758, 569, 804, 740
707, 389, 795, 472, 879
708, 775, 736, 754, 175
709, 866, 865, 312, 835
710, 636, 296, 387, 393
711, 831, 854, 855, 469
712, 198, 799, 586, 635
713, 615, 857, 858, 800
714, 253, 573, 875, 864
715, 350, 860, 859, 836
716, 735, 835, 301, 138
717, 558, 440, 694, 704
718, 357, 207, 575, 667
719, 625, 360, 464, 475
720, 740, 804, 819, 697
721, 281, 843, 326, 853
722, 154, 413, 514, 529
723, 738, 763, 528, 500
724, 205, 852, 716, 811
725, 864, 875, 491, 585
726, 332, 676, 88, 96
727, 496, 842, 799, 198
728, 885, 289, 642, 644
729, 160, 273, 161, 779
730, 294, 44, 37, 322
731, 340, 613, 739, 569
732, 598, 848, 755, 842
733, 182, 679, 831, 828
734, 847, 884, 279, 544
735, 626, 501, 536, 361
736, 241, 766, 767, 742
737, 742, 767, 580, 242
738, 767, 515, 239, 580
739, 766, 238, 515, 767
740, 770, 625, 475, 765
741, 590, 203, 471, 250
742, 733, 557, 168, 760
743, 422, 701, 614, 185
744, 215, 772, 773, 744
745, 744, 773, 603, 216
746, 773, 562, 221, 603
747, 772, 225, 562, 773
748, 175, 754, 263, 688
749, 470, 572, 492, 736
750, 505, 310, 830, 646
751, 184, 256, 183, 599
752, 746, 297, 508, 532
753, 284, 450, 446, 518
754, 260, 339, 543, 519
755, 283, 39, 32, 156
756, 847, 158, 664, 884
757, 267, 275, 159, 380
758, 292, 665, 388, 851
759, 317, 280, 808, 807
760, 238, 766, 782, 781
761, 781, 782, 524, 237
762, 782, 659, 234, 524
763, 766, 241, 659, 782
764, 748, 612, 445, 753
765, 489, 197, 670, 277
766, 445, 156, 339, 260
767, 459, 886, 605, 613
768, 212, 788, 789, 622
769, 622, 789, 787, 213
770, 307, 313, 315, 227
771, 140, 551, 654, 653
772, 214, 790, 791, 629
773, 629, 791, 772, 215
774, 791, 685, 225, 772
775, 790, 226, 685, 791
776, 818, 49, 60, 290
777, 409, 883, 275, 267
778, 606, 531, 509, 328
779, 316, 157, 698, 652
780, 825, 775, 175, 179
781, 355, 688, 262, 497
782, 702, 232, 354, 286
783, 173, 693, 360, 625
784, 738, 500, 786, 777
785, 341, 637, 747, 162
786, 380, 159, 417, 289
787, 818, 293, 59, 49
788, 455, 818, 290, 411
789, 680, 484, 641, 750
790, 201, 335, 252, 596
791, 467, 814, 718, 812
792, 572, 702, 286, 492
793, 401, 196, 316, 408
794, 169, 441, 357, 752
795, 586, 146, 838, 335
796, 100, 165, 638, 92
797, 415, 390, 465, 206
798, 286, 354, 302, 616
799, 718, 362, 470, 178
800, 159, 758, 740, 417
801, 418, 610, 287, 299
802, 261, 328, 343, 453
803, 273, 341, 162, 161
804, 887, 550, 152, 844
805, 347, 803, 541, 150
806, 803, 788, 212, 541
807, 139, 314, 308, 128
808, 499, 796, 330, 293
809, 521, 345, 300, 762
810, 613, 605, 749, 739
811, 543, 33, 41, 511
812, 786, 741, 839, 597
813, 776, 705, 636, 649
814, 300, 529, 291, 886
815, 784, 269, 522, 510
816, 455, 499, 293, 818
817, 650, 61, 51, 785
818, 388, 520, 57, 47
819, 534, 737, 637, 341
820, 237, 807, 808, 781
821, 781, 808, 517, 238
822, 276, 881, 805, 196
823, 876, 304, 757, 849
824, 830, 812, 494, 468
825, 751, 573, 682, 617
826, 192, 507, 865, 866
827, 765, 475, 422, 363
828, 252, 505, 646, 675
829, 164, 325, 676, 332
830, 872, 871, 264, 672
831, 356, 466, 493, 832
832, 89, 166, 332, 96
833, 464, 187, 703, 701
834, 535, 144, 132, 874
835, 272, 723, 535, 329
836, 669, 534, 341, 273
837, 776, 649, 389, 413
838, 784, 510, 843, 281
839, 510, 565, 298, 843
840, 819, 525, 236, 697
841, 807, 237, 525, 819
842, 299, 287, 56, 46
843, 392, 516, 761, 571
844, 318, 281, 853, 873
845, 328, 509, 401, 343
846, 213, 822, 823, 621
847, 621, 823, 790, 214
848, 823, 821, 226, 790
849, 822, 229, 821, 823
850, 495, 667, 181, 351
851, 469, 855, 856, 364
852, 492, 286, 616, 167
853, 811, 716, 184, 673
854, 229, 822, 827, 774
855, 774, 827, 618, 230
856, 827, 787, 228, 618
857, 822, 213, 787, 827
858, 814, 673, 362, 718
859, 832, 493, 193, 631
860, 180, 647, 734, 600
861, 99, 538, 556, 91
862, 692, 816, 557, 733
863, 752, 357, 667, 495
864, 172, 173, 625, 770
865, 596, 252, 675, 839
866, 838, 813, 310, 505
867, 452, 192, 866, 867
868, 507, 253, 864, 865
869, 358, 356, 832, 498
870, 226, 821, 833, 684
871, 684, 833, 769, 222
872, 833, 319, 224, 769
873, 821, 229, 319, 833
874, 554, 633, 174, 837
875, 646, 830, 468, 710
876, 483, 750, 714, 255
877, 727, 265, 199, 174
878, 638, 722, 841, 538
879, 102, 113, 692, 338
880, 828, 831, 469, 694
881, 466, 179, 355, 493
882, 812, 718, 178, 494
883, 594, 559, 574, 258
884, 676, 863, 95, 88
885, 813, 645, 467, 310
886, 264, 689, 125, 136
887, 837, 829, 325, 164
888, 302, 200, 682, 331
889, 188, 634, 194, 163
890, 114, 104, 647, 180
891, 555, 815, 334, 171
892, 552, 353, 172, 359
893, 203, 496, 198, 471
894, 599, 183, 702, 572
895, 331, 682, 573, 253
896, 306, 521, 762, 651
897, 487, 877, 403, 297
898, 490, 122, 9, 344
899, 152, 314, 139, 309
900, 227, 315, 550, 887
901, 385, 384, 846, 313
902, 585, 491, 229, 774
903, 632, 681, 321, 256
904, 262, 452, 867, 868
905, 347, 307, 227, 803
906, 789, 844, 228, 787
907, 788, 887, 844, 789
908, 711, 412, 295, 778
909, 197, 748, 753, 670
910, 275, 454, 758, 159
911, 574, 201, 596, 708
912, 849, 757, 883, 409
913, 474, 856, 855, 232
914, 757, 792, 648, 883
915, 282, 274, 368, 448
916, 780, 50, 61, 650
917, 750, 641, 231, 714
918, 258, 574, 708, 643
919, 764, 191, 496, 203
920, 329, 458, 624, 270
921, 486, 566, 533, 878
922, 884, 38, 31, 279
923, 754, 167, 553, 263
924, 335, 838, 505, 252
925, 826, 680, 750, 483
926, 798, 826, 483, 707
927, 824, 798, 707, 441
928, 683, 824, 441, 169
929, 730, 683, 169, 639
930, 233, 730, 639, 848
931, 587, 233, 848, 598
932, 706, 587, 598, 191
933, 720, 706, 191, 764
934, 443, 720, 764, 251
935, 87, 95, 863, 484
936, 94, 87, 484, 680
937, 86, 94, 680, 826
938, 7, 86, 826, 798
939, 83, 7, 798, 824
940, 85, 83, 824, 683
941, 82, 85, 683, 730
942, 84, 82, 730, 233
943, 81, 84, 233, 587
944, 6, 81, 587, 706
945, 73, 6, 706, 720
946, 80, 73, 720, 443
947, 530, 671, 802, 820
948, 266, 306, 651, 792
949, 268, 284, 518, 517
950, 381, 523, 269, 784
951, 544, 279, 283, 612
952, 762, 300, 886, 459
953, 792, 651, 512, 648
954, 344, 9, 133, 723
955, 295, 487, 297, 746
956, 666, 409, 267, 763
957, 530, 490, 344, 671
958, 523, 880, 876, 269
959, 348, 385, 313, 307
960, 349, 348, 307, 347
*ELSET,ELSET=contact_source
99, 100, 101, 102, 103, 104, 105, 106, 107, 108, 
109, 110, 111, 112, 113, 114, 115, 116, 117, 118, 
119, 120, 
*ELSET,ELSET=contact_drain
39, 40, 41, 42, 43, 44, 45, 46, 47, 48, 
49, 50, 51, 52, 53, 54, 55, 56, 57, 58, 
59, 60, 
*ELSET,ELSET=probe_A
77, 78, 79, 80, 81, 82, 
*ELSET,ELSET=probe_B
17, 18, 19, 20, 21, 22, 
*ELSET,ELSET=walls
1, 2, 3, 4, 5, 6, 7, 8, 9, 10, 
11, 12, 13, 14, 15, 16, 23, 24, 25, 26, 
27, 28, 29, 30, 31, 32, 33, 34, 35, 36, 
37, 38, 61, 62, 63, 64, 65, 66, 67, 68, 
69, 70, 71, 72, 73, 74, 75, 76, 83, 84, 
85, 86, 87, 88, 89, 90, 91, 92, 93, 94, 
95, 96, 97, 98, 121, 122, 123, 124, 125, 126, 
127, 128, 129, 130, 131, 132, 133, 134, 135, 136, 
137, 138, 139, 140, 141, 142, 143, 144, 
*ELSET,ELSET=domain
145, 146, 147, 148, 149, 150, 151, 152, 153, 154, 
155, 156, 157, 158, 159, 160, 161, 162, 163, 164, 
165, 166, 167, 168, 169, 170, 171, 172, 173, 174, 
175, 176, 177, 178, 179, 180, 181, 182, 183, 184, 
185, 186, 187, 188, 189, 190, 191, 192, 193, 194, 
195, 196, 197, 198, 199, 200, 201, 202, 203, 204, 
205, 206, 207, 208, 209, 210, 211, 212, 213, 214, 
215, 216, 217, 218, 219, 220, 221, 222, 223, 224, 
225, 226, 227, 228, 229, 230, 231, 232, 233, 234, 
235, 236, 237, 238, 239, 240, 241, 242, 243, 244, 
245, 246, 247, 248, 249, 250, 251, 252, 253, 254, 
255, 256, 257, 258, 259, 260, 261, 262, 263, 264, 
265, 266, 267, 268, 269, 270, 271, 272, 273, 274, 
275, 276, 277, 278, 279, 280, 281, 282, 283, 284, 
285, 286, 287, 288, 289, 290, 291, 292, 293, 294, 
295, 296, 297, 298, 299, 300, 301, 302, 303, 304, 
305, 306, 307, 308, 309, 310, 311, 312, 313, 314, 
315, 316, 317, 318, 319, 320, 321, 322, 323, 324, 
325, 326, 327, 328, 329, 330, 331, 332, 333, 334, 
335, 336, 337, 338, 339, 340, 341, 342, 343, 344, 
345, 346, 347, 348, 349, 350, 351, 352, 353, 354, 
355, 356, 357, 358, 359, 360, 361, 362, 363, 364, 
365, 366, 367, 368, 369, 370, 371, 372, 373, 374, 
375, 376, 377, 378, 379, 380, 381, 382, 383, 384, 
385, 386, 387, 388, 389, 390, 391, 392, 393, 394, 
395, 396, 397, 398, 399, 400, 401, 402, 403, 404, 
405, 406, 407, 408, 409, 410, 411, 412, 413, 414, 
415, 416, 417, 418, 419, 420, 421, 422, 423, 424, 
425, 426, 427, 428, 429, 430, 431, 432, 433, 434, 
435, 436, 437, 438, 439, 440, 441, 442, 443, 444, 
445, 446, 447, 448, 449, 450, 451, 452, 453, 454, 
455, 456, 457, 458, 459, 460, 461, 462, 463, 464, 
465, 466, 467, 468, 469, 470, 471, 472, 473, 474, 
475, 476, 477, 478, 479, 480, 481, 482, 483, 484, 
485, 486, 487, 488, 489, 490, 491, 492, 493, 494, 
495, 496, 497, 498, 499, 500, 501, 502, 503, 504, 
505, 506, 507, 508, 509, 510, 511, 512, 513, 514, 
515, 516, 517, 518, 519, 520, 521, 522, 523, 524, 
525, 526, 527, 528, 529, 530, 531, 532, 533, 534, 
535, 536, 537, 538, 539, 540, 541, 542, 543, 544, 
545, 546, 547, 548, 549, 550, 551, 552, 553, 554, 
555, 556, 557, 558, 559, 560, 561, 562, 563, 564, 
565, 566, 567, 568, 569, 570, 571, 572, 573, 574, 
575, 576, 577, 578, 579, 580, 581, 582, 583, 584, 
585, 586, 587, 588, 589, 590, 591, 592, 593, 594, 
595, 596, 597, 598, 599, 600, 601, 602, 603, 604, 
605, 606, 607, 608, 609, 610, 611, 612, 613, 614, 
615, 616, 617, 618, 619, 620, 621, 622, 623, 624, 
625, 626, 627, 628, 629, 630, 631, 632, 633, 634, 
635, 636, 637, 638, 639, 640, 641, 642, 643, 644, 
645, 646, 647, 648, 649, 650, 651, 652, 653, 654, 
655, 656, 657, 658, 659, 660, 661, 662, 663, 664, 
665, 666, 667, 668, 669, 670, 671, 672, 673, 674, 
675, 676, 677, 678, 679, 680, 681, 682, 683, 684, 
685, 686, 687, 688, 689, 690, 691, 692, 693, 694, 
695, 696, 697, 698, 699, 700, 701, 702, 703, 704, 
705, 706, 707, 708, 709, 710, 711, 712, 713, 714, 
715, 716, 717, 718, 719, 720, 721, 722, 723, 724, 
725, 726, 727, 728, 729, 730, 731, 732, 733, 734, 
735, 736, 737, 738, 739, 740, 741, 742, 743, 744, 
745, 746, 747, 748, 749, 750, 751, 752, 753, 754, 
755, 756, 757, 758, 759, 760, 761, 762, 763, 764, 
765, 766, 767, 768, 769, 770, 771, 772, 773, 774, 
775, 776, 777, 778, 779, 780, 781, 782, 783, 784, 
785, 786, 787, 788, 789, 790, 791, 792, 793, 794, 
795, 796, 797, 798, 799, 800, 801, 802, 803, 804, 
805, 806, 807, 808, 809, 810, 811, 812, 813, 814, 
815, 816, 817, 818, 819, 820, 821, 822, 823, 824, 
825, 826, 827, 828, 829, 830, 831, 832, 833, 834, 
835, 836, 837, 838, 839, 840, 841, 842, 843, 844, 
845, 846, 847, 848, 849, 850, 851, 852, 853, 854, 
855, 856, 857, 858, 859, 860, 861, 862, 863, 864, 
865, 866, 867, 868, 869, 870, 871, 872, 873, 874, 
875, 876, 877, 878, 879, 880, 881, 882, 883, 884, 
885, 886, 887, 888, 889, 890, 891, 892, 893, 894, 
895, 896, 897, 898, 899, 900, 901, 902, 903, 904, 
905, 906, 907, 908, 909, 910, 911, 912, 913, 914, 
915, 916, 917, 918, 919, 920, 921, 922, 923, 924, 
925, 926, 927, 928, 929, 930, 931, 932, 933, 934, 
935, 936, 937, 938, 939, 940, 941, 942, 943, 944, 
945, 946, 947, 948, 949, 950, 951, 952, 953, 954, 
955, 956, 957, 958, 959, 960, 
*NSET,NSET=contact_source
1, 8, 101, 102, 103, 104, 105, 106, 107, 108, 
109, 110, 111, 112, 113, 114, 115, 116, 117, 118, 
119, 120, 121, 
*NSET,NSET=contact_drain
4, 5, 45, 46, 47, 48, 49, 50, 51, 52, 
53, 54, 55, 56, 57, 58, 59, 60, 61, 62, 
63, 64, 65, 
*NSET,NSET=probe_A
6, 7, 81, 82, 83, 84, 85, 
*NSET,NSET=probe_B
2, 3, 25, 26, 27, 28, 29, 
*NSET,NSET=walls
1, 2, 3, 4, 5, 6, 7, 8, 9, 10, 
11, 12, 13, 14, 15, 16, 17, 18, 19, 20, 
21, 22, 23, 24, 30, 31, 32, 33, 34, 35, 
36, 37, 38, 39, 40, 41, 42, 43, 44, 66, 
67, 68, 69, 70, 71, 72, 73, 74, 75, 76, 
77, 78, 79, 80, 86, 87, 88, 89, 90, 91, 
92, 93, 94, 95, 96, 97, 98, 99, 100, 122, 
123, 124, 125, 126, 127, 128, 129, 130, 131, 132, 
133, 134, 135, 136, 137, 138, 139, 140, 141, 142, 
143, 144, 
*NSET,NSET=domain
1, 2, 3, 4, 5, 6, 7, 8, 9, 10, 
11, 12, 13, 14, 15, 16, 17, 18, 19, 20, 
21, 22, 23, 24, 25, 26, 27, 28, 29, 30, 
31, 32, 33, 34, 35, 36, 37, 38, 39, 40, 
41, 42, 43, 44, 45, 46, 47, 48, 49, 50, 
51, 52, 53, 54, 55, 56, 57, 58, 59, 60, 
61, 62, 63, 64, 65, 66, 67, 68, 69, 70, 
71, 72, 73, 74, 75, 76, 77, 78, 79, 80, 
81, 82, 83, 84, 85, 86, 87, 88, 89, 90, 
91, 92, 93, 94, 95, 96, 97, 98, 99, 100, 
101, 102, 103, 104, 105, 106, 107, 108, 109, 110, 
111, 112, 113, 114, 115, 116, 117, 118, 119, 120, 
121, 122, 123, 124, 125, 126, 127, 128, 129, 130, 
131, 132, 133, 134, 135, 136, 137, 138, 139, 140, 
141, 142, 143, 144, 145, 146, 147, 148, 149, 150, 
151, 152, 153, 154, 155, 156, 157, 158, 159, 160, 
161, 162, 163, 164, 165, 166, 167, 168, 169, 170, 
171, 172, 173, 174, 175, 176, 177, 178, 179, 180, 
181, 182, 183, 184, 185, 186, 187, 188, 189, 190, 
191, 192, 193, 194, 195, 196, 197, 198, 199, 200, 
201, 202, 203, 204, 205, 206, 207, 208, 209, 210, 
211, 212, 213, 214, 215, 216, 217, 218, 219, 220, 
221, 222, 223, 224, 225, 226, 227, 228, 229, 230, 
231, 232, 233, 234, 235, 236, 237, 238, 239, 240, 
241, 242, 243, 244, 245, 246, 247, 248, 249, 250, 
251, 252, 253, 254, 255, 256, 257, 258, 259, 260, 
261, 262, 263, 264, 265, 266, 267, 268, 269, 270, 
271, 272, 273, 274, 275, 276, 277, 278, 279, 280, 
281, 282, 283, 284, 285, 286, 287, 288, 289, 290, 
291, 292, 293, 294, 295, 296, 297, 298, 299, 300, 
301, 302, 303, 304, 305, 306, 307, 308, 309, 310, 
311, 312, 313, 314, 315, 316, 317, 318, 319, 320, 
321, 322, 323, 324, 325, 326, 327, 328, 329, 330, 
331, 332, 333, 334, 335, 336, 337, 338, 339, 340, 
341, 342, 343, 344, 345, 346, 347, 348, 349, 350, 
351, 352, 353, 354, 355, 356, 357, 358, 359, 360, 
361, 362, 363, 364, 365, 366, 367, 368, 369, 370, 
371, 372, 373, 374, 375, 376, 377, 378, 379, 380, 
381, 382, 383, 384, 385, 386, 387, 388, 389, 390, 
391, 392, 393, 394, 395, 396, 397, 398, 399, 400, 
401, 402, 403, 404, 405, 406, 407, 408, 409, 410, 
411, 412, 413, 414, 415, 416, 417, 418, 419, 420, 
421, 422, 423, 424, 425, 426, 427, 428, 429, 430, 
431, 432, 433, 434, 435, 436, 437, 438, 439, 440, 
441, 442, 443, 444, 445, 446, 447, 448, 449, 450, 
451, 452, 453, 454, 455, 456, 457, 458, 459, 460, 
461, 462, 463, 464, 465, 466, 467, 468, 469, 470, 
471, 472, 473, 474, 475, 476, 477, 478, 479, 480, 
481, 482, 483, 484, 485, 486, 487, 488, 489, 490, 
491, 492, 493, 494, 495, 496, 497, 498, 499, 500, 
501, 502, 503, 504, 505, 506, 507, 508, 509, 510, 
511, 512, 513, 514, 515, 516, 517, 518, 519, 520, 
521, 522, 523, 524, 525, 526, 527, 528, 529, 530, 
531, 532, 533, 534, 535, 536, 537, 538, 539, 540, 
541, 542, 543, 544, 545, 546, 547, 548, 549, 550, 
551, 552, 553, 554, 555, 556, 557, 558, 559, 560, 
561, 562, 563, 564, 565, 566, 567, 568, 569, 570, 
571, 572, 573, 574, 575, 576, 577, 578, 579, 580, 
581, 582, 583, 584, 585, 586, 587, 588, 589, 590, 
591, 592, 593, 594, 595, 596, 597, 598, 599, 600, 
601, 602, 603, 604, 605, 606, 607, 608, 609, 610, 
611, 612, 613, 614, 615, 616, 617, 618, 619, 620, 
621, 622, 623, 624, 625, 626, 627, 628, 629, 630, 
631, 632, 633, 634, 635, 636, 637, 638, 639, 640, 
641, 642, 643, 644, 645, 646, 647, 648, 649, 650, 
651, 652, 653, 654, 655, 656, 657, 658, 659, 660, 
661, 662, 663, 664, 665, 666, 667, 668, 669, 670, 
671, 672, 673, 674, 675, 676, 677, 678, 679, 680, 
681, 682, 683, 684, 685, 686, 687, 688, 689, 690, 
691, 692, 693, 694, 695, 696, 697, 698, 699, 700, 
701, 702, 703, 704, 705, 706, 707, 708, 709, 710, 
711, 712, 713, 714, 715, 716, 717, 718, 719, 720, 
721, 722, 723, 724, 725, 726, 727, 728, 729, 730, 
731, 732, 733, 734, 735, 736, 737, 738, 739, 740, 
741, 742, 743, 744, 745, 746, 747, 748, 749, 750, 
751, 752, 753, 754, 755, 756, 757, 758, 759, 760, 
761, 762, 763, 764, 765, 766, 767, 768, 769, 770, 
771, 772, 773, 774, 775, 776, 777, 778, 779, 780, 
781, 782, 783, 784, 785, 786, 787, 788, 789, 790, 
791, 792, 793, 794, 795, 796, 797, 798, 799, 800, 
801, 802, 803, 804, 805, 806, 807, 808, 809, 810, 
811, 812, 813, 814, 815, 816, 817, 818, 819, 820, 
821, 822, 823, 824, 825, 826, 827, 828, 829, 830, 
831, 832, 833, 834, 835, 836, 837, 838, 839, 840, 
841, 842, 843, 844, 845, 846, 847, 848, 849, 850, 
851, 852, 853, 854, 855, 856, 857, 858, 859, 860, 
861, 862, 863, 864, 865, 866, 867, 868, 869, 870, 
871, 872, 873, 874, 875, 876, 877, 878, 879, 880, 
881, 882, 883, 884, 885, 886, 887, 888, 
