*Heading
 /Users/juliagao/geometry-optimization-net/scripts/../runs/2d/shape_41.inp
*NODE
1, 0, -0.3, 0
2, 0.425, -0.3, 0
3, 0.575, -0.3, 0
4, 1, -0.3, 0
5, 1, 0.3, 0
6, 0.575, 0.3, 0
7, 0.425, 0.3, 0
8, 0, 0.3, 0
9, 0.5965126129, -0.1495212395, 0
10, 0.025656560769012, -0.3, 0
11, 0.077362255113785, -0.3, 0
12, 0.12987535358801, -0.3, 0
13, 0.18291238830203, -0.3, 0
14, 0.23621770690512, -0.3, 0
15, 0.28977929538301, -0.3, 0
16, 0.34372125043858, -0.3, 0
17, 0.3979169329019, -0.3, 0
18, 0.051313121538024, -0.3, 0
19, 0.10341138868955, -0.3, 0
20, 0.15633931848648, -0.3, 0
21, 0.20948545811759, -0.3, 0
22, 0.26294995569266, -0.3, 0
23, 0.31660863507337, -0.3, 0
24, 0.37083386580379, -0.3, 0
25, 0.45071122405988, -0.3, 0
26, 0.50045871664035, -0.3, 0
27, 0.54974749258047, -0.3, 0
28, 0.47642244811976, -0.3, 0
29, 0.52449498516093, -0.3, 0
30, 0.60152039029503, -0.3, 0
31, 0.65479344357212, -0.3, 0
32, 0.70826127332003, -0.3, 0
33, 0.76231561947208, -0.3, 0
34, 0.8175044711268, -0.3, 0
35, 0.87237871359265, -0.3, 0
36, 0.92487887979789, -0.3, 0
37, 0.9751772379029, -0.3, 0
38, 0.62804078059005, -0.3, 0
39, 0.68154610655418, -0.3, 0
40, 0.73497644008588, -0.3, 0
41, 0.78965479885828, -0.3, 0
42, 0.84535414339532, -0.3, 0
43, 0.89940328378999, -0.3, 0
44, 0.9503544758058, -0.3, 0
45, 1, -0.27408390225039, 0
46, 1, -0.22083050989999, 0
47, 1, -0.16511879857994, 0
48, 1, -0.10872155330726, 0
49, 1, -0.052929566346092, 0
50, 1, 0.0025028599901939, 0
51, 1, 0.057654972530358, 0
52, 1, 0.1126436230171, 0
53, 1, 0.16742183885697, 0
54, 1, 0.22130617779755, 0
55, 1, 0.27395605338668, 0
56, 1, -0.24816780450077, 0
57, 1, -0.19349321529921, 0
58, 1, -0.13674438186067, 0
59, 1, -0.080698724753858, 0
60, 1, -0.025160407938326, 0
61, 1, 0.030166127918714, 0
62, 1, 0.085143817142003, 0
63, 1, 0.1401434288922, 0
64, 1, 0.19470024882174, 0
65, 1, 0.24791210677337, 0
66, 0.9737074462315, 0.3, 0
67, 0.92089118402873, 0.3, 0
68, 0.86717657096059, 0.3, 0
69, 0.81230166249953, 0.3, 0
70, 0.75768049820194, 0.3, 0
71, 0.70462440427257, 0.3, 0
72, 0.65229576003977, 0.3, 0
73, 0.60054302463297, 0.3, 0
74, 0.94741489246299, 0.3, 0
75, 0.89436747559447, 0.3, 0
76, 0.83998566632672, 0.3, 0
77, 0.78461765867234, 0.3, 0
78, 0.73074333773155, 0.3, 0
79, 0.67850547081359, 0.3, 0
80, 0.62608604926594, 0.3, 0
81, 0.55029748232144, 0.3, 0
82, 0.50089817159323, 0.3, 0
83, 0.45060068927179, 0.3, 0
84, 0.52559496464288, 0.3, 0
85, 0.47620137854357, 0.3, 0
86, 0.39894346822509, 0.3, 0
87, 0.34617440197402, 0.3, 0
88, 0.29248882430472, 0.3, 0
89, 0.23854101309297, 0.3, 0
90, 0.18492738791009, 0.3, 0
91, 0.13160157822921, 0.3, 0
92, 0.07836133632343, 0.3, 0
93, 0.025904023467143, 0.3, 0
94, 0.37288693645018, 0.3, 0
95, 0.31946186749786, 0.3, 0
96, 0.26551578111158, 0.3, 0
97, 0.21156624507435, 0.3, 0
98, 0.15828853074584, 0.3, 0
99, 0.10491462571257, 0.3, 0
100, 0.051808046934286, 0.3, 0
101, 0, 0.27421204669022, 0
102, 0, 0.22221746836866, 0
103, 0, 0.16847401229211, 0
104, 0, 0.11256860769875, 0
105, 0, 0.056267186584894, 0
106, 0, 0.00051359440466231, 0
107, 0, -0.055164664020172, 0
108, 0, -0.11070965370796, 0
109, 0, -0.16588826186438, 0
110, 0, -0.22039327628193, 0
111, 0, -0.27370357920049, 0
112, 0, 0.24842409338043, 0
113, 0, 0.19601084335689, 0
114, 0, 0.14093718122734, 0
115, 0, 0.084200034170154, 0
116, 0, 0.028334338999633, 0
117, 0, -0.027307150190308, 0
118, 0, -0.083022177850036, 0
119, 0, -0.13839712956588, 0
120, 0, -0.19337939416289, 0
121, 0, -0.24740715840097, 0
122, 0.59272840208399, -0.12276067398771, 0
123, 0.56409772181031, -0.077367470406035, 0
124, 0.51555988930603, -0.054271177677606, 0
125, 0.46173820260848, -0.060916955106292, 0
126, 0.41906031762235, -0.096952692195634, 0
127, 0.40351670793883, -0.1519000427526, 0
128, 0.42149167672086, -0.20565614474258, 0
129, 0.46423935261276, -0.23916420053379, 0
130, 0.51555245805024, -0.24477251497676, 0
131, 0.56305723008912, -0.22258607480438, 0
132, 0.59255889948947, -0.1768623165812, 0
133, 0.5816725256347, -0.098098648029744, 0
134, 0.54143996196435, -0.062358094088348, 0
135, 0.48845172421673, -0.053702025578838, 0
136, 0.43816980397509, -0.075415158590528, 0
137, 0.40715473202525, -0.12316899741539, 0
138, 0.40856618489776, -0.18041689976853, 0
139, 0.44119438384695, -0.22604956025359, 0
140, 0.48998350160134, -0.24551266682917, 0
141, 0.54002891373546, -0.2373413425408, 0
142, 0.58102169587012, -0.20196329460759, 0
143, 0.41747169586124, 0.24456846381726, 0
144, 0.57320322123999, 0.24529762671439, 0
145, 0.10689845926668, -0.24557729755371, 0
146, 0.053548308360605, -0.24532984198999, 0
147, 0.16088250393562, -0.24617295668126, 0
148, 0.27177320404777, -0.24648728028975, 0
149, 0.21589243477741, -0.24662300708559, 0
150, 0.38148926571027, -0.24285403502755, 0
151, 0.32670191265684, -0.24417428545243, 0
152, 0.92502513195517, -0.13574626056358, 0
153, 0.6699810032128, -0.09366653986367, 0
154, 0.76371425324213, -0.27392946264436, 0
155, 0.63472573919743, -0.23502180543415, 0
156, 0.89825526705123, -0.1915048322584, 0
157, 0.74271799223476, -0.22053582291272, 0
158, 0.90028106397081, -0.050719157747904, 0
159, 0.90054975464089, -0.1074009444332, 0
160, 0.77056027699491, 0.037560032239339, 0
161, 0.92527361738837, -0.10765118998265, 0
162, 0.97435245040291, -0.21909405253882, 0
163, 0.25995392800629, 0.1875934071077, 0
164, 0.25957971634859, 0.12942305720162, 0
165, 0.20952568633511, 0.13036089802532, 0
166, 0.10580167138646, 0.13404459367616, 0
167, 0.15819546904076, 0.13212960589857, 0
168, 0.052782107378439, 0.13644261099262, 0
169, 0.10624140673373, 0.18934028113663, 0
170, 0.1581938971949, 0.18837977451077, 0
171, 0.05351904638912, 0.19106117242849, 0
172, 0.053991157054139, 0.24542925789478, 0
173, 0.15861305298622, 0.24460946339525, 0
174, 0.10654496043221, 0.24486095430098, 0
175, 0.20939940680395, 0.18773025270723, 0
176, 0.21041392394055, 0.24454499033264, 0
177, 0.26201378962104, 0.24465902637853, 0
178, 0.3136774519831, 0.24489391612013, 0
179, 0.36198771442536, 0.18963670295066, 0
180, 0.36563101553769, 0.24501409486602, 0
181, 0.46912751566233, 0.2443906257494, 0
182, 0.41375918206738, 0.18914209592626, 0
183, 0.46579676724493, 0.1897873157908, 0
184, 0.46464906373961, 0.13574145278213, 0
185, 0.41256107505949, 0.13343819326475, 0
186, 0.31052036123363, 0.18844824032809, 0
187, 0.3607443710237, 0.13462257806216, 0
188, 0.30931237922156, 0.13124856160841, 0
189, 0.48021530370217, -0.031973382330635, 0
190, 0.3100836621837, 0.073150279140347, 0
191, 0.36225889398295, 0.054801940396691, 0
192, 0.37507158179496, -0.047825122251376, 0
193, 0.43816566642119, 0.079337017669498, 0
194, 0.4654596015374, 0.031673529798928, 0
195, 0.39929966608269, -0.084114367474419, 0
196, 0.31435269772992, 0.012861463996039, 0
197, 0.26766744671608, 0.008844411419257, 0
198, 0.21154751328938, 0.073015021978851, 0
199, 0.15932099696949, 0.076437881527796, 0
200, 0.26159035551649, 0.070008135350505, 0
201, 0.21561233052954, 0.016797702326122, 0
202, 0.1611367956236, 0.021990410728769, 0
203, 0.052684363290283, 0.081661542344758, 0
204, 0.10609264306211, 0.079212490132019, 0
205, 0.10674964366033, 0.025030713147755, 0
206, 0.052935138074009, 0.027004705746408, 0
207, 0.16135771746133, -0.19302062250701, 0
208, 0.10718632031782, -0.19184341602024, 0
209, 0.053441297494354, -0.19148201216817, 0
210, 0.21625753900335, -0.19400877993661, 0
211, 0.27137191223031, -0.19315829749787, 0
212, 0.21341102572246, -0.14117090512772, 0
213, 0.26947176555834, -0.14039304654282, 0
214, 0.15943162336207, -0.13941214206311, 0
215, 0.10605216903465, -0.1378495792682, 0
216, 0.05286631512718, -0.13729094544502, 0
217, 0.1067530776216, -0.028551782720342, 0
218, 0.052909110037506, -0.027473377887738, 0
219, 0.052356108114522, -0.082342173361619, 0
220, 0.10478243685525, -0.082899199586289, 0
221, 0.22024676489966, -0.035244330425624, 0
222, 0.16190960321193, -0.030606054733859, 0
223, 0.25696360877571, -0.091206571900205, 0
224, 0.20702853258504, -0.085884591941795, 0
225, 0.15659040015544, -0.084144453501892, 0
226, 0.32089025695658, -0.18400521498669, 0
227, 0.36391711489871, -0.17987424570917, 0
228, 0.36251765701517, -0.10093087723705, 0
229, 0.31729165406472, -0.11694050979055, 0
230, 0.28637892037856, -0.052691026987533, 0
231, 0.33695268225374, -0.046426345517529, 0
232, 0.33509839040159, 0.076934421794112, 0
233, 0.35923655123736, -0.031191949675367, 0
234, 0.84153547765523, 0.19538779233971, 0
235, 0.78816292823854, 0.19567851027546, 0
236, 0.73649411594688, 0.14348963148891, 0
237, 0.84319923110833, 0.14244388271643, 0
238, 0.79015817701276, 0.14317571099709, 0
239, 0.94819692147514, 0.14064673933479, 0
240, 0.89584399072233, 0.14149348555852, 0
241, 0.89463005317775, 0.19468229040359, 0
242, 0.94751061843708, 0.19413765844895, 0
243, 0.94692998773813, 0.24712075601161, 0
244, 0.89379184624292, 0.24750148789133, 0
245, 0.78661174092722, 0.24803157016793, 0
246, 0.84032695101542, 0.24801988666121, 0
247, 0.73436771776289, 0.19543162323347, 0
248, 0.73282754603021, 0.24751510526706, 0
249, 0.68023145274652, 0.19485696578328, 0
250, 0.67918358921956, 0.24700566150483, 0
251, 0.62608294067351, 0.1938006907569, 0
252, 0.62593511975269, 0.24634548595626, 0
253, 0.52099122881292, 0.24450531387771, 0
254, 0.57217488224298, 0.19218009057761, 0
255, 0.51871429739953, 0.19073532291203, 0
256, 0.5726588010989, 0.13999891440872, 0
257, 0.51840632259011, 0.13786822084718, 0
258, 0.62738298503339, 0.14213239673814, 0
259, 0.68215021431533, 0.1432524442208, 0
260, 0.68556691838045, 0.091936027854376, 0
261, 0.63046341752769, 0.091150552122248, 0
262, 0.52014539421513, 0.086012816702881, 0
263, 0.57513523198501, 0.08855368483203, 0
264, 0.52508106837764, 0.035856626041076, 0
265, 0.58051074644953, 0.037719887171521, 0
266, 0.6361343695627, 0.040688625571618, 0
267, 0.74729044309966, -0.19303295972293, 0
268, 0.8452469708214, 0.088982543454626, 0
269, 0.792888157051, 0.090286583530831, 0
270, 0.73974569476586, 0.091406744790899, 0
271, 0.75781321057498, -0.10375016172179, 0
272, 0.92368053152253, -0.19119011815131, 0
273, 0.63744603511059, -0.060706340365609, 0
274, 0.89714144602866, 0.08769792997042, 0
275, 0.94874372133058, 0.086503734313726, 0
276, 0.69080766247224, -0.21846085817839, 0
277, 0.89979845304837, -0.022568783437558, 0
278, 0.87602089912762, -0.078567221653093, 0
279, 0.68260309181668, -0.16056757819545, 0
280, 0.89932239973467, -0.16375610212443, 0
281, 0.74731937916509, 0.011696124084748, 0
282, 0.73887202627187, -0.24727760653032, 0
283, 0.81767783078323, -0.27411966719466, 0
284, 0.97475105973159, 0.0032928158836274, 0
285, 0.97484876404679, -0.024483402835735, 0
286, 0.5653336620165, -0.018762053158714, 0
287, 0.54484649126687, -0.038355449728101, 0
288, 0.69111268528768, 0.040466175606852, 0
289, 0.64579149807132, -0.0097081776191398, 0
290, 0.75639884089683, -0.073490534346866, 0
291, 0.92507727663008, -0.05128246756772, 0
292, 0.72912517531553, -0.042122761535845, 0
293, 0.58479994863921, -0.25744951567644, 0
294, 0.70977271533797, -0.0689769058993, 0
295, 0.64725534305708, -0.18185028136702, 0
296, 0.82521885673148, -0.020014068403996, 0
297, 0.97399319479121, -0.2727902697594, 0
298, 0.82773248543804, -0.10644788534879, 0
299, 0.94927150508657, 0.031665690798043, 0
300, 0.68630581028564, -0.066068741504176, 0
301, 0.69158838568735, -0.097153065544764, 0
302, 0.77549561401741, -0.017440014915794, 0
303, 0.89918881817157, 0.0053627018347626, 0
304, 0.61801192972739, -0.010194029397359, 0
305, 0.73533500046074, -0.10212006509037, 0
306, 0.75357604673814, -0.044163248168971, 0
307, 0.35320206226362, -0.071225745435649, 0
308, 0.41286361798837, 0.046712300999487, 0
309, 0.97501420885523, -0.080326014843654, 0
310, 0.94973965409274, -0.16373314611438, 0
311, 0.97463429123648, 0.030950644212613, 0
312, 0.63757338617742, -0.14776639672235, 0
313, 0.66232517405395, -0.063025945518511, 0
314, 0.62254588964774, -0.16823383095561, 0
315, 0.8748950104805, -0.021844146875724, 0
316, 0.84763393611885, 0.034620324433643, 0
317, 0.7167129212765, -0.21991431254792, 0
318, 0.85173642642819, -0.1068680455824, 0
319, 0.92389993979025, 0.032350182053091, 0
320, 0.6593988364981, -0.24244871159724, 0
321, 0.97506382636261, -0.10833758488417, 0
322, 0.71328889349249, -0.099958360539394, 0
323, 0.53686369130327, -0.013012171785162, 0
324, 0.57320461130686, -0.048308989059344, 0
325, 0.38844897450199, 0.020498768198499, 0
326, 0.43786006838258, 0.05170991549832, 0
327, 0.43672355156729, 0.024360879571144, 0
328, 0.97442684645741, 0.085885325895365, 0
329, 0.94848793801659, 0.11365978989623, 0
330, 0.97420487083653, 0.14033935588076, 0
331, 0.97433619920801, 0.11317695470043, 0
332, 0.79840095142209, 0.0090790882932809, 0
333, 0.87434899428842, -0.16403272810043, 0
334, 0.9501009077308, -0.079887369805564, 0
335, 0.97501028016159, -0.16421665128519, 0
336, 0.052612368052862, 0.10905472171185, 0
337, 0.026174441413626, 0.08293985451916, 0
338, 0.026269910653951, 0.13823885802625, 0
339, 0.026105098140559, 0.1106243026589, 0
340, 0.83997793591054, 0.27414715899678, 0
341, 0.81348917340727, 0.24814453442684, 0
342, 0.78579858530635, 0.27410507882011, 0
343, 0.81288797444346, 0.27424332543371, 0
344, 0.94823569999426, -0.24552516681462, 0
345, 0.78072836981105, -0.10495649732362, 0
346, 0.72221946412376, -0.19248712457559, 0
347, 0.75044612748238, -0.015836299294525, 0
348, 0.026137376445068, -0.082480267459572, 0
349, 0.026329765718784, -0.027259604938273, 0
350, 0.052621818480399, -0.054808285293162, 0
351, 0.026220436889149, -0.054817904287866, 0
352, 0.0263326550886, 0.027751030217593, 0
353, 0.05296557424198, -0.00023924675746084, 0
354, 0.026353198527273, 0.00023932787473558, 0
355, 0.73468045999716, -0.13347949896467, 0
356, 0.94899714921988, 0.059172228808881, 0
357, 0.9745161278183, 0.05847844519994, 0
358, 0.18825405293368, -0.24643308208501, 0
359, 0.21346091984572, -0.27306211272213, 0
360, 0.15913778995567, -0.27291738886039, 0
361, 0.18619162173739, -0.27300211880353, 0
362, 0.29952410501531, -0.2452227118678, 0
363, 0.3234508608303, -0.27206899273911, 0
364, 0.26856315526741, -0.27299909566389, 0
365, 0.29614512653138, -0.27249388811277, 0
366, 0.72511627518411, -0.014064487041381, 0
367, 0.89674678803231, -0.24616435631445, 0
368, 0.13261781647543, 0.24472492522327, 0
369, 0.10613072233524, 0.27255050411715, 0
370, 0.15861695890477, 0.27247540213537, 0
371, 0.13237988591402, 0.27251994547355, 0
372, 0.73306517478678, -0.071465156673763, 0
373, 0.84602109546028, -0.22007310676393, 0
374, 0.7907098610673, -0.27406771783159, 0
375, 0.77237052555322, -0.19317516095215, 0
376, 0.24376295742618, -0.24667332135609, 0
377, 0.24093436420742, -0.27306860895666, 0
378, 0.052568827074535, -0.1099058960264, 0
379, 0.02636602826233, -0.13759687071125, 0
380, 0.026239219103748, -0.11011726960207, 0
381, 0.73199554743813, 0.27367859949199, 0
382, 0.70597316881885, 0.24721665607202, 0
383, 0.67880242287736, 0.27336996058355, 0
384, 0.70533887172081, 0.27345230632007, 0
385, 0.28781627653343, 0.24477307807679, 0
386, 0.26358635727462, 0.27261711564681, 0
387, 0.31616052396766, 0.27267547473371, 0
388, 0.28986942571959, 0.27266277109391, 0
389, 0.65250018995857, 0.24675484132772, 0
390, 0.62607036867811, 0.2730246778155, 0
391, 0.6523646457993, 0.27327444371276, 0
392, 0.13377600667829, -0.24588226444572, 0
393, 0.10568544934847, -0.2726604811574, 0
394, 0.13230275747947, -0.27281331235567, 0
395, 0.76868395752283, -0.22074114516357, 0
396, 0.8510179906626, -0.049348304892744, 0
397, 0.60774456699434, -0.10173170652884, 0
398, 0.21106379268255, 0.27250807143683, 0
399, 0.18454439028228, 0.24453431230693, 0
400, 0.18483862073019, 0.27245048008196, 0
401, 0.23622818757057, 0.2445997305633, 0
402, 0.23731733679896, 0.27258347642207, 0
403, 0.05316358106856, -0.16447184735174, 0
404, 0.026653732718636, -0.19200052682262, 0
405, 0.026495180609496, -0.164891472314, 0
406, 0.02685424066836, -0.24577039697127, 0
407, 0.052988056360615, -0.27247954826599, 0
408, 0.026695716657994, -0.27265423579611, 0
409, 0.63508885211808, -0.2692210554853, 0
410, 0.89728540851175, -0.21895617564245, 0
411, 0.6921048282608, -0.12993674317955, 0
412, 0.69717034402736, -0.19115148293083, 0
413, 0.71210040879958, -0.2466584745121, 0
414, 0.92293227574333, -0.21851169928883, 0
415, 0.68545818558942, -0.24538583032904, 0
416, 0.33962050048015, 0.24500496144266, 0
417, 0.36866672130662, 0.272594513881, 0
418, 0.34244014506805, 0.27267703496886, 0
419, 0.97344472972591, 0.2472284765591, 0
420, 0.94691496274405, 0.27353806814733, 0
421, 0.97338114622911, 0.27357188285634, 0
422, 0.35378102188696, -0.24365313458637, 0
423, 0.37804970132902, -0.27110010922783, 0
424, 0.35069556168288, -0.27175412001722, 0
425, 0.84480082389217, -0.24722825284153, 0
426, 0.84887356478359, 0.0069822276948749, 0
427, 0.052831595543434, 0.054301073793419, 0
428, 0.02628037325503, 0.055311041643542, 0
429, 0.52296748654225, 0.27193025978639, 0
430, 0.57411686716226, 0.27238334599658, 0
431, 0.54703931050082, 0.24478658206642, 0
432, 0.54847185003814, 0.27205684030178, 0
433, 0.94788000098146, 0.1674686445816, 0
434, 0.97383216114153, 0.19416842440915, 0
435, 0.97405579284752, 0.16734462914545, 0
436, 0.49502244979394, 0.24435773900694, 0
437, 0.47200854051189, 0.272014377963, 0
438, 0.49750309301417, 0.2718767526202, 0
439, 0.080363520599529, 0.24506883228191, 0
440, 0.053564523798066, 0.27264676573416, 0
441, 0.079869330991984, 0.2726007402432, 0
442, 0.080185863892298, -0.24535188036287, 0
443, 0.079271411936117, -0.27252942805665, 0
444, 0.86710237625222, 0.24778849242897, 0
445, 0.89376844103004, 0.27379928882042, 0
446, 0.86695115236744, 0.27399509571725, 0
447, 0.94716601154198, 0.22067653593711, 0
448, 0.97361152260984, 0.22078236630922, 0
449, 0.77988916994718, -0.075092571562058, 0
450, 0.79215787755197, -0.24765380222773, 0
451, 0.10583872849776, 0.10655922547854, 0
452, 0.079364784878339, 0.080439194409947, 0
453, 0.079334883814016, 0.13512144591299, 0
454, 0.079238142877272, 0.10774508717189, 0
455, 0.20926685838936, 0.15907879431623, 0
456, 0.18401648066504, 0.13120676307951, 0
457, 0.15807827824973, 0.16021944440117, 0
458, 0.18389082479941, 0.18800622340781, 0
459, 0.18379818593586, 0.15959953471287, 0
460, 0.59949920810268, 0.24584736688233, 0
461, 0.59998472810431, 0.27272672487833, 0
462, 0.39160200251498, 0.2447802542348, 0
463, 0.42063980589463, 0.27227769950584, 0
464, 0.39474019364458, 0.27241876504338, 0
465, 0.92039534391831, 0.24723997149515, 0
466, 0.92040490493815, 0.27361438062866, 0
467, 0.027262893965377, 0.24629700798957, 0
468, 0.027089041345251, 0.27293168410803, 0
469, 0.75971382284959, 0.24780518435628, 0
470, 0.7588243799665, 0.27390910181015, 0
471, 0.44329261991713, 0.24448228370677, 0
472, 0.44638993633011, 0.27217889758239, 0
473, 0.05309279278382, 0.16379019669041, 0
474, 0.026847010454348, 0.19280377951302, 0
475, 0.026505897154766, 0.16565376517103, 0
476, 0.84771708999711, -0.19244602739859, 0
477, 0.68370577275376, -0.2727270104235, 0
478, 0.82209096831356, 0.035523970345222, 0
479, 0.87293857385019, -0.19197481565824, 0
480, 0.80219778182099, -0.047295536644194, 0
481, 0.94977397830304, -0.02384857489734, 0
482, 0.82697824446793, -0.13567153469086, 0
483, 0.67294330007623, -0.010635819076797, 0
484, 0.94996421014751, -0.051823300685205, 0
485, 0.92297710547973, 0.087093333609911, 0
486, 0.76558161053628, -0.24756597627134, 0
487, 0.89781783007748, 0.060492017814314, 0
488, 0.92343135547722, 0.059826945320542, 0
489, 0.97402738494401, -0.24602110408748, 0
490, 0.97493193812454, -0.052363910841505, 0
491, 0.92447085314567, -0.16361183247737, 0
492, 0.92435430596191, 0.0046638428032531, 0
493, 0.26079699187396, 0.21628323254011, 0
494, 0.3118308199827, 0.21678625525462, 0
495, 0.28516957167307, 0.18791288718207, 0
496, 0.28626409826887, 0.21649060612978, 0
497, 0.13419428704961, -0.19239420332152, 0
498, 0.16153259560774, -0.21959671993502, 0
499, 0.10731409455995, -0.21868321048428, 0
500, 0.1343268391556, -0.21912349689785, 0
501, 0.05360598223869, -0.21839339509904, 0
502, 0.026780393156792, -0.21893513603181, 0
503, 0.053902655427356, 0.21826286533509, 0
504, 0.027170117719753, 0.21964518253097, 0
505, 0.16172848262334, -0.0045452654201243, 0
506, 0.18843439678504, 0.019751025805475, 0
507, 0.21787458495802, -0.010055962677131, 0
508, 0.1904634758098, -0.032345645190425, 0
509, 0.18963200762328, -0.0067658777989491, 0
510, 0.2098193008543, 0.21624804605717, 0
511, 0.15842324068171, 0.21653992974692, 0
512, 0.18418385564506, 0.21634927259806, 0
513, 0.078598903793195, -0.082504571004135, 0
514, 0.079711923668985, -0.027909586070716, 0
515, 0.10579653174335, -0.055476152365909, 0
516, 0.079155407339764, -0.055047016431909, 0
517, 0.89648601773835, 0.1146883501426, 0
518, 0.92206146233369, 0.14103746846701, 0
519, 0.92252708320324, 0.11415718735101, 0
520, 0.81856523897824, -0.24757567228036, 0
521, 0.92527410843149, -0.079456159709648, 0
522, 0.10686685504653, -0.0018055352951554, 0
523, 0.13388729910796, 0.023696573746143, 0
524, 0.13410137639068, -0.029420866502086, 0
525, 0.13415920490412, -0.0029724587888488, 0
526, 0.15947806793453, -0.056789025748926, 0
527, 0.13081306733269, -0.083464168817233, 0
528, 0.13255099718224, -0.056058284054848, 0
529, 0.57220263965194, 0.16599157102439, 0
530, 0.54548971217776, 0.13870854654888, 0
531, 0.5183228288315, 0.16419883021826, 0
532, 0.54538547438441, 0.19132593861547, 0
533, 0.54520555696951, 0.16493400592846, 0
534, 0.87602208481128, -0.10716337238551, 0
535, 0.66527568904204, -0.215172247643, 0
536, 0.079755013433326, 0.026109246974994, 0
537, 0.079807457452952, -0.00091492114099146, 0
538, 0.10531223435159, -0.11050854263854, 0
539, 0.079438066014276, -0.13740152312606, 0
540, 0.078943074042937, -0.11005627190874, 0
541, 0.9225166793216, -0.24566225294695, 0
542, 0.71303998235189, -0.13204999654028, 0
543, 0.87166161773464, -0.21953845951483, 0
544, 0.82751354314649, -0.077285825738182, 0
545, 0.2438992926459, -0.19397965755537, 0
546, 0.2721162490588, -0.21996399288067, 0
547, 0.2166202422125, -0.22034292910713, 0
548, 0.24440377891757, -0.22038534405045, 0
549, 0.58092873960674, -0.27858611316525, 0
550, 0.61202230398666, -0.24648228501155, 0
551, 0.61058167527926, -0.27344183517715, 0
552, 0.87123655208, 0.088329255711184, 0
553, 0.84417592537699, 0.11580030999144, 0
554, 0.86955909161162, 0.14197626061923, 0
555, 0.87037273107163, 0.11524344190997, 0
556, 0.81489410862621, 0.19561746372323, 0
557, 0.78736088345448, 0.22187350605293, 0
558, 0.84086271728475, 0.22174535113213, 0
559, 0.81414579364153, 0.22191241332102, 0
560, 0.57252627418234, 0.21859586941011, 0
561, 0.51959210909039, 0.21748479151482, 0
562, 0.54600240577134, 0.21791996647712, 0
563, 0.2595260146042, 0.15863949809135, 0
564, 0.30968811313583, 0.15993271659916, 0
565, 0.28435104213985, 0.13000087823858, 0
566, 0.28452364685654, 0.15908489091001, 0
567, 0.36308619845143, 0.029089760372128, 0
568, 0.4092553288476, -0.041482195216929, 0
569, 0.85004148139664, -0.021006080656211, 0
570, 0.94918944031, -0.19123359100263, 0
571, 0.71003181989421, -0.27330259299892, 0
572, 0.13231044409581, 0.18882020467509, 0
573, 0.10650986789195, 0.21709535403625, 0
574, 0.13253566970754, 0.21678828678022, 0
575, 0.77985508648062, -0.13507556202312, 0
576, 0.97469568714121, -0.19184158500701, 0
577, 0.77789373634227, -0.045884051175366, 0
578, 0.75257073032214, -0.16442429812091, 0
579, 0.47852338044499, -0.27196570353334, 0
580, 0.4303403033983, -0.26393713399155, 0
581, 0.453064083674, -0.26839530901431, 0
582, 0.30941426990736, 0.10235548008321, 0
583, 0.28577703508064, 0.070793704019766, 0
584, 0.26021584622124, 0.09990344399035, 0
585, 0.28472098572082, 0.10060516921326, 0
586, 0.18871373719261, -0.19361140361534, 0
587, 0.18896806631775, -0.22003476554769, 0
588, 0.38545023972884, -0.18167408395925, 0
589, 0.36052272851572, -0.14119736693964, 0
590, 0.38354375274916, -0.11231347911038, 0
591, 0.38082044239045, -0.14635326694489, 0
592, 0.33611353276831, 0.18909948494301, 0
593, 0.36345942777605, 0.21733077426507, 0
594, 0.33755909932334, 0.21711377906545, 0
595, 0.24107013857027, -0.14157091623263, 0
596, 0.27056263231059, -0.16642815966392, 0
597, 0.2152013885587, -0.16762352470907, 0
598, 0.24286262101354, -0.16762193627857, 0
599, 0.23171468685775, -0.087591363790036, 0
600, 0.26514670646506, -0.11566746220499, 0
601, 0.21031664445873, -0.11418167585477, 0
602, 0.2369766580392, -0.11544248442558, 0
603, 0.10644541304823, 0.052029155160042, 0
604, 0.079580422538448, 0.053220834055154, 0
605, 0.69934275426864, -0.012245325195782, 0
606, 0.84640721216313, 0.06193914524209, 0
607, 0.87214941948518, 0.061192790265111, 0
608, 0.13277434403078, 0.077901722132246, 0
609, 0.16023216453077, 0.049006579225925, 0
610, 0.13335480436995, 0.050653742537726, 0
611, 0.67898796916729, -0.03742874343868, 0
612, 0.65983872193513, -0.15639105582065, 0
613, 0.70435301214723, -0.039814705435591, 0
614, 0.59279832627697, -0.07333021401607, 0
615, 0.23473585485367, 0.18757852677147, 0
616, 0.2353424811312, 0.21622712399603, 0
617, 0.64787226141912, -0.089751192967809, 0
618, 0.87403406696776, 0.0061244014134045, 0
619, 0.9501347548872, -0.10796530121584, 0
620, 0.79456203165783, 0.063548360475205, 0
621, 0.81914395628017, 0.089643293112445, 0
622, 0.82055944095736, 0.062729195859843, 0
623, 0.73356969064915, 0.22144367450011, 0
624, 0.70732391332253, 0.19517318528051, 0
625, 0.67963849630716, 0.22084811525556, 0
626, 0.7066011012093, 0.22114039901081, 0
627, 0.29724472137588, -0.18846432809443, 0
628, 0.32422282131561, -0.21525192400649, 0
629, 0.29889366009179, -0.21745020415699, 0
630, 0.49216280653047, 0.19023402883253, 0
631, 0.46712424562808, 0.21700598014146, 0
632, 0.49328853750641, 0.21717978424725, 0
633, 0.18628787838402, -0.14033558759219, 0
634, 0.16060504657281, -0.16633110830467, 0
635, 0.18778833641801, -0.16707988140115, 0
636, 0.41062794289461, -0.23943672135813, 0
637, 0.4051154397837, -0.26927469754605, 0
638, 0.37263198863237, -0.21391922916263, 0
639, 0.39744514108326, -0.21347089617824, 0
640, 0.67216900342728, -0.18817683406484, 0
641, 0.62529095344115, -0.034881895223998, 0
642, 0.9495391987412, 0.0039889860813383, 0
643, 0.4913963826169, 0.13693225443962, 0
644, 0.46500860199566, 0.16269933744137, 0
645, 0.49155313748523, 0.16348072133492, 0
646, 0.56119096158639, -0.2477727492508, 0
647, 0.52993156536736, -0.26966361543003, 0
648, 0.55326566097699, -0.27358874995415, 0
649, 0.33472394318885, 0.13297688781028, 0
650, 0.36110685458859, 0.16203096852155, 0
651, 0.33518854486235, 0.16103631546232, 0
652, 0.50501028991389, -0.27257202771446, 0
653, 0.55332470428024, 0.034957326401139, 0
654, 0.52206457721077, 0.060675252030624, 0
655, 0.54771993957088, 0.086694504231369, 0
656, 0.57737843261356, 0.063078932043916, 0
657, 0.5499617559834, 0.060848385516917, 0
658, 0.65314063994738, 0.19441835210358, 0
659, 0.62590473386305, 0.21994770227768, 0
660, 0.65273323489644, 0.22047792594021, 0
661, 0.87549178816327, -0.13571884421942, 0
662, 0.65833904519595, -0.27155689915398, 0
663, 0.82655938104763, -0.048434598381102, 0
664, 0.85108630139176, -0.13573352306888, 0
665, 0.87309662177204, 0.033799584539542, 0
666, 0.38791939703569, 0.18937312347058, 0
667, 0.41523663299462, 0.21686403366503, 0
668, 0.38938206995085, 0.21708893031024, 0
669, 0.59908423250283, 0.19303612203471, 0
670, 0.59916401444816, 0.21930342808621, 0
671, 0.89522319446038, 0.16814659549052, 0
672, 0.92110022802602, 0.19434301489591, 0
673, 0.9215872431385, 0.1677564993315, 0
674, 0.64029774774109, -0.2081712640615, 0
675, 0.60770093250363, -0.21497706477765, 0
676, 0.61616400185771, -0.19252618417364, 0
677, 0.77297688934179, 0.010333272689526, 0
678, 0.90056834621648, -0.079030231702052, 0
679, 0.73531843027073, 0.1694562542481, 0
680, 0.70939810470963, 0.14345261370915, 0
681, 0.68104241049341, 0.1690013040631, 0
682, 0.70823044785719, 0.1692865658916, 0
683, 0.23470220079636, 0.12970639869819, 0
684, 0.23449162527682, 0.15872498098515, 0
685, 0.8941238247218, 0.221129183667, 0
686, 0.92067140405871, 0.22082804145528, 0
687, 0.76132040851885, 0.19560821442354, 0
688, 0.76049760969766, 0.22170289342882, 0
689, 0.5050796721159, -0.0092086955989221, 0
690, 0.51283339032106, -0.031124247435403, 0
691, 0.85166196980269, -0.07800691249241, 0
692, 0.80404920058935, -0.10583094250718, 0
693, 0.97507805031948, -0.13633058473279, 0
694, 0.43966879020205, 0.18939769310816, 0
695, 0.44111852073862, 0.21690227495701, 0
696, 0.62655084037147, 0.16787115777374, 0
697, 0.59998072097791, 0.14117042885531, 0
698, 0.59933460425455, 0.1670011904709, 0
699, 0.4650680259256, 0.056538537995001, 0
700, 0.32002110123861, -0.018897965885999, 0
701, 0.46478345495586, 0.082469382651638, 0
702, 0.38345795687719, -0.069768725960921, 0
703, 0.21026428591791, 0.10164237190643, 0
704, 0.23691712918914, 0.071289160735306, 0
705, 0.2354712297577, 0.10054832002967, 0
706, 0.78908208434188, 0.16945301658378, 0
707, 0.76341437749374, 0.14339079896622, 0
708, 0.76227254595446, 0.16951251873611, 0
709, 0.73795396387618, 0.11749190335915, 0
710, 0.71279118788535, 0.091783325959498, 0
711, 0.68363237661331, 0.11757812524664, 0
712, 0.71089700116082, 0.11763517586401, 0
713, 0.38684563749023, 0.13393448912413, 0
714, 0.41290410968441, 0.16135984210733, 0
715, 0.38709982730051, 0.16165465105803, 0
716, 0.65479410617325, 0.14282868120778, 0
717, 0.65380156712827, 0.16854475919467, 0
718, 0.38380045979621, -0.010543314142775, 0
719, 0.42146231479424, -0.059013345374597, 0
720, 0.08028288510946, -0.19149254638973, 0
721, 0.080431009082618, -0.21839035185847, 0
722, 0.43835717454972, 0.13445189580616, 0
723, 0.43879222378221, 0.16192750331175, 0
724, 0.95003577425622, -0.13595444898531, 0
725, 0.79745937486962, -0.19309001979123, 0
726, 0.74443857412654, 0.038633181723813, 0
727, 0.65810140283568, 0.091758414353562, 0
728, 0.62865737844967, 0.11656454307217, 0
729, 0.65619846501005, 0.11724332000611, 0
730, 0.51898709760047, 0.11178004874661, 0
731, 0.57360602420097, 0.11418850715632, 0
732, 0.5462926057053, 0.11263335772688, 0
733, 0.52965522580916, 0.011511837126709, 0
734, 0.58472336523776, 0.01239824686018, 0
735, 0.55822362306383, 0.0086803725977246, 0
736, 0.31209396588706, -0.051948443835608, 0
737, 0.27356310366835, -0.022228442194961, 0
738, 0.29133107094323, 0.0093864219782922, 0
739, 0.29746556375938, -0.022212694869777, 0
740, 0.86811007236157, 0.19505670106054, 0
741, 0.86752207911847, 0.22146394154621, 0
742, 0.80062057781604, -0.16468145300947, 0
743, 0.84956946675198, -0.16432534813965, 0
744, 0.64032256970052, 0.015547010055678, 0
745, 0.87085737329966, -0.24675103778657, 0
746, 0.80039017881863, -0.018832743319695, 0
747, 0.82499076605717, -0.16456514604383, 0
748, 0.79642026913354, 0.03650927329112, 0
749, 0.59040116260954, -0.01291796262128, 0
750, 0.80321438626181, -0.13546542262266, 0
751, 0.6082604750814, 0.039641513287091, 0
752, 0.61242734960299, 0.014651819338391, 0
753, 0.079981914917333, 0.19002873727332, 0
754, 0.080318661151661, 0.21753708003566, 0
755, 0.60276354676416, 0.090066727937813, 0
756, 0.60109415857976, 0.11552844519625, 0
757, 0.10671246458023, -0.16493292210281, 0
758, 0.079908183395143, -0.16452746509057, 0
759, 0.13270769257441, -0.13855010516637, 0
760, 0.13359740296723, -0.16557302099815, 0
761, 0.31154343161408, 0.043434818289231, 0
762, 0.26394351491666, 0.039659178983782, 0
763, 0.28779733837924, 0.040426101471368, 0
764, 0.36138927139763, 0.080899041745078, 0
765, 0.40377407308975, -0.019240594521274, 0
766, 0.89851190810207, 0.033050316368793, 0
767, 0.73677444154316, -0.27368734687064, 0
768, 0.72132250113531, 0.013094181712031, 0
769, 0.36085232403365, 0.10753502923547, 0
770, 0.33469122210429, 0.10494806693888, 0
771, 0.66787226911226, 0.015321142311454, 0
772, 0.70562723080493, -0.16274606904906, 0
773, 0.58927593389093, -0.23195208830282, 0
774, 0.33993806612377, -0.11034557967898, 0
775, 0.30668599814895, -0.085013680651203, 0
776, 0.32956249308884, -0.080041473659081, 0
777, 0.84231947238185, 0.16896042470029, 0
778, 0.8688026299154, 0.16856852758463, 0
779, 0.13210713723417, 0.13307260822777, 0
780, 0.10595545817598, 0.1616472492097, 0
781, 0.13212334056492, 0.16089750590221, 0
782, 0.15788980587032, -0.11206610988707, 0
783, 0.1316356277026, -0.11119923469855, 0
784, 0.079599974641518, 0.16255550225125, 0
785, 0.74190363568467, 0.065156031048142, 0
786, 0.68803376380735, 0.066264310268637, 0
787, 0.7151375673846, 0.065823303944362, 0
788, 0.63290975589126, 0.065869620190954, 0
789, 0.66060127724395, 0.066331641353231, 0
790, 0.41261305474819, 0.10523184615165, 0
791, 0.3870960219635, 0.10617274332405, 0
792, 0.79142114973445, 0.11680568369365, 0
793, 0.76643538920219, 0.090887839625839, 0
794, 0.76479146305541, 0.1172018471556, 0
795, 0.15860733632032, 0.10417738564795, 0
796, 0.13232101548413, 0.10539219112757, 0
797, 0.87559135789547, -0.050091767390778, 0
798, 0.89716697235821, -0.27318432880325, 0
799, 0.92294831754398, -0.2727767993814, 0
800, 0.18562569669682, 0.074792135128865, 0
801, 0.18461743039458, 0.10290529419977, 0
802, 0.81674272343892, 0.14285766261981, 0
803, 0.8157554127384, 0.16927263544506, 0
804, 0.81787038184824, 0.11633222079741, 0
805, 0.38855669758537, 0.049874623404424, 0
806, 0.49232839689767, 0.084803960271537, 0
807, 0.49544991193041, 0.035446111598755, 0
808, 0.49350860523304, 0.059617431578545, 0
809, 0.21337354593345, 0.044639046597409, 0
810, 0.18696686036032, 0.047008580105774, 0
811, 0.6051033860066, 0.064776065861079, 0
812, 0.49859076411591, 0.012637555150099, 0
813, 0.1820161684241, -0.084916273674897, 0
814, 0.18408402737475, -0.11306148896593, 0
815, 0.76836191764277, 0.064372636114063, 0
816, 0.9001536992519, -0.13569399348639, 0
817, 0.94848821853289, -0.27262479837289, 0
818, 0.82032889508377, -0.22049921638248, 0
819, 0.41118440552044, 0.015176913665689, 0
820, 0.46616419201077, 0.0086658253449453, 0
821, 0.79455832750155, -0.22070915570206, 0
822, 0.46461145311854, 0.10895796466008, 0
823, 0.43928289641237, -0.022557684818805, 0
824, 0.4382175372679, 0.10693114917887, 0
825, 0.21459880052037, -0.059325263118948, 0
826, 0.18672978120582, -0.057755584403703, 0
827, 0.36286116973551, 0.0024827298517151, 0
828, 0.24227272936786, 0.013036823230346, 0
829, 0.25197393066771, -0.040879954502901, 0
830, 0.24619293572693, -0.015063794796274, 0
831, 0.3429866624302, -0.18134424713114, 0
832, 0.34860629490696, -0.2142506728457, 0
833, 0.23915700139772, 0.042031074834904, 0
834, 0.49165426856626, 0.11065803996806, 0
835, 0.84448715131841, -0.27390670788541, 0
836, 0.82367794644035, 0.0079619086229088, 0
837, 0.3189900295177, -0.15072692486703, 0
838, 0.3404445465343, -0.14563610796489, 0
839, 0.29481847016621, -0.12803135062181, 0
840, 0.29610531450794, -0.15844672175312, 0
841, 0.77647147711281, -0.16465394796376, 0
842, 0.92475816257977, -0.02322310279434, 0
843, 0.65270354092867, -0.035444093090782, 0
844, 0.69487123652788, 0.014383982857358, 0
845, 0.94862248944489, -0.21846696476607, 0
846, 0.80358859436465, -0.076335378509052, 0
847, 0.87100156730351, -0.27361531618577, 0
848, 0.27309529753056, -0.071157308706979, 0
849, 0.24346579753095, -0.062696344773908, 0
850, 0.72894891164301, -0.16386899751073, 0
851, 0.41286839414752, 0.076477416136965, 0
852, 0.28764304837683, -0.098987289850524, 0
853, 0.44910634282953, -0.041421001988167, 0
854, 0.65180170105217, -0.12172167318136, 0
855, 0.34110015040392, -0.010016838459501, 0
856, 0.82256588042472, -0.19284652434776, 0
857, 0.67181685346682, -0.12677516783574, 0
858, 0.66381343309571, 0.040893987674164, 0
859, 0.71797826278466, 0.039646705001228, 0
860, 0.59731429767133, -0.03777949018262, 0
861, 0.38775998294908, 0.078247423543934, 0
862, 0.75698029253078, -0.13444325234641, 0
863, 0.61514309081799, -0.13441453654658, 0
864, 0.62443038829428, -0.087136610266171, 0
865, 0.61185011285159, -0.061339117523791, 0
866, 0.63075601083696, -0.11495579665185, 0
867, 0.33599864948716, 0.048821957713814, 0
868, 0.3375711194373, 0.020205024078561, 0
869, 0.43400460244337, -0.0016728273079034, 0
870, 0.47184501262821, -0.011945746862105, 0
******* E L E M E N T S *************
*ELEMENT, type=CPS4, ELSET=Surface1
1, 63, 330, 331, 52
2, 52, 331, 328, 62
3, 331, 329, 275, 328
4, 330, 239, 329, 331
5, 491, 152, 816, 280
6, 844, 288, 858, 771
7, 541, 414, 410, 367
8, 821, 725, 375, 395
9, 168, 338, 339, 336
10, 336, 339, 337, 203
11, 339, 104, 115, 337
12, 338, 114, 104, 339
13, 77, 342, 343, 69
14, 69, 343, 340, 76
15, 343, 341, 246, 340
16, 342, 245, 341, 343
17, 285, 284, 642, 481
18, 290, 271, 345, 449
19, 612, 312, 314, 295
20, 817, 344, 541, 799
21, 219, 350, 351, 348
22, 348, 351, 107, 118
23, 351, 349, 117, 107
24, 350, 218, 349, 351
25, 117, 349, 354, 106
26, 106, 354, 352, 116
27, 354, 353, 206, 352
28, 349, 218, 353, 354
29, 275, 356, 357, 328
30, 328, 357, 51, 62
31, 845, 570, 272, 414
32, 281, 726, 859, 768
33, 147, 360, 361, 358
34, 358, 361, 359, 149
35, 361, 13, 21, 359
36, 360, 20, 13, 361
37, 148, 364, 365, 362
38, 362, 365, 363, 151
39, 365, 15, 23, 363
40, 364, 22, 15, 365
41, 543, 479, 476, 373
42, 43, 798, 847, 35
43, 862, 355, 850, 578
44, 160, 815, 785, 726
45, 173, 370, 371, 368
46, 368, 371, 369, 174
47, 371, 91, 99, 369
48, 370, 98, 91, 371
49, 847, 745, 425, 835
50, 480, 746, 302, 577
51, 859, 787, 786, 288
52, 149, 359, 377, 376
53, 376, 377, 364, 148
54, 377, 14, 22, 364
55, 359, 21, 14, 377
56, 118, 108, 380, 348
57, 348, 380, 378, 219
58, 380, 379, 216, 378
59, 108, 119, 379, 380
60, 78, 71, 384, 381
61, 381, 384, 382, 248
62, 384, 383, 250, 382
63, 71, 79, 383, 384
64, 178, 387, 388, 385
65, 385, 388, 386, 177
66, 388, 88, 96, 386
67, 387, 95, 88, 388
68, 79, 72, 391, 383
69, 383, 391, 389, 250
70, 391, 390, 252, 389
71, 72, 80, 390, 391
72, 145, 393, 394, 392
73, 392, 394, 360, 147
74, 394, 12, 20, 360
75, 393, 19, 12, 394
76, 316, 606, 622, 478
77, 611, 300, 294, 613
78, 347, 306, 577, 302
79, 315, 618, 426, 569
80, 173, 399, 400, 370
81, 370, 400, 90, 98
82, 400, 398, 97, 90
83, 399, 176, 398, 400
84, 96, 89, 402, 386
85, 386, 402, 401, 177
86, 402, 398, 176, 401
87, 89, 97, 398, 402
88, 119, 109, 405, 379
89, 379, 405, 403, 216
90, 405, 404, 209, 403
91, 109, 120, 404, 405
92, 121, 111, 408, 406
93, 406, 408, 407, 146
94, 408, 10, 18, 407
95, 111, 1, 10, 408
96, 413, 317, 276, 415
97, 373, 476, 856, 818
98, 302, 677, 281, 347
99, 742, 750, 575, 841
100, 61, 51, 357, 311
101, 317, 346, 412, 276
102, 347, 281, 768, 366
103, 42, 835, 283, 34
104, 180, 417, 418, 416
105, 416, 418, 387, 178
106, 418, 87, 95, 387
107, 417, 94, 87, 418
108, 65, 55, 421, 419
109, 419, 421, 420, 243
110, 421, 66, 74, 420
111, 55, 5, 66, 421
112, 151, 363, 424, 422
113, 422, 424, 423, 150
114, 424, 16, 24, 423
115, 363, 23, 16, 424
116, 296, 836, 332, 746
117, 746, 332, 677, 302
118, 771, 858, 266, 744
119, 333, 661, 664, 743
120, 206, 427, 428, 352
121, 352, 428, 105, 116
122, 428, 337, 115, 105
123, 427, 203, 337, 428
124, 253, 431, 432, 429
125, 429, 432, 81, 84
126, 432, 430, 6, 81
127, 431, 144, 430, 432
128, 63, 53, 435, 330
129, 330, 435, 433, 239
130, 435, 434, 242, 433
131, 53, 64, 434, 435
132, 253, 429, 438, 436
133, 436, 438, 437, 181
134, 438, 82, 85, 437
135, 429, 84, 82, 438
136, 99, 92, 441, 369
137, 369, 441, 439, 174
138, 441, 440, 172, 439
139, 92, 100, 440, 441
140, 146, 407, 443, 442
141, 442, 443, 393, 145
142, 443, 11, 19, 393
143, 407, 18, 11, 443
144, 244, 445, 446, 444
145, 444, 446, 340, 246
146, 446, 68, 76, 340
147, 445, 75, 68, 446
148, 64, 54, 448, 434
149, 434, 448, 447, 242
150, 448, 419, 243, 447
151, 54, 65, 419, 448
152, 59, 49, 490, 309
153, 617, 854, 857, 153
154, 322, 542, 355, 305
155, 854, 866, 863, 312
156, 166, 453, 454, 451
157, 451, 454, 452, 204
158, 454, 336, 203, 452
159, 453, 168, 336, 454
160, 175, 458, 459, 455
161, 455, 459, 456, 165
162, 459, 457, 167, 456
163, 458, 170, 457, 459
164, 80, 73, 461, 390
165, 390, 461, 460, 252
166, 461, 430, 144, 460
167, 73, 6, 430, 461
168, 143, 463, 464, 462
169, 462, 464, 417, 180
170, 464, 86, 94, 417
171, 463, 7, 86, 464
172, 243, 420, 466, 465
173, 465, 466, 445, 244
174, 466, 67, 75, 445
175, 420, 74, 67, 466
176, 100, 93, 468, 440
177, 440, 468, 467, 172
178, 468, 101, 112, 467
179, 93, 8, 101, 468
180, 77, 70, 470, 342
181, 342, 470, 469, 245
182, 470, 381, 248, 469
183, 70, 78, 381, 470
184, 181, 437, 472, 471
185, 471, 472, 463, 143
186, 472, 83, 7, 463
187, 437, 85, 83, 472
188, 171, 474, 475, 473
189, 473, 475, 338, 168
190, 475, 103, 114, 338
191, 474, 113, 103, 475
192, 415, 276, 535, 320
193, 355, 542, 772, 850
194, 857, 854, 312, 612
195, 414, 272, 156, 410
196, 321, 309, 334, 619
197, 664, 318, 298, 482
198, 478, 622, 620, 748
199, 818, 856, 725, 821
200, 677, 160, 726, 281
201, 48, 59, 309, 321
202, 310, 724, 152, 491
203, 798, 367, 745, 847
204, 274, 487, 488, 485
205, 485, 488, 356, 275
206, 34, 283, 374, 41
207, 31, 662, 409, 38
208, 334, 484, 291, 521
209, 318, 691, 544, 298
210, 426, 316, 478, 836
211, 163, 495, 496, 493
212, 493, 496, 385, 177
213, 496, 494, 178, 385
214, 495, 186, 494, 496
215, 208, 499, 500, 497
216, 497, 500, 498, 207
217, 500, 392, 147, 498
218, 499, 145, 392, 500
219, 120, 110, 502, 404
220, 404, 502, 501, 209
221, 502, 406, 146, 501
222, 110, 121, 406, 502
223, 172, 467, 504, 503
224, 503, 504, 474, 171
225, 504, 102, 113, 474
226, 467, 112, 102, 504
227, 222, 508, 509, 505
228, 505, 509, 506, 202
229, 509, 507, 201, 506
230, 508, 221, 507, 509
231, 176, 399, 512, 510
232, 510, 512, 458, 175
233, 512, 511, 170, 458
234, 399, 173, 511, 512
235, 220, 515, 516, 513
236, 513, 516, 350, 219
237, 516, 514, 218, 350
238, 515, 217, 514, 516
239, 239, 518, 519, 329
240, 329, 519, 485, 275
241, 519, 517, 274, 485
242, 518, 240, 517, 519
243, 663, 296, 746, 480
244, 50, 61, 311, 284
245, 489, 162, 845, 344
246, 374, 450, 486, 154
247, 217, 524, 525, 522
248, 522, 525, 523, 205
249, 525, 505, 202, 523
250, 524, 222, 505, 525
251, 217, 515, 528, 524
252, 524, 528, 526, 222
253, 528, 527, 225, 526
254, 515, 220, 527, 528
255, 254, 532, 533, 529
256, 529, 533, 530, 256
257, 533, 531, 257, 530
258, 532, 255, 531, 533
259, 410, 156, 479, 543
260, 747, 482, 750, 742
261, 725, 742, 841, 375
262, 396, 569, 296, 663
263, 218, 514, 537, 353
264, 353, 537, 536, 206
265, 537, 522, 205, 536
266, 514, 217, 522, 537
267, 219, 378, 540, 513
268, 513, 540, 538, 220
269, 540, 539, 215, 538
270, 378, 216, 539, 540
271, 570, 310, 491, 272
272, 692, 846, 449, 345
273, 571, 413, 415, 477
274, 57, 47, 335, 576
275, 210, 547, 548, 545
276, 545, 548, 546, 211
277, 548, 376, 148, 546
278, 547, 149, 376, 548
279, 155, 550, 551, 409
280, 409, 551, 30, 38
281, 551, 549, 3, 30
282, 550, 293, 549, 551
283, 240, 554, 555, 517
284, 517, 555, 552, 274
285, 555, 553, 268, 552
286, 554, 237, 553, 555
287, 234, 558, 559, 556
288, 556, 559, 557, 235
289, 559, 341, 245, 557
290, 558, 246, 341, 559
291, 144, 431, 562, 560
292, 560, 562, 532, 254
293, 562, 561, 255, 532
294, 431, 253, 561, 562
295, 164, 565, 566, 563
296, 563, 566, 495, 163
297, 566, 564, 186, 495
298, 565, 188, 564, 566
299, 718, 325, 567, 827
300, 232, 190, 761, 867
301, 765, 192, 702, 568
302, 157, 267, 346, 317
303, 279, 612, 295, 640
304, 578, 850, 346, 267
305, 835, 425, 520, 283
306, 170, 511, 574, 572
307, 572, 574, 573, 169
308, 574, 368, 174, 573
309, 511, 173, 368, 574
310, 397, 863, 866, 864
311, 750, 692, 345, 575
312, 159, 678, 278, 534
313, 641, 273, 313, 843
314, 139, 580, 581, 129
315, 129, 581, 579, 140
316, 581, 25, 28, 579
317, 580, 2, 25, 581
318, 188, 565, 585, 582
319, 582, 585, 583, 190
320, 585, 584, 200, 583
321, 565, 164, 584, 585
322, 207, 498, 587, 586
323, 586, 587, 547, 210
324, 587, 358, 149, 547
325, 498, 147, 358, 587
326, 137, 590, 591, 127
327, 127, 591, 588, 138
328, 591, 589, 227, 588
329, 590, 228, 589, 591
330, 179, 593, 594, 592
331, 592, 594, 494, 186
332, 594, 416, 178, 494
333, 593, 180, 416, 594
334, 212, 597, 598, 595
335, 595, 598, 596, 213
336, 598, 545, 211, 596
337, 597, 210, 545, 598
338, 224, 601, 602, 599
339, 599, 602, 600, 223
340, 602, 595, 213, 600
341, 601, 212, 595, 602
342, 205, 603, 604, 536
343, 536, 604, 427, 206
344, 604, 452, 203, 427
345, 603, 204, 452, 604
346, 274, 552, 607, 487
347, 60, 50, 284, 285
348, 162, 576, 570, 845
349, 552, 268, 606, 607
350, 202, 609, 610, 523
351, 523, 610, 603, 205
352, 610, 608, 204, 603
353, 609, 199, 608, 610
354, 324, 286, 323, 287
355, 305, 355, 862, 271
356, 605, 613, 292, 366
357, 411, 857, 612, 279
358, 765, 819, 325, 718
359, 568, 702, 195, 719
360, 820, 870, 689, 812
361, 865, 864, 617, 273
362, 294, 322, 305, 372
363, 292, 372, 290, 306
364, 177, 401, 616, 493
365, 493, 616, 615, 163
366, 616, 510, 175, 615
367, 401, 176, 510, 616
368, 490, 285, 481, 484
369, 520, 818, 821, 450
370, 724, 619, 161, 152
371, 37, 297, 817, 44
372, 268, 621, 622, 606
373, 49, 60, 285, 490
374, 816, 159, 534, 661
375, 621, 269, 620, 622
376, 248, 382, 626, 623
377, 623, 626, 624, 247
378, 626, 625, 249, 624
379, 382, 250, 625, 626
380, 148, 362, 629, 546
381, 546, 629, 627, 211
382, 629, 628, 226, 627
383, 362, 151, 628, 629
384, 255, 561, 632, 630
385, 630, 632, 631, 183
386, 632, 436, 181, 631
387, 561, 253, 436, 632
388, 214, 634, 635, 633
389, 633, 635, 597, 212
390, 635, 586, 210, 597
391, 634, 207, 586, 635
392, 2, 580, 637, 17
393, 17, 637, 423, 24
394, 637, 636, 150, 423
395, 580, 139, 636, 637
396, 150, 636, 639, 638
397, 638, 639, 588, 227
398, 639, 128, 138, 588
399, 636, 139, 128, 639
400, 298, 544, 846, 692
401, 693, 321, 619, 724
402, 841, 578, 267, 375
403, 306, 290, 449, 577
404, 257, 531, 645, 643
405, 643, 645, 644, 184
406, 645, 630, 183, 644
407, 531, 255, 630, 645
408, 141, 647, 648, 646
409, 646, 648, 549, 293
410, 648, 27, 3, 549
411, 647, 29, 27, 648
412, 187, 650, 651, 649
413, 649, 651, 564, 188
414, 651, 592, 186, 564
415, 650, 179, 592, 651
416, 29, 647, 652, 26
417, 26, 652, 579, 28
418, 652, 130, 140, 579
419, 647, 141, 130, 652
420, 265, 656, 657, 653
421, 653, 657, 654, 264
422, 657, 655, 262, 654
423, 656, 263, 655, 657
424, 250, 389, 660, 625
425, 625, 660, 658, 249
426, 660, 659, 251, 658
427, 389, 252, 659, 660
428, 161, 521, 678, 159
429, 299, 356, 488, 319
430, 32, 571, 477, 39
431, 271, 862, 575, 345
432, 182, 667, 668, 666
433, 666, 668, 593, 179
434, 668, 462, 180, 593
435, 667, 143, 462, 668
436, 252, 460, 670, 659
437, 659, 670, 669, 251
438, 670, 560, 254, 669
439, 460, 144, 560, 670
440, 239, 433, 673, 518
441, 518, 673, 671, 240
442, 673, 672, 241, 671
443, 433, 242, 672, 673
444, 295, 314, 676, 674
445, 674, 676, 675, 155
446, 676, 132, 142, 675
447, 314, 9, 132, 676
448, 569, 426, 836, 296
449, 850, 772, 412, 346
450, 335, 693, 724, 310
451, 691, 396, 663, 544
452, 247, 624, 682, 679
453, 679, 682, 680, 236
454, 682, 681, 259, 680
455, 624, 249, 681, 682
456, 163, 615, 684, 563
457, 563, 684, 683, 164
458, 684, 455, 165, 683
459, 615, 175, 455, 684
460, 242, 447, 686, 672
461, 672, 686, 685, 241
462, 686, 465, 244, 685
463, 447, 243, 465, 686
464, 245, 469, 688, 557
465, 557, 688, 687, 235
466, 688, 623, 247, 687
467, 469, 248, 623, 688
468, 764, 232, 867, 191
469, 819, 327, 326, 308
470, 286, 735, 733, 323
471, 287, 323, 689, 690
472, 618, 665, 316, 426
473, 367, 410, 543, 745
474, 534, 278, 691, 318
475, 297, 489, 344, 817
476, 183, 631, 695, 694
477, 694, 695, 667, 182
478, 695, 471, 143, 667
479, 631, 181, 471, 695
480, 251, 669, 698, 696
481, 696, 698, 697, 258
482, 698, 529, 256, 697
483, 669, 254, 529, 698
484, 193, 701, 822, 824
485, 765, 568, 823, 869
486, 770, 582, 190, 232
487, 198, 704, 705, 703
488, 703, 705, 683, 165
489, 705, 584, 164, 683
490, 704, 200, 584, 705
491, 235, 687, 708, 706
492, 706, 708, 707, 238
493, 708, 679, 236, 707
494, 687, 247, 679, 708
495, 236, 680, 712, 709
496, 709, 712, 710, 270
497, 712, 711, 260, 710
498, 680, 259, 711, 712
499, 185, 714, 715, 713
500, 713, 715, 650, 187
501, 715, 666, 179, 650
502, 714, 182, 666, 715
503, 249, 658, 717, 681
504, 681, 717, 716, 259
505, 717, 696, 258, 716
506, 658, 251, 696, 717
507, 701, 806, 834, 822
508, 870, 189, 690, 689
509, 189, 135, 124, 690
510, 861, 791, 769, 764
511, 145, 499, 721, 442
512, 442, 721, 501, 146
513, 721, 720, 209, 501
514, 499, 208, 720, 721
515, 184, 644, 723, 722
516, 722, 723, 714, 185
517, 723, 694, 182, 714
518, 644, 183, 694, 723
519, 576, 335, 310, 570
520, 320, 535, 674, 155
521, 288, 786, 789, 858
522, 858, 789, 788, 266
523, 259, 716, 729, 711
524, 711, 729, 727, 260
525, 729, 728, 261, 727
526, 716, 258, 728, 729
527, 263, 731, 732, 655
528, 655, 732, 730, 262
529, 732, 530, 257, 730
530, 731, 256, 530, 732
531, 287, 690, 124, 134
532, 324, 860, 749, 286
533, 735, 653, 264, 733
534, 734, 265, 653, 735
535, 196, 738, 739, 700
536, 700, 739, 736, 231
537, 739, 737, 230, 736
538, 738, 197, 737, 739
539, 241, 685, 741, 740
540, 740, 741, 558, 234
541, 741, 444, 246, 558
542, 685, 244, 444, 741
543, 450, 821, 395, 486
544, 745, 543, 373, 425
545, 486, 395, 157, 282
546, 40, 767, 571, 32
547, 33, 154, 767, 40
548, 303, 766, 665, 618
549, 289, 843, 611, 483
550, 272, 491, 280, 156
551, 366, 768, 844, 605
552, 4, 45, 297, 37
553, 36, 799, 798, 43
554, 35, 847, 835, 42
555, 265, 734, 752, 751
556, 751, 752, 744, 266
557, 752, 304, 289, 744
558, 860, 641, 304, 749
559, 174, 439, 754, 573
560, 573, 754, 753, 169
561, 754, 503, 171, 753
562, 439, 172, 503, 754
563, 263, 755, 756, 731
564, 731, 756, 697, 256
565, 756, 728, 258, 697
566, 755, 261, 728, 756
567, 208, 757, 758, 720
568, 720, 758, 403, 209
569, 758, 539, 216, 403
570, 757, 215, 539, 758
571, 215, 757, 760, 759
572, 759, 760, 634, 214
573, 760, 497, 207, 634
574, 757, 208, 497, 760
575, 190, 583, 763, 761
576, 761, 763, 738, 196
577, 763, 762, 197, 738
578, 583, 200, 762, 763
579, 820, 812, 807, 194
580, 326, 699, 701, 193
581, 769, 770, 232, 764
582, 191, 867, 868, 567
583, 484, 481, 842, 291
584, 372, 305, 271, 290
585, 521, 291, 158, 678
586, 325, 805, 191, 567
587, 582, 770, 649, 188
588, 770, 769, 187, 649
589, 308, 326, 193, 851
590, 313, 153, 301, 300
591, 846, 480, 577, 449
592, 47, 58, 693, 335
593, 642, 299, 319, 492
594, 293, 550, 773, 646
595, 646, 773, 131, 141
596, 773, 675, 142, 131
597, 550, 155, 675, 773
598, 231, 736, 776, 307
599, 307, 776, 774, 228
600, 776, 775, 229, 774
601, 736, 230, 775, 776
602, 240, 671, 778, 554
603, 554, 778, 777, 237
604, 778, 740, 234, 777
605, 671, 241, 740, 778
606, 170, 572, 781, 457
607, 457, 781, 779, 167
608, 781, 780, 166, 779
609, 572, 169, 780, 781
610, 214, 782, 783, 759
611, 759, 783, 538, 215
612, 783, 527, 220, 538
613, 782, 225, 527, 783
614, 169, 753, 784, 780
615, 780, 784, 453, 166
616, 784, 473, 168, 453
617, 753, 171, 473, 784
618, 260, 786, 787, 710
619, 710, 787, 785, 270
620, 319, 488, 487, 766
621, 477, 415, 320, 662
622, 261, 788, 789, 727
623, 727, 789, 786, 260
624, 662, 320, 155, 409
625, 482, 298, 692, 750
626, 187, 769, 791, 713
627, 713, 791, 790, 185
628, 851, 790, 791, 861
629, 851, 193, 824, 790
630, 236, 709, 794, 707
631, 707, 794, 792, 238
632, 794, 793, 269, 792
633, 709, 270, 793, 794
634, 204, 608, 796, 451
635, 451, 796, 779, 166
636, 796, 795, 167, 779
637, 608, 199, 795, 796
638, 836, 478, 748, 332
639, 39, 477, 662, 31
640, 843, 313, 300, 611
641, 613, 294, 372, 292
642, 842, 492, 303, 277
643, 766, 487, 607, 665
644, 283, 520, 450, 374
645, 165, 456, 801, 703
646, 703, 801, 800, 198
647, 801, 795, 199, 800
648, 456, 167, 795, 801
649, 237, 777, 803, 802
650, 802, 803, 706, 238
651, 803, 556, 235, 706
652, 777, 234, 556, 803
653, 238, 792, 804, 802
654, 802, 804, 553, 237
655, 804, 621, 268, 553
656, 792, 269, 621, 804
657, 869, 823, 870, 820
658, 869, 820, 194, 327
659, 808, 654, 262, 806
660, 807, 264, 654, 808
661, 202, 506, 810, 609
662, 609, 810, 800, 199
663, 810, 809, 198, 800
664, 506, 201, 809, 810
665, 266, 788, 811, 751
666, 751, 811, 656, 265
667, 811, 755, 263, 656
668, 788, 261, 755, 811
669, 805, 861, 764, 191
670, 194, 807, 808, 699
671, 812, 733, 264, 807
672, 324, 123, 133, 614
673, 225, 782, 814, 813
674, 813, 814, 601, 224
675, 814, 633, 212, 601
676, 782, 214, 633, 814
677, 605, 844, 771, 483
678, 785, 815, 793, 270
679, 815, 620, 269, 793
680, 678, 158, 797, 278
681, 300, 301, 322, 294
682, 726, 785, 787, 859
683, 748, 620, 815, 160
684, 301, 411, 542, 322
685, 868, 196, 700, 855
686, 192, 307, 228, 702
687, 856, 747, 742, 725
688, 273, 617, 153, 313
689, 44, 817, 799, 36
690, 768, 859, 288, 844
691, 185, 790, 824, 722
692, 722, 824, 822, 184
693, 192, 233, 231, 307
694, 224, 825, 826, 813
695, 813, 826, 526, 225
696, 826, 508, 222, 526
697, 825, 221, 508, 826
698, 567, 868, 855, 827
699, 853, 125, 135, 189
700, 765, 718, 233, 192
701, 718, 827, 855, 233
702, 221, 829, 830, 507
703, 507, 830, 828, 201
704, 830, 737, 197, 828
705, 829, 230, 737, 830
706, 151, 422, 832, 628
707, 628, 832, 831, 226
708, 832, 638, 227, 831
709, 422, 150, 638, 832
710, 201, 828, 833, 809
711, 809, 833, 704, 198
712, 833, 762, 200, 704
713, 828, 197, 762, 833
714, 823, 853, 189, 870
715, 822, 834, 643, 184
716, 834, 730, 257, 643
717, 806, 262, 730, 834
718, 332, 748, 160, 677
719, 304, 641, 843, 289
720, 156, 280, 333, 479
721, 476, 743, 747, 856
722, 152, 161, 159, 816
723, 483, 771, 744, 289
724, 425, 373, 818, 520
725, 46, 57, 576, 162
726, 228, 774, 838, 589
727, 589, 838, 831, 227
728, 838, 837, 226, 831
729, 774, 229, 837, 838
730, 226, 837, 840, 627
731, 627, 840, 596, 211
732, 840, 839, 213, 596
733, 837, 229, 839, 840
734, 492, 319, 766, 303
735, 276, 412, 640, 535
736, 535, 640, 295, 674
737, 395, 375, 267, 157
738, 665, 607, 606, 316
739, 312, 863, 9, 314
740, 344, 845, 414, 541
741, 45, 56, 489, 297
742, 58, 48, 321, 693
743, 743, 664, 482, 747
744, 767, 282, 413, 571
745, 277, 303, 618, 315
746, 481, 642, 492, 842
747, 278, 797, 396, 691
748, 282, 157, 317, 413
749, 158, 277, 315, 797
750, 221, 825, 849, 829
751, 829, 849, 848, 230
752, 849, 599, 223, 848
753, 825, 224, 599, 849
754, 284, 311, 299, 642
755, 41, 374, 154, 33
756, 797, 315, 569, 396
757, 366, 292, 306, 347
758, 568, 719, 853, 823
759, 819, 308, 805, 325
760, 229, 775, 852, 839
761, 839, 852, 600, 213
762, 852, 848, 223, 600
763, 775, 230, 848, 852
764, 702, 228, 590, 195
765, 308, 851, 861, 805
766, 575, 862, 578, 841
767, 614, 397, 864, 865
768, 864, 866, 854, 617
769, 719, 136, 125, 853
770, 195, 590, 137, 126
771, 280, 816, 661, 333
772, 309, 490, 484, 334
773, 544, 663, 480, 846
774, 772, 279, 640, 412
775, 483, 611, 613, 605
776, 153, 857, 411, 301
777, 154, 486, 282, 767
778, 542, 411, 279, 772
779, 56, 46, 162, 489
780, 661, 534, 318, 664
781, 291, 842, 277, 158
782, 619, 334, 521, 161
783, 799, 541, 367, 798
784, 479, 333, 743, 476
785, 311, 357, 356, 299
786, 860, 865, 273, 641
787, 749, 304, 752, 734
788, 286, 749, 734, 735
789, 233, 855, 700, 231
790, 719, 195, 126, 136
791, 327, 194, 699, 326
792, 324, 287, 134, 123
793, 122, 9, 863, 397
794, 133, 122, 397, 614
795, 323, 733, 812, 689
796, 324, 614, 865, 860
797, 699, 808, 806, 701
798, 765, 869, 327, 819
799, 867, 761, 196, 868
*ELSET,ELSET=contact_source
99, 100, 101, 102, 103, 104, 105, 106, 107, 108, 
109, 110, 111, 112, 113, 114, 115, 116, 117, 118, 
119, 120, 
*ELSET,ELSET=contact_drain
39, 40, 41, 42, 43, 44, 45, 46, 47, 48, 
49, 50, 51, 52, 53, 54, 55, 56, 57, 58, 
59, 60, 
*ELSET,ELSET=probe_A
77, 78, 79, 80, 81, 82, 
*ELSET,ELSET=probe_B
17, 18, 19, 20, 21, 22, 
*ELSET,ELSET=walls
1, 2, 3, 4, 5, 6, 7, 8, 9, 10, 
11, 12, 13, 14, 15, 16, 23, 24, 25, 26, 
27, 28, 29, 30, 31, 32, 33, 34, 35, 36, 
37, 38, 61, 62, 63, 64, 65, 66, 67, 68, 
69, 70, 71, 72, 73, 74, 75, 76, 83, 84, 
85, 86, 87, 88, 89, 90, 91, 92, 93, 94, 
95, 96, 97, 98, 121, 122, 123, 124, 125, 126, 
127, 128, 129, 130, 131, 132, 133, 134, 135, 136, 
137, 138, 139, 140, 141, 142, 
*ELSET,ELSET=domain
143, 144, 145, 146, 147, 148, 149, 150, 151, 152, 
153, 154, 155, 156, 157, 158, 159, 160, 161, 162, 
163, 164, 165, 166, 167, 168, 169, 170, 171, 172, 
173, 174, 175, 176, 177, 178, 179, 180, 181, 182, 
183, 184, 185, 186, 187, 188, 189, 190, 191, 192, 
193, 194, 195, 196, 197, 198, 199, 200, 201, 202, 
203, 204, 205, 206, 207, 208, 209, 210, 211, 212, 
213, 214, 215, 216, 217, 218, 219, 220, 221, 222, 
223, 224, 225, 226, 227, 228, 229, 230, 231, 232, 
233, 234, 235, 236, 237, 238, 239, 240, 241, 242, 
243, 244, 245, 246, 247, 248, 249, 250, 251, 252, 
253, 254, 255, 256, 257, 258, 259, 260, 261, 262, 
263, 264, 265, 266, 267, 268, 269, 270, 271, 272, 
273, 274, 275, 276, 277, 278, 279, 280, 281, 282, 
283, 284, 285, 286, 287, 288, 289, 290, 291, 292, 
293, 294, 295, 296, 297, 298, 299, 300, 301, 302, 
303, 304, 305, 306, 307, 308, 309, 310, 311, 312, 
313, 314, 315, 316, 317, 318, 319, 320, 321, 322, 
323, 324, 325, 326, 327, 328, 329, 330, 331, 332, 
333, 334, 335, 336, 337, 338, 339, 340, 341, 342, 
343, 344, 345, 346, 347, 348, 349, 350, 351, 352, 
353, 354, 355, 356, 357, 358, 359, 360, 361, 362, 
363, 364, 365, 366, 367, 368, 369, 370, 371, 372, 
373, 374, 375, 376, 377, 378, 379, 380, 381, 382, 
383, 384, 385, 386, 387, 388, 389, 390, 391, 392, 
393, 394, 395, 396, 397, 398, 399, 400, 401, 402, 
403, 404, 405, 406, 407, 408, 409, 410, 411, 412, 
413, 414, 415, 416, 417, 418, 419, 420, 421, 422, 
423, 424, 425, 426, 427, 428, 429, 430, 431, 432, 
433, 434, 435, 436, 437, 438, 439, 440, 441, 442, 
443, 444, 445, 446, 447, 448, 449, 450, 451, 452, 
453, 454, 455, 456, 457, 458, 459, 460, 461, 462, 
463, 464, 465, 466, 467, 468, 469, 470, 471, 472, 
473, 474, 475, 476, 477, 478, 479, 480, 481, 482, 
483, 484, 485, 486, 487, 488, 489, 490, 491, 492, 
493, 494, 495, 496, 497, 498, 499, 500, 501, 502, 
503, 504, 505, 506, 507, 508, 509, 510, 511, 512, 
513, 514, 515, 516, 517, 518, 519, 520, 521, 522, 
523, 524, 525, 526, 527, 528, 529, 530, 531, 532, 
533, 534, 535, 536, 537, 538, 539, 540, 541, 542, 
543, 544, 545, 546, 547, 548, 549, 550, 551, 552, 
553, 554, 555, 556, 557, 558, 559, 560, 561, 562, 
563, 564, 565, 566, 567, 568, 569, 570, 571, 572, 
573, 574, 575, 576, 577, 578, 579, 580, 581, 582, 
583, 584, 585, 586, 587, 588, 589, 590, 591, 592, 
593, 594, 595, 596, 597, 598, 599, 600, 601, 602, 
603, 604, 605, 606, 607, 608, 609, 610, 611, 612, 
613, 614, 615, 616, 617, 618, 619, 620, 621, 622, 
623, 624, 625, 626, 627, 628, 629, 630, 631, 632, 
633, 634, 635, 636, 637, 638, 639, 640, 641, 642, 
643, 644, 645, 646, 647, 648, 649, 650, 651, 652, 
653, 654, 655, 656, 657, 658, 659, 660, 661, 662, 
663, 664, 665, 666, 667, 668, 669, 670, 671, 672, 
673, 674, 675, 676, 677, 678, 679, 680, 681, 682, 
683, 684, 685, 686, 687, 688, 689, 690, 691, 692, 
693, 694, 695, 696, 697, 698, 699, 700, 701, 702, 
703, 704, 705, 706, 707, 708, 709, 710, 711, 712, 
713, 714, 715, 716, 717, 718, 719, 720, 721, 722, 
723, 724, 725, 726, 727, 728, 729, 730, 731, 732, 
733, 734, 735, 736, 737, 738, 739, 740, 741, 742, 
743, 744, 745, 746, 747, 748, 749, 750, 751, 752, 
753, 754, 755, 756, 757, 758, 759, 760, 761, 762, 
763, 764, 765, 766, 767, 768, 769, 770, 771, 772, 
773, 774, 775, 776, 777, 778, 779, 780, 781, 782, 
783, 784, 785, 786, 787, 788, 789, 790, 791, 792, 
793, 794, 795, 796, 797, 798, 799, 800, 801, 802, 
803, 804, 805, 806, 807, 808, 809, 810, 811, 812, 
813, 814, 815, 816, 817, 818, 819, 820, 821, 822, 
823, 824, 825, 826, 827, 828, 829, 830, 831, 832, 
833, 834, 835, 836, 837, 838, 839, 840, 841, 842, 
843, 844, 845, 846, 847, 848, 849, 850, 851, 852, 
853, 854, 855, 856, 857, 858, 859, 860, 861, 862, 
863, 864, 865, 866, 867, 868, 869, 870, 871, 872, 
873, 874, 875, 876, 877, 878, 879, 880, 881, 882, 
883, 884, 885, 886, 887, 888, 889, 890, 891, 892, 
893, 894, 895, 896, 897, 898, 899, 900, 901, 902, 
903, 904, 905, 906, 907, 908, 909, 910, 911, 912, 
913, 914, 915, 916, 917, 918, 919, 920, 921, 922, 
923, 924, 925, 926, 927, 928, 929, 930, 931, 932, 
933, 934, 935, 936, 937, 938, 939, 940, 941, 
*NSET,NSET=contact_source
1, 8, 101, 102, 103, 104, 105, 106, 107, 108, 
109, 110, 111, 112, 113, 114, 115, 116, 117, 118, 
119, 120, 121, 
*NSET,NSET=contact_drain
4, 5, 45, 46, 47, 48, 49, 50, 51, 52, 
53, 54, 55, 56, 57, 58, 59, 60, 61, 62, 
63, 64, 65, 
*NSET,NSET=probe_A
6, 7, 81, 82, 83, 84, 85, 
*NSET,NSET=probe_B
2, 3, 25, 26, 27, 28, 29, 
*NSET,NSET=walls
1, 2, 3, 4, 5, 6, 7, 8, 9, 10, 
11, 12, 13, 14, 15, 16, 17, 18, 19, 20, 
21, 22, 23, 24, 30, 31, 32, 33, 34, 35, 
36, 37, 38, 39, 40, 41, 42, 43, 44, 66, 
67, 68, 69, 70, 71, 72, 73, 74, 75, 76, 
77, 78, 79, 80, 86, 87, 88, 89, 90, 91, 
92, 93, 94, 95, 96, 97, 98, 99, 100, 122, 
123, 124, 125, 126, 127, 128, 129, 130, 131, 132, 
133, 134, 135, 136, 137, 138, 139, 140, 141, 142, 
*NSET,NSET=domain
1, 2, 3, 4, 5, 6, 7, 8, 9, 10, 
11, 12, 13, 14, 15, 16, 17, 18, 19, 20, 
21, 22, 23, 24, 25, 26, 27, 28, 29, 30, 
31, 32, 33, 34, 35, 36, 37, 38, 39, 40, 
41, 42, 43, 44, 45, 46, 47, 48, 49, 50, 
51, 52, 53, 54, 55, 56, 57, 58, 59, 60, 
61, 62, 63, 64, 65, 66, 67, 68, 69, 70, 
71, 72, 73, 74, 75, 76, 77, 78, 79, 80, 
81, 82, 83, 84, 85, 86, 87, 88, 89, 90, 
91, 92, 93, 94, 95, 96, 97, 98, 99, 100, 
101, 102, 103, 104, 105, 106, 107, 108, 109, 110, 
111, 112, 113, 114, 115, 116, 117, 118, 119, 120, 
121, 122, 123, 124, 125, 126, 127, 128, 129, 130, 
131, 132, 133, 134, 135, 136, 137, 138, 139, 140, 
141, 142, 143, 144, 145, 146, 147, 148, 149, 150, 
151, 152, 153, 154, 155, 156, 157, 158, 159, 160, 
161, 162, 163, 164, 165, 166, 167, 168, 169, 170, 
171, 172, 173, 174, 175, 176, 177, 178, 179, 180, 
181, 182, 183, 184, 185, 186, 187, 188, 189, 190, 
191, 192, 193, 194, 195, 196, 197, 198, 199, 200, 
201, 202, 203, 204, 205, 206, 207, 208, 209, 210, 
211, 212, 213, 214, 215, 216, 217, 218, 219, 220, 
221, 222, 223, 224, 225, 226, 227, 228, 229, 230, 
231, 232, 233, 234, 235, 236, 237, 238, 239, 240, 
241, 242, 243, 244, 245, 246, 247, 248, 249, 250, 
251, 252, 253, 254, 255, 256, 257, 258, 259, 260, 
261, 262, 263, 264, 265, 266, 267, 268, 269, 270, 
271, 272, 273, 274, 275, 276, 277, 278, 279, 280, 
281, 282, 283, 284, 285, 286, 287, 288, 289, 290, 
291, 292, 293, 294, 295, 296, 297, 298, 299, 300, 
301, 302, 303, 304, 305, 306, 307, 308, 309, 310, 
311, 312, 313, 314, 315, 316, 317, 318, 319, 320, 
321, 322, 323, 324, 325, 326, 327, 328, 329, 330, 
331, 332, 333, 334, 335, 336, 337, 338, 339, 340, 
341, 342, 343, 344, 345, 346, 347, 348, 349, 350, 
351, 352, 353, 354, 355, 356, 357, 358, 359, 360, 
361, 362, 363, 364, 365, 366, 367, 368, 369, 370, 
371, 372, 373, 374, 375, 376, 377, 378, 379, 380, 
381, 382, 383, 384, 385, 386, 387, 388, 389, 390, 
391, 392, 393, 394, 395, 396, 397, 398, 399, 400, 
401, 402, 403, 404, 405, 406, 407, 408, 409, 410, 
411, 412, 413, 414, 415, 416, 417, 418, 419, 420, 
421, 422, 423, 424, 425, 426, 427, 428, 429, 430, 
431, 432, 433, 434, 435, 436, 437, 438, 439, 440, 
441, 442, 443, 444, 445, 446, 447, 448, 449, 450, 
451, 452, 453, 454, 455, 456, 457, 458, 459, 460, 
461, 462, 463, 464, 465, 466, 467, 468, 469, 470, 
471, 472, 473, 474, 475, 476, 477, 478, 479, 480, 
481, 482, 483, 484, 485, 486, 487, 488, 489, 490, 
491, 492, 493, 494, 495, 496, 497, 498, 499, 500, 
501, 502, 503, 504, 505, 506, 507, 508, 509, 510, 
511, 512, 513, 514, 515, 516, 517, 518, 519, 520, 
521, 522, 523, 524, 525, 526, 527, 528, 529, 530, 
531, 532, 533, 534, 535, 536, 537, 538, 539, 540, 
541, 542, 543, 544, 545, 546, 547, 548, 549, 550, 
551, 552, 553, 554, 555, 556, 557, 558, 559, 560, 
561, 562, 563, 564, 565, 566, 567, 568, 569, 570, 
571, 572, 573, 574, 575, 576, 577, 578, 579, 580, 
581, 582, 583, 584, 585, 586, 587, 588, 589, 590, 
591, 592, 593, 594, 595, 596, 597, 598, 599, 600, 
601, 602, 603, 604, 605, 606, 607, 608, 609, 610, 
611, 612, 613, 614, 615, 616, 617, 618, 619, 620, 
621, 622, 623, 624, 625, 626, 627, 628, 629, 630, 
631, 632, 633, 634, 635, 636, 637, 638, 639, 640, 
641, 642, 643, 644, 645, 646, 647, 648, 649, 650, 
651, 652, 653, 654, 655, 656, 657, 658, 659, 660, 
661, 662, 663, 664, 665, 666, 667, 668, 669, 670, 
671, 672, 673, 674, 675, 676, 677, 678, 679, 680, 
681, 682, 683, 684, 685, 686, 687, 688, 689, 690, 
691, 692, 693, 694, 695, 696, 697, 698, 699, 700, 
701, 702, 703, 704, 705, 706, 707, 708, 709, 710, 
711, 712, 713, 714, 715, 716, 717, 718, 719, 720, 
721, 722, 723, 724, 725, 726, 727, 728, 729, 730, 
731, 732, 733, 734, 735, 736, 737, 738, 739, 740, 
741, 742, 743, 744, 745, 746, 747, 748, 749, 750, 
751, 752, 753, 754, 755, 756, 757, 758, 759, 760, 
761, 762, 763, 764, 765, 766, 767, 768, 769, 770, 
771, 772, 773, 774, 775, 776, 777, 778, 779, 780, 
781, 782, 783, 784, 785, 786, 787, 788, 789, 790, 
791, 792, 793, 794, 795, 796, 797, 798, 799, 800, 
801, 802, 803, 804, 805, 806, 807, 808, 809, 810, 
811, 812, 813, 814, 815, 816, 817, 818, 819, 820, 
821, 822, 823, 824, 825, 826, 827, 828, 829, 830, 
831, 832, 833, 834, 835, 836, 837, 838, 839, 840, 
841, 842, 843, 844, 845, 846, 847, 848, 849, 850, 
851, 852, 853, 854, 855, 856, 857, 858, 859, 860, 
861, 862, 863, 864, 865, 866, 867, 868, 869, 870, 
