*Heading
 /Users/juliagao/geometry-optimization-net/scripts/../runs/2d/shape_38.inp
*NODE
1, 0, -0.3, 0
2, 0.425, -0.3, 0
3, 0.575, -0.3, 0
4, 1, -0.3, 0
5, 1, 0.3, 0
6, 0.575, 0.3, 0
7, 0.425, 0.3, 0
8, 0, 0.3, 0
9, 0.55, -0.1494679579, 0
10, 0.026166846149503, -0.3, 0
11, 0.078984519215097, -0.3, 0
12, 0.13198083537286, -0.3, 0
13, 0.18452681907086, -0.3, 0
14, 0.2375278539689, -0.3, 0
15, 0.29137235376693, -0.3, 0
16, 0.34519864143585, -0.3, 0
17, 0.39849048487423, -0.3, 0
18, 0.052333692299005, -0.3, 0
19, 0.10563534613119, -0.3, 0
20, 0.15832632461453, -0.3, 0
21, 0.21072731352719, -0.3, 0
22, 0.26432839441061, -0.3, 0
23, 0.31841631312326, -0.3, 0
24, 0.37198096974845, -0.3, 0
25, 0.45018798968897, -0.3, 0
26, 0.49998343953207, -0.3, 0
27, 0.5497954498431, -0.3, 0
28, 0.47537597937794, -0.3, 0
29, 0.5245908996862, -0.3, 0
30, 0.60158686040272, -0.3, 0
31, 0.6549340545092, -0.3, 0
32, 0.70848138223121, -0.3, 0
33, 0.76214900902318, -0.3, 0
34, 0.81596864859518, -0.3, 0
35, 0.86964828056797, -0.3, 0
36, 0.92251502818262, -0.3, 0
37, 0.9743205753114, -0.3, 0
38, 0.62817372080544, -0.3, 0
39, 0.68169438821295, -0.3, 0
40, 0.73526837624947, -0.3, 0
41, 0.78902964179688, -0.3, 0
42, 0.84290765539348, -0.3, 0
43, 0.89638890574246, -0.3, 0
44, 0.94864115062279, -0.3, 0
45, 1, -0.27367103660995, 0
46, 1, -0.22059716849324, 0
47, 1, -0.16651429659455, 0
48, 1, -0.11137506390834, 0
49, 1, -0.05623004156124, 0
50, 1, -0.0015361876435481, 0
51, 1, 0.053915924726972, 0
52, 1, 0.11012272616004, 0
53, 1, 0.1660459381109, 0
54, 1, 0.22083172189651, 0
55, 1, 0.2738995399393, 0
56, 1, -0.2473420732199, 0
57, 1, -0.19385226376658, 0
58, 1, -0.13917632942253, 0
59, 1, -0.083573798394148, 0
60, 1, -0.028886284728332, 0
61, 1, 0.025813909441236, 0
62, 1, 0.082017940012709, 0
63, 1, 0.13822751230737, 0
64, 1, 0.19386436391444, 0
65, 1, 0.24779907987859, 0
66, 0.9736983379827, 0.3, 0
67, 0.92074662997234, 0.3, 0
68, 0.86698939139905, 0.3, 0
69, 0.81305042681368, 0.3, 0
70, 0.75984607909138, 0.3, 0
71, 0.70701668234093, 0.3, 0
72, 0.65395900968542, 0.3, 0
73, 0.6011790790316, 0.3, 0
74, 0.9473966759654, 0.3, 0
75, 0.89409658397928, 0.3, 0
76, 0.83988219881883, 0.3, 0
77, 0.78621865480853, 0.3, 0
78, 0.73347350337422, 0.3, 0
79, 0.68055986130763, 0.3, 0
80, 0.62735815806321, 0.3, 0
81, 0.55079610931623, 0.3, 0
82, 0.50202656068107, 0.3, 0
83, 0.45123045136484, 0.3, 0
84, 0.52659221863247, 0.3, 0
85, 0.47746090272968, 0.3, 0
86, 0.39798020559281, 0.3, 0
87, 0.3442017905592, 0.3, 0
88, 0.29111406746664, 0.3, 0
89, 0.23786994117085, 0.3, 0
90, 0.18395605926293, 0.3, 0
91, 0.13090994307819, 0.3, 0
92, 0.078758563621661, 0.3, 0
93, 0.026327221135785, 0.3, 0
94, 0.37096041118562, 0.3, 0
95, 0.31744316993278, 0.3, 0
96, 0.26478496500049, 0.3, 0
97, 0.21095491734122, 0.3, 0
98, 0.15695720118464, 0.3, 0
99, 0.10486268497175, 0.3, 0
100, 0.052654442271571, 0.3, 0
101, 0, 0.27326590791413, 0
102, 0, 0.21925830054282, 0
103, 0, 0.16405027166783, 0
104, 0, 0.10857835541072, 0
105, 0, 0.05446978491014, 0
106, 0, 0.00091636643014387, 0
107, 0, -0.053909705492925, 0
108, 0, -0.11014851284648, 0
109, 0, -0.16646461738269, 0
110, 0, -0.22105812726898, 0
111, 0, -0.27386525934827, 0
112, 0, 0.24653181582826, 0
113, 0, 0.19198478525738, 0
114, 0, 0.13611575807828, 0
115, 0, 0.081040952743158, 0
116, 0, 0.027898617077123, 0
117, 0, -0.026065884216835, 0
118, 0, -0.081753526769014, 0
119, 0, -0.13854349892395, 0
120, 0, -0.19438573584143, 0
121, 0, -0.24773051869654, 0
122, 0.54312361945716, -0.12416275265263, 0
123, 0.49894400923257, -0.099479110623663, 0
124, 0.45581570288999, -0.12606394412823, 0
125, 0.45782975558966, -0.17633188273764, 0
126, 0.50140897847476, -0.19944810154083, 0
127, 0.54347516544203, -0.17416431363498, 0
128, 0.52438586296864, -0.10581787561417, 0
129, 0.47379253822765, -0.10688663637049, 0
130, 0.45005027150483, -0.15170952322206, 0
131, 0.47685656409668, -0.19378929991748, 0
132, 0.52560360622697, -0.19241508032063, 0
133, 0.41970964518161, -0.24775977670108, 0
134, 0.89543363240382, -0.2730319201476, 0
135, 0.4212969967548, 0.24685707314729, 0
136, 0.053109340209058, -0.24600231965287, 0
137, 0.10552667661249, -0.2457016529261, 0
138, 0.15777924134475, -0.2454675929466, 0
139, 0.20983161128117, -0.24541759402899, 0
140, 0.26141524692462, -0.24538888676332, 0
141, 0.47381725382978, -0.24587913460945, 0
142, 0.36398594958976, -0.2475623579769, 0
143, 0.31237657430226, -0.24544252384237, 0
144, 0.86871617303672, 0.21936704474116, 0
145, 0.84478050717091, -0.10869650594904, 0
146, 0.74210921591938, -0.13548919170079, 0
147, 0.52818787515867, -0.24554818313365, 0
148, 0.7410285619114, 0.056125718765913, 0
149, 0.76764992204445, -0.13570294911462, 0
150, 0.44663348881513, 0.19381226111019, 0
151, 0.71678314084247, -0.16325500791431, 0
152, 0.5817776901258, -0.24716097820368, 0
153, 0.7925779101842, -0.19124817086913, 0
154, 0.2082731679875, 0.19196349658278, 0
155, 0.2595434284102, 0.13801959381194, 0
156, 0.2075819270871, 0.13726142185738, 0
157, 0.10379286404205, 0.13643562573995, 0
158, 0.15572839535853, 0.13672595345855, 0
159, 0.05177895705427, 0.13639131923881, 0
160, 0.15619429032412, 0.19145934813503, 0
161, 0.10405837025565, 0.19107800166119, 0
162, 0.051913044594081, 0.19111325284398, 0
163, 0.052375946696825, 0.24565799296958, 0
164, 0.15692967199174, 0.24595024119098, 0
165, 0.10459686786596, 0.24556452469927, 0
166, 0.20939989619504, 0.24636289002299, 0
167, 0.26051048869814, 0.1923751372623, 0
168, 0.2620637413566, 0.24639592803151, 0
169, 0.31311935770441, 0.19298142693313, 0
170, 0.31496842385785, 0.24657706188701, 0
171, 0.36808382988834, 0.24695839325067, 0
172, 0.66326075631463, 0.0022702370599623, 0
173, 0.41968917554356, 0.19406334069147, 0
174, 0.65607052130431, 0.27317737008022, 0
175, 0.41889267253712, 0.1419668467025, 0
176, 0.87082758527059, -0.02655168263704, 0
177, 0.36615022090106, 0.19374729432847, 0
178, 0.36486901395817, 0.14070088252809, 0
179, 0.31187617134209, 0.13918347351675, 0
180, 0.36385464831585, 0.087754107314725, 0
181, 0.31108291071233, 0.08510895319316, 0
182, 0.4183341556236, 0.090687991121617, 0
183, 0.66215094255398, 0.11099200860128, 0
184, 0.55563823559621, 0.13948948594128, 0
185, 0.87090307402422, 0.083063234712962, 0
186, 0.41766950365841, 0.040448821630455, 0
187, 0.36290508275702, 0.034533688021538, 0
188, 0.31080387451966, 0.030520100408479, 0
189, 0.1557085731709, 0.081773129517308, 0
190, 0.20738175105032, 0.082323692731064, 0
191, 0.25909533660346, 0.083342249171403, 0
192, 0.20765497397199, 0.027231074464975, 0
193, 0.25925322965719, 0.02832597509449, 0
194, 0.10398202041549, 0.081570659862679, 0
195, 0.052158000779617, 0.081602611234556, 0
196, 0.15594784725778, 0.02670416042071, 0
197, 0.10418544617466, 0.026549471873186, 0
198, 0.052356358961599, 0.026810633073174, 0
199, 0.15736024295516, -0.190809532695, 0
200, 0.10494728716872, -0.19119625622058, 0
201, 0.052456494533677, -0.1918042130896, 0
202, 0.20954910887892, -0.19033533535045, 0
203, 0.26120028528641, -0.18952961744822, 0
204, 0.26438332123483, -0.13496070386819, 0
205, 0.21052523789712, -0.13594837848985, 0
206, 0.15737699478429, -0.13654712967794, 0
207, 0.10448550128866, -0.13693599237475, 0
208, 0.051826034328739, -0.1373516948973, 0
209, 0.052043548084535, -0.027948177522694, 0
210, 0.10416241412985, -0.028304730636275, 0
211, 0.051712937534531, -0.082698531372661, 0
212, 0.10418722727285, -0.082776265080991, 0
213, 0.20843122366979, -0.027742704720999, 0
214, 0.26030028768046, -0.026875955327871, 0
215, 0.15632439750601, -0.028168253929094, 0
216, 0.26241736421294, -0.08164550453308, 0
217, 0.20962990102857, -0.082193970046192, 0
218, 0.15686686045923, -0.082568491340091, 0
219, 0.41446420368121, -0.19691685902754, 0
220, 0.36100139692886, -0.19322953529089, 0
221, 0.3118801247675, -0.1887264322453, 0
222, 0.32032271931773, -0.13392868575596, 0
223, 0.380365737937, -0.1397091759615, 0
224, 0.41577900945698, -0.055573076450771, 0
225, 0.42033287421062, -0.10097454881329, 0
226, 0.31475181601731, -0.080760070938955, 0
227, 0.3642816493813, -0.077709746457201, 0
228, 0.31159821824854, -0.024878056810515, 0
229, 0.36229900032765, -0.01992606340577, 0
230, 0.41664895766699, -0.0084019283326545, 0
231, 0.73862173898679, 0.19205292906673, 0
232, 0.53517644660366, -0.08642648065184, 0
233, 0.7153326329063, -0.05286356458424, 0
234, 0.71020669818997, 0.24616896546842, 0
235, 0.61178888903978, -0.051661739584421, 0
236, 0.94847022294181, 0.13760053648684, 0
237, 0.6852636324079, 0.21914125647816, 0
238, 0.94780810423645, 0.19221645310378, 0
239, 0.94700095856495, 0.24629334892164, 0
240, 0.5019798039316, 0.09013364779316, 0
241, 0.58304712693609, 0.11240681256333, 0
242, 0.81909416217297, 0.0012012667659409, 0
243, 0.55690217811337, 0.087094408092805, 0
244, 0.55396372809922, 0.21835411100244, 0
245, 0.71475513904659, 0.083473784022427, 0
246, 0.74130285090298, -0.0530547154316, 0
247, 0.58244934439502, 0.13889677044869, 0
248, 0.81906923832582, -0.026186323872156, 0
249, 0.44785237547903, 0.24649598131055, 0
250, 0.79305153391182, 0.055968224144387, 0
251, 0.89675714547899, 0.00066789477245424, 0
252, 0.53040698442669, 0.063189907467968, 0
253, 0.8964344520251, 0.13761763978325, 0
254, 0.63748209595499, -0.052172228485672, 0
255, 0.69003133246398, -0.10737057093691, 0
256, 0.50372894759841, -0.076664163687316, 0
257, 0.57941138110461, 0.24533640468325, 0
258, 0.63743793182761, -0.02464910315883, 0
259, 0.89672433056377, 0.11029972775418, 0
260, 0.71522678260311, 0.0017306071003836, 0
261, 0.44616903168412, 0.090982267451914, 0
262, 0.57786636352616, 0.27243517357064, 0
263, 0.61168284355728, -0.023885836206349, 0
264, 0.44916834697531, 0.27316898910615, 0
265, 0.81540461075536, 0.24638916207785, 0
266, 0.84500734164164, 0.0010641925747524, 0
267, 0.62982861254642, 0.27307040984991, 0
268, 0.60764033997262, 0.19197689042796, 0
269, 0.52852921508954, 0.14034543408193, 0
270, 0.76715232553553, 0.028749288174225, 0
271, 0.60550319784344, 0.24578746074415, 0
272, 0.47386217179745, 0.11607430567067, 0
273, 0.89436535551894, 0.24636978249488, 0
274, 0.94872263700033, 0.082593866644469, 0
275, 0.87098558919052, 0.055707095795915, 0
276, 0.94855154270571, 0.027481257452898, 0
277, 0.94833101378678, -0.082533300312862, 0
278, 0.61109764985831, -0.22057458726364, 0
279, 0.92250106982965, -0.027144932764091, 0
280, 0.94830841513851, -0.027591898389318, 0
281, 0.68895779799573, 0.056458210980983, 0
282, 0.92245568767861, -0.054628616285414, 0
283, 0.8444106779942, -0.1637516495864, 0
284, 0.92165221837061, -0.19137992213864, 0
285, 0.66257364237673, 0.083915169529054, 0
286, 0.74121908233783, 0.0015705260191008, 0
287, 0.81898050244095, -0.10851137915585, 0
288, 0.57903286819268, -0.27334733844405, 0
289, 0.66626966863044, -0.13513194455929, 0
290, 0.50447455752923, -0.0085497578768653, 0
291, 0.64219637305064, -0.16431306991174, 0
292, 0.50153342044012, 0.11553145158331, 0
293, 0.68709216999227, -0.24629765826153, 0
294, 0.87018292909297, -0.16381882447578, 0
295, 0.74080924654498, 0.083367343907565, 0
296, 0.94819404332622, -0.13726330960507, 0
297, 0.92153749955246, -0.27290011511174, 0
298, 0.53524980109101, -0.062804605815701, 0
299, 0.47532097048971, 0.27271642059343, 0
300, 0.56195100969953, -0.076675687866438, 0
301, 0.89686476846013, 0.028127569386617, 0
302, 0.76719828702079, 0.0014399320188874, 0
303, 0.7661331547681, -0.2187941944934, 0
304, 0.9476997752788, -0.19170234769712, 0
305, 0.94735410393084, -0.24580894275284, 0
306, 0.63736622309525, -0.2197755119465, 0
307, 0.89603393187643, -0.1639149281297, 0
308, 0.92196679699762, -0.16411682623185, 0
309, 0.76730451147421, -0.08062789499466, 0
310, 0.63593083282066, 0.11129969085093, 0
311, 0.44568657788234, -0.054918503244806, 0
312, 0.3878006197028, -0.20371007656409, 0
313, 0.36298620902278, -0.16329403238434, 0
314, 0.40313168578879, -0.16839273293442, 0
315, 0.55849249168117, 0.034345184033047, 0
316, 0.81712807186894, -0.24619067553562, 0
317, 0.58429143252673, 0.059178033314022, 0
318, 0.70872541389854, 0.27313294296483, 0
319, 0.79315342312005, -0.053418271841237, 0
320, 0.63762666382708, -0.079712212499625, 0
321, 0.84432211426858, 0.13773166186097, 0
322, 0.26317468813557, 0.27325251286677, 0
323, 0.31616511759117, 0.27329997751997, 0
324, 0.28848501024917, 0.24640600143513, 0
325, 0.28965667746663, 0.27318300687291, 0
326, 0.92222738985261, -0.13680719312037, 0
327, 0.89569431255972, -0.19128025755082, 0
328, 0.89538584937452, -0.21860648746663, 0
329, 0.47424524695543, -0.080388318942797, 0
330, 0.89602322240963, 0.16489047979746, 0
331, 0.81893263145488, -0.13606240436858, 0
332, 0.66325497792498, -0.21924623143181, 0
333, 0.60852321993176, -0.24701662001775, 0
334, 0.42273888729896, 0.2734317496067, 0
335, 0.3946931455257, 0.24702957160902, 0
336, 0.36941680712285, 0.27354549119279, 0
337, 0.39611421082139, 0.2735988078749, 0
338, 0.97415260483362, -0.13798978459499, 0
339, 0.94833909952776, -0.1099285393502, 0
340, 0.97419691243614, -0.083087195266348, 0
341, 0.97425625037688, -0.11056494691648, 0
342, 0.66493917095395, -0.19170680558956, 0
343, 0.7110221451953, -0.27329730651975, 0
344, 0.58654774589389, -0.19614969547574, 0
345, 0.52685245699707, -0.27237834538989, 0
346, 0.47440392090624, -0.27249190370986, 0
347, 0.5010454901699, -0.24845779269961, 0
348, 0.50063380957868, -0.27359100868872, 0
349, 0.84502180272902, 0.055818276524825, 0
350, 0.60900871664002, 0.13849459457617, 0
351, 0.71327294371204, 0.16494825228185, 0
352, 0.74115570050661, 0.028858777001731, 0
353, 0.6889873561666, -0.21894709487144, 0
354, 0.79308550163321, -0.16357759885776, 0
355, 0.025696808470304, -0.082426970031832, 0
356, 0.051674823399249, -0.11004599438055, 0
357, 0.025727909445098, -0.13775478014116, 0
358, 0.025618029673917, -0.11010444399445, 0
359, 0.31466670697124, -0.27308799763014, 0
360, 0.26259665290686, -0.27300520625567, 0
361, 0.28696180717717, -0.24535571763921, 0
362, 0.28866249808504, -0.27305566670278, 0
363, 0.079354424931346, -0.24584708848701, 0
364, 0.10566171205283, -0.27293159156931, 0
365, 0.053096210688832, -0.2730242064504, 0
366, 0.079394210470708, -0.27302379682856, 0
367, 0.71439789464926, 0.1106593141706, 0
368, 0.89491329500414, 0.21928262082461, 0
369, 0.97434792434263, 0.13778099731414, 0
370, 0.97447700059477, 0.082344265381869, 0
371, 0.9486499037901, 0.1101278794579, 0
372, 0.97444896860791, 0.11009692285928, 0
373, 0.66355221229139, -0.079820130950403, 0
374, 0.58042947127405, 0.21852918364456, 0
375, 0.44625236050856, 0.14196926870513, 0
376, 0.86744859073299, 0.27341291795893, 0
377, 0.052561572888838, 0.2728533496861, 0
378, 0.02623492397726, 0.24591133721908, 0
379, 0.026371010383697, 0.27299351701379, 0
380, 0.3671874819364, -0.27379002721334, 0
381, 0.39192566798015, -0.25087632466493, 0
382, 0.42197988385668, -0.27351224342218, 0
383, 0.39477577878972, -0.27508543976966, 0
384, 0.33786714947592, -0.24601174442101, 0
385, 0.34072722344369, -0.27327769236736, 0
386, 0.078483145283584, 0.24555580286701, 0
387, 0.10479065639539, 0.27277147455296, 0
388, 0.078681401785322, 0.2727791382523, 0
389, 0.1838441125445, -0.2453964091232, 0
390, 0.2103265104843, -0.27284682555892, 0
391, 0.15805633720342, -0.27277912665868, 0
392, 0.18419511464767, -0.27274586332582, 0
393, 0.026153311969841, 0.081542954068253, 0
394, 0.052366889365258, 0.05420246623908, 0
395, 0.026310316437564, 0.027183907377907, 0
396, 0.026355763261629, 0.054339316158934, 0
397, 0.025897480758336, 0.19135253509376, 0
398, 0.051748075264109, 0.16376905800456, 0
399, 0.025816629355428, 0.13635286774348, 0
400, 0.025759030273497, 0.16387295836617, 0
401, 0.47514100551985, -0.0081024627688525, 0
402, 0.6823877981255, 0.27316541293245, 0
403, 0.47364352583107, 0.19334471083398, 0
404, 0.41759239143579, -0.22237227993445, 0
405, 0.44384502048929, -0.19896564881684, 0
406, 0.47363981339822, -0.21973003324475, 0
407, 0.4469776455631, -0.24733507781906, 0
408, 0.44568666190107, -0.22231251595466, 0
409, 0.94757356562146, -0.27285108342625, 0
410, 0.97357128183322, -0.24618009190594, 0
411, 0.97363773608709, -0.27296047763753, 0
412, 0.94870490953679, 0.055037180293741, 0
413, 0.9743114924395, 0.026890726051526, 0
414, 0.97446170896682, 0.054584916996635, 0
415, 0.81826964716585, -0.191286993589, 0
416, 0.76654272902209, 0.1105389516487, 0
417, 0.81773197340581, -0.21881583420499, 0
418, 0.94820106765165, 0.16497256130153, 0
419, 0.97395017919235, 0.19268089491895, 0
420, 0.97420514011019, 0.16532917776572, 0
421, 0.13166890550449, -0.24556968697583, 0
422, 0.13188035371799, -0.2728383821588, 0
423, 0.97341537675607, 0.24662222199497, 0
424, 0.94685189018306, 0.27317645966388, 0
425, 0.9732754009965, 0.27328343862448, 0
426, 0.34150191678163, 0.24678942249608, 0
427, 0.34275566635209, 0.27344145024222, 0
428, 0.15718290282927, 0.273052372448, 0
429, 0.13074444749589, 0.24567202793554, 0
430, 0.13093529366956, 0.27281622955616, 0
431, 0.97412078161839, -0.028170131542033, 0
432, 0.94828891034337, -0.055082098405196, 0
433, 0.97412019800598, -0.055627626037239, 0
434, 0.94837966793002, -6.736580645091e-05, 0
435, 0.97415401980344, -0.00067886178808061, 0
436, 0.23569876682679, -0.24543331415171, 0
437, 0.23647521282935, -0.27295606803025, 0
438, 0.94797029671059, -0.16452839331331, 0
439, 0.97382982116171, -0.19241539939813, 0
440, 0.97400824499496, -0.16528325306265, 0
441, 0.53126493652865, 0.037678878383993, 0
442, 0.52768521525476, 0.19232383729752, 0
443, 0.68923421998147, 0.0019473874113732, 0
444, 0.81903906201507, -0.053595879390105, 0
445, 0.051841826134872, -0.055325919973841, 0
446, 0.02601518786643, -0.027349594182956, 0
447, 0.025823568717292, -0.054828059819113, 0
448, 0.052244410687589, -0.00056927041337111, 0
449, 0.026206414918758, -2.8988408401739e-05, 0
450, 0.44842664070308, -0.27321141051429, 0
451, 0.84401548333488, -0.19129202050623, 0
452, 0.84289708799601, -0.2732497949247, 0
453, 0.86805407483208, 0.24647116793101, 0
454, 0.76506027515934, -0.24619604356977, 0
455, 0.21010794655329, 0.27333668993566, 0
456, 0.18314359118489, 0.24623367922689, 0
457, 0.18359565947379, 0.27328767603473, 0
458, 0.05206185045187, -0.16460854339988, 0
459, 0.026201240215927, -0.19258773986969, 0
460, 0.025888274708399, -0.16527385860416, 0
461, 0.23570682307027, 0.24641740964171, 0
462, 0.23665030790359, 0.27333996422769, 0
463, 0.63472563075974, 0.16511546690491, 0
464, 0.68928334868424, -0.025356032204851, 0
465, 0.73940216339498, 0.16492798337577, 0
466, 0.81631726486319, 0.21932814447584, 0
467, 0.026695091185358, -0.24644903447039, 0
468, 0.026722781192307, -0.27315562687734, 0
469, 0.53336466038966, -0.012993814120242, 0
470, 0.55941484822184, 0.0075988468110342, 0
471, 0.051916921088025, 0.10899727557265, 0
472, 0.025931861241324, 0.10889222239478, 0
473, 0.94737858029301, 0.21932109087346, 0
474, 0.97367327699905, 0.21977193168197, 0
475, 0.55475477493415, -0.24694528724198, 0
476, 0.55270923622516, -0.2730737344068, 0
477, 0.71585001120161, -0.10759438566094, 0
478, 0.61737562312057, -0.13633026342556, 0
479, 0.66106579675592, -0.24646451633685, 0
480, 0.69038531213346, -0.19130859733326, 0
481, 0.79094842098096, 0.19212739783569, 0
482, 0.84383950605146, 0.16498342361111, 0
483, 0.73647443123101, 0.24615673894174, 0
484, 0.92067354428623, 0.2462709723282, 0
485, 0.92045208196929, 0.27321587326059, 0
486, 0.84490568604399, 0.08314935861174, 0
487, 0.53225859996785, 0.012280532912577, 0
488, 0.28676334153604, 0.19262778912907, 0
489, 0.26120139414107, 0.21943241133508, 0
490, 0.31395553411049, 0.21980529127514, 0
491, 0.2875355948224, 0.21955789667996, 0
492, 0.42033810824184, 0.22038237085779, 0
493, 0.39285161552346, 0.19402113744177, 0
494, 0.36700802521287, 0.22034007438173, 0
495, 0.39363999563102, 0.22048014005165, 0
496, 0.74136308192397, -0.19114578439146, 0
497, 0.66419433370818, -0.10723324519913, 0
498, 0.86920787984215, -0.2460230918793, 0
499, 0.8966752598876, -0.026807224113898, 0
500, 0.92126917541364, -0.24576155161036, 0
501, 0.44638343414537, 0.16778855270062, 0
502, 0.052147336163414, 0.21841374044424, 0
503, 0.02607331293328, 0.21869945626452, 0
504, 0.52872038614829, -0.21901315264569, 0
505, 0.50131558456745, -0.224191357742, 0
506, 0.94745708486757, -0.21878556084998, 0
507, 0.97366196546154, -0.21936446249585, 0
508, 0.052861692678194, -0.21893560042874, 0
509, 0.026522193687213, -0.21962307746205, 0
510, 0.26094170632773, -0.2174659628554, 0
511, 0.28670340728799, -0.18902335228634, 0
512, 0.3114105829901, -0.21725033358478, 0
513, 0.28630081155105, -0.21724056403534, 0
514, 0.33660772504253, -0.18946854043035, 0
515, 0.36184259613455, -0.2208933414177, 0
516, 0.3363920458125, -0.2181191576468, 0
517, 0.81709640609005, 0.19218190372197, 0
518, 0.50250768396208, 0.064961351053755, 0
519, 0.50311641239119, 0.040068493417428, 0
520, 0.68396809367116, 0.2461872715841, 0
521, 0.68713208643681, 0.16498997489896, 0
522, 0.71499936983377, 0.056256169712696, 0
523, 0.89549492502976, 0.19211453174299, 0
524, 0.84466118922631, -0.13620449795053, 0
525, 0.7420952361216, -0.16333395051862, 0
526, 0.76694080634179, -0.19119176123062, 0
527, 0.84504176473093, 0.028456782669535, 0
528, 0.76721802240656, -0.02588882127369, 0
529, 0.74038962176825, -0.21877964135267, 0
530, 0.50492295872616, -0.054769277577852, 0
531, 0.58640927451982, -0.05048585123738, 0
532, 0.92244635227991, -0.082072107712888, 0
533, 0.79108689877266, -0.24620290170454, 0
534, 0.53446914416663, -0.038095240631893, 0
535, 0.92239822100609, -0.10946160255616, 0
536, 0.89399292164833, 0.27331725113817, 0
537, 0.71514832973982, 0.029006581708295, 0
538, 0.71246114518792, 0.19205654349298, 0
539, 0.79287943962034, 0.083254457401271, 0
540, 0.55227361975949, 0.27200824478133, 0
541, 0.86936002577249, 0.19218152029967, 0
542, 0.7412542655559, -0.025733901926077, 0
543, 0.41923398235335, 0.16792102722144, 0
544, 0.39173636322885, 0.14145979441006, 0
545, 0.36545500438847, 0.16720113979115, 0
546, 0.39224060584761, 0.16767879337003, 0
547, 0.38850377301775, -0.014121498239075, 0
548, 0.36250063571976, 0.0075578968819564, 0
549, 0.38978849710588, 0.037664217244542, 0
550, 0.41721115134996, 0.015827166285667, 0
551, 0.38916029184448, 0.01183451960016, 0
552, 0.077905842657497, -0.082789908101372, 0
553, 0.10429310535539, -0.10987752510659, 0
554, 0.078111827178087, -0.13711643321343, 0
555, 0.07793533716354, -0.10997448028281, 0
556, 0.47518604769265, -0.032072812560938, 0
557, 0.52702903767072, 0.24505960353145, 0
558, 0.50499177917961, -0.032037019572494, 0
559, 0.66289766925273, 0.056776212407144, 0
560, 0.7672431558662, -0.053239640570217, 0
561, 0.89656757003556, -0.081718761267429, 0
562, 0.76478727040215, 0.19207214908172, 0
563, 0.63161259624428, 0.24603076286779, 0
564, 0.44574041755186, -0.031353782610001, 0
565, 0.58606304852081, -0.022432302814044, 0
566, 0.61107540310718, 0.030956470264607, 0
567, 0.38964661621496, -0.22719741992127, 0
568, 0.58744953128899, -0.10800994233833, 0
569, 0.84173294014539, 0.24645853755435, 0
570, 0.7638753111658, 0.21915969796631, 0
571, 0.58365945634933, 0.085854401664368, 0
572, 0.92273099548929, 0.027863382196819, 0
573, 0.92283678237107, 0.082788454756481, 0
574, 0.92284516842743, 0.055339752498151, 0
575, 0.41860764328281, 0.11621501434268, 0
576, 0.39083011250275, 0.089377640244637, 0
577, 0.36434690426723, 0.11422965967251, 0
578, 0.39128178952159, 0.11536207884437, 0
579, 0.87070563375479, 0.11038908649345, 0
580, 0.66096133625594, 0.1650476730153, 0
581, 0.47361708889469, 0.1673942999461, 0
582, 0.60672853225598, 0.2188188633018, 0
583, 0.57259400709304, -0.14084392430619, 0
584, 0.7661063482221, 0.13775043814286, 0
585, 0.20954762729797, -0.21786157456065, 0
586, 0.23546300232529, -0.18999109815851, 0
587, 0.23534441418555, -0.21770186615746, 0
588, 0.20977146679506, -0.16296767845936, 0
589, 0.23731035917414, -0.13551103741773, 0
590, 0.26199293470364, -0.16184392822028, 0
591, 0.23592779673633, -0.16248703114269, 0
592, 0.15753487519463, -0.21811986396466, 0
593, 0.18350005549019, -0.19058901506209, 0
594, 0.18359310230953, -0.21797738035528, 0
595, 0.76685008714255, 0.083300498327733, 0
596, 0.79259719834321, 0.11051607624923, 0
597, 0.87076428018048, -0.054002394709963, 0
598, 0.92247595811682, 0.13757009691632, 0
599, 0.47434434459504, 0.06558894205786, 0
600, 0.9227183533295, 0.11020427815598, 0
601, 0.31243441743969, 0.16610859747927, 0
602, 0.2856469844765, 0.13853862772595, 0
603, 0.25996135098778, 0.16523606276332, 0
604, 0.28613952629549, 0.16562093062887, 0
605, 0.76276950870689, 0.24617497304372, 0
606, 0.92164644055504, 0.1920864740167, 0
607, 0.92212132422273, 0.16486747464278, 0
608, 0.2101965007409, -0.10913994965845, 0
609, 0.23603042642006, -0.081944677954499, 0
610, 0.26360611684922, -0.10852488712755, 0
611, 0.23683889588487, -0.1088485701904, 0
612, 0.58119641151234, 0.19190204198389, 0
613, 0.47384072585347, 0.21950978568171, 0
614, 0.71144785847905, 0.21913522719809, 0
615, 0.79326156134868, -0.13589685087346, 0
616, 0.63194635306463, -0.273456644555, 0
617, 0.89630650068074, -0.13652748101241, 0
618, 0.1572679627867, -0.16359833675234, 0
619, 0.18390373817203, -0.13628326801088, 0
620, 0.18354409889175, -0.16332056639997, 0
621, 0.86946117915293, -0.2186972860714, 0
622, 0.71666402777921, -0.13528178507785, 0
623, 0.92258587258852, 0.00036080730544303, 0
624, 0.68868142135001, 0.083644898207461, 0
625, 0.33957799625862, 0.19337875598398, 0
626, 0.34044626547463, 0.2200930851737, 0
627, 0.84252196998745, 0.21937487415396, 0
628, 0.44592675561261, -0.0075781331413464, 0
629, 0.68913636935983, 0.029223983997387, 0
630, 0.52967658158622, 0.088807316036778, 0
631, 0.78784352129436, 0.27320385621938, 0
632, 0.65909723957648, 0.21911602590321, 0
633, 0.89661371584289, -0.054274909189547, 0
634, 0.8190125795359, -0.081032468541616, 0
635, 0.55326004172872, 0.24496964385352, 0
636, 0.60837459642653, 0.16521833285179, 0
637, 0.52675496172416, 0.27206745551278, 0
638, 0.1565595192647, 0.2187417066223, 0
639, 0.13013516576362, 0.19121534116989, 0
640, 0.10433061331703, 0.21833862973737, 0
641, 0.13044419607591, 0.21847310719334, 0
642, 0.28503178459358, 0.084113025511466, 0
643, 0.25925281178588, 0.1107233599987, 0
644, 0.31142688116907, 0.11219200416963, 0
645, 0.28527649533918, 0.11137394087846, 0
646, 0.6913587498221, -0.13513226737558, 0
647, 0.89688521532389, 0.08294316297597, 0
648, 0.3382680724996, 0.13992423981212, 0
649, 0.33886401684578, 0.16665712529043, 0
650, 0.10527020756272, -0.21843284905547, 0
651, 0.13116812021107, -0.19100303788894, 0
652, 0.13141899666138, -0.21826769228178, 0
653, 0.07828964649169, 0.02661727742126, 0
654, 0.078088315479146, 0.08157576185932, 0
655, 0.10412665768454, 0.054061874192004, 0
656, 0.078265544581936, 0.054098779139312, 0
657, 0.3373233769032, 0.086335803769472, 0
658, 0.33776008995766, 0.11316169641278, 0
659, 0.28501778570087, 0.029238703839769, 0
660, 0.25908595679883, 0.0558738853826, 0
661, 0.31086014092618, 0.057898950889411, 0
662, 0.28493190087699, 0.056738982827998, 0
663, 0.077978728602025, 0.19103858396415, 0
664, 0.078231960337347, 0.21831192708075, 0
665, 0.79315755446752, 0.0013216797325756, 0
666, 0.63680078322925, 0.057273819350303, 0
667, 0.44606230804424, 0.016546815423476, 0
668, 0.86992924230805, 0.16495027930106, 0
669, 0.73765278463008, 0.2191340148565, 0
670, 0.79218830627007, 0.13775209836961, 0
671, 0.74047721266428, 0.11058205323925, 0
672, 0.66332292932559, -0.025079673157077, 0
673, 0.76143717537076, 0.27310705518526, 0
674, 0.31278346102246, -0.052852810948528, 0
675, 0.3369633707044, -0.022933179485736, 0
676, 0.3626359990643, -0.048228087945597, 0
677, 0.34013343280456, -0.07981155272488, 0
678, 0.33795653558582, -0.05118706459209, 0
679, 0.81889769816186, 0.083209415920815, 0
680, 0.61269820421391, -0.10757872644132, 0
681, 0.73507331481887, 0.27311043971146, 0
682, 0.20878836845228, 0.21921380369745, 0
683, 0.18223159797931, 0.19173297329812, 0
684, 0.18266594916013, 0.21902618270968, 0
685, 0.81652107682269, -0.27330320021733, 0
686, 0.89523389204879, -0.24587117927745, 0
687, 0.81871163704921, -0.1636781326461, 0
688, 0.79313366809575, 0.02865714731473, 0
689, 0.61012404624241, 0.084955422950684, 0
690, 0.89648395453194, -0.10913166189812, 0
691, 0.47491836391895, 0.016151737799777, 0
692, 0.58554294082958, 0.0051337511296721, 0
693, 0.52733946331714, 0.21855206058388, 0
694, 0.87089599680442, 0.00089335926744892, 0
695, 0.71307452246896, -0.24621215820331, 0
696, 0.66676537924627, -0.16357579967092, 0
697, 0.41605802268372, -0.032209418295689, 0
698, 0.38827662954794, -0.067211863090852, 0
699, 0.38801523924369, -0.040398897829794, 0
700, 0.23435552163235, 0.19217252483235, 0
701, 0.23495902260782, 0.21934491116477, 0
702, 0.078093468243402, -0.028219630628223, 0
703, 0.10414730986421, -0.055591102818337, 0
704, 0.077966259840234, -0.055540042201225, 0
705, 0.15590264445102, 0.16412000814426, 0
706, 0.2078665341514, 0.16464299455136, 0
707, 0.18165699241421, 0.13697333907966, 0
708, 0.18188547805159, 0.16438010545339, 0
709, 0.6383761122229, -0.10727220768628, 0
710, 0.50061126898907, 0.21895489633453, 0
711, 0.63711351901992, 0.030098553318306, 0
712, 0.50088130416629, 0.16687957319716, 0
713, 0.58184578209104, 0.16537772028749, 0
714, 0.60958539367798, 0.11175677518701, 0
715, 0.10419161445325, -0.00091749528202954, 0
716, 0.0782251936524, -0.0008291032604776, 0
717, 0.63393261953114, 0.1920356949069, 0
718, 0.74001410769384, 0.13776939997188, 0
719, 0.44613087583756, 0.041036532196733, 0
720, 0.84358033929888, -0.21877151071035, 0
721, 0.81774568163229, 0.16498410779623, 0
722, 0.73736482240819, -0.27329275341943, 0
723, 0.1300703340815, 0.026581798257992, 0
724, 0.12985404167506, 0.08163003926118, 0
725, 0.15581453092026, 0.054236804609417, 0
726, 0.12997490589699, 0.054105485638522, 0
727, 0.077787870570447, 0.13639660425356, 0
728, 0.10384340651113, 0.10903265966314, 0
729, 0.077892042213717, 0.10900977509074, 0
730, 0.84490725748947, -0.05378416808697, 0
731, 0.87037988364903, 0.13768518223406, 0
732, 0.47432358271769, 0.24593751560372, 0
733, 0.23353312915912, 0.13760428829689, 0
734, 0.23388049176075, 0.1649231829157, 0
735, 0.55745565824824, -0.19781145583105, 0
736, 0.5698071319154, -0.17261141390652, 0
737, 0.44673953323116, -0.10351072080586, 0
738, 0.41675007368859, -0.078403517676657, 0
739, 0.71391038364056, 0.13781615363135, 0
740, 0.66312541771305, 0.029561417027216, 0
741, 0.56037328772419, -0.019627288332288, 0
742, 0.68778592792978, 0.13789929861391, 0
743, 0.23322327968964, 0.082759588314187, 0
744, 0.20742031081069, 0.10982032956374, 0
745, 0.23331268634724, 0.11021621166483, 0
746, 0.63293047714626, 0.21900476781539, 0
747, 0.7158472831314, -0.19115912961864, 0
748, 0.73905725789898, -0.24618962061192, 0
749, 0.1561166960504, -0.00077823351163564, 0
750, 0.13024294353558, -0.028276106953422, 0
751, 0.13015640760772, -0.00089186775572631, 0
752, 0.81864136040293, 0.11049304239843, 0
753, 0.63537813112898, 0.13821540997909, 0
754, 0.15657802712081, -0.055434873892884, 0
755, 0.13051382862518, -0.082696355631981, 0
756, 0.13035688286647, -0.055545299632325, 0
757, 0.41808673268455, -0.1485811231467, 0
758, 0.43032740867254, -0.17439763595386, 0
759, 0.81904344068866, 0.055900664030722, 0
760, 0.71468104513692, -0.21881211259319, 0
761, 0.18181209494194, 0.026916138483161, 0
762, 0.20797702374441, -0.00029500759288601, 0
763, 0.18239320411146, -0.027992622059766, 0
764, 0.18206185888169, -0.00058309313710192, 0
765, 0.50116687760919, 0.14111939237981, 0
766, 0.84087373697792, 0.27337662283518, 0
767, 0.078709911308444, -0.19143148210816, 0
768, 0.079094168145865, -0.21863386224028, 0
769, 0.47370090508733, 0.14163790075119, 0
770, 0.92113001289201, 0.21922330432302, 0
771, 0.66337123593538, -0.05245338103779, 0
772, 0.55508464718045, 0.1656936282539, 0
773, 0.41803343331265, 0.065418463829917, 0
774, 0.84323169183379, 0.19220332115385, 0
775, 0.81825942428272, 0.13775203762166, 0
776, 0.79319977748994, -0.10831261408375, 0
777, 0.10385528975612, 0.16378052049394, 0
778, 0.077799479552195, 0.16373678458076, 0
779, 0.12977520613598, 0.13653983520781, 0
780, 0.15566785193706, 0.10927539547678, 0
781, 0.12976860648812, 0.10911378345021, 0
782, 0.20746091895052, 0.054784562081416, 0
783, 0.2334693837691, 0.027682881691957, 0
784, 0.23327111637231, 0.055241639924155, 0
785, 0.55623644046796, 0.11330467453595, 0
786, 0.68829550633848, 0.11078843192103, 0
787, 0.63732774684925, 0.002788523618525, 0
788, 0.68934427843487, -0.052666740228635, 0
789, 0.44619190176488, 0.11636108183742, 0
790, 0.78908217441922, 0.24627681211112, 0
791, 0.28871828370924, -0.081278945534525, 0
792, 0.26124534498632, -0.054379053607249, 0
793, 0.28604481988474, -0.026099305229508, 0
794, 0.28716098527846, -0.053798855682169, 0
795, 0.76552617728165, 0.16493095208042, 0
796, 0.71527077871563, -0.025561766668381, 0
797, 0.44628746235265, -0.078688511261325, 0
798, 0.47488577376115, -0.055965178359615, 0
799, 0.47463313944179, 0.040722723747258, 0
800, 0.25964275676075, 0.00072441776940576, 0
801, 0.23441262953431, -0.027389443973906, 0
802, 0.23384393473569, 0.000120521416816, 0
803, 0.12989326172716, 0.16390525446423, 0
804, 0.5006867625701, 0.19281438726843, 0
805, 0.8692116287996, -0.27317624703714, 0
806, 0.13090928578411, -0.13675673743834, 0
807, 0.10464905958712, -0.16402769096383, 0
808, 0.13096428480314, -0.16382290272215, 0
809, 0.18154839623173, 0.082002584151893, 0
810, 0.18164338673334, 0.054459380070763, 0
811, 0.31750051586026, -0.10806093334102, 0
812, 0.36898415470881, -0.10851716206733, 0
813, 0.34986305735932, -0.1346700492231, 0
814, 0.34412854718157, -0.10821192599821, 0
815, 0.81432904319952, 0.27330945082105, 0
816, 0.36337270085952, 0.061218586772615, 0
817, 0.39034218015023, 0.063489689046714, 0
818, 0.79191534216358, -0.21881504433623, 0
819, 0.64152931296755, -0.13544153302908, 0
820, 0.18154651469235, 0.10951258135978, 0
821, 0.07833913700782, -0.16425991859375, 0
822, 0.56305574529894, -0.10725706240154, 0
823, 0.61062598241719, 0.058039424071815, 0
824, 0.15715122731505, -0.10958753287489, 0
825, 0.1307028603088, -0.10975014558517, 0
826, 0.5545431718951, 0.19196196872681, 0
827, 0.7931563425824, -0.026036254611513, 0
828, 0.58493090597682, 0.032302139517459, 0
829, 0.60549188923395, -0.27350926167974, 0
830, 0.18323980848927, -0.082399988868174, 0
831, 0.20900191915262, -0.055057304278833, 0
832, 0.18279799852562, -0.055272337555205, 0
833, 0.60373051416945, 0.27289448775701, 0
834, 0.50114383374053, 0.27226132784577, 0
835, 0.79010105739785, 0.2192417549757, 0
836, 0.79164195857774, 0.16495875468433, 0
837, 0.84317253231672, -0.24612493967947, 0
838, 0.76754018861102, -0.16345584605157, 0
839, 0.63491447824153, -0.24671315120177, 0
840, 0.65833911271662, -0.27339418265352, 0
841, 0.84467707899126, 0.11045332377653, 0
842, 0.52807720250143, 0.16627106836039, 0
843, 0.31100288812724, 0.0029328164889494, 0
844, 0.28535892561347, 0.0016139316536405, 0
845, 0.66013803048693, 0.1920727221291, 0
846, 0.63640374430802, 0.084330995227914, 0
847, 0.59421885017747, -0.13813452272889, 0
848, 0.55618035932191, -0.2215974777867, 0
849, 0.61189723642878, -0.079585501628554, 0
850, 0.18364335121196, -0.10938448718717, 0
851, 0.23516567630676, -0.054772056500118, 0
852, 0.29194888235161, -0.13435300909462, 0
853, 0.29051785223235, -0.10822505745136, 0
854, 0.74164582948961, -0.10784560354779, 0
855, 0.86981991346301, -0.19128028274024, 0
856, 0.66162038673399, 0.1380281174963, 0
857, 0.76373297758236, -0.27330069143191, 0
858, 0.69165188127732, -0.16329415200284, 0
859, 0.79012297450196, -0.27330611078067, 0
860, 0.76704627812207, 0.056036846717527, 0
861, 0.61144080959448, 0.0036582034093458, 0
862, 0.33670748201561, 0.032267963635246, 0
863, 0.33665063447209, 0.0048604109616719, 0
864, 0.3369609593113, 0.059395207590986, 0
865, 0.63939804841166, -0.19252303914891, 0
866, 0.50379122794824, 0.015530588635773, 0
867, 0.39838676612486, -0.12083326649823, 0
868, 0.42611723006803, -0.12655488035529, 0
869, 0.3136596072204, -0.16032494581057, 0
870, 0.28793125884604, -0.1610669966047, 0
871, 0.59404221876277, -0.16870624771193, 0
872, 0.58409745118607, -0.22143781331912, 0
873, 0.61799197844155, -0.16586715981073, 0
874, 0.56125818231897, -0.047605605221874, 0
875, 0.52905666382867, 0.11452629013137, 0
876, 0.55765170307405, 0.060801943683186, 0
877, 0.39073017513192, -0.094467329664025, 0
878, 0.33894294509953, -0.16032350790094, 0
879, 0.61348301554694, -0.1939850127144, 0
880, 0.92137584365403, -0.21859270689733, 0
881, 0.89693054988411, 0.055552873009694, 0
882, 0.87070403532928, -0.08144921223673, 0
883, 0.65776791145143, 0.24616850121701, 0
884, 0.79316656250343, -0.080835407808231, 0
885, 0.68952795470975, -0.079982364751111, 0
886, 0.84495899190757, -0.026352141272739, 0
887, 0.87045078066653, -0.13634732617004, 0
888, 0.87061188940484, -0.1088921206606, 0
889, 0.68468852947806, -0.27333303637309, 0
890, 0.76742555208068, -0.10809022656129, 0
891, 0.38458248082766, -0.17809841716297, 0
892, 0.44707988637265, 0.22004454143936, 0
893, 0.58661021879246, -0.079039425351283, 0
894, 0.44615719906809, 0.065861683167112, 0
895, 0.50071907939737, 0.24538025809184, 0
896, 0.71548914734628, -0.080186978030897, 0
897, 0.84485480847946, -0.081229901786466, 0
898, 0.81909720946169, 0.028564794903803, 0
899, 0.68630406999701, 0.19207026137476, 0
900, 0.47408159597031, 0.090716637525201, 0
901, 0.74141482006082, -0.080408631271646, 0
902, 0.87096563103484, 0.028317202130485, 0
******* E L E M E N T S *************
*ELEMENT, type=CPS4, ELSET=Surface1
1, 375, 501, 543, 175
2, 466, 627, 569, 265
3, 464, 796, 260, 443
4, 168, 324, 325, 322
5, 322, 325, 88, 96
6, 325, 323, 95, 88
7, 324, 170, 323, 325
8, 266, 694, 902, 527
9, 532, 535, 339, 277
10, 885, 896, 233, 788
11, 865, 306, 332, 342
12, 847, 583, 736, 871
13, 149, 838, 354, 615
14, 258, 672, 172, 787
15, 596, 752, 775, 670
16, 94, 336, 337, 86
17, 86, 337, 334, 7
18, 337, 335, 135, 334
19, 336, 171, 335, 337
20, 59, 340, 341, 48
21, 48, 341, 338, 58
22, 341, 339, 296, 338
23, 340, 277, 339, 341
24, 306, 839, 479, 332
25, 789, 375, 175, 575
26, 354, 153, 415, 687
27, 291, 865, 342, 696
28, 147, 347, 348, 345
29, 345, 348, 26, 29
30, 348, 346, 28, 26
31, 347, 141, 346, 348
32, 247, 350, 636, 713
33, 302, 665, 688, 270
34, 540, 262, 6, 81
35, 237, 614, 234, 520
36, 748, 722, 857, 454
37, 289, 696, 858, 646
38, 795, 836, 481, 562
39, 632, 237, 520, 883
40, 119, 357, 358, 108
41, 108, 358, 355, 118
42, 358, 356, 211, 355
43, 357, 208, 356, 358
44, 143, 361, 362, 359
45, 359, 362, 15, 23
46, 362, 360, 22, 15
47, 361, 140, 360, 362
48, 136, 365, 366, 363
49, 363, 366, 364, 137
50, 366, 11, 19, 364
51, 365, 18, 11, 366
52, 501, 150, 173, 543
53, 752, 841, 321, 775
54, 742, 739, 351, 521
55, 713, 636, 268, 612
56, 236, 371, 372, 369
57, 369, 372, 52, 63
58, 372, 370, 62, 52
59, 371, 274, 370, 372
60, 874, 741, 469, 534
61, 145, 888, 882, 897
62, 788, 233, 796, 464
63, 563, 883, 174, 267
64, 100, 93, 379, 377
65, 377, 379, 378, 163
66, 379, 101, 112, 378
67, 93, 8, 101, 379
68, 24, 17, 383, 380
69, 380, 383, 381, 142
70, 383, 382, 133, 381
71, 17, 2, 382, 383
72, 142, 384, 385, 380
73, 380, 385, 16, 24
74, 385, 359, 23, 16
75, 384, 143, 359, 385
76, 165, 387, 388, 386
77, 386, 388, 377, 163
78, 388, 92, 100, 377
79, 387, 99, 92, 388
80, 138, 391, 392, 389
81, 389, 392, 390, 139
82, 392, 13, 21, 390
83, 391, 20, 13, 392
84, 115, 105, 396, 393
85, 393, 396, 394, 195
86, 396, 395, 198, 394
87, 105, 116, 395, 396
88, 114, 399, 400, 103
89, 103, 400, 397, 113
90, 400, 398, 162, 397
91, 399, 159, 398, 400
92, 496, 529, 303, 526
93, 622, 151, 525, 146
94, 672, 464, 443, 172
95, 665, 242, 898, 688
96, 133, 407, 408, 404
97, 404, 408, 405, 219
98, 408, 406, 131, 405
99, 407, 141, 406, 408
100, 44, 37, 411, 409
101, 409, 411, 410, 305
102, 411, 45, 56, 410
103, 37, 4, 45, 411
104, 276, 413, 414, 412
105, 412, 414, 370, 274
106, 414, 51, 62, 370
107, 413, 61, 51, 414
108, 766, 376, 68, 76
109, 880, 500, 305, 506
110, 536, 485, 67, 75
111, 597, 633, 499, 176
112, 63, 53, 420, 369
113, 369, 420, 418, 236
114, 420, 419, 238, 418
115, 53, 64, 419, 420
116, 19, 12, 422, 364
117, 364, 422, 421, 137
118, 422, 391, 138, 421
119, 12, 20, 391, 422
120, 65, 55, 425, 423
121, 423, 425, 424, 239
122, 425, 66, 74, 424
123, 55, 5, 66, 425
124, 170, 426, 427, 323
125, 323, 427, 87, 95
126, 427, 336, 94, 87
127, 426, 171, 336, 427
128, 98, 91, 430, 428
129, 428, 430, 429, 164
130, 430, 387, 165, 429
131, 91, 99, 387, 430
132, 280, 432, 433, 431
133, 431, 433, 49, 60
134, 433, 340, 59, 49
135, 432, 277, 340, 433
136, 61, 413, 435, 50
137, 50, 435, 431, 60
138, 435, 434, 280, 431
139, 413, 276, 434, 435
140, 22, 360, 437, 14
141, 14, 437, 390, 21
142, 437, 436, 139, 390
143, 360, 140, 436, 437
144, 304, 439, 440, 438
145, 438, 440, 338, 296
146, 440, 47, 58, 338
147, 439, 57, 47, 440
148, 888, 887, 617, 690
149, 524, 283, 294, 887
150, 343, 32, 40, 722
151, 279, 280, 434, 623
152, 679, 486, 841, 752
153, 721, 482, 774, 517
154, 866, 519, 799, 691
155, 881, 574, 573, 647
156, 209, 446, 447, 445
157, 445, 447, 355, 211
158, 447, 107, 118, 355
159, 446, 117, 107, 447
160, 198, 395, 449, 448
161, 448, 449, 446, 209
162, 449, 106, 117, 446
163, 395, 116, 106, 449
164, 2, 25, 450, 382
165, 382, 450, 407, 133
166, 450, 346, 141, 407
167, 25, 28, 346, 450
168, 561, 532, 282, 633
169, 146, 525, 838, 149
170, 353, 293, 695, 760
171, 765, 712, 581, 769
172, 97, 90, 457, 455
173, 455, 457, 456, 166
174, 457, 428, 164, 456
175, 90, 98, 428, 457
176, 119, 109, 460, 357
177, 357, 460, 458, 208
178, 460, 459, 201, 458
179, 109, 120, 459, 460
180, 168, 322, 462, 461
181, 461, 462, 455, 166
182, 462, 89, 97, 455
183, 322, 96, 89, 462
184, 690, 535, 532, 561
185, 403, 613, 892, 150
186, 691, 799, 719, 667
187, 530, 558, 556, 798
188, 121, 111, 468, 467
189, 467, 468, 365, 136
190, 468, 10, 18, 365
191, 111, 1, 10, 468
192, 235, 254, 258, 263
193, 263, 258, 787, 861
194, 402, 318, 71, 79
195, 249, 264, 334, 135
196, 114, 104, 472, 399
197, 399, 472, 471, 159
198, 472, 393, 195, 471
199, 104, 115, 393, 472
200, 64, 54, 474, 419
201, 419, 474, 473, 238
202, 474, 423, 239, 473
203, 54, 65, 423, 474
204, 147, 345, 476, 475
205, 871, 736, 735, 344
206, 452, 42, 35, 805
207, 345, 29, 27, 476
208, 873, 879, 865, 291
209, 695, 343, 722, 748
210, 283, 451, 855, 294
211, 720, 837, 498, 621
212, 231, 562, 570, 669
213, 833, 267, 80, 73
214, 351, 465, 231, 538
215, 265, 569, 766, 815
216, 239, 424, 485, 484
217, 709, 497, 373, 320
218, 790, 265, 815, 631
219, 424, 74, 67, 485
220, 246, 560, 528, 542
221, 373, 885, 788, 771
222, 669, 570, 605, 483
223, 482, 668, 541, 774
224, 169, 490, 491, 488
225, 488, 491, 489, 167
226, 491, 324, 168, 489
227, 490, 170, 324, 491
228, 171, 494, 495, 335
229, 335, 495, 492, 135
230, 495, 493, 173, 492
231, 494, 177, 493, 495
232, 416, 596, 670, 584
233, 295, 595, 416, 671
234, 303, 454, 533, 818
235, 293, 889, 343, 695
236, 498, 805, 134, 686
237, 731, 253, 330, 668
238, 244, 374, 257, 635
239, 285, 624, 786, 183
240, 163, 378, 503, 502
241, 502, 503, 397, 162
242, 503, 102, 113, 397
243, 378, 112, 102, 503
244, 147, 504, 505, 347
245, 347, 505, 406, 141
246, 505, 126, 131, 406
247, 504, 132, 126, 505
248, 305, 410, 507, 506
249, 506, 507, 439, 304
250, 507, 46, 57, 439
251, 410, 56, 46, 507
252, 120, 110, 509, 459
253, 459, 509, 508, 201
254, 509, 467, 136, 508
255, 110, 121, 467, 509
256, 140, 361, 513, 510
257, 510, 513, 511, 203
258, 513, 512, 221, 511
259, 361, 143, 512, 513
260, 143, 384, 516, 512
261, 512, 516, 514, 221
262, 516, 515, 220, 514
263, 384, 142, 515, 516
264, 717, 845, 632, 746
265, 233, 246, 542, 796
266, 895, 834, 299, 732
267, 667, 719, 186, 550
268, 630, 875, 292, 240
269, 828, 566, 823, 317
270, 823, 666, 846, 689
271, 582, 746, 563, 271
272, 747, 760, 529, 496
273, 308, 284, 304, 438
274, 890, 149, 615, 776
275, 829, 30, 38, 616
276, 290, 866, 691, 401
277, 902, 301, 881, 275
278, 818, 533, 316, 417
279, 804, 710, 613, 403
280, 856, 742, 521, 580
281, 785, 241, 247, 184
282, 320, 373, 771, 254
283, 519, 518, 599, 799
284, 374, 582, 271, 257
285, 842, 442, 804, 712
286, 893, 849, 235, 531
287, 890, 776, 884, 309
288, 177, 545, 546, 493
289, 493, 546, 543, 173
290, 546, 544, 175, 543
291, 545, 178, 544, 546
292, 230, 550, 551, 547
293, 547, 551, 548, 229
294, 551, 549, 187, 548
295, 550, 186, 549, 551
296, 208, 554, 555, 356
297, 356, 555, 552, 211
298, 555, 553, 212, 552
299, 554, 207, 553, 555
300, 836, 721, 517, 481
301, 444, 730, 886, 248
302, 579, 259, 253, 731
303, 255, 477, 896, 885
304, 309, 884, 319, 560
305, 562, 481, 835, 570
306, 558, 290, 401, 556
307, 497, 255, 885, 373
308, 694, 251, 301, 902
309, 300, 874, 534, 298
310, 860, 250, 539, 595
311, 350, 753, 463, 636
312, 133, 404, 567, 381
313, 381, 567, 515, 142
314, 567, 312, 220, 515
315, 404, 219, 312, 567
316, 241, 714, 350, 247
317, 534, 469, 290, 558
318, 556, 401, 628, 564
319, 886, 176, 694, 266
320, 274, 573, 574, 412
321, 412, 574, 572, 276
322, 628, 667, 550, 230
323, 310, 183, 856, 753
324, 178, 577, 578, 544
325, 544, 578, 575, 175
326, 578, 576, 182, 575
327, 577, 180, 576, 578
328, 250, 759, 679, 539
329, 542, 528, 302, 286
330, 730, 597, 176, 886
331, 772, 713, 612, 826
332, 527, 902, 275, 349
333, 256, 530, 798, 329
334, 518, 240, 900, 599
335, 294, 855, 327, 307
336, 140, 510, 587, 436
337, 436, 587, 585, 139
338, 587, 586, 202, 585
339, 510, 203, 586, 587
340, 203, 590, 591, 586
341, 586, 591, 588, 202
342, 591, 589, 205, 588
343, 590, 204, 589, 591
344, 139, 585, 594, 389
345, 389, 594, 592, 138
346, 594, 593, 199, 592
347, 585, 202, 593, 594
348, 525, 496, 526, 838
349, 839, 616, 840, 479
350, 257, 271, 833, 262
351, 331, 687, 283, 524
352, 319, 444, 248, 827
353, 598, 600, 371, 236
354, 600, 573, 274, 371
355, 595, 539, 596, 416
356, 167, 603, 604, 488
357, 488, 604, 601, 169
358, 604, 602, 179, 601
359, 603, 155, 602, 604
360, 236, 418, 607, 598
361, 826, 244, 693, 442
362, 786, 367, 739, 742
363, 418, 238, 606, 607
364, 204, 610, 611, 589
365, 589, 611, 608, 205
366, 611, 609, 217, 608
367, 610, 216, 609, 611
368, 834, 82, 85, 299
369, 311, 564, 697, 224
370, 245, 295, 671, 367
371, 741, 565, 692, 470
372, 840, 31, 39, 889
373, 769, 581, 501, 375
374, 760, 695, 748, 529
375, 616, 38, 31, 840
376, 202, 588, 620, 593
377, 593, 620, 618, 199
378, 620, 619, 206, 618
379, 588, 205, 619, 620
380, 680, 478, 819, 709
381, 822, 583, 847, 568
382, 153, 818, 417, 415
383, 264, 83, 7, 334
384, 169, 625, 626, 490
385, 490, 626, 426, 170
386, 626, 494, 171, 426
387, 625, 177, 494, 626
388, 884, 634, 444, 319
389, 815, 766, 76, 69
390, 148, 860, 595, 295
391, 318, 681, 78, 71
392, 469, 487, 866, 290
393, 453, 273, 536, 376
394, 774, 541, 144, 627
395, 144, 368, 273, 453
396, 627, 144, 453, 569
397, 668, 330, 523, 541
398, 688, 898, 759, 250
399, 580, 521, 899, 845
400, 164, 429, 641, 638
401, 638, 641, 639, 160
402, 641, 640, 161, 639
403, 429, 165, 640, 641
404, 181, 644, 645, 642
405, 642, 645, 643, 191
406, 645, 602, 155, 643
407, 644, 179, 602, 645
408, 690, 617, 326, 535
409, 454, 857, 859, 533
410, 463, 580, 845, 717
411, 259, 600, 598, 253
412, 179, 648, 649, 601
413, 601, 649, 625, 169
414, 649, 545, 177, 625
415, 648, 178, 545, 649
416, 137, 421, 652, 650
417, 650, 652, 651, 200
418, 652, 592, 199, 651
419, 421, 138, 592, 652
420, 197, 655, 656, 653
421, 653, 656, 394, 198
422, 656, 654, 195, 394
423, 655, 194, 654, 656
424, 181, 657, 658, 644
425, 644, 658, 648, 179
426, 658, 577, 178, 648
427, 657, 180, 577, 658
428, 188, 661, 662, 659
429, 659, 662, 660, 193
430, 662, 642, 191, 660
431, 661, 181, 642, 662
432, 165, 386, 664, 640
433, 640, 664, 663, 161
434, 664, 502, 162, 663
435, 386, 163, 502, 664
436, 443, 260, 537, 629
437, 329, 798, 311, 797
438, 287, 331, 524, 145
439, 441, 252, 518, 519
440, 300, 893, 531, 874
441, 262, 833, 73, 6
442, 584, 670, 836, 795
443, 568, 847, 478, 680
444, 771, 788, 464, 672
445, 666, 559, 285, 846
446, 376, 536, 75, 68
447, 541, 523, 368, 144
448, 226, 677, 678, 674
449, 674, 678, 675, 228
450, 678, 676, 229, 675
451, 677, 227, 676, 678
452, 232, 298, 530, 256
453, 776, 287, 634, 884
454, 719, 894, 773, 186
455, 442, 693, 710, 804
456, 160, 683, 684, 638
457, 638, 684, 456, 164
458, 684, 682, 166, 456
459, 683, 154, 682, 684
460, 822, 232, 128, 122
461, 150, 892, 492, 173
462, 281, 522, 245, 624
463, 827, 248, 242, 665
464, 819, 291, 696, 289
465, 333, 829, 616, 839
466, 835, 466, 265, 790
467, 797, 738, 225, 737
468, 465, 795, 562, 231
469, 785, 184, 269, 875
470, 275, 881, 647, 185
471, 568, 680, 849, 893
472, 689, 846, 310, 714
473, 845, 899, 237, 632
474, 299, 85, 83, 264
475, 152, 475, 476, 288
476, 227, 698, 699, 676
477, 676, 699, 547, 229
478, 699, 697, 230, 547
479, 698, 224, 697, 699
480, 166, 682, 701, 461
481, 461, 701, 489, 168
482, 701, 700, 167, 489
483, 682, 154, 700, 701
484, 211, 552, 704, 445
485, 445, 704, 702, 209
486, 704, 703, 210, 702
487, 552, 212, 703, 704
488, 158, 707, 708, 705
489, 705, 708, 683, 160
490, 708, 706, 154, 683
491, 707, 156, 706, 708
492, 481, 517, 466, 835
493, 647, 573, 600, 259
494, 243, 571, 241, 785
495, 613, 732, 249, 892
496, 776, 615, 331, 287
497, 605, 790, 631, 673
498, 477, 622, 146, 854
499, 680, 709, 320, 849
500, 197, 653, 716, 715
501, 715, 716, 702, 210
502, 716, 448, 209, 702
503, 653, 198, 448, 716
504, 292, 765, 769, 272
505, 732, 299, 264, 249
506, 740, 629, 281, 559
507, 268, 717, 746, 582
508, 478, 873, 291, 819
509, 529, 748, 454, 303
510, 367, 671, 718, 739
511, 599, 900, 261, 894
512, 196, 725, 726, 723
513, 723, 726, 655, 197
514, 726, 724, 194, 655
515, 725, 189, 724, 726
516, 159, 471, 729, 727
517, 727, 729, 728, 157
518, 729, 654, 194, 728
519, 471, 195, 654, 729
520, 540, 81, 84, 637
521, 470, 692, 828, 315
522, 581, 403, 150, 501
523, 898, 527, 349, 759
524, 154, 706, 734, 700
525, 700, 734, 603, 167
526, 734, 733, 155, 603
527, 706, 156, 733, 734
528, 709, 819, 289, 497
529, 735, 736, 127, 132
530, 736, 583, 9, 127
531, 307, 327, 284, 308
532, 883, 520, 402, 174
533, 557, 637, 834, 895
534, 269, 842, 712, 765
535, 896, 901, 246, 233
536, 321, 731, 668, 482
537, 876, 243, 630, 252
538, 670, 775, 721, 836
539, 875, 269, 765, 292
540, 191, 643, 745, 743
541, 743, 745, 744, 190
542, 745, 733, 156, 744
543, 643, 155, 733, 745
544, 687, 415, 451, 283
545, 500, 297, 409, 305
546, 332, 479, 293, 353
547, 889, 39, 32, 343
548, 210, 750, 751, 715
549, 715, 751, 723, 197
550, 751, 749, 196, 723
551, 750, 215, 749, 751
552, 271, 563, 267, 833
553, 560, 319, 827, 528
554, 329, 797, 737, 129
555, 539, 679, 752, 596
556, 212, 755, 756, 703
557, 703, 756, 750, 210
558, 756, 754, 215, 750
559, 755, 218, 754, 756
560, 130, 757, 758, 125
561, 125, 758, 405, 131
562, 758, 314, 219, 405
563, 757, 223, 314, 758
564, 623, 434, 276, 572
565, 316, 685, 452, 837
566, 617, 307, 308, 326
567, 215, 763, 764, 749
568, 749, 764, 761, 196
569, 764, 762, 192, 761
570, 763, 213, 762, 764
571, 499, 279, 623, 251
572, 822, 122, 9, 583
573, 317, 823, 689, 571
574, 796, 542, 286, 260
575, 201, 508, 768, 767
576, 767, 768, 650, 200
577, 768, 363, 137, 650
578, 508, 136, 363, 768
579, 238, 473, 770, 606
580, 368, 770, 484, 273
581, 243, 785, 875, 630
582, 473, 239, 484, 770
583, 822, 568, 893, 300
584, 349, 275, 185, 486
585, 861, 787, 711, 566
586, 798, 556, 564, 311
587, 487, 441, 519, 866
588, 470, 315, 441, 487
589, 298, 534, 558, 530
590, 712, 804, 403, 581
591, 159, 727, 778, 398
592, 398, 778, 663, 162
593, 778, 777, 161, 663
594, 727, 157, 777, 778
595, 194, 724, 781, 728
596, 728, 781, 779, 157
597, 781, 780, 158, 779
598, 724, 189, 780, 781
599, 192, 783, 784, 782
600, 782, 784, 743, 190
601, 784, 660, 191, 743
602, 783, 193, 660, 784
603, 714, 310, 753, 350
604, 174, 402, 79, 72
605, 692, 861, 566, 828
606, 538, 231, 669, 614
607, 718, 584, 795, 465
608, 267, 174, 72, 80
609, 253, 598, 607, 330
610, 775, 321, 482, 721
611, 272, 769, 375, 789
612, 301, 572, 574, 881
613, 242, 266, 527, 898
614, 634, 897, 730, 444
615, 226, 674, 794, 791
616, 791, 794, 792, 216
617, 794, 793, 214, 792
618, 674, 228, 793, 794
619, 255, 646, 622, 477
620, 145, 524, 887, 888
621, 486, 185, 579, 841
622, 260, 286, 352, 537
623, 176, 499, 251, 694
624, 566, 711, 666, 823
625, 822, 300, 298, 232
626, 564, 628, 230, 697
627, 193, 783, 802, 800
628, 800, 802, 801, 214
629, 802, 762, 213, 801
630, 783, 192, 762, 802
631, 160, 639, 803, 705
632, 705, 803, 779, 158
633, 803, 777, 157, 779
634, 639, 161, 777, 803
635, 673, 631, 77, 70
636, 879, 278, 306, 865
637, 624, 245, 367, 786
638, 805, 35, 43, 134
639, 207, 807, 808, 806
640, 806, 808, 618, 206
641, 808, 651, 199, 618
642, 807, 200, 651, 808
643, 196, 761, 810, 725
644, 725, 810, 809, 189
645, 810, 782, 190, 809
646, 761, 192, 782, 810
647, 222, 813, 814, 811
648, 811, 814, 677, 226
649, 814, 812, 227, 677
650, 813, 223, 812, 814
651, 876, 317, 571, 243
652, 531, 235, 263, 565
653, 846, 285, 183, 310
654, 523, 606, 770, 368
655, 187, 549, 817, 816
656, 816, 817, 576, 180
657, 817, 773, 182, 576
658, 549, 186, 773, 817
659, 297, 36, 44, 409
660, 838, 526, 153, 354
661, 134, 43, 36, 297
662, 685, 34, 42, 452
663, 156, 707, 820, 744
664, 744, 820, 809, 190
665, 820, 780, 189, 809
666, 707, 158, 780, 820
667, 200, 807, 821, 767
668, 767, 821, 458, 201
669, 821, 554, 208, 458
670, 807, 207, 554, 821
671, 841, 579, 731, 321
672, 273, 484, 485, 536
673, 746, 632, 883, 563
674, 799, 599, 894, 719
675, 206, 824, 825, 806
676, 806, 825, 553, 207
677, 825, 755, 212, 553
678, 824, 218, 755, 825
679, 240, 292, 272, 900
680, 270, 688, 250, 860
681, 570, 835, 790, 605
682, 882, 561, 633, 597
683, 315, 828, 317, 876
684, 899, 538, 614, 237
685, 328, 686, 500, 880
686, 671, 416, 584, 718
687, 217, 831, 832, 830
688, 830, 832, 754, 218
689, 832, 763, 215, 754
690, 831, 213, 763, 832
691, 244, 635, 557, 693
692, 901, 309, 560, 246
693, 849, 320, 254, 235
694, 315, 876, 252, 441
695, 887, 294, 307, 617
696, 261, 789, 575, 182
697, 646, 858, 151, 622
698, 521, 351, 538, 899
699, 151, 747, 496, 525
700, 797, 311, 224, 738
701, 185, 647, 259, 579
702, 892, 249, 135, 492
703, 352, 270, 860, 148
704, 559, 281, 624, 285
705, 183, 786, 742, 856
706, 874, 531, 565, 741
707, 193, 800, 844, 659
708, 659, 844, 843, 188
709, 844, 793, 228, 843
710, 800, 214, 793, 844
711, 248, 886, 266, 242
712, 739, 718, 465, 351
713, 401, 691, 667, 628
714, 520, 234, 318, 402
715, 759, 349, 486, 679
716, 533, 859, 685, 316
717, 848, 504, 147, 475
718, 735, 132, 504, 848
719, 741, 470, 487, 469
720, 635, 257, 262, 540
721, 772, 826, 442, 842
722, 232, 256, 123, 128
723, 218, 824, 850, 830
724, 830, 850, 608, 217
725, 850, 619, 205, 608
726, 824, 206, 619, 850
727, 213, 831, 851, 801
728, 801, 851, 792, 214
729, 851, 609, 216, 792
730, 831, 217, 609, 851
731, 204, 852, 853, 610
732, 610, 853, 791, 216
733, 853, 811, 226, 791
734, 852, 222, 811, 853
735, 517, 774, 627, 466
736, 330, 607, 606, 523
737, 621, 498, 686, 328
738, 854, 146, 149, 890
739, 284, 880, 506, 304
740, 184, 772, 842, 269
741, 858, 480, 747, 151
742, 288, 476, 27, 3
743, 251, 623, 572, 301
744, 477, 854, 901, 896
745, 635, 540, 637, 557
746, 693, 557, 895, 710
747, 229, 548, 863, 675
748, 675, 863, 843, 228
749, 863, 862, 188, 843
750, 548, 187, 862, 863
751, 181, 661, 864, 657
752, 657, 864, 816, 180
753, 864, 862, 187, 816
754, 661, 188, 862, 864
755, 753, 856, 580, 463
756, 417, 316, 837, 720
757, 571, 689, 714, 241
758, 615, 354, 687, 331
759, 225, 867, 868, 737
760, 737, 868, 124, 129
761, 868, 757, 130, 124
762, 867, 223, 757, 868
763, 221, 869, 870, 511
764, 511, 870, 590, 203
765, 870, 852, 204, 590
766, 869, 222, 852, 870
767, 872, 848, 475, 152
768, 327, 328, 880, 284
769, 722, 40, 33, 857
770, 282, 432, 280, 279
771, 637, 84, 82, 834
772, 483, 605, 673, 681
773, 415, 417, 720, 451
774, 614, 669, 483, 234
775, 227, 812, 877, 698
776, 698, 877, 738, 224
777, 877, 867, 225, 738
778, 812, 223, 867, 877
779, 220, 313, 878, 514
780, 514, 878, 869, 221
781, 878, 813, 222, 869
782, 313, 223, 813, 878
783, 565, 263, 861, 692
784, 526, 303, 818, 153
785, 857, 33, 41, 859
786, 479, 840, 889, 293
787, 537, 352, 148, 522
788, 837, 452, 805, 498
789, 686, 134, 297, 500
790, 480, 353, 760, 747
791, 497, 289, 646, 255
792, 172, 443, 629, 740
793, 278, 333, 839, 306
794, 859, 41, 34, 685
795, 710, 895, 732, 613
796, 894, 261, 182, 773
797, 629, 537, 522, 281
798, 711, 740, 559, 666
799, 636, 463, 717, 268
800, 256, 329, 129, 123
801, 286, 302, 270, 352
802, 631, 815, 69, 77
803, 888, 690, 561, 882
804, 787, 172, 740, 711
805, 254, 771, 672, 258
806, 342, 332, 353, 480
807, 900, 272, 789, 261
808, 826, 612, 374, 244
809, 528, 827, 665, 302
810, 344, 735, 848, 872
811, 569, 453, 376, 766
812, 287, 145, 897, 634
813, 184, 247, 713, 772
814, 681, 673, 70, 78
815, 451, 720, 621, 855
816, 612, 268, 582, 374
817, 696, 342, 480, 858
818, 522, 148, 295, 245
819, 252, 630, 240, 518
820, 855, 621, 328, 327
821, 219, 314, 891, 312
822, 312, 891, 313, 220
823, 314, 223, 313, 891
824, 326, 308, 438, 296
825, 535, 326, 296, 339
826, 532, 277, 432, 282
827, 234, 483, 681, 318
828, 633, 282, 279, 499
829, 288, 3, 30, 829
830, 152, 288, 829, 333
831, 872, 152, 333, 278
832, 344, 872, 278, 879
833, 871, 344, 879, 873
834, 847, 871, 873, 478
835, 854, 890, 309, 901
836, 897, 882, 597, 730
*ELSET,ELSET=contact_source
99, 100, 101, 102, 103, 104, 105, 106, 107, 108, 
109, 110, 111, 112, 113, 114, 115, 116, 117, 118, 
119, 120, 
*ELSET,ELSET=contact_drain
39, 40, 41, 42, 43, 44, 45, 46, 47, 48, 
49, 50, 51, 52, 53, 54, 55, 56, 57, 58, 
59, 60, 
*ELSET,ELSET=probe_A
77, 78, 79, 80, 81, 82, 
*ELSET,ELSET=probe_B
17, 18, 19, 20, 21, 22, 
*ELSET,ELSET=walls
1, 2, 3, 4, 5, 6, 7, 8, 9, 10, 
11, 12, 13, 14, 15, 16, 23, 24, 25, 26, 
27, 28, 29, 30, 31, 32, 33, 34, 35, 36, 
37, 38, 61, 62, 63, 64, 65, 66, 67, 68, 
69, 70, 71, 72, 73, 74, 75, 76, 83, 84, 
85, 86, 87, 88, 89, 90, 91, 92, 93, 94, 
95, 96, 97, 98, 121, 122, 123, 124, 125, 126, 
127, 128, 129, 130, 131, 132, 
*ELSET,ELSET=domain
133, 134, 135, 136, 137, 138, 139, 140, 141, 142, 
143, 144, 145, 146, 147, 148, 149, 150, 151, 152, 
153, 154, 155, 156, 157, 158, 159, 160, 161, 162, 
163, 164, 165, 166, 167, 168, 169, 170, 171, 172, 
173, 174, 175, 176, 177, 178, 179, 180, 181, 182, 
183, 184, 185, 186, 187, 188, 189, 190, 191, 192, 
193, 194, 195, 196, 197, 198, 199, 200, 201, 202, 
203, 204, 205, 206, 207, 208, 209, 210, 211, 212, 
213, 214, 215, 216, 217, 218, 219, 220, 221, 222, 
223, 224, 225, 226, 227, 228, 229, 230, 231, 232, 
233, 234, 235, 236, 237, 238, 239, 240, 241, 242, 
243, 244, 245, 246, 247, 248, 249, 250, 251, 252, 
253, 254, 255, 256, 257, 258, 259, 260, 261, 262, 
263, 264, 265, 266, 267, 268, 269, 270, 271, 272, 
273, 274, 275, 276, 277, 278, 279, 280, 281, 282, 
283, 284, 285, 286, 287, 288, 289, 290, 291, 292, 
293, 294, 295, 296, 297, 298, 299, 300, 301, 302, 
303, 304, 305, 306, 307, 308, 309, 310, 311, 312, 
313, 314, 315, 316, 317, 318, 319, 320, 321, 322, 
323, 324, 325, 326, 327, 328, 329, 330, 331, 332, 
333, 334, 335, 336, 337, 338, 339, 340, 341, 342, 
343, 344, 345, 346, 347, 348, 349, 350, 351, 352, 
353, 354, 355, 356, 357, 358, 359, 360, 361, 362, 
363, 364, 365, 366, 367, 368, 369, 370, 371, 372, 
373, 374, 375, 376, 377, 378, 379, 380, 381, 382, 
383, 384, 385, 386, 387, 388, 389, 390, 391, 392, 
393, 394, 395, 396, 397, 398, 399, 400, 401, 402, 
403, 404, 405, 406, 407, 408, 409, 410, 411, 412, 
413, 414, 415, 416, 417, 418, 419, 420, 421, 422, 
423, 424, 425, 426, 427, 428, 429, 430, 431, 432, 
433, 434, 435, 436, 437, 438, 439, 440, 441, 442, 
443, 444, 445, 446, 447, 448, 449, 450, 451, 452, 
453, 454, 455, 456, 457, 458, 459, 460, 461, 462, 
463, 464, 465, 466, 467, 468, 469, 470, 471, 472, 
473, 474, 475, 476, 477, 478, 479, 480, 481, 482, 
483, 484, 485, 486, 487, 488, 489, 490, 491, 492, 
493, 494, 495, 496, 497, 498, 499, 500, 501, 502, 
503, 504, 505, 506, 507, 508, 509, 510, 511, 512, 
513, 514, 515, 516, 517, 518, 519, 520, 521, 522, 
523, 524, 525, 526, 527, 528, 529, 530, 531, 532, 
533, 534, 535, 536, 537, 538, 539, 540, 541, 542, 
543, 544, 545, 546, 547, 548, 549, 550, 551, 552, 
553, 554, 555, 556, 557, 558, 559, 560, 561, 562, 
563, 564, 565, 566, 567, 568, 569, 570, 571, 572, 
573, 574, 575, 576, 577, 578, 579, 580, 581, 582, 
583, 584, 585, 586, 587, 588, 589, 590, 591, 592, 
593, 594, 595, 596, 597, 598, 599, 600, 601, 602, 
603, 604, 605, 606, 607, 608, 609, 610, 611, 612, 
613, 614, 615, 616, 617, 618, 619, 620, 621, 622, 
623, 624, 625, 626, 627, 628, 629, 630, 631, 632, 
633, 634, 635, 636, 637, 638, 639, 640, 641, 642, 
643, 644, 645, 646, 647, 648, 649, 650, 651, 652, 
653, 654, 655, 656, 657, 658, 659, 660, 661, 662, 
663, 664, 665, 666, 667, 668, 669, 670, 671, 672, 
673, 674, 675, 676, 677, 678, 679, 680, 681, 682, 
683, 684, 685, 686, 687, 688, 689, 690, 691, 692, 
693, 694, 695, 696, 697, 698, 699, 700, 701, 702, 
703, 704, 705, 706, 707, 708, 709, 710, 711, 712, 
713, 714, 715, 716, 717, 718, 719, 720, 721, 722, 
723, 724, 725, 726, 727, 728, 729, 730, 731, 732, 
733, 734, 735, 736, 737, 738, 739, 740, 741, 742, 
743, 744, 745, 746, 747, 748, 749, 750, 751, 752, 
753, 754, 755, 756, 757, 758, 759, 760, 761, 762, 
763, 764, 765, 766, 767, 768, 769, 770, 771, 772, 
773, 774, 775, 776, 777, 778, 779, 780, 781, 782, 
783, 784, 785, 786, 787, 788, 789, 790, 791, 792, 
793, 794, 795, 796, 797, 798, 799, 800, 801, 802, 
803, 804, 805, 806, 807, 808, 809, 810, 811, 812, 
813, 814, 815, 816, 817, 818, 819, 820, 821, 822, 
823, 824, 825, 826, 827, 828, 829, 830, 831, 832, 
833, 834, 835, 836, 837, 838, 839, 840, 841, 842, 
843, 844, 845, 846, 847, 848, 849, 850, 851, 852, 
853, 854, 855, 856, 857, 858, 859, 860, 861, 862, 
863, 864, 865, 866, 867, 868, 869, 870, 871, 872, 
873, 874, 875, 876, 877, 878, 879, 880, 881, 882, 
883, 884, 885, 886, 887, 888, 889, 890, 891, 892, 
893, 894, 895, 896, 897, 898, 899, 900, 901, 902, 
903, 904, 905, 906, 907, 908, 909, 910, 911, 912, 
913, 914, 915, 916, 917, 918, 919, 920, 921, 922, 
923, 924, 925, 926, 927, 928, 929, 930, 931, 932, 
933, 934, 935, 936, 937, 938, 939, 940, 941, 942, 
943, 944, 945, 946, 947, 948, 949, 950, 951, 952, 
953, 954, 955, 956, 957, 958, 959, 960, 961, 962, 
963, 964, 965, 966, 967, 968, 
*NSET,NSET=contact_source
1, 8, 101, 102, 103, 104, 105, 106, 107, 108, 
109, 110, 111, 112, 113, 114, 115, 116, 117, 118, 
119, 120, 121, 
*NSET,NSET=contact_drain
4, 5, 45, 46, 47, 48, 49, 50, 51, 52, 
53, 54, 55, 56, 57, 58, 59, 60, 61, 62, 
63, 64, 65, 
*NSET,NSET=probe_A
6, 7, 81, 82, 83, 84, 85, 
*NSET,NSET=probe_B
2, 3, 25, 26, 27, 28, 29, 
*NSET,NSET=walls
1, 2, 3, 4, 5, 6, 7, 8, 9, 10, 
11, 12, 13, 14, 15, 16, 17, 18, 19, 20, 
21, 22, 23, 24, 30, 31, 32, 33, 34, 35, 
36, 37, 38, 39, 40, 41, 42, 43, 44, 66, 
67, 68, 69, 70, 71, 72, 73, 74, 75, 76, 
77, 78, 79, 80, 86, 87, 88, 89, 90, 91, 
92, 93, 94, 95, 96, 97, 98, 99, 100, 122, 
123, 124, 125, 126, 127, 128, 129, 130, 131, 132, 
*NSET,NSET=domain
1, 2, 3, 4, 5, 6, 7, 8, 9, 10, 
11, 12, 13, 14, 15, 16, 17, 18, 19, 20, 
21, 22, 23, 24, 25, 26, 27, 28, 29, 30, 
31, 32, 33, 34, 35, 36, 37, 38, 39, 40, 
41, 42, 43, 44, 45, 46, 47, 48, 49, 50, 
51, 52, 53, 54, 55, 56, 57, 58, 59, 60, 
61, 62, 63, 64, 65, 66, 67, 68, 69, 70, 
71, 72, 73, 74, 75, 76, 77, 78, 79, 80, 
81, 82, 83, 84, 85, 86, 87, 88, 89, 90, 
91, 92, 93, 94, 95, 96, 97, 98, 99, 100, 
101, 102, 103, 104, 105, 106, 107, 108, 109, 110, 
111, 112, 113, 114, 115, 116, 117, 118, 119, 120, 
121, 122, 123, 124, 125, 126, 127, 128, 129, 130, 
131, 132, 133, 134, 135, 136, 137, 138, 139, 140, 
141, 142, 143, 144, 145, 146, 147, 148, 149, 150, 
151, 152, 153, 154, 155, 156, 157, 158, 159, 160, 
161, 162, 163, 164, 165, 166, 167, 168, 169, 170, 
171, 172, 173, 174, 175, 176, 177, 178, 179, 180, 
181, 182, 183, 184, 185, 186, 187, 188, 189, 190, 
191, 192, 193, 194, 195, 196, 197, 198, 199, 200, 
201, 202, 203, 204, 205, 206, 207, 208, 209, 210, 
211, 212, 213, 214, 215, 216, 217, 218, 219, 220, 
221, 222, 223, 224, 225, 226, 227, 228, 229, 230, 
231, 232, 233, 234, 235, 236, 237, 238, 239, 240, 
241, 242, 243, 244, 245, 246, 247, 248, 249, 250, 
251, 252, 253, 254, 255, 256, 257, 258, 259, 260, 
261, 262, 263, 264, 265, 266, 267, 268, 269, 270, 
271, 272, 273, 274, 275, 276, 277, 278, 279, 280, 
281, 282, 283, 284, 285, 286, 287, 288, 289, 290, 
291, 292, 293, 294, 295, 296, 297, 298, 299, 300, 
301, 302, 303, 304, 305, 306, 307, 308, 309, 310, 
311, 312, 313, 314, 315, 316, 317, 318, 319, 320, 
321, 322, 323, 324, 325, 326, 327, 328, 329, 330, 
331, 332, 333, 334, 335, 336, 337, 338, 339, 340, 
341, 342, 343, 344, 345, 346, 347, 348, 349, 350, 
351, 352, 353, 354, 355, 356, 357, 358, 359, 360, 
361, 362, 363, 364, 365, 366, 367, 368, 369, 370, 
371, 372, 373, 374, 375, 376, 377, 378, 379, 380, 
381, 382, 383, 384, 385, 386, 387, 388, 389, 390, 
391, 392, 393, 394, 395, 396, 397, 398, 399, 400, 
401, 402, 403, 404, 405, 406, 407, 408, 409, 410, 
411, 412, 413, 414, 415, 416, 417, 418, 419, 420, 
421, 422, 423, 424, 425, 426, 427, 428, 429, 430, 
431, 432, 433, 434, 435, 436, 437, 438, 439, 440, 
441, 442, 443, 444, 445, 446, 447, 448, 449, 450, 
451, 452, 453, 454, 455, 456, 457, 458, 459, 460, 
461, 462, 463, 464, 465, 466, 467, 468, 469, 470, 
471, 472, 473, 474, 475, 476, 477, 478, 479, 480, 
481, 482, 483, 484, 485, 486, 487, 488, 489, 490, 
491, 492, 493, 494, 495, 496, 497, 498, 499, 500, 
501, 502, 503, 504, 505, 506, 507, 508, 509, 510, 
511, 512, 513, 514, 515, 516, 517, 518, 519, 520, 
521, 522, 523, 524, 525, 526, 527, 528, 529, 530, 
531, 532, 533, 534, 535, 536, 537, 538, 539, 540, 
541, 542, 543, 544, 545, 546, 547, 548, 549, 550, 
551, 552, 553, 554, 555, 556, 557, 558, 559, 560, 
561, 562, 563, 564, 565, 566, 567, 568, 569, 570, 
571, 572, 573, 574, 575, 576, 577, 578, 579, 580, 
581, 582, 583, 584, 585, 586, 587, 588, 589, 590, 
591, 592, 593, 594, 595, 596, 597, 598, 599, 600, 
601, 602, 603, 604, 605, 606, 607, 608, 609, 610, 
611, 612, 613, 614, 615, 616, 617, 618, 619, 620, 
621, 622, 623, 624, 625, 626, 627, 628, 629, 630, 
631, 632, 633, 634, 635, 636, 637, 638, 639, 640, 
641, 642, 643, 644, 645, 646, 647, 648, 649, 650, 
651, 652, 653, 654, 655, 656, 657, 658, 659, 660, 
661, 662, 663, 664, 665, 666, 667, 668, 669, 670, 
671, 672, 673, 674, 675, 676, 677, 678, 679, 680, 
681, 682, 683, 684, 685, 686, 687, 688, 689, 690, 
691, 692, 693, 694, 695, 696, 697, 698, 699, 700, 
701, 702, 703, 704, 705, 706, 707, 708, 709, 710, 
711, 712, 713, 714, 715, 716, 717, 718, 719, 720, 
721, 722, 723, 724, 725, 726, 727, 728, 729, 730, 
731, 732, 733, 734, 735, 736, 737, 738, 739, 740, 
741, 742, 743, 744, 745, 746, 747, 748, 749, 750, 
751, 752, 753, 754, 755, 756, 757, 758, 759, 760, 
761, 762, 763, 764, 765, 766, 767, 768, 769, 770, 
771, 772, 773, 774, 775, 776, 777, 778, 779, 780, 
781, 782, 783, 784, 785, 786, 787, 788, 789, 790, 
791, 792, 793, 794, 795, 796, 797, 798, 799, 800, 
801, 802, 803, 804, 805, 806, 807, 808, 809, 810, 
811, 812, 813, 814, 815, 816, 817, 818, 819, 820, 
821, 822, 823, 824, 825, 826, 827, 828, 829, 830, 
831, 832, 833, 834, 835, 836, 837, 838, 839, 840, 
841, 842, 843, 844, 845, 846, 847, 848, 849, 850, 
851, 852, 853, 854, 855, 856, 857, 858, 859, 860, 
861, 862, 863, 864, 865, 866, 867, 868, 869, 870, 
871, 872, 873, 874, 875, 876, 877, 878, 879, 880, 
881, 882, 883, 884, 885, 886, 887, 888, 889, 890, 
891, 892, 893, 894, 895, 896, 897, 898, 899, 900, 
901, 902, 
