*Heading
 /Users/juliagao/geometry-optimization-net/scripts/../runs/2d/shape_24.inp
*NODE
1, 0, -0.3, 0
2, 0.425, -0.3, 0
3, 0.575, -0.3, 0
4, 1, -0.3, 0
5, 1, 0.3, 0
6, 0.575, 0.3, 0
7, 0.425, 0.3, 0
8, 0, 0.3, 0
9, 0.5936089897, -0.1485785408, 0
10, 0.024792735130693, -0.3, 0
11, 0.075542675526114, -0.3, 0
12, 0.12862010453615, -0.3, 0
13, 0.18285989237936, -0.3, 0
14, 0.23693985634095, -0.3, 0
15, 0.29086994668352, -0.3, 0
16, 0.34478718515372, -0.3, 0
17, 0.39836736657252, -0.3, 0
18, 0.049585470261385, -0.3, 0
19, 0.10149988079084, -0.3, 0
20, 0.15574032828146, -0.3, 0
21, 0.20997945647725, -0.3, 0
22, 0.26390025620465, -0.3, 0
23, 0.3178396371624, -0.3, 0
24, 0.37173473314504, -0.3, 0
25, 0.45063811509494, -0.3, 0
26, 0.50043023826423, -0.3, 0
27, 0.54979212316929, -0.3, 0
28, 0.47627623018987, -0.3, 0
29, 0.52458424633858, -0.3, 0
30, 0.6016536815748, -0.3, 0
31, 0.65576943631679, -0.3, 0
32, 0.71046189273824, -0.3, 0
33, 0.76455039778834, -0.3, 0
34, 0.81809592552218, -0.3, 0
35, 0.87131986972477, -0.3, 0
36, 0.92375088024595, -0.3, 0
37, 0.97482267625127, -0.3, 0
38, 0.62830736314959, -0.3, 0
39, 0.68323150948398, -0.3, 0
40, 0.7376922759925, -0.3, 0
41, 0.79140851958419, -0.3, 0
42, 0.84478333146016, -0.3, 0
43, 0.89785640798937, -0.3, 0
44, 0.94964535250254, -0.3, 0
45, 1, -0.27390208861385, 0
46, 1, -0.22051413382394, 0
47, 1, -0.1650322074169, 0
48, 1, -0.10870786648759, 0
49, 1, -0.052719764067408, 0
50, 1, 0.0030896947457066, 0
51, 1, 0.059079356641518, 0
52, 1, 0.11475892460871, 0
53, 1, 0.16909778610008, 0
54, 1, 0.22189508897317, 0
55, 1, 0.27399862537261, 0
56, 1, -0.24780417722769, 0
57, 1, -0.1932240904202, 0
58, 1, -0.13684032441361, 0
59, 1, -0.080575408561579, 0
60, 1, -0.024864119573236, 0
61, 1, 0.03104350906465, 0
62, 1, 0.087115204218386, 0
63, 1, 0.14240264499903, 0
64, 1, 0.19579292720112, 0
65, 1, 0.24799725074522, 0
66, 0.97454274384433, 0.3, 0
67, 0.92297180428264, 0.3, 0
68, 0.87004004102016, 0.3, 0
69, 0.81632895552154, 0.3, 0
70, 0.76233844947687, 0.3, 0
71, 0.70781883809261, 0.3, 0
72, 0.65330771691811, 0.3, 0
73, 0.60060935336268, 0.3, 0
74, 0.94908548768865, 0.3, 0
75, 0.89685812087663, 0.3, 0
76, 0.84322196116369, 0.3, 0
77, 0.7894359498794, 0.3, 0
78, 0.73524094907435, 0.3, 0
79, 0.68039672711087, 0.3, 0
80, 0.62621870672536, 0.3, 0
81, 0.55626082966636, 0.3, 0
82, 0.51935327342282, 0.3, 0
83, 0.4825729668803, 0.3, 0
84, 0.44448052312384, 0.3, 0
85, 0.53752165933272, 0.3, 0
86, 0.50118488751292, 0.3, 0
87, 0.46396104624768, 0.3, 0
88, 0.39920978748613, 0.3, 0
89, 0.34691027246821, 0.3, 0
90, 0.29337331916858, 0.3, 0
91, 0.23894433894556, 0.3, 0
92, 0.18425460990359, 0.3, 0
93, 0.13004382732894, 0.3, 0
94, 0.077008763769211, 0.3, 0
95, 0.025448041584809, 0.3, 0
96, 0.37341957497226, 0.3, 0
97, 0.32040096996417, 0.3, 0
98, 0.266345668373, 0.3, 0
99, 0.21154300951812, 0.3, 0
100, 0.15696621028907, 0.3, 0
101, 0.1031214443688, 0.3, 0
102, 0.050896083169618, 0.3, 0
103, 0, 0.27342097111248, 0
104, 0, 0.21949355394171, 0
105, 0, 0.16407140003549, 0
106, 0, 0.10809336099844, 0
107, 0, 0.052532429066814, 0
108, 0, -0.0027319632934102, 0
109, 0, -0.057356025905632, 0
110, 0, -0.11168040671963, 0
111, 0, -0.16685276800934, 0
112, 0, -0.2216314072471, 0
113, 0, -0.27427286861981, 0
114, 0, 0.24684194222496, 0
115, 0, 0.19214516565845, 0
116, 0, 0.13599763441253, 0
117, 0, 0.080189087584342, 0
118, 0, 0.024875770549286, 0
119, 0, -0.030339697136106, 0
120, 0, -0.084372354675157, 0
121, 0, -0.1389884587641, 0
122, 0, -0.19471707725459, 0
123, 0, -0.24854573723961, 0
124, 0.58979982295685, -0.12214684255231, 0
125, 0.56027943719686, -0.076961277748158, 0
126, 0.50933563045394, -0.055436236438093, 0
127, 0.4556378806357, -0.066148902778903, 0
128, 0.41755617502961, -0.1042427924986, 0
129, 0.4067561658899, -0.15683870349377, 0
130, 0.42606502855169, -0.20599163084209, 0
131, 0.46750383379297, -0.23636602356988, 0
132, 0.51770029616744, -0.24049884560766, 0
133, 0.56286653239866, -0.21793589076922, 0
134, 0.58998394621302, -0.17437645452008, 0
135, 0.57868233332405, -0.097866281084769, 0
136, 0.53654049485211, -0.062395972057639, 0
137, 0.48129066176537, -0.05685829434412, 0
138, 0.43375362995766, -0.082441853487044, 0
139, 0.40829883327707, -0.12977590940354, 0
140, 0.41303228026984, -0.18320885399422, 0
141, 0.44491044991793, -0.22426066829147, 0
142, 0.49253369827372, -0.24188929733391, 0
143, 0.5415836266004, -0.23244417664285, 0
144, 0.57938957991109, -0.19817629785803, 0
145, 0.15886369339923, -0.18501637331007, 0
146, 0.35716042933779, 0.072604559233066, 0
147, 0.29931004949135, 0.15483223444812, 0
148, 0.12180260211962, -0.18735418758679, 0
149, 0.60209409592704, -0.05589645658415, 0
150, 0.17690101166021, -0.11773486187878, 0
151, 0.41006466610464, -0.0776568143984, 0
152, 0.1833306568533, 0.056836808683362, 0
153, 0.143491793682, 0.13132664938843, 0
154, 0.94932125449084, -0.084568344281158, 0
155, 0.63985438640531, -0.14123666968454, 0
156, 0.67768231651211, -0.249982301172, 0
157, 0.61651888911322, -0.25061209506136, 0
158, 0.9490086346606, -0.13881191720417, 0
159, 0.73422912762128, -0.24878111002037, 0
160, 0.78898289487112, -0.24804326190397, 0
161, 0.84275761358973, -0.24746567167028, 0
162, 0.94846825134864, -0.19258206315172, 0
163, 0.89570772370723, -0.24673354333469, 0
164, 0.94795611394371, -0.24606979170618, 0
165, 0.10269066491953, -0.18863577764421, 0
166, 0.064902250340552, -0.22048113214029, 0
167, 0.50321889752803, -0.017148140110937, 0
168, 0.2253439175105, 0.18198856462545, 0
169, 0.068410591551928, 0.070739454258405, 0
170, 0.07141960097776, 0.17557096262414, 0
171, 0.24700019230741, -0.18739996259876, 0
172, 0.28698000629903, 0.25268345726903, 0
173, 0.20207327794827, 0.031084964710104, 0
174, 0.28043373338941, -0.27685469886947, 0
175, 0.1256569474281, -0.21864714712053, 0
176, 0.43445486899581, -0.034153759148945, 0
177, 0.12023085042448, 0.15476748722703, 0
178, 0.38937971187033, 0.24883153692512, 0
179, 0.37488727696289, 0.14822410120842, 0
180, 0.1697111190863, -0.026214153926795, 0
181, 0.33918532311798, 0.2513244806843, 0
182, 0.35747913869776, 0.20029334754084, 0
183, 0.022818946340228, 0.11459905003458, 0
184, 0.23746966133839, -0.085507797183625, 0
185, 0.58549807514991, 0.11446139962278, 0
186, 0.042902276360626, -0.074613238640378, 0
187, 0.32772242937198, -0.27799309690904, 0
188, 0.024061755597094, 0.2485992666384, 0
189, 0.6123654279882, 0.1116106264363, 0
190, 0.19087507752414, -0.024757468103482, 0
191, 0.075414815370026, 0.27561606976384, 0
192, 0.021600856389658, -0.19348690273102, 0
193, 0.35372896817826, -0.12303271518139, 0
194, 0.19529983636333, -0.11682721962779, 0
195, 0.23450135259729, -0.27612959381279, 0
196, 0.31677233935675, 0.27615926232741, 0
197, 0.55318849303193, 0.094569230390468, 0
198, 0.2332179728791, -0.024095540857416, 0
199, 0.4322795970367, -0.057269379483093, 0
200, 0.42937290034009, 0.16815685967331, 0
201, 0.56049015206834, 0.14002725038222, 0
202, 0.43201790362223, -0.24830230183959, 0
203, 0.11867431061299, 0.12951364508117, 0
204, 0.54004460455386, 0.053412407941383, 0
205, 0.095265658391808, 0.15264923617448, 0
206, 0.40744479142092, 0.19544442861445, 0
207, 0.14051608634692, -0.18611534250754, 0
208, 0.14502654885629, -0.21795948475061, 0
209, 0.04653040528801, 0.14630110346474, 0
210, 0.10014175424691, 0.25188755145382, 0
211, 0.19462004906797, -0.18380348251057, 0
212, 0.37189511373192, -0.17575224988061, 0
213, 0.561597957134, 0.18869675166331, 0
214, 0.17097936456715, 0.15729623678569, 0
215, 0.12482994012234, 0.2285222584583, 0
216, 0.50718508436758, 0.054820989246956, 0
217, 0.1768827572484, -0.18419113331438, 0
218, 0.19928179236026, 0.18205643169382, 0
219, 0.28380603882211, 0.22876708069394, 0
220, 0.0461538876978, 0.11976645166639, 0
221, 0.085610841660096, -0.21993421704599, 0
222, 0.53503647964648, 0.16464547403084, 0
223, 0.35386542204803, 0.17546833419488, 0
224, 0.5298593091491, -0.26994529660438, 0
225, 0.073206501218932, 0.22614366388678, 0
226, 0.12470688172885, -0.060757511348177, 0
227, 0.25580761418255, -0.22035009068636, 0
228, 0.51295572601579, 7.1797772573813e-06, 0
229, 0.52667598250245, 0.26837123548692, 0
230, 0.38846266824753, 0.095595363894045, 0
231, 0.022230504833583, 0.0047448122249345, 0
232, 0.23629278258561, 0.27678484443027, 0
233, 0.25576892380186, -0.088077852358153, 0
234, 0.35202851590424, -0.15913332149915, 0
235, 0.26622757867964, -0.12496845703138, 0
236, 0.062270277070868, -0.16104640857094, 0
237, 0.094141858077097, 0.12705142127903, 0
238, 0.80261253053506, 0.19008236159361, 0
239, 0.75503729964915, 0.19004920118291, 0
240, 0.75787396579144, 0.13183151612011, 0
241, 0.80494994663538, 0.13216475096804, 0
242, 0.85255099782279, 0.13308850849516, 0
243, 0.90083607580394, 0.13464334229289, 0
244, 0.94994378479868, 0.13731577448913, 0
245, 0.85068967155598, 0.19038427164746, 0
246, 0.89939828208303, 0.19101958267605, 0
247, 0.94901816239297, 0.19243579714338, 0
248, 0.94823835077378, 0.24659575788887, 0
249, 0.84728139222998, 0.24650483615751, 0
250, 0.89752793877753, 0.24643643427431, 0
251, 0.7972684872803, 0.24659315747917, 0
252, 0.74748355079103, 0.24680805513376, 0
253, 0.69807433365422, 0.24686283773657, 0
254, 0.6494113023067, 0.24617093174024, 0
255, 0.29042261324929, 0.10559294026549, 0
256, 0.30931909367125, 0.078380303426665, 0
257, 0.12174299164962, 0.17965489859755, 0
258, 0.12327050511219, 0.20422728799897, 0
259, 0.15318143128473, -0.24818146148527, 0
260, 0.24532530110169, -0.054616678236305, 0
261, 0.60120492877275, 0.040743830343814, 0
262, 0.28500028361182, 0.080619892257097, 0
263, 0.70781228035457, 0.19012315881793, 0
264, 0.66053090371746, 0.19000557377037, 0
265, 0.66351818336914, 0.13386777800088, 0
266, 0.71099258292518, 0.13227863288441, 0
267, 0.66076653677329, 0.07870629694444, 0
268, 0.70892038665635, 0.074763801379027, 0
269, 0.57243868510615, -0.035552226469786, 0
270, 0.21164272404619, -0.27591813135162, 0
271, 0.22954732123934, -0.18515220690729, 0
272, 0.26461081671841, -0.057102938629815, 0
273, 0.70253785822277, 0.018381844101995, 0
274, 0.65347685226425, 0.024817391802935, 0
275, 0.7516784748828, 0.016802785109179, 0
276, 0.85248979953541, 0.075774428623214, 0
277, 0.80427914830023, 0.07427771059865, 0
278, 0.75650382711618, 0.073719905479688, 0
279, 0.80108161899119, 0.017470960135867, 0
280, 0.85068740082117, 0.019290085082442, 0
281, 0.95043663959537, 0.081569782314157, 0
282, 0.90121114547396, 0.078083743880822, 0
283, 0.95028788471637, 0.025718758385895, 0
284, 0.90045169566784, 0.021969350547257, 0
285, 0.89762744224093, -0.087388978423251, 0
286, 0.89902677104039, -0.033245031888685, 0
287, 0.9497776322578, -0.029740504448289, 0
288, 0.84525622971705, -0.089481187747848, 0
289, 0.79227294430419, -0.090729933208084, 0
290, 0.73854183022795, -0.090637109367424, 0
291, 0.84789590115775, -0.035824557615206, 0
292, 0.79646146316239, -0.037563837583481, 0
293, 0.74474942811282, -0.038083573321669, 0
294, 0.4739916084153, -0.2848791564519, 0
295, 0.33978159650223, 0.10088699956449, 0
296, 0.69298210559834, -0.036140036546348, 0
297, 0.64216159501853, -0.027910908384631, 0
298, 0.68375639697046, -0.087964296688936, 0
299, 0.62784715403595, -0.079055819032145, 0
300, 0.68685953378771, -0.14247054046532, 0
301, 0.63168198250076, -0.20179379679297, 0
302, 0.6834943961301, -0.19864304100983, 0
303, 0.84381828298098, -0.14233319335481, 0
304, 0.8966959988688, -0.14073357091721, 0
305, 0.790716894272, -0.14330944410323, 0
306, 0.73795575551444, -0.14341404090838, 0
307, 0.73612781023105, -0.19698754218546, 0
308, 0.78946240588836, -0.19599114879652, 0
309, 0.89590604509504, -0.19372582032413, 0
310, 0.8428500940813, -0.19498110965253, 0
311, 0.27874770790034, 0.055272270258156, 0
312, 0.046945389451112, 0.17259093914363, 0
313, 0.43944281850776, -0.012593757990714, 0
314, 0.042057233379951, -0.13344425698446, 0
315, 0.17327289856595, 0.18169988268192, 0
316, 0.53898074491124, -0.021975775317523, 0
317, 0.56542619758356, -0.26543012728884, 0
318, 0.63867944691013, 0.16237597556273, 0
319, 0.18201990035203, 0.27674557943474, 0
320, 0.27465863921092, -0.027633588349648, 0
321, 0.63583873110062, 0.082596867272157, 0
322, 0.37865462801832, -0.27976455059611, 0
323, 0.63509180792421, -0.053794639617997, 0
324, 0.28333903832739, -0.19661828780408, 0
325, 0.5290315918547, 0.11831465934348, 0
326, 0.21214127931733, -0.18404599361538, 0
327, 0.088809184787173, 0.020049386991255, 0
328, 0.26273048966794, -0.15798552608235, 0
329, 0.20549728539086, -0.05358815332249, 0
330, 0.54812853093234, 0.2685814748838, 0
331, 0.41234348585524, -0.25489697633966, 0
332, 0.25380395269974, -0.24955856233776, 0
333, 0.22817252924561, 0.20597071903285, 0
334, 0.023698161244199, 0.22229961510451, 0
335, 0.23090832315419, 0.22975866583029, 0
336, 0.3179817253772, -0.25472109420395, 0
337, 0.29001240576849, -0.09972546782893, 0
338, 0.098814988795719, 0.2274926072353, 0
339, 0.46742226317201, -0.021595469921155, 0
340, 0.31769532228342, -0.23231615649191, 0
341, 0.022940911752919, 0.14177075313312, 0
342, 0.61222514040789, 0.18928615146839, 0
343, 0.27491464175544, -0.2231598462076, 0
344, 0.21915289204244, -0.21741739817341, 0
345, 0.17548617674864, 0.20581345248511, 0
346, 0.50759635553548, -0.26238355924236, 0
347, 0.82224918753966, 0.24652894054313, 0
348, 0.79359945628111, 0.27378728810951, 0
349, 0.8452586251184, 0.27368219929863, 0
350, 0.81943483704147, 0.2737177336279, 0
351, 0.23374532356605, -0.24871009737317, 0
352, 0.12759909140778, -0.030773937012018, 0
353, 0.57169913125924, 0.048324375311764, 0
354, 0.12226255693289, -0.091657819637831, 0
355, 0.22827479554543, -0.15120526573482, 0
356, 0.16512859244993, -0.056094567271742, 0
357, 0.97519508746328, 0.083999335709693, 0
358, 0.97517572345626, 0.028152384099161, 0
359, 0.95044192092046, 0.053622717265935, 0
360, 0.97524080572937, 0.05608648272572, 0
361, 0.7898704531293, -0.27394566244844, 0
362, 0.81597575890866, -0.24775538924103, 0
363, 0.84348791143541, -0.27371548742831, 0
364, 0.81676977036685, -0.27383136959419, 0
365, 0.60591361363614, 0.063360805386321, 0
366, 0.10445886355705, -0.063666383168904, 0
367, 0.15625759984262, 0.028501153373705, 0
368, 0.44267265912344, -0.2382223951978, 0
369, 0.97496210001395, -0.027511437746962, 0
370, 0.97481832782046, -0.082795324701993, 0
371, 0.94951450471141, -0.057237013015076, 0
372, 0.97485596073915, -0.055195933983867, 0
373, 0.64799836708179, -0.25067639904806, 0
374, 0.67965556111585, -0.27461923043627, 0
375, 0.62194078879433, -0.27422386855472, 0
376, 0.65103418515515, -0.27470955848623, 0
377, 0.74188511264533, 0.27398968784362, 0
378, 0.72271339705842, 0.24690129186118, 0
379, 0.69027837610386, 0.27406553082329, 0
380, 0.71602879603691, 0.27409128387643, 0
381, 0.10662975343399, -0.03375402685279, 0
382, 0.29525282629843, -0.22710080432178, 0
383, 0.58208126433004, 0.091273476902128, 0
384, 0.047500202440053, 0.19864599009205, 0
385, 0.26038897479289, 0.25310438333622, 0
386, 0.082018259987615, -0.15911509881078, 0
387, 0.49655701583505, 0.03526527719926, 0
388, 0.38251837389148, 0.19808786855707, 0
389, 0.61508247142716, 0.27293426817874, 0
390, 0.60968123725019, 0.087037046002838, 0
391, 0.1656044032196, -0.27578756371725, 0
392, 0.25137736368384, 0.18148967522203, 0
393, 0.95005084117392, -0.0020829162772205, 0
394, 0.97507607818205, 0.00027534875950941, 0
395, 0.80029811268568, 0.21861806270382, 0
396, 0.849133691527, 0.21867513279238, 0
397, 0.82658240198527, 0.19019528977494, 0
398, 0.82466399065628, 0.2186202152904, 0
399, 0.41765452950738, 0.27269524702853, 0
400, 0.6283168451724, 0.032312356934031, 0
401, 0.58185780571153, -0.019160217626455, 0
402, 0.047460742400367, -0.27510420492377, 0
403, 0.024513712564202, 0.27453019942627, 0
404, 0.55658087550418, -0.048753221560913, 0
405, 0.1639975764152, -0.21736826500614, 0
406, 0.97475143546189, -0.1378345494237, 0
407, 0.94917444697597, -0.11175194793718, 0
408, 0.97480083213909, -0.11034457897056, 0
409, 0.59190170440648, 0.2711297771771, 0
410, 0.044904081166556, 0.038561747564364, 0
411, 0.082838104960117, -0.097295884389749, 0
412, 0.73542569007774, -0.27424124452487, 0
413, 0.7617537227695, -0.24836499652995, 0
414, 0.76276988548485, -0.27406934474943, 0
415, 0.9743028454756, 0.19375388574416, 0
416, 0.94855433771397, 0.21963996332493, 0
417, 0.97394350420493, 0.24702417507162, 0
418, 0.97406239301828, 0.22050087921421, 0
419, 0.8723667653359, 0.24649154538531, 0
420, 0.89684011219816, 0.27351892062246, 0
421, 0.87106801498765, 0.27364743305118, 0
422, 0.97444137647859, -0.19246456347702, 0
423, 0.94880008071231, -0.1657509433999, 0
424, 0.97467489687398, -0.16523084350335, 0
425, 0.86933253636061, -0.24714043079404, 0
426, 0.89632115382868, -0.27334932610394, 0
427, 0.8700153844636, -0.27357890835677, 0
428, 0.066582398124733, 0.015892887676887, 0
429, 0.31654012291078, -0.15670759591672, 0
430, 0.18533179729554, -0.054503302631279, 0
431, 0.62555891664358, 0.24525119736877, 0
432, 0.70628513453295, -0.24931592418523, 0
433, 0.70775155038562, -0.27443610549539, 0
434, 0.77234375173934, 0.24668786615215, 0
435, 0.76774831076551, 0.2738746227665, 0
436, 0.18871180906982, -0.27581786455684, 0
437, 0.1473992194392, 0.18090639325046, 0
438, 0.24553644125257, -0.15367629715134, 0
439, 0.13957996702564, -0.12112718937692, 0
440, 0.32659702866893, -0.21389529497848, 0
441, 0.14134323744075, 0.10592782252417, 0
442, 0.094994030338289, -0.27555659172822, 0
443, 0.57744219743637, 0.069166095049339, 0
444, 0.30552724421532, -0.11002934298537, 0
445, 0.14549179279289, 0.15629788147362, 0
446, 0.36459090510239, 0.25029749266726, 0
447, 0.082033894352461, -0.12812506666525, 0
448, 0.56186321332506, 0.16400494530663, 0
449, 0.39584212269723, -0.19136334151541, 0
450, 0.63806770254938, 0.10869389225634, 0
451, 0.32857873078168, 0.1775360006421, 0
452, 0.067528021342369, 0.043558149849875, 0
453, 0.15832714939978, -0.11922902438304, 0
454, 0.097570113955919, 0.20283352648044, 0
455, 0.94820802352665, -0.27292430514727, 0
456, 0.97396242347933, -0.24625662404525, 0
457, 0.9739416977157, -0.2729581671453, 0
458, 0.95028472470664, 0.10949236258702, 0
459, 0.97484370159186, 0.13940348415335, 0
460, 0.97508576572896, 0.11180129317664, 0
461, 0.23734797822472, -0.21849206250193, 0
462, 0.38901808215558, -0.23730264947248, 0
463, 0.63958099173868, 0.27358612689087, 0
464, 0.67360858768841, 0.24667818283487, 0
465, 0.66472503117433, 0.27396448467861, 0
466, 0.94949267243417, 0.16498261729717, 0
467, 0.97455705768576, 0.16671981025771, 0
468, 0.92190173313351, -0.24633463297206, 0
469, 0.92237223398026, -0.27311405937571, 0
470, 0.10147571681328, -0.12564649551635, 0
471, 0.022837934919922, -0.24866102854141, 0
472, 0.25744586983406, 0.22939050591283, 0
473, 0.94822744007571, 0.27335287401665, 0
474, 0.97397539491614, 0.27342995522552, 0
475, 0.12644582988481, 0.25256613790456, 0
476, 0.53562602416782, 0.18890608433868, 0
477, 0.9244588491862, -0.031628685276794, 0
478, 0.92357357226055, -0.086076914115146, 0
479, 0.89828113072175, -0.060446246154407, 0
480, 0.92397981866504, -0.058962227855052, 0
481, 0.2901932441089, 0.27644072986887, 0
482, 0.50955568156991, 0.21432415179721, 0
483, 0.84934976750994, -0.0084575848302462, 0
484, 0.8222155196322, -0.036809727165341, 0
485, 0.79885167412424, -0.010293868788445, 0
486, 0.82586187947701, 0.018268770642624, 0
487, 0.8241060477029, -0.0094895481842505, 0
488, 0.045371400055667, 0.065925024545206, 0
489, 0.27425963608012, -0.25080284115901, 0
490, 0.15498672095195, 0.27659969813853, 0
491, 0.22519950728589, 0.03134452626483, 0
492, 0.440305424642, 0.27056361165051, 0
493, 0.75187142033012, 0.21873305401402, 0
494, 0.73139787644323, 0.19009362186593, 0
495, 0.70385970982889, 0.21876170176801, 0
496, 0.72781408994994, 0.21879381159996, 0
497, 0.35253031885783, -0.27878281310312, 0
498, 0.11702206725123, 0.10383474979788, 0
499, 0.58423403278044, 0.21477199164791, 0
500, 0.298226861006, -0.1741034862571, 0
501, 0.29514698998583, 0.13030224830012, 0
502, 0.21911214193113, 0.13331588057906, 0
503, 0.3452134045864, 0.12587328772132, 0
504, 0.58721519943255, 0.18877442511354, 0
505, 0.072274380903126, 0.20099325595755, 0
506, 0.8997797883987, -0.0057698092711583, 0
507, 0.87350146972327, -0.034636129479599, 0
508, 0.8755532029403, 0.020518897488022, 0
509, 0.87457707699527, -0.0072200532518258, 0
510, 0.21154099900525, 0.083296676227972, 0
511, 0.4924265957272, -0.035498684058999, 0
512, 0.92279923769865, 0.24644110533185, 0
513, 0.92254297485888, 0.27340518585467, 0
514, 0.92537006820491, 0.02368211577591, 0
515, 0.92494431550065, -0.0040750386181492, 0
516, 0.10158710348428, 0.27603837686958, 0
517, 0.3858389947149, 0.22330501646536, 0
518, 0.11326510787725, 0.05090770230884, 0
519, 0.52353734478604, 0.096301676153966, 0
520, 0.78897874899951, -0.2221101256881, 0
521, 0.81618144748407, -0.1955103675134, 0
522, 0.84261267655958, -0.22123704345968, 0
523, 0.81586560784742, -0.22167902282115, 0
524, 0.84329116500276, -0.16867884906056, 0
525, 0.79010607232798, -0.16968925082751, 0
526, 0.81727174745316, -0.14291404773099, 0
527, 0.81669677774539, -0.16924052607411, 0
528, 0.75701814246566, 0.16101074349593, 0
529, 0.73444371051384, 0.1319398468152, 0
530, 0.71013005207996, 0.16122756534993, 0
531, 0.73357011974065, 0.16107119046295, 0
532, 0.20096694194688, -0.21696641102508, 0
533, 0.11872584803676, -0.27575812768499, 0
534, 0.75767541052029, 0.1026865564451, 0
535, 0.73271672588991, 0.073976348606315, 0
536, 0.7105488907144, 0.10342183195103, 0
537, 0.73412554967465, 0.10286472414649, 0
538, 0.86943082913391, -0.19438567025512, 0
539, 0.8956554089849, -0.22020379817156, 0
540, 0.86920837924474, -0.22075184987053, 0
541, 0.33339046502421, 0.075617545911464, 0
542, 0.15114428491136, 0.22923564024728, 0
543, 0.40692089805111, -0.052318300667294, 0
544, 0.16854186107687, 0.13254977342845, 0
545, 0.36859573274057, -0.14276046633139, 0
546, 0.94814747669195, -0.21933297891387, 0
547, 0.97419537097452, -0.21946126241005, 0
548, 0.7348282530919, -0.22316146919157, 0
549, 0.68000055065874, -0.22501336395974, 0
550, 0.70968443243856, -0.19766666737204, 0
551, 0.70754185058058, -0.22394033925578, 0
552, 0.13641839929137, 0.053512581533888, 0
553, 0.26053134179357, 0.082205454703773, 0
554, 0.32947385913197, -0.044456869874349, 0
555, 0.56499918372262, 0.028869496859947, 0
556, 0.87151666272218, -0.088526001241152, 0
557, 0.84647882004844, -0.062815733479267, 0
558, 0.87244311707617, -0.061727286294873, 0
559, 0.36095017940471, 0.22523751385431, 0
560, 0.021764097106142, -0.079196133209556, 0
561, 0.35987017822394, 0.015428228230043, 0
562, 0.14861830511571, -0.028247115282648, 0
563, 0.064641025603598, -0.041133762574436, 0
564, 0.41331862623109, -0.21675552885916, 0
565, 0.085665408070054, -0.037190193352331, 0
566, 0.76275121913386, -0.19646045260521, 0
567, 0.76196480722989, -0.22257801162936, 0
568, 0.46046077376234, -0.042465769728709, 0
569, 0.31282470102552, -0.037059236622844, 0
570, 0.19383385599497, -0.24798852155792, 0
571, 0.92295206882108, -0.13979000962075, 0
572, 0.89712801261505, -0.11412789651605, 0
573, 0.92325476077439, -0.11300378003602, 0
574, 0.60412934979948, -0.088788026096769, 0
575, 0.091697634152165, 0.074599622460795, 0
576, 0.25415950625893, -0.025236819986004, 0
577, 0.20706323121048, 0.057539010646761, 0
578, 0.549007737813, -0.006054383150856, 0
579, 0.14175816405346, -0.089227988859901, 0
580, 0.022705223026352, 0.08732304914032, 0
581, 0.43505313453965, 0.21797989841721, 0
582, 0.53284139894405, 0.14111426538394, 0
583, 0.14492084010839, -0.058213739323802, 0
584, 0.24904542014492, -0.12037372007722, 0
585, 0.02308299555819, 0.16882049495751, 0
586, 0.27376620134442, 0.15629370009607, 0
587, 0.18718116418403, 0.082835948758245, 0
588, 0.63659678455009, 0.18979133809681, 0
589, 0.30381494269001, -0.27737477096091, 0
590, 0.35878622257137, -0.19130576572461, 0
591, 0.29436861899417, -0.031505552058888, 0
592, 0.28010231978061, -0.16463775326773, 0
593, 0.021352523571097, -0.13625554813345, 0
594, 0.21871361358787, -0.084458446424173, 0
595, 0.4043059106724, 0.067962380732616, 0
596, 0.61381722434841, 0.13692699721421, 0
597, 0.33563249604013, 0.22672665573521, 0
598, 0.15977511971923, 0.055486397488094, 0
599, 0.92576595637747, 0.079637579325252, 0
600, 0.90095687645226, 0.049937651135379, 0
601, 0.92566977423316, 0.051603905636559, 0
602, 0.77876861518584, 0.19003644356771, 0
603, 0.77603383141126, 0.2186594582947, 0
604, 0.11114013761095, 0.023485190030044, 0
605, 0.19662354940585, 0.15778812135935, 0
606, 0.17537387207043, -0.15080453062655, 0
607, 0.022002778571773, -0.051014420801562, 0
608, 0.36871217712575, 0.27532575987707, 0
609, 0.41354753407914, 0.24635975346707, 0
610, 0.61385567300487, 0.16285396312747, 0
611, 0.36369348128977, -0.085235133018244, 0
612, 0.61749029096667, -0.14495654859028, 0
613, 0.63584775505245, -0.10946048741373, 0
614, 0.61347352529586, -0.1153878238346, 0
615, 0.25738710421316, -0.27644189361599, 0
616, 0.38520104042811, -0.20606939270309, 0
617, 0.13893971363902, -0.15359258538681, 0
618, 0.80416708966514, 0.16120018416467, 0
619, 0.78136007585039, 0.13191633678522, 0
620, 0.78053754451126, 0.16105326156899, 0
621, 0.27730503357627, 0.18057302618172, 0
622, 0.20671967567008, 0.25341918780684, 0
623, 0.13899625305834, 0.080021654459734, 0
624, 0.23092902279898, 0.057545533098151, 0
625, 0.34351679343928, -0.23886475887563, 0
626, 0.19967657495605, -0.084564130432056, 0
627, 0.4865856007969, -0.27414133937412, 0
628, 0.042048715504185, -0.16300778211362, 0
629, 0.063130187121752, -0.19110021782185, 0
630, 0.30351250585668, -0.20420361461605, 0
631, 0.63907919623846, 0.1353148822677, 0
632, 0.10134602871854, -0.15721595096207, 0
633, 0.074231491039785, 0.25101718700954, 0
634, 0.37169542456258, -0.21693142240461, 0
635, 0.36416497631618, 0.09814436630149, 0
636, 0.57875710488999, 0.2414237558774, 0
637, 0.71883740519844, -0.037558296103717, 0
638, 0.74128785635407, -0.064614883841968, 0
639, 0.71130621802418, -0.089753176785306, 0
640, 0.68787078152761, -0.062402983925375, 0
641, 0.71462569272616, -0.063951680601532, 0
642, 0.55948635793442, 0.21413134149185, 0
643, 0.41986521544427, 0.11887480450389, 0
644, 0.24838940664968, 0.03080708188868, 0
645, 0.63242795640247, 0.21746179384882, 0
646, 0.92527933137068, 0.13578518856182, 0
647, 0.90021893502868, 0.16290091126499, 0
648, 0.92407133281991, 0.19157447274144, 0
649, 0.92472748241935, 0.16376234382732, 0
650, 0.29547235177349, -0.25249303901943, 0
651, 0.37001619365036, 0.12329342407515, 0
652, 0.12814814093046, 0.27638415526887, 0
653, 0.68421940250167, 0.19011598297908, 0
654, 0.65620649280913, 0.21818746414153, 0
655, 0.67999493367476, 0.21860154774092, 0
656, 0.16298777371915, 0.081740912381221, 0
657, 0.13361426775023, 0.02628969168469, 0
658, 0.29947104202599, -0.14263987427629, 0
659, 0.25446587003957, 0.20551888033878, 0
660, 0.4325289938462, 0.19288610351389, 0
661, 0.30305546857167, 0.17924805376096, 0
662, 0.58202310677567, -0.24691805578333, 0
663, 0.5930510257962, -0.27205288694031, 0
664, 0.31698041570451, 0.023755148839263, 0
665, 0.26477282912645, -0.19110844825748, 0
666, 0.16589702536301, 0.10739324220073, 0
667, 0.20181612163309, 0.20606433945193, 0
668, 0.50955322337484, 0.18935187219484, 0
669, 0.021540841596223, -0.107623138501, 0
670, 0.24809086972994, 0.15728369871065, 0
671, 0.02211401553016, -0.22146458456622, 0
672, 0.063641096979401, -0.070551078506303, 0
673, 0.44171736175264, -0.27058004704925, 0
674, 0.048831785541996, 0.24995136057157, 0
675, 0.39481033539611, 0.12080791356879, 0
676, 0.089567609945494, -0.24869272287638, 0
677, 0.87678482302676, 0.07681680303869, 0
678, 0.85177252728949, 0.047386857938192, 0
679, 0.87632148466695, 0.048548931558306, 0
680, 0.55517579035029, 0.24053399975532, 0
681, 0.042399770027428, -0.10390498526078, 0
682, 0.11522866214501, 0.07766013862105, 0
683, 0.13235347534706, -0.24841202508426, 0
684, 0.043465825583047, -0.045686771724222, 0
685, 0.56988811951698, 0.26917699395447, 0
686, 0.23601479338044, 0.083095170878598, 0
687, 0.11115471469468, -0.24862815087762, 0
688, 0.9011804923095, 0.10634381125166, 0
689, 0.92564566503419, 0.10772123297874, 0
690, 0.8283233263682, 0.074927939072665, 0
691, 0.80294420311418, 0.045686993373398, 0
692, 0.82731337490673, 0.046429994341254, 0
693, 0.65587130000021, -0.084751135696559, 0
694, 0.66734612623501, -0.03327449294952, 0
695, 0.66119819533668, -0.059417383752088, 0
696, 0.68740587091705, 0.13290405592549, 0
697, 0.66285381052392, 0.16185289169608, 0
698, 0.6866030387077, 0.16149082456705, 0
699, 0.40700449444021, -0.28113884343854, 0
700, 0.023717225988734, -0.27484842639374, 0
701, 0.50531497798931, 0.26858095459659, 0
702, 0.5081358645959, 0.24049296680204, 0
703, 0.28296343686727, -0.13217863414704, 0
704, 0.17766123268347, 0.2296752989886, 0
705, 0.20428150500192, 0.22984525880766, 0
706, 0.58758950216426, 0.13853980025999, 0
707, 0.63826913982728, -0.17258386947059, 0
708, 0.60533512419063, -0.20285609023338, 0
709, 0.61466696799013, -0.17489020982512, 0
710, 0.090307256541057, 0.047622140803708, 0
711, 0.06920861694288, 0.097487131832329, 0
712, 0.23360538445283, 0.25336374454844, 0
713, 0.37034584264276, -0.26121714041919, 0
714, 0.08314358324821, -0.18987977522981, 0
715, 0.24051155775043, 0.10816044054851, 0
716, 0.41043683717857, 0.22066727141079, 0
717, 0.64831755258163, -0.001681344007576, 0
718, 0.67805015929924, 0.020740722546977, 0
719, 0.69804319496585, -0.0091684444550467, 0
720, 0.67310051393593, -0.0064968502598204, 0
721, 0.15304077965185, 0.25302507820662, 0
722, 0.33884384031902, 0.019732735867192, 0
723, 0.2715310335892, 0.029387709653955, 0
724, 0.38015731238088, 0.01186886162807, 0
725, 0.68500206676717, 0.0762678546159, 0
726, 0.66276579576461, 0.10613539847142, 0
727, 0.68682415566902, 0.10447124565043, 0
728, 0.045778995910432, 0.092982282352579, 0
729, 0.045384730660229, -0.24870717110735, 0
730, 0.26987255478111, 0.13185015452848, 0
731, 0.5316353496618, 0.24025135211668, 0
732, 0.042624974095574, -0.19230525981634, 0
733, 0.14927340833095, 0.2052056231038, 0
734, 0.34984811883109, 0.15069521114123, 0
735, 0.29446422514432, 0.02703078777395, 0
736, 0.10263954069813, -0.094359777846545, 0
737, 0.52541276962528, -0.037646684263489, 0
738, 0.26550036281127, 0.10718212027778, 0
739, 0.062252743728283, -0.13072446708188, 0
740, 0.63254498427675, 0.05710859510498, 0
741, 0.38753347399301, -0.13298836788104, 0
742, 0.89845122082235, 0.21889879830992, 0
743, 0.92337727567208, 0.21915174090411, 0
744, 0.87659916270265, 0.13377192042562, 0
745, 0.85276521197366, 0.10437390378569, 0
746, 0.87688933368586, 0.1052525912804, 0
747, 0.21381946738377, -0.24820437091566, 0
748, 0.30989609271656, 0.22788337836647, 0
749, 0.62325117176592, 0.0082959518936695, 0
750, 0.32931564944641, -0.089188748648629, 0
751, 0.62293262005448, -0.22769201865592, 0
752, 0.59230221427473, -0.22697879602753, 0
753, 0.40708718240013, -0.028648577725145, 0
754, 0.14227074451113, -0.27577459538804, 0
755, 0.32026901977492, 0.12827302409373, 0
756, 0.19064410908997, 0.10825558055488, 0
757, 0.47561222852856, -0.0023203176213738, 0
758, 0.070670658766553, 0.1498671659115, 0
759, 0.37374797072526, -0.10838674599889, 0
760, 0.34378942474352, -0.053790322106338, 0
761, 0.12064110410295, -0.12329589266803, 0
762, 0.51233107955699, -0.2855107061272, 0
763, 0.3877576866776, -0.16331506696169, 0
764, 0.55758472078963, 0.1168373299866, 0
765, 0.3132785952901, 0.25209383120662, 0
766, 0.87495116396738, 0.19065351497662, 0
767, 0.87371844754134, 0.21877175797967, 0
768, 0.92226236138656, -0.19308073103684, 0
769, 0.92196505030368, -0.21968085698003, 0
770, 0.28061322173606, 0.20472616661311, 0
771, 0.39354606923591, 0.040862954826213, 0
772, 0.41297476726506, 0.093799397163728, 0
773, 0.02129763057991, -0.16497526018078, 0
774, 0.084127206849859, -0.066922225716448, 0
775, 0.096386493340111, 0.17789503297262, 0
776, 0.54732027947625, 0.073383001333017, 0
777, 0.70621336847571, 0.046390191988736, 0
778, 0.65764191723141, 0.051602636617584, 0
779, 0.68204793562901, 0.048344626685492, 0
780, 0.069948691632598, 0.12384929630587, 0
781, 0.38069296994951, 0.06980966807079, 0
782, 0.043737885582731, -0.22100006985966, 0
783, 0.61044665032925, -0.036535045111943, 0
784, 0.85184797040486, 0.16180400066799, 0
785, 0.87593545789291, 0.16227755031098, 0
786, 0.20914996265845, 0.27679790763802, 0
787, 0.092966731318713, 0.10105408905702, 0
788, 0.28306886080542, -0.061359098077831, 0
789, 0.34298069699311, 0.27580648858424, 0
790, 0.32467389404073, 0.15294089319858, 0
791, 0.30246841845123, 0.052955710641112, 0
792, 0.40751563390393, -0.23077093770059, 0
793, 0.17983223252497, 0.25331194740455, 0
794, 0.27337215853444, -0.092627193121, 0
795, 0.33216499913526, 0.20212140926891, 0
796, 0.60213870400759, 0.24339977128847, 0
797, 0.43741259065333, 0.24371248933143, 0
798, 0.044409391669539, 0.010865541827989, 0
799, 0.87030497088585, -0.14159667881856, 0
800, 0.89629269589673, -0.16725133483944, 0
801, 0.86983434995587, -0.16800969769465, 0
802, 0.82867351222087, 0.13255680191385, 0
803, 0.82793127144886, 0.16144880285384, 0
804, 0.59567558640861, 0.019335964932859, 0
805, 0.53454258485202, 0.21400341009274, 0
806, 0.17365462017391, -0.24800952969902, 0
807, 0.022576917868989, 0.059942194506413, 0
808, 0.26334040062754, 0.27664492880474, 0
809, 0.30653389816508, 0.20359352727162, 0
810, 0.42524478297423, 0.14356521769203, 0
811, 0.84444138271861, -0.11594515029927, 0
812, 0.87084675687042, -0.11511724712298, 0
813, 0.79134717596877, -0.11697639516865, 0
814, 0.81884567738782, -0.090231043633831, 0
815, 0.81793319112007, -0.1165801292346, 0
816, 0.15728677956826, -0.15203049270256, 0
817, 0.71207201669947, -0.14306774101707, 0
818, 0.73732705005158, -0.1702964937788, 0
819, 0.68619465281315, -0.17088523478279, 0
820, 0.71144969588077, -0.17054032537106, 0
821, 0.31576548563491, -0.076936451559057, 0
822, 0.3425449825008, -0.25757598540876, 0
823, 0.92263365369169, -0.16646801175899, 0
824, 0.1203046842144, -0.15535287872461, 0
825, 0.30027160080549, -0.067807788650314, 0
826, 0.76423535759119, -0.14348663354521, 0
827, 0.76360598575751, -0.17003167380991, 0
828, 0.2255438798532, -0.053544283408443, 0
829, 0.16115805398205, -0.087146716317973, 0
830, 0.34881897800077, 0.046512600598838, 0
831, 0.37897392845509, 0.17310417728859, 0
832, 0.79416860065611, -0.064347185912514, 0
833, 0.82038966468104, -0.063700845731622, 0
834, 0.2120725920571, -0.023998745657042, 0
835, 0.062788709578757, -0.10047027164405, 0
836, 0.31520129449047, 0.10345053471644, 0
837, 0.39993651488235, 0.14570658767519, 0
838, 0.21349762010861, -0.11674502038597, 0
839, 0.7270721622264, 0.017195794142811, 0
840, 0.7544603828556, 0.045055024177812, 0
841, 0.73032298452117, 0.045385419373966, 0
842, 0.65754868581307, -0.2000717037232, 0
843, 0.66267320032299, -0.14175878596098, 0
844, 0.66177487459183, -0.17153080198632, 0
845, 0.071232682593162, -0.27533104746986, 0
846, 0.067634129533846, -0.24870866269248, 0
847, 0.68553834853592, -0.11450172557569, 0
848, 0.66006202159381, -0.11228916035281, 0
849, 0.80497367404649, 0.10314348653033, 0
850, 0.82879752848649, 0.10367327430359, 0
851, 0.73812572820227, -0.11676930129062, 0
852, 0.71166860289643, -0.11595922611924, 0
853, 0.0481273445241, 0.22444310945096, 0
854, 0.21084937237865, -0.1501322348223, 0
855, 0.58333367840041, -0.067090501144268, 0
856, 0.65195276872522, -0.22641606379751, 0
857, 0.19322227554338, -0.15009543606773, 0
858, 0.45870673707335, -0.26222308263914, 0
859, 0.58822736314123, 0.16334846045807, 0
860, 0.32587005783286, 0.049949336658054, 0
861, 0.78034600504156, 0.07385386482099, 0
862, 0.78127578115494, 0.10280087777473, 0
863, 0.54621291878908, -0.28040635718018, 0
864, 0.022406679343574, 0.032420897163142, 0
865, 0.21553578012022, 0.10851594784588, 0
866, 0.24450380764353, 0.13286107594087, 0
867, 0.74834910481111, -0.010936547092914, 0
868, 0.72314766295659, -0.010487026132246, 0
869, 0.77635147209294, 0.016949149974848, 0
870, 0.77866220816946, 0.045200658866469, 0
871, 0.40406033005539, 0.17051859231904, 0
872, 0.023371556159507, 0.19569803815662, 0
873, 0.76551586627377, -0.090903370441445, 0
874, 0.76472249250009, -0.11706895181869, 0
875, 0.7706357260232, -0.038024712009077, 0
876, 0.77359421270561, -0.010812009977574, 0
877, 0.76780432051351, -0.064688109599581, 0
878, 0.47756057136814, -0.25290816327396, 0
879, 0.1804711875128, -0.085535318375404, 0
880, 0.31826740776973, -0.18653676266774, 0
881, 0.60853258528885, 0.21614650483308, 0
882, 0.53156501718303, 0.034684083278243, 0
883, 0.22235229164221, 0.15778521109909, 0
884, 0.23143984253137, -0.11779654850803, 0
885, 0.25485760871656, 0.056803556573525, 0
886, 0.049690332550964, 0.27513809746615, 0
887, 0.32019034007057, -0.12401810457993, 0
888, 0.17908053743608, 0.030113697434906, 0
889, 0.10586108523236, -0.21933917201298, 0
890, 0.39376403203664, 0.27459257551828, 0
891, 0.18261919255205, -0.21699348590941, 0
892, 0.37128584097911, 0.043171173857262, 0
893, 0.19376895966847, 0.13321012799907, 0
894, 0.51626294130012, 0.075134731075912, 0
895, 0.50809275958918, 0.16520736154067, 0
896, 0.50509957305461, 0.14170853337513, 0
897, 0.5004471901395, 0.11876468968879, 0
898, 0.49395345203891, 0.096308979057515, 0
899, 0.48539671312258, 0.074236128764438, 0
900, 0.47461232789163, 0.052347295615146, 0
901, 0.46175564666967, 0.030371515708378, 0
902, 0.48391437171602, 0.26896683344397, 0
903, 0.48466010504102, 0.24108384718754, 0
904, 0.48462897358198, 0.21500258903252, 0
905, 0.48359846098984, 0.19002232127964, 0
906, 0.48136550429871, 0.16575250249477, 0
907, 0.47772948187444, 0.14195411741886, 0
908, 0.47246731312341, 0.11844360622563, 0
909, 0.46531014747213, 0.095016649596364, 0
910, 0.45592967575458, 0.071368626545865, 0
911, 0.4439647824773, 0.047014066665442, 0
912, 0.42912752295785, 0.021297011924583, 0
913, 0.022122801954323, -0.023063779335448, 0
914, 0.043948038318317, -0.017198138994494, 0
915, 0.065623114974252, -0.012317470115718, 0
916, 0.087249702450354, -0.0081990572199969, 0
917, 0.10890167398321, -0.0047080198165545, 0
918, 0.13063392478845, -0.0017706955135189, 0
919, 0.15248429605102, 0.00063531882610048, 0
920, 0.17447185982822, 0.0024877310236592, 0
921, 0.19659192532326, 0.0037249966873888, 0
922, 0.21880843058717, 0.004251976802268, 0
923, 0.24104311676286, 0.0039487020321829, 0
924, 0.26316163186085, 0.0026811688794347, 0
925, 0.28495789957164, 0.00032206449353952, 0
926, 0.30613988859593, -0.003216582399253, 0
927, 0.32632870706642, -0.0079256478601453, 0
928, 0.34509988021771, -0.013597286791582, 0
929, 0.3621396935388, -0.019616618685845, 0
930, 0.43849566459058, -0.28291608117888, 0
931, 0.40286334602744, -0.26565862902736, 0
932, 0.37439093440091, -0.24656595588029, 0
933, 0.35439724037641, -0.22524732733805, 0
934, 0.34207543591376, -0.2013248450082, 0
935, 0.33575943504195, -0.1736981718753, 0
936, 0.33513226501699, -0.14108100054291, 0
937, 0.34144234575446, -0.10444079363845, 0
938, 0.35538328650701, -0.065320753457115, 0
939, 0.39481540764491, -0.10246856591711, 0
940, 0.38627065937195, -0.074898763163932, 0
941, 0.3811707664402, -0.04821165792838, 0
942, 0.46231693558474, 0.26960352832888, 0
943, 0.46112443665917, 0.24209200852161, 0
944, 0.45979864564979, 0.21613604529659, 0
945, 0.45790844084348, 0.19107345939735, 0
946, 0.45510029083381, 0.16653201721842, 0
947, 0.45107780956194, 0.14224502340383, 0
948, 0.44555882879456, 0.11795759882949, 0
949, 0.43823533908782, 0.093349957272932, 0
950, 0.42873180853286, 0.067944100572577, 0
951, 0.41653511698631, 0.040964231140509, 0
952, 0.40066687989346, 0.011079574158266, 0
953, 0.61734196469242, -0.01478050476572, 0
954, 0.58930484326893, -0.00069805814138673, 0
955, 0.55740624845746, 0.010821128022049, 0
956, 0.52218385866351, 0.017061029105398, 0
957, 0.48498151687611, 0.016299640202174, 0
958, 0.44746010761508, 0.0081965457897887, 0
959, 0.4110536539149, -0.0062980360740511, 0
960, 0.37769936917918, -0.024421066549789, 0
******* E L E M E N T S *************
*ELEMENT, type=CPS4, ELSET=Surface1
1, 706, 596, 610, 859
2, 705, 622, 793, 704
3, 922, 491, 173, 921
4, 545, 212, 449, 763
5, 621, 770, 659, 392
6, 780, 758, 209, 220
7, 645, 654, 254, 431
8, 863, 27, 3, 317
9, 249, 349, 350, 347
10, 347, 350, 348, 251
11, 350, 69, 77, 348
12, 349, 76, 69, 350
13, 544, 214, 445, 153
14, 927, 926, 591, 569
15, 193, 234, 212, 545
16, 829, 579, 439, 453
17, 830, 146, 541, 860
18, 553, 738, 715, 686
19, 475, 652, 516, 210
20, 955, 578, 401, 954
21, 281, 359, 360, 357
22, 357, 360, 51, 62
23, 360, 358, 61, 51
24, 359, 283, 358, 360
25, 41, 34, 364, 361
26, 361, 364, 362, 160
27, 364, 363, 161, 362
28, 34, 42, 363, 364
29, 313, 176, 339, 757
30, 747, 570, 270, 195
31, 673, 294, 762, 627
32, 194, 150, 606, 857
33, 287, 371, 372, 369
34, 369, 372, 49, 60
35, 372, 370, 59, 49
36, 371, 154, 370, 372
37, 157, 375, 376, 373
38, 373, 376, 374, 156
39, 376, 31, 39, 374
40, 375, 38, 31, 376
41, 79, 379, 380, 71
42, 71, 380, 377, 78
43, 380, 378, 252, 377
44, 379, 253, 378, 380
45, 223, 182, 795, 451
46, 683, 687, 533, 754
47, 944, 943, 797, 581
48, 871, 206, 388, 831
49, 497, 187, 24, 17
50, 195, 270, 14, 22
51, 676, 846, 845, 442
52, 615, 195, 22, 15
53, 704, 793, 721, 542
54, 453, 439, 617, 816
55, 259, 683, 754, 391
56, 165, 714, 221, 889
57, 61, 358, 394, 50
58, 50, 394, 369, 60
59, 394, 393, 287, 369
60, 358, 283, 393, 394
61, 238, 397, 398, 395
62, 395, 398, 347, 251
63, 398, 396, 249, 347
64, 397, 245, 396, 398
65, 212, 616, 564, 449
66, 356, 583, 579, 829
67, 186, 560, 669, 681
68, 943, 942, 492, 797
69, 626, 879, 150, 194
70, 327, 710, 452, 428
71, 866, 670, 883, 502
72, 170, 505, 384, 312
73, 154, 407, 408, 370
74, 370, 408, 48, 59
75, 408, 406, 58, 48
76, 407, 158, 406, 408
77, 790, 451, 661, 147
78, 919, 367, 657, 918
79, 854, 857, 211, 326
80, 920, 919, 562, 180
81, 40, 33, 414, 412
82, 412, 414, 413, 159
83, 414, 361, 160, 413
84, 33, 41, 361, 414
85, 64, 54, 418, 415
86, 415, 418, 416, 247
87, 418, 417, 248, 416
88, 54, 65, 417, 418
89, 250, 420, 421, 419
90, 419, 421, 349, 249
91, 421, 68, 76, 349
92, 420, 75, 68, 421
93, 58, 406, 424, 47
94, 47, 424, 422, 57
95, 424, 423, 162, 422
96, 406, 158, 423, 424
97, 42, 35, 427, 363
98, 363, 427, 425, 161
99, 427, 426, 163, 425
100, 35, 43, 426, 427
101, 382, 343, 650, 336
102, 472, 385, 712, 335
103, 703, 235, 328, 592
104, 583, 226, 354, 579
105, 159, 432, 433, 412
106, 412, 433, 32, 40
107, 433, 374, 39, 32
108, 432, 156, 374, 433
109, 78, 377, 435, 70
110, 70, 435, 348, 77
111, 435, 434, 251, 348
112, 377, 252, 434, 435
113, 685, 409, 6, 81
114, 926, 925, 320, 591
115, 878, 346, 132, 142
116, 939, 139, 128, 151
117, 262, 255, 738, 553
118, 191, 94, 102, 886
119, 431, 254, 463, 389
120, 816, 617, 207, 145
121, 561, 892, 830, 722
122, 151, 128, 138, 199
123, 441, 153, 203, 498
124, 586, 621, 392, 670
125, 773, 111, 122, 192
126, 501, 147, 586, 730
127, 490, 100, 93, 652
128, 294, 26, 29, 762
129, 400, 274, 778, 740
130, 445, 437, 257, 177
131, 518, 682, 575, 710
132, 385, 808, 232, 712
133, 659, 472, 335, 333
134, 954, 953, 749, 804
135, 715, 866, 502, 865
136, 846, 729, 402, 845
137, 517, 178, 446, 559
138, 605, 218, 315, 214
139, 592, 328, 665, 324
140, 734, 223, 451, 790
141, 44, 37, 457, 455
142, 455, 457, 456, 164
143, 457, 45, 56, 456
144, 37, 4, 45, 457
145, 62, 52, 460, 357
146, 357, 460, 458, 281
147, 460, 459, 244, 458
148, 52, 63, 459, 460
149, 481, 90, 98, 808
150, 881, 645, 431, 796
151, 146, 635, 295, 541
152, 617, 824, 148, 207
153, 254, 464, 465, 463
154, 463, 465, 72, 80
155, 465, 379, 79, 72
156, 464, 253, 379, 465
157, 63, 53, 467, 459
158, 459, 467, 466, 244
159, 467, 415, 247, 466
160, 53, 64, 415, 467
161, 43, 36, 469, 426
162, 426, 469, 468, 163
163, 469, 455, 164, 468
164, 36, 44, 455, 469
165, 149, 855, 574, 299
166, 918, 917, 381, 352
167, 331, 673, 627, 858
168, 804, 749, 400, 261
169, 65, 55, 474, 417
170, 417, 474, 473, 248
171, 474, 66, 74, 473
172, 55, 5, 66, 474
173, 180, 562, 583, 356
174, 588, 264, 654, 645
175, 671, 112, 123, 471
176, 644, 885, 624, 491
177, 286, 479, 480, 477
178, 477, 480, 371, 287
179, 480, 478, 154, 371
180, 479, 285, 478, 480
181, 740, 778, 267, 321
182, 447, 739, 236, 386
183, 933, 932, 331, 462
184, 938, 760, 750, 937
185, 280, 486, 487, 483
186, 483, 487, 484, 291
187, 487, 485, 292, 484
188, 486, 279, 485, 487
189, 935, 934, 634, 590
190, 792, 202, 878, 368
191, 629, 732, 782, 166
192, 921, 920, 180, 190
193, 783, 149, 299, 323
194, 937, 936, 234, 193
195, 791, 256, 262, 311
196, 338, 210, 633, 225
197, 253, 495, 496, 378
198, 378, 496, 493, 252
199, 496, 494, 239, 493
200, 495, 263, 494, 496
201, 344, 532, 747, 351
202, 334, 188, 114, 104
203, 367, 598, 552, 657
204, 607, 109, 120, 560
205, 858, 627, 224, 346
206, 636, 796, 409, 685
207, 669, 110, 121, 593
208, 723, 311, 885, 644
209, 271, 326, 344, 461
210, 575, 787, 711, 169
211, 953, 297, 717, 749
212, 887, 444, 658, 429
213, 284, 508, 509, 506
214, 506, 509, 507, 286
215, 509, 483, 291, 507
216, 508, 280, 483, 509
217, 675, 837, 179, 651
218, 596, 631, 318, 610
219, 491, 624, 577, 173
220, 786, 99, 92, 319
221, 248, 473, 513, 512
222, 512, 513, 420, 250
223, 513, 67, 75, 420
224, 473, 74, 67, 513
225, 283, 514, 515, 393
226, 393, 515, 477, 287
227, 515, 506, 286, 477
228, 514, 284, 506, 515
229, 932, 931, 673, 331
230, 351, 747, 195, 615
231, 722, 830, 860, 664
232, 960, 938, 611, 941
233, 160, 362, 523, 520
234, 520, 523, 521, 308
235, 523, 522, 310, 521
236, 362, 161, 522, 523
237, 303, 526, 527, 524
238, 524, 527, 521, 310
239, 527, 525, 308, 521
240, 526, 305, 525, 527
241, 263, 530, 531, 494
242, 494, 531, 528, 239
243, 531, 529, 240, 528
244, 530, 266, 529, 531
245, 941, 611, 759, 940
246, 884, 838, 854, 355
247, 569, 591, 788, 825
248, 176, 199, 568, 339
249, 266, 536, 537, 529
250, 529, 537, 534, 240
251, 537, 535, 278, 534
252, 536, 268, 535, 537
253, 161, 425, 540, 522
254, 522, 540, 538, 310
255, 540, 539, 309, 538
256, 425, 163, 539, 540
257, 272, 260, 184, 233
258, 611, 193, 545, 759
259, 444, 337, 703, 658
260, 437, 733, 258, 257
261, 164, 456, 547, 546
262, 546, 547, 422, 162
263, 547, 46, 57, 422
264, 456, 56, 46, 547
265, 307, 550, 551, 548
266, 548, 551, 432, 159
267, 551, 549, 156, 432
268, 550, 302, 549, 551
269, 651, 179, 734, 503
270, 931, 713, 699, 930
271, 324, 665, 343, 382
272, 700, 113, 1, 10
273, 286, 507, 558, 479
274, 479, 558, 556, 285
275, 558, 557, 288, 556
276, 507, 291, 557, 558
277, 179, 831, 223, 734
278, 822, 336, 497, 322
279, 341, 585, 105, 116
280, 209, 312, 585, 341
281, 439, 761, 824, 617
282, 834, 190, 430, 329
283, 959, 753, 313, 958
284, 670, 392, 168, 883
285, 308, 566, 567, 520
286, 520, 567, 413, 160
287, 567, 548, 159, 413
288, 566, 307, 548, 567
289, 171, 271, 461, 227
290, 321, 267, 726, 450
291, 916, 915, 563, 565
292, 198, 834, 329, 828
293, 285, 572, 573, 478
294, 478, 573, 407, 154
295, 573, 571, 158, 407
296, 572, 304, 571, 573
297, 860, 541, 256, 791
298, 919, 918, 352, 562
299, 207, 148, 175, 208
300, 174, 615, 15, 23
301, 714, 629, 166, 221
302, 404, 136, 125, 855
303, 405, 208, 259, 806
304, 796, 431, 389, 409
305, 954, 401, 783, 953
306, 681, 669, 593, 314
307, 947, 946, 200, 810
308, 342, 588, 645, 881
309, 960, 929, 760, 938
310, 587, 756, 666, 656
311, 794, 233, 584, 235
312, 579, 354, 761, 439
313, 797, 492, 399, 609
314, 429, 658, 500, 880
315, 624, 686, 510, 577
316, 337, 794, 235, 703
317, 857, 606, 217, 211
318, 711, 780, 220, 728
319, 775, 454, 505, 170
320, 449, 564, 141, 130
321, 211, 217, 891, 532
322, 886, 102, 95, 403
323, 872, 334, 104, 115
324, 879, 829, 453, 150
325, 570, 806, 436, 270
326, 167, 511, 737, 316
327, 938, 937, 193, 611
328, 623, 441, 498, 682
329, 665, 171, 227, 343
330, 936, 935, 590, 234
331, 855, 125, 135, 574
332, 282, 600, 601, 599
333, 599, 601, 359, 281
334, 601, 514, 283, 359
335, 600, 284, 514, 601
336, 252, 493, 603, 434
337, 434, 603, 395, 251
338, 603, 602, 238, 395
339, 493, 239, 602, 603
340, 589, 174, 23, 16
341, 885, 553, 686, 624
342, 343, 227, 489, 650
343, 219, 172, 385, 472
344, 532, 891, 570, 747
345, 672, 186, 681, 835
346, 559, 446, 181, 597
347, 922, 921, 190, 834
348, 155, 613, 614, 612
349, 612, 614, 124, 9
350, 614, 574, 135, 124
351, 613, 299, 574, 614
352, 230, 675, 651, 635
353, 511, 137, 126, 737
354, 738, 730, 866, 715
355, 630, 324, 382, 340
356, 239, 528, 620, 602
357, 602, 620, 618, 238
358, 620, 619, 241, 618
359, 528, 240, 619, 620
360, 578, 316, 269, 401
361, 831, 388, 182, 223
362, 836, 755, 501, 255
363, 606, 816, 145, 217
364, 499, 881, 796, 636
365, 189, 450, 631, 596
366, 593, 121, 111, 773
367, 312, 384, 872, 585
368, 489, 332, 174, 589
369, 168, 333, 667, 218
370, 733, 542, 215, 258
371, 260, 828, 594, 184
372, 759, 545, 763, 741
373, 316, 737, 404, 269
374, 333, 335, 705, 667
375, 772, 643, 675, 230
376, 232, 91, 99, 786
377, 355, 854, 326, 271
378, 724, 771, 892, 561
379, 329, 430, 879, 626
380, 296, 640, 641, 637
381, 637, 641, 638, 293
382, 641, 639, 290, 638
383, 640, 298, 639, 641
384, 225, 633, 674, 853
385, 930, 28, 26, 294
386, 930, 699, 25, 28
387, 808, 98, 91, 232
388, 244, 466, 649, 646
389, 646, 649, 647, 243
390, 649, 648, 246, 647
391, 466, 247, 648, 649
392, 598, 656, 623, 552
393, 728, 220, 183, 580
394, 888, 152, 598, 367
395, 402, 700, 10, 18
396, 917, 604, 327, 916
397, 921, 173, 888, 920
398, 442, 845, 11, 19
399, 340, 382, 336, 822
400, 253, 464, 655, 495
401, 495, 655, 653, 263
402, 655, 654, 264, 653
403, 464, 254, 654, 655
404, 565, 563, 672, 774
405, 627, 762, 863, 224
406, 914, 913, 607, 684
407, 953, 783, 323, 297
408, 384, 853, 334, 872
409, 319, 92, 100, 490
410, 864, 807, 107, 118
411, 533, 442, 19, 12
412, 806, 259, 391, 436
413, 652, 93, 101, 516
414, 365, 740, 321, 390
415, 157, 662, 663, 375
416, 375, 663, 30, 38
417, 663, 317, 3, 30
418, 662, 143, 317, 663
419, 184, 594, 838, 884
420, 890, 88, 96, 608
421, 957, 757, 228, 956
422, 203, 177, 205, 237
423, 381, 565, 774, 366
424, 739, 314, 628, 236
425, 608, 96, 89, 789
426, 148, 165, 889, 175
427, 933, 440, 625, 932
428, 946, 945, 660, 200
429, 542, 721, 475, 215
430, 451, 795, 809, 661
431, 202, 858, 346, 878
432, 411, 835, 739, 447
433, 354, 736, 470, 761
434, 276, 678, 679, 677
435, 677, 679, 600, 282
436, 679, 508, 284, 600
437, 678, 280, 508, 679
438, 315, 345, 733, 437
439, 399, 7, 88, 890
440, 948, 947, 810, 643
441, 318, 697, 264, 588
442, 231, 864, 118, 108
443, 226, 366, 736, 354
444, 674, 886, 403, 188
445, 339, 568, 511, 167
446, 336, 650, 187, 497
447, 256, 836, 255, 262
448, 913, 119, 109, 607
449, 925, 735, 723, 924
450, 281, 458, 689, 599
451, 599, 689, 688, 282
452, 689, 646, 243, 688
453, 458, 244, 646, 689
454, 277, 691, 692, 690
455, 690, 692, 678, 276
456, 692, 486, 280, 678
457, 691, 279, 486, 692
458, 298, 640, 695, 693
459, 693, 695, 323, 299
460, 695, 694, 297, 323
461, 640, 296, 694, 695
462, 263, 653, 698, 530
463, 530, 698, 696, 266
464, 698, 697, 265, 696
465, 653, 264, 697, 698
466, 760, 554, 821, 750
467, 924, 723, 644, 923
468, 172, 481, 808, 385
469, 774, 672, 835, 411
470, 635, 651, 503, 295
471, 187, 589, 16, 24
472, 390, 321, 450, 189
473, 227, 461, 332, 489
474, 9, 134, 709, 612
475, 612, 709, 707, 155
476, 709, 708, 301, 707
477, 134, 144, 708, 709
478, 403, 95, 8, 103
479, 577, 510, 587, 152
480, 500, 592, 324, 630
481, 716, 609, 178, 517
482, 661, 809, 770, 621
483, 632, 386, 714, 165
484, 754, 533, 12, 20
485, 838, 194, 857, 854
486, 296, 719, 720, 694
487, 694, 720, 717, 297
488, 720, 718, 274, 717
489, 719, 273, 718, 720
490, 386, 236, 629, 714
491, 595, 772, 230, 781
492, 664, 860, 791, 735
493, 314, 593, 773, 628
494, 326, 211, 532, 344
495, 584, 884, 355, 438
496, 667, 705, 704, 345
497, 492, 84, 7, 399
498, 266, 696, 727, 536
499, 536, 727, 725, 268
500, 727, 726, 267, 725
501, 696, 265, 726, 727
502, 218, 667, 345, 315
503, 920, 888, 367, 919
504, 893, 605, 214, 544
505, 177, 257, 775, 205
506, 345, 704, 542, 733
507, 625, 340, 822, 713
508, 166, 782, 729, 846
509, 510, 865, 756, 587
510, 560, 120, 110, 669
511, 270, 436, 21, 14
512, 182, 559, 597, 795
513, 516, 101, 94, 191
514, 215, 475, 210, 338
515, 581, 797, 609, 716
516, 258, 215, 338, 454
517, 798, 410, 864, 231
518, 436, 391, 13, 21
519, 498, 203, 237, 787
520, 152, 587, 656, 598
521, 666, 544, 153, 441
522, 247, 416, 743, 648
523, 648, 743, 742, 246
524, 743, 512, 250, 742
525, 416, 248, 512, 743
526, 242, 745, 746, 744
527, 744, 746, 688, 243
528, 746, 677, 282, 688
529, 745, 276, 677, 746
530, 311, 262, 553, 885
531, 750, 821, 444, 887
532, 925, 924, 576, 320
533, 735, 791, 311, 723
534, 153, 445, 177, 203
535, 755, 790, 147, 501
536, 958, 313, 757, 957
537, 824, 632, 165, 148
538, 144, 133, 752, 708
539, 708, 752, 751, 301
540, 752, 662, 157, 751
541, 133, 143, 662, 752
542, 594, 626, 194, 838
543, 610, 318, 588, 342
544, 883, 168, 218, 605
545, 795, 597, 748, 809
546, 713, 822, 322, 699
547, 576, 198, 828, 260
548, 859, 610, 342, 504
549, 765, 196, 481, 172
550, 782, 671, 471, 729
551, 541, 295, 836, 256
552, 931, 930, 294, 673
553, 913, 231, 108, 119
554, 199, 138, 127, 568
555, 181, 789, 196, 765
556, 332, 351, 615, 174
557, 192, 122, 112, 671
558, 937, 750, 887, 936
559, 929, 724, 561, 928
560, 633, 191, 886, 674
561, 328, 438, 171, 665
562, 249, 396, 767, 419
563, 419, 767, 742, 250
564, 767, 766, 246, 742
565, 396, 245, 766, 767
566, 163, 468, 769, 539
567, 539, 769, 768, 309
568, 769, 546, 162, 768
569, 468, 164, 546, 769
570, 352, 381, 366, 226
571, 710, 575, 169, 452
572, 470, 447, 386, 632
573, 590, 634, 792, 616
574, 712, 232, 786, 622
575, 825, 788, 794, 337
576, 763, 449, 130, 140
577, 942, 87, 84, 492
578, 634, 462, 202, 792
579, 228, 167, 316, 578
580, 585, 872, 115, 105
581, 853, 674, 188, 334
582, 267, 778, 779, 725
583, 725, 779, 777, 268
584, 779, 718, 273, 777
585, 778, 274, 718, 779
586, 650, 489, 589, 187
587, 564, 368, 131, 141
588, 257, 258, 454, 775
589, 580, 183, 106, 117
590, 682, 498, 787, 575
591, 787, 237, 780, 711
592, 205, 775, 170, 758
593, 440, 630, 340, 625
594, 243, 647, 785, 744
595, 744, 785, 784, 242
596, 785, 766, 245, 784
597, 647, 246, 766, 785
598, 428, 452, 410, 798
599, 169, 711, 728, 488
600, 438, 355, 271, 171
601, 622, 786, 319, 793
602, 388, 517, 559, 182
603, 658, 703, 592, 500
604, 932, 625, 713, 931
605, 190, 180, 356, 430
606, 892, 781, 146, 830
607, 616, 792, 368, 564
608, 684, 607, 560, 186
609, 391, 754, 20, 13
610, 771, 595, 781, 892
611, 736, 411, 447, 470
612, 761, 470, 632, 824
613, 770, 219, 472, 659
614, 322, 497, 17, 2
615, 224, 863, 317, 143
616, 941, 940, 543, 753
617, 255, 501, 730, 738
618, 310, 538, 801, 524
619, 524, 801, 799, 303
620, 801, 800, 304, 799
621, 538, 309, 800, 801
622, 238, 618, 803, 397
623, 397, 803, 784, 245
624, 803, 802, 242, 784
625, 618, 241, 802, 803
626, 929, 928, 554, 760
627, 686, 715, 865, 510
628, 454, 338, 225, 505
629, 389, 463, 80, 73
630, 737, 126, 136, 404
631, 915, 428, 798, 914
632, 917, 916, 565, 381
633, 503, 734, 790, 755
634, 183, 341, 116, 106
635, 208, 175, 683, 259
636, 175, 889, 687, 683
637, 452, 169, 488, 410
638, 762, 29, 27, 863
639, 924, 923, 198, 576
640, 233, 184, 884, 584
641, 285, 556, 812, 572
642, 572, 812, 799, 304
643, 812, 811, 303, 799
644, 556, 288, 811, 812
645, 305, 526, 815, 813
646, 813, 815, 814, 289
647, 815, 811, 288, 814
648, 526, 303, 811, 815
649, 147, 661, 621, 586
650, 940, 759, 741, 939
651, 935, 429, 880, 934
652, 430, 356, 829, 879
653, 300, 819, 820, 817
654, 817, 820, 818, 306
655, 820, 550, 307, 818
656, 819, 302, 550, 820
657, 952, 951, 771, 724
658, 923, 922, 834, 198
659, 320, 576, 260, 272
660, 837, 871, 831, 179
661, 158, 571, 823, 423
662, 423, 823, 768, 162
663, 823, 800, 309, 768
664, 571, 304, 800, 823
665, 758, 170, 312, 209
666, 927, 722, 664, 926
667, 793, 319, 490, 721
668, 810, 200, 871, 837
669, 306, 818, 827, 826
670, 826, 827, 525, 305
671, 827, 566, 308, 525
672, 818, 307, 566, 827
673, 145, 207, 208, 405
674, 604, 518, 710, 327
675, 928, 561, 722, 927
676, 206, 716, 517, 388
677, 504, 342, 881, 499
678, 918, 657, 604, 917
679, 807, 580, 117, 107
680, 845, 402, 18, 11
681, 214, 315, 437, 445
682, 821, 825, 337, 444
683, 926, 664, 735, 925
684, 757, 339, 167, 228
685, 291, 484, 833, 557
686, 557, 833, 814, 288
687, 833, 832, 289, 814
688, 484, 292, 832, 833
689, 210, 516, 191, 633
690, 410, 488, 807, 864
691, 220, 209, 341, 183
692, 687, 676, 442, 533
693, 865, 502, 893, 756
694, 956, 228, 578, 955
695, 960, 941, 753, 959
696, 488, 728, 580, 807
697, 275, 840, 841, 839
698, 839, 841, 777, 273
699, 841, 535, 268, 777
700, 840, 278, 535, 841
701, 302, 819, 844, 842
702, 842, 844, 707, 301
703, 844, 843, 155, 707
704, 819, 300, 843, 844
705, 554, 569, 825, 821
706, 591, 320, 272, 788
707, 150, 453, 816, 606
708, 401, 269, 149, 783
709, 155, 843, 848, 613
710, 613, 848, 693, 299
711, 848, 847, 298, 693
712, 843, 300, 847, 848
713, 276, 745, 850, 690
714, 690, 850, 849, 277
715, 850, 802, 241, 849
716, 745, 242, 802, 850
717, 300, 817, 852, 847
718, 847, 852, 639, 298
719, 852, 851, 290, 639
720, 817, 306, 851, 852
721, 656, 666, 441, 623
722, 914, 798, 231, 913
723, 295, 503, 755, 836
724, 609, 399, 890, 178
725, 945, 944, 581, 660
726, 781, 230, 635, 146
727, 753, 543, 176, 313
728, 301, 751, 856, 842
729, 842, 856, 549, 302
730, 856, 373, 156, 549
731, 751, 157, 373, 856
732, 335, 712, 622, 705
733, 237, 205, 758, 780
734, 221, 166, 846, 676
735, 916, 327, 428, 915
736, 217, 145, 405, 891
737, 628, 773, 192, 732
738, 915, 914, 684, 563
739, 951, 950, 595, 771
740, 277, 849, 862, 861
741, 861, 862, 534, 278
742, 862, 619, 240, 534
743, 849, 241, 619, 862
744, 732, 192, 671, 782
745, 934, 880, 440, 933
746, 409, 389, 73, 6
747, 756, 893, 544, 666
748, 502, 883, 605, 893
749, 828, 329, 626, 594
750, 366, 774, 411, 736
751, 789, 89, 97, 196
752, 505, 225, 853, 384
753, 729, 471, 700, 402
754, 936, 887, 429, 935
755, 721, 490, 652, 475
756, 275, 839, 868, 867
757, 867, 868, 637, 293
758, 868, 719, 296, 637
759, 839, 273, 719, 868
760, 278, 840, 870, 861
761, 861, 870, 691, 277
762, 870, 869, 279, 691
763, 840, 275, 869, 870
764, 730, 586, 670, 866
765, 960, 952, 724, 929
766, 471, 123, 113, 700
767, 261, 400, 740, 365
768, 289, 873, 874, 813
769, 813, 874, 826, 305
770, 874, 851, 306, 826
771, 873, 290, 851, 874
772, 293, 875, 876, 867
773, 867, 876, 869, 275
774, 876, 485, 279, 869
775, 875, 292, 485, 876
776, 290, 873, 877, 638
777, 638, 877, 875, 293
778, 877, 832, 292, 875
779, 873, 289, 832, 877
780, 269, 404, 855, 149
781, 461, 344, 351, 332
782, 568, 127, 137, 511
783, 835, 681, 314, 739
784, 235, 584, 438, 328
785, 741, 763, 140, 129
786, 949, 948, 643, 772
787, 891, 405, 806, 570
788, 597, 181, 765, 748
789, 928, 927, 569, 554
790, 543, 151, 199, 176
791, 178, 890, 608, 446
792, 392, 659, 333, 168
793, 188, 403, 103, 114
794, 368, 878, 142, 131
795, 939, 741, 129, 139
796, 660, 581, 716, 206
797, 200, 660, 206, 871
798, 748, 765, 172, 219
799, 699, 322, 2, 25
800, 880, 500, 630, 440
801, 889, 221, 676, 687
802, 446, 608, 789, 181
803, 462, 331, 858, 202
804, 950, 949, 772, 595
805, 631, 265, 697, 318
806, 934, 933, 462, 634
807, 940, 939, 151, 543
808, 923, 644, 491, 922
809, 809, 748, 219, 770
810, 563, 684, 186, 672
811, 234, 590, 616, 212
812, 657, 552, 518, 604
813, 173, 577, 152, 888
814, 450, 726, 265, 631
815, 562, 352, 226, 583
816, 552, 623, 682, 518
817, 749, 717, 274, 400
818, 236, 628, 732, 629
819, 346, 224, 143, 132
820, 788, 272, 233, 794
821, 643, 810, 837, 675
822, 196, 97, 90, 481
823, 185, 189, 596, 706
824, 383, 390, 189, 185
825, 443, 365, 390, 383
826, 353, 261, 365, 443
827, 555, 804, 261, 353
828, 955, 954, 804, 555
829, 330, 685, 81, 85
830, 680, 636, 685, 330
831, 642, 499, 636, 680
832, 213, 504, 499, 642
833, 448, 859, 504, 213
834, 201, 706, 859, 448
835, 764, 185, 706, 201
836, 197, 383, 185, 764
837, 776, 443, 383, 197
838, 204, 353, 443, 776
839, 882, 555, 353, 204
840, 956, 955, 555, 882
841, 229, 330, 85, 82
842, 731, 680, 330, 229
843, 805, 642, 680, 731
844, 476, 213, 642, 805
845, 222, 448, 213, 476
846, 582, 201, 448, 222
847, 325, 764, 201, 582
848, 519, 197, 764, 325
849, 894, 776, 197, 519
850, 216, 204, 776, 894
851, 387, 882, 204, 216
852, 957, 956, 882, 387
853, 701, 229, 82, 86
854, 702, 731, 229, 701
855, 482, 805, 731, 702
856, 668, 476, 805, 482
857, 895, 222, 476, 668
858, 896, 582, 222, 895
859, 897, 325, 582, 896
860, 898, 519, 325, 897
861, 899, 894, 519, 898
862, 900, 216, 894, 899
863, 901, 387, 216, 900
864, 958, 957, 387, 901
865, 902, 701, 86, 83
866, 903, 702, 701, 902
867, 904, 482, 702, 903
868, 905, 668, 482, 904
869, 906, 895, 668, 905
870, 907, 896, 895, 906
871, 908, 897, 896, 907
872, 909, 898, 897, 908
873, 910, 899, 898, 909
874, 911, 900, 899, 910
875, 912, 901, 900, 911
876, 959, 958, 901, 912
877, 942, 902, 83, 87
878, 943, 903, 902, 942
879, 944, 904, 903, 943
880, 945, 905, 904, 944
881, 946, 906, 905, 945
882, 947, 907, 906, 946
883, 948, 908, 907, 947
884, 949, 909, 908, 948
885, 950, 910, 909, 949
886, 951, 911, 910, 950
887, 952, 912, 911, 951
888, 960, 959, 912, 952
*ELSET,ELSET=contact_source
101, 102, 103, 104, 105, 106, 107, 108, 109, 110, 
111, 112, 113, 114, 115, 116, 117, 118, 119, 120, 
121, 122, 
*ELSET,ELSET=contact_drain
39, 40, 41, 42, 43, 44, 45, 46, 47, 48, 
49, 50, 51, 52, 53, 54, 55, 56, 57, 58, 
59, 60, 
*ELSET,ELSET=probe_A
77, 78, 79, 80, 81, 82, 83, 84, 
*ELSET,ELSET=probe_B
17, 18, 19, 20, 21, 22, 
*ELSET,ELSET=walls
1, 2, 3, 4, 5, 6, 7, 8, 9, 10, 
11, 12, 13, 14, 15, 16, 23, 24, 25, 26, 
27, 28, 29, 30, 31, 32, 33, 34, 35, 36, 
37, 38, 61, 62, 63, 64, 65, 66, 67, 68, 
69, 70, 71, 72, 73, 74, 75, 76, 85, 86, 
87, 88, 89, 90, 91, 92, 93, 94, 95, 96, 
97, 98, 99, 100, 123, 124, 125, 126, 127, 128, 
129, 130, 131, 132, 133, 134, 135, 136, 137, 138, 
139, 140, 141, 142, 143, 144, 
*ELSET,ELSET=domain
145, 146, 147, 148, 149, 150, 151, 152, 153, 154, 
155, 156, 157, 158, 159, 160, 161, 162, 163, 164, 
165, 166, 167, 168, 169, 170, 171, 172, 173, 174, 
175, 176, 177, 178, 179, 180, 181, 182, 183, 184, 
185, 186, 187, 188, 189, 190, 191, 192, 193, 194, 
195, 196, 197, 198, 199, 200, 201, 202, 203, 204, 
205, 206, 207, 208, 209, 210, 211, 212, 213, 214, 
215, 216, 217, 218, 219, 220, 221, 222, 223, 224, 
225, 226, 227, 228, 229, 230, 231, 232, 233, 234, 
235, 236, 237, 238, 239, 240, 241, 242, 243, 244, 
245, 246, 247, 248, 249, 250, 251, 252, 253, 254, 
255, 256, 257, 258, 259, 260, 261, 262, 263, 264, 
265, 266, 267, 268, 269, 270, 271, 272, 273, 274, 
275, 276, 277, 278, 279, 280, 281, 282, 283, 284, 
285, 286, 287, 288, 289, 290, 291, 292, 293, 294, 
295, 296, 297, 298, 299, 300, 301, 302, 303, 304, 
305, 306, 307, 308, 309, 310, 311, 312, 313, 314, 
315, 316, 317, 318, 319, 320, 321, 322, 323, 324, 
325, 326, 327, 328, 329, 330, 331, 332, 333, 334, 
335, 336, 337, 338, 339, 340, 341, 342, 343, 344, 
345, 346, 347, 348, 349, 350, 351, 352, 353, 354, 
355, 356, 357, 358, 359, 360, 361, 362, 363, 364, 
365, 366, 367, 368, 369, 370, 371, 372, 373, 374, 
375, 376, 377, 378, 379, 380, 381, 382, 383, 384, 
385, 386, 387, 388, 389, 390, 391, 392, 393, 394, 
395, 396, 397, 398, 399, 400, 401, 402, 403, 404, 
405, 406, 407, 408, 409, 410, 411, 412, 413, 414, 
415, 416, 417, 418, 419, 420, 421, 422, 423, 424, 
425, 426, 427, 428, 429, 430, 431, 432, 433, 434, 
435, 436, 437, 438, 439, 440, 441, 442, 443, 444, 
445, 446, 447, 448, 449, 450, 451, 452, 453, 454, 
455, 456, 457, 458, 459, 460, 461, 462, 463, 464, 
465, 466, 467, 468, 469, 470, 471, 472, 473, 474, 
475, 476, 477, 478, 479, 480, 481, 482, 483, 484, 
485, 486, 487, 488, 489, 490, 491, 492, 493, 494, 
495, 496, 497, 498, 499, 500, 501, 502, 503, 504, 
505, 506, 507, 508, 509, 510, 511, 512, 513, 514, 
515, 516, 517, 518, 519, 520, 521, 522, 523, 524, 
525, 526, 527, 528, 529, 530, 531, 532, 533, 534, 
535, 536, 537, 538, 539, 540, 541, 542, 543, 544, 
545, 546, 547, 548, 549, 550, 551, 552, 553, 554, 
555, 556, 557, 558, 559, 560, 561, 562, 563, 564, 
565, 566, 567, 568, 569, 570, 571, 572, 573, 574, 
575, 576, 577, 578, 579, 580, 581, 582, 583, 584, 
585, 586, 587, 588, 589, 590, 591, 592, 593, 594, 
595, 596, 597, 598, 599, 600, 601, 602, 603, 604, 
605, 606, 607, 608, 609, 610, 611, 612, 613, 614, 
615, 616, 617, 618, 619, 620, 621, 622, 623, 624, 
625, 626, 627, 628, 629, 630, 631, 632, 633, 634, 
635, 636, 637, 638, 639, 640, 641, 642, 643, 644, 
645, 646, 647, 648, 649, 650, 651, 652, 653, 654, 
655, 656, 657, 658, 659, 660, 661, 662, 663, 664, 
665, 666, 667, 668, 669, 670, 671, 672, 673, 674, 
675, 676, 677, 678, 679, 680, 681, 682, 683, 684, 
685, 686, 687, 688, 689, 690, 691, 692, 693, 694, 
695, 696, 697, 698, 699, 700, 701, 702, 703, 704, 
705, 706, 707, 708, 709, 710, 711, 712, 713, 714, 
715, 716, 717, 718, 719, 720, 721, 722, 723, 724, 
725, 726, 727, 728, 729, 730, 731, 732, 733, 734, 
735, 736, 737, 738, 739, 740, 741, 742, 743, 744, 
745, 746, 747, 748, 749, 750, 751, 752, 753, 754, 
755, 756, 757, 758, 759, 760, 761, 762, 763, 764, 
765, 766, 767, 768, 769, 770, 771, 772, 773, 774, 
775, 776, 777, 778, 779, 780, 781, 782, 783, 784, 
785, 786, 787, 788, 789, 790, 791, 792, 793, 794, 
795, 796, 797, 798, 799, 800, 801, 802, 803, 804, 
805, 806, 807, 808, 809, 810, 811, 812, 813, 814, 
815, 816, 817, 818, 819, 820, 821, 822, 823, 824, 
825, 826, 827, 828, 829, 830, 831, 832, 833, 834, 
835, 836, 837, 838, 839, 840, 841, 842, 843, 844, 
845, 846, 847, 848, 849, 850, 851, 852, 853, 854, 
855, 856, 857, 858, 859, 860, 861, 862, 863, 864, 
865, 866, 867, 868, 869, 870, 871, 872, 873, 874, 
875, 876, 877, 878, 879, 880, 881, 882, 883, 884, 
885, 886, 887, 888, 889, 890, 891, 892, 893, 894, 
895, 896, 897, 898, 899, 900, 901, 902, 903, 904, 
905, 906, 907, 908, 909, 910, 911, 912, 913, 914, 
915, 916, 917, 918, 919, 920, 921, 922, 923, 924, 
925, 926, 927, 928, 929, 930, 931, 932, 933, 934, 
935, 936, 937, 938, 939, 940, 941, 942, 943, 944, 
945, 946, 947, 948, 949, 950, 951, 952, 953, 954, 
955, 956, 957, 958, 959, 960, 961, 962, 963, 964, 
965, 966, 967, 968, 969, 970, 971, 972, 973, 974, 
975, 976, 977, 978, 979, 980, 981, 982, 983, 984, 
985, 986, 987, 988, 989, 990, 991, 992, 993, 994, 
995, 996, 997, 998, 999, 1000, 1001, 1002, 1003, 1004, 
1005, 1006, 1007, 1008, 1009, 1010, 1011, 1012, 1013, 1014, 
1015, 1016, 1017, 1018, 1019, 1020, 1021, 1022, 1023, 1024, 
1025, 1026, 1027, 1028, 1029, 1030, 1031, 1032, 
*NSET,NSET=contact_source
1, 8, 103, 104, 105, 106, 107, 108, 109, 110, 
111, 112, 113, 114, 115, 116, 117, 118, 119, 120, 
121, 122, 123, 
*NSET,NSET=contact_drain
4, 5, 45, 46, 47, 48, 49, 50, 51, 52, 
53, 54, 55, 56, 57, 58, 59, 60, 61, 62, 
63, 64, 65, 
*NSET,NSET=probe_A
6, 7, 81, 82, 83, 84, 85, 86, 87, 
*NSET,NSET=probe_B
2, 3, 25, 26, 27, 28, 29, 
*NSET,NSET=walls
1, 2, 3, 4, 5, 6, 7, 8, 9, 10, 
11, 12, 13, 14, 15, 16, 17, 18, 19, 20, 
21, 22, 23, 24, 30, 31, 32, 33, 34, 35, 
36, 37, 38, 39, 40, 41, 42, 43, 44, 66, 
67, 68, 69, 70, 71, 72, 73, 74, 75, 76, 
77, 78, 79, 80, 88, 89, 90, 91, 92, 93, 
94, 95, 96, 97, 98, 99, 100, 101, 102, 124, 
125, 126, 127, 128, 129, 130, 131, 132, 133, 134, 
135, 136, 137, 138, 139, 140, 141, 142, 143, 144, 
*NSET,NSET=domain
1, 2, 3, 4, 5, 6, 7, 8, 9, 10, 
11, 12, 13, 14, 15, 16, 17, 18, 19, 20, 
21, 22, 23, 24, 25, 26, 27, 28, 29, 30, 
31, 32, 33, 34, 35, 36, 37, 38, 39, 40, 
41, 42, 43, 44, 45, 46, 47, 48, 49, 50, 
51, 52, 53, 54, 55, 56, 57, 58, 59, 60, 
61, 62, 63, 64, 65, 66, 67, 68, 69, 70, 
71, 72, 73, 74, 75, 76, 77, 78, 79, 80, 
81, 82, 83, 84, 85, 86, 87, 88, 89, 90, 
91, 92, 93, 94, 95, 96, 97, 98, 99, 100, 
101, 102, 103, 104, 105, 106, 107, 108, 109, 110, 
111, 112, 113, 114, 115, 116, 117, 118, 119, 120, 
121, 122, 123, 124, 125, 126, 127, 128, 129, 130, 
131, 132, 133, 134, 135, 136, 137, 138, 139, 140, 
141, 142, 143, 144, 145, 146, 147, 148, 149, 150, 
151, 152, 153, 154, 155, 156, 157, 158, 159, 160, 
161, 162, 163, 164, 165, 166, 167, 168, 169, 170, 
171, 172, 173, 174, 175, 176, 177, 178, 179, 180, 
181, 182, 183, 184, 185, 186, 187, 188, 189, 190, 
191, 192, 193, 194, 195, 196, 197, 198, 199, 200, 
201, 202, 203, 204, 205, 206, 207, 208, 209, 210, 
211, 212, 213, 214, 215, 216, 217, 218, 219, 220, 
221, 222, 223, 224, 225, 226, 227, 228, 229, 230, 
231, 232, 233, 234, 235, 236, 237, 238, 239, 240, 
241, 242, 243, 244, 245, 246, 247, 248, 249, 250, 
251, 252, 253, 254, 255, 256, 257, 258, 259, 260, 
261, 262, 263, 264, 265, 266, 267, 268, 269, 270, 
271, 272, 273, 274, 275, 276, 277, 278, 279, 280, 
281, 282, 283, 284, 285, 286, 287, 288, 289, 290, 
291, 292, 293, 294, 295, 296, 297, 298, 299, 300, 
301, 302, 303, 304, 305, 306, 307, 308, 309, 310, 
311, 312, 313, 314, 315, 316, 317, 318, 319, 320, 
321, 322, 323, 324, 325, 326, 327, 328, 329, 330, 
331, 332, 333, 334, 335, 336, 337, 338, 339, 340, 
341, 342, 343, 344, 345, 346, 347, 348, 349, 350, 
351, 352, 353, 354, 355, 356, 357, 358, 359, 360, 
361, 362, 363, 364, 365, 366, 367, 368, 369, 370, 
371, 372, 373, 374, 375, 376, 377, 378, 379, 380, 
381, 382, 383, 384, 385, 386, 387, 388, 389, 390, 
391, 392, 393, 394, 395, 396, 397, 398, 399, 400, 
401, 402, 403, 404, 405, 406, 407, 408, 409, 410, 
411, 412, 413, 414, 415, 416, 417, 418, 419, 420, 
421, 422, 423, 424, 425, 426, 427, 428, 429, 430, 
431, 432, 433, 434, 435, 436, 437, 438, 439, 440, 
441, 442, 443, 444, 445, 446, 447, 448, 449, 450, 
451, 452, 453, 454, 455, 456, 457, 458, 459, 460, 
461, 462, 463, 464, 465, 466, 467, 468, 469, 470, 
471, 472, 473, 474, 475, 476, 477, 478, 479, 480, 
481, 482, 483, 484, 485, 486, 487, 488, 489, 490, 
491, 492, 493, 494, 495, 496, 497, 498, 499, 500, 
501, 502, 503, 504, 505, 506, 507, 508, 509, 510, 
511, 512, 513, 514, 515, 516, 517, 518, 519, 520, 
521, 522, 523, 524, 525, 526, 527, 528, 529, 530, 
531, 532, 533, 534, 535, 536, 537, 538, 539, 540, 
541, 542, 543, 544, 545, 546, 547, 548, 549, 550, 
551, 552, 553, 554, 555, 556, 557, 558, 559, 560, 
561, 562, 563, 564, 565, 566, 567, 568, 569, 570, 
571, 572, 573, 574, 575, 576, 577, 578, 579, 580, 
581, 582, 583, 584, 585, 586, 587, 588, 589, 590, 
591, 592, 593, 594, 595, 596, 597, 598, 599, 600, 
601, 602, 603, 604, 605, 606, 607, 608, 609, 610, 
611, 612, 613, 614, 615, 616, 617, 618, 619, 620, 
621, 622, 623, 624, 625, 626, 627, 628, 629, 630, 
631, 632, 633, 634, 635, 636, 637, 638, 639, 640, 
641, 642, 643, 644, 645, 646, 647, 648, 649, 650, 
651, 652, 653, 654, 655, 656, 657, 658, 659, 660, 
661, 662, 663, 664, 665, 666, 667, 668, 669, 670, 
671, 672, 673, 674, 675, 676, 677, 678, 679, 680, 
681, 682, 683, 684, 685, 686, 687, 688, 689, 690, 
691, 692, 693, 694, 695, 696, 697, 698, 699, 700, 
701, 702, 703, 704, 705, 706, 707, 708, 709, 710, 
711, 712, 713, 714, 715, 716, 717, 718, 719, 720, 
721, 722, 723, 724, 725, 726, 727, 728, 729, 730, 
731, 732, 733, 734, 735, 736, 737, 738, 739, 740, 
741, 742, 743, 744, 745, 746, 747, 748, 749, 750, 
751, 752, 753, 754, 755, 756, 757, 758, 759, 760, 
761, 762, 763, 764, 765, 766, 767, 768, 769, 770, 
771, 772, 773, 774, 775, 776, 777, 778, 779, 780, 
781, 782, 783, 784, 785, 786, 787, 788, 789, 790, 
791, 792, 793, 794, 795, 796, 797, 798, 799, 800, 
801, 802, 803, 804, 805, 806, 807, 808, 809, 810, 
811, 812, 813, 814, 815, 816, 817, 818, 819, 820, 
821, 822, 823, 824, 825, 826, 827, 828, 829, 830, 
831, 832, 833, 834, 835, 836, 837, 838, 839, 840, 
841, 842, 843, 844, 845, 846, 847, 848, 849, 850, 
851, 852, 853, 854, 855, 856, 857, 858, 859, 860, 
861, 862, 863, 864, 865, 866, 867, 868, 869, 870, 
871, 872, 873, 874, 875, 876, 877, 878, 879, 880, 
881, 882, 883, 884, 885, 886, 887, 888, 889, 890, 
891, 892, 893, 894, 895, 896, 897, 898, 899, 900, 
901, 902, 903, 904, 905, 906, 907, 908, 909, 910, 
911, 912, 913, 914, 915, 916, 917, 918, 919, 920, 
921, 922, 923, 924, 925, 926, 927, 928, 929, 930, 
931, 932, 933, 934, 935, 936, 937, 938, 939, 940, 
941, 942, 943, 944, 945, 946, 947, 948, 949, 950, 
951, 952, 953, 954, 955, 956, 957, 958, 959, 960, 
